LAMMPS (30 Jul 2021)
  using 1 OpenMP thread(s) per MPI task
package omp 0
using multi-threaded neighbor list subroutines
echo both

include		in.partitions
variable        pid world 0
include		in.temp
variable        temperature equal 260.28
variable	tempDamp equal 100.0
include		in.pressure
variable        pressure equal 7500.0
variable        pressureDamp equal 1000.0 # This is 1 ps
include		in.seed
variable        seed world 745823

units		real
atom_style	full
read_restart    restart.lmp.${pid}
read_restart    restart.lmp.0
Reading restart file ...
  restart file = 30 Jul 2021, LAMMPS = 30 Jul 2021
  restoring atom style full from restart
  triclinic box = (-3.1890779 -0.023347615 -0.14781624) to (14.799077 22.603347 19.377814) with tilt (-0.012661511 -6.7421172 0.052176321)
  4 by 4 by 4 MPI processor grid
  restoring pair style lj/cut/tip4p/long/omp from restart
  restoring bond style harmonic/omp from restart
  restoring angle style harmonic/omp from restart
  1008 atoms
  672 bonds
  336 angles
Finding 1-2 1-3 1-4 neighbors ...
  special bond factors lj:    0        0        0       
  special bond factors coul:  0        0        0       
     2 = max # of 1-2 neighbors
     1 = max # of 1-3 neighbors
     1 = max # of 1-4 neighbors
     2 = max # of special neighbors
  special bonds CPU = 0.829 seconds
  read_restart CPU = 1.042 seconds

include 	in.setup
variable	out_freq equal 1000
variable	out_freq2 equal 10000
variable	out_freq3 equal 1000

timestep	2.0

neigh_modify    delay 7 every 1

include		in.tip4p
# This is TIP4P/Ice

# create groups ###
group ox type 2
336 atoms in group ox
group hy type 1
672 atoms in group hy

# set charges - beside manually ###
set group ox charge -1.1794
Setting atom values ...
  336 settings made for charge
set group hy charge 0.5897
Setting atom values ...
  672 settings made for charge

# ### TIP3P Potential Parameters ###
pair_style lj/cut/tip4p/long/omp 2 1 1 1 0.1577 8.5
pair_coeff 1 1*2 0.000 0.000
pair_coeff 2 2 0.21084 3.1668
bond_style  harmonic
bond_coeff  1 450 0.9572
angle_style harmonic
angle_coeff 1 55 104.52
kspace_style pppm/tip4p/omp 1.0e-5
pair_modify tail yes

thermo          ${out_freq}
thermo          1000
thermo_style    custom step temp pe etotal epair emol press lx ly lz vol pxx pyy pzz pxy pxz pyz enthalpy

restart 	${out_freq3} restart.lmp.${pid} restart2.lmp.${pid}
restart 	1000 restart.lmp.${pid} restart2.lmp.${pid}
restart 	1000 restart.lmp.0 restart2.lmp.${pid}
restart 	1000 restart.lmp.0 restart2.lmp.0


include         in.dump
dump            myDump all atom ${out_freq2} dump.water.${pid}
dump            myDump all atom 10000 dump.water.${pid}
dump            myDump all atom 10000 dump.water.0
dump            myDump2 all dcd ${out_freq2} dump.dcd
dump            myDump2 all dcd 10000 dump.dcd
dump_modify     myDump append yes
dump_modify     myDump2 append yes


variable natoms 	equal  "count(all)"                        # NUMBER ATOMS
variable H      	equal  "enthalpy/v_natoms"                 # ENTHALPY-per-atom
variable Vol      	equal  "vol/v_natoms"                 # volume-per-atom
fix AVG all 		ave/time ${out_freq} 1 ${out_freq} v_Vol v_H file vol_enthalpy.dat
fix AVG all 		ave/time 1000 1 ${out_freq} v_Vol v_H file vol_enthalpy.dat
fix AVG all 		ave/time 1000 1 1000 v_Vol v_H file vol_enthalpy.dat



fix 		1 all shake 1e-6 200 0 b 1 a 1
       0 = # of size 2 clusters
       0 = # of size 3 clusters
       0 = # of size 4 clusters
     336 = # of frozen angles
  find clusters CPU = 0.369 seconds
fix             2 all nph tri ${pressure} ${pressure} ${pressureDamp}
fix             2 all nph tri 7500 ${pressure} ${pressureDamp}
fix             2 all nph tri 7500 7500 ${pressureDamp}
fix             2 all nph tri 7500 7500 1000
fix             3 all temp/csvr ${temperature} ${temperature} ${tempDamp} ${seed}
fix             3 all temp/csvr 260.28 ${temperature} ${tempDamp} ${seed}
fix             3 all temp/csvr 260.28 260.28 ${tempDamp} ${seed}
fix             3 all temp/csvr 260.28 260.28 100 ${seed}
fix             3 all temp/csvr 260.28 260.28 100 745823


run             250000
PPPM initialization ...
  extracting TIP4P info from pair style
  using 12-bit tables for long-range coulomb (../kspace.cpp:340)
  G vector (1/distance) = 0.37925102
  grid = 24 27 36
  stencil order = 5
  estimated absolute RMS force accuracy = 0.0024487873
  estimated relative force accuracy = 7.3744503e-06
  using double precision FFTW3
  3d grid and FFT values/proc = 4050 480
Last active /omp style is kspace_style pppm/tip4p/omp
Neighbor list info ...
  update every 1 steps, delay 7 steps, check yes
  max neighbors/atom: 2000, page size: 100000
  master list distance cutoff = 10.8154
  ghost atom cutoff = 10.8154
  binsize = 5.4077, bins = 5 5 4
  1 neighbor lists, perpetual/occasional/extra = 1 0 0
  (1) pair lj/cut/tip4p/long/omp, perpetual
      attributes: half, newton on, omp
      pair build: half/bin/newton/tri/omp
      stencil: half/bin/3d/tri
      bin: standard
Per MPI rank memory allocation (min/avg/max) = 9.328 | 9.339 | 9.356 Mbytes
Step Temp PotEng TotEng E_pair E_mol Press Lx Ly Lz Volume Pxx Pyy Pzz Pxy Pxz Pyz Enthalpy 
 2000000    268.30513   -4805.9996   -4269.3562   -4805.9996            0    9567.2659    17.988155    22.626694     19.52563    7947.1753    9634.8607    11086.652    7980.2853    1152.7383   -146.36904    17.970188   -3160.4967 
 2001000    266.08044   -4837.7094   -4305.5157   -4837.7094            0    7447.6835     18.27764    22.555944     19.36009    7981.5731    7231.5849      7794.19    7317.2755    942.45067   -145.93344    2442.3193   -3438.5825 
 2002000    263.46363   -4825.6184   -4298.6586   -4825.6184            0    7233.2291    17.995727    22.682126    19.557819    7983.1369    8012.2326    6057.8663    7629.5882    -1309.641   -1562.8613    1210.1221   -3456.5236 
 2003000    255.40826   -4823.7829   -4312.9348   -4823.7829            0    6656.3198    18.120513    22.807802    19.406001    8020.2881    5725.1762    6107.1087    8136.6745    798.62191   -582.37795    2466.1284   -3534.3605 
 2004000       251.66   -4842.5564   -4339.2054   -4842.5564            0    7036.6853    18.023716    22.703585    19.451009    7959.4103    7164.8708    7936.6258    6008.5593   -686.24335    807.10442    303.54314   -3522.3881 
 2005000    256.04193   -4807.2578   -4295.1423   -4807.2578            0    7345.6758    18.099217    22.851478    19.352253    8003.9731    6529.7372    7518.3902    7988.8999   -834.18316    574.30739   -227.53332   -3437.6835 
 2006000    257.05565     -4809.55    -4295.407     -4809.55            0    6942.1984    18.121899    22.938274    19.297806    8021.8102    6925.5284    7504.4338    6396.6328   -1052.6473    525.49755   -238.56227   -3483.2401 
 2007000    255.61867   -4814.5683   -4303.2994   -4814.5683            0    8660.6837    17.892134     22.77355    19.489067    7941.1593    10206.671    8632.0278    7143.3522   -1512.2538   -1059.8911   -2192.9247   -3300.2739 
 2008000    258.82048   -4813.9333   -4296.2603   -4813.9333            0    7708.4423    18.060465     22.90927    19.313253    7990.8982    8387.5047     7701.586    7036.2364   -1213.5821   -226.40544   -1156.7943   -3397.9258 
 2009000    256.95632   -4788.9313   -4274.9869   -4788.9313            0    8554.1811    18.142973    22.732389     19.39136    7997.6395    7664.2364    9285.6224    8712.6844   -1205.6029    1538.3521    1192.0295   -3277.2497 
 2010000    266.39421   -4821.4299   -4288.6086   -4821.4299            0     5133.043    18.175948    22.869761    19.342711    8040.3701    4668.9033    5164.3398    5565.8859   -224.81848    1247.0158    448.52859   -3686.7052 
 2011000    251.60916   -4811.1171   -4307.8677   -4811.1171            0    7583.5046    18.069578    22.853959      19.2654    7955.8665    6345.9746    7766.4367    8638.1024    1069.5455    133.56729    2745.9831   -3427.9677 
 2012000     259.5342   -4764.2158   -4245.1154   -4764.2158            0    8031.0238    17.903874     23.11587    19.287018    7982.1953     8627.566    8399.4651    7066.0405   -268.46802   -318.84511     1292.426   -3310.2068 
 2013000    287.19964   -4831.8668    -4257.432   -4831.8668            0    7699.0245    17.954626    23.099906    19.249209    7983.6128    6910.3192     6979.434    9207.3202     168.5498   -1145.5817   -307.09177    -3361.013 
 2014000      264.283   -4830.3367   -4301.7381   -4830.3367            0    6409.8523    18.078301    22.984151    19.205366    7980.1061    7389.9794    5425.6121    6413.9655   -664.63419   -816.75113   -1303.3768   -3555.7488 
 2015000    267.94883   -4832.1483   -4296.2175   -4832.1483            0    5600.7433    17.890579    22.975749    19.454029    7996.5677     5356.104    5711.9909     5734.135   -1723.1985    392.60907    193.84762   -3643.0491 
 2016000    269.42674   -4822.6438    -4283.757   -4822.6438            0     7939.637    18.096403    23.082485    19.042109    7954.0782    7206.3831    6496.0648    10116.463   -256.86367     452.6552    1368.3678   -3362.7427 
 2017000    268.00644   -4830.5952   -4294.5492   -4830.5952            0    8034.3069    17.895179    22.934005    19.332722    7934.3062    8226.8045     8209.812    7666.3043    288.52812   -875.96064    603.81348   -3364.8697 
 2018000    264.16043   -4853.6685    -4325.315   -4853.6685            0    7493.5303    18.037331    22.935341    19.302902    7985.4627    7353.0735    7500.0651    7627.4521   -784.76447    476.45456   -483.27636   -3452.6201 
 2019000    257.85671    -4809.626   -4293.8807    -4809.626            0    8970.7971    18.038147    22.733238    19.368178    7942.2212    9029.7852    9371.0289    8511.5773   -531.08515   -63.504033    754.94961   -3254.8009 
 2020000    260.27219   -4822.9616   -4302.3851   -4822.9616            0    5933.5991    17.979336    23.001317    19.395542    8020.9955     6987.766    5943.8066    4869.2248   -1962.1935   -764.82832    32.404886   -3608.2846 
 2021000    256.99721   -4829.9564   -4315.9303   -4829.9564            0    8742.9212    17.971026    22.928225    19.295566    7950.6167     7214.731    8965.8822     10048.15   -1163.9332    1151.9329   -510.57773   -3302.1747 
 2022000    265.70488   -4828.7074   -4297.2648   -4828.7074            0    8530.1532     17.96047    22.957906    19.295869    7956.3576    8420.4462    9009.9367    8160.0769    496.45879    400.77996    926.94753   -3307.4658 
 2023000    253.21798   -4838.9469   -4332.4797   -4838.9469            0     7052.817    17.821379    23.179101    19.306704    7975.2814    6843.4189    7107.7987    7207.2334    610.60952    606.83279    546.98613   -3512.1573 
 2024000    271.38222    -4780.565   -4237.7671    -4780.565            0     6890.545    17.849976    23.405479    19.166014    8007.3161    7030.3936    6380.6268    7260.6145    56.724845    5.9757277      -390.82   -3433.0996 
 2025000    271.04531   -4812.3544   -4270.2303   -4812.3544            0    9402.3137    17.791998    23.203154    19.158541    7909.2295    9497.1415    9158.2179    9551.5816    368.50318    8.5195162    1785.2618   -3185.6923 
 2026000    265.08965   -4802.1846   -4271.9726   -4802.1846            0    9338.2027    17.785876     23.12657    19.258182    7921.3969    8076.9658    9696.1282    10241.514   -1710.6985    1222.7603   -1057.0077   -3193.1725 
 2027000    270.53714   -4803.6509   -4262.5432   -4803.6509            0    6764.9289    17.967083    23.122626    19.264199    8003.2372    6987.3223    6874.0807    6433.3838   -295.93161   -14.443583    1337.0148   -3472.9475 
 2028000    255.76984   -4821.4807   -4309.9094   -4821.4807            0    9983.9554    17.878464     22.98521    19.278834    7922.4489    11317.267    9167.5029    9467.0965    162.11482    992.62788    776.82814   -3156.3553 
 2029000    257.66059   -4803.6588   -4288.3058   -4803.6588            0    8337.9805    17.872015    23.060913    19.255516    7936.0644    8124.1278    8437.6768    8452.1369    259.65444    670.97418    90.177135   -3323.2733 
 2030000    276.40985   -4819.5086   -4266.6547   -4819.5086            0    8433.5323    17.918915    22.908541    19.396701    7962.2718     7949.661    9199.1282    8151.8077   -1661.1249    366.09675   -962.81514   -3287.3397 
 2031000    268.78134   -4804.3134   -4266.7175   -4804.3134            0    6076.8968    18.101376    22.873424     19.43621    8047.3772    5281.0169    5217.1938    7732.4798   -26.759907   -513.68616    1011.9781   -3553.5163 
 2032000     257.0611   -4801.9832   -4287.8292   -4801.9832            0    5944.5964    17.943274    22.926394    19.484834    8015.5652    6842.3323    5635.0706    5356.3863   -1235.4939   -14.506948   -200.95559   -3592.9131 
 2033000    268.37029   -4835.8214   -4299.0477   -4835.8214            0     7957.057    18.123975    22.938964     19.15997    7965.6661    9147.4441    7257.4953    7466.2317   -281.51314    213.60282   -1611.2101   -3374.6679 
 2034000    243.11652   -4812.3948   -4326.1318   -4812.3948            0    8190.3007    17.840053    22.865761     19.52497    7964.7505    8821.4971    9463.6455    6285.7594   -353.84181    281.93077    -137.6657   -3374.7652 
 2035000    260.25311   -4843.3152   -4322.7768   -4843.3152            0     9578.045    18.008153    23.038561    19.035113    7897.3242    9159.2089     8833.207    10741.719    592.18967     828.9012    921.69943   -3219.6315 
 2036000    267.00158   -4856.5894   -4322.5533   -4856.5894            0    7407.3174    17.690352    23.230756    19.328942    7943.4269    9133.8802    7422.5729    5665.4992   -84.313859    989.58347    91.615331   -3464.4398 
 2037000    264.39095   -4821.4127   -4292.5981   -4821.4127            0    7283.2795    17.960424    23.121359    19.184203    7966.6131    7347.9496    6837.7868    7664.1022   -365.14796    359.37396   -69.327454   -3446.3912 
 2038000    255.06162   -4809.1297   -4298.9749   -4809.1297            0    8286.6649    17.768519    23.196379    19.311025    7959.3348    7630.2314    8125.1358    9104.6275    1230.0772     600.3942    1938.3379   -3337.0694 
 2039000    266.32709   -4844.4712   -4311.7841   -4844.4712            0    5761.9138    17.968254      23.1417    19.180287    7975.4693    6922.4726    4823.0471    5540.2216    344.27022   -78.497299   -741.49752   -3641.5926 
 2040000    254.68417   -4803.6064   -4294.2066   -4803.6064            0    8081.3087     17.96614    23.055103    19.218354    7960.4579    7950.9798     8197.987    8094.9592       335.29    494.41105    927.37205   -3356.0062 
 2041000    260.87339   -4826.4415   -4304.6625   -4826.4415            0    6231.4884      17.9088    23.229578    19.286598    8023.4918    7646.5682    6049.2939    4998.6032    274.08452    1205.6382    1740.4514   -3575.4887 
 2042000    270.72418   -4834.1312   -4292.6494   -4834.1312            0    8343.1287    17.962818    22.870658    19.298518    7928.2453    8535.7473    9166.1727    7327.4662    1377.1775    316.19633    292.67012   -3327.9724 
 2043000     264.5061   -4806.7796   -4277.7347   -4806.7796            0    6721.3925    18.055308    23.033834    19.216482    7991.8077    5060.3734     6483.926    8619.8781    980.32546   -2157.0755    626.52805   -3494.3408 
 2044000    259.27515   -4850.1236   -4331.5412   -4850.1236            0    6935.2078    17.806634    23.018839    19.430125    7964.1761    7366.5653    6027.2821     7411.776    1351.5298   -908.67235   -1609.8768   -3526.0214 
 2045000    252.51487   -4854.7496   -4349.6887   -4854.7496            0    5861.0402     18.27993    22.879163    19.229273    8042.2493    4287.3731    6386.7601    6908.9874    841.09856    368.05004    263.03862   -3662.2593 
 2046000    248.29712   -4820.1047   -4323.4798   -4820.1047            0    8848.8251    17.865587     22.87377    19.422073    7936.8952    8314.1782    9713.2067    8519.0904    174.18555    528.90405    286.45271   -3299.2152 
 2047000    258.09838    -4816.452   -4300.2233    -4816.452            0      8365.46     18.03874    22.905734    19.235325     7947.855    7394.1348    8586.0197    9116.2257     446.7836    1229.5163    1331.0213   -3330.5719 
 2048000    253.17536   -4833.0689   -4326.6869   -4833.0689            0    7441.1324     17.91094    22.868089    19.511293    7991.6105    6976.4183     8377.921    6969.0578   -81.546555    2325.7476   -1880.9987   -3459.4271 
 2049000       271.41   -4824.1185   -4281.2649   -4824.1185            0    7465.0286    18.124381    22.937379    19.231278    7994.9383    7195.7237    6683.9344    8515.4277   -625.40684   -227.68648   -1268.4278   -3410.8577 
 2050000    258.92442   -4840.8862   -4323.0054   -4840.8862            0    8246.2245    17.927213    22.943939    19.347989     7958.232    7493.9012    8454.7859    8789.9865    772.17375    1014.3309    364.39991   -3365.9267 
 2051000    270.00796   -4775.9045   -4235.8552   -4775.9045            0    6673.7198     17.96295    23.294253    19.117773    7999.5167    5987.3481    6415.8011    7618.0102    165.33033    44.814165   -56.417693   -3457.2674 
 2052000    252.21366   -4822.8566   -4318.3981   -4822.8566            0    9781.3033    17.891157    23.013352    19.202975    7906.5462    11540.586    10119.348    7683.9756    1418.5464    2285.4766    2330.1677   -3190.5271 
 2053000    248.10904   -4828.9576   -4332.7089   -4828.9576            0    7563.0726    17.804375    23.279828    19.233445    7971.9319     7848.948    7848.2262    6992.0436   -1484.6863    1520.2285   -436.52527   -3453.4075 
 2054000    264.30557   -4781.9637   -4253.3199   -4781.9637            0    9425.9746     17.90688     23.23315    18.992982    7901.7116    8310.9661    9364.4734    10602.484   -1429.1496    93.039974   -294.15543    -3167.086 
 2055000    274.78575   -4835.2409   -4285.6355   -4835.2409            0    6011.9779    17.902857    23.172469    19.290577    8002.7614    8456.5549    5001.9648    4577.4141    587.20341   -75.029096    -468.8135   -3583.9651 
 2056000    275.85093   -4809.6639   -4257.9279   -4809.6639            0    7576.6456    17.882179     23.10134    19.308928    7976.5624    8961.8972    7094.3855    6673.6542    156.79303    80.271782   -89.975763   -3376.5369 
 2057000    241.63215   -4825.6332    -4342.339   -4825.6332            0    5429.2582    18.103303    23.106778    19.268732     8060.284    4770.6131    6177.7563    5339.4052   -398.56405    113.58555    332.82609   -3704.1244 
 2058000    262.80844   -4825.6817   -4300.0324   -4825.6817            0    7387.2105    17.908464    22.965092    19.415863    7985.1526    8256.7246    8406.7249     5498.182    -200.5821   -145.26713    -598.4924   -3439.7529 
 2059000     261.8457   -4832.6925   -4308.9688   -4832.6925            0    6738.6811    18.025246    23.218614    19.147337    8013.5668    7963.9035    5522.8223    6729.3176    -159.9028    33.042734   -617.22337   -3521.4215 
 2060000    258.43939   -4817.9155   -4301.0048   -4817.9155            0    7843.3764    17.835892    23.020855    19.413639    7971.1914    9728.5782    7518.1074    6283.4436   -667.49945    829.80839     1060.673   -3389.1993 
 2061000     264.1743   -4800.8196   -4272.4384   -4800.8196            0    8174.3434     17.97162    23.100477    19.162824    7955.5037    8836.1876    7485.9418    8200.9009   -242.38327    1674.9228    -2612.867   -3324.0276 
 2062000    275.92667   -4800.6526   -4248.7651   -4800.6526            0    6267.5428    17.937869    23.212589    19.301784    8036.9615    6577.6263    6287.8472    5937.1549    1032.8416    404.50276    87.178709   -3514.1412 
 2063000    277.88297   -4821.5348   -4265.7345   -4821.5348            0    6913.7339    17.864752    23.261267    19.178011    7969.5523    7377.3593    5923.2341    7440.6083    963.97103    752.78142    135.49675   -3462.1668 
 2064000    256.43846   -4823.1128   -4310.2042   -4823.1128            0    6339.2161    17.854987    23.294652    19.270921    8015.2715    6094.2211    6263.9967    6659.4305   -1215.5724    797.50851   -1301.1711   -3569.1846 
 2065000    248.19815   -4828.0179    -4331.591   -4828.0179            0    6323.6361    17.943514    23.378576    19.108945    8016.0843    6431.9856    5244.2456    7294.6772    846.24212   -185.43729    1734.8376   -3592.3176 
 2066000    263.20116   -4793.5577   -4267.1229   -4793.5577            0    7248.8264    17.813599    23.202101    19.361837    8002.4976    7626.9641    6794.0548    7325.4602   -773.20654   -197.28319    15.010657   -3421.1253 
 2067000    251.17401   -4814.0613   -4311.6822   -4814.0613            0     6336.905    18.022687    23.263628    19.084913    8001.7905    4848.1547    6411.4723    7751.0881    59.620232    93.150501    1342.3053   -3572.1787 
 2068000    262.88158   -4816.0632   -4290.2676   -4816.0632            0    8680.1496    17.759838    23.250898    19.161849    7912.5443    9805.4269    7661.9208    8573.1012   -747.97443   -91.652191    912.16686   -3288.6101 
 2069000    250.40015   -4838.0292    -4337.198   -4838.0292            0    7852.6399    17.761689    23.234047    19.233767    7937.3121     6933.678    6964.8741    9659.3677   -2192.0136   -1177.4173   -1109.9072   -3428.1956 
 2070000    261.59795    -4817.926   -4294.6978    -4817.926            0    6167.1024    18.041153     23.15105    19.220322    8027.7833    5266.2764    6994.3501    6240.6806    1176.6863    771.15077    629.43944    -3572.672 
 2071000    267.31454   -4821.5353   -4286.8732   -4821.5353            0    8326.7757    17.875882    23.105509    19.183861    7923.5363    7633.3954    8376.2402    8970.6915   -2153.5692   -59.756299   -917.43752   -3324.6589 
 2072000    274.46844   -4794.6351   -4245.6643   -4794.6351            0    6762.0555      17.9762    23.109128    19.328105    8029.1717    6315.2589    7194.5197    6776.3878   -1578.6365    17.958842    529.55756   -3453.8463 
 2073000    248.50349   -4836.9193   -4339.8816   -4836.9193            0    7228.5784    17.986262    23.038213    19.215857    7962.5003    5996.1573    6950.7547    8738.8231   -137.39699   -126.93226    2279.7779   -3500.4637 
 2074000    248.47142   -4834.9827   -4338.0092   -4834.9827            0    7766.6087    18.008348    22.895465    19.283663    7950.8375    6817.0837    7648.6585     8834.084    -987.8037   -1115.5435   -526.54234   -3437.4336 
 2075000    263.50085   -4839.1065   -4312.0722   -4839.1065            0    7517.7386    18.000821    22.949385    19.312533    7978.1575    6719.9429    8182.5257    7650.7472    -177.6712    627.27087    3315.5192    -3437.359 
 2076000    256.23288   -4804.8939   -4292.3965   -4804.8939            0    8007.6571     18.05751    23.001373    19.242068    7992.1451     6962.326    9564.7324     7495.913   -934.85705    1701.0378   -838.17988   -3359.0461 
 2077000    256.76288   -4856.8793   -4343.3218   -4856.8793            0    7361.1587    17.886819    23.016995     19.30179    7946.5631    7188.4526    7865.4765    7029.5469    228.98183    2081.1242   -17.272154   -3490.2189 
 2078000      276.642    -4802.035   -4248.7169    -4802.035            0    8372.1265    17.891957    23.095418    19.242217    7951.3115     9280.422     7579.119    8256.8386    210.57821    316.78472   -226.68848   -3277.8707 
 2079000    262.30516   -4851.3281   -4326.6854   -4851.3281            0    6300.4543    18.010904     23.02213    19.298571    8002.1405    5132.9853    6112.6776    7655.7001   -300.65997   -861.69511    1658.7948   -3591.4034 
 2080000    272.22322   -4813.4279   -4268.9478   -4813.4279            0    7632.6401     17.79042    23.425091    19.164137     7986.505    9606.4846    6193.4785    7097.9572   -852.33162    632.68732   -1413.8697   -3379.9362 
 2081000    267.40783   -4841.0027    -4306.154   -4841.0027            0    5176.4923    17.915325    23.270885    19.271807    8034.5215     5001.833    4322.7595    6204.8844    545.82131    280.75302    1401.1625   -3699.5972 
 2082000    248.33473   -4821.9954   -4325.2953   -4821.9954            0    8574.6301    17.712284    23.191596    19.289113    7923.5071    9647.8326    7692.2734    8383.7844    342.58911   -2.2440882    1931.7975   -3334.4434 
 2083000     265.7303   -4810.9121   -4279.4187   -4810.9121            0    7330.9103    17.811299    23.281693    19.261207    7987.1833    6498.1398    7715.9794    7778.6116    816.80184    548.49107     65.52698   -3425.4785 
 2084000    267.31348   -4800.8027   -4266.1427   -4800.8027            0    6014.0884    18.008676    23.094332    19.347197    8046.4673    8912.0166    5392.1134    3738.1352   -665.45267    762.72808   -986.88431   -3560.3926 
 2085000    265.52993   -4844.7361   -4313.6434   -4844.7361            0    6910.9579    17.995418    23.007958    19.189665    7945.2475    4340.2205    7973.6554    8418.9979   -602.39277   -510.82155   -1197.3055    -3512.848 
 2086000    256.87978   -4817.8116   -4304.0203   -4817.8116            0    8011.1051    17.688572    22.925429    19.537681    7922.8834    10927.975    6967.2997     6138.041   -586.74169   -780.29388    335.36956   -3378.3601 
 2087000    261.26332    -4844.072   -4321.5131    -4844.072            0    7639.5291    18.058137    22.996208    19.185047    7966.9492    6261.2723    8183.0433    8474.2718   -282.00381   -29.072834   -1341.0413   -3433.8778 
 2088000    264.27142   -4834.1575    -4305.582   -4834.1575            0    5357.2455      17.9658    23.017197    19.397509     8021.304    6123.2638    3706.7676    6241.7052   -580.05725   -1408.6366   -457.24065   -3678.8781 
 2089000    245.01993   -4844.6276   -4354.5575   -4844.6276            0    7011.8379    17.983365    23.012629    19.262632    7971.7345    5311.1038    7132.1622    8592.2476    90.538844    677.92623   -477.97193   -3539.3642 
 2090000    268.50463   -4849.2515   -4312.2091   -4849.2515            0    9259.7944    17.919919    22.851639     19.32866    7915.0771    9174.4117    9461.1225     9143.849   -463.88982    1434.5444   -482.61208   -3243.3206 
 2091000    255.55066   -4832.3478   -4321.2149   -4832.3478            0    7176.9741    17.879471    22.992313    19.456071    7998.2038    7882.2382    5758.6058    7890.0783      512.566   -699.02043    -888.2005   -3484.0524 
 2092000    256.47677   -4821.8974   -4308.9122   -4821.8974            0     6258.706     18.11094    22.905074    19.219279    7972.7802    4938.3501     6320.249    7517.5188    630.43828    -1708.538    1061.3965   -3581.1823 
 2093000    264.80952   -4808.7406   -4279.0888   -4808.7406            0    6722.6555    17.964778    22.800268    19.476554    7977.6305     6547.456    7674.9295    5945.5809    398.29672   -33.575403   -1179.3452   -3496.9377 
 2094000    256.00064   -4825.0954   -4313.0625   -4825.0954            0    8219.7176    18.259332    22.707267    19.313977    8007.9521    8574.8015    8470.7806    7613.5707    775.65271    811.44303   -170.71853      -3353.1 
 2095000    264.26855   -4867.6499   -4339.0801   -4867.6499            0    8620.4988    18.068443    22.543956    19.418636    7909.8741     9020.262    9448.9846    7392.2497   -14.829407    892.19338   -282.74423   -3344.6418 
 2096000    263.66514   -4817.3707   -4290.0079   -4817.3707            0    6709.6173    18.222364    22.744219    19.300467    7999.1448    6878.0297    6157.3406    7093.4817   -223.28748   -453.16984    226.66054   -3507.2685 
 2097000    272.50896   -4852.5803   -4307.5287   -4852.5803            0    7533.8879    17.973595    22.748032    19.499877     7972.796    8849.5427    7967.4154    5784.7057    1859.0519   -419.36003    2020.4553   -3431.5255 
 2098000    257.17414   -4822.9121    -4308.532   -4822.9121            0    6660.1701    18.130242    22.646373    19.451619    7986.5279    6698.1842     7148.774    6133.5522    98.493583    339.44112   -845.80397   -3532.7866 
 2099000    260.70746   -4828.2813   -4306.8342   -4828.2813            0    7177.2144    18.168713    22.640604     19.40841    7983.6615    5621.1129    8951.4573    6959.0729    134.66234    438.02073    331.86053   -3471.1659 
 2100000    267.41662   -4842.1311   -4307.2648   -4842.1311            0    7962.6089    18.055788    22.636497    19.523098    7979.4766    8848.3769    7307.3091    7732.1407     154.8903   -856.33562   -101.01443   -3380.6363 
 2101000     257.6275   -4862.8521   -4347.5653   -4862.8521            0    6226.8083    18.234429    22.595667    19.448825    8013.2874    5603.8294    6983.8838    6092.7117   -1948.0318   -582.50246   -1759.3947   -3619.8657 
 2102000    260.68423   -4826.0818   -4304.6811   -4826.0818            0    6889.6271    18.173406    22.688325    19.434555    8013.3361    7451.2692    7185.0468    6032.5652    724.93443    119.44031   -295.22197   -3499.5159 
 2103000    265.69254   -4820.1269   -4288.7089   -4820.1269            0      8343.95    18.040604    22.637411    19.494697    7961.4896    7706.0447    7902.5323     9423.273    174.11095   -661.84822    292.59429   -3319.8916 
 2104000    264.65712   -4809.2204   -4279.8735   -4809.2204            0    7860.2289    18.292165     22.38891    19.501972    7986.8696    5929.4333    9062.8632    8588.3902    881.89177   -1061.9411    376.90799   -3364.3117 
 2105000    276.09681   -4804.4968   -4252.2691   -4804.4968            0    8068.5186    18.226529    22.463043    19.444925    7961.2054    6802.1678    9062.0599    8341.3281   -1739.6091   -376.47504    208.60126   -3315.4656 
 2106000    246.10046   -4827.0968   -4334.8655   -4827.0968            0    8178.3605    18.221382    22.500834    19.488625    7990.2641    5667.0114    9289.8228    9578.2472    186.89597    -287.5733    1543.5906   -3381.8428 
 2107000    275.87648   -4841.2549   -4289.4678   -4841.2549            0    8235.9534     18.13042    22.620968    19.357789    7939.1647    8753.4411    8108.1657    7846.2535   -1351.7903   -535.56249   -449.78161   -3335.8715 
 2108000    258.15679   -4797.6951   -4281.3496   -4797.6951            0    7639.3886    18.059478    22.748088    19.502286     8011.902    5581.4338    8929.5646    8407.1675    606.55011    870.68605    843.67974   -3388.7224 
 2109000     264.6133   -4840.8561   -4311.5968   -4840.8561            0    6451.7626    18.028726    22.875034     19.37737    7991.3768    6815.2206    6840.4984    5699.5689   -1510.0571     -614.358    946.46777   -3559.6694 
 2110000     265.9252   -4820.9035   -4289.0202   -4820.9035            0    6129.9207    18.058067    22.902888    19.364222    8008.6912     5198.584    6376.2965    6814.8815    16.685813   -868.44065    581.56122   -3573.0544 
 2111000    276.15121   -4809.9751   -4257.6386   -4809.9751            0    8714.5594    17.952657    22.878671    19.372951     7957.109    10008.368    6340.9745    9794.3358    740.49381   -1090.4399   -76.991519   -3246.3465 
 2112000    264.38972   -4820.4154   -4291.6033   -4820.4154            0    6918.6723    17.919437    23.128377    19.221103    7966.1378     6424.116    7098.5265    7233.3744    928.02218    161.24282   -1249.1563   -3487.8061 
 2113000    260.11919   -4832.3059   -4312.0354   -4832.3059            0    9269.3103    17.935464    22.827827    19.262139    7886.4526    7183.7382    10105.757    10518.435   -607.35754    951.17757   -133.79767    -3245.918 
 2114000    260.11352   -4813.5817   -4293.3225   -4813.5817            0    6712.0688    17.906417    23.220416    19.277308    8015.3979    8089.3619    5096.9575    6949.8869    1019.5238   -295.42983    964.59372   -3508.7061 
 2115000    262.51889   -4824.9252    -4299.855   -4824.9252            0    8427.5894    17.923776    23.059327    19.317029    7983.9253    9867.1703    8814.4128    6601.1851   -19.205018    681.12751   -28.452396   -3318.5687 
 2116000    255.15983   -4844.0135   -4333.6623   -4844.0135            0    6290.2734    17.967339    23.014893    19.299941     7980.842    6820.1987    6464.5595     5586.062    1454.1166    189.92061   -286.17432   -3601.5224 
 2117000    248.21562   -4828.6028   -4332.1409   -4828.6028            0    7769.3293    17.747046    23.307765    19.160598     7925.666    8671.6584    7505.4947    7130.8349   -753.21362     1192.309   -1637.5631   -3434.1019 
 2118000    246.93856   -4815.5669   -4321.6593   -4815.5669            0    8813.9912    17.814865    23.134115    19.206034    7915.4049      8825.84    8239.9874    9376.1462     136.4915   -689.17934   -1202.3441   -3304.1892 
 2119000    251.50544   -4830.2686   -4327.2266   -4830.2686            0     6486.272    17.941159    23.171788    19.338784     8039.688    6531.1752    5730.0535    7197.5872    735.17448     891.3998    737.64855   -3566.7073 
 2120000    251.17582   -4820.1227   -4317.7401   -4820.1227            0    5430.0165    18.028398    23.018288    19.353348     8031.308    5375.2659    5504.2971    5410.4865   -618.60353    851.52233   -1736.4537    -3681.731 
 2121000    254.64453   -4831.8208   -4322.5003   -4831.8208            0    6680.0729    17.948395      22.9123    19.343966    7954.9934    7063.0714    6333.9775    6643.1699    1163.0432   -47.610203    962.93297   -3547.5088 
 2122000    257.38779   -4780.8776   -4266.0702   -4780.8776            0    9683.7281    17.867973    23.059148    19.285055    7945.8327    9332.9777    9361.3488    10356.858    567.81083   -847.28223    463.68719   -3143.9022 
 2123000    259.04981   -4819.1926    -4301.061   -4819.1926            0    8821.7855    17.864793    23.114825    19.191507     7924.971    9104.5962    8747.8822     8612.878    62.144267    8.0785451     212.0156   -3281.4604 
 2124000    255.39907   -4800.5626   -4289.7329   -4800.5626            0      7622.89     17.98812    22.966721    19.296241    7971.8202    8814.5499    8469.3495    5584.7706    872.38722   -747.65083   -383.25842   -3403.4894 
 2125000     259.5504   -4779.9775   -4260.8447   -4779.9775            0    7615.4298    17.963368    23.095482    19.300834    8007.3878    7188.1317    7167.3166    8490.8413    939.76156   -521.81709    182.24143   -3371.5183 
 2126000    267.74852   -4843.5446   -4308.0144   -4843.5446            0    9807.1367    17.959869    22.859195    19.231627    7895.5088    8804.5679    10214.275    10402.568    324.87379    51.006765   -546.35703   -3178.7433 
 2127000    260.48559   -4845.0701   -4324.0668   -4845.0701            0    8008.0134    18.022929    22.972278    19.229665    7961.6145    7857.0732    8018.2529    8148.7139   -399.38046    237.83859   -122.38465   -3394.2405 
 2128000    249.58237    -4822.778   -4323.5824    -4822.778            0    6818.7062    18.129743    22.883409     19.34476    8025.5673    6021.6094    6764.8518    7669.6573     69.74563    398.84576    571.01253   -3525.4893 
 2129000    271.05156    -4800.843   -4258.7064    -4800.843            0    7041.3241    18.122702    22.700661    19.457335    8004.6954    8482.9241    6675.3943     5965.654   -293.41459   -174.90655    -907.1718   -3436.7003 
 2130000    258.77861   -4858.2383   -4340.6491   -4858.2383            0    6243.2905    17.965466    22.853968    19.472256    7994.9615    6970.1231    5897.5523    5862.1961   -1158.1362   -1117.1995    517.93516    -3612.692 
 2131000    253.95063   -4860.7078   -4352.7752   -4860.7078            0    6201.8327    18.072717    22.889862    19.364258    8010.6448    4804.8101    7262.8509     6537.837    521.67372   -384.62599   -502.04587   -3628.2334 
 2132000    260.03569   -4792.3817   -4272.2782   -4792.3817            0    8439.1178    18.195595    22.884467    19.107119    7956.1373    7868.6656    7972.0553    9476.6324    -1567.713   -824.65989   -1308.7162   -3293.0696 
 2133000    264.25532   -4791.2255   -4262.6822   -4791.2255            0    9527.5014    17.792865    22.862997    19.496939    7931.3201     11851.93    8569.1473     8161.427   -1302.1771   -697.90632   -1607.7378   -3160.6345 
 2134000    253.94773   -4842.8598    -4334.933   -4842.8598            0     7251.169    18.047364    22.968223    19.284589    7993.7682    6024.6098    7997.1103    7731.7867   -426.06887    71.073922   -588.07475   -3489.5851 
 2135000    255.19509   -4825.3243   -4314.9026   -4825.3243            0    9934.8757    17.915903    22.831273    19.285108     7888.436     10277.32    9709.5047    9817.8019   -958.02681   -91.638596    724.41603   -3171.9474 
 2136000    260.40252   -4804.3722    -4283.535   -4804.3722            0    8260.1948    18.108853    22.966929    19.182627    7978.1458    8757.9039    8650.8191    7371.8615    332.71324    61.628582    474.76373    -3322.436 
 2137000    261.29583   -4830.9707   -4308.3467   -4830.9707            0    7103.9249     18.02488    22.681535    19.460837    7956.2119    6304.8634    9191.3683    5815.5429    1532.6301    781.14725    1340.4015   -3484.0557 
 2138000    264.06127   -4832.5033   -4304.3481   -4832.5033            0    7240.7668    18.136492     22.58325    19.445959    7964.6939    7696.2384    8151.7135    5874.3483   -1020.9349   -117.31882   -1048.3103   -3463.2832 
 2139000     250.2409   -4827.4648   -4326.9521   -4827.4648            0     9032.557    18.155075    22.379152    19.515812    7929.1805    9485.1646    9741.4598    7871.0466    481.65588   -735.48375    545.52201   -3282.4365 
 2140000    264.39568   -4818.2718   -4289.4477   -4818.2718            0    7387.8761     18.19054    22.553769    19.530587    8012.7205    7718.3534    7575.7106    6869.5644   -1001.2176   -611.26516   -345.62066   -3426.1204 
 2141000    265.65827   -4833.9295   -4302.5802   -4833.9295            0    7106.1194    18.081413    22.659792    19.396373    7947.1028    6366.8025    7398.0861    7553.4697     431.5829   -1341.0045   -635.28096   -3478.9785 
 2142000    255.97619   -4811.6295   -4299.6455   -4811.6295            0     6842.882    18.057809    22.741272    19.462386    7992.3755    6408.2315    6874.0818    7246.3327    164.61963   -266.27798   -226.78892    -3502.035 
 2143000    265.63562   -4857.7496   -4326.4455   -4857.7496            0    5890.4623    18.171142    22.776163     19.39188    8025.6961    4104.9856    6689.0007    6877.4007    1226.4123    364.23386    1772.5863   -3636.9873 
 2144000    266.32259   -4824.6021    -4291.924   -4824.6021            0    8976.6525    18.007429    22.671851    19.454005    7942.3259    8643.7562    9845.6485     8440.553    165.05227    692.21113    989.74417   -3252.1523 
 2145000    260.18598   -4839.1353   -4318.7312   -4839.1353            0    5128.1417    18.197048    22.854812    19.422194    8077.4984    2969.3083    6719.0435    5696.0734   -309.05906    770.48606    585.95838   -3714.6257 
 2146000     259.3537   -4837.4793   -4318.7398   -4837.4793            0    7528.7313    18.011396      22.8509    19.316635    7950.2752    6954.9982    7956.4264    7674.7692    1006.9937    393.67519   -59.061311    -3445.809 
 2147000    246.15282   -4832.5044   -4340.1684   -4832.5044            0    8615.3985    17.974751    22.926488    19.261282     7937.534    6423.5487    9584.2914    9838.3554   -616.35136    748.62036     192.1866    -3342.843 
 2148000    253.85104   -4814.9047   -4307.1712   -4814.9047            0    8612.7773    18.024809    22.858122    19.330022    7964.2256    9542.3143    8704.8236    7591.1939   -476.98445    836.43519    833.53198   -3306.7966 
 2149000    262.34726   -4801.0839   -4276.3569   -4801.0839            0    6755.5035    18.003066    22.975235     19.35482    8005.6311    6631.1698    6534.7101    7100.6307    498.78774    216.71821    111.53325   -3487.6254 
 2150000    250.20632   -4820.0381   -4319.5945   -4820.0381            0    7247.6627    17.990495    22.990612    19.301257    7983.2408    8100.5026    7151.4702    6491.0155    237.28286   -912.30005    1362.6427   -3475.7681 
 2151000    273.75106   -4793.3667   -4245.8307   -4793.3667            0    7533.8376     17.87726    23.101172    19.308422    7974.1012    10170.573    5221.3869     7209.553    19.596513   -2265.2494     415.6567     -3369.69 
 2152000    274.22672   -4838.3725   -4289.8852   -4838.3725            0    8661.2631    17.868676    22.985177    19.292161    7923.5734    10319.198     8650.926    7013.6649    1181.5466    108.00527    302.69209   -3289.0139 
 2153000    272.27361   -4836.5307   -4291.9498   -4836.5307            0    7239.0681    18.011712    22.969496    19.319008    7992.6594    7559.0806    6863.7733    7294.3505   -655.49057    428.96969    -574.3801   -3448.1297 
 2154000    249.46778   -4812.3428   -4313.3764   -4812.3428            0    7570.9152    18.025743    22.974131    19.190121    7947.1239     6776.698    7536.8668    8399.1808    612.43114   -222.45729     125.1021   -3435.9024 
 2155000    250.99637   -4804.7851   -4302.7614   -4804.7851            0    9365.9505    17.763416    22.967771     19.36954    7902.5027    11151.523    9554.6205    7391.7084   -2333.2756   -251.30195   -1894.7393   -3223.3366 
 2156000    254.95776   -4842.8103   -4332.8633   -4842.8103            0    7212.4252    17.963393    23.056706    19.279271    7985.0245    6974.7346    7225.4202    7437.1209   -571.65772    924.08274   -681.29506   -3492.9519 
 2157000    253.35627   -4814.3883   -4307.6445   -4814.3883            0    8293.5607    18.028619    23.009943    19.222151    7974.0688    8809.2332     7683.495    8387.9539   -956.19185    675.29196   -1942.6372   -3343.1564 
 2158000    250.87585   -4832.6989   -4330.9162   -4832.6989            0    8254.3217    18.045041    22.971574    19.178281    7949.8385    7037.7588    7462.0699    10263.136   -303.01229   -304.13715    750.17376   -3373.9082 
 2159000    248.61989   -4822.9763   -4325.7058   -4822.9763            0    6792.0765    18.017929    22.831111    19.425027    7990.8604    8077.1043    5869.0975    6430.0276    947.24827   -71.017546   -51.621998   -3534.1674 
 2160000     261.2228   -4808.3037   -4285.8258   -4808.3037            0    7707.8634    17.946657     22.97066    19.381131    7989.8045     9896.929     7138.048    6088.6133    -291.5959   -932.51346    594.15021   -3387.6816 
 2161000    259.22705    -4846.325   -4327.8389    -4846.325            0    7843.5976    17.997885    22.846251    19.385499    7971.0107    9878.8595    8071.8662    5580.0673   -715.63988   -100.11112    1055.0981   -3416.0284 
 2162000    258.82015   -4817.2789   -4299.6066   -4817.2789            0    7302.6366    18.136881    22.712614    19.335465    7964.9736    8003.7068    7969.9097    5934.2931    656.70153   -520.88249   -512.03957   -3451.3252 
 2163000    256.19384   -4819.7115   -4307.2922   -4819.7115            0    9857.9413    18.078949    22.805324    19.240587    7932.8227    7900.6405    10777.142    10896.041   -2242.8495    1662.1994    575.63155   -3166.8064 
 2164000    261.63169   -4843.3994   -4320.1037   -4843.3994            0    6942.5738    18.137355    22.845504    19.276885    7987.5121    6135.4924    6899.4584    7792.7707   -1714.7808    299.71468   -616.27183   -3511.3655 
 2165000    250.95741   -4816.7291   -4314.7833   -4816.7291            0    7071.1733    18.014472    22.798592    19.403722    7969.1978    6926.6713    7241.5185    7045.3301   -267.12331   -499.83141    1732.7319   -3492.9533 
 2166000    276.62809    -4812.719   -4259.4286    -4812.719            0    6408.6115    18.213673     22.72318    19.413465    8034.7007    4061.9311    7688.9069    7474.9965   -1544.0533    -1145.799    1092.1255   -3508.4812 
 2167000    259.10179   -4835.6436    -4317.408   -4835.6436            0    8195.7357    17.893775    22.726998    19.565541    7956.7537    9411.6144     9150.398    6025.1946   -1641.5009    1.8224667   -685.74911   -3366.3659 
 2168000    261.33496   -4804.4792    -4281.777   -4804.4792            0    7555.0109    18.164367    22.920875    19.188986    7989.2036    6097.4875    7658.0748    8909.4705   -176.78893   -557.96539    543.98109   -3401.5099 
 2169000    276.29875   -4824.5752   -4271.9436   -4824.5752            0    7369.5045    17.921354    22.886699    19.481679    7990.6178    6454.8843    8941.0958    6712.5333   -171.18512    1045.8787    989.52438   -3413.1386 
 2170000    262.60175   -4820.7012   -4295.4653   -4820.7012            0    7524.8807    18.254283    22.915043    19.113606     7995.177    5611.3905    7795.8534    9167.3982    29.838268   -146.33147   -327.08562   -3418.0533 
 2171000    264.58972   -4805.4942   -4276.2821   -4805.4942            0     9352.431     17.77049    23.004368    19.438328    7946.3666    13060.846     8281.557    6714.8895   -97.555237   -455.15917   -604.87388   -3192.4325 
 2172000    262.91136   -4832.8962   -4307.0411   -4832.8962            0    8512.4381    18.132748    23.025716    18.934813    7905.6538    7005.6199    8447.2933    10084.401    147.85271    313.14882    850.12938   -3325.5923 
 2173000    267.19509   -4868.8234   -4334.4002   -4868.8234            0    6391.9209     17.89344    23.159891    19.334331    8012.3428    8286.3885    5528.4836    5360.8905   -1214.9864    1458.3121    352.10677   -3587.4927 
 2174000    253.25099   -4819.7172   -4313.1839   -4819.7172            0    8314.9607    17.929068    23.189107    19.099451    7940.7703    9132.2724    7924.9617    7887.6479   -932.70977   -1343.1522    -881.0667    -3350.245 
 2175000     267.7854    -4853.712   -4318.1081    -4853.712            0    7796.8576    17.781988    23.122802    19.344462    7953.8504     10941.58    5981.7432    6467.2491   -106.47073    -1124.738   -1175.9772   -3413.6824 
 2176000    264.31988   -4834.9786   -4306.3062   -4834.9786            0    8237.6166    17.819065    23.047388    19.346887    7945.4355    9058.5049    7316.1534    8338.1915   -527.73204   -900.89453    1395.5706   -3351.7639 
 2177000    275.66431    -4842.991   -4291.6283    -4842.991            0     6677.791    18.005166    23.023492    19.270573    7988.4581    6732.8421    7287.8273    6012.7035    937.55548     1165.691    2034.6837   -3513.6425 
 2178000    257.27229   -4802.4933   -4287.9169   -4802.4933            0    8440.1009    18.065904    22.910745    19.271914     7976.709    8034.9174    10467.136    6818.2496     752.9107    2122.7724    221.50751   -3306.0621 
 2179000    265.76772    -4817.223   -4285.6547    -4817.223            0    5633.4912    17.983826    22.836274    19.597495    8048.3694    6552.5225    6018.6173     4329.334   -1213.3145   -218.43034    114.42802   -3624.4112 
 2180000    262.38368   -4823.0063   -4298.2065   -4823.0063            0    6795.4099    18.048179    22.935703    19.302214    7990.1064    5272.9604     6987.827    8125.4423    800.13144   -472.60448   -538.48787   -3506.3543 
 2181000    261.68902   -4841.4236   -4318.0133   -4841.4236            0    8615.8342    17.952311     22.86571    19.315868     7929.016    7830.3325    8799.5306    9217.6394    502.17698   -466.15484    1652.8383   -3321.7078 
 2182000    264.69573   -4819.1476   -4289.7235   -4819.1476            0    8118.2828    18.025604     22.86535    19.310783    7959.1661    6220.5458     8132.969    10001.334    1716.7934    1201.7143    1690.4891   -3347.3835 
 2183000    248.39497    -4819.778   -4322.9574    -4819.778            0    9241.7887    17.956354    22.954884    19.250685    7934.8631    9350.9044    8003.9731    10370.489    582.73378    915.36736    987.57886   -3253.4806 
 2184000    260.30214   -4848.3745    -4327.738   -4848.3745            0    7922.5338    17.905295    22.929969    19.316594    7930.7729    8879.7661    8280.8689    6606.9662   -573.06642   -340.87924    693.46244   -3411.4004 
 2185000    268.19153   -4811.8067   -4275.3905   -4811.8067            0    6394.2955    18.213792    22.843798    19.351049    8051.4332    4724.6531    7164.8535    7293.3801    291.20731     1655.462    485.41695   -3524.5602 
 2186000    267.53818   -4819.1699   -4284.0605   -4819.1699            0    7374.5729    18.085567     22.59542    19.453068    7949.5154    7049.9614    8760.7971    6312.9603   -1011.9539    6.0574181    652.59893   -3429.0854 
 2187000    256.08773   -4828.4254   -4316.2183   -4828.4254            0    8578.4955     17.98571    22.887045    19.354854    7967.2275    10357.066    7450.7742    7927.6461    780.24322   -1514.5028    815.65853     -3319.45 
 2188000    256.32904   -4785.1658   -4272.4761   -4785.1658            0    9662.9904    18.017059    22.800901    19.352196    7949.9822    10187.983    10003.801    8797.1866   -240.15007   -548.92077    417.57634   -3152.1264 
 2189000    249.72718   -4847.4239   -4347.9387   -4847.4239            0    5425.9636    17.999709    23.103021    19.292747    8022.8431    6099.5847    5103.9365    5074.3694    53.842675    993.50187     -358.031   -3713.0742 
 2190000    278.13442   -4806.9463   -4250.6431   -4806.9463            0     8875.699    18.147302    22.682853    19.278659    7935.7241    6725.5626    10133.017    9768.5171   -49.356497    927.90449   -1407.0724   -3223.4195 
 2191000    248.25915   -4774.9326   -4278.3836   -4774.9326            0    8291.9132    17.852232    22.915007    19.473247    7966.1945    9133.7061    8141.2754    7600.7581   -580.60213    524.53855   -198.70121   -3315.0393 
 2192000    256.84291   -4812.4949   -4298.7773   -4812.4949            0    6350.3516    18.038438    22.851697    19.459927    8021.5557    5884.0428    6535.7657    6631.2464    804.90063   -131.80397    1640.7928    -3555.874 
 2193000    261.06317   -4830.0652   -4307.9066   -4830.0652            0    8313.0951    17.926387    22.732153    19.487994     7941.462    9523.5655    8157.6806    7258.0392   -652.03171     -966.028    -1021.377   -3345.0999 
 2194000    257.14868   -4814.7805   -4300.4513   -4814.7805            0    7740.7222    18.149894    22.795912    19.270963    7973.2334    6720.9029    8683.8986    7817.3651    1238.9364    532.12845   -714.42146   -3400.3491 
 2195000    264.67466   -4823.8809   -4294.4989   -4823.8809            0    7826.6252    17.874135    22.893581    19.466128    7965.5975    9031.7192    7463.7235     6984.433    467.37794   -57.835165   -747.98988   -3385.2793 
 2196000    247.01121   -4812.1302   -4318.0772   -4812.1302            0    5457.3741    18.133372    23.071771    19.296735     8073.156     5920.372    4368.9434    6082.8068   -2118.9811   -1569.7883   -85.969976   -3675.5331 
 2197000    262.24361   -4830.4877    -4305.968   -4830.4877            0     7734.352    17.908003    22.914038    19.367593    7947.3882    7278.0737    8217.1504     7707.832    575.74112    1336.9572    898.73468   -3409.5218 
 2198000    272.49123   -4841.8798   -4296.8637   -4841.8798            0    7129.1675    17.991795    23.056864    19.189189    7960.3349    8062.2834    6561.2943    6763.9248    294.46178    151.90873    884.39019    -3469.215 
 2199000    264.58988   -4809.3544   -4280.1419   -4809.3544            0    7681.4145    17.845423     23.02026    19.456415    7992.8176    9350.1219    6881.9362    6812.1855   -640.33608   -360.07898     175.7596   -3384.7421 
 2200000    263.14273    -4837.785   -4311.4671    -4837.785            0    7944.6834    18.106117    23.017873    19.120255    7968.6401    5906.1928    8776.4478    9151.4097    1130.0048    1549.8486    1756.9817   -3388.1801 
 2201000    256.00334    -4815.871   -4303.8326    -4815.871            0    7284.3038    17.779621    23.253746    19.310344    7983.7226    9642.1625    5531.5437    6679.2054    1663.9105   -114.24376   -956.93937    -3455.689 
 2202000    258.60577   -4827.7466   -4310.5031   -4827.7466            0    6000.3222    17.823416    23.469879    19.139989    8006.5145     6141.132    4614.6225    7245.2123    1164.4538   -897.26336   -1474.6313   -3609.8647 
 2203000    252.78312   -4837.3656   -4331.7681   -4837.3656            0    6573.9473    17.844083    23.143241    19.232285    7942.3552    6917.8817    6297.8774    6506.0829    1661.5379    1157.3102     1617.087   -3570.3005 
 2204000    241.97874   -4825.7898   -4341.8024   -4825.7898            0    7498.9075    17.903857    23.101721    19.292712    7979.6567    7641.5449    7640.5745    7214.6031    903.83936   -293.40509    74.868326   -3469.1162 
 2205000    250.22122   -4836.1527   -4335.6793   -4836.1527            0    7441.6081     18.08279    22.896131    19.334961    8005.1754    6093.2764    8473.6526    7757.8952   -432.62847    831.01818    466.83675   -3466.8919 
 2206000    257.58883     -4833.02   -4317.8105     -4833.02            0    8662.5461    17.868563    22.914495    19.368914    7930.5846    7915.2121    8024.7249    10047.701    -1356.019   -790.33971   -2201.5131   -3315.9053 
 2207000    262.38238   -4822.1097   -4297.3125   -4822.1097            0    8597.4516    17.988205    22.948961     19.28802    7962.2996    6816.1156    8621.3959    10354.843   -1293.0814    46.868459     -1668.96   -3298.9594 
 2208000    269.05982   -4821.9765   -4283.8236   -4821.9765            0     7048.457    17.962681    23.025404    19.250185    7961.8375    8236.4797    5763.6459    7145.2453    445.19239   -1445.8466    361.02605   -3465.3904 
 2209000    256.02912   -4819.0723   -4306.9825   -4819.0723            0    6701.0085    17.930653    22.959464    19.443585    8004.4994    5985.4385    7139.9109    6977.6761    191.54683    732.00681   -106.80372   -3524.7241 
 2210000    270.66466   -4831.4832   -4290.1204   -4831.4832            0    7414.9019    18.118316    22.911737    19.285694    8005.9172    6204.8458    6832.3032    9207.5568    1128.6107    821.44125    1121.9305   -3424.3706 
 2211000    266.63195   -4833.2608   -4299.9639   -4833.2608            0    8324.9177    18.019186    22.770734    19.420874    7968.5806    8577.4948    7832.2523    8565.0061    782.81653   -785.15819    2397.9433   -3332.4955 
 2212000    248.13998   -4784.4409   -4288.1303   -4784.4409            0    8165.3363    18.001685    22.854899    19.387761    7976.6423    8857.8748    8502.6478    7135.4863     784.2573   -941.47278   -913.77904   -3338.2473 
 2213000     254.0703   -4819.7654   -4311.5934   -4819.7654            0    6526.8487    18.080412    22.780995    19.409463    7994.5597    5747.2145     7401.724    6431.6078   -147.90542    533.32571    1833.0324   -3550.6121 
 2214000    253.87693   -4828.0897   -4320.3044   -4828.0897            0    7833.0065    18.166388     22.76268    19.377098    8012.7341    6887.0745    9438.1508    7173.7944   -658.71997    1065.0915   -947.00968   -3404.9588 
 2215000    256.10948   -4874.9648   -4362.7142   -4874.9648            0    6066.3043    18.075878    22.842308    19.334848    7983.2575    6017.7108    5767.1887    6414.0134   -436.05353   -176.94424    504.87798   -3656.4288 
 2216000    260.36421    -4826.159   -4305.3984    -4826.159            0    7904.2972    18.018682    22.904259    19.317777    7972.5348    7772.1965    6988.7238    8951.9713   -1406.3497    257.77354   -1042.4273   -3386.3559 
 2217000    244.27216   -4825.3142   -4336.7397   -4825.3142            0    7289.4439    17.977108    22.694285    19.484087    7949.0711    5281.3565    8663.4305    7923.5448    369.04394    1380.9967    1068.3812   -3491.6814 
 2218000    262.18537   -4818.8341   -4294.4309   -4818.8341            0    6097.8159    18.266091    22.976033     19.19531    8055.9319    5346.9557    6414.6098    6531.8822   -1631.3284   -1428.2619    363.76956   -3578.0138 
 2219000    263.17398   -4831.8742   -4305.4937   -4831.8742            0    8080.7816    17.839446    22.941748    19.369315    7927.2423    10837.657    7004.2481    6400.4399    896.87943    -718.3446    930.42133    -3371.269 
 2220000    256.08701   -4853.8604   -4341.6547   -4853.8604            0    7298.0667    17.941198    23.041431    19.223606    7946.8631    8435.2542    5702.5147    7756.4311   -524.16981   -132.41027   -648.79094   -3495.8318 
 2221000    256.92143   -4823.7639   -4309.8893   -4823.7639            0    7500.3822    17.859328     23.19577     19.21938    7961.8369    9110.3391    5624.4074    7766.4001   -182.41892   0.97669945   -157.13032   -3438.9808 
 2222000     245.4583   -4834.1887   -4343.2418   -4834.1887            0    5710.8083    17.904417    23.365482    19.172892    8020.8902    7035.3424     3370.132    6726.9505    1123.0335   -359.63573    3369.1879   -3675.2117 
 2223000      243.712   -4827.6691    -4340.215   -4827.6691            0    7273.3776    18.011608    22.974753     19.26487    7972.0393    6558.9426    7176.7257    8084.4646   -1282.8243   -740.21739    -368.5135   -3494.5829 
 2224000     270.0357   -4842.6084   -4302.5037   -4842.6084            0    5891.2512     17.99311    23.001161     19.31325    7993.0281    5891.8237    5656.4978    6125.4319   -481.99076    201.13656    934.78759   -3615.7598 
 2225000    260.70225   -4849.2174   -4327.7807   -4849.2174            0    7543.1332    18.045762    23.000153    19.177876    7959.8786     8305.303     6809.214    7514.8825   -1557.0689    84.528674   -1369.6934   -3452.1235 
 2226000    251.82466   -4810.2351   -4306.5547   -4810.2351            0    8080.3873    17.941737    22.995136    19.292142     7959.411    6608.1192    8928.1163    8704.9263    280.08519   -38.011233    1125.0614   -3368.5846 
 2227000    276.40762   -4803.0868   -4250.2374   -4803.0868            0    5942.3788    17.986868    23.033231    19.432187    8050.6715    6421.4537    6252.9688    5152.7137   -293.03325   -192.01579   -894.68004    -3552.538 
 2228000    265.61512   -4812.3358   -4281.0728   -4812.3358            0    9125.9811    18.139833    22.823008    19.194922    7946.8046    7098.8044    8993.0484    11286.091   -186.81164    620.19236    1092.1495   -3223.4081 
 2229000    262.85766   -4816.7101   -4290.9623   -4816.7101            0    7117.5175    18.117931     22.81506    19.455586    8042.1937    6909.9371    8220.1131    6222.5022   -238.25338    376.07137   -1651.0713    -3456.169 
 2230000     275.2741   -4801.8303   -4251.2481   -4801.8303            0    8797.7876    18.061114    22.656769    19.415839    7945.0871    9450.3629    8263.0105    8679.9894    98.893281   -992.21504    582.97321   -3231.8401 
 2231000     263.6092   -4806.3007   -4279.0497   -4806.3007            0    7361.9089    18.039913    22.812232    19.484735    8018.5664     8545.601    7188.5664    6351.5592   -1019.0584   -1131.0841   -645.01199   -3418.1292 
 2232000    261.31769   -4822.3525   -4299.6849   -4822.3525            0    7114.7394    18.031926    22.746265    19.398538    7956.4843    5620.3012    8469.0116    7254.9055    1011.1084   -1151.5666    815.33329   -3474.1107 
 2233000    250.93136   -4830.0691   -4328.1753   -4830.0691            0    6706.6743    18.060296    22.858611    19.391212    8005.3376    5551.9594    7342.8787    7225.1849   -705.05734    1018.1848    -1067.442   -3545.1735 
 2234000    263.27277   -4807.5815   -4281.0034   -4807.5815            0    7381.4143    18.035142    22.806125    19.416007    7986.0312    8028.5025    8896.2988    5219.4417      1824.48     1474.436     1844.941   -3421.3043 
 2235000    252.39687   -4835.4963   -4330.6714   -4835.4963            0    8119.6704    18.128803    22.704882    19.325064    7954.4345    7664.1575     8285.298    8409.5556    921.21924   -1851.4015    235.21883   -3388.7306 
 2236000    259.50261     -4835.26   -4316.2227     -4835.26            0    6799.1124    18.024915    22.753091    19.546059     8016.279    6313.7918    7035.7792    7047.7662    1308.1872    1173.1356   -678.88986   -3521.3439 
 2237000    258.41492   -4832.4241   -4315.5624   -4832.4241            0    7026.3582    18.122343    22.617134    19.454123    7973.7676     7498.062    7254.6219    6326.3908    2093.4451    478.25864   -1043.2302   -3498.4727 
 2238000    256.92132   -4799.0378   -4285.1634   -4799.0378            0    7684.9529    18.047463    22.764437    19.354539    7951.6254    6890.9595    8261.9469    7901.9524    734.84047    208.06118   -730.84293   -3393.9679 
 2239000    257.63502   -4820.3279   -4305.0261   -4820.3279            0    6225.3611    18.085852    22.992062     19.25354    8006.2192    6686.1103    4789.6932    7200.2799    425.67148   -568.07829    1247.9842   -3578.1374 
 2240000    261.25785   -4806.1379   -4283.5899   -4806.1379            0    7657.2753    17.936767    22.916425    19.351028    7954.1735    6835.7687    8122.9952    8013.0621     1320.478   -1342.2044    2178.0574   -3395.3195 
 2241000    251.20875   -4821.0901   -4318.6415   -4821.0901            0    7522.8399    18.095475    22.822963    19.237096    7944.7733    7770.1634    7125.8123    7672.5441    158.36284   -1337.3096   -294.91603   -3446.9974 
 2242000    247.58566   -4813.5434   -4318.3415   -4813.5434            0    7903.7315    17.987943    22.897519    19.369357    7977.8363    9420.5789    7164.5679    7126.0477   -590.29862     291.1371    653.31685   -3398.7537 
 2243000    268.55053   -4813.9408   -4276.8066   -4813.9408            0    6522.6138     18.14442    22.783223    19.411967    8024.6813    5057.9601    7780.4005    6729.4806       2754.9    1301.7732    413.69756   -3513.4537 
 2244000    264.41124   -4810.6734   -4281.8183   -4810.6734            0    8978.6916    18.078452    22.721105    19.264013    7912.9322    5949.8862    9747.4861    11238.703    814.15819    485.85079   -1511.9829   -3245.6593 
 2245000    270.19145   -4801.0264   -4260.6101   -4801.0264            0    7305.1266    18.125516    22.766441    19.405189    8007.6185    8272.6972    6937.1983    6705.4842    53.803104    18.973664    1071.7144   -3407.4962 
 2246000     262.5392   -4834.8816   -4309.7708   -4834.8816            0    7345.1277    18.083126    22.730577    19.400877    7974.5345    7795.1585     7558.772    6681.4526    -454.9193    -923.6264   -594.83707   -3455.5295 
 2247000    264.20958   -4839.0767   -4310.6249   -4839.0767            0    6400.1983    18.176683    22.577661    19.562634    8028.2504    7250.1126    5817.4506    6133.0318    58.792249    199.12013   -321.10185   -3561.2654 
 2248000    274.01255   -4823.5608   -4275.5019   -4823.5608            0    8240.9292    18.136253    22.764872    19.274921    7958.0265     8678.481    8755.6573    7288.6492    490.17826    339.78369     694.5212   -3319.0625 
 2249000    255.21649   -4832.2561   -4321.7916   -4832.2561            0    7065.0018    18.100521    22.654439    19.478922    7987.4709    7088.4018    8113.8739    5992.7297    1072.5104    896.97671   -250.66249   -3498.7961 
 2250000    257.56301   -4774.8287   -4259.6708   -4774.8287            0     7250.738    18.058799    22.744553    19.409495    7972.2425    7325.2372    7568.4569    6858.5199   -1175.1826   -453.01015    316.12427   -3416.6494 
Loop time of 574.704 on 64 procs for 250000 steps with 1008 atoms

Performance: 75.169 ns/day, 0.319 hours/ns, 435.007 timesteps/s
99.2% CPU use with 64 MPI tasks x 1 OpenMP threads

MPI task timing breakdown:
Section |  min time  |  avg time  |  max time  |%varavg| %total
---------------------------------------------------------------
Pair    | 27.854     | 31.912     | 35.993     |  32.5 |  5.55
Bond    | 0.2855     | 0.29347    | 0.31831    |   1.1 |  0.05
Kspace  | 263.78     | 278.3      | 288.64     |  39.0 | 48.42
Neigh   | 4.0316     | 5.0949     | 5.9238     |  21.3 |  0.89
Comm    | 110.68     | 124.72     | 142.47     |  64.9 | 21.70
Output  | 0.97868    | 0.98016    | 0.98539    |   0.1 |  0.17
Modify  | 118.04     | 124.85     | 131.21     |  28.0 | 21.72
Other   |            | 8.56       |            |       |  1.49

Nlocal:        15.7500 ave          21 max          11 min
Histogram: 1 1 5 10 10 14 12 9 1 1
Nghost:        2482.94 ave        2513 max        2455 min
Histogram: 6 0 12 11 4 9 6 6 6 4
Neighs:        5239.45 ave        7051 max        3677 min
Histogram: 2 5 7 11 13 14 10 1 0 1

Total # of neighbors = 335325
Ave neighs/atom = 332.66369
Ave special neighs/atom = 2.0000000
Neighbor list builds = 9595
Dangerous builds = 0

unfix		3
unfix		2
unfix		1

write_data	data.final.${pid}
write_data	data.final.0
System init for write_data ...
PPPM initialization ...
  extracting TIP4P info from pair style
  using 12-bit tables for long-range coulomb (../kspace.cpp:340)
  G vector (1/distance) = 0.37967279
  grid = 24 27 32
  stencil order = 5
  estimated absolute RMS force accuracy = 0.0023890549
  estimated relative force accuracy = 7.1945678e-06
  using double precision FFTW3
  3d grid and FFT values/proc = 3825 384
Last active /omp style is kspace_style pppm/tip4p/omp
WARNING: Not all mixed pair coeffs generated from mixing. Use write_data with 'pair ij' option to store all pair coeffs. (../write_data.cpp:312)

write_restart   restart.lmp.${pid}
write_restart   restart.lmp.0
System init for write_restart ...
PPPM initialization ...
  extracting TIP4P info from pair style
  using 12-bit tables for long-range coulomb (../kspace.cpp:340)
  G vector (1/distance) = 0.37967279
  grid = 24 27 32
  stencil order = 5
  estimated absolute RMS force accuracy = 0.0023890549
  estimated relative force accuracy = 7.1945678e-06
  using double precision FFTW3
  3d grid and FFT values/proc = 3825 384
Last active /omp style is kspace_style pppm/tip4p/omp
Total wall time: 0:09:38
