#include		in.partitions
include		in.temp
variable        temperature equal 115.77
variable	tempDamp equal 100.0
include		in.pressure
variable        pressure equal 8278.0
variable        pressureDamp equal 1000.0 # This is 1 ps
include		in.seed
variable        seed equal 745823

units		real
atom_style	full
read_restart	restart.lmp.${pid}
read_restart	restart.lmp.0
Reading restart file ...
  restart file = 30 Jul 2021, LAMMPS = 30 Jul 2021
  restoring atom style full from restart
  orthogonal box = (0.017689454 -0.032713752 0.053663378) to (24.712312 24.762715 22.756337)
  2 by 4 by 2 MPI processor grid
  restoring pair style lj/cut/tip4p/long/omp from restart
  restoring bond style harmonic/omp from restart
  restoring angle style harmonic/omp from restart
  1920 atoms
  1280 bonds
  640 angles
Finding 1-2 1-3 1-4 neighbors ...
  special bond factors lj:    0        0        0       
  special bond factors coul:  0        0        0       
     2 = max # of 1-2 neighbors
     1 = max # of 1-3 neighbors
     1 = max # of 1-4 neighbors
     2 = max # of special neighbors
  special bonds CPU = 0.001 seconds
  read_restart CPU = 0.007 seconds
include 	in.setup
variable	out_freq equal 1000
variable	out_freq2 equal 10000
variable	out_freq3 equal 1000

timestep	2.0

neigh_modify    delay 7 every 1

include		in.tip4p
# This is TIP4P/Ice

# create groups ###
group ox type 2
640 atoms in group ox
group hy type 1
1280 atoms in group hy

# set charges - beside manually ###
set group ox charge -1.1794
Setting atom values ...
  640 settings made for charge
set group hy charge 0.5897
Setting atom values ...
  1280 settings made for charge

# ### TIP3P Potential Parameters ###
pair_style lj/cut/tip4p/long/omp 2 1 1 1 0.1577 8.5
pair_coeff 1 1*2 0.000 0.000
pair_coeff 2 2 0.21084 3.1668
bond_style  harmonic
bond_coeff  1 450 0.9572
angle_style harmonic
angle_coeff 1 55 104.52
kspace_style pppm/tip4p/omp 1.0e-5
pair_modify tail yes

thermo          ${out_freq}
thermo          1000
thermo_style    custom step temp pe etotal epair emol press lx ly lz vol pxx pyy pzz pxy pxz pyz enthalpy

restart 	${out_freq3} restart.lmp.${pid} restart2.lmp.${pid}
restart 	1000 restart.lmp.${pid} restart2.lmp.${pid}
restart 	1000 restart.lmp.0 restart2.lmp.${pid}
restart 	1000 restart.lmp.0 restart2.lmp.0


include         in.dump
dump            myDump all atom ${out_freq2} dump.water.${pid}
dump            myDump all atom 10000 dump.water.${pid}
dump            myDump all atom 10000 dump.water.0
dump            myDump2 all dcd ${out_freq2} dump.dcd
dump            myDump2 all dcd 10000 dump.dcd
dump_modify     myDump append yes
dump_modify     myDump2 append yes


variable natoms 	equal  "count(all)"                        # NUMBER ATOMS
variable H      	equal  "enthalpy/v_natoms"                 # ENTHALPY-per-atom
variable Vol      	equal  "vol/v_natoms"                 # volume-per-atom
fix AVG all 		ave/time ${out_freq} 1 ${out_freq} v_Vol v_H file vol_enthalpy.dat
fix AVG all 		ave/time 1000 1 ${out_freq} v_Vol v_H file vol_enthalpy.dat
fix AVG all 		ave/time 1000 1 1000 v_Vol v_H file vol_enthalpy.dat




fix 		1 all shake 1e-6 200 0 b 1 a 1
       0 = # of size 2 clusters
       0 = # of size 3 clusters
       0 = # of size 4 clusters
     640 = # of frozen angles
  find clusters CPU = 0.000 seconds
fix             2 all nph aniso ${pressure} ${pressure} ${pressureDamp}
fix             2 all nph aniso 8278 ${pressure} ${pressureDamp}
fix             2 all nph aniso 8278 8278 ${pressureDamp}
fix             2 all nph aniso 8278 8278 1000
fix             3 all temp/csvr ${temperature} ${temperature} ${tempDamp} ${seed}
fix             3 all temp/csvr 115.77 ${temperature} ${tempDamp} ${seed}
fix             3 all temp/csvr 115.77 115.77 ${tempDamp} ${seed}
fix             3 all temp/csvr 115.77 115.77 100 ${seed}
fix             3 all temp/csvr 115.77 115.77 100 745823


run             250000
PPPM initialization ...
  extracting TIP4P info from pair style
  using 12-bit tables for long-range coulomb (../kspace.cpp:340)
  G vector (1/distance) = 0.37516505
  grid = 30 30 30
  stencil order = 5
  estimated absolute RMS force accuracy = 0.0031909218
  estimated relative force accuracy = 9.6093663e-06
  using double precision FFTW3
  3d grid and FFT values/proc = 7920 1800
Last active /omp style is kspace_style pppm/tip4p/omp
Neighbor list info ...
  update every 1 steps, delay 7 steps, check yes
  max neighbors/atom: 2000, page size: 100000
  master list distance cutoff = 10.8154
  ghost atom cutoff = 10.8154
  binsize = 5.4077, bins = 5 5 5
  1 neighbor lists, perpetual/occasional/extra = 1 0 0
  (1) pair lj/cut/tip4p/long/omp, perpetual
      attributes: half, newton on, omp
      pair build: half/bin/newton/omp
      stencil: half/bin/3d
      bin: standard
Per MPI rank memory allocation (min/avg/max) = 12.56 | 12.56 | 12.56 Mbytes
Step Temp PotEng TotEng E_pair E_mol Press Lx Ly Lz Volume Pxx Pyy Pzz Pxy Pxz Pyz Enthalpy 
29750000    117.02751   -9707.1081   -9260.9459   -9707.1081            0    9140.4526    24.694622    24.795429    22.702673    13901.159    9255.1727      8847.66    9318.5249      346.402   -523.44923   -821.52909   -7407.8641 
29751000    113.48155   -9714.7289   -9282.0855   -9714.7289            0    7061.5278    24.704939    24.835755    22.808817     13994.71    7322.1905    6666.9949     7195.398   -65.535581   -786.85298   -186.17517   -7840.8383 
29752000    111.42698   -9697.6439   -9272.8335   -9697.6439            0    8678.6457    24.662687    24.759941    22.812134    13930.154    9992.1916    7879.5926    8164.1529    358.24397    130.09974     -152.988   -7509.7058 
29753000    113.65635   -9711.9119   -9278.6021   -9711.9119            0    7977.5821    24.737871    24.837393    22.714647    13956.429    7252.2547    8308.9888    8371.5028   -404.08955      396.399    488.00646   -7654.8433 
29754000    114.93785   -9728.0957   -9289.9002   -9728.0957            0    8352.0218     24.71749    24.710383    22.792685    13921.285    8390.4435    8552.3765    8113.2455    24.255193   -761.23811    -235.3268   -7594.2087 
29755000    116.75214   -9715.0011   -9269.8888   -9715.0011            0    7807.0186    24.717527    24.735191    22.842438    13965.701     8026.266    8075.0706    7319.7194   -252.79781    787.08688   -309.47391   -7679.7909 
29756000    120.77352   -9717.7102   -9257.2664   -9717.7102            0    8010.9249    24.718356    24.835171    22.746972    13964.016    7902.5674    7763.9059    8366.3015    309.44946    305.05152    488.62905   -7625.8348 
29757000    111.99584     -9710.46   -9283.4808     -9710.46            0    8506.8518    24.720579     24.77565    22.736352    13925.297    9040.6799    7860.5494    8619.3262   -633.48482    275.36094   -32.911312   -7555.8567 
29758000    114.77903   -9722.5696   -9284.9795   -9722.5696            0    7920.1796    24.729137    24.705655    22.830344    13948.188    8246.4996    8085.8264    7428.2128    337.15975   -830.56724   -147.40507   -7673.8565 
29759000    120.00701   -9711.5158   -9253.9944   -9711.5158            0    8674.6051    24.747336    24.674035    22.815367    13931.442    8605.8846    8917.2378     8500.693    161.76531   -846.14561    504.65094   -7491.5245 
29760000    115.71468   -9708.0591   -9266.9019   -9708.0591            0    8880.7422    24.732626    24.781817    22.710609    13919.773    8879.3447    7859.8154    9903.0666   -559.08285   -607.80423    8.0327148   -7464.0615 
29761000    117.10629   -9726.5462   -9280.0836   -9726.5462            0    7434.8295     24.70944     24.80462    22.778799    13961.314    7184.2539    7805.6353    7314.5992    32.399932    -695.5815     235.3761   -7766.2672 
29762000    114.73995   -9695.7573   -9258.3163   -9695.7573            0    7221.1302    24.578544    24.878639    22.909368    14008.637    8686.4458    6327.4333    6649.5115    117.49166    281.70377    825.33897   -7783.0278 
29763000    115.92577   -9707.5711   -9265.6092   -9707.5711            0    8234.7544    24.690747     24.74421    22.826562    13945.957    8756.3234    8748.8467    7199.0931    338.09787   -499.21668    61.292294   -7590.7632 
29764000    113.32669   -9731.4327   -9299.3797   -9731.4327            0    7988.8337     24.72669    24.783202    22.761347    13948.302    8730.4116     7602.826    7633.2634    -297.4739   -226.12996    373.94386   -7674.2777 
29765000    115.02229   -9716.0618   -9277.5444   -9716.0618            0    8192.5199    24.764758    24.730107    22.788203    13956.296    7971.4394    8541.4983    8064.6219   -225.88155   -824.63833     669.1437   -7610.0532 
29766000    115.94368   -9710.9534   -9268.9232   -9710.9534            0    8085.7297    24.747896    24.781775    22.749618    13952.268    8109.4836    7696.6034     8451.102    -635.9928    657.48991    -240.5661   -7623.6429 
29767000    117.00466   -9714.4137   -9268.3386   -9714.4137            0    9103.2871    24.614756    24.742793    22.830611    13904.706    9967.3992       8764.7     8577.762   -898.31688   -120.25954      633.488   -7422.3206 
29768000    115.16073   -9728.3678   -9289.3225   -9728.3678            0     7804.946    24.704075    24.757612     22.82424    13959.623    8063.0026    7207.4404     8144.395   -276.95146   -357.97282   -64.073301   -7700.3388 
29769000    113.56515   -9708.8246   -9275.8625   -9708.8246            0    8852.4291    24.769196    24.697851    22.736525    13908.976    9291.6625    8333.8974    8931.7274   -481.20026    -188.4576     597.3514   -7480.1636 
29770000     115.4541   -9728.7417    -9288.578   -9728.7417            0     7433.699    24.763525    24.758199    22.811215    13985.563    6937.3884     7551.919    7811.7895    293.57499   -393.93649   -139.51004    -7772.363 
29771000    114.14877   -9711.1724   -9275.9852   -9711.1724            0    9377.0745    24.637257    24.779327    22.757456    13893.305    9461.8526    9861.7862    8807.5846    316.42251   -11.009339    17.803641   -7376.0061 
29772000    115.82563    -9706.587   -9265.0069    -9706.587            0    7912.8236     24.68368    24.787999    22.838234     13973.78     8662.371    7509.6007     7566.499   -124.54924   -148.67171   -187.11747   -7652.4269 
29773000    114.33848   -9731.8542   -9295.9437   -9731.8542            0    7999.2208    24.758682    24.792735    22.714514    13942.974    7547.5839    7608.4752    8841.6032    301.48247    246.31736    89.676908   -7669.3504 
29774000    117.47629   -9689.4195   -9241.5463   -9689.4195            0    8519.6387    24.762182    24.720743    22.757796    13930.947    8155.7031    8763.8952    8639.3179    670.26695    294.49784   -30.674877   -7510.6235 
29775000    112.78355   -9702.2543    -9272.272   -9702.2543            0    7501.4611    24.822809      24.6974     22.78933      13971.2    6620.7442    8763.4582    7120.1809    173.46296   -178.76845   -459.51761   -7743.8071 
29776000    118.40445   -9708.4748    -9257.063   -9708.4748            0    9391.2637    24.723032     24.64789    22.809091    13899.189    9197.2169    10310.474       8666.1    385.16565    170.56473   -67.215776    -7353.403 
29777000    118.68895   -9723.8465   -9271.3501   -9723.8465            0    8610.1755    24.778051    24.779967    22.689144    13931.118    8405.4817    8433.5872    8991.4578   -289.27743   -1125.0103    564.34234   -7522.0115 
29778000    117.73611   -9732.4282   -9283.5645   -9732.4282            0    7599.8295     24.72625    24.734664    22.838799    13968.106    7821.8302    7653.7793     7323.879   -68.872746   -445.35828   -515.53182   -7735.3994 
29779000     114.0774   -9725.3619   -9290.4468   -9725.3619            0    7796.3563    24.751296    24.709745    22.835071    13965.888    7838.1967    8097.3994    7453.4728     742.2598   -335.00996     438.6734   -7702.4993 
29780000    115.85662   -9698.6548   -9256.9566   -9698.6548            0    9290.9436    24.785091    24.670741    22.749276    13910.421    8659.6918    10087.647    9125.4924    578.95292   -40.261638    689.35241     -7372.11 
29781000    118.02757   -9707.8342   -9257.8593   -9707.8342            0    8032.9086    24.777585    24.765638    22.754794    13963.086    7896.8682    7727.9742    8473.8833   -132.37498   -835.25228     111.0597   -7622.0596 
29782000    118.55414   -9714.8997   -9262.9173   -9714.8997            0    7727.5058    24.701818    24.729152    22.857458    13962.592     7857.545    8161.0017    7163.9706   -423.85309   -560.86319     505.5497   -7689.3646 
29783000    116.41266   -9709.7522    -9265.934   -9709.7522            0     7993.108    24.676927    24.793827    22.796811    13947.897    8472.1901    7479.1363    8027.9976   -52.094756   -322.34755    232.40045   -7640.0098 
29784000    113.60272   -9729.6693   -9296.5639   -9729.6693            0     7580.838    24.718211    24.866556    22.704246    13955.318    7620.2762    6390.8862    8731.3517   -171.40498   -64.215022   -743.62723   -7753.6814 
29785000    112.68174   -9729.8827   -9300.2885   -9729.8827            0     8438.688    24.712536    24.793249    22.734967    13929.807    8130.1821    8259.8852    8925.9966   -1274.4401    -493.7023    49.716485   -7585.9526 
29786000    115.99353   -9724.7276   -9282.5073   -9724.7276            0    7659.4659    24.673149     24.74856    22.879518    13970.804    7894.9058    7850.3937    7233.0982   -519.13761   -790.63755   -127.17628   -7721.8924 
29787000     118.8545   -9727.9023   -9274.7747   -9727.9023            0    8029.8284    24.742907    24.761101     22.75381    13940.386    8245.1924    7589.5561    8254.7369   -377.28686    -274.9056   -217.88817   -7642.2605 
29788000    117.95306   -9715.7685   -9266.0777   -9715.7685            0    8458.7236    24.802897    24.723443    22.726167    13935.981    7501.1992    8788.7141    9086.2575   -435.17039   -229.33771    1147.4958   -7546.9099 
29789000    117.00573   -9733.2037   -9287.1245   -9733.2037            0    8194.0155    24.729923    24.664836     22.86032    13943.869    8585.9424    8580.0419    7416.0623   -247.60788   -92.314282    6.6262484   -7620.8138 
29790000    114.97105   -9723.3801    -9285.058   -9723.3801            0    7923.2902    24.704302    24.701943     22.86537    13953.461    7977.6581    7996.9265    7795.2861   -89.384752   -346.44575    378.11579   -7672.6929 
29791000    112.85528   -9727.5107   -9297.2549   -9727.5107            0    8758.4506    24.780096    24.731034    22.684049    13901.633    8674.6328    8842.8792    8757.8399     519.6377    180.66747    388.70784   -7521.5574 
29792000     116.5018   -9725.4075   -9281.2495   -9725.4075            0    7567.4812     24.81496    24.700455    22.791932    13970.105    7203.4821    8105.9883    7392.9732    88.857804   -861.15263   -368.88292   -7739.4535 
29793000    118.04764   -9716.0658   -9266.0144   -9716.0658            0    8399.4434     24.70354    24.692936    22.858947    13944.024    7907.5153    9210.9438    8079.8712   -81.212995   -368.13687   -49.268086   -7557.9095 
29794000    120.86572   -9734.0945   -9273.2993   -9734.0945            0    8604.4031    24.661169    24.791378    22.740691    13903.303    8866.4407    8951.7287    7995.0398    20.326096    20.766713    339.77049   -7528.6239 
29795000    108.00848   -9714.9828   -9303.2052   -9714.9828            0    7824.7141    24.691657     24.79747    22.790075    13954.149     8181.254    7416.3176    7876.5708   -632.42634    -1011.656    1371.2089   -7710.8215 
29796000    121.89455    -9723.121   -9258.4034    -9723.121            0    8176.8394    24.702839    24.825986    22.739794    13945.686    8988.9045    7352.8961    8188.7176   -1.9588944   -28.977365    484.90909   -7595.3689 
29797000    113.09558   -9711.5738   -9280.4019   -9711.5738            0    9065.0137    24.629596    24.681217    22.869193    13901.918    10182.343    9754.1066    7258.5911    -95.90028   -462.74468    443.63789   -7442.5138 
29798000    113.96459   -9724.7572   -9290.2722   -9724.7572            0    6486.1242    24.757605    24.797211    22.828184    14014.669    7162.8873    6556.7904    5738.6949    -418.0114    535.58417    505.28907   -7964.5761 
29799000    120.89221   -9725.8404   -9264.9442   -9725.8404            0    8361.6303    24.728658    24.786643    22.748096    13943.227    8161.4269    8652.9406    8270.5235    34.951708   -341.18807   -61.240186   -7564.6261 
29800000    117.75036   -9712.5284   -9263.6104   -9712.5284            0    7990.7289    24.685903     24.80841    22.782767    13952.577    8353.9304    7202.7158    8415.5406   -29.613198   -124.69273    85.369872   -7637.6246 
29801000    116.81145   -9719.3311   -9273.9926   -9719.3311            0    8403.7646    24.644446    24.732533    22.880575    13946.158    9035.4555    8390.4628    7785.3754   -279.17967   -820.94458    1.1273763   -7564.7474 
29802000    113.66953   -9707.2485   -9273.8884   -9707.2485            0    8525.9448    24.777756    24.785819    22.671648    13923.497    7722.4282    8095.9461      9759.46   -432.40572   -149.85549    372.70962   -7542.6107 
29803000    115.75038   -9724.5057   -9283.2124   -9724.5057            0    8049.3512    24.703784    24.777921     22.79774    13954.689    8279.9577    7892.4824    7975.6133   -406.13346   -1025.7099    620.00147   -7645.0502 
29804000    115.24624   -9707.2581   -9267.8868   -9707.2581            0    8221.3006    24.667841    24.774131    22.828334     13950.95    9288.7067    7496.4823    7878.7128    -222.2916    28.393824    774.94274   -7595.1786 
29805000    121.87944   -9727.9012   -9263.2412   -9727.9012            0    8336.0916    24.678161    24.776073    22.787342    13932.817    8019.3374    8288.4733    8700.4641    141.38395    151.48412    357.02604    -7569.382 
29806000     118.7253    -9707.768   -9255.1331    -9707.768            0    8224.5025    24.808595    24.701679    22.755374    13944.811    8171.4853    8401.0972    8100.9251    42.754002   -68.249615    -649.6139   -7582.5097 
29807000    114.86882    -9712.625   -9274.6927    -9712.625            0    8407.0084    24.748249    24.720622    22.779105    13936.077    8282.0763     7782.653     9156.296   -773.11136    418.44068   -403.38815   -7566.0238 
29808000    114.29621   -9720.6334   -9284.8842   -9720.6334            0    8134.3295    24.736167    24.651029    22.891601    13958.657    7912.7219    8301.1175    8189.1492     127.8541   -189.21369   -2.4069784   -7628.9568 
29809000    117.59873   -9728.6987   -9280.3587   -9728.6987            0    7275.6999    24.773741    24.787742    22.750442    13970.708    7101.2551     7022.484    7703.3607   -572.94577    31.612382   -525.74638   -7797.9462 
29810000    113.36429    -9725.322   -9293.1257    -9725.322            0    9409.8806    24.659449    24.692098     22.81486     13891.82    9847.3583    9618.2526     8764.031   -796.91879   -1088.6992   -348.08199   -7386.7031 
29811000    113.19639   -9720.8933   -9289.3371   -9720.8933            0    7616.9744    24.728541    24.753592    22.818885    13967.901    7631.6637    8092.5859    7126.6738   -330.58671   -241.56713   -45.066664   -7737.7022 
29812000    115.99174   -9711.9589   -9269.7455   -9711.9589            0    9255.9082    24.688014    24.774221    22.714206    13892.606    10181.509    8539.1754    9047.0402   -420.32897   -714.74814    730.25523   -7394.4114 
29813000    119.36801   -9710.8577   -9255.7724   -9710.8577            0    7879.3328    24.781552    24.723829    22.787061    13961.514    7771.5807    7870.3462    7996.0715    206.80774   -429.15626   -398.03679   -7651.4271 
29814000    118.23495    -9719.791   -9269.0255    -9719.791            0    8291.6601     24.72385    24.667571    22.851138    13936.391    7618.3315    9137.0576    8119.5912    -613.5924   -550.16821   -448.16611   -7583.7624 
29815000    111.67962   -9720.8291   -9295.0555   -9720.8291            0    9260.8446    24.713973    24.757939    22.713931    13897.905    9320.3817    9186.5523    9275.5996    128.16009   -592.44123    657.76797   -7418.0055 
29816000    118.64965   -9699.3748   -9247.0282   -9699.3748            0    8084.1084    24.807218    24.771765    22.720244    13962.012    7927.8862    8132.3784    8192.0607   -192.35332    94.720552    400.49531    -7600.929 
29817000    113.63576   -9724.5428   -9291.3115   -9724.5428            0    8247.6757    24.727398    24.695483    22.820473    13935.437    7891.8415    8966.7984    7884.3873   -364.45134   -137.75561     577.8735   -7615.1029 
29818000    114.49214   -9732.0836   -9295.5873   -9732.0836            0    7504.8251    24.764864    24.777605    22.781548    13979.078    7472.4027    7330.3417    7711.7308   -255.08155   -538.60734    99.461051   -7765.5748 
29819000    115.91105   -9732.9592   -9291.0535   -9732.9592            0     8514.128     24.70871     24.80349     22.72112    13924.917    8751.2658    7978.9988    8812.1194   -400.05698   -586.26231   -1037.4065    -7561.999 
29820000    111.93552   -9713.3372    -9286.588   -9713.3372            0     8607.218    24.632507    24.791914    22.816719    13933.874    9906.1083    7446.7653    8468.7805    -213.1753   -824.38985    568.91687   -7537.5044 
29821000    116.68724   -9720.8547   -9275.9897   -9720.8547            0    8285.4977    24.678037    24.762593    22.804829    13935.853     8121.851    8234.7272    8499.9149    76.590826   -795.62056    1060.7644   -7592.0442 
29822000    114.86648   -9707.6645   -9269.7411   -9707.6645            0    7183.5656    24.758952    24.874304     22.71148     13987.13     7070.755    6669.1248    7810.8169    285.37944   -352.03699    532.81674   -7804.3803 
29823000    112.33549   -9732.1565   -9303.8824   -9732.1565            0     8566.782    24.720467    24.726017     22.77101    13918.522    8023.9914    9189.0962    8487.2583    183.36775     140.2567    18.816116   -7564.9338 
29824000    116.25874   -9718.9232   -9275.6918   -9718.9232            0    7541.7111     24.77915    24.724737    22.814685    13977.598    7488.5226    7908.5602    7228.0506     166.4536   -506.59459    521.59216    -7738.322 
29825000    117.93151   -9709.4817    -9259.873   -9709.4817            0    7887.5348     24.72857      24.6886    22.873204    13964.406    7859.1417    8821.9645    6981.4981   -453.88384    184.60616    179.03924    -7653.525 
29826000    114.49084   -9709.8614   -9273.3701   -9709.8614            0    8932.9946     24.81789    24.717703    22.678895     13912.17    7202.6072    10019.198    9577.1782    426.29572   -349.37159    23.425883   -7460.9127 
29827000    114.64162   -9735.3839   -9298.3178   -9735.3839            0    7551.4925    24.802053    24.750069    22.762958    13973.099    7427.9624    7053.3356    8173.1794    -241.9688   -702.61609   -139.29298   -7759.4496 
29828000    117.95095   -9705.3709    -9255.688   -9705.3709            0    8809.3918    24.693421    24.702802     22.82415    13922.656    8557.9807    9074.9523    8795.2424    -230.6497   -674.79294    159.11821   -7466.9617 
29829000    116.78849   -9731.5844   -9286.3334   -9731.5844            0    7401.6434    24.684793    24.780514    22.826651    13963.105    7503.5044    7729.5513    6971.8745    193.27138   -328.14413    997.42374   -7779.0808 
29830000    114.13465   -9714.7422   -9279.6089   -9714.7422            0    7917.9629    24.706643    24.833386    22.750495    13958.557    8311.9184    7176.1093    8265.8609    4.0623838    364.88833     97.24885   -7667.7394 
29831000    118.28853   -9711.8097   -9260.8399   -9711.8097            0    8673.5439    24.636611    24.857018    22.752245    13933.308    9260.3433    7563.3366    9196.9517    137.10071    564.42907   -444.67256   -7498.3498 
29832000    116.11869   -9724.1401   -9281.4427   -9724.1401            0    7786.9275    24.662469    24.772073    22.854615    13962.809    8792.3666    7969.0064    6599.4095    155.34988   -31.638611    293.53869   -7695.7653 
29833000     111.6618   -9727.3829   -9301.6772   -9727.3829            0    8079.1217    24.776982    24.728734    22.767941    13949.995    7332.6806    8379.8413    8524.8431   -701.78554   -943.19406    197.64358   -7658.0093 
29834000    116.45449   -9700.9765   -9256.9988   -9700.9765            0     8181.027    24.774701    24.700357    22.803079    13954.206    7822.6721    8589.8648    8130.5441    148.17806   -308.78931    208.54428   -7592.0962 
29835000     113.3862   -9711.2191   -9278.9392   -9711.2191            0    8883.3192    24.781409      24.6515    22.787766    13921.022    7987.2986    9993.2534    8669.4055    -287.9668   -357.50437    91.572047   -7475.4137 
29836000    113.81255   -9705.8817   -9271.9763   -9705.8817            0     8455.388    24.791071    24.698117    22.738351    13922.528    8214.7441    8822.2196    8329.2003   -214.67168    102.76362    302.01563   -7555.1454 
29837000    118.83913   -9731.5146   -9278.4456   -9731.5146            0    7946.3218    24.736506    24.701364    22.828971    13949.082    8343.4999    8251.7959    7243.6696    -388.5383    59.904437   -233.75597   -7661.9011 
29838000    119.28279   -9713.9259   -9259.1655   -9713.9259            0    8021.0487    24.740531    24.796054    22.762653    13964.149    8786.2284    7586.1506    7690.7671    -125.7813   -617.75072    583.88288   -7625.6566 
29839000    113.42458   -9727.0314   -9294.6051   -9727.0314            0    9009.7673    24.641088    24.779277    22.761496    13897.904    9332.1727    8884.8192      8812.31   -276.45354   -107.15281    1264.1761   -7468.4454 
29840000    119.19306   -9730.9868   -9276.5685   -9730.9868            0     7140.683    24.648105    24.776899    22.889916    13978.955    7032.7682    7663.1142    6726.1667    120.37184   -149.47554   -500.73858   -7820.8067 
29841000    113.63472   -9723.6135   -9290.3861   -9723.6135            0    8555.4522    24.674694    24.776467    22.773362    13922.534    9269.3249    8269.4546    8127.5771   -331.93002    81.643142    556.72816   -7553.2368 
29842000     117.3111   -9728.2242   -9280.9808   -9728.2242            0     6959.407    24.788906    24.736047    22.837655    14003.583    7527.0504    6536.2661    6814.9046    330.15005   -448.42392   -183.49996   -7859.6758 
29843000    115.47092   -9709.9527   -9269.7249   -9709.9527            0    8975.9771    24.754447    24.723414    22.749383    13922.951    7631.2722    10017.534    9279.1252   -650.64177   -1083.3593   -106.20728   -7447.1352 
29844000    112.92976   -9713.5922   -9283.0524   -9713.5922            0    8131.8563    24.747643    24.780238    22.730168    13939.332    7501.7658     8418.605     8475.198    606.20868   -131.74283    47.064202   -7629.9203 
29845000    110.52125   -9721.4748   -9300.1173   -9721.4748            0    9256.0641    24.650644    24.714526    22.810465    13896.797    10082.563    8914.5919    8771.0375    -639.7783     542.7619    589.27513    -7424.186 
29846000    118.69253   -9728.6165   -9276.1064   -9728.6165            0     8758.075    24.719513    24.719273    22.781416    13920.547    9034.5073    9023.0714    8216.6463   -406.37603    985.81672    64.251266   -7498.0692 
29847000    117.60905   -9715.5783   -9267.1989   -9715.5783            0    7964.1147    24.784476    24.773134    22.732471     13957.49    7092.2456    8418.7633    8381.3354     588.0702     483.0568   -610.26456   -7646.0582 
29848000    112.10118   -9725.4312   -9298.0504   -9725.4312            0    8766.0531    24.636077    24.676081    22.887604    13913.874     9448.127    9220.1261    7629.9061   -480.76543   -213.66227    680.48256   -7519.2465 
29849000    117.42065    -9714.291   -9266.6299    -9714.291            0    8502.7899    24.708256    24.753753    22.783671    13934.996    8651.7865    8319.7527    8536.8304    -366.2751   -462.10335   -285.27902   -7538.6282 
29850000    114.00748   -9723.3357   -9288.6872   -9723.3357            0    9106.1114    24.652678    24.826797    22.688642    13886.516    9229.4509    9068.0533      9020.83    100.04897   -376.89474    -27.22757   -7444.5122 
29851000    113.30916    -9717.097   -9285.1108    -9717.097            0     8330.005    24.666315    24.754549    22.832325    13941.498    9770.0364    7743.3916    7476.5869   -180.56757    -605.6279   -354.05004   -7591.4338 
29852000    114.52857   -9694.6298   -9257.9947   -9694.6298            0    9272.1074    24.678944    24.764073    22.740166    13897.679    9929.5182    8720.4001    9166.4038    302.50797   -102.42331    592.89277   -7378.6924 
29853000    118.02306   -9726.0652   -9276.1074   -9726.0652            0    7757.1785    24.755754    24.774975    22.747443    13951.534    7009.5666    8104.5352    8157.4338   -608.52658   -178.61982    343.37256   -7697.7635 
29854000     116.0789   -9721.3992   -9278.8535   -9721.3992            0    9055.0174    24.711593    24.700181    22.801105    13917.357    8673.3534    9055.7078    9435.9909   -41.589678   -587.74225    643.76047   -7440.9531 
29855000    116.82751    -9712.805   -9267.4053    -9712.805            0    8694.5251    24.697129    24.696442    22.846476    13934.778    8684.8491    8607.4343     8791.292   -422.52403   -170.80729    491.38201   -7500.4652 
29856000     118.2855   -9737.5305   -9286.5722   -9737.5305            0    8641.7278    24.804457    24.760052    22.646821    13908.763    8962.5135    7490.7048    9471.9652   -180.05576   -280.83218    348.94818   -7533.6405 
29857000    116.45388   -9723.3704   -9279.3951   -9723.3704            0     7925.113    24.757692    24.780352    22.737162    13949.347    8303.2375    7464.5348    8007.5667   -222.33609    -434.2413   -285.09025   -7667.1345 
29858000    114.31522   -9706.2053   -9270.3836   -9706.2053            0    9208.0325    24.667233    24.656083    22.854809    13900.234    9349.5481    9990.8086    8283.7408    328.14208   -1417.1252    387.91749   -7403.7252 
29859000    114.38941   -9717.6316    -9281.527   -9717.6316            0    8848.4435     24.77085    24.713559    22.749968    13926.981     8625.848    8962.8299    8956.6526   -205.95273    89.893861    866.40892   -7484.3131 
29860000     115.1583   -9728.1712   -9289.1352   -9728.1712            0    7384.3405    24.780427    24.765172    22.789932    13985.989    6480.8367    7339.9151    8332.2697    577.85495   -174.07375   -142.07267   -7782.9417 
29861000      116.022   -9714.8296   -9272.5008   -9714.8296            0    8437.8167    24.684733     24.76654      22.7699    13920.502    8475.8358     8836.234    8001.3802   -672.43617   -104.05603    507.96712    -7559.487 
29862000     115.9132    -9715.878   -9273.9641    -9715.878            0    7274.2529    24.726774    24.829556    22.786532    13989.902    7466.1784    6916.8736    7439.7069   -235.38811    121.95251    508.07965   -7789.8101 
29863000    117.24111   -9719.6032   -9272.6266   -9719.6032            0    9234.2249    24.654381    24.769014     22.77293    13906.624    9367.4582    8445.7705    9889.4459   -21.248822    895.68405    547.62228   -7399.7979 
29864000    117.30134   -9696.0846   -9248.8784   -9696.0846            0    7281.2044    24.725628    24.845993    22.764576    13985.025    7693.7531    6901.0226    7248.8373   -684.85321   -478.21319    377.38441    -7763.824 
29865000    121.39963   -9715.4091   -9252.5783   -9715.4091            0    8383.5015    24.700439    24.764635    22.776567    13932.366    8306.3698    7927.5441    8916.5907   -152.49334    120.40152    250.44738   -7549.1408 
29866000    111.62866   -9712.6953    -9287.116   -9712.6953            0    8889.0647     24.79476    24.782456    22.639317    13911.296      8175.94    8681.6831    9809.5709    -441.7399    584.11681    392.81618   -7483.6849 
29867000    109.26619   -9717.5969   -9301.0244   -9717.5969            0    7815.3557    24.716017     24.71955    22.846944    13958.771    7855.2332    8325.5599    7265.2739   -225.01232    25.853389    2.3341207   -7710.0184 
29868000    109.57317     -9719.99   -9302.2471     -9719.99            0    8095.5965    24.800353    24.765225    22.721689    13955.351    7594.2486    8275.6147    8416.9262    116.64688    145.34909   -256.30335   -7654.5951 
29869000     115.6471   -9716.7189   -9275.8194   -9716.7189            0    8674.3302    24.757827    24.742402    22.732372    13925.126    8003.5728    9233.8581    8785.5599   -765.11216    -547.5646      729.836   -7514.2045 
29870000    115.26204   -9721.4314   -9281.9999   -9721.4314            0    8423.9503    24.692565     24.71284    22.846656    13941.564      8351.89    8531.6661    8388.2947   -23.222456   -154.49853    -475.7875   -7569.2136 
29871000    115.07345   -9721.8527   -9283.1402   -9721.8527            0    8909.7689    24.696084    24.792334    22.727478    13915.434    8063.0274    9029.6155    9636.6638   -548.23208    42.872119   -258.07531   -7474.9709 
29872000    116.44364   -9709.5552   -9265.6189   -9709.5552            0    8078.7351    24.708198    24.779157    22.790431    13953.403    7956.4924    8314.3091    7965.4037   -424.87695    580.75903    79.309366   -7621.6281 
29873000    116.65705   -9736.3947   -9291.6448   -9736.3947            0    8119.1841    24.710815    24.725884    22.817549    13941.448    8045.5318     8528.775    7783.2454    359.44154   -780.62746   -400.52219   -7640.8384 
29874000    118.21957   -9706.3668   -9255.6598   -9706.3668            0    8379.8621    24.728539    24.737901    22.791258    13942.145    8407.8043     8505.523    8226.2589   -124.30377   -1171.8771    300.20547   -7551.7667 
29875000    118.59831   -9706.9847   -9254.8338   -9706.9847            0    8605.7902    24.666341     24.76787    22.795657    13926.613    9536.9488    8045.1361    8235.2857    993.35832   -1392.1035   -255.63058   -7506.9517 
29876000     115.0446   -9718.6041   -9280.0016   -9718.6041            0    7862.5237    24.690795    24.786922    22.820056    13966.075    7762.0708     8438.125    7387.3753   -87.737859   -511.83302    736.75393   -7678.5559 
29877000    117.06675    -9718.843   -9272.5311    -9718.843            0    8033.9075    24.658109    24.834668    22.783039    13951.785    8285.7368    6728.4566    9087.5292    58.245882    321.86755    873.73553    -7637.852 
29878000    113.00141   -9715.8085   -9284.9956   -9715.8085            0    8572.9231    24.716435     24.79872    22.759113    13949.879    8793.7771    7239.5907    9685.4016   -121.04754   -249.08529     -10.5936   -7540.8801 
29879000    112.54407   -9703.7327   -9274.6634   -9703.7327            0    7277.8228    24.740698    24.786793    22.790854    13976.322    7872.5551    7482.4222    6478.4911   -360.42266     -308.562   -562.03934   -7791.2224 
29880000     114.3566   -9728.1426   -9292.1631   -9728.1426            0    8840.4066    24.696502    24.672024    22.823399    13906.587    9357.1244    9149.8091    8014.2861   -48.661885   -39.212006   -246.63452    -7499.211 
29881000    112.27675   -9723.4581    -9295.408   -9723.4581            0    7524.2591    24.842186    24.733214    22.750394    13978.458    6410.3823    7991.7888    8170.6062    155.08314   -1519.4479    136.68112   -7761.5014 
29882000    115.51146   -9719.8533   -9279.4709   -9719.8533            0    8264.9542    24.774505    24.737137    22.759024    13947.875    7905.5297     8263.734    8625.5989    132.43627   -561.49546   -607.97752   -7598.2515 
29883000    113.96769   -9722.3688    -9287.872   -9722.3688            0    7578.8115    24.707732    24.753821    22.855537    13978.693    8521.0509    6879.9191    7335.4646   -293.16086   -815.62242   -282.70414   -7742.8183 
29884000    116.39216   -9735.8992   -9292.1592   -9735.8992            0    8658.4845    24.698332    24.724504    22.768528    13903.693    8846.9785    8955.9983    8172.4768   -277.84511   -360.99034    122.56981   -7536.4688 
29885000    112.38176   -9732.2552   -9303.8047   -9732.2552            0    8337.3781    24.674145    24.776558    22.794876    13935.429    7974.3052    8351.2554    8686.5736    566.58315   -362.52925    374.83677   -7609.3666 
29886000    113.88364   -9702.9501   -9268.7737   -9702.9501            0    8582.1485    24.777341    24.811772    22.647726    13923.136    8918.3155    7239.1826    9588.9473    4.3873496   -502.34341    245.20403   -7526.1284 
29887000    114.67241   -9725.9511   -9288.7676   -9725.9511            0    7941.1253    24.721826    24.724978    22.821674    13949.671    8055.4951    8163.7281    7604.1526    -359.6297    227.03385    795.64189   -7673.2121 
29888000    117.81962        -9726   -9276.8178        -9726            0     7931.759    24.767768     24.64726    22.872361    13962.607    7549.7613    8694.3003    7551.2153   -604.53018    460.36941    362.96037   -7661.6714 
29889000    115.07766   -9734.1206   -9295.3921   -9734.1206            0    8286.3202    24.736432    24.730264    22.768469    13928.349    7996.2103    8443.7059    8419.0446    237.92948   -725.44904    524.35889   -7612.1862 
29890000    117.28232   -9723.4662   -9276.3325   -9723.4662            0    7800.2444    24.762342    24.719806    22.799774    13956.205    7645.0421    8002.5697    7753.1215    157.75663    620.53527    161.08092   -7688.6947 
29891000    112.91818   -9724.0261   -9293.5305   -9724.0261            0    8912.9515    24.669719    24.732856    22.814385    13920.257    8680.6169    9120.0338    8938.2038    198.58526   -343.79371   -643.28185   -7484.0884 
29892000     112.9965   -9716.7928   -9285.9986   -9716.7928            0    8897.4055    24.728149    24.726103    22.747709    13908.649    7995.3327    9477.7161    9219.1677   -117.08769   -956.46484    319.10913   -7481.2187 
29893000    114.41174   -9714.8355   -9278.6458   -9714.8355            0     8444.761    24.705609    24.750224     22.78364    13931.498    8129.5493    8737.5729    8467.1607    166.39302   -565.26871    963.14776   -7562.8679 
29894000    113.16317   -9714.5272   -9283.0976   -9714.5272            0    7880.4726    24.672213    24.733497    22.891724    13969.219    8375.7916    8411.7986    6853.8276    9.7357062    203.99764    195.49832   -7677.6347 
29895000     119.0508   -9700.5142   -9246.6382   -9700.5142            0     9393.389     24.66672    24.777877      22.7374    13896.848     10615.83     8798.097    8766.2395   -38.916029    -443.8833   -1330.6715   -7342.8682 
29896000    116.66427   -9730.1736   -9285.3962   -9730.1736            0     7710.791     24.74224    24.779179    22.781862    13967.387    7432.8708    7568.5619    8130.9403    156.92327    303.09398   -254.42954   -7714.7081 
29897000    112.07477   -9712.0512    -9284.771   -9712.0512            0     7755.336    24.772875    24.686279    22.840744    13968.259    7582.0554    8191.8554    7492.0973   -343.73312    147.63408    218.30607   -7704.9103 
29898000    111.75231   -9728.0137   -9301.9629   -9728.0137            0    7864.9316    24.796884     24.70781    22.797832      13967.7    7197.3662    8087.5601    8309.8685    112.46045   -77.134228   -57.073835   -7699.8404 
29899000    114.92007   -9713.7929   -9275.6652   -9713.7929            0    7921.3181     24.79775    24.729564    22.777552     13968.05    7533.4516    7949.6356    8280.8672   -351.67323   -211.51136   -28.185522    -7662.016 
29900000    113.59565   -9721.5224    -9288.444   -9721.5224            0    7757.2959    24.752885    24.610072     22.90628    13953.825    8208.9753    8519.0443     6543.868   -779.73983    34.037986   -343.53077   -7709.8169 
29901000    118.05437   -9723.6836   -9273.6065   -9723.6836            0    7846.9227    24.790835     24.72688    22.768056    13956.818     7320.241    7896.8779    8323.6493    161.01283   -429.21616   -568.85556   -7676.3977 
29902000    117.56922   -9730.3121   -9282.0846   -9730.3121            0    9546.7319    24.750859    24.668612    22.728875    13877.553    8717.4544    9916.7461    10005.995    549.84022   -22.970369    184.97838   -7349.9227 
29903000    115.29279   -9709.7849   -9270.2362   -9709.7849            0    8008.2126    24.752451    24.767404    22.766875    13957.323    7310.4509    8807.3682    7906.8188    101.09921   -91.700689    54.268118   -7640.1386 
29904000    113.94875   -9730.5815   -9296.1568   -9730.5815            0    7586.1394    24.783441    24.702017    22.819487    13970.112    7000.9282    8174.4294    7583.0606    -326.2556   -1120.0302   -563.16271   -7750.5586 
29905000    115.99487   -9719.4988   -9277.2734   -9719.4988            0    8666.9473     24.78092    24.656051    22.786317    13922.432    8510.1813    8913.5437    8577.1171    98.778995   -196.27446   -51.647275   -7517.4984 
29906000    107.26756   -9729.5602   -9320.6074   -9729.5602            0    8702.5042    24.809786    24.645931    22.765768    13920.363    8331.5107    8841.4324    8934.5695   -520.27327    70.794282   -137.09986   -7553.8753 
29907000    112.66199   -9712.3369    -9282.818   -9712.3369            0    8327.9046     24.70458    24.715693    22.826885    13937.886    8222.8779    8181.1659    8579.6701    282.31029   -274.17755   -586.97058   -7590.0067 
29908000    115.30483   -9716.6835   -9277.0889   -9716.6835            0    8312.8088    24.739456    24.758625    22.754207    13937.291    7669.9999    8932.4215    8336.0051    -93.08225    717.52502   -26.751568   -7587.4183 
29909000    117.40579   -9711.4756   -9263.8712   -9711.4756            0    8523.1801     24.68904    24.822696    22.732262    13931.434    8558.0152    8243.1971     8768.328   -1079.1742   -253.18873   -136.21712   -7532.1684 
29910000    114.60694    -9719.703   -9282.7691    -9719.703            0    7962.1565    24.594871     24.84685    22.839161    13957.127    9369.1529    7123.7657    7393.5509   -490.07604    397.35802    326.61549   -7662.0691 
29911000     114.6483    -9743.514   -9306.4224    -9743.514            0    8007.3179     24.67503    24.699706    22.873367    13940.539    8156.8266    8632.3238    7232.8032   -83.521306    328.18762    268.63123   -7678.4669 
29912000    115.47512   -9722.7364   -9282.4926   -9722.7364            0    8673.8376    24.740129       24.771    22.719974    13923.657     8762.641    8188.9552    9069.9165   -189.04417    112.16048     756.3071   -7521.1635 
29913000    116.69531   -9720.2392   -9275.3435   -9720.2392            0    7388.4873    24.701751     24.89899    22.713508    13969.912     8061.643    5912.7167    8191.1023    175.41618    173.15742    -210.4291   -7770.0364 
29914000    113.38308   -9721.8935   -9289.6255   -9721.8935            0    8226.7392    24.702864    24.678175    22.852348    13931.285    8363.9456    9116.8163    7199.4557   -439.27844   -1347.2614    6.7217331     -7618.17 
29915000    116.48406   -9717.0088   -9272.9184   -9717.0088            0    8558.0129    24.777213    24.656152     22.78222    13917.902     8376.012    9043.6562    8254.3706    17.797372   -556.05743    688.73624   -7535.8273 
29916000    114.86039   -9703.1349   -9265.2346   -9703.1349            0     8459.539     24.76588    24.730634    22.769494    13945.766    7623.7053    8718.2153    9036.6965    595.08856   -31.057378    1389.4043   -7544.6939 
29917000    112.21804   -9732.5015   -9304.6751   -9732.5015            0    9341.8928    24.724897    24.764255    22.694785    13895.873    9183.0086    8936.0936    9906.5761   -31.567027   -347.08013    283.09469   -7411.4747 
29918000    117.59783   -9709.9366   -9261.6001   -9709.9366            0    7287.9648    24.702777    24.808011     22.84245    13998.465    7565.4292    6605.9986    7692.4665    -684.9891   -102.61889    60.838837   -7773.7383 
29919000     116.9117   -9724.8018   -9279.0811   -9724.8018            0    7859.0159    24.731986    24.744268    22.802264    13954.413    7713.0969    8051.6139    7812.3368    190.07725   -581.24901    64.990642   -7679.6864 
29920000    116.41857   -9725.0049   -9281.1642   -9725.0049            0    9479.8099     24.72674    24.670021    22.771268    13890.683    9116.4933    9870.0759    9452.8604   -208.97373   -415.57344    74.626076   -7360.7314 
29921000    115.07811   -9725.7537   -9287.0234   -9725.7537            0    7673.5118    24.806946     24.73303    22.768725    13969.773    8170.1108    7083.5296    7766.8949    274.13391   -24.006302    87.463479    -7723.662 
29922000    117.27602   -9725.6689   -9278.5593   -9725.6689            0    9223.9991    24.711206    24.724081     22.73025    13887.316    9242.0503    9020.6035    9409.3435   -338.50133   -724.42642   -22.800768   -7410.4019 
29923000    115.17403   -9721.7653   -9282.6694   -9721.7653            0    7879.3048    24.712152    24.713976    22.866714    13965.515    7907.5649    8119.0515    7611.2981   -84.408231    743.21822   -124.93835     -7677.87 
29924000    117.68939   -9733.2301   -9284.5444   -9733.2301            0    8376.5903    24.719096    24.679929    22.813174    13917.531    8509.3064    8953.0037    7667.4607    -137.7889    -192.4379    481.65258   -7584.3235 
29925000    111.80627   -9707.7725    -9281.516   -9707.7725            0    7775.0581    24.875196    24.776275    22.676009    13975.558     6943.816    7331.2199    9050.1385   -529.30625   -564.24059   -240.68452   -7696.8101 
29926000    113.45107   -9715.3164   -9282.7892   -9715.3164            0    8524.9776    24.718341    24.727602    22.777364    13922.101    8344.0893    8844.7117    8386.1319    386.17534    -1262.208    261.54225   -7551.8815 
29927000     118.3037   -9727.7913   -9276.7636   -9727.7913            0    7709.5839    24.714465    24.702721     22.86548    13959.707    7551.2388    7785.1826    7792.3303   -264.09645    158.44602   -83.397361   -7707.1847 
29928000     111.3687   -9699.0008   -9274.4125   -9699.0008            0    9191.8801     24.72465    24.740224    22.731467    13904.688    9350.8083     9112.389     9112.443   -113.12353   -525.77799    568.08746   -7410.4314 
29929000    113.49761   -9722.7183   -9290.0137   -9722.7183            0    7242.7557     24.72159    24.844279    22.782494    13992.782    6856.9976    6950.3346    7920.9349   -342.74932   -154.86152   -282.89205   -7811.9818 
29930000    113.80124   -9724.5631   -9290.7009   -9724.5631            0    8450.8787     24.68599     24.73956    22.819815     13936.53    8737.9625    8766.9108    7847.7628   -130.72758   -313.32337   -100.10787   -7573.0599 
29931000    112.55344   -9710.9701   -9281.8651   -9710.9701            0    8457.3515    24.682178    24.818329     22.74684    13934.041    9277.1295    7142.7788    8952.1463    36.954188    221.47664   -874.01527   -7563.2154 
29932000    115.82101   -9706.0619   -9264.4994   -9706.0619            0    7582.5106    24.790648    24.774798    22.750721    13973.112    7090.8327    7702.0458    7954.6534    321.45407    3.4000439   -295.86574   -7719.3088 
29933000    116.06906   -9717.9937   -9275.4855   -9717.9937            0    9350.5932    24.654582    24.726851    22.800727    13900.011    10023.824    9088.5746    8939.3814   -2.1902014   -118.28892   -163.61596   -7379.9575 
29934000     117.3626   -9724.3677   -9276.9279   -9724.3677            0    7986.2487    24.706196    24.750275    22.837796    13964.973    7502.9627    8527.7852    7927.9983   -10.399196   -684.23467      501.142   -7650.4101 
29935000    119.70067   -9707.8756   -9251.5221   -9707.8756            0    8382.6582    24.766266     24.71998    22.786223    13950.218    8098.0603    8512.8605    8537.0537    241.40588   -41.090883    519.84925   -7546.0735 
29936000    122.39598    -9736.187   -9269.5577    -9736.187            0    6894.0812    24.824272    24.666579    22.864892    14000.856    6284.7225    7312.1426    7085.3785    16.710484    121.24566   -52.390812   -7861.8681 
29937000    113.57675   -9730.3573   -9297.3509   -9730.3573            0     9373.996    24.766066    24.673196    22.714356    13879.789    8378.8585    9952.3543    9790.7754    479.15051   -539.91607   -393.69509   -7399.8434 
29938000    117.88045   -9711.7555   -9262.3414   -9711.7555            0    8008.5916    24.727457     24.79411    22.753644    13950.152    8009.7047    7714.5448    8301.5252   -1095.4226   -61.158133    474.24618   -7633.0042 
29939000    112.41082   -9731.3838   -9302.8225   -9731.3838            0    8478.9053    24.671051     24.72393    22.838673    13930.799    8383.0618    8985.0231     8068.631    263.77536    1019.3033    236.70305   -7580.1937 
29940000    118.59514    -9705.817   -9253.6783    -9705.817            0    9146.3302    24.709347    24.744965    22.740416    13904.216    9011.2348    8926.3784    9501.3775   -542.69549    100.59226    275.48236    -7398.997 
29941000    114.78218   -9715.1179   -9277.5159   -9715.1179            0    8101.6892    24.693231    24.817451    22.750082    13941.775    8873.5646    6666.3866    8765.1163    353.06002    52.311502    11.504673    -7630.228 
29942000     117.5372   -9716.9511   -9268.8457   -9716.9511            0    7719.2907    24.687509    24.810569    22.799416    13964.896    8189.2367    7430.6879    7537.9475    107.35048   -437.72004   -435.02059   -7696.7065 
29943000    116.28035    -9719.392   -9276.0782    -9719.392            0    8845.2373    24.663312    24.751698    22.818793    13929.934    9299.2806    8301.2922    8935.1392    -105.9628   -236.63768   -694.11787   -7479.1347 
29944000    111.98313   -9700.5499   -9273.6191   -9700.5499            0    9800.0425    24.599471    24.758486    22.798237    13885.167    10165.376    10145.085    9089.6663   -111.93792   -1201.9623   -121.12549   -7289.1015 
29945000    114.06334   -9712.0965    -9277.235   -9712.0965            0    7979.7627    24.739904    24.766401    22.769747    13951.442    8513.5543    7500.7005    7925.0333   -800.23394   -499.93341    342.37873   -7653.6128 
29946000    117.03061    -9719.109    -9272.935    -9719.109            0    8339.1151    24.768786    24.755923    22.729619    13937.215    8332.9102    8170.1707    8514.2644   -113.35557    68.760293    151.57973   -7577.9265 
29947000    120.05478   -9734.0168   -9276.3133   -9734.0168            0    8462.5482    24.704722    24.699164    22.823398    13926.518    8526.2775    8547.8939    8313.4733    216.18184   -34.748833    393.80909   -7557.5361 
29948000    116.44426    -9711.141   -9267.2024    -9711.141            0    8701.8371    24.724185    24.743778    22.760955    13924.464    8855.1105    8054.4233    9195.9776   -1020.6724   -688.49183    199.88623   -7500.0853 
29949000    114.06382   -9690.2124   -9255.3491   -9690.2124            0     9725.331    24.791134     24.73492    22.637023    13881.175    9723.1006    8552.3394    10900.553    537.25898   -307.72629     437.1101   -7286.5269 
29950000    118.70364   -9734.1756   -9281.6232   -9734.1756            0    7367.0419    24.727092    24.782045    22.810337    13977.898    6951.2868    7385.2087    7764.6302    271.47023   -1082.4245   -40.083415   -7779.8274 
29951000    120.91295   -9719.4582   -9258.4829   -9719.4582            0    8372.4203    24.672204    24.685772    22.875407    13932.321    8193.5365    8753.0774     8170.647    352.40036   -407.21566   -63.887993   -7557.3024 
29952000    115.51941   -9725.1247    -9284.712   -9725.1247            0    7866.6681    24.729826    24.785228     22.76298    13952.213    6829.2153    8656.6498    8114.1392   -325.01288    -487.1659   -55.972532   -7684.0125 
29953000    115.25667   -9732.4473   -9293.0363   -9732.4473            0    9324.7918    24.694772    24.773495    22.669499    13868.651    9411.5113    9021.4135    9541.4505   -663.65626    862.98476    166.05565   -7407.0034 
29954000    111.15713   -9692.0762   -9268.2945   -9692.0762            0    8261.4507    24.695083     24.73647    22.820509    13940.345    8391.3967    8630.4608    7762.4946   -287.68829   -476.72608    -462.6932    -7588.695 
29955000    110.72883   -9711.0681   -9288.9193   -9711.0681            0    9510.2576    24.691464    24.758846     22.70931    13882.931    9171.2563    9466.7356    9892.7811    53.576691    -310.9595    675.51019   -7363.3935 
29956000    112.46087   -9744.0924   -9315.3403   -9744.0924            0    8153.3298     24.74727    24.755903    22.740119     13931.53    7454.2665    8094.4245    8911.2984    25.175206    25.693086    650.73464   -7658.7706 
29957000    113.91634   -9709.4896   -9275.1886   -9709.4896            0    8545.0316    24.757352    24.620928    22.851539    13929.132    8950.0263     8990.049    7695.0194    435.17653    63.637201    1411.8026   -7539.3329 
29958000    116.91884   -9726.9396   -9281.1916   -9726.9396            0    7823.2224    24.736555     24.72624    22.820594    13958.034    7683.3247    7982.3727      7803.97   -257.88412   -828.90879   -521.47814   -7688.6682 
29959000     114.4307   -9697.8441   -9261.5821   -9697.8441            0    8794.8218    24.788132     24.80673    22.656082    13931.507    8430.3065    8359.2296    9594.9292   -267.13051   -897.19875   -27.980129   -7474.6789 
29960000    117.11415   -9722.0196   -9275.5271   -9722.0196            0    8032.5042    24.732708    24.752936    22.781987    13947.295    8463.2005    8096.0422    7538.2701    2.9675755   -667.39486    427.59493   -7641.6596 
29961000    113.69654   -9702.9161   -9269.4531   -9702.9161            0    7907.3327    24.588259    24.813987    22.894557    13968.719    9108.1425    6824.2154    7789.6402    273.20709    339.65277   -326.19248   -7658.5757 
29962000    114.57769   -9720.4626   -9283.6402   -9720.4626            0    8184.4033    24.737453     24.83097    22.711619    13950.724    7573.5998    7797.2355    9182.3747   -132.63905   -1180.4592    -350.5768    -7618.466 
29963000    112.82192   -9720.1443   -9290.0157   -9720.1443            0    7853.7951    24.692948    24.851956    22.747796    13959.596    8100.6898    7110.5124    8350.1831    742.36651   -677.97591    282.25186   -7691.0899 
29964000    118.89165   -9719.2249   -9265.9557   -9719.2249            0    8850.4505     24.66187    24.782539    22.761404    13911.401    9615.8387    7866.3311    9069.1818   -679.17083    646.48453    660.16389   -7470.3452 
29965000    115.40217    -9725.792   -9285.8263    -9725.792            0     8900.763    24.711945    24.705272    22.786895    13911.749    8321.3649       9472.6    8908.3241   -183.36535   -232.63244    237.58056   -7479.9631 
29966000    112.23783   -9722.1125   -9294.2107   -9722.1125            0    8137.6821    24.732729    24.770201    22.782949    13957.624      8230.49    8292.3708    7890.1853   -121.64372    328.32988    354.62767   -7637.7235 
29967000    119.76836   -9719.5945   -9262.9829   -9719.5945            0    8858.3004    24.671968    24.870954    22.662874    13906.288    8820.6221    7878.1746    9876.1044     169.3597   -616.70022   -752.46189   -7466.4404 
29968000    119.47337   -9736.5438   -9281.0568   -9736.5438            0    7880.1871    24.705769    24.774063    22.786859    13946.977    7667.5445     8162.915    7810.1019   -222.74454    575.89236   -913.20465   -7678.2082 
29969000    113.33839   -9725.7357   -9293.6381   -9725.7357            0     8392.634    24.779861    24.686587    22.758518    13922.073    7130.6008    9416.2604    8631.0407   -409.14396    -175.4942    471.90009   -7589.6048 
29970000    113.45389   -9716.9096   -9284.3716   -9716.9096            0    7726.9861    24.760322    24.735241    22.806594    13967.956    7280.3489    7932.8872     7967.722   -97.992813   -983.84291    253.61635   -7710.3203 
29971000    113.68934   -9712.1925   -9278.7569   -9712.1925            0    9055.1038    24.664125    24.765902    22.776851    13912.768    10521.918     7703.265     8940.128   -414.24554   -334.74339   -120.09601   -7441.4451 
29972000    112.88774   -9723.7792   -9293.3997   -9723.7792            0    7337.6951    24.735323    24.838686    22.763725    13985.872    7191.5467    6729.7909    8091.7476   -551.55629    448.85291    69.938865    -7796.733 
29973000    113.24136   -9707.6318    -9275.904   -9707.6318            0    9000.7517    24.742608    24.688803    22.765686    13906.769    8888.5864    8997.4671    9116.2015   -687.24617    107.73172    96.696875   -7450.4079 
29974000     120.1761   -9708.9589   -9250.7927   -9708.9589            0    7921.6264     24.78306     24.70132    22.796858    13955.651    7286.6091    8500.7127    7977.5573     236.3568    347.27408   -384.83045   -7638.5132 
29975000    115.53653   -9730.3136   -9289.8356   -9730.3136            0    8529.1735    24.759058    24.688205    22.800935    13937.225    8046.1709    8583.8783    8957.4712   -203.64885   -518.66127    225.06037   -7556.1948 
29976000    115.09935    -9720.944   -9282.1328    -9720.944            0    8312.2214     24.76166    24.756078    22.787258    13968.625    7649.2645    8344.6864    8942.7134   -449.48914   -287.52083     422.7391   -7588.7831 
29977000    117.11677   -9713.1792   -9266.6766   -9713.1792            0    8230.2077    24.725528    24.670317    22.861849    13945.422     7971.793    8742.1724    7976.6579   -419.32152    398.37542   -146.53466   -7592.8197 
29978000    113.85827   -9700.3667   -9266.2871   -9700.3667            0    8170.0144    24.745493    24.774967    22.733877     13937.43     8247.333    7998.9535    8263.7568   -417.36297   -73.385851   -400.01349   -7605.6244 
29979000    113.24148   -9725.3377   -9293.6095   -9725.3377            0    7526.7336     24.70396    24.865331    22.742691    13970.201    7908.3712    6889.0555    7782.7741   -396.87522   -488.71719   -207.20854   -7760.1048 
29980000    116.48681   -9714.9354   -9270.8345   -9714.9354            0    8518.2947    24.665542    24.766318    22.803238     13929.92     8422.402    8104.4562     9028.026   -387.90261   -608.92435    56.265956   -7540.3124 
29981000     119.0585   -9718.5456   -9264.6403   -9718.5456            0    7545.0722    24.671636    24.835653    22.795685    13967.741    8335.1985    6885.1753    7414.8428   -225.37147    -309.2944     50.15894   -7727.6701 
29982000    116.96459   -9712.4641   -9266.5417   -9712.4641            0    8702.4049    24.688444    24.796382    22.742431    13922.554    8814.5271    7904.8762    9387.8114   -212.84573    27.040341    649.69281   -7499.5517 
29983000    115.72859   -9703.6595   -9262.4494   -9703.6595            0     8648.865    24.706456    24.788334     22.76361    13941.161    9200.6365    8045.6332    8700.3254    308.77073   -198.96227    611.60894   -7503.9835 
29984000    117.86299   -9720.6504   -9271.3029   -9720.6504            0    7930.9898    24.745806    24.738656    22.815978     13967.44    7495.7887    7755.6766    8541.5039   -390.38743   -253.16158    -222.4206   -7655.7541 
29985000    114.97535   -9730.8672   -9292.5287   -9730.8672            0    8322.8353    24.668475    24.724238    22.848067    13935.248    8917.7505    8417.8047    7632.9507   -55.039596   -61.570083     98.41784   -7601.0681 
29986000    112.96465   -9702.5313   -9271.8585   -9702.5313            0     7662.862    24.736891    24.790046      22.7745    13965.976    8529.5359    7142.9537    7316.0965   -470.95482    220.97643    944.06018   -7711.0911 
29987000    115.28601   -9720.0752   -9280.5524   -9720.0752            0    9174.1132    24.784503    24.741626    22.670539    13901.777    9083.2752    8333.0705    10105.994   -779.92938   -133.46069    455.18704   -7420.5637 
29988000    119.14135   -9707.4555   -9253.2344   -9707.4555            0      7993.76    24.722681    24.751262    22.806105    13955.456    8362.5666    7357.4563     8261.257    366.16368   -889.07214   -439.60762   -7626.2963 
29989000    114.38465   -9706.5224   -9270.4359   -9706.5224            0    9217.9052    24.723058    24.648446    22.836347    13916.127    9457.3539     10013.76    8182.6012   -778.55842   -225.51438    201.97176   -7399.6396 
29990000    116.86969   -9706.8427   -9261.2821   -9706.8427            0    7987.1869     24.73303     24.78491    22.753266    13947.887    8566.5474    7370.5058    8024.5075   -555.35072   -202.40462     302.0189   -7636.5635 
29991000    115.40512   -9712.4271   -9272.4502   -9712.4271            0     7580.603    24.773836    24.818941    22.734331    13978.439    7546.1536    7187.5607    8008.0947   -381.61375    163.61387    716.87742   -7727.0593 
29992000    121.65965   -9721.5558   -9257.7338   -9721.5558            0    9659.9045    24.612446    24.701912    22.836925    13884.268     9878.168    9959.7438    9141.8015    -164.2964   -425.07624    93.221212   -7301.7209 
29993000     113.8409   -9719.6762   -9285.6628   -9719.6762            0    7987.0752    24.737781    24.753733    22.803186    13963.586    8240.9712    8006.7952     7713.459    659.69857   -17.699469    856.05172   -7659.1382 
29994000    114.44122   -9724.6435   -9288.3414   -9724.6435            0    8683.3944    24.742854    24.756541    22.730465    13923.489    8509.7696    8507.0715     9033.342   -387.16379    90.883761   -138.29546    -7525.093 
29995000    116.58873   -9717.2667   -9272.7773   -9717.2667            0    8243.4058    24.726489    24.736456     22.80263    13947.131    8006.6343    8687.6795    8035.9035    26.838139   -318.85594   -534.49805   -7596.0306 
29996000    112.61311   -9713.4087   -9284.0762   -9713.4087            0    8353.9272    24.676026    24.729841    22.828685    13930.844    8454.5895    8248.0332    8359.1589   -72.466366     -539.384     178.6496   -7586.8332 
29997000    115.34633   -9691.6636   -9251.9108   -9691.6636            0    8379.3283    24.715262    24.801734    22.721976    13928.148    8896.7701     7795.767    8445.4478    77.263445   -481.72578    423.28668   -7549.8367 
29998000    112.29079   -9730.5254   -9302.4217   -9730.5254            0    7026.2176    24.773404    24.785857    22.766734    13979.458    6421.2724    7123.5467    7533.8338   -131.46467   -672.46085    153.75243   -7869.9441 
29999000    114.16442   -9739.9055   -9304.6586   -9739.9055            0    8496.0797    24.674194    24.698538    22.830322    13913.176    8564.8643    8800.0789    8123.2959    336.19782   -631.29215   -530.55012   -7580.7242 
30000000    121.77995   -9733.5251   -9269.2444   -9733.5251            0    8027.8412    24.731431    24.642243    22.881949    13945.128    8341.3639    8479.6628    7262.4968    122.15157    192.19688    584.46212   -7636.5791 
Loop time of 596.645 on 64 procs for 250000 steps with 1920 atoms

Performance: 72.405 ns/day, 0.331 hours/ns, 419.010 timesteps/s
386.3% CPU use with 16 MPI tasks x 4 OpenMP threads

MPI task timing breakdown:
Section |  min time  |  avg time  |  max time  |%varavg| %total
---------------------------------------------------------------
Pair    | 71.942     | 74.253     | 78.654     |  26.6 | 12.45
Bond    | 1.5073     | 1.7442     | 2.0792     |  12.7 |  0.29
Kspace  | 299.74     | 307.48     | 314.1      |  26.1 | 51.53
Neigh   | 0.22609    | 0.24886    | 0.26631    |   2.9 |  0.04
Comm    | 79.419     | 89.076     | 96.765     |  50.4 | 14.93
Output  | 0.51337    | 0.51368    | 0.51507    |   0.1 |  0.09
Modify  | 89.744     | 101.62     | 107.53     |  47.3 | 17.03
Other   |            | 21.71      |            |       |  3.64

Nlocal:        120.000 ave         124 max         116 min
Histogram: 2 2 2 1 0 0 3 3 2 1
Nghost:        4286.94 ave        4309 max        4258 min
Histogram: 1 1 0 4 2 1 1 0 3 3
Neighs:        43628.8 ave       44969 max       41862 min
Histogram: 1 2 1 1 2 0 3 2 2 2

Total # of neighbors = 698060
Ave neighs/atom = 363.57292
Ave special neighs/atom = 2.0000000
Neighbor list builds = 450
Dangerous builds = 0

unfix		3
unfix		2
unfix		1

write_data	data.final.${pid}
write_data	data.final.0
System init for write_data ...
PPPM initialization ...
  extracting TIP4P info from pair style
  using 12-bit tables for long-range coulomb (../kspace.cpp:340)
  G vector (1/distance) = 0.37516519
  grid = 30 30 30
  stencil order = 5
  estimated absolute RMS force accuracy = 0.0031858344
  estimated relative force accuracy = 9.5940458e-06
  using double precision FFTW3
  3d grid and FFT values/proc = 7920 1800
Last active /omp style is kspace_style pppm/tip4p/omp
WARNING: Not all mixed pair coeffs generated from mixing. Use write_data with 'pair ij' option to store all pair coeffs. (../write_data.cpp:312)

write_restart   restart.lmp.${pid}
write_restart   restart.lmp.0
System init for write_restart ...
PPPM initialization ...
  extracting TIP4P info from pair style
  using 12-bit tables for long-range coulomb (../kspace.cpp:340)
  G vector (1/distance) = 0.37516519
  grid = 30 30 30
  stencil order = 5
  estimated absolute RMS force accuracy = 0.0031858344
  estimated relative force accuracy = 9.5940458e-06
  using double precision FFTW3
  3d grid and FFT values/proc = 7920 1800
Last active /omp style is kspace_style pppm/tip4p/omp
Total wall time: 0:09:56
