LAMMPS (30 Jul 2021)
  using 32 OpenMP thread(s) per MPI task
package omp 0
using multi-threaded neighbor list subroutines
echo both

include		in.partitions
variable        pid world 0
include		in.temp
variable	temperature equal 270.0
variable	tempDamp equal 100.0
include		in.pressure
variable        pressure equal 0
variable        pressureDamp equal 1000.0 # This is 1 ps
include		in.seed
variable        seed world 745823

units		real
atom_style	full
include		in.box
read_data       water.data
Reading data file ...
  orthogonal box = (0.0000000 0.0000000 0.0000000) to (18.207572 23.629178 22.213196)
  1 by 1 by 1 MPI processor grid
  reading atoms ...
  864 atoms
  reading velocities ...
  864 velocities
  scanning bonds ...
  2 = max bonds/atom
  scanning angles ...
  1 = max angles/atom
  reading bonds ...
  576 bonds
  reading angles ...
  288 angles
Finding 1-2 1-3 1-4 neighbors ...
  special bond factors lj:    0        0        0       
  special bond factors coul:  0        0        0       
     2 = max # of 1-2 neighbors
     1 = max # of 1-3 neighbors
     1 = max # of 1-4 neighbors
     2 = max # of special neighbors
  special bonds CPU = 0.000 seconds
  read_data CPU = 0.071 seconds
include 	in.setup
variable	out_freq equal 500
variable	out_freq2 equal 500

timestep	2.0

neigh_modify    delay 7 every 1

include		in.tip4p
# This is TIP4P/Ice

# create groups ###
group ox type 2
288 atoms in group ox
group hy type 1
576 atoms in group hy

# set charges - beside manually ###
set group ox charge -1.1794
Setting atom values ...
  288 settings made for charge
set group hy charge 0.5897
Setting atom values ...
  576 settings made for charge

# ### TIP3P Potential Parameters ###
pair_style lj/cut/tip4p/long 2 1 1 1 0.1577 8.5
pair_coeff 1 1*2 0.000 0.000
pair_coeff 2 2 0.21084 3.1668
bond_style  harmonic
bond_coeff  1 450 0.9572
angle_style harmonic
angle_coeff 1 55 104.52
kspace_style pppm/tip4p 1.0e-5
pair_modify tail yes

thermo          ${out_freq}
thermo          500
thermo_style 	custom step temp pe etotal epair emol press lx ly lz vol pxx pyy pzz pxy pxz pyz
thermo_modify   flush yes
restart 	${out_freq} restart.lmp.${pid} restart2.lmp.${pid}
restart 	500 restart.lmp.${pid} restart2.lmp.${pid}
restart 	500 restart.lmp.0 restart2.lmp.${pid}
restart 	500 restart.lmp.0 restart2.lmp.0


include         in.dump
dump            myDump all atom ${out_freq2} dump.water.${pid}
dump            myDump all atom 500 dump.water.${pid}
dump            myDump all atom 500 dump.water.0
dump            myDump2 all dcd ${out_freq2} dump.dcd
dump            myDump2 all dcd 500 dump.dcd
dump_modify     myDump append yes
dump_modify     myDump2 append yes


timer           timeout 23:50:00 every 1000
New timer settings: style=normal  mode=nosync  timeout=23:50:00

fix 		1 all shake 1e-6 200 0 b 1 a 1
       0 = # of size 2 clusters
       0 = # of size 3 clusters
       0 = # of size 4 clusters
     288 = # of frozen angles
  find clusters CPU = 0.000 seconds
fix             2 all nph aniso ${pressure} ${pressure} ${pressureDamp}
fix             2 all nph aniso 0 ${pressure} ${pressureDamp}
fix             2 all nph aniso 0 0 ${pressureDamp}
fix             2 all nph aniso 0 0 1000
fix             3 all temp/csvr ${temperature} ${temperature} ${tempDamp} ${seed}
fix             3 all temp/csvr 270 ${temperature} ${tempDamp} ${seed}
fix             3 all temp/csvr 270 270 ${tempDamp} ${seed}
fix             3 all temp/csvr 270 270 100 ${seed}
fix             3 all temp/csvr 270 270 100 745823
velocity 	all create ${temperature} ${seed} dist gaussian
velocity 	all create 270 ${seed} dist gaussian
velocity 	all create 270 745823 dist gaussian

run             1000000
PPPM initialization ...
  extracting TIP4P info from pair style
  using 12-bit tables for long-range coulomb (../kspace.cpp:340)
  G vector (1/distance) = 0.37089722
  grid = 24 27 25
  stencil order = 5
  estimated absolute RMS force accuracy = 0.0032495733
  estimated relative force accuracy = 9.7859934e-06
  using double precision FFTW3
  3d grid and FFT values/proc = 35904 16200
Last active /omp style is kspace_style pppm/tip4p/omp
Neighbor list info ...
  update every 1 steps, delay 7 steps, check yes
  max neighbors/atom: 2000, page size: 100000
  master list distance cutoff = 10.8154
  ghost atom cutoff = 10.8154
  binsize = 5.4077, bins = 4 5 5
  1 neighbor lists, perpetual/occasional/extra = 1 0 0
  (1) pair lj/cut/tip4p/long/omp, perpetual
      attributes: half, newton on, omp
      pair build: half/bin/newton/omp
      stencil: half/bin/3d
      bin: standard
Per MPI rank memory allocation (min/avg/max) = 39.73 | 39.73 | 39.73 Mbytes
Step Temp PotEng TotEng E_pair E_mol Press Lx Ly Lz Volume Pxx Pyy Pzz Pxy Pxz Pyz 
       0          270   -5396.4194   -4933.6487   -5396.4194            0     -8991.61    18.207572    23.629178    22.213196    9556.7825    -9272.227   -9505.9789   -8196.6242   -1637.6985    784.46514    906.24441 
     500     266.3966   -4198.8572   -3742.2626   -4198.8572            0    -362.1475    18.143528    23.510389    22.197335    9468.5262    679.12203    1281.4838   -3047.0483   -1246.7122   -307.46771     147.8958 
    1000    278.21778   -4207.3147   -3730.4589   -4207.3147            0    703.70911      18.0341    23.543305     22.16836    9412.2935     1183.143    939.95314    -11.96882   -338.58857   -244.08317   -196.96468 
    1500    258.56863   -4196.7758    -3753.598   -4196.7758            0   -1264.7922     18.28809    23.640262    22.084132    9547.7484   -1154.6105   -923.23862   -1716.5274   -786.60994   -296.66039   -702.86459 
    2000    277.64216   -4222.3223   -3746.4532   -4222.3223            0    505.39996    18.148624    23.456151    22.272693    9481.4154    287.02677     784.3349    444.83822   -389.21029    -522.9566   -57.322479 
    2500    278.99055   -4202.4072    -3724.227   -4202.4072            0   -174.54469    18.028088     23.61801    22.126409    9421.1498    25.924796   -1058.3579      508.799   -171.47516   -1183.1444   -158.36137 
    3000    272.16196   -4210.3728   -3743.8965   -4210.3728            0   -790.94004    18.218465    23.604195    22.214379    9552.8981   -1951.9351   -150.46027   -270.42476   -133.93796    65.077276   -105.89848 
    3500     254.3317   -4208.6078    -3772.692   -4208.6078            0    8.4444966    18.270972    23.371415     22.16149    9463.3653   -360.98881   -529.91159    916.23389   -12.921655    541.53062    9.6262696 
    4000    260.81808   -4228.4646   -3781.4314   -4228.4646            0   -1403.8701     17.82281     23.96576    22.370142    9555.1194    343.90901   -2709.8577   -1845.6616   -831.11801    1070.3493   -188.72019 
    4500    260.82745   -4211.1916   -3764.1422   -4211.1916            0    197.36978    18.235831    23.424491    22.171774    9471.0071    1035.7232   -871.10225    427.48836   -1188.2364    691.95928   -32.273928 
    5000     266.6678   -4188.7222   -3731.6628   -4188.7222            0    -775.4279    18.249025    23.571916    22.229242    9562.2307   -674.36743   -491.07863   -1160.8376   -191.38504   -199.71602   -680.03941 
    5500    263.35917   -4229.4106    -3778.022   -4229.4106            0    300.50212    17.902785    23.969939    22.025882    9451.9374     704.9218    -1020.002    1216.5865     330.7615   -219.72282   -19.959282 
    6000    287.55846   -4212.1466   -3719.2812   -4212.1466            0   -697.29495     18.34386    23.159448    22.418307    9524.0517    -2032.089    715.19512   -774.99097    185.04181    837.94538   -552.24526 
    6500     266.8899   -4217.5434   -3760.1032   -4217.5434            0   -313.04556    18.150196    23.796287    22.251935    9610.7725    1279.1004   -472.20573   -1746.0313    1140.2134   -566.97049     516.6816 
    7000    284.39859   -4231.1008   -3743.6514   -4231.1008            0    1145.7536    18.125487    23.622684    22.010969     9424.495    2563.6546    411.63576     461.9704   -631.46426     237.6832    146.69597 
    7500    260.27969   -4189.7444   -3743.6339   -4189.7444            0   -350.40952    18.202551    23.440979    22.360778    9541.0224   -222.10748   -111.57267   -717.54843   -369.04269   -493.98739   -63.568301 
    8000    285.95986   -4213.6822   -3723.5567   -4213.6822            0   -717.09229    18.164056    23.688925     22.22211     9561.884   -283.32762   -770.79897   -1097.1503   -1177.2162   -214.81952   -819.42679 
    8500     272.4604   -4199.4597   -3732.4719   -4199.4597            0    1228.6153    18.236155    23.731673    21.874498     9466.724    2578.8123    83.809573     1023.224   -533.37075    204.09827    326.90149 
    9000    276.40632   -4180.7062   -3706.9553   -4180.7062            0   -761.77395    18.188554    23.469959    22.462465    9588.8809   -903.03283   -753.31633   -628.97269   -366.34267    533.49147   -50.245574 
    9500    284.77219   -4216.3871   -3728.2973   -4216.3871            0    839.02711    18.044204    23.541671    22.300211    9472.9224   -635.04286    1981.2381    1170.8861    151.00318    563.30847   -534.17464 
   10000    268.94461   -4186.2086   -3725.2468   -4186.2086            0     579.8409    18.195523    23.685708    22.070324    9511.7326    270.49061   -1050.0259     2519.058   -379.44054    62.255846    216.76413 
   10500    288.09652   -4186.9955   -3693.2079   -4186.9955            0   -289.51514     18.17885    23.614066    22.120398    9495.7687   -1371.2506    517.52209   -14.816871    118.57765   -599.58694    -10.86461 
   11000    263.06012   -4187.6233   -3736.7473   -4187.6233            0    887.62631    18.195236    23.149971    22.466416    9463.2851   -793.34295     3405.903    50.318909   -669.98735    567.99633   -1019.2688 
   11500    258.90519   -4211.7333   -3767.9787   -4211.7333            0   -496.95579    18.107864    23.959606    22.063155    9572.2603    879.39249   -2322.5062   -47.753673   -64.549961   -1112.2272    518.99634 
   12000    273.95338   -4162.5196   -3692.9729   -4162.5196            0    469.44621    18.227525     23.59567    22.104111    9506.7721   -2.1287135    -487.9223    1898.3897   -9.8771679     406.7785    499.15221 
   12500    274.84347   -4209.2509   -3738.1786   -4209.2509            0   -415.52952    18.082918    23.537478    22.358222    9516.2466    282.96067    430.46531   -1960.0146   -108.47478   -1246.6278    655.01139 
   13000    281.77837   -4195.1401   -3712.1816   -4195.1401            0    447.06916    18.176725     23.76168    21.949127    9480.0368     -304.427    1554.8812    90.753301   -406.20757    232.15108   -266.60667 
   13500    260.69551   -4211.6054   -3764.7822   -4211.6054            0   -673.71494    18.321229     23.54829    22.206997    9580.8451   -818.71278   -1540.5841    338.15211     558.1983   -432.70775    217.50221 
   14000    268.57347   -4225.1808   -3764.8551   -4225.1808            0    370.21859    17.938926    23.485939     22.42116     9446.316    761.25427   -256.36654    605.76803    928.48369   -60.330062   -656.55448 
   14500    271.17073   -4233.3268   -3768.5494   -4233.3268            0   -172.13292    18.387486    23.616669    21.840098    9484.0885   -1852.5653    179.67443    1156.4921   -220.74806    19.632232     718.8052 
   15000    280.72553   -4215.2523   -3734.0984   -4215.2523            0   -346.10679    18.180734     23.54465    22.149289    9481.2031    -1613.556    1032.6916   -457.45598   -1039.6505    77.514265    831.18619 
   15500    275.44018   -4216.6102   -3744.5152   -4216.6102            0   -667.65026    18.051314    23.574742     22.40461    9534.3954   -778.16143     -479.352   -745.43733    833.20518    291.69765     936.4689 
   16000    287.27608   -4229.0179   -3736.6365   -4229.0179            0    473.20836    18.116581    23.483033    22.053619    9382.3211    -429.6053    2061.4976   -212.26718    1177.4367   -53.846599    701.64672 
   16500    288.31101   -4195.4145   -3701.2592   -4195.4145            0    -976.0258    18.219883    23.714798     22.21075    9596.8397   -1911.4856     -1443.35    426.75824   -641.25896    272.13037   -317.71128 
   17000     274.5097   -4203.0625   -3732.5623   -4203.0625            0    1522.1071    17.982515    23.508244    22.290397    9422.9835     2869.516    2254.5087    -557.7032    615.56442   -746.77463    680.70793 
   17500    264.22419   -4190.7476   -3737.8763   -4190.7476            0   -968.87624    18.297407    23.616987    22.136758    9565.9488   -1803.4603    384.95914   -1488.1276   -53.918987   -104.99044    557.95209 
   18000    267.54655   -4229.7352   -3771.1696   -4229.7352            0   -788.38965    18.237145    23.889808    22.023831    9595.3842   -1139.6967   -1085.5385   -139.93377     1110.387    297.08475   -191.44684 
   18500    271.73489   -4227.3429   -3761.5986   -4227.3429            0    1198.5212    18.077533    23.401145    22.270511    9421.2046     3049.369    1303.1841   -756.98968   -126.34653   -890.06674     455.6166 
   19000    267.39511   -4198.4411    -3740.135   -4198.4411            0   -307.03858    18.167138    23.640681    22.286752    9571.7925   -1257.9376    1859.4589   -1522.6371   -1178.3146    404.71658   -255.03034 
   19500    272.87513   -4194.6237    -3726.925   -4194.6237            0    1340.3435    18.243188    23.544084     21.94518    9425.8753    1030.0565     1619.304    1371.6699    231.84803    580.06388    187.99961 
   20000    280.84555   -4235.5731   -3754.2135   -4235.5731            0   -900.07485    17.995762    23.616327    22.431348    9533.1835   -784.23302    -1014.331   -901.66051    875.03966   -768.76617   -666.48616 
   20500    269.43968   -4198.6151   -3736.8048   -4198.6151            0   -693.02231    18.167141    23.587444    22.351792    9578.1099   -1094.2884   -885.78782   -98.990681   -142.90944    321.74213    67.288498 
   21000    258.28916   -4195.8811   -3753.1823   -4195.8811            0    770.38092    18.249904     23.60012    22.100056    9518.4929   -806.93113    1727.0847    1390.9892     -646.796   -206.16112   -112.46559 
   21500    277.82072   -4243.1142    -3766.939   -4243.1142            0   -605.26228    18.164391    23.762863    22.115145    9545.7354   -170.03648   -1648.2918    2.5414777     365.4771     125.7384    233.25342 
   22000    287.06911   -4210.7496    -3718.723   -4210.7496            0   -888.97325    18.179766    23.417638    22.520518    9587.5964   -1620.1447   -426.94711   -619.82796   -671.76228    -1077.471    627.26412 
   22500    274.90239   -4223.5908   -3752.4175   -4223.5908            0    956.27263    18.294845     23.61597    22.008103    9508.6119    315.51853   -554.96271    3108.2621    38.163293   -436.92916   -366.80148 
   23000    256.22186   -4195.5469   -3756.3914   -4195.5469            0   -1127.3797    18.150571    23.934053     22.12614    9611.9652   -17.946421   -1455.9179   -1908.2747    618.34699   -658.89645    531.16226 
   23500    262.37023    -4176.214   -3726.5204    -4176.214            0    944.20753    18.133409    23.317919    22.415411    9477.9833    232.43828    1613.6628    986.52154    430.55712   -415.82557    797.84605 
   24000    292.22521   -4179.0073   -3678.1433   -4179.0073            0    290.84566    18.203681    23.618677    22.126654    9513.2856     554.5017   -498.39915    816.43443    -152.8938   -566.31587    155.52405 
   24500    256.30106   -4204.6671   -3765.3759   -4204.6671            0    1750.2437    18.122701    23.696662    21.951757    9427.1274    1396.4588    824.92071    3029.3515    709.27031    182.68539    570.82851 
   25000    269.97567   -4187.1239   -3724.3949   -4187.1239            0   -68.206772    18.152353    23.285971    22.501608    9511.3205    516.05527    30.961487   -751.63707    44.119638    142.09874    -266.2085 
   25500    264.33073   -4200.7552   -3747.7014   -4200.7552            0    102.87973    18.020451    23.644746    22.357663    9526.3537    1255.8684   -1034.8221    87.592926    332.39854    230.58296    718.97729 
   26000     271.8687   -4158.8434   -3692.8697   -4158.8434            0    351.75035    18.341591    23.674313    21.983241    9545.6631    180.42969    939.18989   -64.368547   -428.57077   -637.99615   -378.03206 
   26500    263.86752   -4250.2024   -3797.9425   -4250.2024            0   -31.049862    18.122715    23.686139    22.246774    9549.5871    383.12333   -448.74496    -27.52796    816.53679    423.65859   -700.84327 
   27000    279.42918   -4194.3329   -3715.4009   -4194.3329            0   -320.52048     18.17715    23.284432    22.553873    9545.8051   -828.64358   -1358.4124    1225.4946   -468.33737    312.63774   -177.84579 
   27500    280.32026   -4206.5405   -3726.0812   -4206.5405            0   -629.12033    18.296649    23.722694    22.011109    9553.8295   -89.593178   -917.13916   -880.62866   -1005.5996    4.4433718   -102.50063 
   28000    266.80474   -4207.1866   -3749.8924   -4207.1866            0   -362.07572     18.15284    23.772589    22.194937    9578.0035   -651.84002    -249.1783   -185.20883   -101.87137   -446.69225    194.24481 
   28500     264.1251   -4190.8885   -3738.1871   -4190.8885            0    233.61832    18.266066    23.270309    22.362314    9505.2582    -664.0301    4153.6879   -2788.8029    995.41688   -568.41951    310.24765 
   29000    267.56035   -4237.0886   -3778.4994   -4237.0886            0    964.36328     17.98288    23.808678    22.099792    9461.9952    1850.1002    843.90577     199.0839    281.12852    -686.2069    169.62588 
   29500    271.56856   -4206.5793   -3741.1201   -4206.5793            0   -1033.7465    18.351748    23.615568    22.120313    9586.6549   -1373.5177   -1223.8264   -503.89543    525.60198   -632.00076    55.048953 
   30000     274.3686   -4188.3856   -3718.1272   -4188.3856            0    215.27198    18.188452    23.496259    22.237759    9503.5415    1560.1037   -754.67836   -159.60936    447.35016    -450.1683   -44.697424 
   30500    269.11643   -4229.2738   -3768.0175   -4229.2738            0   -264.94437    18.094311    23.613324    22.189779    9480.9564    860.95775   -1364.6607   -291.13018    388.09808   -631.36721    483.50335 
   31000    278.80897   -4180.8891     -3703.02   -4180.8891            0   -1215.7941    18.336565    23.638046    22.253217     9645.447   -907.55701   -630.69177   -2109.1336    917.75052   -957.53057   -348.87751 
   31500    270.78842   -4205.3246   -3741.2025   -4205.3246            0    707.30227    18.047856     23.55214    22.154683    9417.1941    1005.8354    301.34234    814.72911    445.39671    407.56711    1066.3728 
   32000    272.39024   -4194.2487   -3727.3811   -4194.2487            0   -1290.6148    18.160855    23.784872    22.322582    9642.3195   -1072.1902   -1176.0482   -1623.6059   -443.78107   -97.100925    153.11341 
   32500     273.0398   -4193.9369    -3725.956   -4193.9369            0    64.418234    18.325446    23.586031    22.097395    9551.0362    760.31114   -807.59855    240.54212   -943.12518    499.79836   -67.548836 
   33000    278.38096   -4208.7151   -3731.5796   -4208.7151            0    251.09221    18.107661    23.626569     22.22313    9507.5413    790.70105    -1234.727    1197.3026    300.70988    124.19306   -241.01321 
   33500    271.74325   -4214.7205   -3748.9619   -4214.7205            0   -510.10822    18.197059     23.61327    22.200892    9539.5471   -780.03163   -477.32144   -272.97161    206.89828   -891.78557   -544.39823 
   34000    264.71631   -4224.4498   -3770.7351   -4224.4498            0   -1625.2965    18.342444    23.673406    22.132564    9610.5822   -2230.9062   -1804.1227   -840.86053   -18.747159    408.86463   -324.31312 
   34500    254.89195   -4221.3187   -3784.4426   -4221.3187            0    1618.2685    17.918242    23.429707    22.409977    9408.1377    1612.8325    1855.4357    1386.5372   -730.67879    929.56781    423.94395 
   35000    257.56327   -4224.8154   -3783.3608   -4224.8154            0    193.96882    18.203299    23.633608    22.088656    9502.7527   -1331.2704   -49.865633    1963.0425   -1302.1798    75.703924    1175.5175 
   35500    274.86907   -4223.3468   -3752.2306   -4223.3468            0    -29.20546    18.278705    23.660937    21.902263    9472.5379     545.5677   -607.41277   -25.771309    779.14684   -593.93214    289.70306 
   36000    255.20174   -4199.5782   -3762.1711   -4199.5782            0    109.72376    18.086734    23.541571    22.392076    9534.3247   -568.25829    750.20455    147.22503    922.23198   -323.60761   -208.46681 
   36500     278.8647   -4181.7593   -3703.7948   -4181.7593            0    449.64233    18.200988     23.38253    22.285142    9484.2249    887.14428    196.68576    265.09696    1062.3227    217.58726    532.14441 
   37000    274.84518    -4195.471   -3724.3957    -4195.471            0    747.91562    18.188313     23.89773    21.775657    9464.9936   -714.76279   -1385.1059    4343.6155   -594.22359    674.97908    72.442175 
   37500    268.62864   -4204.3538   -3743.9335   -4204.3538            0    345.68945    18.168038    23.478921    22.300265    9512.5334   -363.28483    661.03256    739.32062   -1471.2589    593.26856    784.85889 
   38000     254.3945   -4176.0861   -3740.0627   -4176.0861            0    154.06878    18.082635    23.525275    22.339513    9503.2058    1620.7522   -642.03101    -516.5148   -446.92442    825.34476    692.50288 
   38500    255.62782   -4172.4729   -3734.3355   -4172.4729            0   -700.95715    18.277473    23.841817    21.897054    9542.0391   -881.64585   -1098.3772   -122.84838   -605.53884    198.90934    799.68874 
   39000     265.2509   -4192.1465   -3737.5155   -4192.1465            0   -376.94155    18.223656    23.404473     22.30845    9514.8902   -978.18255    1409.0018   -1561.6439   -291.13477    418.38884     34.03152 
   39500    261.68188   -4194.7424   -3746.2286   -4194.7424            0    381.35887    17.983554    23.487659    22.364796    9446.7015    584.96119    1101.1535   -542.03808   -33.427064   -339.33442   -689.14347 
   40000    272.41226   -4207.8477   -3740.9424   -4207.8477            0   -713.43778    18.306697    23.698139    21.889515    9496.4301   -1218.1354    -1235.996    313.81808   -239.00227    544.98625    -853.3108 
   40500    266.86571   -4250.0558   -3792.6571   -4250.0558            0   -392.35495    18.184296    23.467123    22.255137    9497.0042   -580.30864   -665.89219    69.135985    1105.8572   -243.10193    637.31678 
   41000    273.85582   -4215.2554   -3745.8759   -4215.2554            0   -193.99636    18.019845    23.680968    22.367826    9544.9634    1862.5658   -1414.4501   -1030.1048    1021.3289   -452.76842    892.14535 
   41500    272.77698   -4192.5387   -3725.0083   -4192.5387            0     698.9155    18.214015    23.501993    22.040428    9434.7503   -230.92403    304.79103    2022.8795    867.87344   -792.64882    41.773865 
   42000    263.94259   -4195.6689   -3743.2804   -4195.6689            0    1220.1998    17.966076    23.725153    22.055421     9401.077    2313.5637    549.52496    797.51086    739.03516   -107.64933   -703.58575 
   42500    274.11932   -4217.4278   -3747.5967   -4217.4278            0   -944.24379    18.249351    23.380803     22.40372      9559.32   -580.54764   -869.70933   -1382.4744    -279.2135   -525.31362     -141.395 
   43000    275.15083   -4190.8966   -3719.2975   -4190.8966            0    561.96255    18.152231    23.600453    22.060988    9450.9466    1353.7644   -204.69399    536.81721     799.4014    -387.0502   -521.05567 
   43500    261.03038   -4205.0873   -3757.6902   -4205.0873            0   -966.28487     18.32328    23.617605     22.13189    9577.6193   -2425.9612   -839.87952    366.98614   -191.88895     178.1559    354.31296 
   44000    275.96675   -4208.6669   -3735.6693   -4208.6669            0    233.44216    18.196415    23.448596    22.237377    9488.2524    381.51235   -131.86207    450.67621   -488.90231    696.47495     692.1056 
   44500    267.99695   -4179.8067   -3720.4691   -4179.8067            0    307.88695    18.070159    23.699758    22.236973    9523.1698    243.15787   -582.22875    1262.7317   -303.14377      350.723   -57.383867 
   45000    259.41207   -4243.1491   -3798.5257   -4243.1491            0    -524.6456    18.328428     23.44068    22.199919    9537.7695   -631.85314   -335.54739   -606.53629    410.70739   -574.08567    -219.0536 
   45500    264.09605   -4218.3257   -3765.6741   -4218.3257            0    817.21158    17.936102    23.827879    22.111209    9449.8721    1477.7015   -973.86803    1947.8013    732.89452    76.234994    189.65586 
   46000    276.72504   -4192.8919   -3718.5947   -4192.8919            0   -237.25248    18.185582    23.512447    22.290394    9531.0949    54.100282    694.69453   -1460.5523    -620.1771   -266.36143    490.44743 
   46500    269.22969   -4216.4704   -3755.0199   -4216.4704            0   -235.26699    18.266607    23.429156      22.2165    9508.0222   -49.980627    515.32976   -1171.1501    594.18474   -44.818453    -1005.996 
   47000    253.93568   -4193.5607   -3758.3236   -4193.5607            0   -112.36126      18.0124    23.746995    22.072694    9441.3826    581.94814   -374.85474   -544.17717   -695.17659    1233.1089   -187.55262 
   47500    270.26268   -4193.4528   -3730.2318   -4193.4528            0      -1662.1    18.412678    23.498605    22.269642    9635.4563   -3640.3383   -1432.7744    86.812759    423.34999   -473.04602   -141.92495 
   48000    266.16158    -4195.553   -3739.3612    -4195.553            0    1678.9728    17.996657    23.553688    22.107935    9371.2802    3231.4334    1226.3622    579.12276   -819.01529    829.37133     307.1349 
   48500    275.08581   -4197.1315   -3725.6438   -4197.1315            0    172.95469    18.091622    23.617719     22.18022    9477.2274    600.81432    38.129544    -120.0798   -336.15244   -276.62147    20.419603 
   49000    263.21075   -4168.0223   -3716.8881   -4168.0223            0    131.48976    18.337144    23.463473    22.196089    9549.9356   -223.17061   -742.94784    1360.5877    691.41661    405.70473    -115.0658 
   49500    299.46855   -4196.4593   -3683.1804   -4196.4593            0    2078.2045    17.840583    23.822482    22.052191    9372.3348    3131.7058    1279.6094    1823.2983    -641.3733   -369.52414   -734.55707 
   50000    262.18916   -4205.4305   -3756.0472   -4205.4305            0   -913.35368    18.311028    23.411293    22.309921     9563.925   -1554.8638   -721.71069   -463.48653   -941.07019   -624.62617    526.27372 
   50500     264.8521   -4176.3447   -3722.3973   -4176.3447            0    303.83184    18.138809    23.627467    22.131288    9484.8969     768.4497    318.45564   -175.40982   -342.92453   -3.5981032   -306.21527 
   51000    284.93191   -4197.7981   -3709.4345   -4197.7981            0   -553.39245    18.102083     23.56169    22.276215    9501.1548   -1423.5373   -249.94736    13.307285    416.65014   -721.39281   -129.82273 
   51500    288.36421   -4237.2823   -3743.0359   -4237.2823            0    -1936.574     18.34373    23.426133    22.348682    9603.7349   -2271.5256   -1519.7265   -2018.4698    66.268134    378.41748    410.51455 
   52000    264.70994   -4202.4684   -3748.7646   -4202.4684            0     1635.026     18.02053    23.718779    22.023243    9413.2841     2041.525    1283.0244    1580.5288    530.42587   -444.65541    409.78254 
   52500    265.28864   -4178.5337    -3723.838   -4178.5337            0    610.16907    18.218878    23.484504    22.257125     9522.963    773.51343    136.86741    920.12637     7.190769   -783.99457    110.33996 
   53000    268.28679    -4226.155   -3766.3206    -4226.155            0    141.32365    17.937162    23.730561    22.337206    9508.0307     1072.736     -429.618   -219.14705   -568.06495    -659.6327   -367.79955 
   53500    272.46856    -4208.456   -3741.4543    -4208.456            0    1318.5612    18.180554    23.473695    22.133493    9445.7956    491.33407    919.03505    2545.3145   -1898.2536    748.64238    165.63212 
   54000    269.83354   -4180.6627   -3718.1773   -4180.6627            0   -1061.5692    18.265268    23.677973     22.21728    9608.6298   -1660.4389   -2329.9794    805.71065   -250.75905   -405.81403    223.39146 
   54500    253.09687   -4226.2567   -3792.4573   -4226.2567            0    258.78877    17.983086    23.657091    22.251802    9466.5287    741.71769   -46.142304    80.790929   -789.43488    437.57575    629.94546 
   55000    255.27885   -4172.6476   -3735.1084   -4172.6476            0    -189.6685    18.349511    23.263266    22.213739    9482.3689    148.58524   -204.79184    -512.7989   -165.11772   -118.76356   -117.25607 
   55500    259.09045   -4223.8998   -3779.8277   -4223.8998            0   -232.65362    18.103089    23.757924     22.11966    9513.4847   -241.81904   -1601.0128     1144.871   -80.374132    189.83755   -270.96975 
   56000    272.88849   -4167.8457   -3700.1242   -4167.8457            0    653.36611    18.184409    23.488884    22.205034    9484.4688      700.197    333.00085    926.90049    330.59781    62.748015   -696.89965 
   56500    259.43073   -4181.4754     -3736.82   -4181.4754            0   -1070.7482    18.096714    23.667704    22.324811    9561.8875   -1590.9222    -1292.565   -328.75737   -45.908728    343.28173    493.93898 
   57000    270.70641   -4208.2193   -3744.2378   -4208.2193            0    992.07159    18.144833    23.705414    22.018268    9470.7345   -626.06202    1642.4599    1959.8169   -249.92479    185.79136    1236.4686 
   57500    274.21022   -4192.4104   -3722.4235   -4192.4104            0    1345.1909     18.21387    23.408282    22.216632    9472.1813    2186.0589     155.5873    1693.9265    357.06353   -68.871671   -558.12529 
   58000    275.21144   -4215.6753   -3743.9723   -4215.6753            0   -459.70083    18.078911    23.654036    22.256066    9517.5667    131.51352   -895.14544   -615.47056   -158.08686   -735.01495   -308.68197 
   58500    270.23465   -4200.3235   -3737.1506   -4200.3235            0    645.71553    18.313414    23.666903    21.975204    9524.5327    477.05665   -57.299127    1517.3891    647.67726    687.83062    413.28411 
   59000    268.12932   -4196.5808   -3737.0163   -4196.5808            0   -439.68632    18.260516    23.558085    22.195184    9547.9861   -1979.6931    1034.2906   -373.65639   -122.35815   -993.68654   -262.90912 
   59500     270.9572   -4191.0893    -3726.678   -4191.0893            0   -697.30804     18.02849    23.611954    22.448043    9555.8599    150.41513   -1032.9476   -1209.3916   -24.479547   -850.91678    422.20627 
   60000    257.41628   -4221.2646   -3780.0619   -4221.2646            0   -31.836971    18.327384    23.514292     22.07467    9513.1996   -2061.1165    707.98763     1257.618    -829.4684   -93.466267   -552.08416 
   60500    258.93986   -4217.7191    -3773.905   -4217.7191            0    156.68481     18.07277    23.812682    22.097307    9509.8216   -1131.5232   -532.66172    2134.2394   -146.63852    311.00633    938.56538 
   61000    270.90051   -4204.5148   -3740.2006   -4204.5148            0    1334.3284    18.023132    23.233717    22.446644    9399.4053    1482.3303    2035.8273    484.82776     1153.419   -796.79286   -584.49671 
   61500    274.77218   -4198.4522   -3727.5021   -4198.4522            0   -489.11339    18.257814    23.542351    22.190263    9538.0823   -863.93907   -85.072236   -518.32885    58.303178    280.29045   -504.81853 
   62000    272.93294   -4179.7885   -3711.9908   -4179.7885            0   -164.96964    18.120966    23.909684     22.05411    9555.3088    1027.0965   -436.99812   -1085.0073    219.05808   -346.27929   -320.47535 
   62500    256.50563   -4173.8578   -3734.2159   -4173.8578            0    1124.5975    18.249875    23.178745    22.339368     9449.758    1950.0276    575.60474    848.16018   -669.45205    159.09067   -529.07869 
   63000    274.89106   -4165.1631   -3694.0092   -4165.1631            0    95.715118    18.166387    23.643351    22.170701    9522.6322    579.01097    719.73658   -1011.6022   -153.82388    139.00568    987.01126 
   63500    253.68115   -4205.6298    -3770.829   -4205.6298            0    -1357.663    18.297445    23.701061     22.05828    9565.9892   -1567.6803   -1208.1205   -1297.1884    282.30387    238.89506     301.0031 
   64000    271.57577   -4204.5612   -3739.0896   -4204.5612            0    63.581923    18.124766    23.449591    22.415092    9526.8251    619.32145    1431.6959   -1860.2716   -975.51337    -344.4586   -54.034363 
   64500    260.10036    -4203.635   -3757.8319    -4203.635            0   -408.27925     18.03938    23.577757    22.290364    9480.7184   -627.05544   -572.59852   -25.183789   -248.24861    51.338965    103.33875 
   65000    255.29468   -4214.9583   -3777.3919   -4214.9583            0   -846.62522    18.331077    23.719989    21.922164    9532.0406   -1140.5651   -964.43264   -434.87792   -1145.0112   -443.17307    768.08414 
   65500    263.90095    -4195.333   -3743.0159    -4195.333            0    1009.8552    18.102321    23.521678    22.087379    9404.7391    968.87905   -850.50653    2911.1931   -601.07242   -261.93369   -784.01863 
   66000     276.7147   -4184.0921   -3709.8126   -4184.0921            0    797.31133    18.079623    23.369599    22.378109    9455.0537    2380.4645    1064.4341   -1052.9646    614.10757   -674.79424    578.22475 
   66500    275.72337   -4186.4771   -3713.8967   -4186.4771            0   -1621.7339     18.26469    23.744745    22.129069    9597.1651   -2030.6171   -2077.2993    -757.2854   -294.61212   -645.35848     236.9572 
   67000    265.58534   -4236.9012    -3781.697   -4236.9012            0    1242.8857    18.192709    23.489707    21.997099    9400.2713    478.61168    2333.0709    916.97462    32.887258   -19.203399    695.30508 
   67500    266.13168   -4212.7565   -3756.6159   -4212.7565            0   -1669.8353    18.161859    23.570648    22.487175    9626.4626   -1797.9523   -1427.4296   -1784.1239   -572.96743   -429.49994     547.4861 
   68000    259.55537   -4189.6357   -3744.7667   -4189.6357            0   -589.49961     18.16736    23.638876    22.209508    9538.0057   -969.06898    -570.2601   -229.16976   -371.29464    101.28915   -397.28227 
   68500    277.89107   -4205.1904   -3728.8946   -4205.1904            0    257.24581    18.264398    23.633715    21.917879    9460.9744    530.24281    450.42899   -208.93435   -575.81749   -515.34732   -556.40131 
   69000    262.50214   -4236.1623   -3786.2426   -4236.1623            0    -1290.956    18.108998    23.544237    22.460696    9576.3994    451.43917   -1875.1275   -2449.1796    130.51856   -221.60233    704.23257 
   69500    260.91439   -4205.9025   -3758.7042   -4205.9025            0    1154.9958    18.199217     23.47713    22.107803    9445.8991      93.3267    907.26475     2464.396   -574.68333   -312.06778   -302.38213 
   70000    267.13081   -4190.2447   -3732.3916   -4190.2447            0    493.24495    18.216227    23.693122    22.050832    9517.1233    175.69397    1057.5544    246.48645    -1447.748    86.813957    213.97758 
   70500     263.4393   -4184.7963   -3733.2703   -4184.7963            0    787.36224    18.155218    23.560631    22.302168    9539.7165    1060.4007    132.25446    1169.4315   -2.9067459     48.66566   -175.04918 
   71000    263.81919   -4197.0332   -3744.8561   -4197.0332            0   -817.95986    18.030077    23.538564    22.488698     9544.251   -1683.6046    78.491237    -848.7662    337.73354     39.33756    131.86098 
   71500    268.49896   -4214.8039   -3754.6059   -4214.8039            0    500.34806    18.264288    23.704372    21.802663    9439.3205   -1283.2676    803.36927    1980.9425   -1139.2255   -851.00646   -424.47603 
   72000     304.7062   -4198.7411   -3676.4851   -4198.7411            0    21.239345    18.166759    23.506752    22.276266    9512.8897    -1297.955   -776.16379    2137.8369    848.12725   -34.414547   -16.557318 
   72500    265.59091   -4204.5803   -3749.3666   -4204.5803            0   -512.25211    18.062791    23.551686    22.342187    9504.5717   -311.71206   -255.11407   -969.93019    -112.1374    453.71203    211.95316 
   73000    257.26751   -4218.5056   -3777.5579   -4218.5056            0    729.72243    18.142382    23.732997    21.905667    9431.9909   -886.86844    643.29641    2432.7393   -662.11008   -175.13484    -321.2675 
   73500    276.00832   -4188.0697   -3715.0009   -4188.0697            0   -16.550652    18.284439    23.401855    22.215001    9505.5719   -361.29513    738.46552   -426.82234   -1218.6302    443.36569   -613.67651 
   74000    264.57874   -4205.4433   -3751.9643   -4205.4433            0     337.7312    17.923563    23.712448     22.35339    9500.4494    2391.4414    480.40994   -1858.6578    1061.6741    1005.4594    134.67498 
   74500     274.7383   -4200.8015   -3729.9095   -4200.8015            0   -235.89702    18.217224    23.561285    22.123289    9495.7845   -561.30857   -764.72583    618.34333   -15.320248    147.92698     596.8971 
   75000    270.87415   -4215.3646   -3751.0956   -4215.3646            0    498.97808     18.10853    23.627074    22.120194    9464.1599    2051.6738   -145.91397   -408.82556   -610.84872    352.08849   -542.33235 
   75500    260.88005   -4214.2789   -3767.1394   -4214.2789            0    660.85485    18.105338     23.59146    22.310281    9529.4211    1492.0156     1021.154   -530.60498    317.41807    330.10588    664.28215 
   76000    267.04416   -4210.3826   -3752.6781   -4210.3826            0    711.53739    18.095586    23.463892    22.245489    9445.2763    986.82084    1862.8677   -715.07637    659.94738    27.018752    883.93171 
   76500    247.72864   -4240.1096   -3815.5111   -4240.1096            0    1034.3327    18.127856    23.615735    21.870834    9362.9616    1780.4115    401.41613    921.17047   -228.24521    34.612929    368.82641 
   77000    262.01289   -4213.6459   -3764.5647   -4213.6459            0   -1025.5011    18.182787    23.509273    22.231819    9503.3046   -748.40484    -727.9172   -1600.1814   -318.21562   -343.05234    476.74397 
   77500    277.81475   -4215.9894   -3739.8244   -4215.9894            0   -497.72926    18.056994    23.499398    22.496984     9546.111    316.53786   -660.46983   -1149.2558     302.2555   -187.27022   -626.03968 
   78000    288.18463   -4188.0663   -3694.1277   -4188.0663            0    462.62582    18.152448    23.577571    22.073361    9447.1916    1963.1237   -396.16448   -179.08177    255.73097   -124.86266   -51.098963 
   78500    261.86683   -4225.0204   -3776.1896   -4225.0204            0    21.077817    18.291601    23.605614    21.976413    9489.0738    1090.3038   -557.80401   -469.26635    288.28207   -81.734803   -466.50818 
   79000    277.47068   -4222.8957   -3747.3205   -4222.8957            0    548.51867    17.909132    23.485886    22.274767    9369.0306    304.42537    1084.9058    256.22488   -50.587606   -890.83407    389.01927 
   79500    256.61344   -4158.6793   -3718.8527   -4158.6793            0    351.55082    18.233569    23.438463     22.25361    9510.4552    607.84773    2148.2672   -1701.4625    744.47743    177.78774    134.12751 
   80000    283.21869   -4178.5785   -3693.1514   -4178.5785            0    489.46405    18.219447    23.759682    21.897296    9479.0827   -259.84733    516.85351     1211.386   -161.99704    127.02297    436.38164 
   80500    270.45989   -4200.6275   -3737.0685   -4200.6275            0    283.48576    18.114702    23.538474    22.268303    9495.0363   -922.10024    377.45371    1395.1038    597.11932    352.69177    -91.58582 
   81000    270.59863   -4205.2458    -3741.449   -4205.2458            0    1621.0885    18.153308    23.287681    22.174154    9374.0892    1193.9347    2470.9032    1198.4275    216.18907    477.14155   -297.69485 
   81500    263.57482   -4203.1785   -3751.4202   -4203.1785            0   -1660.5749    18.183854    23.917337    22.068227    9597.6786   -461.07883   -3192.5669   -1328.0788    194.04985    324.70942    534.96296 
   82000    254.45655    -4202.414   -3766.2842    -4202.414            0    495.24325    18.111834    23.368416    22.257386    9420.3244    942.21558    1173.7583   -630.24409   -989.35779   -187.87169    264.82634 
   82500    288.46846   -4171.6361   -3677.2111   -4171.6361            0    535.69229    18.079733    23.521612    22.237762    9456.9301     130.8909   -421.39682    1897.5828   -835.16747   -489.88613     226.4755 
   83000    252.96677   -4196.6297   -3763.0533   -4196.6297            0   -600.57714    18.372756     23.72753    21.835192    9518.8362    -2218.801   -1305.2362    1722.3059    247.53835    450.41573    465.79701 
   83500     273.8331   -4204.8979   -3735.5574   -4204.8979            0    478.19097    18.226929    23.469319    22.089667    9449.3763    876.56155    812.48858   -254.47723   -576.81332    802.52642   -573.44941 
   84000    279.17299   -4173.2029   -3694.7099   -4173.2029            0    -975.5398    18.006496    23.565953    22.413191    9510.8188      946.952   -853.23696   -3020.3344     534.6858   -166.02891    226.95756 
   84500    267.64204   -4217.7093     -3758.98   -4217.7093            0   -1555.7094    18.400842    23.553585    22.072208    9566.2228    -2109.918   -1723.2069   -834.00319    288.19563   -731.40059    53.415589 
   85000    270.88211   -4209.3774   -3745.0948   -4209.3774            0    929.23507    18.106269    23.620361    22.087962    9446.5053    337.05881    772.94661    1677.6998    1263.8631   -482.73403   -800.14132 
   85500    284.12856   -4179.9157   -3692.9291   -4179.9157            0   -1448.7711    18.208195    23.609392    22.332757    9600.5045   -1329.2832   -3062.1277     45.09755     -421.331    102.60704      709.218 
   86000    266.24563   -4194.1533   -3737.8174   -4194.1533            0    -98.38444    18.193827    23.547121    22.203003     9512.038   -366.19469    802.61464   -731.57327   -276.02159   -771.51491   -362.64192 
   86500    261.78299   -4216.0399   -3767.3528   -4216.0399            0     1036.186    18.050321    23.698876    21.966402    9396.6189     1316.815   -1214.7652    3006.5084    -1297.414   -188.26946   -381.45757 
   87000     275.1173   -4237.1704   -3765.6288   -4237.1704            0   -12.287141    18.260435    23.407294    22.339395    9548.4685    566.49056    403.73779   -1007.0898    853.22597    485.21503   -313.89679 
   87500    280.01779   -4222.4897   -3742.5488   -4222.4897            0   -258.91818    18.052942    23.692632    22.218144    9503.1827   -577.55191   -1911.4937    1712.2911   -1.0073412    276.94632   -406.41587 
   88000    277.95602   -4182.7319   -3706.3248   -4182.7319            0   -172.48848    18.352637     23.53821    22.088034    9541.7705   -1139.7412    283.12215    339.15364   -204.03384   -109.70193    753.73362 
   88500    270.53558   -4209.1855   -3745.4968   -4209.1855            0   -1494.1998    18.114071    23.560802    22.474956    9591.9073   -982.20489   -1165.4768   -2334.9178    122.12164    49.439886    143.03815 
   89000      274.832   -4248.6285   -3777.5759   -4248.6285            0    757.91877    18.009023    23.577911    22.166966    9412.4291    1123.0569    535.56673    615.13271    653.26613   -396.22748     1.510076 
   89500    252.77794   -4194.7201   -3761.4673   -4194.7201            0   -905.84576    18.598444    23.271656    22.057153    9546.7014   -1959.1102    -1083.582    325.15487    311.10063   -489.96823    276.78615 
   90000     277.7137   -4224.5132   -3748.5214   -4224.5132            0    1.9572358    17.899146    23.760184    22.335062    9498.8116    624.47682    391.20366   -1009.8088   -599.99034    -248.9004    42.065169 
   90500    271.72355   -4195.6258    -3729.901   -4195.6258            0    728.97758    18.155938    23.498747    22.176644     9461.483    1998.0698    673.75826   -484.89529   -410.48731   -298.07207    228.05165 
   91000    263.66124     -4228.85   -3776.9437     -4228.85            0     262.2175    18.274243    23.494194    22.126752     9499.869   -657.07406    2318.4464   -874.71981    806.52905    541.38985    896.63695 
   91500    249.11973   -4221.6023   -3794.6196   -4221.6023            0    -1244.855    17.884311    23.952662    22.238621    9526.5102   -724.53722    -1076.634   -1933.3938    478.12317    89.058384    366.90366 
   92000    281.11129   -4201.0302   -3719.2151   -4201.0302            0   -1077.3891    18.297195    23.243187    22.278337    9474.6454   -2119.3708   -339.98246   -772.81386    68.723951   -483.12916   -885.02428 
   92500    260.24438   -4224.2824   -3778.2324   -4224.2824            0    604.90807     18.13741    23.731642    22.010251    9473.8839    1058.3151   -928.98756    1685.3967     44.48812    437.79943   -398.15234 
   93000    267.53643   -4224.5829   -3766.0346   -4224.5829            0   -555.41847     18.12389    23.777481    22.134841    9538.7984     399.3195   -2170.1805    104.60564    367.71686    -541.9048    -534.9739 
   93500    257.63323   -4210.7224   -3769.1478   -4210.7224            0    -508.1409    18.381646    23.126605    22.417846    9529.9399   -1765.0346   -539.98757    780.59945   -416.11127    41.634759    240.24533 
   94000    261.75899   -4194.2542   -3745.6082   -4194.2542            0    1170.9622     18.04193    23.739041    22.034738    9437.4367     2412.644   -360.37306    1460.6156    -293.0573    349.57901     624.8433 
   94500    276.37687   -4222.4584   -3748.7579   -4222.4584            0    714.88239    18.251681    23.532352    22.161066    9518.2881   0.76877042    1196.3987    947.47964    573.77718    415.23702    410.14444 
   95000    271.64647   -4233.2658    -3767.673   -4233.2658            0    134.51219    18.144385    23.379467    22.323682    9469.8407    481.21524    235.46112   -313.13979    641.59021   -222.99566    250.67861 
   95500    270.20263   -4227.6141    -3764.496   -4227.6141            0   -257.04851    17.952093    23.982141    22.054496    9495.1137    1254.0683   -2488.4354     463.2216   -925.03025     513.6735    397.06731 
   96000    273.68566   -4192.2339    -3723.146   -4192.2339            0   -26.710989    18.361467    23.459336    22.132982     9533.734   -1521.4142   -389.50507    1830.7863    -747.0305   -681.68635   -462.18506 
   96500    287.48383   -4208.2962   -3715.5587   -4208.2962            0    1074.5504    18.055245    23.625933    22.255655    9493.6395   -275.09823    1634.7308    1864.0186   -327.74686    513.27512    1019.3379 
   97000    269.98386   -4202.0534   -3739.3103   -4202.0534            0   -142.94606    18.054316    23.627486    22.255002    9493.4967    704.42858   -122.56655   -1010.7002   -220.72125   -147.76802    629.46512 
   97500    277.86984   -4204.7954    -3728.536   -4204.7954            0    955.43983    18.426732    23.287312    21.995072     9438.285   -241.28255    2249.6072    857.99485   -278.41703    300.59507    118.18173 
   98000    266.05199   -4233.3927   -3777.3887   -4233.3927            0    604.87103    17.966761    23.850443       22.155    9493.7546      1494.88    176.80688    142.92625    1165.5056   -84.354904    516.72696 
   98500    274.61161   -4198.0756   -3727.4007   -4198.0756            0    -1505.438    18.338826    23.460112    22.362004    9620.8252   -615.36557   -1290.6101   -2610.3383   -200.75714    190.39982    180.73816 
   99000    260.69868   -4180.6943   -3733.8657   -4180.6943            0   -397.65362    18.204101     23.67673    22.175816     9558.078   -1826.1015    12.375941    620.76471   -364.96516    -48.88587   -228.28347 
   99500    276.94935   -4177.5554   -3702.8737   -4177.5554            0    216.39704     18.08641    23.732682    22.329927    9584.8757    1051.1282   -251.06204   -150.87501   -631.43869   -1383.1971    57.775217 
  100000    272.33583    -4228.763   -3761.9887    -4228.763            0    1681.5517    18.289529    23.169688    22.150417    9386.5202    1743.6494    2123.0606    1177.9451   -550.12615   -908.43507    261.77681 
  100500    265.70677   -4186.2717   -3730.8593   -4186.2717            0   -750.75584     18.13935    23.837495    22.145632    9575.6973    222.80475   -287.46761   -2187.6047   -434.59838   -378.23858    391.28682 
  101000      256.379   -4219.7967   -3780.3719   -4219.7967            0    596.36835    18.206477     23.51459    22.217813    9511.8421     1058.879    1745.8722   -1015.6462   -72.709767    378.85173   -838.52209 
  101500    265.61861   -4189.7301   -3734.4689   -4189.7301            0    1295.0767    18.071479    23.485644    22.234337    9436.7044    933.56085    299.70799    2651.9614   -71.581881    183.01079   -718.92735 
  102000    280.85175   -4199.4771   -3718.1068   -4199.4771            0    -617.8744     18.19511    23.794048    22.214394    9617.3962   -2.9604393    -1370.482   -480.18076   -668.46813   -340.37129    559.16536 
  102500    264.02223   -4224.4132   -3771.8882   -4224.4132            0   -1087.6216     18.29898    23.470002     22.17522    9523.7491    -1696.087     -108.651   -1458.1267    545.08341    184.42239    52.768045 
  103000    266.68201   -4182.8584   -3725.7745   -4182.8584            0    865.88582    17.823204     23.90552    22.278575    9492.2983    1772.2451    706.24984    119.16248    196.87384   -473.72621   -191.38526 
  103500    258.67933    -4196.168   -3752.8005    -4196.168            0   -489.76515    18.264758    23.587403    22.233695    9578.6805    173.95034   -1771.6022    128.35641    -818.7161    122.63126    477.86664 
  104000    276.80254   -4219.2231    -3744.793   -4219.2231            0    1421.8309    18.251558    23.447844    22.103646    9459.4695     2672.236     743.1809    850.07583    72.586973    327.29796    47.694192 
  104500    276.08424   -4218.8592   -3745.6603   -4218.8592            0   -515.84948    18.061818    23.830045    22.287408    9592.8111   -634.65785   -896.64695   -16.243647   -190.86221      319.616   -730.52269 
  105000    272.00142    -4184.785   -3718.5838    -4184.785            0    134.26384    18.340583    23.360851    22.229838    9524.4103   -846.60778    859.75746    389.64185   -299.53144   -453.90029   -122.21189 
  105500    286.22065   -4192.8303   -3702.2579   -4192.8303            0   -190.50575    18.089118    23.702753    22.121395    9484.8113   -285.11777   -187.20771   -99.191764   -193.67892   -623.19532    203.42704 
  106000    251.80468   -4209.1379   -3777.5533   -4209.1379            0   -705.77938    18.195928     23.63062    22.264321    9573.2365   -637.96049   -1377.7778   -101.59988   -193.15503   -126.46947    565.78551 
  106500    271.62291   -4204.3129   -3738.7605   -4204.3129            0    489.85996    18.102698    23.536303    22.182888    9451.4761   -155.30534    1645.1061   -20.220851   -344.07458   -1.8501272    1021.3543 
  107000     261.2861    -4213.881   -3766.0456    -4213.881            0   -37.370232    18.165536    23.701363    22.140725    9532.6437   -27.251653   -277.59641    192.73737   -73.116027    207.32728   -972.81316 
  107500    277.81903   -4218.6835   -3742.5112   -4218.6835            0   -706.12503    18.209951    23.541081    22.269042    9546.3363    772.83475   -848.96115   -2042.2487    1538.1698    157.01499    304.65939 
  108000    271.19516   -4205.3316   -3740.5124   -4205.3316            0    1537.8202    18.005623    23.645105    22.149753    9430.1435    2124.8227    1152.8303    1335.8076   -316.78087   -396.42745   -177.87229 
  108500     272.9738   -4190.4263   -3722.5586   -4190.4263            0   -102.78179    18.379795    23.546428     22.13565     9579.834    617.77949    167.01643   -1093.1413     665.5035   -434.65236   -1042.9208 
  109000    265.30797   -4208.8363   -3754.1075   -4208.8363            0    476.70186    18.068794    23.570246    22.258323    9479.5061   -387.79244    1161.4413    656.45675    995.78606   -311.91995    29.510963 
  109500    275.16673   -4209.0101   -3737.3838   -4209.0101            0   -264.93621    18.046863     23.62607    22.290982    9504.3494    99.677526   -184.73323   -709.75292   -857.98358    237.25655   -150.87885 
  110000    264.27374   -4197.8273   -3744.8712   -4197.8273            0   -1193.9639    18.438624    23.579686    22.068121    9594.7107   -2079.7981   -543.22962   -958.86387    461.53942   -611.49125    -181.2399 
  110500    274.62737   -4224.7526   -3754.0507   -4224.7526            0    443.96896    18.059388    23.585606    22.185407     9449.688   -80.996187    752.96261    659.94047   -622.90646    311.50788   -934.20095 
  111000    277.26896   -4209.7544   -3734.5249   -4209.7544            0   -1530.4416    18.177159    23.529642    22.444212    9599.4353   -1384.9767   -1445.7906   -1760.5575   -1079.8566    68.844281    114.50216 
  111500    288.18372   -4212.4939   -3718.5568   -4212.4939            0    1079.8032    18.229272    23.458985    22.050954    9429.8743    393.02146    979.26192    1867.1262   -896.41851    38.904295    -262.9548 
  112000    271.30424   -4200.3409   -3735.3347   -4200.3409            0     791.6991    18.072426     23.72413    22.013837    9438.4895    2.2043381    248.27678    2124.6162   -984.73773     69.15041     37.94051 
  112500    273.11525   -4214.1823   -3746.0721   -4214.1823            0   -1627.0211    18.180394    23.550169    22.478088    9624.0242   -2060.8819   -1476.8751   -1343.3061    1175.4533    576.71953   -77.154487 
  113000    275.03256   -4226.0575   -3754.6611   -4226.0575            0   -658.27236    18.114352    23.617379     22.33969    9557.2212   -350.10469   -146.24058   -1478.4718   -652.86483    231.38454    48.448107 
  113500    265.90535   -4211.4538   -3755.7011   -4211.4538            0    393.87814    18.245766    23.544568    22.041584    9468.8147    261.27861    1094.6667   -174.31088    -313.6237    994.31205    722.60533 
  114000    300.81055   -4212.2565   -3696.6775   -4212.2565            0   -1361.8343      18.2079    23.709102    22.367751    9656.0004   -1232.8323    -442.6035    -2410.067   -151.40173    499.86899    335.67102 
  114500    277.76603   -4240.0888   -3764.0074   -4240.0888            0   -316.66402    18.141493    23.536048    22.282141    9514.0078   -326.22153   -1061.5907     437.8202   -182.78277   -611.66082    686.77576 
  115000    265.67582   -4171.3604   -3716.0011   -4171.3604            0    135.70129    18.392443    23.765432    21.870923    9559.8759   -454.27221   -691.16654    1552.5426    599.83046   -220.45377   -395.38668 
  115500    271.14593   -4207.8957   -3743.1608   -4207.8957            0   -630.21919     18.03869    23.696633    22.410884    9579.6719    548.65346   -1288.8034   -1150.5076     53.80516     -184.489    316.91205 
  116000    268.86027    -4230.189   -3769.3717    -4230.189            0    588.96123    18.252103    23.350339    22.334989    9519.0113   -518.64661    1370.4994    915.03087    584.23988   -752.90696   -18.071481 
  116500    259.43134   -4163.5973   -3718.9409   -4163.5973            0    1150.6717    18.173223    23.672107    22.000512    9464.5865    733.93774    1356.2444    1361.8329   -699.31937   -35.645967   -865.26809 
  117000    259.59152   -4229.0091   -3784.0781   -4229.0091            0    -105.4178    18.201109    23.589382    22.215107    9538.1214    -1421.394    986.71182    118.42884    69.002142   -51.016774   -221.71141 
  117500    251.12884   -4206.7121   -3776.2858   -4206.7121            0    -1290.415    18.215506    23.520735    22.356058    9578.2764    -394.3638   -1913.4095   -1563.4718   -624.62586    38.477689    79.353727 
  118000    259.77805   -4206.6756   -3761.4249   -4206.6756            0    1893.5475    18.061425    23.516204    22.098562    9386.0581    685.78633    2106.0088    2888.8475   -1401.3067   -713.75532    103.34396 
  118500    267.99015   -4200.8761   -3741.5501   -4200.8761            0   -1013.5277    18.311061    23.824567    22.077629    9631.4339   -730.18639   -1746.3262   -564.07041    747.60448    567.74761   -517.74571 
  119000    282.71142    -4214.612   -3730.0543    -4214.612            0    912.79578    18.171797    23.455079    22.302255     9505.688    9.2424035    1397.4283    1331.7166    51.319496     386.1976    155.46955 
  119500    260.89041   -4204.3746   -3757.2173   -4204.3746            0    969.10069    18.039741    23.711568     22.18082    9487.8579    2069.1155     178.6818     659.5048    673.07433    1.0813395    581.52836 
  120000    261.89307   -4213.8199   -3764.9441   -4213.8199            0   -9.4267992    18.369728    23.664707       22.002    9564.5823   -130.51018   -531.76201    633.99179   -1084.6225    291.29068    285.59803 
  120500     278.7299   -4191.6877   -3713.9542   -4191.6877            0    1121.7869    18.144253     23.46663    22.358228    9519.7863    2454.7765    1334.5339   -423.94986   -405.54941   -298.13602    97.945848 
  121000    267.70402   -4220.4327   -3761.5971   -4220.4327            0   -55.625926     17.97312     23.67634    22.430623    9545.0761     2087.909   -249.30469   -2005.4821    440.81145   -321.46822    29.814248 
  121500    273.89149   -4224.4453   -3755.0047   -4224.4453            0    578.08135    18.301375    23.485619      21.9874     9450.605    549.95991    109.35781    1074.9263    -43.30759   -338.87449    500.57471 
  122000    290.86316    -4209.724   -3711.1945    -4209.724            0   -603.82105    18.031203     23.74163    22.417428    9596.6798    593.18567   -1005.5034   -1399.1454   -1012.7044   -750.72823    453.22106 
  122500     283.8085    -4193.248     -3706.81    -4193.248            0    77.772722    18.175449    23.449562    22.336067    9519.7729   -766.00045    663.34262      335.976    407.18637   -356.92108     -160.608 
  123000    259.68782   -4224.1524   -3779.0564   -4224.1524            0    1416.4683     18.17656    23.527624    22.008068    9411.7784    940.23278     784.4783    2524.6937    463.12605    -388.7031   -388.18885 
  123500    263.13723   -4209.5286   -3758.5204   -4209.5286            0   -23.142078    18.092209    23.739976    22.170459    9522.4027    1196.2906   -1210.6957   -55.021132    -592.4273   -98.806429   -97.825079 
  124000     272.6083   -4188.7856   -3721.5444   -4188.7856            0   -565.59839    18.207983    23.431308    22.315211    9520.4915    30.286305    -1701.007   -26.074436   -319.44917    269.80447    939.29429 
  124500    275.41616   -4213.1098   -3741.0559   -4213.1098            0    225.78651    18.188823     23.50412    22.223663    9500.8889    703.92236    1249.7609   -1276.3237   -48.005055   -659.20584   -409.17134 
  125000    281.21589    -4182.826   -3700.8316    -4182.826            0    224.42477    18.098487    23.873734    22.051866    9528.1364    379.71056   -380.42259    673.98634   -411.58706    886.66169   -210.51378 
  125500    277.13344   -4217.8048   -3742.8075   -4217.8048            0   -1161.5257    18.369639    23.340528    22.326532    9572.6584   -1667.9091   -1070.3391   -746.32897   -450.59266    627.69295    230.29517 
  126000    276.07117    -4214.611   -3741.4344    -4214.611            0    666.26796    17.971262    23.787759    22.228023    9502.3921   -867.80399    128.53123    2738.0766   -1047.0213    49.804577    139.07065 
  126500    256.62298   -4227.6893   -3787.8463   -4227.6893            0    791.36148    18.282764    23.545927    22.008253    9474.2146    1618.8525   -788.05029    1543.2822    780.77765     120.8243    74.355936 
  127000    273.00691   -4197.2586   -3729.3341   -4197.2586            0   -127.41054    18.159421    23.701371    22.225355    9565.8633    1144.1861   -1069.7054   -456.71232   -301.39787   -307.26693    899.75106 
  127500    275.58595   -4207.4118   -3735.0669   -4207.4118            0    364.86279    18.122688    23.558445    22.309161    9524.7258   -85.000261    871.27431    308.31431     714.4874    639.08346   -617.97313 
  128000    274.66279   -4206.8227   -3736.0601   -4206.8227            0    996.17975    18.296733     23.69442    21.851448    9473.2683    727.17193    772.04624    1489.3211    586.92966   -70.970166   -371.50296 
  128500    260.33662   -4220.7129   -3774.5048   -4220.7129            0   -1078.2597    18.155555    23.674866     22.24164    9560.1317   -886.62608   -2308.3275    -39.82558    85.905082    643.78493   -351.15112 
  129000    294.05024   -4212.9191    -3708.927   -4212.9191            0     936.6519    18.146208    23.399112    22.316164    9475.5585     1388.191    1804.2405   -382.47572   -452.19348    838.05545    306.09629 
  129500    281.71855   -4229.1853   -3746.3293   -4229.1853            0   -1013.2457    18.204322    23.750388     22.16248    9582.1633   -1720.8097   -715.61393   -603.31356   -627.55277    -384.3595   -448.34445 
  130000    257.02494   -4212.3159    -3771.784   -4212.3159            0   -1087.0653    18.382246    23.660368    22.053639    9591.8045   -314.70197   -2199.8532   -746.64069    315.10379   -435.37264   -82.376506 
  130500    275.11259   -4198.1139   -3726.5803   -4198.1139            0    1402.3488    17.985435    23.562364    22.245932    9427.3667    3323.2687   -140.87771    1024.6554   -66.422629   -453.70224    490.98261 
  131000    258.89034   -4215.7851   -3772.0559   -4215.7851            0   -82.764091    18.193819    23.629318    22.169763    9530.9483    -1188.832    846.99031    93.549462    21.818109    1009.4411    968.84026 
  131500     281.7203   -4228.3024   -3745.4434   -4228.3024            0   -439.30719    18.333122    23.678406    22.004759    9552.2463   -590.08391   -1083.9096    356.07192    734.62467   -621.84951    602.91422 
  132000    270.42088   -4170.1067   -3706.6146   -4170.1067            0    771.55176     18.04494    23.640254    22.338775    9529.4304    1154.3862    1613.5849   -453.31582   -570.89844    126.03679    156.27822 
  132500    257.40728   -4153.4193    -3712.232   -4153.4193            0   -394.38281    18.303155    23.354513    22.483846    9610.9736   -1495.9806     1021.693   -708.86081   -423.28829   -114.19332    530.18201 
  133000    275.10804   -4223.4489   -3751.9231   -4223.4489            0   -1072.3082    18.207739    23.836023    22.014371    9554.2389   -1100.7535    -1333.106   -783.06522    914.78201    606.21246    233.27662 
  133500    272.34659   -4188.7532   -3721.9605   -4188.7532            0   -277.90039    18.131799    23.592004    22.347495     9559.487    579.05393   -99.007341   -1313.7478    408.13723   -221.12969    229.87847 
  134000     265.4359   -4233.6706   -3778.7226   -4233.6706            0    -477.0599    18.147522    23.399072    22.401049    9512.2732   -141.59031   -1370.4391    80.849666   -694.52053    -247.3484    7.4795526 
  134500    267.45645   -4198.5169   -3740.1057   -4198.5169            0    111.03063    18.231062    23.875726    21.821796    9498.5881    710.13088    67.821316   -444.86031   -324.38625    421.78597     144.3464 
  135000    262.29195    -4237.118   -3787.5585    -4237.118            0    867.12512     18.17091    23.442386    22.180473    9448.2046    933.46035   -675.54051    2343.4555   -537.66654   -189.52685    1260.8329 
  135500     280.5258    -4239.981   -3759.1694    -4239.981            0    143.38019    18.149841    23.493089    22.349888    9529.8989    1554.0676   -336.71543   -787.21164    859.36089    259.22354    669.94757 
  136000    264.35565   -4188.2247   -3735.1281   -4188.2247            0   -1570.0728    18.189109    23.890293    22.139107     9620.397   -1647.5675   -2176.2222   -886.42881   -295.73013   -220.77518    316.56224 
  136500    270.79234   -4181.3175   -3717.1887   -4181.3175            0   -19.224789    18.346118    23.662309    21.943668    9525.9986    911.02519   -537.94654   -430.75302   -77.657048    300.54102    234.21511 
  137000    263.61603   -4222.3306   -3770.5017   -4222.3306            0   -585.55637    18.008826    23.561996    22.525633    9558.1642    614.83031   -694.76216   -1676.7372   -449.64409    130.69491   -344.56538 
  137500    272.14697   -4140.4056    -3673.955   -4140.4056            0   -211.22014    18.176375    23.619628    22.285076    9567.4112   -1411.7717    212.67837    565.43289   -913.96217    527.91037   -1577.2891 
  138000    283.15045   -4227.5315   -3742.2213   -4227.5315            0   -887.99503    18.298267     23.71404    21.991386    9542.6308   -350.40044   -607.17922   -1706.4054    613.89042   -68.159755   -381.03783 
  138500    258.65891   -4162.2939   -3718.9614   -4162.2939            0   -1346.5254     18.15411    23.602248    22.550662    9662.4585   -2423.5648    -486.3263   -1129.6851   -334.58903   -464.72848    690.41626 
  139000    255.02025   -4234.1727   -3797.0768   -4234.1727            0   -87.979839    18.073253    23.512255    22.272443     9464.517   -122.19716    672.99734    -814.7397   -383.30072   -236.38531    521.83718 
  139500    275.82865   -4200.1971   -3727.4362   -4200.1971            0    1704.2431    18.212925    23.598759    22.011273    9460.4984    488.65521    3122.3425    1501.7314   -148.39749    252.45807   -667.21531 
  140000    257.75076   -4182.1276   -3740.3516   -4182.1276            0    639.17054    18.186143    23.671051    22.086914    9508.0877    889.99504    789.36827     238.1483   -736.16094   -610.49242   -32.838792 
  140500     261.2081   -4159.5936   -3711.8919   -4159.5936            0   -848.44944     18.04661    23.528059      22.6251    9606.6564   -268.12581   -321.55666   -1955.6658    90.060151    360.75309   -650.82216 
  141000     264.1854   -4228.1114   -3775.3066   -4228.1114            0    -1863.047    18.249967    23.639198    22.229261    9590.0273   -1734.4024   -1165.9489   -2688.7896   -1229.8545    -2.374326   -331.67762 
  141500     260.7965   -4195.8813    -3748.885   -4195.8813            0   -524.45847    18.210335    23.707108    22.104378    9542.7776   -605.38336    136.35257   -1104.3446    3.6900397    819.14966   -385.78591 
  142000     268.0142    -4224.601   -3765.2338    -4224.601            0   -1135.8285    18.221458    23.351396    22.376132    9520.9655   -783.91133    247.32101   -2870.8951    474.16144    334.32749    20.830232 
  142500    279.36771   -4199.7228   -3720.8961   -4199.7228            0   -106.37338    18.019886    23.766136    22.253003    9530.1389    1965.6078   -544.90702   -1739.8209    268.46428   -307.84327    300.74824 
  143000    265.60612   -4215.7766   -3760.5368   -4215.7766            0   -925.16816    18.388464    23.633798    21.962449    9544.6441    -1336.758   -1750.9904    312.24398    657.88421    835.53409   -206.96559 
  143500    269.86341   -4213.9271   -3751.3905   -4213.9271            0    525.35089    18.105247    23.566814    22.286313    9509.1908    1320.9382   -187.93268    443.04715   -476.35435     548.6778    348.95545 
  144000    259.93246   -4191.8191   -3746.3037   -4191.8191            0      1569.79    17.869086     23.62192    22.261977    9396.8279    3013.8927     1204.694    490.78335     1011.719   -268.78694   -403.11386 
  144500     262.3628   -4205.0863   -3755.4054   -4205.0863            0   -347.37603    18.539125    23.526469    21.929568    9564.8033    5.6587186   -1544.4116    496.62474    714.57688    196.40836   -709.38245 
  145000    263.32551   -4161.4385   -3710.1076   -4161.4385            0    438.21322     18.06688     23.68363    22.268473     9528.441   -28.329144    1257.8113    85.157446   -10.388609   -478.54242   -433.17926 
  145500    280.47764   -4207.0338   -3726.3047   -4207.0338            0    559.71871    18.147808     23.43379    22.314211    9489.6074    367.67167     1511.026   -199.54153   -364.91734    294.33727   -607.66556 
  146000    262.53326   -4212.4895   -3762.5165   -4212.4895            0   -651.73678    18.311644    23.697352    22.047145    9567.0824    -1123.439   -1186.7206    354.94921   -3.4815902   -690.28897   -339.37037 
  146500    273.06701    -4216.256   -3748.2284    -4216.256            0   -10.751481    17.990822     23.70621    22.227796     9480.026    388.10443   -991.85824    571.49937    305.58916   -105.68786   -135.00875 
  147000    263.75805   -4230.5223     -3778.45   -4230.5223            0   -224.33268    18.285241    23.270753    22.376137    9521.2999   -129.82868    204.05687   -747.22624    389.04541   -152.47517    84.717561 
  147500    261.47727   -4190.2686   -3742.1055   -4190.2686            0   -398.58106    18.088477    23.844104    22.041445    9506.5529   -34.774894   -113.00966   -1047.9586   -462.93584   -103.23213    281.03016 
  148000    260.83796   -4236.2603   -3789.1929   -4236.2603            0    143.88305    18.238903    23.470825    22.165273    9488.5563   -2015.0232    144.72137    2301.9509   -189.62687   -600.10228    677.45739 
  148500     276.0224   -4222.3486   -3749.2557   -4222.3486            0   -428.37711     18.17451    23.463028    22.341751    9527.1712   -305.49338    294.26589   -1273.9038   -356.24913    355.18974    92.161882 
  149000    269.18472   -4169.0523   -3707.6789   -4169.0523            0    782.78478    18.041285    23.832757    22.141634    9520.3174    1936.0678    300.06693    112.21959   -534.89502   -456.63067   -566.58731 
  149500    274.84317   -4198.6077   -3727.5359   -4198.6077            0    199.15301    18.484942     23.37144    22.058505    9529.7088   -113.40594   -989.20653    1700.0715   -98.386868    239.62482    551.23812 
  150000    257.90974   -4196.3712   -3754.3227   -4196.3712            0   -423.91983    18.002222    23.744649    22.374225    9564.0065    620.23497   -1130.4961   -761.49839   -629.76755   -1646.2564    -825.6076 
  150500     272.2323   -4212.7945   -3746.1976   -4212.7945            0    911.11587    18.144784    23.557172    22.202158    9490.0858     2254.145   -266.33798    745.54057   -186.11348   -576.50546   -325.37909 
  151000    263.93653   -4168.0393   -3715.6611   -4168.0393            0   -1365.4554    18.432605    23.572637    22.154658    9626.3117   -2592.5936   -831.40419   -672.36853    589.59015   -276.47899    1238.0249 
  151500    274.72974   -4217.9952   -3747.1178   -4217.9952            0    696.34319    17.791741    23.929532    22.201306    9452.1624     1865.983    444.49953   -221.45293   -498.35585    87.980742   -77.652367 
  152000    245.88425   -4199.9196   -3778.4824   -4199.9196            0    370.00005    18.251398    23.310148     22.24393    9463.5199   -819.09668    186.42602    1742.6708     278.1822    45.635538   -331.64735 
  152500    278.41594   -4243.8635   -3766.6681   -4243.8635            0   -1231.5085    18.170369    23.730107    22.156638    9553.6059   -541.87397   -2261.9913   -890.66027   -190.54477    288.07082   -500.11981 
  153000    284.61491   -4221.0427   -3733.2225   -4221.0427            0    1077.4374    18.013021    23.544597    22.153004    9395.2955     1008.365    381.33802    1842.6091    279.54911    818.92132   -408.78443 
  153500    284.96469    -4213.466   -3725.0463    -4213.466            0      760.617    18.258683     23.25031    22.303809    9468.4143    811.88866    2280.3374   -810.37501   -224.09201    -409.1629    121.79711 
  154000    256.43344   -4204.2799   -3764.7618   -4204.2799            0   -127.20657    18.014529    23.933345    22.005099    9487.4531   -1136.3965   -3184.4545    3939.2313    604.75719   -741.08621    248.42152 
  154500    243.18092   -4206.3422   -3789.5384   -4206.3422            0   -291.30291    18.279093    23.497762    22.174934    9524.5283     205.9832   -1267.0975    187.20551   -612.49382    103.65236   -46.732583 
  155000    262.25681   -4196.0756   -3746.5764   -4196.0756            0   -440.53185    18.164325     23.56732    22.236877    9519.2615   -1328.4409    8.0221215   -1.1767972    1302.7387   -400.30075    249.67858 
  155500    265.62938   -4208.3434   -3753.0637   -4208.3434            0   -1484.8154    18.127215    23.856979    22.155494    9581.3783   -1690.4842   -1262.1244   -1501.8376   -1057.9591    808.72911    340.98591 
  156000     258.8999   -4239.1048   -3795.3592   -4239.1048            0     87.41843     18.43191    23.288249      22.0177    9451.0297   -868.72643    1039.9821    90.999588    772.26537   -389.85428    204.35463 
  156500    263.80104   -4203.8197   -3751.6737   -4203.8197            0    -798.2679    18.035725    23.772046    22.290788    9557.0884    427.24794   -878.35231   -1943.6993    561.41102   -340.64701    214.22186 
  157000    272.39947   -4234.5233   -3767.6399   -4234.5233            0    930.47473    18.184914    23.459403    22.179903    9462.1072     191.9847    1052.4227    1547.0168    312.25084   -406.30877    911.79248 
  157500    258.86853   -4208.1887   -3764.4969   -4208.1887            0    444.74381    18.109923    23.545646     22.11894    9431.7336    564.99526     1366.165   -596.92885    258.73171   -928.93687    266.51491 
  158000    261.88823   -4213.5246   -3764.6571   -4213.5246            0   -456.83866    18.087878    23.745779    22.145217    9511.6093   -433.22985    72.082988   -1009.3691    65.063053   -304.46853   -565.93611 
  158500    272.31406   -4227.5584   -3760.8214   -4227.5584            0   -279.14177    18.398349     23.21758    22.242228    9501.1041   -2561.4619    993.59668    730.43992    50.439831    230.79711    295.82022 
  159000    279.15712   -4226.4182   -3747.9524   -4226.4182            0   -596.54348    18.036324    23.824439     22.17825    9530.1115   -1813.3881   -643.44625    667.20395    185.04977   -549.38742    1009.6695 
  159500    270.37423   -4207.3667   -3743.9545   -4207.3667            0    194.99304    18.212858     23.45043    22.232681    9495.5638    -839.1318     406.3594    1017.7515   -122.97495    123.28411    664.94268 
  160000    278.47337   -4190.8044   -3713.5106   -4190.8044            0   -667.21074    18.183948    23.587923    22.395201    9605.7844   -1205.6863   -1404.2609    608.31504   -402.68841   -143.15079    191.33058 
  160500    269.61439    -4205.891   -3743.7812    -4205.891            0    287.65103    18.085259    23.827351    22.071704    9511.2227    196.26751   -739.34724    1406.0328   -398.93906    361.26769    951.55059 
  161000    252.64116   -4219.9812   -3786.9629   -4219.9812            0    295.65028    18.447202    23.171345    22.164422    9474.1043   -474.31245    1516.1921   -154.92876   -55.419249   -470.75229     -223.885 
  161500    273.28264   -4214.1669   -3745.7698   -4214.1669            0   -645.88043     17.92346    23.893653    22.344075     9569.005   -604.23936   -770.68788   -562.71404   -823.35414    143.42018   -709.81583 
  162000    255.62952   -4199.7246   -3761.5844   -4199.7246            0    316.85688    18.267896    23.513231    22.094084    9490.2322    192.59803   -212.84255    970.81517    408.73433    -312.4004   -1166.6194 
  162500    270.45462   -4211.1398   -3747.5898   -4211.1398            0     200.0664    18.163482    23.631971    22.153375      9509.09    600.43482   -533.95096    533.71535   -234.02884   -161.05482   -701.12635 
  163000    266.73766   -4201.9375   -3744.7582   -4201.9375            0   -232.43788    17.983399    23.816467    22.235413    9523.4502   -24.961758   -1294.2242    621.87229   -21.503422     700.0658   -357.72919 
  163500    251.08481   -4231.9938   -3801.6431   -4231.9938            0   -994.91472    18.467438    23.337735    22.168758    9554.4725   -1323.7236   -402.32866   -1258.6919   -576.50169   -402.62506    -311.4413 
  164000    253.95002   -4198.0999   -3762.8383   -4198.0999            0    1629.8957    18.064965    23.642867    22.179425    9473.0004     658.5625    1488.5654    2742.5592   -1256.6584    16.095167    18.247124 
  164500    276.07983   -4205.1986   -3732.0072   -4205.1986            0   -256.04608    18.174724    23.588376    22.288273    9555.2554    -1053.804    181.57666    104.08911    745.81161    106.65961    167.03097 
  165000    270.17916   -4208.2689    -3745.191   -4208.2689            0   -1028.8597    18.305925    23.600447    22.196267    9589.4092   -2043.1351   -913.77373   -129.67031    310.72044   -787.43278    -720.2258 
  165500    273.41451   -4200.7479   -3732.1248   -4200.7479            0     576.4929    17.970492    23.794604    22.164399    9477.5133    1662.0649    268.62123   -201.20745   -1039.3864    183.25578    613.61176 
  166000    270.97987   -4182.2422    -3717.792   -4182.2422            0    -1246.617    18.353043    23.394117    22.449888    9638.9325   -484.14271   -632.31491   -2623.3935   -202.53245    299.55899    234.39311 
  166500    259.45098   -4216.3571    -3771.667   -4216.3571            0   -645.21898    18.193197    23.753177    22.125077    9561.2687    -1555.813   -1779.3746    1399.5307    1234.5264    387.04161   -648.71966 
  167000     264.5207   -4236.8669   -3783.4875   -4236.8669            0    894.46281    18.112658    23.625876    22.151463    9479.2183    1881.2454    1159.6563   -357.51326   -295.87454   -313.97928    120.01812 
  167500    247.59034   -4187.8741   -3763.5127   -4187.8741            0    1153.3424    18.187424    23.231049    22.377851    9454.9312    1101.9585    3603.8251   -1245.7563    493.47454    254.52249   -530.90893 
  168000    270.21695   -4170.4798   -3707.3371   -4170.4798            0   -222.04834    18.123971     23.94399    22.064573     9575.146   -1127.5011   -799.36144    1260.7175   -915.14022    214.56195    448.57444 
  168500    276.36892   -4221.3791   -3747.6922   -4221.3791            0   -128.38391    18.215739    23.546945    22.103068    9480.5586   -1260.4496    549.83746    325.46043     163.0788    348.45571    852.91003 
  169000    277.00362   -4185.7492   -3710.9745   -4185.7492            0   -898.63717    18.217541    23.483302    22.422979    9592.7303   -1203.2822   -1686.9534    194.32407    126.01675    195.12986    499.86697 
  169500    269.27871   -4231.4461   -3769.9116   -4231.4461            0    575.07642    18.037754    23.734892    22.083786     9454.602    1033.9981    289.59301    401.63812   -116.10136   -793.40871    230.20752 
  170000    269.24409   -4206.6636   -3745.1885   -4206.6636            0   -210.42964    18.337842    23.486698    22.116382     9525.423   -696.83522   -577.19527    642.74155    -107.7671    631.96006   -259.23711 
  170500    263.75508   -4238.1945   -3786.1273   -4238.1945            0    269.11539    17.953242    23.661724    22.353398    9495.8277    725.83559    455.54426   -374.03369     329.7173    153.05365    589.90137 
  171000    277.73547   -4227.2731    -3751.244   -4227.2731            0   -123.63236    18.249034    23.443397     22.20209    9498.4839   -1036.1293   -367.96316    1033.1954   -669.83088    187.79663    445.75172 
  171500    269.39944     -4227.34   -3765.5986     -4227.34            0   -265.51839     18.32018    23.564726     21.98827    9492.5561    171.67421    342.88185   -1311.1112   -631.99689    1186.6337    719.51494 
  172000    276.18473    -4230.476   -3757.1048    -4230.476            0   -163.74315    17.970314    23.697027     22.35287    9518.8133    476.44489   -189.39568   -778.27865    170.11073    832.90389    127.14459 
  172500     275.5432   -4201.2862   -3729.0145   -4201.2862            0    328.97724    18.275479    23.416351    22.241375    9518.0856    1386.8356   -1474.5217    1074.6178   -571.48397   -131.18142    -684.6575 
  173000     268.0015   -4221.7537   -3762.4083   -4221.7537            0    1470.2326    18.062674    23.663911    22.047971    9424.0417    870.34458    1250.8978    2289.4554   -122.87465    464.62943   -45.065615 
  173500    271.10488   -4208.5663   -3743.9018   -4208.5663            0   -2477.7376    18.333618    23.694311    22.323048     9697.187   -2233.5946    -2325.486   -2874.1321    175.21302   -54.381133    339.96387 
  174000    263.46504   -4215.1857   -3763.6156   -4215.1857            0    89.397977    18.139826    23.460486    22.228154    9459.6163    270.14435   -622.60232     620.6519   -458.69238   -664.23699    326.12001 
  174500    279.99205   -4195.2209   -3715.3241   -4195.2209            0   -424.96963    18.140268    23.820181    22.174532    9581.7146   -107.41552   -1931.3666    763.87326   -961.47036   -956.51557   -112.06565 
  175000    276.22784   -4204.9064   -3731.4613   -4204.9064            0   -824.85932    18.380369    23.520617    22.186197    9591.4838   -2130.5364   -129.88849   -214.15309    671.93365    553.00566   -161.59386 
  175500    258.26093   -4230.4181   -3787.7677   -4230.4181            0    1407.3764    17.911019    23.636289    22.280704    9432.5363    2647.8547    1229.8196    344.45481    145.65222   -240.67543    157.92921 
  176000     261.6155   -4199.5245   -3751.1245   -4199.5245            0   -604.23858    18.108877    23.615824    22.256477    9518.1169   -1573.3704   -203.19518   -36.150165   -94.371042   -344.80091    -587.9209 
  176500    275.11541   -4201.9927   -3730.4543   -4201.9927            0   -664.05311    18.312018    23.524307    22.207122    9566.3294   -980.22231   -1283.1493    271.21229   -881.07201   -788.23688   -434.64648 
  177000    292.02713   -4209.4436   -3708.9191   -4209.4436            0    602.75235    18.096974    23.671548     22.20872     9513.847    1176.4136   -561.87065     1193.714   -432.85164    -41.34058   -258.31696 
  177500    277.25451   -4215.7795   -3740.5748   -4215.7795            0    634.43435     18.09124    23.436722    22.366982     9483.586    1952.6329   -78.518549    29.188666   -2479.7836   -416.02049   -446.08676 
  178000     280.4459   -4196.3927   -3715.7181   -4196.3927            0   -691.35601    18.204097    23.751703     22.28555    9635.7883    -37.58647   -515.66982   -1520.8117   -801.22241   -107.05856    252.67006 
  178500     253.5178   -4224.6238    -3790.103   -4224.6238            0    628.21345    18.334847    23.614532    21.907546    9485.2847   -424.59645     1217.574    1091.6628   -714.44387     79.05249    705.96723 
  179000    258.78186   -4183.4369   -3739.8937   -4183.4369            0   -1025.3651    18.129078    23.637617    22.504534    9643.8272    936.79061   -1019.9494   -2992.9364    157.70353    87.514778    912.16727 
  179500    265.05121   -4214.5914   -3760.3027   -4214.5914            0    1963.0982    18.072084    23.439791    22.287417    9441.0809    2952.6805    1783.9248    1152.6892   -985.03883   -189.25402   -691.99067 
  180000    255.09501   -4186.7999   -3749.5758   -4186.7999            0   -242.61397    18.365613    23.705254    21.999105     9577.564   -2370.8858    127.70796    1515.3359    751.40092    70.483475    352.46186 
  180500    265.17607   -4201.2006   -3746.6979   -4201.2006            0   -1194.1827    18.163699    23.621591    22.359808    9593.5982   -774.02382   -1269.5325   -1538.9917    936.39504   -841.93634    -10.90238 
  181000    282.23144   -4221.2657   -3737.5307   -4221.2657            0    1492.7722    18.125188     23.48788    22.168918    9437.8013    2468.9129    1034.0779    975.32586    390.50614   -13.176326    898.78952 
  181500    266.04078   -4188.6362   -3732.6514   -4188.6362            0   -478.76718    18.203243    23.689952     22.21452    9579.6553   -1526.5911   -1562.0875     1652.377    881.46343   -23.818146    54.502602 
  182000    279.07848   -4187.1848   -3708.8538   -4187.1848            0    327.54465    18.160539    23.766497    22.184338    9575.0348   -526.84033    1198.5995    310.87475   -383.58531   -432.68419   -222.70695 
  182500    273.25628   -4207.9586   -3739.6067   -4207.9586            0    175.39953    18.306751    23.369959     22.19681    9496.4178   -1250.9456     1532.439    244.70515    76.637412   -713.74033    323.69821 
  183000    259.36572   -4209.9798   -3765.4358   -4209.9798            0     -1232.32    17.932918     23.80919    22.395783    9562.2885    299.74786   -1284.4916   -2712.2161     74.46568    675.35478   -528.89036 
  183500    279.82726   -4232.0848   -3752.4705   -4232.0848            0   -596.93887     18.28928    23.589733    22.104481    9536.7406    -1087.733   -272.21419   -430.86945    -746.1914   -1709.2738   -48.619542 
  184000    252.34056   -4203.7016   -3771.1985   -4203.7016            0    848.14587    18.260161    23.447914    22.169075    9491.9707    -90.13815    1065.0976    1569.4781   -580.87977   -96.997922   -166.67367 
  184500    283.07249   -4191.4856    -3706.309   -4191.4856            0    873.52889    18.005245    23.856133    22.146267    9512.6085   -264.52507    337.74006    2547.3717    588.38703    -243.3645   -671.81661 
  185000    282.82275   -4205.9955    -3721.247   -4205.9955            0   -474.17245    18.310483    23.479702    22.220291    9553.0518   -651.82176   -1050.9931    280.29755   -615.32694    116.64014  -0.24640087 
  185500    278.63167   -4204.1615   -3726.5964   -4204.1615            0    -950.8974    18.117721    23.702778    22.236506     9549.252   -1742.1048   -1061.7854   -48.802004   -12.715447   -332.90374    242.93672 
  186000    278.12887   -4201.8652   -3725.1618   -4201.8652            0   -199.49127     17.98136    23.655615    22.180388    9434.6524    318.51476   -2198.6966     1281.708    123.75405   -158.09072    65.951982 
  186500    267.35299   -4227.7815   -3769.5476   -4227.7815            0   -702.89106    18.352113    23.212658    22.217817    9464.8195   -1621.4743    142.36358   -629.56245     446.3446   -16.625497   -195.68681 
  187000    272.14504   -4226.3342   -3759.8869   -4226.3342            0    373.35402    18.072686     23.77123    22.156855    9518.8056   -474.54005    1866.4088    -271.8067   -184.81861    154.23067    196.87472 
  187500     270.0336   -4197.6836   -3734.8552   -4197.6836            0    604.05837    18.199137    23.502974    22.042564    9428.3503    1218.3204    -514.7783     1108.633   -434.39264   -719.63845   -811.98847 
  188000    268.95632   -4168.9022   -3707.9203   -4168.9022            0   -774.14068    18.071067     23.55064    22.586491    9612.4763    176.33582   -779.16366   -1719.5942    551.66351   -62.745252    318.71391 
  188500    270.34527   -4204.6783   -3741.3158   -4204.6783            0    52.611943    18.142574    23.760884    22.066533    9512.5207    1274.6996    787.72299   -1904.5867    644.85739   -53.225212   -718.57245 
  189000    265.81612   -4229.8075   -3774.2078   -4229.8075            0   -205.54545    18.385859    23.506948    22.127471    9563.3919   -633.76834   -44.994866    62.126854    478.37823   -99.662347    44.354019 
  189500    269.92578   -4218.2927   -3755.6492   -4218.2927            0    854.63684    17.876525     23.55502    22.383866    9425.4409    1979.8748    -32.56106    616.59681    494.59534  -0.22186222    319.44852 
  190000    280.32932    -4168.146   -3687.6711    -4168.146            0    466.16625    18.247733    23.436699     22.19963    9494.0409   -410.21474    1234.4518    574.26168    44.907955   -247.38486    329.97921 
  190500    277.84135   -4193.7977   -3717.5871   -4193.7977            0   -440.07812    18.193521    23.709207    22.106319    9535.6481   -961.24217    96.820703   -455.81289    80.397822   -537.02897   -83.576759 
  191000    285.81742   -4222.1284   -3732.2471   -4222.1284            0   -956.25304    18.065513    23.498911    22.386268    9503.4159    327.18379    703.61749   -3899.5604    555.18075    272.67519   -213.98492 
  191500    265.75136   -4216.5648   -3761.0761   -4216.5648            0   -480.28727    18.235952    23.262773    22.322756    9469.7333   -1734.5708    1175.7158   -882.00675    403.45016   -533.16201   -286.91967 
  192000    271.34017   -4189.7322   -3724.6644   -4189.7322            0    769.24225    18.155662     24.01597    21.730749    9475.1678    691.64501   -766.66069    2382.7424    67.376439   -125.01481    493.21973 
  192500     284.6983    -4171.827   -3683.8639    -4171.827            0    354.22997    18.160384    23.427084    22.375203     9519.415    173.91096    1258.4785   -369.69959   -97.778493    49.926179    54.920129 
  193000    267.78857   -4193.8871   -3734.9066   -4193.8871            0   -69.962848    18.162112    23.589638     22.28914    9549.5067   -579.44799    271.82518    97.734272   -1284.6241   -568.91717   -31.077297 
  193500    257.26164   -4192.7641   -3751.8264   -4192.7641            0   -272.28189    18.179987    23.798784    21.973626    9507.1439   -517.82044   -1214.0424    915.01713    297.47198   -252.31621    137.41564 
  194000    278.42194   -4195.2765   -3718.0708   -4195.2765            0   -591.98713     18.36111    23.468673    22.218529    9574.2061   -441.69047    -1374.077    39.806046    53.639956    381.61787   -842.85432 
  194500    266.09729   -4198.5149   -3742.4333   -4198.5149            0    742.66707    17.965431    23.515589    22.358537    9445.7597    828.48987    1557.9363     -158.425    519.98045    207.42015   -66.428136 
  195000    264.17634   -4202.7478   -3749.9586   -4202.7478            0   -442.96089    18.234481    23.633157    22.176492    9556.7009   -982.38052   -381.01827    34.516128   -611.32868    459.02662    590.23606 
  195500    275.95655   -4181.6573   -3708.6772   -4181.6573            0    -168.0283    18.240126    23.678727    22.058978    9527.3378     22.67323   -1236.4033    709.64511   -395.70498    -62.27122    409.88182 
  196000    257.91139   -4186.4236   -3744.3723   -4186.4236            0   -1076.0473    18.097317    23.540526    22.506003    9588.0152   -1695.9466    536.62209   -2068.8174   -354.00579   -31.814719    772.41283 
  196500    283.02095   -4212.3028   -3727.2146   -4212.3028            0    68.602773    18.196036    23.483118    22.268664    9515.3925   -1602.2123   -660.02272    2468.0433     679.9845   -1002.1358    -616.9352 
  197000    273.07281   -4212.9968   -3744.9593   -4212.9968            0   -373.01851    18.221604    23.755561    21.987766    9517.7217   -46.386115   -890.11206   -182.55736    39.714882    363.57983    878.42803 
  197500    271.04529   -4214.8803   -3750.3179   -4214.8803            0     348.9418    18.175326     23.46752    22.238463    9485.3674    1768.3895   -121.29825   -600.26584   -1412.6199   -455.76014   -460.85593 
  198000     272.4928   -4195.2709   -3728.2275   -4195.2709            0   -1094.8843    18.125795    23.581377    22.419108    9582.6265    83.766847   -1044.5528    -2323.867    707.57607   -1206.4318   -115.12392 
  198500    269.53314    -4206.506   -3744.5354    -4206.506            0   -313.44538    18.362687    23.818534     21.87592    9567.9208    -972.6585   -840.81383     873.1362   -541.14987   -41.471025    90.434737 
  199000    276.94597   -4199.1809    -3724.505   -4199.1809            0    196.25791    18.228155    23.497326    22.242331    9526.6769   -1110.0713    494.77023    1204.0748   -246.83967   -99.552707   -312.22609 
  199500    282.00052   -4202.6047   -3719.2655   -4202.6047            0    -840.0293     18.07071    23.645634    22.384982    9564.9549   -1091.7033   -1636.7166    208.33205   -390.05332   -311.43674   -54.521305 
  200000    262.10863   -4197.9711   -3748.7259   -4197.9711            0   -224.79234    18.279326    23.610236    22.091426    9534.1999    -179.6346   -622.69025    127.94784     2.258957   -922.00834    863.03467 
  200500    253.14607    -4191.594   -3757.7103    -4191.594            0    1218.3071    18.201521    23.561482    21.960135    9417.7093    2464.0185    72.296378    1118.6065     436.9269   -2.5292493   -61.083384 
  201000    275.47685   -4210.5822   -3738.4243   -4210.5822            0    121.80854    17.957535    23.575253    22.534264    9539.9578     1592.795    209.76637   -1437.1358   -667.21848   -417.26394    714.77408 
  201500    273.41305   -4206.3991   -3737.7785   -4206.3991            0   -1667.8624    18.295273    23.562669    22.266597    9598.8065   -2276.4499   -2211.3233   -515.81385   -574.93161   -139.55946   -308.47058 
  202000    276.75708   -4208.6158   -3734.2636   -4208.6158            0     948.2629    18.188094    23.682017    22.014822    9482.4606     1310.929    106.86528    1426.9944   -541.59838   -55.337114    525.73464 
  202500     280.4553   -4214.5581   -3733.8673   -4214.5581            0    1393.7574    18.195039    23.333553    22.264185    9452.3686    1770.0878    2909.9076   -498.72302   -193.99313   -968.03332    212.91473 
  203000    260.09721   -4210.1696   -3764.3719   -4210.1696            0   -592.91739    18.039662    23.566346    22.426577    9534.1866   -1659.9106   -147.46094    28.619362   -679.86874   -590.88967    1154.1244 
  203500    280.71739   -4213.8272   -3732.6872   -4213.8272            0    545.68374    18.223225    23.701237    21.940471    9476.3742   -146.41648   -32.676272     1816.144    160.46274   -607.37395   -288.42453 
  204000    253.10791   -4202.1499   -3768.3316   -4202.1499            0   -522.47093     18.26852    23.548193    22.275793    9582.8376   -815.50181   -315.38904   -436.52194    253.79718    -413.1917   -83.483132 
  204500    270.20334   -4231.8346   -3768.7153   -4231.8346            0    -317.0069    18.024743     23.59583    22.446755    9546.8017    928.53443   -222.14863   -1657.4065   -1048.4219    -130.9114    1150.0062 
  205000    263.11903   -4226.3783   -3775.4013   -4226.3783            0    126.62794    18.192692    23.585823    22.083642    9475.8616   -277.36626    539.08986    118.16022   -718.97475   -1396.6964   -125.15861 
  205500    281.76059   -4195.3796   -3712.4516   -4195.3796            0    346.35723    18.147525    23.671608    22.185442    9530.4464    1030.9056   -173.20498    181.37108    287.75607   -716.61876   -360.51299 
  206000    268.37286    -4224.558   -3764.5761    -4224.558            0    543.47295    18.108772    23.278964    22.431114    9455.9135    345.96268    1799.4995   -515.04335   -726.46483    603.61491    676.34277 
  206500    278.41719   -4209.8311   -3732.6336   -4209.8311            0    -511.3413    18.202094    23.843568    22.033399     9562.558   -990.31022   -824.47287    280.75918    984.76679   -214.95682    344.67804 
  207000    271.12223   -4225.4999   -3760.8057   -4225.4999            0   -79.798584    18.210958    23.735274    22.054257    9532.7781    693.50535   -937.02659    4.1254835    465.82603   -370.93601   -442.22299 
  207500    270.01596   -4192.9605   -3730.1624   -4192.9605            0    793.98036    18.138589    23.406511    22.280363    9459.3752    964.04181    857.30857    560.59069   -195.37082   -78.501091   -398.51117 
  208000    267.74794    -4184.579   -3725.6682    -4184.579            0    258.56674    17.908669    24.066154    22.187047    9562.4572    2623.9109   -1314.1283   -534.08232   -974.49767   -1329.0939    211.44262 
  208500    267.55134   -4215.5386   -3756.9648   -4215.5386            0    294.98447    18.467126    23.349974    22.059104    9512.0381   -1596.4872    402.66648    2078.7741   -50.835119    415.89249   -209.74701 
  209000    263.43727   -4200.8034    -3749.281   -4200.8034            0   -364.87301    18.066577    23.705416    22.358726    9575.6994    126.30212    -850.9286   -369.99255    231.80751      533.164   -453.63599 
  209500    273.24873   -4218.5363   -3750.1973   -4218.5363            0    644.84612    18.156344      23.5229    22.247299     9501.596    1108.8746    1500.0592   -674.39541   -751.73462   -154.41205    188.25726 
  210000    273.51083   -4182.5747   -3713.7865   -4182.5747            0    1050.8469    18.274981    23.633272    21.954851    9482.2476    1684.8671    516.23938     951.4341   -403.72245   -621.59195    845.89148 
  210500    276.72144   -4171.3312   -3697.0401   -4171.3312            0   -694.16972    17.973536    23.744154    22.409055    9563.4322    673.01137   -1084.4281   -1671.0924   -76.040976    -140.0365    -385.8841 
  211000    263.87854   -4211.5158   -3759.2371   -4211.5158            0    709.61293    18.202899    23.358857    22.044439    9373.2714    1791.3437    878.49114   -540.99602   -608.81111    201.61871     667.3036 
  211500    287.59235   -4221.6376   -3728.7142   -4221.6376            0   -1310.0347    18.149631    23.919953    22.007477    9554.2891   -2006.1863   -1481.8513   -442.06632   -418.85591   -495.75171    621.57571 
  212000    272.27159    -4207.988   -3741.3238    -4207.988            0    1430.8088    18.072354    23.404759    22.280555    9424.2089    2613.1436    425.27553    1254.0074   -748.94384   -42.589328    -3.753451 
  212500    275.46223   -4167.9006   -3695.7678   -4167.9006            0   -746.32245    18.226166    23.654366    22.194362    9568.6194   -1915.8977   -353.08486     30.01523   -182.40407   -254.90962    250.56615 
  213000    266.67976   -4177.6394   -3720.5595   -4177.6394            0     1392.421    18.123753    23.686915    22.007591    9447.7662    761.67719    2031.7486    1383.8372   -68.286093    728.76192   -380.57973 
  213500    267.91669   -4201.4622   -3742.2621   -4201.4622            0   -522.19424    18.315976    23.498426    22.277152    9588.0108    -685.9513   -656.39985   -224.23156    64.869026    158.95655   -399.49905 
  214000    273.68887   -4223.9535   -3754.8602   -4223.9535            0    -931.0563    18.081369    23.727809    22.311101    9572.1599   -40.807286   -1103.4316     -1648.93    376.18894    17.640398   -27.662452 
  214500    263.27186   -4214.3591   -3763.1202   -4214.3591            0    1222.6763    18.145861    23.532668    22.129796    9449.8769    491.66341    1530.8686    1645.4971   -624.50565   -512.39526   -263.77462 
  215000    251.01629   -4232.6227   -3802.3894   -4232.6227            0   -483.60359    18.264365    23.607994    22.148353    9550.0379   -92.845249   -892.12882    -465.8367   -1183.4903   -254.67232    227.16966 
  215500    276.49748     -4203.59   -3729.6828     -4203.59            0   -71.682185    18.005514    23.830261    22.212649    9530.9171    729.70752   -235.40403   -709.35004   -424.35267    85.974516    948.52452 
  216000    266.58023    -4215.436   -3758.5266    -4215.436            0   -493.82138     18.37998    23.299716    22.201435    9507.7272   -881.33537    356.29094    -956.4197    276.92234   -521.83747    1156.8367 
  216500    256.93499    -4182.872   -3742.4942    -4182.872            0    806.51526    17.917309    23.817855    22.190497    9469.8363    630.41268    279.19791    1509.9352    919.20023    375.29024   -34.456164 
  217000    268.65906   -4233.9726   -3773.5002   -4233.9726            0   -466.64701    18.277234    23.417178    22.228001    9513.6121    68.725847   -1715.5276    246.86071   -1683.8143    54.081223    254.15802 
  217500    275.23605   -4195.5393   -3723.7941   -4195.5393            0    226.51273    18.223475    23.604426    22.159508    9532.0158   -485.47244    340.57777    824.43284   -697.24079    245.67021    162.67677 
  218000    272.05932   -4197.4215   -3731.1211   -4197.4215            0   -736.47084    18.141463    23.769937    22.223535    9583.2646    -1189.487    -1098.995    79.069411   -199.24529   -1180.7527    469.89293 
  218500    271.17049   -4194.5891   -3729.8121   -4194.5891            0     1343.565     18.45429    23.239408    22.035276    9450.1977    985.87887    790.46136    2254.3549    1233.5443    400.37844    638.17902 
  219000    272.22482   -4187.3332   -3720.7492   -4187.3332            0   -403.60787    17.883075    24.007663     22.33933    9590.9638   -616.54056    297.27931   -891.56235   -22.332432   -970.03219   -696.68242 
  219500    282.37391   -4195.4876   -3711.5084   -4195.4876            0    500.83712    18.213973    23.495678    22.225976    9511.5981    1794.9587    144.86668   -437.31401     724.8238   -190.83341    58.786099 
  220000    259.93311   -4223.0355   -3777.5191   -4223.0355            0     433.2902    18.247825    23.605591    22.065419    9504.6945   -317.51578    1497.8295    119.55688   -435.05519   -87.806202     618.2689 
  220500    255.28419   -4215.1892   -3777.6408   -4215.1892            0   -918.53287    17.910162     23.85065    22.355896    9549.7454     877.9637   -2808.3514   -825.21093    730.84568   -948.99081    435.67578 
  221000    271.48539   -4217.7411   -3752.4244   -4217.7411            0      -524.87    18.319518    23.343064    22.265529    9521.4896   -577.22467    743.95017   -1741.3355   -285.90992   -402.84426   -823.94612 
  221500    242.90011    -4218.579   -3802.2566    -4218.579            0   -1040.0264    18.166281    23.817002    22.055755    9542.7834   -1080.5802    -2189.308    149.80908   -273.53944    87.765752   -177.59892 
  222000    265.98045   -4223.3238   -3767.4424   -4223.3238            0   -122.38988    18.096271    23.577546    22.377356    9547.6494    1127.3486    -1191.025   -303.49331    146.97907    105.42112    1049.7392 
  222500    278.93293   -4197.9162   -3719.8347   -4197.9162            0    1330.5067    18.270754     23.33603    22.118082    9430.4171    547.94961     2896.378    547.19252    754.15466    57.545517    163.14867 
  223000    266.15613   -4215.0999   -3758.9174   -4215.0999            0   -850.85162     18.16563    23.861837    22.185067    9616.4565   -637.69491   -1189.1757   -725.68428    -306.2556    -248.0242    170.98534 
  223500     262.7878   -4172.1531   -3721.7438   -4172.1531            0   -190.34282    18.207165    23.469445    22.360971    9555.1126   -290.91598    238.87824   -518.99071    9.4741804    228.38879    112.94409 
  224000    274.02681   -4212.3192   -3742.6466   -4212.3192            0   -123.95349    17.983813    23.860174    22.219403    9534.2776    1289.9509    466.29306   -2128.1044    889.66858   -433.38721   -77.237209 
  224500    273.78749   -4230.6125   -3761.3502   -4230.6125            0   -443.60635     18.43634     23.55054    21.977591    9542.3574   -1321.1026   -417.08124     407.3648   -384.56441   -420.14623    483.24582 
  225000    270.93381   -4229.0855   -3764.7142   -4229.0855            0    89.203344    18.153219    23.519939     22.28871    9516.4457   -742.53538   -441.60841    1451.7538    1522.8118   -391.34036    518.60069 
  225500    287.95372   -4190.0689   -3696.5261   -4190.0689            0   -864.02221    18.042001    23.719132    22.379587     9577.134   -731.05741   -1308.6761   -552.33314   -488.72315    4.9585858    440.76441 
  226000     280.5392    -4223.933   -3743.0984    -4223.933            0     995.4727    18.383967    23.459457    21.992785    9485.0017   -625.17112    2444.4779    1167.1114    464.32077    129.53784    -446.4629 
  226500    257.06057   -4168.3951    -3727.802   -4168.3951            0    149.53677    18.041898    23.843116    22.239914    9567.0567    422.06922   -191.51136    218.05247    1112.6179    1145.7554    990.28118 
  227000    282.51759   -4166.7228   -3682.4973   -4166.7228            0   -226.66054    18.263024    23.341783    22.482503    9584.1009     1206.762    483.64917   -2370.3928   -1172.4927   -788.59222    112.97158 
  227500     275.8056   -4200.0235   -3727.3021   -4200.0235            0    591.86949    18.212598    23.657677    22.079994    9513.5576    870.58398    956.45754   -51.433037    709.16101   -1254.0959   -458.64322 
  228000    268.73603    -4173.954   -3713.3496    -4173.954            0     -906.472    18.188775    23.747857    22.340235    9649.7397   -224.81137   -1443.8124   -1050.7923    500.32709    145.22855   -42.244284 
  228500    276.35285   -4196.8973   -3723.2379   -4196.8973            0   -310.74702    18.246081    23.380601    22.401997    9556.7892    384.18506   -961.70635   -354.71976   -341.79025    988.42673    7.5856277 
  229000    273.37137    -4196.119   -3727.5698    -4196.119            0    476.12668    18.135042     23.89179    22.080079    9566.8262    553.05129   -608.51537    1483.8441    13.846522    342.54286    159.45643 
  229500    275.58879   -4223.2364   -3750.8866   -4223.2364            0     -63.0799    18.209289    23.555775    22.156502    9503.6752   -1615.5962   -260.16628    1686.5228    1480.1412    366.37725     777.8371 
  230000    267.65123   -4159.8394   -3701.0943   -4159.8394            0   -720.95738    18.023771    23.428227    22.630284    9555.9771   -1460.1252     1384.219   -2086.9659    197.31097   -506.32477    618.50901 
  230500    280.73399   -4209.7778   -3728.6093   -4209.7778            0   -359.77729     18.22932    23.841656    21.963676    9545.7905     91.83049   -1474.0777     302.9153   -194.23215    390.53405     401.3407 
  231000    267.47595   -4187.8341   -3729.3895   -4187.8341            0    126.56683    18.274608    23.550034    22.153356    9534.0874    169.63794   -468.45501    678.51756    1012.6282   -609.99608   -197.11032 
  231500    286.56641   -4221.3879   -3730.2229   -4221.3879            0    1258.2337    17.978874    23.506226    22.384118    9459.8745    2931.6138    54.179284    788.90804   -549.65862    67.879058    -556.8015 
  232000    264.81223   -4196.6109   -3742.7318   -4196.6109            0    134.05707     18.24011    23.537315    22.204481    9532.8989    810.39199    590.27758   -998.49835    275.82433    99.376317   -57.218435 
  232500    273.31464   -4216.3447   -3747.8928   -4216.3447            0     854.7179    18.229139    23.641918    21.835443    9410.4607     1518.439    -492.2754    1537.9901    716.88608   -342.97841    982.34121 
  233000    270.68096   -4224.9348   -3760.9969   -4224.9348            0   -213.73095     18.13142    23.613246    22.303028    9548.8555   -389.32291   -539.04564     287.1757   -328.69971   -790.43164    214.71504 
  233500    275.28009   -4212.9072   -3741.0865   -4212.9072            0    81.468102    18.169117    23.623771    22.178062    9519.3355   -359.16834    43.170228    560.40242   -715.37829    342.89597   -290.91943 
  234000    267.29882   -4176.9236   -3718.7826   -4176.9236            0   -423.37025    18.176274    23.667213    22.093945    9504.4119    581.31992   -1286.4265   -565.00421   -414.35958   -386.43366    237.34645 
  234500    266.26749   -4185.5767   -3729.2034   -4185.5767            0   -933.30884    18.332525    23.689635    22.094214    9595.3145   -1306.3377    -726.2195   -767.36928   -120.77418    96.105397    47.705242 
  235000    254.71043   -4202.8258   -3766.2608   -4202.8258            0    326.72099    18.053829    23.500043    22.228793    9430.9154    263.30307   -433.92889    1150.7888    472.49863    328.85346   -2.4734355 
  235500    263.33917   -4228.8174   -3777.4631   -4228.8174            0   -908.45911     18.22542    23.770362    22.128163    9586.4697   -115.30995    -986.4745   -1623.5929    118.08465    282.68288   -207.40433 
  236000    262.72489   -4201.3734    -3751.072   -4201.3734            0   -93.761203    18.198944    23.617257     22.00222    9456.7549    -345.2666    -368.2523    432.23529   -497.91565    96.548202    61.736754 
  236500     268.0365   -4238.1388   -3778.7335   -4238.1388            0    27.035928    18.077716    23.436644    22.357564    9472.4749   -396.39849    225.75621    251.75007    227.65714    134.18705    10.253052 
  237000    271.98503   -4220.3394   -3754.1664   -4220.3394            0   -708.81789     18.10313    23.690074    22.238272    9537.2054   -430.93965   -1810.7858    115.27181    588.58583    1308.4571    673.19261 
  237500    270.40122   -4237.6563   -3774.1978   -4237.6563            0    683.14339    18.174196    23.517663    22.071038    9433.4843    730.73441    878.25809    440.43765     632.0176   -482.52143   -632.29912 
  238000    277.04587     -4192.34   -3717.4928     -4192.34            0   -946.31945    18.176394    23.618358     22.37115     9603.858   -1131.3191   -886.84561   -820.79362   -315.09472    150.19728     138.3377 
  238500    261.48926   -4206.9206   -3758.7369   -4206.9206            0    36.433064    18.021677     23.76453     22.21427    9513.8539     629.9412   -1174.9068    654.26475    239.19769     189.6961   -23.167904 
  239000    270.68635   -4204.6894   -3740.7423   -4204.6894            0    679.38735    18.459724    23.287216     22.02908    9469.7636   -299.02907    2139.9704    197.22068    276.27179   -478.94662   -163.41391 
  239500    281.28099   -4184.1739   -3702.0679   -4184.1739            0    280.97279    17.987353    23.753301     22.38548    9564.3982   -456.26959   -300.01611    1599.2041     125.1354    822.80259    -214.7371 
  240000    265.04364   -4198.6254   -3744.3497   -4198.6254            0    371.90307    18.157586    23.593016    22.176831    9500.3819    2015.8438   -180.45648   -719.67807    -1122.741   -1011.0839   -318.49461 
  240500    275.97292   -4198.0069   -3724.9988   -4198.0069            0    616.18641    18.215531    23.455236    22.214177    9490.9979    587.86929    2150.2007   -889.51073    777.36071   -292.41942    38.914804 
  241000     257.1771   -4212.5634   -3771.7707   -4212.5634            0   -243.10057     18.22796     23.71364    22.076957    9542.7931     894.9092   -1029.1221   -595.08883     222.6434   -707.09774    158.66078 
  241500    273.73639   -4176.0785   -3706.9037   -4176.0785            0   -1317.6743    18.219318    23.568376    22.260493      9558.65    -1862.107   -434.78034   -1656.1356   -80.779177    760.82777    861.76644 
  242000    265.78564   -4198.4761   -3742.9286   -4198.4761            0    182.57958    18.088337    23.567632    22.242953    9482.1543    332.95599     538.9981   -324.21534    323.51687   -225.93158   -29.656367 
  242500    284.50904   -4202.4106   -3714.7718   -4202.4106            0   -193.01454    18.221026    23.817417    22.095274    9588.8579   -227.26149   -1185.7384    833.95621   -1205.2452   -1119.4579    39.636621 
  243000    274.03469   -4180.9376   -3711.2516   -4180.9376            0    815.13364    18.169648    23.399404    22.250841    9460.1439    383.31417    2724.4511   -662.36434     786.6121    249.77279   -146.89995 
  243500    277.25404   -4211.3905   -3736.1865   -4211.3905            0    -568.8451    18.009427    23.840475    22.235278    9546.7901   -803.89715   -2051.2998    1148.6617   -341.17123    -80.00531    33.410001 
  244000    279.39896    -4215.591   -3736.7108    -4215.591            0    -523.4761    18.452604     23.48194     21.98415    9525.7969   -797.61358   -1508.6654    735.85069    70.596946    798.85494   -267.99859 
  244500    283.13862   -4189.6913   -3704.4014   -4189.6913            0   -730.36914    18.096546    23.619851    22.336505    9547.4647   -1125.7075   -658.79762   -406.60231    -510.7322    432.98684   -196.50949 
  245000    294.78465   -4207.1483   -3701.8975   -4207.1483            0   -319.45005    18.186048    23.744348     22.13097    9556.5036   -495.94612   -706.15621    243.75218    1014.7054    -163.3544    324.02403 
  245500    272.16749   -4204.6548   -3738.1691   -4204.6548            0   -595.23361    18.503375    23.377013     21.99709    9514.9211   -1628.6064    -1847.398    1690.3036   -842.55398   -462.70752    214.60266 
  246000     266.2774   -4205.9965   -3749.6062   -4205.9965            0   -242.71989    17.900964    23.825771    22.330855    9524.2048    621.24095   -1328.6342   -20.766377   -582.02454   -913.97013    871.11821 
  246500    273.03834   -4194.2949   -3726.3165   -4194.2949            0    -456.1264    18.287643    23.375961    22.385766    9569.7185    354.62126    425.39956      -2148.4     1080.107   -19.976413   -35.851595 
  247000     263.6844   -4201.5454   -3749.5994   -4201.5454            0    547.99127    18.180787    23.618559    22.074955    9479.0736     1909.963    753.30322   -1019.2924    781.62598    184.92797    526.42366 
  247500    267.52557    -4196.569   -3738.0393    -4196.569            0   -1188.8112     18.22592    23.702768    22.163806    9574.8698   -641.12605   -1850.9741   -1074.3336   -402.57887    -542.8752   -189.70354 
  248000    287.96166   -4199.6595   -3706.1031   -4199.6595            0     1669.846    18.152348    23.143955    22.305488    9370.9174    483.82385     3117.131    1408.5831   -932.23946   -103.72417    62.988778 
  248500    277.90103   -4254.7207   -3778.4079   -4254.7207            0   -1385.6554    18.113423    23.841568    22.279141    9621.3004   -1078.2785   -1228.7001   -1849.9878    -197.2475   -208.43102   -358.54784 
  249000    260.43938   -4213.0223   -3766.6381   -4213.0223            0   -523.23386    18.226269    23.548383    22.063703    9469.7226   -815.83822    715.24859    -1469.112   -1042.9167    680.83825     -119.607 
  249500     260.7279    -4186.624   -3739.7453    -4186.624            0   -1824.1564    18.140527    23.674971    22.438325     9636.732   -1933.5208   -1550.4722   -1988.4762   -787.07056   -201.39975    89.739354 
  250000    268.80621    -4160.002   -3699.2774    -4160.002            0    311.15673    18.143396     23.59709    22.156192    9485.7604   -162.53036    350.08511    745.91545    947.75284   -724.79593      391.602 
  250500    279.76616   -4216.0021   -3736.4924   -4216.0021            0    421.99892    18.301086      23.5849    22.015591    9502.5734     679.5225   -78.856937    665.33118   -164.60063    490.93788   -906.09056 
  251000    283.23766   -4188.4546   -3702.9949   -4188.4546            0   -216.06791    17.866548    23.557765    22.654255    9535.0839    1527.4661   -1816.0378   -359.63206   0.49817554   -988.20859    101.95815 
  251500    267.25786   -4202.1157   -3744.0449   -4202.1157            0    125.17019    18.216146    23.554631    22.141063    9500.1677    166.45395    1021.8392   -812.78257   -229.24249   -9.2562461   -896.76997 
  252000     276.0576   -4236.3583    -3763.205   -4236.3583            0    759.61538    18.145622    23.586919    22.056926    9440.3496    1119.0093   -682.98673    1842.8236     246.4458    71.810402    468.43569 
  252500    274.13171   -4199.8103   -3729.9579   -4199.8103            0    1046.0393    18.027467    23.575211    22.167876    9421.3773    721.50685    2525.6437   -109.03257   -937.88229   -130.30154    12.111801 
  253000    270.05954   -4197.6092   -3734.7364   -4197.6092            0   -1603.1699     18.49933    23.430903    22.161792    9606.1619   -4049.5822   -1033.8025    273.87504    -59.60017   -360.23931    294.59738 
  253500    287.83925   -4207.2424   -3713.8958   -4207.2424            0   -89.528386    17.981985     23.92875    22.134252    9524.0684   -1475.1746    514.87492    691.71454   -154.47778   -58.345092   -540.76054 
  254000    269.41139   -4178.7797   -3717.0178   -4178.7797            0   -1010.1348    18.282991    23.358871    22.459148    9591.6289   -1450.1568   -609.80392   -970.44358     3.381936    239.04915   -14.015199 
  254500    282.09523   -4205.8413   -3722.3398   -4205.8413            0    -60.02228    18.211139     23.56747    22.219551    9536.4196    529.01488   -1501.6255    792.54383    185.02718   -318.80515   -126.29792 
  255000    266.41591   -4218.7005   -3762.0728   -4218.7005            0   -922.07986    18.148768    23.673393    22.235313     9553.245   -397.26472   -1224.7225   -1144.2524     521.2712   -6.4018823     370.7742 
  255500    263.68966   -4214.1619   -3762.2068   -4214.1619            0    91.251392    18.291176    23.376003    22.208791    9495.9146   -1246.4126    553.06366    967.10308   -533.38941   -432.01268   -539.51608 
  256000    288.32652   -4196.3753   -3702.1935   -4196.3753            0     652.3775    17.714625     23.89006    22.288022    9432.3685    1313.4638    790.14588   -146.47715   -159.98965   -1169.6747   -379.24183 
  256500    278.14497   -4192.2282   -3715.4973   -4192.2282            0     -755.726    18.550103    23.380451    22.137038    9601.0498   -2548.9901    840.58039   -558.76832   -565.39266    202.47098    45.989955 
  257000    269.23992   -4212.4097   -3750.9417   -4212.4097            0    460.04999    18.112806    23.608331    22.130258    9463.1885    -309.3624    94.537177    1594.9752    302.22988   -730.41652   -744.30267 
  257500    273.83254   -4205.6694   -3736.3298   -4205.6694            0   -1393.2689    18.082031    23.636545    22.389493    9569.1962    517.05269   -1862.0514    -2834.808     55.11528    94.830865     249.8742 
  258000    274.23053   -4202.2714   -3732.2496   -4202.2714            0   -906.96427     18.50103    23.589298    21.916639    9564.9975   -2664.7642   -1793.5095    1737.3809    449.89152    -80.38097    459.77319 
  258500    278.98685   -4188.2204   -3710.0465   -4188.2204            0    579.08096    18.039877    23.573122    22.197596    9439.6658    495.94534    370.83831    870.45923    87.246795   -497.97688    597.41074 
  259000     273.6379   -4259.3001   -3790.2941   -4259.3001            0   -384.47991     18.14093    23.520354    22.328979    9527.3533   -366.75667   -651.31032   -135.37274   -705.50003    130.63315    64.051782 
  259500    271.31997   -4207.9521   -3742.9189   -4207.9521            0     1624.181     18.13155    23.686969    21.865167    9390.6843    981.73921    2487.1176    1403.6862    753.48211   -97.738804    258.01134 
  260000    256.38541   -4219.2897   -3779.8539   -4219.2897            0    164.56036    18.130655    23.541876     22.18624    9469.7448   -2157.6834    2935.7158   -284.35128    599.21829    366.81899    902.49255 
  260500    291.17483   -4219.5743   -3720.5106   -4219.5743            0   -1072.0368    18.209127    23.512066    22.374732    9579.3882   -1226.1954     -380.268    -1609.647   -79.685252    492.20579    397.83157 
  261000    260.14591   -4227.7357   -3781.8545   -4227.7357            0    1690.5811    18.029385    23.700253    22.049487    9421.7677    933.51632    1451.6078    2686.6194    -1522.957   -227.37578    835.50046 
  261500    271.23648   -4222.6483   -3757.7582   -4222.6483            0   -779.49378    18.258312    23.653123    22.098516    9543.5999   -448.21844     -961.504   -928.75889     165.8461    413.82308    371.53116 
  262000    276.77464   -4237.2087   -3762.8265   -4237.2087            0   -172.98211    18.155112    23.579935    22.199735    9503.6259    858.59074   -184.44507    -1193.092   -465.93192    121.84584    428.19288 
  262500    257.88059   -4173.3157   -3731.3172   -4173.3157            0    -923.3972    18.084514    23.606787    22.408712    9566.6663    143.50078   -1237.7054   -1675.9869   -1352.3355     502.4831    800.50018 
  263000    268.22858   -4191.0201   -3731.2855   -4191.0201            0   -1800.6612    18.370181    23.807074    21.995351    9619.4524    -4054.827   -1844.1834    497.02676   -257.50113    232.46677    198.85706 
  263500    278.94715   -4172.0764   -3693.9705   -4172.0764            0    469.97135    18.113847    23.573223    22.205833    9481.9294    1609.8278    911.63651   -1111.5502    185.26493   -342.71841   -191.88531 
  264000    285.98798   -4219.8936     -3729.72   -4219.8936            0   -317.02948    18.078454    23.532646    22.347579    9507.4172   -64.932524   -232.99527   -653.16065   -134.62111   -214.93035    319.08573 
  264500    268.83581   -4223.9068   -3763.1314   -4223.9068            0   -1004.3864    18.306162    23.746446    22.062437    9590.6802   -2646.6683   -1343.0479    976.55708   -709.97915   -222.23192   -171.55336 
  265000    268.09949    -4198.847   -3739.3336    -4198.847            0    579.23533     18.23662    23.517067    22.033817    9449.6832  -0.76825632    1440.1857    298.28853    251.12028    481.06682     -233.066 
  265500    266.92022   -4211.7469   -3754.2547   -4211.7469            0   -677.62678    18.142882    23.684124    22.355752    9606.2279   -591.27054   -171.70218   -1269.9076    888.32774   -949.77099   -687.88022 
  266000    275.09615   -4228.6501   -3757.1448   -4228.6501            0   -224.24015    18.209715     23.50881    22.335469    9561.5629    533.93247    491.88699   -1698.5399    1048.1121    156.25166    310.00503 
  266500    278.41303     -4190.73   -3713.5396     -4190.73            0    708.41981    18.266335     23.59201    21.967324    9466.5888    1532.7134   -37.018775    629.56484    51.325219   -241.91808    802.36103 
  267000    256.72553   -4213.7174   -3773.6986   -4213.7174            0    -337.7538    17.856506     23.78419    22.423556    9523.3407    1586.0889    328.77144   -2928.1218    157.90866    540.73675    251.77439 
  267500    270.92335   -4195.0448   -3730.6915   -4195.0448            0    243.30945    18.303801    23.370929    22.269199    9526.2478   -76.771565    1509.7011   -703.00121   -151.95144   -394.12432    268.02879 
  268000    275.51323   -4211.9051   -3739.6848   -4211.9051            0    667.29503    17.973855    23.774704    22.191184    9482.8053    1375.2508    754.62474   -127.99049   -1146.5311     128.3622     76.27146 
  268500    261.91314   -4227.5803   -3778.6701   -4227.5803            0   -536.30755     18.18865    23.486805    22.284205    9519.6624   -1119.0789    782.49909   -1272.3428    57.975861   -15.684224    371.85873 
  269000    273.10684   -4217.2632   -3749.1674   -4217.2632            0     -195.799    18.316948    23.351465    22.069855    9439.8854    -365.2236    764.12679   -986.30018   -736.40207   -277.37678    661.60786 
  269500    279.10171   -4190.2903   -3711.9195   -4190.2903            0    976.98699    18.040241    23.750346    22.168083    9498.1802     2980.459    374.27444   -423.77247    755.83422    536.10694    75.445904 
  270000    281.12379   -4199.2592   -3717.4226   -4199.2592            0   -1003.6627    18.380549    23.393028    22.261566    9571.9542   -1256.2479   -844.47388   -910.26625   -15.484003    358.35121    57.076971 
  270500    267.37637   -4207.8324   -3749.5585   -4207.8324            0   -603.07112    18.140051    23.556803    22.211584    9491.4897    116.71111    885.55466   -2811.4791   -638.23786   -585.39272    384.17922 
  271000     282.3288   -4221.4538   -3737.5519   -4221.4538            0   -870.60648     17.92729    23.922411    22.199964    9520.7654    743.18571   -2070.6196   -1284.3856   -92.945565    26.576746   -759.92834 
  271500    276.43548   -4209.6491   -3735.8481   -4209.6491            0    703.33726    18.492891    23.210465    22.156868    9510.3613   -648.70663    1116.7106    1642.0078   -641.51546   -930.35728    126.85154 
  272000    273.18165    -4185.074     -3716.85    -4185.074            0    500.01106    17.987133    23.822176    22.148868    9490.6274    886.77264   -728.23113    1341.4917   -477.06378   -510.94635    59.381697 
  272500    269.50977   -4168.3563   -3706.4258   -4168.3563            0    -1251.068    18.329025    23.526902    22.301264    9616.8664   -1923.8491   -600.76819   -1228.5868     743.0821   -562.56474   -281.91199 
  273000    274.58187   -4215.1102   -3744.4862   -4215.1102            0    1590.9729    18.174302    23.445023    22.035727    9389.3555    1901.0105    717.84878    2154.0594    516.10406    521.23632    781.35798 
  273500    272.24409   -4207.3246   -3740.7076   -4207.3246            0     201.7113    17.987198    23.752689    22.229636    9497.4857    1240.7323   -462.43406   -173.16432    312.42533    128.47981    196.07604 
  274000    278.91456   -4183.0224   -3704.9724   -4183.0224            0   -989.21643    18.239138    23.547877    22.387274    9615.1773    147.32853    393.06695   -3508.0448    102.78824   -276.49445    606.59546 
  274500    271.85737   -4188.7712   -3722.8169   -4188.7712            0    1156.3449    18.062068    23.660246    22.070366    9431.8362    2151.4812   -436.38842    1753.9418   -573.23009    143.20868   -195.44801 
  275000    275.28945   -4223.3798   -3751.5431   -4223.3798            0    968.88859    18.174286    23.430916    22.301141    9496.7221    1010.1452    1748.1528    148.36771    199.66754   -57.630879   -82.105608 
  275500     261.3633   -4224.2021   -3776.2344   -4224.2021            0   -534.45289    18.167295    23.448287    22.403373    9543.6561   -476.49509   -1673.7335     546.8699   -908.20378   -116.78986    -292.7647 
  276000    277.46336   -4162.0016   -3686.4388   -4162.0016            0    570.59284    18.087759    23.833437    21.902473    9442.0134    21.639855   -40.611723    1730.7504   -647.75796   -374.63861    526.30948 
  276500    281.59106   -4212.7076   -3730.0701   -4212.7076            0    101.04439     18.22148    23.352341    22.287981    9483.8528    811.01579    912.57546   -1420.4581    602.59767   -297.64962    124.36265 
  277000    263.64754   -4166.6746   -3714.7918   -4166.6746            0   -1225.8092    18.097634    23.737524    22.243998    9555.8663    227.16836   -1539.9622   -2364.6336   -854.02869   -870.54115   -156.77682 
  277500    265.87959   -4191.7468   -3736.0383   -4191.7468            0    923.68799    18.327398    23.491292    21.967655    9457.8279    1015.5993   -213.34189    1968.8066   -511.19914    71.559262   -75.846073 
  278000    263.43223   -4181.5145   -3730.0007   -4181.5145            0   -20.033437    18.160703    23.642625     22.25183    9554.1945   -169.38519    645.02404   -535.73917   -241.63736   -34.175072    -209.6694 
  278500    273.11076   -4192.9731   -3724.8706   -4192.9731            0   -243.99965    18.022085    23.653171    22.301037    9506.4741    591.18734    151.31071    -1474.497    801.39379    380.28172   -66.645211 
  279000    260.63093   -4208.3048   -3761.5923   -4208.3048            0    616.14458    18.205748    23.306426    22.220166    9428.2592    1187.4423   -694.58165    1355.5731   -365.11101    386.28474    771.83546 
  279500    285.15906   -4222.4574   -3733.7045   -4222.4574            0   -543.04953    18.097063    23.921259    21.998896    9523.4219    390.84697   -1308.9541   -711.04149   -215.83445   -280.80529    408.98188 
  280000    262.74217   -4190.4223   -3740.0913   -4190.4223            0   -718.67562    18.210502    23.582288    22.376351    9609.4188   -1594.8292   -361.56733   -199.63029    1156.4394    309.87184     569.4851 
  280500    270.36357   -4215.0248   -3751.6309   -4215.0248            0   -808.73629    18.331565    23.529292    22.314397    9624.8407   -199.31332   -556.65134   -1670.2442   -581.90178   -62.707976   -884.21224 
  281000    266.51128   -4197.0117   -3740.2205   -4197.0117            0    607.33807    18.142004    23.668073    22.105323    9491.7222    306.38232    2498.8204   -983.18846   -141.45259   -302.32402    721.93653 
  281500    274.04482   -4189.7691   -3720.0657   -4189.7691            0    155.24941    18.193161    23.596435    22.201787    9531.0883   -1392.1376    1371.3958    486.49003    888.31739   -112.63192   -517.71838 
  282000    273.79334   -4214.0975   -3744.8251   -4214.0975            0    1444.0806    18.120429    23.295463    22.272843    9401.8971    768.52021    584.08593    2979.6356   -283.90721   -37.513006    439.84733 
  282500    275.23189   -4211.2698   -3739.5318   -4211.2698            0    -534.4375    18.231322    23.877196     22.11288     9626.021   -458.49462    -1927.879    783.06107     32.87203    895.43009   -772.47054 
  283000    265.20965   -4234.0664   -3779.5061   -4234.0664            0   -630.85718    18.238968    23.560574     22.05745    9478.5397   -986.87808   -953.38855     47.69511    796.04763   -347.77557     1002.426 
  283500    257.71184   -4211.4121   -3769.7029   -4211.4121            0    1151.3341    18.028761    23.505952    22.351665    9472.2597     1826.145    1062.5055    565.35193   -1614.0062    448.13875   -748.42375 
  284000    263.62865   -4208.4504   -3756.5999   -4208.4504            0   -1285.8357    18.119488    23.716928    22.267128    9569.0442   -869.25023   -1529.0987   -1459.1581    1020.6636    454.34151   -304.96451 
  284500    296.57632   -4174.5342   -3666.2125   -4174.5342            0    785.96215    18.336093    23.510157    21.947093    9461.0503    1583.7018    1468.1492   -693.96457   -1028.1531    188.44024   -753.91306 
  285000    268.87592   -4204.7539   -3743.9098   -4204.7539            0    482.11497    18.078519    23.616857    22.237838    9494.6184   -964.34545    1946.6679    464.02246   -114.68179    114.32269   -653.62258 
  285500    274.95235   -4196.4887   -3725.2298   -4196.4887            0   -670.76604    18.234461    23.555097    22.229758    9548.0033   -1746.7975   -338.66404    73.163461    1289.9709   -942.80623     766.7199 
  286000    272.64028   -4250.1622    -3782.866   -4250.1622            0    561.64341    18.220304    23.620197    21.950737    9446.8764    1381.2225   -153.83302    457.54072    1497.8927     624.8305    245.65541 
  286500    280.93149   -4199.0798   -3717.5728   -4199.0798            0   -988.77398    18.129629    23.659087    22.333397    9579.4744   -1095.5878   -852.93295   -1017.8012   -196.13511   -467.99136   -1032.5583 
  287000    268.69786   -4224.2145   -3763.6756   -4224.2145            0    633.30123    18.079247    23.406942    22.434211    9493.7073    1390.9635      89.8909    419.04927    619.89958   -477.25108    469.63956 
  287500    292.53431   -4210.1568    -3708.763   -4210.1568            0     534.6122    18.166632    23.665902    22.061501    9484.8954    1124.0768    864.87006   -385.11022   -930.34157    294.56895   -233.59135 
  288000    249.29556   -4234.9766   -3807.6926   -4234.9766            0   -1003.9804    18.322038     23.64556     22.01702    9538.5404   -1970.2441    62.227227   -1103.9244    309.21149    29.319647     -282.957 
  288500    265.24196   -4229.8364   -3775.2208   -4229.8364            0    130.79538    18.086699    23.548304    22.388236    9535.3976    650.88233    343.89304   -602.38922    114.79285    56.345194    314.80454 
  289000     273.6864   -4190.1427   -3721.0535   -4190.1427            0   -378.25576    18.228461    23.597735    22.267602    9578.4178   -917.12603    501.95591   -719.59715   -158.48316   -578.96298    357.69738 
  289500    268.15847   -4209.6253   -3750.0109   -4209.6253            0    459.37282    18.181546    23.605202    22.111489    9489.7883    1646.1824    1112.4733   -1380.5372    771.45374   -25.078469    113.44336 
  290000    282.33429   -4202.4425   -3718.5312   -4202.4425            0    915.96567    17.884186    23.788287    22.236863    9460.3209    1455.9227    1519.0614    -227.0871   -798.18692   -180.58907    147.65039 
  290500    255.15397   -4206.0255   -3768.7003   -4206.0255            0   -938.27257    18.425865    23.248454    22.292612    9549.5505   -1653.6171    839.18449    -2000.385     847.9623    210.64974    219.98659 
  291000    275.11103   -4182.5528   -3711.0219   -4182.5528            0    430.16816    18.000902    23.789318    22.055383    9444.7586    655.56578   -224.44545    859.38414   -458.43377    201.62587    359.42425 
  291500    264.50293   -4179.6848   -3726.3359   -4179.6848            0   -1005.9537    18.206821     23.62791    22.295951    9591.4753   -1841.9786   -812.61334   -363.26924   -402.34448    491.94975    11.731704 
  292000    270.05762   -4231.9632   -3769.0937   -4231.9632            0   -339.97974    18.214579    23.411026    22.337932    9525.3852    367.26645   -100.56822   -1286.6374   -71.300478    356.04429    63.575988 
  292500    267.52715   -4209.5485   -3751.0161   -4209.5485            0    985.33087    17.994562    23.857243     22.01368    9450.4867    1743.9167   -26.077688    1238.1536   -500.28361   -572.27785    171.75018 
  293000    261.80049   -4260.5838   -3811.8668   -4260.5838            0    714.59003    18.385972    23.343754    22.068499    9471.7473   -265.02996    1402.6428    1006.1573   -222.61379   -475.91616    424.49218 
  293500    268.15768   -4183.2303   -3723.6172   -4183.2303            0   -93.286545    18.058723    23.546572    22.412021    9530.0624    63.684777   -115.12526   -228.41916    78.210596   -51.181267   -327.99769 
  294000    270.15759   -4227.4306   -3764.3898   -4227.4306            0    246.01629    18.227316     23.59777    22.112828    9511.2579     -836.052    148.81331    1425.2876    -557.7372   -753.80445    382.98757 
  294500    269.78938    -4201.337   -3738.9272    -4201.337            0    -1268.765    18.252749    23.598179    22.098031     9518.321   -1246.3663   -1856.4712   -703.45748    509.20404   -224.13204    131.09384 
  295000    260.81575   -4182.0864   -3735.0571   -4182.0864            0   -851.71776    17.908341    23.684067    22.383132    9493.6338    645.75752    -236.1106   -2964.8002   -28.482359    -680.1971   -48.268787 
  295500     264.5159   -4167.7885   -3714.4173   -4167.7885            0   -734.59646    18.376349    23.339321     22.23473     9536.287   -868.87125    340.34823   -1675.2664    496.70111   -432.56065    106.96541 
  296000    266.00308   -4196.9862    -3741.066   -4196.9862            0    239.44647    18.023052    23.850542    22.065694    9485.1494    1287.1829   -2018.0738    1449.2303   -625.33001   -157.18595   -581.00129 
  296500    262.03253   -4206.3889   -3757.2741   -4206.3889            0   -248.06522    18.181429    23.484537     22.35284    9544.2706    714.82669    65.459536   -1524.4819    369.05199   -768.39978    326.75703 
  297000    275.92504   -4205.0932   -3732.1672   -4205.0932            0    1387.4138    18.124885    23.404661    22.267463    9446.0091    2358.7647    1780.2521    23.224509    469.06711   -481.58673    180.02547 
  297500    285.08478   -4190.4927   -3701.8671   -4190.4927            0    -641.4533    17.905764    23.978013     22.30286    9575.6136    722.36762    -2955.858    309.13047    764.64814    -328.9118   -116.34392 
  298000    267.12014   -4184.5676   -3726.7328   -4184.5676            0   -323.58385    18.401921    23.465249    22.159415    9568.5604   -1432.3016    727.13134   -265.58123   -643.20429    219.04285    5.7010635 
  298500    264.53657   -4176.4394   -3723.0328   -4176.4394            0    693.34629    18.079702    23.599486    22.155011    9452.9156    2522.2729     20.49404   -462.72804   -808.60081     546.7093   -142.59575 
  299000    263.15532   -4184.3755   -3733.3363   -4184.3755            0    -1888.948    18.211574    23.562737    22.400449    9612.3583   -1982.7786   -2494.9703   -1189.0952    224.31001   -72.656109   -416.62867 
  299500    265.69343   -4210.7628   -3755.3734   -4210.7628            0    406.65733    18.311278    23.547982    21.929389    9455.8128   -1388.6079    1764.5298    844.05006    285.68927   -352.87979   -319.98662 
  300000    268.96415   -4188.6759   -3727.6805   -4188.6759            0   -52.535553    17.947774    23.843074    22.304044    9544.5719   -353.73888    34.097954    162.03427    238.95413   -637.60863    409.17121 
  300500    272.38235   -4234.2981    -3767.444   -4234.2981            0   -345.59716    18.239207    23.448535    22.162803    9478.6471   -1210.5249    168.77708    4.9563565   -407.49084    975.54867    -334.7261 
  301000    265.57453   -4214.6007    -3759.415   -4214.6007            0    635.37813    18.127536    23.763913    21.912847    9439.6423    1507.6359   -672.01074    1070.5092     112.1404   -1130.5965   -722.44596 
  301500    274.90219   -4200.8576   -3729.6847   -4200.8576            0   -190.11361    18.142925    23.440004     22.36668    9511.8829   -248.89285   -414.13431    92.686331   -164.71672    46.412489    125.74655 
  302000    277.80491   -4220.0933   -3743.9452   -4220.0933            0   -971.53498    18.209294     23.44486    22.392531    9559.6927   -1320.4426    416.37655   -2010.5389    895.94796   -82.200431    233.56704 
  302500    263.22963   -4209.5477   -3758.3811   -4209.5477            0    858.80222     18.06433    23.666917    22.012309    9410.8563    681.57978    347.03022    1547.7967   -311.51232    135.33836    651.30708 
  303000    272.16597   -4182.0383   -3715.5551   -4182.0383            0   -371.09576    18.276649     23.50077    22.123004    9502.1691    -705.8359   -819.41098    411.95959   -397.73882    352.48231    358.05123 
  303500    278.66284   -4206.1886     -3728.57   -4206.1886            0   -1436.8209    17.846375    23.851238    22.549768     9598.492    -856.8961    -1281.234   -2172.3326    190.74264    287.51546    489.31815 
  304000    258.37334   -4207.6148   -3764.7718   -4207.6148            0   -867.01269     18.21474    23.560455    22.190224    9522.8802   -1207.3461   -876.67465   -517.01728   -420.74934   -365.00683    992.47047 
  304500    281.68681   -4203.4032   -3720.6017   -4203.4032            0    148.99273    18.259743    23.592447    22.020755    9486.3656   -1530.0444   -639.13293    2616.1555   -777.77525    382.86942    79.392429 
  305000    275.80242   -4198.6222   -3725.9063   -4198.6222            0    -717.1875    17.944523    23.804349    22.386592     9562.605    672.74304   -1574.5542   -1249.7513    397.17329    176.41547    855.16886 
  305500    268.57011   -4189.7137   -3729.3938   -4189.7137            0    120.76371    18.287862    23.357562     22.27701    9515.8441   -114.82654    1516.0408   -1038.9231    422.36335   -392.42881    522.57059 
  306000    274.79954    -4222.378    -3751.381    -4222.378            0   -100.04873    18.159207    23.636972    22.102287    9486.9352    502.34163   -442.58124   -359.90659     241.3004   -159.35923    45.422179 
  306500    263.22582   -4204.7459   -3753.5859   -4204.7459            0    -397.3547    18.131282    23.720844    22.242519    9566.2695   -1223.4618   -679.89128    711.28897   -388.39951     465.9487   -493.52918 
  307000    276.52699   -4206.7472   -3732.7894   -4206.7472            0     750.7562    18.169159    23.360561     22.21133    9427.4154    956.95152    1342.0112   -46.694131   -16.844835   -764.88553      810.864 
  307500    276.18567   -4230.5988    -3757.226   -4230.5988            0   -263.16081     18.09181    23.783303    22.126309    9520.5744    17.907663   -230.88117   -576.50893    -473.8552   -324.74378   -305.85773 
  308000    274.46931   -4200.8525   -3730.4215   -4200.8525            0   -360.14256    18.257521    23.664267    22.151068    9570.3875   -112.69573   -1068.9154    101.18347    39.907985   -221.20798    42.076949 
  308500    274.82633   -4177.0023   -3705.9594   -4177.0023            0    1177.3871    18.011071    23.409653    22.371403    9432.5203    972.25393    1476.2435    1083.6639    387.13565   -36.997883    107.23524 
  309000    264.43583   -4182.5848   -3729.3508   -4182.5848            0   -531.30403    18.202146    23.783058    22.025646     9534.962    262.05784   -641.10424   -1214.8657    287.96274    1148.1211   -319.16179 
  309500    269.43849   -4199.7088   -3737.9005   -4199.7088            0   -249.14538    18.261692    23.563079    21.995888    9464.8679   -1080.5705   -316.90808    650.04242    315.66407     213.7914    -105.9043 
  310000    279.42362   -4202.7404   -3723.8178   -4202.7404            0    261.10078    18.034317    23.475671     22.27222    9429.3387   -749.17486    1883.9158   -351.43864    241.70264    880.46177     772.7105 
  310500    287.46696   -4165.7008   -3672.9922   -4165.7008            0   -560.69602    18.202409    23.818197    22.223464    9634.9512    102.03792   -1489.9865   -294.13945   -140.47348    405.95271    511.33944 
  311000    275.99302   -4224.8394   -3751.7968   -4224.8394            0     524.9292    18.282392    23.617367     21.95155    9478.2834   -454.83593   -463.26291    2492.8864    357.09385   -99.145596    93.930112 
  311500     261.6502    -4193.339   -3744.8795    -4193.339            0   -96.644207    18.130972    23.585098    22.259767    9518.7383    499.62678   -946.10337    156.54397   -877.66418    266.81828   -346.99433 
  312000     275.1191   -4205.6836   -3734.1389   -4205.6836            0   -177.05889     18.20445    23.590461    22.254431    9557.1958   -118.09942     28.88897   -441.96623   -132.63933   -84.567107   -217.75974 
  312500     252.7907   -4199.0199   -3765.7453   -4199.0199            0    200.54567    18.308947    23.524278    22.065058    9503.5255   -720.84721   -336.70509    1659.1893    112.20046    247.50995   -114.53348 
  313000    261.02781   -4183.9082   -3736.5154   -4183.9082            0    170.26712     17.99889    23.731445    22.238247    9498.8375    -177.9771   -1300.7682    1989.5466    416.07791   -222.89886   -248.08733 
  313500    263.80149   -4206.2054   -3754.0586   -4206.2054            0   -359.54743    18.178737    23.442009    22.499585    9588.1109   -683.56121    986.40769   -1381.4888    1087.8051   -878.42027    362.52314 
  314000    270.17801   -4169.0442   -3705.9684   -4169.0442            0    754.84477    18.232771    23.622167    21.996918    9474.0193    1628.9408    1317.9108   -682.31721    61.655889    416.90905   -1090.7429 
  314500    267.66367   -4192.0075   -3733.2411   -4192.0075            0   -139.34867    18.138087    23.679652    22.240568    9552.4036   -492.41716    466.04656    -391.6754    1579.4765    128.15313   -134.22273 
  315000    266.61387   -4190.5528   -3733.5858   -4190.5528            0   -812.37994    18.240369    23.461832    22.251835    9522.7278   -730.72067   -1045.6948   -660.72441    256.44784   -245.37692    634.43532 
  315500    275.78727   -4195.8597   -3723.1698   -4195.8597            0    1040.3248    18.026272    23.762331    22.070316    9453.7368    862.63084     738.4905    1519.8529    -401.1597   -316.76812    74.954155 
  316000    280.15567    -4184.862   -3704.6848    -4184.862            0     -410.969    18.219034    23.559117    22.285245    9565.3701   -1376.8354    801.75568   -657.82726   -1448.4348   -506.82952    88.356042 
  316500    265.25193   -4189.6564   -3735.0237   -4189.6564            0    50.552816    18.127683    23.542281    22.191018    9470.3945    56.608791     769.7081   -674.65844    235.07438     -453.241    440.38382 
  317000    262.50038   -4216.0537    -3766.137   -4216.0537            0    259.90115    18.077073    23.748101    22.184385    9523.6715   -352.44869    589.03606    543.11606   -993.82448   -523.10212     322.3307 
  317500    259.34136   -4233.1773   -3788.6751   -4233.1773            0    355.16624    18.376795    23.288182     22.21586    9507.5475   -1033.2005    369.55963    1729.1396   -599.03712    6.5114925    697.93517 
  318000     282.7596   -4230.7051   -3746.0649   -4230.7051            0    1014.6432    17.946992    23.740838    22.116947    9423.5138     2061.629    577.89367    404.40689   -603.13388    731.14868    142.45252 
  318500    287.59974   -4240.5423   -3747.6062   -4240.5423            0   -520.34335    18.270322    23.623467    22.164139    9566.2276    385.98724   -1413.9097   -533.10755    346.04584   -36.906414   -202.13527 
  319000    265.56206   -4183.2423   -3728.0781   -4183.2423            0     528.5328    18.237631    23.488488    22.214803    9516.2527   -49.975038    671.89848    963.67494     922.6426   -276.47907   -197.77849 
  319500    271.39524   -4208.8884   -3743.7263   -4208.8884            0   -44.512078    17.929116    23.869796    22.213309    9506.5043    367.87858   -829.82157    328.40675   -461.94656   -246.79012   -760.45121 
  320000    282.37646   -4222.2666    -3738.283   -4222.2666            0   -985.76936    18.606341    23.153531    22.274449    9595.8887   -2977.5406    1687.5895   -1667.3569    395.46347   -192.35397   -328.27763 
  320500    256.55816   -4195.1056   -3755.3736   -4195.1056            0   -178.90657     18.09783    23.576057    22.189704    9467.8025     1117.512   -1775.7068    121.47505   -359.66555   -437.90635    410.57403 
  321000    250.42051   -4217.3144   -3788.1022   -4217.3144            0   -860.38772    18.135384    23.676835     22.28795    9570.1892     423.7785   -878.68867    -2126.253   -355.18221   -70.457678    359.61244 
  321500    256.44981   -4205.9518   -3766.4056   -4205.9518            0    940.02019    18.363048    23.219339    22.083469    9415.9016   -1047.8261    2545.0411    1322.8456   -519.80018    1086.9657    36.473691 
  322000    273.94344   -4193.3441   -3723.8144   -4193.3441            0   -537.90863    17.947343    23.992758    22.125619    9527.4297   -402.24383   -463.69999   -747.78206    550.88291    65.320254   -228.76347 
  322500    270.15539   -4215.9487   -3752.9116   -4215.9487            0    390.31174    18.209517    23.373193    22.348976    9512.0496    186.79059    997.37463   -13.229987   -373.91254    -297.5618    28.801007 
  323000    266.96147     -4185.98   -3728.4172     -4185.98            0      238.264    18.195468    23.566319    22.064395    9461.2167   -1607.3621    1181.7446    1140.4095   -69.253774   -66.163096    448.44559 
  323500    267.26846   -4195.6881   -3737.5991   -4195.6881            0    -516.0456    18.110122     23.79646    22.158163    9549.2108    78.390355   -1740.1404    113.61326    559.80506     212.7031    21.417119 
  324000    270.50852   -4237.8663   -3774.2239   -4237.8663            0   -1337.0442    18.187102    23.366756    22.451396    9541.2498   -824.04904   -1310.4591   -1876.6244    236.94646   -114.59687   -409.59112 
  324500    281.09818   -4209.5323   -3727.7396   -4209.5323            0    591.23506    18.163533    23.551855    22.059312    9436.6406    1007.0763     680.1277    86.501177   -75.287952    134.68317    413.83454 
  325000    282.69807   -4233.2649   -3748.7301   -4233.2649            0   -960.09594    18.095018    23.834177     22.19276    9571.2901   -32.975526   -1134.3604   -1712.9519      310.389   -10.558431    182.97755 
  325500    259.73839   -4181.6532   -3736.4705   -4181.6532            0   -136.60641    18.200621    23.322492    22.433442    9522.6336    362.72318    655.63838   -1428.1808    184.19124   -58.140553    969.90003 
  326000    264.84841   -4221.5685   -3767.6274   -4221.5685            0   -769.30847    18.118952    23.849812    22.009838    9511.1905   -373.25656   -1192.9131   -741.75572    288.88286     824.6312    465.86066 
  326500    272.42063   -4203.6324   -3736.7128   -4203.6324            0   -309.20219    18.241637    23.658902    22.071779    9525.6743   -1363.4462   -390.04196     825.8816    263.45608    44.028285    523.44255 
  327000    276.31906   -4194.5563   -3720.9548   -4194.5563            0    744.44639    18.203562    23.481091    22.368787    9561.3028    1130.7063    105.44414    997.18876   -36.960101   -482.42993    27.885861 
  327500    261.97659   -4223.5735   -3774.5546   -4223.5735            0     936.1961    18.082032    23.759304    22.031119    9464.9321    1432.8434    2093.8102   -718.06527    1355.2699    351.13786   -62.008087 
  328000    274.59149   -4194.5858   -3723.9454   -4194.5858            0    976.24586    18.366145    23.425133    22.094003     9505.489    578.14262    1210.3598    1140.2351    482.39882    97.846258    538.43264 
  328500    272.83498   -4197.3927   -3729.7628   -4197.3927            0   -682.71428    18.046544    23.619453    22.447143    9568.0834   -768.08759   -149.12002   -1130.9352    1039.7752    860.49655   -245.14293 
  329000    271.30379   -4206.1587   -3741.1533   -4206.1587            0   -432.56824    18.179237    23.601869    22.210868    9529.8829   -1200.7847    43.805414   -140.72546    425.44849    893.45783   -263.80432 
  329500    266.97271   -4240.8083   -3783.2262   -4240.8083            0   -443.85634    18.367249    23.559254    22.023781    9530.1018   -505.95706   -666.99051   -158.62147   -281.39035   -648.49539    498.96542 
  330000    248.06896   -4171.9707    -3746.789   -4171.9707            0    1885.8454    17.896478    23.615349    22.306422    9427.3981     1777.709    3174.4358     705.3913   -122.61106   -622.17473   -214.06691 
  330500    276.97573   -4219.0008   -3744.2739   -4219.0008            0    912.42891    18.281976    23.391392    22.271801    9524.3323    712.06172    1828.0879    197.13714   -624.74746    711.82005    606.13263 
  331000    264.03901   -4218.6764   -3766.1226   -4218.6764            0   -4.1501972    18.224224    23.792859    22.024251    9549.8558    1466.8035     -145.355   -1333.8991   -1220.1118   -198.55713    -684.6868 
  331500    277.07913   -4210.5258   -3735.6217   -4210.5258            0    686.24552    18.014664    23.502389    22.377484    9474.3502    1607.6777    873.86919   -422.81027    242.54323   -7.2985884   -797.20007 
  332000    277.19164   -4199.2712   -3724.1742   -4199.2712            0   -46.867572    18.243369    23.549692    22.242527    9555.9617   -1573.7918    1214.4758    218.71324   -1022.7814    144.31986    64.115163 
  332500     280.5731   -4183.3812   -3702.4885   -4183.3812            0   -54.434094    18.115891    23.795807    22.054849    9507.4538    309.87198   -1091.3858    618.21154   -186.36399   -664.06069    798.32645 
  333000    278.24061   -4212.5355   -3735.6406   -4212.5355            0    850.86429    18.150395    23.392337    22.171276    9413.4838    1103.5698   -191.21557    1640.2387    348.36384   -551.96276     328.6593 
  333500    279.78335   -4182.6378   -3703.0987   -4182.6378            0   -1557.6305    18.170256    23.640445    22.436454    9637.6451   -2372.1027   -1097.2844   -1203.5045    289.78012   -251.29204    398.44607 
  334000    277.60211   -4202.8135    -3727.013   -4202.8135            0    1230.6165    18.177224    23.667094    22.042855     9482.882    848.82139    888.99359    1954.0346    -799.8256   -50.747994   -853.35156 
  334500    255.83497   -4175.5726   -3737.0803   -4175.5726            0   -684.40219    18.336488      23.7292    22.047944     9593.285    -1065.632   -1626.1599    638.58528    5.9954691   -60.215795   -894.74679 
  335000    271.89691   -4238.3049   -3772.2829   -4238.3049            0   -1514.5077    18.058108    23.544876    22.552759      9588.89    567.21658   -1216.3623   -3894.3773    26.317587    370.43237   -393.65411 
  335500    275.48115   -4167.4446   -3695.2793   -4167.4446            0    68.938472    18.128026    23.516657    22.129079    9433.8606    470.11609    787.65747   -1050.9582   -1074.9068    420.29597    280.52871 
  336000    277.05302   -4163.4095   -3688.5501   -4163.4095            0   -1142.7522    18.355385    23.754333    21.973585     9580.921   -1214.8662   -1592.2553   -621.13508    128.20784    534.69491   -307.88265 
  336500    277.69226   -4216.2182   -3740.2632   -4216.2182            0   -563.99601    18.108166    23.615898    22.341846    9554.2805    -1035.785    -1103.264    447.06093   -1383.4183      135.907    912.43041 
  337000    271.79971   -4191.9628   -3726.1074   -4191.9628            0   -735.87355    18.229898    23.567204    22.375269    9613.0357    53.696503   -1263.6821   -997.63509    174.19959   -261.53638    39.275468 
  337500    272.78841   -4186.2805   -3718.7304   -4186.2805            0    133.20482    18.302826    23.786857    21.827908    9503.1441    -1274.895    1008.3652    666.14425   -31.116319   -197.29959    -204.6588 
  338000    250.87765   -4225.6823   -3795.6866   -4225.6823            0   -104.87254    18.080739    23.565706    22.400213    9544.4032   -651.56781    253.42891    83.521289     -73.7706    442.14253    311.59749 
  338500    259.91065   -4197.7003   -3752.2224   -4197.7003            0    506.77334    18.164583    23.524719    22.232205    9500.1928    386.57001    907.42224    226.32775    499.00775   -22.016095    446.31246 
  339000    269.41913   -4192.5861    -3730.811   -4192.5861            0   -571.17533    18.227316    23.795461    21.994049    9539.4215    -1106.275   -1000.5378    393.28678   -245.83835   -148.57469    282.71553 
  339500    268.02385   -4237.2631   -3777.8793   -4237.2631            0    1362.0217    18.069421    23.390246    22.223535    9392.7369    1346.8078    872.49091    1866.7663   -206.16631    42.158596   -272.40767 
  340000    267.80408   -4182.8282   -3723.8212   -4182.8282            0   -1225.4245    18.229145    23.461991    22.396538    9578.8211   -774.29992   -845.26372   -2056.7098    -1104.653    -36.72369   -28.263936 
  340500    276.69927    -4197.656   -3723.4029    -4197.656            0    122.42951    18.164834    23.813629    21.975077    9505.7731   -1084.0881   -594.71598    2046.0926    786.61591   -99.178203   -123.38628 
  341000    268.00824   -4187.9281   -3728.5712   -4187.9281            0    612.45853    18.169722    23.429443     22.14314    9426.4781    1459.0009    1.8650344    376.50965     165.3313   -11.392415   -368.90912 
  341500    272.78049   -4218.3776   -3750.8412   -4218.3776            0    17.017523    18.118744    23.581225    22.230305    9498.1687     667.1755    1213.3478   -1829.4707   -424.74047    576.46113    118.45005 
  342000    262.90736   -4206.8168   -3756.2026   -4206.8168            0   -613.52069     18.15727    23.756196    22.164206    9560.4783   -1756.1705   -96.789994    12.398425   -765.13847    604.81593   -232.41875 
  342500    261.16729   -4215.6687   -3768.0369   -4215.6687            0    2130.9328    18.351648    23.203111    22.052456    9390.2734    456.99159     4322.147    1613.6597    465.04866    -416.4141   -426.44704 
  343000    259.81701   -4197.5976   -3752.2802   -4197.5976            0    -1107.234    18.091995    23.804729    22.342903    9622.5306   -2137.6906     -791.938   -392.07343   -551.17199   -517.92678    129.40925 
  343500    270.98674   -4223.5927   -3759.1307   -4223.5927            0   -154.60589    18.166318    23.538929    22.120459     9459.055   -797.40101   -176.82308    510.40642   -1049.2084   -514.82647    343.42565 
  344000    271.24798   -4213.9346   -3749.0248   -4213.9346            0    423.27011    18.275246    23.574579    22.108783     9525.154    1105.9819    642.87341   -479.04502    539.38583   -1100.2673   -256.35212 
  344500    264.67904   -4190.1326   -3736.4818   -4190.1326            0   -529.19518    17.968092    23.781794    22.438026    9588.0708     106.1214   -621.39899    -1072.308   -675.96332       109.18    149.74874 
  345000    273.72746   -4208.3852   -3739.2257   -4208.3852            0   -370.47943    18.327137    23.339601    22.238179    9512.3379   -1231.7387   -1331.2027    1451.5031   -514.07789   -429.27381    325.30778 
  345500    273.77769   -4214.6903   -3745.4447   -4214.6903            0   -225.41627    18.156404    23.959417    21.894908    9524.6545    287.75387   -965.64103    1.6383482   -422.48755    81.179903   -505.87686 
  346000    268.00616   -4200.5625   -3741.2092   -4200.5625            0   -94.795333    18.184578    23.557653    22.246185    9529.9538   -1398.4351    703.56337    410.48575   -171.20176   -682.09036   -1351.2884 
  346500    256.35363   -4206.4496   -3767.0682   -4206.4496            0    712.49048    18.155883    23.486945    22.266466    9495.0054    1922.2616    328.97109   -113.76126    687.66084   -214.67231     302.6494 
  347000    274.72036   -4204.1814   -3733.3201   -4204.1814            0    484.27629    18.037422    23.991678    21.900254    9477.2916     2213.722     392.6807   -1153.5738    994.65927    690.34074     373.1603 
  347500    261.57277   -4187.7705   -3739.4437   -4187.7705            0   -394.64472    18.306531    23.251182    22.268993     9478.763   -889.30774   -161.67434   -132.95207   -356.54708   -37.557585   -42.025456 
  348000    251.15056   -4217.3384   -3786.8749   -4217.3384            0    819.31328    17.949648    23.658864    22.200158    9427.7027    1442.1664     572.9608    442.81259   -182.30966    117.75207   -591.39149 
  348500    257.54715   -4218.7195   -3777.2925   -4218.7195            0   -980.38381     18.27896    23.704277     22.03656    9548.2104   -713.92774   -2882.3691     655.1454   -311.21493   -290.47208    604.37765 
  349000    257.21059   -4235.1172   -3794.2671   -4235.1172            0   -879.85169    18.319638    23.418742    22.256773    9548.6647   -2326.5605   -111.38054   -201.61404    -20.75629    252.95619   -258.84084 
  349500    281.11263   -4167.1679   -3685.3505   -4167.1679            0    214.66552    17.754717    23.926546    22.196427    9429.2429   -229.75582   -786.76651    1660.5189    283.33074   -163.58062   -161.86779 
  350000    269.00869   -4172.6869   -3711.6152   -4172.6869            0    -1026.411    18.405979    23.496182    22.193569    9598.0585   -2451.1585   -585.31024   -42.764133   -366.96831   -781.73339    199.99084 
  350500    272.64756   -4196.1641   -3728.8555   -4196.1641            0   -442.26663    18.155138    23.733526    22.123719    9532.7883    43.759866    -1315.835   -54.724746   -346.27623   -374.91817    806.96936 
  351000    270.62055   -4207.3984    -3743.564   -4207.3984            0   -583.70858     18.08029    23.671305    22.376757     9576.895    242.95528   -1521.5622   -472.51885   -76.237328    253.33023   -512.02226 
  351500    277.41085   -4213.6679   -3738.1952   -4213.6679            0    1040.5768    18.331327    23.243624    22.211576    9464.0524    1471.0649    2252.0189   -601.35349    571.75864    454.64592   -210.67326 
  352000    265.37262   -4176.7023   -3721.8627   -4176.7023            0   -263.48328    18.115395    23.785717     22.17226    9553.7535   -157.53734   -782.59764    149.68514    912.55332    466.54578   -517.95328 
  352500    261.61186   -4215.8739   -3767.4802   -4215.8739            0   -1306.2641    18.307669    23.466145    22.261893    9563.9409   -1774.1391   -854.56693   -1290.0863   -246.29047   -542.58631    95.830536 
  353000    241.40334    -4190.451   -3776.6939    -4190.451            0    735.03704    17.785791    23.777133    22.234011    9402.6547    2868.3554   -101.86285   -561.38144   -441.48307    725.72036    264.94761 
  353500    248.22124     -4206.44   -3780.9973     -4206.44            0    522.73116    18.235877    23.409907    22.184959    9470.7629    1035.4551    637.22897   -104.49054   -553.51861   -631.39827   -69.096574 
  354000     266.4913   -4202.5283   -3745.7713   -4202.5283            0   -148.60441    18.301952    23.635607    22.185257    9596.8485   -1069.2701   -112.63702    736.09387    697.48159     207.6414    370.67903 
  354500    275.69881   -4193.3814    -3720.843   -4193.3814            0     1463.465    17.776633    23.925961    22.199747    9442.0632     3078.603   -169.35408    1481.1461   -834.78797    -180.7018   -77.683589 
  355000    267.43736   -4187.5275    -3729.149   -4187.5275            0   -164.25055    18.413738    23.304601    22.210985    9531.2847   -1183.7058    102.68674    588.26741    136.83114   -266.99259    1007.2039 
  355500    258.35887   -4206.0288   -3763.2105   -4206.0288            0    550.70088    18.066359     23.85434    22.079614    9515.4538    837.01724    64.119166    750.96624   -744.35336   -661.25548    1118.1439 
  356000    270.59021   -4193.5941   -3729.8117   -4193.5941            0    176.06212    18.244305    23.530005    22.121925    9496.6901   -512.64757   -526.58398    1567.4179     587.7214   -544.38641     272.8428 
  356500    265.17301   -4211.8963   -3757.3989   -4211.8963            0   -1702.2035    18.197339    23.472959    22.446546    9587.9387    -1157.011   -1240.7868   -2708.8126    10.043866    154.16391    736.54633 
  357000    272.46205    -4196.087   -3729.0963    -4196.087            0    370.81856    18.037898    23.772318     22.13016    9489.4712    937.69445    1045.6128    -870.8516    237.21207   -1.8677311    546.95254 
  357500    277.38581   -4174.6104   -3699.1807   -4174.6104            0    -1118.743    18.337111    23.427839    22.296708    9578.6406   -1075.5678   -1612.7939   -667.86719   -163.44588   -446.81899    604.79756 
  358000     271.8495   -4204.4549   -3738.5142   -4204.4549            0    1434.2099    17.950006    23.759791    22.146088    9445.0493    1508.0567    1713.0596    1081.5133   -596.02147   -341.05064     -938.123 
  358500    274.77144   -4197.5601   -3726.6112   -4197.5601            0   -161.61032    18.160849    23.514596    22.127372     9449.384    -555.1865   -934.44488    1004.8004    -258.3981     1018.914   -26.124586 
  359000    277.40145    -4221.265   -3745.8084    -4221.265            0   -1699.9424    18.236763    23.595093    22.289175    9590.9903   -2168.1403   -1377.8934   -1553.7935   -85.101315   -683.32904     938.0183 
  359500    264.84016   -4172.8468   -3718.9198   -4172.8468            0   0.20197372    18.078082    23.689518    22.178373     9498.133   -472.38736    582.53997   -109.54668   -1186.1893    -167.9569    1071.2122 
  360000    268.20061   -4205.8202   -3746.1335   -4205.8202            0   -874.36316    18.330052    23.371619    22.311232    9558.1984    -2594.641   -831.47995    803.03149    11.628023   -343.81171   -260.48264 
  360500    270.65967    -4206.351   -3742.4496    -4206.351            0   -327.19382    18.100863    23.798111    22.014454    9483.0858   -1442.9493    741.16612   -279.79832    1180.6967    603.82596   -270.94456 
  361000    272.59977   -4216.1287    -3748.902   -4216.1287            0    272.97937    18.167111    23.555622    22.178807    9491.1453   -780.52827    758.56077    840.90563   -428.47498   -16.512193    153.56776 
  361500    271.88567   -4211.0092   -3745.0065   -4211.0092            0   -1628.6086    18.230957    23.459496    22.337768     9553.619   -352.26538   -2406.1629   -2127.3975   -1195.7986   -384.61659    958.03315 
  362000    266.03535   -4206.7887   -3750.8132   -4206.7887            0    -37.84276     17.92271    23.913537    22.029359    9441.6817    1281.2236   -1477.3371     82.58519   -132.14342   -698.05366    788.36976 
  362500    256.97096   -4162.1269   -3721.6874   -4162.1269            0   -938.43365    18.440703     23.31133    22.191478    9539.6126   -2120.3759   -517.11273   -177.81231    935.59697    173.53791   -1192.3523 
  363000    274.52142   -4180.7433    -3710.223   -4180.7433            0     197.5731    18.081244    23.748319    22.213335     9538.387    1501.0565   -1975.2484    1066.9111    228.57759   -459.90076   -73.775309 
  363500    276.53978   -4170.9855   -3697.0058   -4170.9855            0   -961.65032    18.228826       23.435    22.369328    9556.0106   -442.11088   -740.52865   -1702.3114    710.46478    514.17291     382.0133 
  364000    272.53544   -4191.4523   -3724.3359   -4191.4523            0   -1566.2913    18.329777    23.848638    21.974313    9605.8559   -2225.9975   -2078.5947   -394.28179   -882.36694   -143.15312    957.34983 
  364500    260.48933   -4208.1724   -3761.7026   -4208.1724            0    1504.1118      17.9885    23.589401    22.191468    9416.6822    2061.2549    1498.9064    952.17415    404.77812   -414.03945    969.53728 
  365000    283.49888    -4221.506   -3735.5986    -4221.506            0   -359.38244    18.243074     23.34639    22.361029    9523.7843   -285.37672    233.27613   -1026.0467    439.20211    1441.9317   -645.30456 
  365500    276.57201   -4212.0439   -3738.0089   -4212.0439            0    527.53053    17.984838    23.937473    22.028406    9483.4842    1703.2086   -269.65197    149.03499   -147.91764    15.509547   -787.72559 
  366000    283.00477   -4186.2805     -3701.22   -4186.2805            0    -1315.209    18.374094    23.507037     22.19463     9586.316   -3089.3503    1.1660117   -857.44272   -206.29715   -508.97467    288.04559 
  366500    274.00771   -4224.1491   -3754.5093   -4224.1491            0    152.93369    18.132259     23.42921    22.315245    9480.0629    511.97781   -781.79435    728.61762   -481.99152   -587.17617   -621.71321 
  367000    264.82934   -4205.5785     -3751.67   -4205.5785            0   -577.58783    18.148542    23.828315    22.154936    9580.8838   -730.73372   -774.68816   -227.34161    1399.1857   -486.48929   -846.51013 
  367500    269.87191   -4188.0771   -3725.5258   -4188.0771            0   -418.89763    18.401821     23.36874    22.218245    9554.4531   -534.75085    607.38706   -1329.3291    362.25919   -993.54105   -143.16303 
  368000    274.03694   -4194.8704   -3725.1805   -4194.8704            0   -506.48655    17.965922    23.805705    22.301075    9537.9791   -1502.0069   -1167.1982    1149.7455   -656.59286   -737.34759   -314.36797 
  368500    256.81776   -4162.5134   -3722.3365   -4162.5134            0    1009.1911    18.240881    23.626433    22.148552    9545.2935    632.84073    774.94084    1619.7918    514.63553    361.49714    329.73478 
  369000     271.3762   -4184.3077   -3719.1781   -4184.3077            0   -311.86585    18.334942     23.56302    22.141445    9565.6936   -954.33089   -380.64301    399.37636     107.7855   -395.74653   -286.60365 
  369500    270.90254   -4218.1706   -3753.8529   -4218.1706            0   -170.65815    18.095293    23.559692    22.228778     9476.562   -529.13426    582.75899   -565.59919    96.393145    172.79985     486.2446 
  370000    262.35907   -4172.5853   -3722.9108   -4172.5853            0   -686.80495    18.254815     23.40416    22.311182    9532.1986   -2168.2229   -1276.3044    1384.1125   -817.91783    818.93295   -470.20034 
  370500    257.07203   -4212.0421   -3771.4294   -4212.0421            0    1622.1848    18.098659    23.633512    21.962837    9394.2712    48.661074    2551.8261    2266.0672   -368.98611   -24.229803     335.2767 
  371000    258.66439   -4195.5966   -3752.2547   -4195.5966            0   -1412.2405     18.08344    23.634532    22.446018    9593.2851   -1521.7184   -1332.5671   -1382.4359    1360.4836   -149.05495    237.89723 
  371500    266.81109   -4199.0202   -3741.7152   -4199.0202            0    -241.4458    18.248984    23.403108    22.214109    9487.2674   -847.97318    1593.7925   -1470.1568    -601.9213   -276.03525    306.10659 
  372000    265.17809    -4208.186   -3753.6799    -4208.186            0    287.39108    18.099471      23.9016    21.982723    9509.8647    1531.4931   -782.60508    113.28517    754.67541   -360.73753   -212.28476 
  372500    264.61576   -4225.7103   -3772.1679   -4225.7103            0    1034.7091     18.22235     23.13313    22.373838    9431.4673    1512.2347    1397.8117    194.08091   -936.70926    1182.0028    42.079555 
  373000    255.85248   -4231.6296   -3793.1072   -4231.6296            0   -1440.9377    18.079958     23.65807    22.376428    9571.2242   -712.36813   -1311.2246   -2299.2203    184.72957   -769.67502    24.367889 
  373500    266.77036   -4191.5767   -3734.3414   -4191.5767            0   -602.78654    18.321352    23.777412    21.929629    9553.2992   -2185.0451   -876.45085    1253.1363   -923.24532   -382.03673   -435.33235 
  374000    283.23646   -4184.9535   -3699.4958   -4184.9535            0   -231.37796    18.221329    23.597446    22.335646    9603.8101   -768.00792   -492.92435    566.79838    656.82065   -84.438927   -253.91923 
  374500    289.04083   -4174.3587   -3678.9526   -4174.3587            0    990.21765    18.007629    23.671609     22.25988    9488.7088    2108.2623    826.70323    35.687393    729.55263   -637.68298     666.3828 
  375000    289.66363   -4194.4784   -3698.0048   -4194.4784            0    678.84404    18.440263    23.514857    21.931881    9510.1054    208.53302    148.55509     1679.444    1064.8654    370.56056    528.30591 
  375500    263.66909   -4189.9989   -3738.0791   -4189.9989            0    267.73021    18.188755    23.720408    22.225318    9588.9959    374.38635   -266.51021    695.31449   -118.81302    336.89896   -137.93795 
  376000    271.18934   -4190.5275   -3725.7182   -4190.5275            0   -225.89759    18.085183    23.584082    22.266971    9497.3629    129.43941   -617.23302   -189.89917   -79.645889    -71.97155    854.90738 
  376500    271.45249   -4169.8256   -3704.5653   -4169.8256            0    -262.3551    18.274061    23.563353    22.234873    9574.2954   -1062.0665    278.26127   -3.2600767   -256.01433    -1037.322   -1119.4186 
  377000    263.14777   -4241.0432   -3790.0169   -4241.0432            0    207.77073    18.100835    23.733076    22.081382    9485.9074    736.02669   -1083.2629    970.54838    465.24193    -67.96544   -892.00864 
  377500    263.97056   -4215.5694   -3763.1329   -4215.5694            0     966.3713    18.082563    23.398675    22.362179    9461.6169    1948.6113     783.8662    166.63644   -740.38028    196.11326   -31.565563 
  378000    271.78708   -4214.2001   -3748.3663   -4214.2001            0   -840.89694    18.254778    23.499013    22.228403    9535.3017   -1158.1982    27.489163   -1391.9818    297.58577    336.39872    109.18724 
  378500    262.11283   -4206.2501   -3756.9977   -4206.2501            0    418.70871    18.201249    23.873523    21.933823    9530.8587   -276.74126   -1961.9718    3494.8392   -823.74537   -252.39208    360.00546 
  379000    266.45103    -4208.652    -3751.964    -4208.652            0    933.83854    18.156913    23.528305     22.18506    9477.4888    -244.0016    1308.1361    1737.3811   -119.69059   -687.77048      186.931 
  379500    267.05434   -4222.0347   -3764.3127   -4222.0347            0    500.13149    18.041858    23.488943    22.387267    9487.3695   -593.43308    1409.3612    684.46638    890.10895   -208.24687    414.72382 
  380000     261.0316    -4230.514   -3783.1147    -4230.514            0   -724.51126    18.368559    23.761073    21.816888    9522.1264   -1660.3218   -261.51359   -251.69835   -322.02722   -467.50717    36.030173 
  380500    280.15152   -4178.3475   -3698.1774   -4178.3475            0    692.02294    18.077758    23.644854    22.222598    9498.9594      1665.03    1405.3183   -994.27945   -360.23317   -51.237224    438.88806 
  381000    268.06552   -4225.8881    -3766.433   -4225.8881            0   -165.09306    18.129836    23.566276    22.279845    9519.1247    -133.4674   -1144.8768    783.06506    152.14392   -292.44558   -203.51423 
  381500    274.50475   -4176.3174   -3705.8257   -4176.3174            0    792.87607    18.181858    23.647655    22.070938    9489.5835   -67.200482   -847.44666    3293.2753    948.80746    -1066.505    -340.6445 
  382000    262.18566   -4198.8143    -3749.437   -4198.8143            0   -67.139768    18.229097     23.68146    22.058381    9522.4184    852.77839   -96.777983   -957.41971   -16.786466    1104.9294    1213.7915 
  382500    274.21523   -4194.4179   -3724.4224   -4194.4179            0    -641.2491    18.107464    23.510457    22.537647    9594.6088    56.579975    674.65371    -2654.981   -166.48129    48.060643    858.31212 
  383000    280.94792   -4192.6355   -3711.1004   -4192.6355            0    780.41783    18.202369    23.620494    22.205699     9547.317    184.73838    1050.9253    1105.5898    123.27702   -630.35521   -204.20854 
  383500    284.97702   -4181.2074   -3692.7665   -4181.2074            0     1192.536    18.255184    23.582756     22.02691    9482.7513    593.64168    748.21478    2235.7514   -776.30075   -118.06034    1214.0929 
  384000    259.63468   -4213.2022   -3768.1973   -4213.2022            0     -307.074    18.020025    23.631066    22.379644    9529.9774    539.36771   -536.42183   -924.16789   -257.87072    136.23647    581.86787 
  384500    274.09792   -4206.9974   -3737.2029   -4206.9974            0     875.9632    18.103172    23.349243    22.431284    9481.5991     1543.866    3042.6046    -1958.581   -270.68856    1419.8799    324.84268 
  385000    272.17869   -4205.2014   -3738.6964   -4205.2014            0    262.72856    18.300544    23.686679    21.902506    9494.2787    940.16898   -756.37832    604.39502   -1448.0417   -5.7291086   -266.64013 
  385500    274.30009   -4194.8828   -3724.7418   -4194.8828            0    122.03376    18.077358    23.698978    22.340845     9571.151   -131.40468    1243.8534   -746.34744   -420.62734   -121.20681    1049.3966 
  386000    280.53125   -4221.2037   -3740.3828   -4221.2037            0    694.16387    18.180669    23.266066    22.317239    9440.0281    683.93738    2395.2426   -996.68834    582.76163   -519.57043   -924.48163 
  386500    266.56396   -4207.4004   -3750.5189   -4207.4004            0    285.24571    18.145679     23.76681    22.055922    9511.9452    258.27247    1038.1012   -440.63657   -734.94848   -3.8141141   -478.95536 
  387000    268.54899   -4205.1575   -3744.8737   -4205.1575            0   -1885.6131    18.359286    23.732226    22.206124    9675.3574   -2057.2512   -817.05145   -2782.5368    888.28712    341.48171   -958.11009 
  387500    284.03585   -4215.3765   -3728.5488   -4215.3765            0     194.7565    18.053733     23.40949    22.367299    9453.0619    893.73256   -226.74659   -82.716463    1160.9888    -9.408321   -330.20903 
  388000    264.84648   -4214.9697   -3761.0319   -4214.9697            0   -100.75829    18.134056    23.692707    22.229377    9550.7377    216.16258   -424.57049   -93.866956   -363.49057    415.97519   -439.68735 
  388500    271.45052   -4257.5416   -3792.2847   -4257.5416            0    299.54835    18.355162    23.501912    21.841978     9422.223    62.114866    826.96389     9.566282      53.2996   -195.69442   -490.90902 
  389000    276.32911   -4213.9527    -3740.334   -4213.9527            0    83.544548    17.989141    23.635166    22.335918     9496.704   -465.69853     411.8606    304.47157   -380.10594    222.08865    845.28867 
  389500     265.6297   -4210.7881   -3755.5079   -4210.7881            0   -836.25105     18.18506    23.378357    22.362132    9506.9656   -1832.3168    74.854639   -751.29097    413.48485   -41.580777   -186.24973 
  390000    268.32617   -4254.1171   -3794.2152   -4254.1171            0    42.460044    18.251817    23.706213    21.871857    9463.5469   -113.85092   -1253.4565    1494.6875    9.3640251   -187.34685    -561.6613 
  390500    278.18364   -4190.4937   -3713.6965   -4190.4937            0    215.10851    18.156757    23.672614    22.161632    9525.4661   -1184.2774    1116.4589    713.14408     43.06242   -748.18281   -541.85129 
  391000    280.70187   -4229.9536   -3748.8402   -4229.9536            0    237.43155    18.155886    23.445242    22.296179    9490.7956    60.183735    29.213262    622.89766    681.04383    401.71426    321.20853 
  391500    273.16791   -4192.0196   -3723.8191   -4192.0196            0   -746.82441    18.276942    23.820144    22.102576    9622.5636   -201.80833   -1841.7254    -196.9395   -61.307439   -456.13569    72.565353 
  392000     263.8598   -4273.8478   -3821.6011   -4273.8478            0   -779.17407    18.189868    23.576229     22.17626    9510.2554    -214.0353   -1362.1221    -761.3648    104.19113    219.97675    23.046934 
  392500    270.41335    -4214.865   -3751.3858    -4214.865            0    1615.2712     17.83972    23.354649    22.575162    9405.7241    2684.3045    3125.2665   -963.75737    87.254127     383.2671   -534.00852 
  393000    280.04764   -4201.8185   -3721.8264   -4201.8185            0   -372.32132    18.349253    23.717871    21.999273    9574.1984    -912.1477    591.81667   -796.63292   -511.47674    283.66029   -13.069392 
  393500    279.82427   -4206.8078   -3727.1986   -4206.8078            0   -196.16947    18.212643    23.701986    22.079113    9531.0192    77.997765   -145.29785   -521.20832    149.23024   -158.21441   -826.16283 
  394000    262.65631   -4222.8623   -3772.6784   -4222.8623            0    1400.4204    18.058858     23.42136    22.265558    9417.5076    808.00986    1577.5623    1815.6891    268.13639   -57.184245   -74.071666 
  394500    268.52352   -4199.5417   -3739.3016   -4199.5417            0   -320.90316    18.142246    23.615547    22.291333    9550.4777    172.32298   -41.921661   -1093.1108    434.48273    95.378642   -140.44227 
  395000    260.16215   -4192.1647   -3746.2557   -4192.1647            0    804.56724    18.300127    23.659158    21.825276     9449.594    328.80497    1458.1588    626.73795   -554.15176    359.17428   -226.84515 
  395500    260.15467   -4220.9435   -3775.0473   -4220.9435            0   -187.37904    18.171729    23.594369    22.302948    9562.3997    351.48234    780.72325   -1694.3427   -464.60781    803.43786   -294.34574 
  396000    258.04559   -4203.1205   -3760.8392   -4203.1205            0    360.61389    18.130677    23.538073    22.327715    9528.6024   -77.611787    300.50336     858.9501    36.396202    211.43925   -595.16508 
  396500    273.57002   -4216.9065   -3748.0168   -4216.9065            0    1002.1487    18.185282    23.722622    21.822151    9414.1319   -903.52424    2041.1258    1868.8447   -1527.2308   -28.870845   -473.82054 
  397000    251.88953   -4213.1997   -3781.4697   -4213.1997            0   -754.26318    18.183581    23.656985    22.195025     9547.605   -464.07378   -649.58943   -1149.1263   -783.26289    257.40911   -623.30516 
  397500    274.39298   -4205.9533   -3735.6531   -4205.9533            0   -461.29449    18.144911    23.414419      22.5421    9577.0685   -1428.5453    489.42389   -444.76204   -331.30945     359.2797    149.26602 
  398000    263.83512   -4209.1204   -3756.9161   -4209.1204            0   -439.76125    18.179143    23.803375    22.031288    9533.4882   -596.04495   -967.96929    244.73048   -226.08946    1538.3961   -986.25832 
  398500    270.62468   -4170.5015   -3706.6601   -4170.5015            0   -1080.2551    18.290749    23.794697    22.080785    9610.0614      -656.26   -1796.0877   -788.41758   -517.21227    -272.8638   -94.821844 
  399000    251.73346   -4219.2955    -3787.833   -4219.2955            0     1731.146    17.944803    23.267115      22.5452    9413.1575    1175.0383    3036.1903    982.20949   -440.78218   -257.83286   -416.23545 
  399500    268.80634   -4240.7759    -3780.051   -4240.7759            0    94.616663    18.186958    23.648908    22.131493    9518.7931   -119.66479   -855.22478    1258.7396    726.26107   -899.81937    147.00055 
  400000    273.73898   -4207.4378   -3738.2586   -4207.4378            0    875.07244    18.205736    23.590275    22.081771    9483.6423   -163.66555    619.63211    2169.2508    837.14785   -400.75213   -553.00406 
  400500    277.08882   -4194.2129   -3719.2922   -4194.2129            0   -373.96327    18.115227    23.413477     22.45721     9525.011    11.061615    711.64005   -1844.5915   -129.38449   -1754.6953    690.93418 
  401000    273.17797   -4210.2084   -3741.9907   -4210.2084            0   -455.24457    18.184209    23.686216    22.149494    9540.1218   -1737.3545    139.47861    232.14214   -1225.1381    726.24356    101.45026 
  401500    275.51303   -4200.5138    -3728.294   -4200.5138            0    1146.4689    18.232022    23.513634    22.054107    9454.6195    366.11076    472.28816    2601.0077   -759.38812    385.02352    967.51997 
  402000    265.94991   -4201.0922   -3745.2631   -4201.0922            0   -447.37454    18.143304    23.515214    22.381435    9548.8975    633.43855   -840.14844   -1135.4137   -247.31267    682.71016    803.61846 
  402500    260.51259   -4180.8626   -3734.3529   -4180.8626            0   -320.63264    18.140809    23.921706    22.091643    9586.8699   -446.72509   -619.50401    104.33118    474.37619    367.68869     121.3831 
  403000    276.15761   -4219.7093   -3746.3846   -4219.7093            0     1806.977    18.267965    23.418705    22.147669    9475.0405    327.73403    3107.7955    1985.4016    266.95127   -891.04173    -220.5152 
  403500    264.71819   -4204.7544   -3751.0365   -4204.7544            0   -349.11272    18.079247    23.647688     22.29217    9530.6245   -893.47876    345.15885   -499.01825   -292.49051   -645.75071   -89.561067 
  404000    250.99957   -4209.9308   -3779.7262   -4209.9308            0    195.25135    18.320124    23.531774    22.122734    9537.2216   -260.66486   -152.58305    999.00197    175.59834    570.17756    20.032699 
  404500    259.51991   -4196.9291   -3752.1209   -4196.9291            0   -989.26411    18.263919    23.615655    22.217707    9582.8168   -619.63464   -1046.8504   -1301.3072    1263.7905    -635.0256    -548.7151 
  405000    271.08017   -4196.2894   -3731.6673   -4196.2894            0   -161.25468    17.940129    23.684322    22.466227    9545.8953    168.39463    940.46346   -1592.6221   -1554.4653    22.851402   -206.84459 
  405500    281.43546   -4173.0478   -3690.6771   -4173.0478            0    359.60994    18.288835    23.435323    22.154756    9495.6335    366.82682    549.84037    162.16264    101.21353   -564.15543    310.22377 
  406000    271.19674   -4192.1947   -3727.3728   -4192.1947            0    349.23572    18.113897    23.818251    22.208024    9581.4597     228.6817    109.25968     709.7658   -1227.4294    563.05813    579.72577 
  406500    270.14039   -4195.0642   -3732.0528   -4195.0642            0    315.82023    18.188254    23.454248    22.239637    9487.2474    306.90527     1614.375   -973.81952   -43.699752   -11.660669    530.27318 
  407000    263.86217   -4220.1374   -3767.8867   -4220.1374            0   -30.439359    18.064336     23.62723    22.323463    9527.8821   -500.61438    1571.0798   -1161.7835    617.60973    140.05099    441.67747 
  407500    276.20995   -4204.8947   -3731.4803   -4204.8947            0    356.06819    18.358135    23.686359    21.828216     9491.724   -1882.8763   -238.44833    3189.5292    142.73558   -371.65146    281.64479 
  408000    261.35705    -4193.635    -3745.678    -4193.635            0    -1667.052    18.249466    23.510918     22.38047    9602.6024   -1527.6417   -906.63625   -2566.8779   -588.22187   -80.756952    408.17435 
  408500    272.52954    -4218.554   -3751.4477    -4218.554            0   -158.13786    18.054256    23.620585    22.347934    9530.3229    66.834607   -213.68148   -327.56671   -668.15859    301.76987    288.60708 
  409000     275.6448   -4204.8568    -3732.411   -4204.8568            0   -410.18078    18.531285    23.484504    21.917046    9538.2552   -649.59317   -443.68151   -137.26765    905.79489    262.94825   -361.59923 
  409500    274.72335   -4218.5818   -3747.7154   -4218.5818            0   -83.446425    18.063384    23.738758    22.184732    9512.8644   -282.71524   -306.21761    338.59357    1531.5745   -322.37302    476.00258 
  410000    272.33998   -4219.0132   -3752.2318   -4219.0132            0    119.52625    18.100888    23.487745    22.321251    9489.8587    395.67043    547.37985   -584.47154    1103.7717   -181.33422   -74.276063 
  410500     272.8786   -4227.9087   -3760.2041   -4227.9087            0    343.35396    18.284359    23.494818    21.976235    9440.7197   -156.05969   -44.835438     1230.957   -127.40314   -175.82009    -11.39384 
  411000    277.84768   -4182.8753   -3706.6539   -4182.8753            0     1535.541    18.000805    23.685483    22.064911    9407.5459     1017.204     953.5253    2635.8938   -1463.8571   -15.221356    541.27951 
  411500    270.46348   -4205.6045   -3742.0394   -4205.6045            0   -1098.5771    18.201906     23.44973    22.378825    9551.9486   -787.82773   -582.06629   -1925.8373   -549.03022   -589.00977    557.89066 
  412000    275.07874   -4202.3001   -3730.8246   -4202.3001            0   -374.90482    18.149312    23.638497     22.13101    9494.6999   -533.98985    239.94976   -830.67437   -739.38617    -391.0546    86.574103 
  412500    272.06131   -4193.5852   -3727.2814   -4193.5852            0   -464.49067    18.159034    23.793537    22.176215     9581.625   -1425.1521   -874.63438    906.31446    534.22935   -338.78285    371.64443 
  413000    269.50399   -4223.9287    -3762.008   -4223.9287            0     848.9521    18.170622    23.008266    22.490444    9402.6809    27.876661    3337.1401   -818.16046    48.946487   -1165.6867    775.93503 
  413500    273.74635   -4220.5367   -3751.3449   -4220.5367            0   -467.50159    18.149602    23.808958    22.083879    9542.9546   -795.43243   -989.05155    381.97922   -342.83107   -199.53974    96.778315 
  414000    265.49787   -4215.9986   -3760.9444   -4215.9986            0    613.72763    18.202493    23.583435    22.064996    9472.0021    1161.6411    1389.7585   -710.21665    414.47202    40.927666    256.81018 
  414500    259.71009    -4209.803   -3764.6687    -4209.803            0    1979.7822    17.969509    23.341403    22.281919     9345.784    2118.3358    1864.6581    1956.3526   -949.00072   -1138.6464    80.721436 
  415000    274.80843   -4215.8725   -3744.8602   -4215.8725            0   -1444.4916    18.215825    23.740409    22.125842    9568.3455   -902.72559   -1780.3046   -1650.4448   -461.92557      449.016   -60.574189 
  415500    270.65073   -4193.2586   -3729.3726   -4193.2586            0    142.56843    18.242038    23.644291    22.079009    9523.1194    323.87776   -344.59163    448.41917   -940.72106   -55.515205   -548.43673 
  416000    271.28955   -4195.7611   -3730.7801   -4195.7611            0    1224.0433    18.034602    23.581769    22.225786    9452.3559    2526.6942   -472.88581    1618.3216   -83.751144    327.11695    351.32885 
  416500    273.92984   -4207.2061   -3737.6997   -4207.2061            0   -448.60924    18.252143    23.481144    22.212698    9519.9444   -470.29922    -740.7394    -134.7891   -972.33292    510.76254    -233.9107 
  417000    260.50223   -4214.9193   -3768.4274   -4214.9193            0   -55.494434    18.226021    23.668637    21.957458    9472.1195    557.64038    463.37551   -1187.4992     579.1038   -361.21686    315.97591 
  417500    273.04657   -4184.2706   -3716.2782   -4184.2706            0    390.87708    17.965351    23.518789    22.366224    9450.2508    1082.4618    1208.9064    -1118.737   -867.53602   -1121.6419   -993.59076 
  418000    261.04217   -4207.6396   -3760.2223   -4207.6396            0   -1805.2121    18.354566    23.580862    22.225043    9619.3651   -2222.2154   -1134.3904   -2059.0305   -103.99387    552.00289    -966.4102 
  418500     283.1822   -4195.6069   -3710.2423   -4195.6069            0     328.2112    18.141513    23.637404    22.008828    9437.7878   -532.27889   -541.89377    2058.8063    149.03571   -1423.5134    63.884933 
  419000    272.41402   -4212.9698   -3746.0615   -4212.9698            0   -948.47097    18.178978    23.555323    22.266888    9534.9416   -420.34658   -1035.7651   -1389.3012   -798.25535   -140.10671    304.76691 
  419500    273.62248   -4197.7588   -3728.7793   -4197.7588            0    791.09053    18.198935    23.540328    22.102627    9468.9617     164.5745    243.30545    1965.3917    205.64343    488.76761   -1311.5353 
  420000    261.88622   -4200.8718   -3752.0078   -4200.8718            0    811.76721    18.125033    23.870571    21.931972    9488.9752     470.3541   -243.30083    2208.2484   -10.388086    158.10346    -157.2123 
  420500    280.43264   -4215.5113   -3734.8593   -4215.5113            0   0.16373718    18.155032    23.377298    22.418047    9514.5682    973.40875    206.18826   -1179.1058    191.04087   -338.02084    783.67326 
  421000     279.0117   -4164.5348   -3686.3183   -4164.5348            0    126.03568    18.145751    23.735521    22.217902    9569.2249     419.4055    649.84614   -691.14459    35.392108    494.26936   -280.71214 
  421500    283.53264   -4213.6488   -3727.6835   -4213.6488            0    686.68402    18.220717    23.680287    21.946707     9469.385   -746.25196    1382.6722    1423.6318   -186.74486   -211.60784     474.1718 
  422000    264.55525   -4186.2349   -3732.7962   -4186.2349            0    171.36271     18.20743    23.373312    22.387712    9527.4927    402.69021    402.08336   -290.68544   -112.51567    684.70396    -894.1097 
  422500     258.5808   -4217.4112   -3774.2126   -4217.4112            0   -1234.2735    17.985238     23.90296     22.18743    9538.3857   -1666.1136   -661.64925   -1375.0576   -286.59675    504.77299   -457.71328 
  423000    271.03947   -4194.5127   -3729.9603   -4194.5127            0    1354.8055    18.312437    23.484518    21.954472    9441.7132    1608.4545    116.27495    2339.6871    965.10704   -950.00052    47.872961 
  423500    267.71082    -4197.176   -3738.3288    -4197.176            0    568.23271    18.047504    23.614801    22.318807    9512.0124    426.38107    -186.9753    1465.2924   -530.47466   -144.27126    85.005332 
  424000    258.88072   -4219.1329   -3775.4202   -4219.1329            0   -1625.5514    18.290874    23.680896    22.110778    9577.1569   -1611.7671    -1307.752   -1957.1353   -71.140347    126.54455   -15.869592 
  424500    286.19995   -4204.4396   -3713.9027   -4204.4396            0    65.848773    18.224922    23.608507    22.005298    9468.0697    1348.6591   -1343.9634    192.85061     421.4821    704.96271    96.143897 
  425000    280.05023   -4173.1026   -3693.1061   -4173.1026            0   -132.60961    17.927736    23.571938    22.394635    9463.7817    1589.6236   -945.29988   -1042.1525    -1189.897    696.40765   -210.12625 
  425500    275.58238   -4225.8031   -3753.4643   -4225.8031            0   -982.80735    18.429993    23.445053    22.185053     9585.988   -1904.1717   -629.21825   -415.03212    473.46774    -500.4252   -262.41479 
  426000    274.30994   -4202.2042   -3732.0463   -4202.2042            0   -358.13692    18.028031    23.797965    22.140605    9498.9938   -184.41647   -2040.2003     1150.206    630.29751   -485.27002   -36.631805 
  426500    274.49917   -4210.2816   -3739.7994   -4210.2816            0    157.16665     18.18735    23.512241    22.210589    9497.8111    590.41487   -449.01093    330.09602    503.66617    2.0097903    174.55712 
  427000      266.281   -4213.7887   -3757.3922   -4213.7887            0   -690.93832    18.240058    23.380511    22.434648    9567.5218   -1395.2771    643.21436   -1320.7522   -893.43241    152.85914   -608.21014 
  427500     283.9214   -4200.8763   -3714.2448   -4200.8763            0    761.04525     18.02976    23.825545    22.064671    9478.2955    1702.4754   -27.535358    608.19569   -1377.1277   -194.44459   -608.86966 
  428000    273.08357   -4207.2438   -3739.1879   -4207.2438            0   -631.91423     18.39599    23.353964    22.285521    9574.2894   -2661.0521    999.17452    -233.8651   -939.86612    267.95547   -745.44039 
  428500    287.34072   -4174.0226   -3681.5305   -4174.0226            0    1131.8253    17.939538    23.647358    22.310813    9464.7527    2234.3402   -494.19428      1655.33   -129.63468    -757.7774    114.21573 
  429000    269.04525   -4211.9443   -3750.8099   -4211.9443            0   -1248.6871    18.302447      23.7216    22.093925    9592.3719   -2216.0022   -871.49995   -658.55904   -497.75702   -31.413718    651.83526 
  429500    273.93209   -4208.4461   -3738.9359   -4208.4461            0    493.34049    18.305561    23.444387    22.090388    9480.3697    607.42258    336.81699    535.78191    531.59702    345.56726     36.67339 
  430000    255.23073   -4234.6454   -3797.1887   -4234.6454            0   -185.23114    17.997833    23.706876    22.310405    9519.2341    502.28282   -1272.7269    214.75069   -57.898622    125.24634   -168.03976 
  430500    271.51511   -4229.4032   -3764.0356   -4229.4032            0    -718.5274    18.363306    23.531781    22.133555    9564.3803   -2285.5529   -236.02966    366.00033   -199.74563    130.93017   -379.09817 
  431000    281.00405   -4194.1875   -3712.5562   -4194.1875            0    159.36242    18.074215    23.661324    22.171822    9481.9984   -577.41706    499.08827    556.41604    81.107059      496.312    530.30717 
  431500    281.06987   -4228.1795   -3746.4354   -4228.1795            0    -1486.657    18.133738    23.688035    22.362328    9605.7964   -938.71527   -1243.9308   -2277.3249    64.973024   -49.445014   -414.41649 
  432000    268.36591   -4198.2253   -3738.2554   -4198.2253            0    637.43864    18.300069    23.481336    22.116358    9503.6219    554.09523   -1182.4626    2540.6833   -764.40574    10.767128   -462.25035 
  432500    265.91446   -4208.6864   -3752.9181   -4208.6864            0    466.98133    17.917722     23.95106    22.116307    9491.1788    2925.1481   -957.42653   -566.77758    389.18893   -610.92461    162.90806 
  433000    273.14907     -4198.01   -3729.8419     -4198.01            0    116.14409    18.325109    23.276692    22.250332    9490.8329   -1606.4283    1784.2883    170.57229   -140.34002   -381.57967   -273.72438 
  433500    283.86937    -4229.003   -3742.4606    -4229.003            0   -734.79209    18.233516    23.600385    22.176715    9543.0399   -247.75683   -1228.0821   -728.53731    164.28995   -514.64167    395.68117 
  434000    275.13776   -4215.6676   -3744.0909   -4215.6676            0    305.05768    17.990708    23.754402    22.188159    9482.2986    132.51167    -650.5735    1433.2349    786.35872    27.198518   -214.00858 
  434500     276.9546   -4190.1216   -3715.4308   -4190.1216            0   -836.04284    18.468947    23.287167    22.298336    9590.2796    -1932.169   -204.48352     -371.476   -441.31645   -1013.6695   -87.975758 
  435000    276.42773   -4228.7366   -3754.9489   -4228.7366            0     67.61383    18.001124    23.775813    22.151037    9480.4523    1285.0729    -1099.318    17.086584    39.896389   -90.584266    623.58954 
  435500    254.54331   -4240.8963   -3804.6177   -4240.8963            0    986.13431    18.114375    23.626536    22.118908    9466.4492    1258.5958    1052.6545    647.15269    511.50182    638.43968   -47.014335 
  436000    260.50542   -4189.2441   -3742.7467   -4189.2441            0   -237.22613    18.336061    23.327159    22.299589     9538.163   -1314.9033    572.05542    31.169461    629.78637    421.23619    102.51561 
  436500    261.90871     -4187.55   -3738.6474     -4187.55            0    357.90024     17.91766    24.006055    22.164492    9533.6646    1264.9998   -2127.3437    1936.0446    -35.84613   -354.57591    902.15628 
  437000    268.07541   -4190.0314   -3730.5594   -4190.0314            0    705.19992    18.360407    23.302636    22.146849    9475.4378    555.37152    239.40773    1320.8205    363.03662   -119.97902     288.1759 
  437500     269.5407   -4206.8584   -3744.8749   -4206.8584            0    758.71042    18.003038    23.634006    22.267456    9474.4445    492.08399    1171.2228    612.82444   -979.16969   -237.45688   -251.42453 
  438000    261.42909   -4191.1083   -3743.0278   -4191.1083            0    141.98198     18.17179    23.613175    22.113155    9488.6147    669.11604   -157.50345   -85.666641    412.40053   -440.45606    758.00324 
  438500    278.02953   -4198.2853   -3721.7522   -4198.2853            0    1203.7639     18.34099    23.417877    22.083311    9484.9377   -16.892641    786.64098    2841.5433    13.885998   -351.07609    188.36108 
  439000    280.80363    -4183.777   -3702.4892    -4183.777            0    111.67057    17.772398    23.810101    22.183772    9387.3422    1126.8205   -961.28129    169.47254    602.17852      813.137   -37.737991 
  439500    275.60748   -4195.4466   -3723.0648   -4195.4466            0    -735.4044    18.342093    23.335546    22.250596    9523.7615   -1600.3585   -280.07385   -325.78083   -137.54021   -32.971859    56.414807 
  440000    273.17916   -4225.1276   -3756.9079   -4225.1276            0     289.3457    18.157169    23.665827    22.036325    9469.1062    8.6281518   -253.83125    1113.2402    261.38201   -894.47777    1186.4989 
  440500    256.52101   -4224.4255   -3784.7573   -4224.4255            0   -1000.2743     18.15486    23.658702    22.316062    9585.2046     120.9609   -1460.9189   -1660.8648    65.667407    277.05933   -459.29144 
  441000    264.06171   -4255.1137    -3802.521   -4255.1137            0   -256.18362    18.291583    23.190642    22.260452    9442.7405   -1170.6798    562.97086   -160.84189    371.36826    213.48709   -565.95017 
  441500    256.27079    -4219.411   -3780.1717    -4219.411            0    1219.2158    18.012284    23.708071    22.136232    9452.9792    993.04044    1477.4778    1187.1292   -1443.6575   -555.10378    168.26576 
  442000     272.5012   -4222.3949   -3755.3372   -4222.3949            0   -632.31037    18.279584    23.545393    22.284278    9591.1528   -1016.7033    186.06045   -1066.2883    915.61533   -343.66998    -29.67974 
  442500    273.36547   -4234.1463   -3765.6072   -4234.1463            0    355.38905    18.129337    23.597136    22.170568    9484.5785   -1723.4035    202.28617    2587.2845   -1176.3819    -69.92186    544.30646 
  443000    267.12577   -4205.1859   -3747.3415   -4205.1859            0    135.25719     18.11793    23.638322    22.135817    9480.2712   -589.89035   -2040.7559    3036.4178    534.41018   -533.57719    192.25828 
  443500    269.93671   -4194.4171   -3731.7548   -4194.4171            0   -2434.1466    18.415389    23.450162    22.314858    9636.5344   -3330.4992   -2893.0801   -1078.8606    -504.7736   -245.51818   -91.811503 
  444000    259.13694   -4215.2956   -3771.1438   -4215.2956            0    801.62428    17.897335    23.765246    22.169223    9429.3367    1050.0179   -692.71502      2047.57   -495.14546    160.29178     627.3166 
  444500    249.30028   -4233.2779   -3805.9857   -4233.2779            0   -173.30766    18.305193    23.441459    22.119771    9491.6029   -1240.1115   -1395.4212    2115.6097    425.88455    19.477876   -91.674679 
  445000    259.50491   -4207.6237   -3762.8412   -4207.6237            0    1465.5088    18.042771    23.446772    22.271157    9421.6956     1596.772    1848.7902    950.96423   -207.39408    324.62942    1282.9157 
  445500    280.65411   -4191.0118   -3709.9802   -4191.0118            0    421.77227    18.089692    23.591669    22.249948    9495.5214   -158.27835    1154.4319    269.16326    -1127.245    -457.9062     970.3528 
  446000    263.91524   -4186.6028   -3734.2611   -4186.6028            0    78.453105    18.264409    23.592953    22.053475    9503.0926   -817.69174   -20.790327    1073.8414    917.59146    706.42975    403.44588 
  446500     280.9742   -4208.0766   -3726.4965   -4208.0766            0   -36.499468    18.164853    23.588053    22.200592    9512.3656   -98.102632    917.01768   -928.41346   -183.40312    243.44026    470.88127 
  447000    277.90124   -4199.3425   -3723.0293   -4199.3425            0   -518.18927    18.153107     23.51473    22.525707    9615.4453    47.699108   -714.80946   -887.45745   -1112.3101    174.33627    362.61001 
  447500    274.48047   -4184.5153   -3714.0651   -4184.5153            0   -171.30554     18.28852    23.862586    21.852352    9536.6149    701.37835   -1734.6192    519.32418    343.14909   -281.10204   -555.66027 
  448000    269.20867   -4213.5499   -3752.1354   -4213.5499            0   -348.56519    18.246106     23.54407    22.170245    9524.0623   -963.69881    1008.3268   -1090.3236   -311.79923    202.73733    30.190361 
  448500    265.27844   -4222.7641   -3768.0859   -4222.7641            0    233.98448    18.101265    23.495945    22.381585    9519.0297   -357.79442    2514.5208    -1454.773   -530.96576    381.84475   -750.53886 
  449000    269.88238   -4212.1391   -3749.5699   -4212.1391            0    85.926716    18.246713    23.690736    21.972936    9498.4182    1178.8709   -500.30363   -420.78712    787.72884    575.59587    177.85046 
  449500     272.1041   -4203.3989   -3737.0218   -4203.3989            0    434.06298    18.212635    23.526783    22.151062    9491.3911   -147.48704    1236.1323    213.54369   -44.769504   -314.33481    1043.9012 
  450000    268.09834   -4219.2596   -3759.7482   -4219.2596            0     -152.702    18.127464    23.456399    22.401251    9525.1245   -1613.0092    334.87811    820.02512   -550.48994   -138.14896   -90.042148 
  450500    274.38707   -4223.6149   -3753.3249   -4223.6149            0    12.544814    18.161311    23.622869    22.112006    9486.5427    267.73865   -1617.4801    1387.3759    564.57489   -944.49006   -50.934705 
  451000    267.89233   -4231.5814   -3772.4232   -4231.5814            0   -201.86542    18.109562    23.597206    22.225936    9497.9216    299.62767   -33.935658   -871.28828   -165.13989    574.49504   -25.945662 
  451500    275.60764   -4187.3481   -3714.9661   -4187.3481            0   -1904.6192    18.238129    23.656211    22.435681    9679.7628   -2036.3657   -1284.2049   -2393.2868   -131.11117   -277.81197   -179.91161 
  452000    274.41633   -4214.4647   -3744.1245   -4214.4647            0    530.63522    18.193359    23.561448    22.009582    9434.6686    333.09516   -268.34894    1527.1594    690.58627    108.00459    711.62911 
  452500    257.78011    -4185.162   -3743.3357    -4185.162            0    696.27047    18.120148    23.658282     22.15072    9495.8269    1254.9521    1040.6665   -206.80722   -1454.3628    202.03143    1503.6572 
  453000    269.35139   -4232.7826   -3771.1236   -4232.7826            0   -160.62242    18.173332    23.361005    22.456116     9533.683    648.75568    164.79894   -1295.4219   -332.08315   -35.090555    38.427008 
  453500    269.41876   -4180.7987   -3719.0242   -4180.7987            0    1378.0268    17.988484    23.610209    22.187598    9423.3363    1310.5419    1080.2697    1743.2688    506.60396    1088.1819   -278.27027 
  454000    289.70912   -4176.9505   -3680.3989   -4176.9505            0   -340.02986    18.286056    23.739007    22.036273    9565.7877   -1003.3236    121.01374   -137.77977   -637.78711   -227.36841   -582.06572 
  454500    266.98926   -4208.3091   -3750.6987   -4208.3091            0    648.46472    18.109163    23.470654    22.338417    9494.5843    1365.6731    512.11292    67.608135    1187.3215   -599.32235    85.736325 
  455000    276.12384    -4216.607   -3743.3402    -4216.607            0    2112.4702    18.040027    23.432356    22.241459     9401.917    1130.2712    2884.0611    2323.0784   -160.43382     636.4002   -700.71017 
  455500    253.75089   -4220.7803     -3785.86   -4220.7803            0   -841.52381    18.285953    23.696699    21.978978    9523.8586   -900.79061   -2205.3235    581.54267    1199.7767    266.48304    238.92266 
  456000    266.27028   -4213.0494   -3756.6713   -4213.0494            0    806.50401    18.014651    23.563227    22.200058    9423.5543    843.73445   -110.24487    1686.0224   -589.22786   -188.60501    498.44975 
  456500    266.86951   -4217.7719   -3760.3666   -4217.7719            0   -671.54227    18.178179    23.262292    22.499818    9514.4104    301.21098   -1373.3426   -942.49524    473.65198   -1327.0333    230.01848 
  457000    261.53411   -4210.6002   -3762.3397   -4210.6002            0   -154.39634    18.179056    23.845866    21.966499    9522.3748   -1822.3963   -591.68653    1950.8938   -37.644256    142.55929   -1133.7927 
  457500    280.99235   -4210.5633    -3728.952   -4210.5633            0     1647.706    18.194237    23.421266    22.081188    9409.5017    2125.1226    1796.9244     1021.071   -878.54085    668.63595   -529.96431 
  458000    264.60448   -4195.4059   -3741.8828   -4195.4059            0    1174.2256    18.022408    23.523094    22.360348    9479.5087    2525.5072    1944.9804   -947.81079   -1711.6264   -989.96325    411.67914 
  458500     269.9435   -4211.1248   -3748.4509   -4211.1248            0   -134.87669    18.205816    23.672163     22.08987    9520.0946    74.867397   -354.47686   -125.02061   -7.0611385   -231.84518    293.74586 
  459000    260.03004    -4205.656   -3759.9734    -4205.656            0    1306.0865    18.274597    23.443713    21.933057    9396.6567    -252.9857    1960.3333     2210.912   -250.56029   -84.142916    130.10572 
  459500    256.98027   -4236.4435   -3795.9881   -4236.4435            0   -207.42755    18.047107    23.596023    22.343845    9514.9016    1733.7126   -1448.0714   -907.92379   -652.57027    612.86897   -256.43217 
  460000    277.85318   -4168.7857   -3692.5549   -4168.7857            0   -301.30504    18.205698    23.550281    22.301084    9561.5744    450.77055   -619.38862   -735.29706    238.71981   -101.62807   -215.81232 
  460500    271.13881   -4196.4517   -3731.7291   -4196.4517            0    552.70053    18.128848    23.614165    21.955165    9398.9534    83.727618   -1452.6749    3027.0489    1672.5879    1401.7163    632.83121 
  461000    268.05197     -4197.57   -3738.1381     -4197.57            0   -709.84141    18.177923    23.631711    22.271973    9567.4925   -1303.9968   -294.43858   -531.08889   -159.26359   -257.68236   -154.67726 
  461500    271.03334   -4214.1202   -3749.5783   -4214.1202            0    683.09115    18.116015    23.413817    22.354853    9482.1477    1532.5246   -69.181892    585.93078    473.68359    38.377844    417.06011 
  462000    288.92251   -4189.5276   -3694.3243   -4189.5276            0    1211.0544    18.085113    23.727996    22.021269    9449.8438     852.0607    599.70279    2181.3996   -148.01371   -307.26117   -42.637107 
  462500    280.75178    -4195.876   -3714.6771    -4195.876            0   -418.45363     18.25666    23.673623    22.193815    9592.1949    1110.5875   -1936.7139   -429.23453    330.89161    -721.2167    590.16543 
  463000    268.73354   -4210.9787   -3750.3786   -4210.9787            0     105.9152    18.062869    23.546877    22.349514    9505.7882     430.2409    732.18017   -844.67546    160.22329   -287.88379    545.65284 
  463500    276.12421   -4195.7443   -3722.4768   -4195.7443            0   -773.78924    18.308651    23.576844    22.265644    9611.1924   -1402.9788    68.614642   -987.00357   -189.95163     836.9621    152.42317 
  464000    266.57657   -4187.7755   -3730.8724   -4187.7755            0      859.587    18.146604    23.724948    22.031168    9485.0183    431.87499    1265.8248    881.06123   -582.64632   -294.26556    438.89424 
  464500    258.76325   -4247.1995   -3803.6881   -4247.1995            0    55.593543     18.08863    23.354486    22.447285    9482.8704   -761.86155    340.32032    588.32186    55.450229    23.651743    268.79077 
  465000     260.0442   -4204.0709    -3758.364   -4204.0709            0   -586.13482    18.270837    23.582845    22.233491     9579.929   -906.95386     -18.7384   -832.71221    744.65148   -762.70513   -226.69347 
  465500    273.13135   -4216.8533   -3748.7155   -4216.8533            0    -957.8126    18.121646    23.842251    22.139817    9565.7475   -1077.1427   -1064.9413   -731.35381    423.44745   -138.83174    -335.1603 
  466000    278.30017   -4217.1531   -3740.1561   -4217.1531            0    1282.5975    18.265797    23.205118    22.217578    9417.1422   -60.325413    2751.5478    1156.5703    417.44343   -318.11099   -418.55284 
  466500    253.83577   -4185.2148   -3750.1489   -4185.2148            0    271.38806    18.065282    23.701617    22.203883    9507.1789   -600.77389    253.54342    1161.3946    1135.9394    703.58967    214.17294 
  467000     265.5894   -4187.0908   -3731.8796   -4187.0908            0    398.37797    18.138591    23.616724     22.22072    9518.7806    150.61838    1776.5852   -732.06967   -419.69441    997.52011    467.26314 
  467500    244.40189    -4185.517   -3766.6205    -4185.517            0    241.39945    18.276315    23.394018    22.196502     9490.258   -504.48634    1011.7612    216.92345    -136.1977    832.63882    87.412937 
  468000    266.43854   -4213.8343   -3757.1678   -4213.8343            0    367.08347    17.932419    24.083882    22.046186    9521.3565    1179.3406   -621.47867    543.38849   -739.45361    722.61137    -744.0019 
  468500     257.7614   -4184.5423   -3742.7481   -4184.5423            0    -682.9972    18.374856    23.331886     22.27534    9549.8845   -1029.8293   -783.82834   -235.33396    489.30981   -1116.4629    775.59408 
  469000    273.96823   -4199.8376   -3730.2654   -4199.8376            0    188.42725    18.018031    23.661694    22.275351    9496.8093    150.44529    737.75542   -322.91895    1184.4473   -208.06042    -408.9183 
  469500    266.00358   -4196.6647   -3740.7437   -4196.6647            0   -265.97305    18.259185     23.64103    22.103152    9541.1784   -239.61394    -1216.973    658.66774    99.408786   -1001.5132   -7.3738935 
  470000    271.12646    -4183.738   -3719.0366    -4183.738            0   -472.43633    18.351606    23.525036    22.118538    9549.0636   -1032.0567    247.45414   -632.70638    18.569214    302.23126    322.96162 
  470500    265.86498   -4216.0076   -3760.3242   -4216.0076            0   -57.012527    17.944297    23.744449    22.250396    9480.3919    763.82169   -593.94012   -340.91915   -37.719094    846.94825    191.09778 
  471000    289.27131   -4176.0444   -3680.2433   -4176.0444            0   -67.532117    18.408015    23.134433    22.330824    9509.7818    883.24566   -63.726568   -1022.1154    437.58247    523.65278   -324.54059 
  471500    274.73028   -4190.8625   -3719.9842   -4190.8625            0    211.93444    18.003044    23.981614    21.984477    9491.6233    1125.5251   -879.59362    389.87179    81.707232    223.76655    512.98668 
  472000    284.17675   -4167.9892     -3680.92   -4167.9892            0   -1141.7926    18.240645    23.552373    22.257979    9562.2607   -2085.5932   -371.88233   -967.90219    727.07547    395.56052    84.018435 
  472500    268.24665   -4180.2656      -3720.5   -4180.2656            0   -61.675604    18.205944    23.429669    22.310536    9516.7652   -348.92346    930.09446    -766.1978   -508.88565    -563.3413   -501.73718 
  473000    280.15164   -4197.0718   -3716.9014   -4197.0718            0    -1135.992    17.995299     24.06817    22.152187    9594.4202    928.40361   -2307.5477    -2028.832   -150.33659    209.48649    16.764442 
  473500     273.5597   -4214.0756   -3745.2036   -4214.0756            0    -140.2543    18.387317     23.37152    22.053722    9477.3563   -1983.1909   -563.27204       2125.7   -72.153147    182.79291   -453.71438 
  474000     267.5727   -4236.3541   -3777.7437   -4236.3541            0   -539.50634    18.047347    23.724409    22.231693    9518.7805    210.87415   -205.60491   -1623.7883    701.52347   -814.44336    404.21588 
  474500    276.24104   -4209.4199   -3735.9522   -4209.4199            0    94.371833     18.04773    23.684379    22.244006    9508.1844    906.22179   -760.94273    137.83644   -121.59327    190.44019    877.87607 
  475000    278.33928   -4214.2915   -3737.2275   -4214.2915            0   -557.45822    18.399898    23.469564    22.129819    9556.4876   -1091.1573    655.87521   -1237.0925   -740.96389   -608.36975    25.610385 
  475500    254.84643    -4233.449    -3796.651    -4233.449            0   -469.93345    18.097374    23.810879     22.08244    9515.6411    496.47641   -122.44321   -1783.8335    168.05872    613.80541    23.888348 
  476000    279.05374   -4188.1103   -3709.8217   -4188.1103            0    305.61518     18.06362    23.554622    22.389028    9526.1229    2098.2087    695.31036   -1876.6736    882.43196   -77.109281    57.037354 
  476500    264.74584   -4229.2625   -3775.4971   -4229.2625            0   -480.91012    18.505023    23.444226    22.049027    9565.6607   -646.68493    100.25159     -896.297   -462.71389    -85.99718    526.29146 
  477000    265.98658   -4175.8504   -3719.9585   -4175.8504            0    269.68072    18.094361    23.891563    22.103738    9555.5028     1008.105   -1719.4619    1520.3991    168.60421    390.04035    92.406573 
  477500    274.00639   -4187.4218   -3717.7842   -4187.4218            0    828.86383    18.118706    23.346251    22.415554    9481.8658    1339.6648   -388.07616    1535.0028   -463.98247     779.9095    429.18677 
  478000    268.39577   -4217.2357   -3757.2146   -4217.2357            0   -1549.2034    18.247711     23.72423    22.117726     9575.049   -2955.0487   -702.60913   -989.95254    660.27563   -481.27029   -323.12435 
  478500    269.24678   -4196.5386   -3735.0589   -4196.5386            0   -894.26902    18.243102    23.779452    22.017392    9551.3864   -1285.2062   -1876.2903    478.68949    211.25469   -714.30764   -293.61013 
  479000    270.74512   -4207.4553   -3743.4075   -4207.4553            0     30.91911    18.232463    23.360055    22.437608    9556.4316   -221.23458    990.42497   -676.43306   -207.64579   -101.04374    531.02948 
  479500    243.43121   -4232.2207   -3814.9879   -4232.2207            0   -283.43427    18.098626    23.693457    22.236811    9535.5675    411.27552   -516.31542   -745.26292    684.31415     585.8945   -816.92757 
  480000    282.48645   -4220.2012   -3736.0291   -4220.2012            0    1852.2949    18.206723     23.47789    21.900448    9361.4657     891.2995    2867.4042    1798.1811    156.21696    750.43589    -242.3364 
  480500    282.56843   -4209.4521   -3725.1395   -4209.4521            0   -1412.5993    18.234744     23.66683    22.204272    9582.4441   -1533.0634   -2924.0241    219.28948    1175.7317   -86.755444   -986.70975 
  481000    263.82272   -4239.3262   -3787.1431   -4239.3262            0    673.18831    17.900842     23.66255    22.334907    9460.6104     890.5442    381.41678    747.60394   -1351.3258    221.24317    536.09161 
  481500    258.90705    -4215.754   -3771.9962    -4215.754            0    903.47525    18.389668    23.333852    22.044982    9459.5414   -226.82109    1343.6492    1593.5977   -166.02077   -226.68947   -439.60587 
  482000    260.69603    -4238.403    -3791.579    -4238.403            0   -15.597766    18.141399    23.793713    21.989128    9491.6341    1104.4407   -786.65995   -364.57404   -1291.8742    35.680104   -1002.3568 
  482500    275.78755   -4187.7509   -3715.0605   -4187.7509            0   -574.52137    18.155762    23.467029    22.367162     9529.793    223.55467   -1324.1892   -622.92963    1304.5095    90.854784    306.73623 
  483000    255.26534   -4217.6351    -3780.119   -4217.6351            0    458.28612    18.116755    23.672436    22.159208    9503.3691    787.27628   -1423.3879      2010.97    334.49501   -267.43799   -371.46375 
  483500    275.42395   -4196.7737   -3724.7064   -4196.7737            0    479.10302    18.334171    23.828998    21.763508    9508.1483    143.11673   -1181.3957     2475.588    1140.8769   -398.86824   -898.65967 
  484000    267.37257    -4208.853   -3750.5856    -4208.853            0    661.49393    18.084696    23.463601    22.369452    9492.0762    1547.0407   -135.44179    572.88287    1064.9124   -538.62853   -412.98584 
  484500    271.40468   -4188.6026   -3723.4243   -4188.6026            0   -290.13802    18.220178    23.774782    22.161296    9599.8473   -1170.6372   -809.86875    1110.0919   -875.75787    252.99633   -99.547288 
  485000    277.33425   -4201.0464    -3725.705   -4201.0464            0    1520.4985    18.111186    23.495932    22.153267    9427.0836    823.03554    751.32216    2987.1379    449.02017   -218.75448    150.71041 
  485500     278.6266   -4204.7393   -3727.1828   -4204.7393            0    410.72068    18.128791    23.486642    22.258056    9477.1334    836.58314     103.3717     292.2072   -1071.3221    -426.7181   -520.85527 
  486000    262.16819   -4207.9804   -3758.6331   -4207.9804            0   -192.03106    18.204203    23.642564    22.166481    9540.3212   -552.84652    357.04488   -380.29156    -830.1185    664.00858    483.88376 
  486500    269.68927   -4212.7222   -3750.4841   -4212.7222            0    151.45244    18.222935    23.391714    22.272024    9493.7995    94.498832   -119.08461    478.94309   -578.82249   -47.850073   -91.342394 
  487000    290.04215   -4216.4976   -3719.3753   -4216.4976            0   -58.294498    17.981773    23.781082    22.261846    9519.7445    864.74635    -1467.484    427.85418    901.53658    150.87129    979.80434 
  487500    263.25032   -4205.1789   -3753.9769   -4205.1789            0   -134.19359     18.40315    23.581784    21.979138    9538.4868   -359.58138    768.53622   -811.53561   -1292.3043    435.78388      -164.82 
  488000    286.66475   -4220.1996   -3728.8661   -4220.1996            0     1295.617     18.07959    23.606118    22.102122    9432.9412    1497.0154    85.196614    2304.6389    271.20404    733.97441   -572.60015 
  488500    275.09996   -4191.7939    -3720.282   -4191.7939            0   -1014.5853    18.164065    23.677556    22.248746    9568.7554   -2125.1718   -314.33603    -604.2482   -359.87093   -168.32615    127.59512 
  489000    264.79246   -4240.9575   -3787.1123   -4240.9575            0   -238.24599     18.27637    23.485665    22.187469    9523.5876    1103.0095   -76.192811   -1741.5546   -55.065802    95.388226    349.74872 
  489500    266.13895   -4174.9682   -3718.8151   -4174.9682            0    1283.2249    17.980448    23.795704    21.947385    9390.3519     2573.398    587.54773    688.72897   -656.19248   -212.51732    620.78474 
  490000     257.7676   -4170.2496   -3728.4447   -4170.2496            0   -1859.0411    18.222617    23.460039     22.47691     9608.953   -2036.7144   -1697.8372   -1842.5717     244.8153   -625.14853    38.467516 
  490500    265.07381   -4209.1942   -3754.8667   -4209.1942            0    1115.2547    18.135756    23.559635    22.191854    9481.9535     1954.742    120.56218    1270.4599    156.10534   -490.43604    68.276256 
  491000    275.83522   -4208.6553   -3735.8832   -4208.6553            0    1464.0214     18.14675    23.667728    21.986311    9442.9525   -451.00223    1913.9008    2929.1657    -1116.146   -306.13175    266.19511 
  491500    262.29319   -4188.1476    -3738.586   -4188.1476            0   -470.57986    18.245638    23.571151    22.397627    9632.5629   -101.31699    69.809377    -1380.232   -488.20834    458.01982    685.45126 
  492000    292.47032   -4209.2106   -3707.9265   -4209.2106            0    114.03133     18.08695    23.743675    22.170368     9521.079    526.03079   -472.27622    288.33941   -61.341656    844.44922    209.62282 
  492500    258.78236   -4219.9332   -3776.3891   -4219.9332            0   -233.86886    18.366439    23.555725    22.022009    9527.4874   -284.13482    696.40445   -1113.8762    320.98558    707.41838   -502.89473 
  493000     266.0015   -4233.3267   -3777.4092   -4233.3267            0   -217.03131    18.062171    23.594889    22.408785    9550.0622    547.62757   -1084.2114   -114.51013   -505.26755   -81.585463   -224.99203 
  493500    252.52546   -4195.4904   -3762.6704   -4195.4904            0    -680.5026    18.225551    23.639199     22.18076     9556.302   -1427.4193    -542.6396   -71.448892   -362.94985   -280.93264   -673.95957 
  494000    277.11825   -4198.0059   -3723.0347   -4198.0059            0    381.79791    18.417776    23.638813     21.85542    9515.2895    155.54271    -605.8016    1595.6526    566.37726   -63.486413     -670.372 
  494500    285.28118   -4204.9109   -3715.9487   -4204.9109            0    793.82381    17.894859    23.631783    22.410982    9477.3225    2270.6365     806.3977   -695.56273     405.6759    -8.390189   -275.54032 
  495000    276.38527   -4220.4375   -3746.7226   -4220.4375            0   -183.42632    18.298589    23.472166    22.220259    9543.7685   -455.59264   -1557.2091    1462.5228    17.845385    16.955268    433.82555 
  495500    251.22368   -4218.3646   -3787.7758   -4218.3646            0   -1333.2098    18.242041    23.855894    22.068295    9603.6849   -2890.4245   -1814.4083    705.20328   -218.20325    -661.8222   -61.690889 
  496000    271.48585   -4193.0639   -3727.7464   -4193.0639            0     106.1602     18.10064    23.455882    22.375502    9499.8881    1195.5577    234.95168   -1112.0287   -177.62988    -633.8455    1180.5225 
  496500    274.86496   -4185.4602   -3714.3511   -4185.4602            0   -264.79481    18.254435    23.517987    22.266088    9559.0002    583.51034   -889.52691   -488.36786    586.28413    169.58783   -583.05368 
  497000    265.46526   -4209.4345   -3754.4362   -4209.4345            0   -1357.0637    18.168418    23.900001    22.003925    9554.6593    -1605.689    -304.4253   -2161.0767    885.54454   -1133.4408   -313.98352 
  497500    272.24016    -4213.074   -3746.4637    -4213.074            0    92.041882    18.161935    23.459665    22.294641    9499.1428    211.63418    -163.0801    227.57156   -400.61181    -126.5045   -388.49954 
  498000     267.9597   -4193.7503   -3734.4765   -4193.7503            0    103.49347    18.037093    23.497294    22.455074    9516.9743    1482.1033   -491.82603   -679.79692    490.81253   -384.53955   -1407.1962 
  498500    263.21867   -4183.7855   -3732.6377   -4183.7855            0   -181.40581    18.267184     23.75129    21.980618    9536.7126   -678.15493   -692.16964    826.10715    913.92047   -410.07599   -75.834752 
  499000    270.46568   -4232.7569    -3769.188   -4232.7569            0    298.42602    18.184338    23.500545     22.18514    9480.6384    -823.7341   -200.53591    1919.5481   -380.93358   -359.63012    1207.7979 
  499500     270.9375   -4213.6143   -3749.2367   -4213.6143            0     1161.778    17.895394    23.460297    22.538993    9462.5736    1545.1036    1747.1763    193.05412   -560.52796   -200.78972    389.92601 
  500000    262.95779   -4199.9444   -3749.2438   -4199.9444            0    119.76488    18.301215    23.672087    21.851269    9466.5806   -1394.8224    814.20396    939.91305    183.40948   -49.498959    788.90778 
  500500    277.94903   -4162.7215   -3686.3264   -4162.7215            0    40.613669    18.145903    23.605393    22.200599    9509.4305   -708.25353    -141.9566    972.05114     52.61371    175.64778    95.268757 
  501000     270.0483    -4194.125   -3731.2715    -4194.125            0    297.38812    18.129417    23.438191    22.340572    9492.9724     225.5504    1206.0965   -539.48259    933.08608    1111.0627    229.02639 
  501500    284.03007   -4203.2067   -3716.3889   -4203.2067            0    1124.5343    18.120443    23.653781    21.985818    9423.4953    2319.0753    89.353781    965.17369    177.18286   -21.827837    599.17024 
  502000    260.21046    -4244.807   -3798.8152    -4244.807            0   -551.54307     18.26498    23.714441    22.000869    9529.5399   -662.92858   -680.58688   -311.11376   -79.106242   -170.34471    348.20315 
  502500    250.19216   -4176.7455   -3747.9247   -4176.7455            0   -454.60815    18.197694    23.419797    22.372052     9534.662    78.393287     389.5722   -1831.7899   -682.12173    60.508415    604.18206 
  503000    266.88212   -4209.7521   -3752.3252   -4209.7521            0   -1084.2109    18.025079    23.733544    22.363261    9566.9805   -597.54631     -2235.24    -419.8465    282.40153    1022.6649    341.01024 
  503500     278.5613   -4235.7601   -3758.3155   -4235.7601            0    944.41917    18.252956    23.457057    22.010067    9423.8445    -96.81239    1822.3638    1107.7061   -198.78276   -226.99583    709.97076 
  504000    270.11969   -4187.5544   -3724.5785   -4187.5544            0   -41.406202    18.087558    23.639027    22.310251    9539.2447    617.49614   -247.35773   -494.35702      149.349   -45.283997    303.84144 
  504500     278.2596   -4202.6586   -3725.7312   -4202.6586            0    745.23982    18.043567    23.414495    22.410754    9468.1177    2031.0892    1604.0078   -1399.3775   -1012.3504   -440.21694    193.80556 
  505000    257.21531   -4221.0871   -3780.2289   -4221.0871            0    -190.7463    18.248977    23.609989    22.034012    9493.5333   -1243.8246    854.67937    -183.0937   -1365.5727    38.802491    -654.6683 
  505500    261.48868   -4181.7466   -3733.5639   -4181.7466            0   -782.26425    18.105493    23.624477    22.279129    9529.5143   -1555.9049   -1120.9138     330.0259   -438.73947   -1168.1791     172.3595 
  506000    271.49124   -4191.6667     -3726.34   -4191.6667            0    434.43323    18.171083    23.424372    22.243876    9468.0215   -698.75772    1582.0486    420.00883   -347.94317   -260.97369     -589.414 
  506500    269.02968    -4185.286   -3724.1783    -4185.286            0   -168.84307     18.25342    23.798312    21.835314    9485.2729   -624.49871   -993.27071    1111.2402    58.095442   -707.03731    280.24289 
  507000    266.61283   -4210.3336   -3753.3683   -4210.3336            0    287.22177    18.125598    23.436397     22.23557    9445.6411   -123.17958    -162.2962    1147.1411   -537.64318   -197.68732     544.5841 
  507500    264.59905   -4226.0373   -3772.5236   -4226.0373            0    960.22372    17.987956    23.538658    22.268971    9428.9572    1575.4098     704.5617    600.69969   -520.04463   -372.56018    280.67721 
  508000    286.45351   -4178.2045    -3687.233   -4178.2045            0    367.69894     18.18184    23.620163    22.069462    9477.9077    6.2215618    1561.2072    -464.3319   -796.79203    292.13187   -809.20271 
  508500    282.57036   -4186.3139    -3701.998   -4186.3139            0   -1011.0042    18.285587    23.541674    22.211787    9561.5817   -880.32581   -1601.4006   -551.28633    -475.5373   -422.50797   -27.492005 
  509000    279.34039   -4192.7303   -3713.9504   -4192.7303            0     272.7321    18.072767    23.595811    22.107533    9427.5714   -416.97983   -526.33614    1761.5123   -586.81139    170.65812    -252.0953 
  509500    267.60136   -4237.3691   -3778.7095   -4237.3691            0    482.48785    18.159573    23.435293    22.272032    9478.4179   -681.77222    381.32088    1747.9149    131.85234    290.62262    282.68302 
  510000    279.14055   -4190.5792   -3712.1418   -4190.5792            0   -374.21943    18.239295    23.516702    22.154376    9502.6333   -762.88969   -1029.6735    669.90492    1083.7515   -6.6905415    -83.31877 
  510500    258.23129   -4232.1736    -3789.574   -4232.1736            0    -588.6567     18.00968     23.88926    22.148875    9529.2867    696.80694   -1537.5507   -925.22636     239.6709   -186.58644    370.47876 
  511000    275.32042   -4183.4997   -3711.6099   -4183.4997            0    -805.3791    18.305456    23.489053    22.296729    9587.0988   -852.65244    193.31836   -1756.8032    18.484672    395.34464   -467.04051 
  511500    248.81223   -4179.3895   -3752.9339   -4179.3895            0   -677.97224    18.193381     23.69642     22.22272    9580.6149   -1342.9966    450.32473   -1141.2448    -128.2874    735.33682    -1143.181 
  512000    263.78972   -4205.2746    -3753.148   -4205.2746            0    1091.1921    18.061284    23.669489    22.160531    9473.6569    2412.6062    105.43369    755.53658   -241.04321    -63.55974   -467.56696 
  512500    267.55617   -4211.1951    -3752.613   -4211.1951            0    534.19131    18.223585    23.320862    22.290103    9473.0642    531.61646    374.14201    696.81544    1251.7964   -28.111286    299.33787 
  513000     270.3789   -4201.3187   -3737.8985   -4201.3187            0   -364.51264    18.172653    23.933817    21.979094    9559.6079   -954.17768   -1162.3263    1022.9661    223.81381    589.86557   -119.75763 
  513500    280.71749   -4198.3928   -3717.2526   -4198.3928            0   -76.607051    18.216089    23.520415     22.28619    9548.5177    1618.2433    -655.4637   -1192.6008   -951.90588    559.47058    -632.5586 
  514000    260.18461   -4200.9929   -3755.0454   -4200.9929            0   -155.87234    18.173436    23.468634       22.385    9547.3309    885.52775   -148.25718   -1204.8876   -970.51162   -100.48468   -234.36857 
  514500    285.25965   -4201.9688   -3713.0435   -4201.9688            0    -756.0488    18.135936    23.890277    22.072254    9563.3013   -489.86679    -1874.993    96.713334   -124.48208    59.111634   -28.829171 
  515000    268.86768    -4212.591   -3751.7609    -4212.591            0    825.31487    18.313114    23.159928    22.205625    9418.0806    650.11277    118.87036    1706.9615   -167.88658   -24.371405     665.6101 
  515500    260.27848   -4220.5117   -3774.4033   -4220.5117            0    727.61068    18.013548     23.58107    22.215393    9436.6264    141.84184    548.86009    1492.1301   -28.333985   -102.74727    97.552499 
  516000    266.63284   -4194.3012   -3737.3016   -4194.3012            0   -127.08788    18.270202    23.605721    22.077123    9521.4504     -1168.16    866.81445   -79.918114   -228.52528   -486.42516    851.20019 
  516500    273.41265   -4220.9197   -3752.2998   -4220.9197            0    490.36231    18.305288     23.43742    22.014364    9444.7942    605.17086    1667.0411   -801.12505    401.41892    622.67323    249.47707 
  517000    265.47504   -4205.5987   -3750.5836   -4205.5987            0   -291.26938    17.918403    23.671668    22.442908      9519.35    -43.34424   -177.75548   -652.70841   -666.12567   -221.25727    406.87125 
  517500      263.584   -4224.5464   -3772.7724   -4224.5464            0    119.43461    18.195783    23.400605    22.215309    9459.1083    1157.3171   -61.488294   -737.52493    482.47945    511.88015    222.17414 
  518000     254.1778   -4152.8345   -3717.1825   -4152.8345            0    1153.8971    18.261512    23.798404    21.857904    9499.3321    622.78887     1313.124    1525.7784    2145.8022    562.61344   -211.54174 
  518500    275.33296   -4209.1683    -3737.257   -4209.1683            0     243.2756    18.098099    23.413874    22.376247    9481.8589   -773.97314    2396.0495   -892.24954    297.01707   -173.14844    209.36179 
  519000    273.90732   -4181.6629   -3712.1951   -4181.6629            0   -1262.9952    18.238789    23.679578    22.212524    9593.2967   -847.62514   -1329.8681   -1611.4923   -983.55285    88.292404    291.08436 
  519500    280.98878   -4212.1472   -3730.5421   -4212.1472            0   -53.633072     18.24517    23.704235    22.015244    9521.3242    436.87754   -802.46946     204.6927    -1307.222   -395.95138   -58.964689 
  520000    256.71535   -4223.1863    -3783.185   -4223.1863            0      734.371    18.026158    23.465984    22.382989    9468.0385    1277.5432    1217.2122   -291.64237   -154.50064     236.4097   -195.34309 
  520500    267.42725   -4249.9431    -3791.582   -4249.9431            0   -975.65582    18.250085    23.656677    22.150241    9563.0647   -1440.2526   -119.94832   -1366.7665   -412.04556   -217.41211    527.75346 
  521000    259.88507   -4215.8754   -3770.4413   -4215.8754            0   -286.54717    18.251765    23.692768    21.985273    9507.1976   -760.75264   -573.39247     474.5036    769.81003     472.7508    337.27176 
  521500    272.87429   -4222.2049   -3754.5077   -4222.2049            0    612.68274    18.126909     23.40904    22.295046    9460.5357    1021.5958    2438.2473   -1621.7949   -1030.6743   -947.38983    22.434109 
  522000    256.38751    -4210.388   -3770.9486    -4210.388            0    1211.4405    18.150714    23.655191    22.048795    9466.8401    441.36508     1775.094    1417.8624   -563.07762   -626.61325   -953.27133 
  522500    277.01861   -4212.7634   -3737.9629   -4212.7634            0   -831.35155    18.276904    23.758589    22.160969     9623.034   -797.72293   -1505.7632   -190.56851    425.84103   -424.51761    93.899855 
  523000    281.44672   -4195.9799   -3713.5899   -4195.9799            0     825.1463    17.949592    23.328603    22.473817    9410.6614    486.77532     1370.118    618.54559    364.34673   -201.27824   -201.53406 
  523500    260.71281   -4245.2369    -3798.384   -4245.2369            0   -181.54417    18.107763    23.606159    22.250772    9511.1979    25.793427    681.58266   -1252.0086   -207.26025   -171.06148    96.967181 
  524000    287.39091   -4220.2005   -3727.6224   -4220.2005            0   -848.17016    18.376337    23.688306    22.128059    9632.4393    -2051.867    -445.4332   -47.210288   -1053.2477    76.040496    696.18802 
  524500    273.49248   -4194.5736   -3725.8169   -4194.5736            0    1550.3098    18.062649    23.619352    22.102969    9429.7468    804.59333    3101.4034    744.93272   -80.278368    569.10618    368.20639 
  525000    286.41693   -4223.6917   -3732.7829   -4223.6917            0   -28.208816    18.125392    23.448362    22.325607    9488.6232    1400.5878    -229.8131   -1255.4012    292.68653   -444.49813   -333.52977 
  525500    260.44509   -4225.9276   -3779.5336   -4225.9276            0   -577.36084     18.24837    23.685279    22.140975    9569.7217   0.54831556    183.51593   -1916.1468   -369.18342    344.27659    -130.8543 
  526000    256.46382   -4181.2413    -3741.671   -4181.2413            0    605.13968    18.091686    23.629383    22.053802    9427.8985   -360.64257    1262.3221    913.73956    238.16368   -224.63857    358.73398 
  526500    265.66556   -4219.9943   -3764.6526   -4219.9943            0   -1115.7134    18.192804    23.413643    22.496615    9582.6539    -1547.313   -210.37932   -1589.4479   -769.75584    531.72246   -82.880746 
  527000    265.35276   -4190.7806    -3735.975   -4190.7806            0   -228.76764    18.024131    23.692299    22.171364    9467.9062   -422.90744   -174.70487     -88.6906     793.5989     152.1055    829.04278 
  527500    282.41706   -4202.9255   -3718.8723   -4202.9255            0   -805.93316    18.268684    23.644025    22.139433    9563.0218   -995.89078   -519.27194   -902.63676   -203.23207   -656.54781    535.85139 
  528000    282.19413   -4197.6589   -3713.9878   -4197.6589            0    253.34505    18.125768    23.543792    22.301776    9517.2676    6.8188762     120.6984    632.51788   -1198.3463   -24.877112    252.67451 
  528500    267.74032   -4194.7296   -3735.8318   -4194.7296            0    1943.0477    18.112563    23.544162    21.876438    9329.1001    2681.2511    1819.1643    1328.7278   -739.13932    213.31677     656.6199 
  529000      273.803   -4201.2789   -3731.9899   -4201.2789            0   -778.59935     18.21253     23.60043    22.276992    9575.1756    40.948237   -238.27734   -2138.4689   -831.39571    210.56686   -431.63046 
  529500    265.28696    -4209.266   -3754.5732    -4209.266            0    472.58381    17.994728    23.608131     22.24438    9449.8997    1765.7843   -433.95973    85.926871   -1098.1478    13.036217    682.49227 
  530000    263.08813   -4169.1175   -3718.1935   -4169.1175            0   -1151.8214    18.459382    23.605877    21.972079    9574.3312   -2027.2466   -1110.2843    -317.9334   -606.23521    273.33774   -255.62108 
  530500    278.50771   -4234.2688   -3756.9161   -4234.2688            0    930.52807    18.108337    23.532206    22.185066    9453.7027    1031.6179    433.11762    1326.8487    824.41141    289.02351   -498.55834 
  531000    270.01316   -4191.2808   -3728.4875   -4191.2808            0    103.14519    18.047647     23.57112    22.404362    9530.8884   -273.42146    281.45802      301.399   -646.63102   -690.54304   -241.49418 
  531500    278.37016   -4192.6244   -3715.5075   -4192.6244            0    995.78223    18.235024    23.424466    22.073568    9428.6295    380.18256    1130.3965    1476.7676    923.95794   -134.35321    736.57806 
  532000    261.04807   -4170.4001   -3722.9727   -4170.4001            0   -1366.5723    18.138533    23.930865    22.148327    9613.9416   -1196.3576   -1922.4945   -980.86477    58.087546   -784.13106     352.7509 
  532500      292.322    -4228.182   -3727.1521    -4228.182            0    -244.7863    18.217039     23.25849    22.418484      9498.73   -1273.3681    993.67451   -454.66528    553.64538    710.14406    384.83911 
  533000    257.51313   -4232.1915   -3790.8228   -4232.1915            0    175.20591    18.103865    23.701279    22.154737    9506.2601    636.61906   -210.08886    99.087533    1239.8222    471.22601   -181.33112 
  533500    281.87792   -4168.8621    -3685.733   -4168.8621            0    553.47754      18.1926    23.713334      22.0204     9499.759    1865.2843   -1114.2016    909.34991   -100.81135    1084.6393    361.23884 
  534000     275.3013   -4195.0005   -3723.1435   -4195.0005            0   -867.48352    18.291513    23.354555    22.488964    9607.0642   -703.79907   -46.570706   -1852.0808   -1187.7085   -1113.6776    739.97498 
  534500    270.54356   -4188.8301   -3725.1277   -4188.8301            0   -210.51614    18.062581    23.871022    22.247721    9592.6002   -1888.9131   -533.12169    1790.4864   -608.39766    -229.0258    256.02963 
  535000    268.22085   -4227.7562   -3768.0349   -4227.7562            0    701.90009     18.27785    23.507773    21.966103    9438.2094   -773.43935    1327.4062    1551.7334   -861.49813   -127.77757     553.3715 
  535500    264.65549   -4185.7709   -3732.1604   -4185.7709            0    326.30911    18.174207    23.564893    22.225974    9518.7899    1121.6207    361.96526   -504.65863    301.70933   -1041.1816   -51.715775 
  536000    256.56315   -4198.1769   -3758.4364   -4198.1769            0   -82.023721    18.052645    23.573604    22.497766    9574.2821    450.51404    2.6430785   -699.22829    1347.4795    416.04663    610.84122 
  536500    277.85768   -4223.7291   -3747.4906   -4223.7291            0    -31.03394    18.285317    23.559449    22.107708    9523.8239    1223.4752    -297.6151   -1018.9619   -1075.0216    104.32712    -264.6411 
  537000    271.62841   -4193.4445   -3727.8827   -4193.4445            0   -1056.8861    18.148073    23.905108    22.100422    9587.8627   -655.79155    -1417.015   -1097.8518   -374.20986    331.44542   -354.22172 
  537500    267.81764   -4220.9269   -3761.8966   -4220.9269            0   -101.67057    18.168168    23.164898    22.522808    9479.0335   -87.193062    603.37995   -821.19861    231.65943   -312.25858   -652.70568 
  538000    282.03538   -4196.3914   -3712.9924   -4196.3914            0   -894.70832     18.22068    23.799589    22.080742    9575.1967   -1612.1668   -1125.3683     53.41008   -768.87281   -1200.1504    280.71086 
  538500    266.40423   -4229.1454   -3772.5377   -4229.1454            0   -385.86594    18.193678     23.63544    22.148758    9524.3115   -233.64453   -848.94109   -75.012209   -1410.0207   -26.886285   -294.74077 
  539000    281.93125   -4189.1597   -3705.9392   -4189.1597            0    -663.6834    18.173845    23.539416    22.386093    9576.8086   -1779.5431    379.81609   -591.32317    339.76078   -479.64891   -415.00349 
  539500    270.16089   -4215.9847   -3752.9382   -4215.9847            0    872.19527    18.134674    23.556124    22.163111    9467.6959     1458.149   -567.42248    1725.8593   -696.11297    -948.8309   -226.68297 
  540000    268.87724    -4217.421   -3756.5746    -4217.421            0    379.20375    18.254734    23.749058    21.899631    9494.2071    280.17439   -183.37953    1040.8164   -390.17581   -305.56997   -332.68936 
  540500    271.20291   -4202.2369   -3737.4043   -4202.2369            0    292.52423    18.096577    23.313104      22.4475    9470.3165    616.66551    795.01576   -534.10857    577.09617    127.60764    285.63226 
  541000    287.59532   -4196.5514   -3703.6228   -4196.5514            0    1672.6026    18.043193    23.534939    22.245751    9446.5572    1794.1669    979.80268    2243.8381    696.96974   -83.460368   -762.09528 
  541500    287.62088   -4229.3571   -3736.3847   -4229.3571            0    41.995062    18.238411    23.673857    22.085057    9535.7433    -657.9076   -993.55459    1777.4474    89.193882   -966.04977    924.41198 
  542000    282.78316   -4243.4076   -3758.7269   -4243.4076            0    742.21388    18.078466    23.534469    22.140665     9420.124    354.45068    410.13512    1462.0558   -364.35974   -464.47206    176.71325 
  542500    288.88598   -4205.0219   -3709.8812   -4205.0219            0    236.77265    18.143562    23.313078    22.376695    9464.9455    536.62588    1032.3846   -858.69252   -993.45744   -201.84314    175.65034 
  543000    263.68505   -4193.9258   -3741.9786   -4193.9258            0    819.88232    18.207677    23.690205    22.129436    9545.3908    769.48982    979.47095    710.68619    316.79091    52.229759    704.94999 
  543500    271.87717   -4241.6434   -3775.6553   -4241.6434            0   -169.05779    18.163436    23.527615    22.280773    9521.5173   -202.49643    896.78066   -1201.4576   -57.428563    632.94643    164.95837 
  544000    279.92921   -4190.7249   -3710.9358   -4190.7249            0   -439.79452    18.110539    23.472494    22.451704    9544.2089   -140.72846   -836.23833   -342.41676   -651.50863   -248.74205    712.06638 
  544500    286.38786   -4186.5696   -3695.7106   -4186.5696            0    10.921505    18.224028    23.823687    21.851116    9486.9574    28.964186   -1131.8943    1135.6946   -32.292753     392.5741   -185.42894 
  545000    267.46966   -4177.7508   -3719.3169   -4177.7508            0    328.27242     18.31286    23.510862    22.081447     9507.192   -1328.8524    788.88958    1524.7801   -595.61229   -127.37236   -243.44859 
  545500    277.14117   -4203.7225    -3728.712   -4203.7225            0   -477.47138    18.098252    23.540992    22.338869    9517.4929   -1211.1121   -435.62996    214.32792   -338.23364   -306.75143    -125.9658 
  546000    277.11478   -4201.4295   -3726.4643   -4201.4295            0   -255.30305    18.204364    23.619333    22.198053    9544.6067   -161.30515    391.01351   -995.61752   -334.73395   -311.12174   -644.73819 
  546500     283.4706   -4210.3039    -3724.445   -4210.3039            0    188.71969    18.135857    23.696188    22.031631    9468.1087    1616.4157   -320.90172   -729.35487    868.93415    455.43927     114.1272 
  547000     285.4351   -4218.5985   -3729.3725   -4218.5985            0    720.65616    18.221938    23.473987    22.131707    9466.6506    600.09908    621.93196    939.93743   -250.45706   -437.48253   -1166.8521 
  547500    259.53324   -4196.7225   -3751.8914   -4196.7225            0   -1235.8723    18.053353    23.532299    22.554247    9581.8762   -214.68591   -1698.5842   -1794.3467    232.95673   -815.09849    142.72275 
  548000    275.03432   -4225.8007   -3754.4013   -4225.8007            0   -600.62398    18.165135    23.683199    22.014923     9471.007   -643.45832   -323.48565   -834.92797    -642.7826   -187.33413    302.54831 
  548500    269.44753   -4192.7073   -3730.8835   -4192.7073            0   -138.87605    18.306988    23.473098    22.033724    9468.3699   -872.91408    264.76509    191.52084    263.37432     212.5471   -172.03884 
  549000    273.63952    -4154.398   -3685.3892    -4154.398            0   -1906.5084    18.054003    23.678451    22.526532    9629.8854   -1856.7226   -1314.6579   -2548.1448   -763.87196    283.59145   -216.55422 
  549500    262.58607   -4250.4015   -3800.3379   -4250.4015            0    154.84242     18.16851      23.5666    22.163024    9489.5423    58.021127    815.13176   -408.62563   -35.754519   -450.79216   -511.92118 
  550000    280.09793   -4208.5862   -3728.5079   -4208.5862            0    935.42227    18.172637    23.470738    22.063392    9410.5927    1447.7972    462.34213    896.12746    166.92328   -347.70661    370.68717 
  550500    268.12344   -4239.9992   -3780.4448   -4239.9992            0   -524.67218    18.104054    23.653603    22.216888    9513.8512    11.353128   -970.00772   -615.36196    683.63927   -622.20192   -580.63287 
  551000    263.55744   -4202.7458   -3751.0174   -4202.7458            0   -425.65601    18.197135    23.201287    22.482287     9491.953   -1163.3384    1336.7241   -1450.3538    477.38714    162.15324    518.98602 
  551500    269.95435   -4188.4864   -3725.7939   -4188.4864            0     762.0919    18.130907    23.790612    22.000146    9489.6608    174.29638   -1264.8213    3376.8006    41.440977    550.61881    461.25197 
  552000    260.46394   -4193.7779   -3747.3516   -4193.7779            0    547.78595     18.20785    23.639178    22.029679    9481.9836    463.22499   -257.61164    1437.7445    -794.7075    227.17624    615.05996 
  552500    274.51514   -4199.1988   -3728.6893   -4199.1988            0    664.24956    18.157911      23.3115    22.358025    9463.8871   -743.24515    2486.7899    249.20397    176.92418    1008.7838     407.2393 
  553000    277.49459   -4217.2159   -3741.5996   -4217.2159            0   -937.80053    18.098592    23.854089    22.163847    9568.6962   -1324.9939   -1428.5853   -59.822447    687.67631    -98.41911    188.50886 
  553500    259.16404   -4184.3884   -3740.1901   -4184.3884            0    342.14302    18.250124    23.518013    22.147308    9505.7721    1371.1791    721.39425   -1066.1443    11.762371    293.16714    377.01213 
  554000    267.77338   -4196.8119   -3737.8575   -4196.8119            0     -460.619    18.130462    23.613892    22.252439    9526.9537   -869.97754   -381.40631   -130.47317    969.50103   -297.50409    246.46706 
  554500    276.56202   -4197.0863   -3723.0684   -4197.0863            0   -391.54235    18.143124    23.547565    22.276268    9517.0099    76.207596   -1049.9941   -200.84053    540.11385   -473.22988    328.09592 
  555000    258.29085   -4181.6949   -3738.9932   -4181.6949            0    -1507.668    18.227737    23.655893    22.151091    9551.4046   -1756.3924   -596.18333   -2170.4283    488.34573   -986.62469    398.90402 
  555500    287.20643   -4224.1479   -3731.8859   -4224.1479            0    321.98347    18.177735     23.62962    22.100331    9492.8208    524.17156      629.843   -188.06413     21.75137   -279.82692    141.49617 
  556000    266.72534   -4223.6252   -3766.4671   -4223.6252            0     296.8755    18.272058    23.233363    22.385274    9503.0272    1006.2376   -47.418821    -68.19225   -832.86163     449.1066    55.540601 
  556500    279.79623   -4210.9222   -3731.3611   -4210.9222            0    54.421069    17.986039    23.990558    22.010707    9497.5123    858.06613    -889.7707    194.96778   -415.28396    179.11925    121.23967 
  557000    281.86395   -4206.0794   -3722.9743   -4206.0794            0   -964.44705    18.304174    23.573641    22.141285    9553.8769   -1034.6896    676.91937   -2535.5709   -1000.2722   -207.75714    187.27984 
  557500    272.57087   -4201.6887   -3734.5115   -4201.6887            0   -42.924613    18.096756    23.505791    22.431836     9542.022   -364.17403   -195.46389    430.86408    -863.4259   -1151.0829   -145.61337 
  558000    268.30032    -4226.258   -3766.4004    -4226.258            0   -952.59851    18.123685    23.765435    22.048566    9496.6976   -721.51333    -467.1122     -1669.17   -755.41316    249.41113   -287.90633 
  558500    262.77024   -4221.2094   -3770.8302   -4221.2094            0   -1.3978599    18.339244    23.460129    22.129458     9521.001    508.15194    1373.7796   -1886.1251    903.64304    594.38732    -601.0792 
  559000    274.01559   -4210.2198   -3740.5664   -4210.2198            0   -296.06277      17.9387    23.639739    22.470546    9528.9984   -711.05926   -62.213956   -114.91511    668.34918    605.13466    730.43119 
  559500    275.78258   -4211.5424   -3738.8605   -4211.5424            0    1450.6222    18.218334    23.439374    22.024985    9405.2484    1663.1625    2474.6435    214.06054    364.24766    -614.1785   -114.23032 
  560000     260.7962   -4192.9641   -3745.9683   -4192.9641            0   -929.08135    18.260298    23.632808    22.205724    9582.7051   -1816.2358   -1382.7714    411.76311    -1083.457   -551.97112    413.59767 
  560500     266.2758   -4184.6613   -3728.2737   -4184.6613            0   -785.44384    18.135802    23.638628    22.274444    9549.1762   -948.47945   -1615.3982    207.54617    1057.1306   -590.93743    431.28993 
  561000    283.00526    -4180.633   -3695.5717    -4180.633            0   -738.19682    18.364596    23.409831    22.384005    9623.1547   -1040.4945    720.73698   -1894.8329   -433.41296   -896.63031    1344.8281 
  561500    260.74943   -4194.5749   -3747.6593   -4194.5749            0   -854.86045    18.146068     23.90366    22.007148    9545.7638   -769.64633   -1125.2509   -669.68411    -257.8448   -145.60458    141.97742 
  562000    257.63889   -4195.8522   -3754.2679   -4195.8522            0    1148.9342    18.223121    23.483473    22.218952    9508.4267    2300.2736    571.34327    575.18557   -129.74633    370.75583    25.143253 
  562500    261.16668   -4194.6003   -3746.9696   -4194.6003            0   -98.642548    18.107953    23.443766    22.444575    9528.1398    52.366801    399.22301   -747.51745     287.0878    127.96668    106.63254 
  563000    256.31579   -4161.3617   -3722.0452   -4161.3617            0     426.7819    18.197663    23.689074      22.1599    9552.8177    727.73995    654.16893   -101.56318   -356.10178    911.00838    98.127433 
  563500    260.64863   -4218.0848   -3771.3419   -4218.0848            0    619.41979    18.166299    23.516983    22.135677    9456.7271    722.64738     530.6443    604.96768   -1154.4727    635.15051   -23.986185 
  564000     272.0346   -4233.8339    -3767.576   -4233.8339            0    226.69738    18.076074    23.585771    22.313169    9512.9552    24.155705    665.61689    -9.680459   -483.80205    818.16395    577.16823 
  564500    267.66692    -4210.611    -3751.839    -4210.611            0   -391.81948    18.331118    23.613937    22.002358    9524.1576    206.99489   -1320.3115   -62.141793    548.32829   -135.39661    481.47194 
  565000    265.02892    -4169.406   -3715.1555    -4169.406            0    1318.1654    18.219107    23.608639    22.032928    9476.9865     2478.962    164.03591    1311.4983      341.157     225.0013   -143.40289 
  565500    271.09778    -4203.041   -3738.3887    -4203.041            0    -76.43254    18.007157     23.67915    22.339014    9525.2258   -1026.3059   -59.880747      856.889    875.40781   -573.74745    384.07405 
  566000    264.52967   -4182.3965   -3729.0017   -4182.3965            0    1200.8904    18.363412    23.231023    22.126596    9439.2243    959.13313    1637.7052     1005.833    115.48708    395.73825   -457.74824 
  566500    289.57425   -4196.2756   -3699.9552   -4196.2756            0    153.39278    17.912311    24.030968    22.032354    9483.8305    485.40466    -1584.488    1559.2617   -200.37737    30.790407    729.16799 
  567000    265.47736   -4234.7048   -3779.6857   -4234.7048            0    394.52571    18.108262    23.473485     22.24103    9453.8615     987.5197    697.50296   -501.44555   -345.03463    394.75489   -649.50526 
  567500    266.52058   -4209.2336   -3752.4264   -4209.2336            0     1875.294    18.104984    23.283835    22.263545    9385.2746    2452.2976    1297.8029    1875.7814    180.65825     215.6196   -283.41313 
  568000    267.40861   -4214.8991   -3756.5699   -4214.8991            0   -608.22737    18.173802    23.794135    22.057962     9538.522   -114.83375   -1346.0092   -363.83916   -46.556902    290.83642    -507.9786 
  568500    270.81656    -4210.121   -3745.9507    -4210.121            0    1277.4807    18.310826    23.430141    21.990936    9434.6664    1797.5479   -55.255598    2090.1498    820.27252    125.61944   -259.18291 
  569000    269.90848   -4188.0904   -3725.4765   -4188.0904            0   -714.82721    18.007529    23.657142    22.454673    9565.8401    96.215076   -1097.9536   -1142.7431    -1361.345    100.94355   -311.82178 
  569500    272.56318   -4167.2903   -3700.1264   -4167.2903            0    80.645865    18.304584    23.570556    22.088991    9530.2776   -243.06272   -83.377882    568.37819   -570.54053    423.51499   -39.197948 
  570000    264.38115   -4170.6976   -3717.5574   -4170.6976            0    1228.9266    18.149144     23.65503    22.054532    9468.4195    1034.6044   -295.03588    2947.2114    22.036327   -66.012928    929.99675 
  570500    274.78055   -4217.3943   -3746.4298   -4217.3943            0   -184.22722     18.03223     23.67109    22.295487    9516.6623    963.81665   -288.23451   -1228.2638    743.75242   -121.48178    445.67934 
  571000    267.46179   -4184.1723    -3725.752   -4184.1723            0   -419.51397    18.460077    23.303092    22.196784    9548.5429   -2109.5654    1344.2845   -493.26095   -11.238224   -682.42206   -72.712235 
  571500    281.85069   -4178.2074    -3695.125   -4178.2074            0    2016.0116    17.997855    23.674875    22.110154      9421.07    1534.1881    2087.5604    2426.2863    195.06715    785.64805   -515.17897 
  572000    277.09993   -4220.0787   -3745.1389   -4220.0787            0   -894.94591    18.250663    23.595866    22.254275    9583.5854   -313.38039   -643.66829    -1727.789    1178.2193   -251.24568    469.38843 
  572500    276.75236     -4198.78   -3724.4359     -4198.78            0   -109.72896    18.252319    23.599089     22.18496    9555.9074    676.15658   -667.38956    -337.9539   -221.64569    -672.3982    200.32208 
  573000    282.49461   -4228.3781    -3744.192   -4228.3781            0    186.81511     18.05983    23.731881    22.025307    9439.9086    -1309.441    190.62977    1679.2566    -75.91768   -477.29615   -269.39503 
  573500    261.91734   -4207.4289   -3758.5115   -4207.4289            0   -417.37642    18.268703    23.338161    22.366836    9536.2775   -1676.4717    419.91602    4.4263965    84.752214    293.67815     251.8924 
  574000    271.60459   -4208.8092   -3743.2883   -4208.8092            0    99.924977    17.987205     23.69836    22.173246    9451.7288    170.55371    674.11137   -544.89016   -8.4533976    695.36651     525.8751 
  574500    271.40988   -4205.5734   -3740.3861   -4205.5734            0    1242.0303    18.263561    23.435495    21.978175    9407.0019   -64.596523    1730.1887    2060.4988    675.36646    288.81076    504.31793 
  575000    260.38237   -4178.2462   -3731.9598   -4178.2462            0   -193.88759    18.206231    23.562922     22.27661    9556.4878    465.55699    50.990908   -1098.2107    64.933078   -873.40656    2.1282179 
  575500    279.33395    -4202.184   -3723.4152    -4202.184            0   -831.59417    18.146601    23.627799    22.308968    9565.2883    54.096583    142.44646   -2691.3255   -64.277681    -166.9536       114.92 
  576000    263.26399   -4200.3726   -3749.1472   -4200.3726            0    1868.8672    18.212305    23.513015     21.95117    9400.0663    1819.8511    968.21024    2818.5402    1800.7448   -77.333125    -506.1522 
  576500    276.57459   -4210.2932   -3736.2538   -4210.2932            0   -723.88217    18.122737    23.635573    22.347777    9572.4755   -1536.3874   -332.15686   -303.10228    1496.8064   -36.364496    34.327989 
  577000     258.4257   -4231.9984   -3789.0656   -4231.9984            0    312.03216    18.174555    23.548082    22.218831    9509.1246    210.50074    283.47653    442.11921    389.37445    346.44473   -558.14471 
  577500    269.52848    -4200.501   -3738.5384    -4200.501            0    1359.3942    18.258133    23.636707    21.789994    9403.7368    2966.0345   -90.449257    1202.5973    101.85389    25.556122   -348.48816 
  578000    275.00249   -4230.9414   -3759.5966   -4230.9414            0   -821.53413     17.95357    23.641795    22.490492    9546.1934   -529.85907    621.71564    -2556.459   -550.45214   -262.66528    732.81166 
  578500    263.41685   -4186.2056   -3734.7181   -4186.2056            0    611.48104    18.205941    23.400498    22.261774    9484.1409    2171.2221    1289.5381   -1626.3171    369.50909    168.11713    391.94485 
  579000     273.3105    -4226.853   -3758.4082    -4226.853            0    587.36185    18.184153    23.681671    21.928969    9443.2966     351.2275    1388.9127     21.94535   -415.15327   -273.90548    401.77241 
  579500    274.69328   -4229.6403   -3758.8254   -4229.6403            0    -135.1928    18.020162     23.54942    22.291691    9459.7992     655.7963   -897.41863   -163.95607      467.783    128.33659    480.31306 
  580000     251.9122   -4211.4383   -3779.6694   -4211.4383            0   -196.35864    18.189447    23.316772    22.311538    9462.7515   -1081.0055    752.27802   -260.34846   -158.50754   -358.69419     422.9497 
  580500    282.96711    -4185.714   -3700.7181    -4185.714            0    289.93379    18.101664    23.945925    21.851538    9471.7914   -802.71455    456.44475    1216.0712    982.90059    -302.0322    1110.3387 
  581000     276.4987   -4219.7372   -3745.8279   -4219.7372            0   -773.59031    18.167557    23.532287     22.21139     9495.906   -162.13702   -486.25681   -1672.3771   -953.12997   -200.68933    160.76344 
  581500    294.20887   -4155.8384   -3651.5745   -4155.8384            0    790.10911    18.182803    23.361236    22.273185    9461.0423    731.52739    1075.0244     563.7756    592.40362    476.19897    544.25504 
  582000    269.05675   -4218.0055   -3756.8515   -4218.0055            0    1554.7764    18.028734    23.817946    21.950336     9425.637    2867.0698    477.86101    1319.3984   -645.96713   -1086.9785    353.15671 
  582500    278.83991   -4197.6098   -3719.6878   -4197.6098            0   -1077.4177    18.335668    23.442614     22.22363     9552.516   -434.05172   -848.02664   -1950.1747    59.561669    222.37063   -512.15431 
  583000    260.51275   -4215.5185   -3769.0085   -4215.5185            0   -509.70506    18.046893     23.52172    22.387594    9503.3983    62.296428   -1564.9209   -26.490683    640.05228    414.31041   -164.86523 
  583500    278.17351   -4150.8619    -3674.082   -4150.8619            0   -255.67689    18.262058    23.801861    21.978909    9553.5936   -689.61919   -1188.9612    1111.5497   -946.81601   -739.55149    334.96088 
  584000    270.23117   -4202.8741   -3739.7071   -4202.8741            0     470.2197    18.238178    23.604363    22.129291    9526.6725   -16.635911    462.27497    965.02003   -343.17826   -173.04426   -238.57222 
  584500    251.35518   -4210.7576   -3779.9435   -4210.7576            0   -361.65133     18.04006    23.504328    22.472232    9528.6645   -6.5402898   -1174.8777    96.464038    1225.2612   -327.73335   -84.277478 
  585000    267.79654   -4207.5929   -3748.5987   -4207.5929            0   -28.854975    18.307447    23.536974    22.177939    9556.5164   -261.10043   -205.16141    379.69691    325.72265   -164.04935    299.13014 
  585500    271.74756    -4235.739    -3769.973    -4235.739            0    718.47338    18.052189    23.792683    21.950645    9428.0212    2158.7786   -534.57024    531.21179    510.76781    288.99547    487.07878 
  586000     270.0834    -4238.496   -3775.5823    -4238.496            0   -217.51322    18.230982    23.323968    22.425353    9535.6827   -570.10111    93.952649   -176.39119    187.48863    399.31171    30.715778 
  586500    251.97067   -4187.3565   -3755.4874   -4187.3565            0     190.7076    18.217625    23.604206    22.226507    9557.6771      299.801    753.80338   -481.48158    292.45907    196.61237    119.60047 
  587000    255.05667     -4225.29   -3788.1315     -4225.29            0   -46.161095    18.121687    23.815915    22.062698    9521.9198   -489.75646   -172.46204    523.73521   -349.43113   -196.78437   -250.95849 
  587500    269.86726   -4189.2967   -3726.7535   -4189.2967            0    566.76413    18.391625    23.266185    22.358459    9567.2506    974.91069    1864.6426   -1139.2609    -13.98937    33.478292    421.85965 
  588000    276.02312   -4195.6838   -3722.5896   -4195.6838            0   -1325.8925    18.058818    23.813989    22.335716    9605.5306   -806.00123   -1411.9604    -1759.716    1074.2629     20.51989    946.94619 
  588500    264.19693   -4224.7036   -3771.8792   -4224.7036            0    -78.22854    18.204696      23.6322    22.157306    9532.4499   -156.29221    66.514206   -144.90762   -145.23467    202.43056    69.607227 
  589000    266.13465   -4220.5303   -3764.3846   -4220.5303            0    65.283234    18.312813    23.477165    22.208249    9548.0582   -576.02953    1068.5847   -296.70547    -801.6421    113.39303   -159.69605 
  589500    269.96271   -4204.7016   -3741.9947   -4204.7016            0    1333.7879    17.880552    23.655413    22.349557    9453.2333    1685.4495    491.13592    1824.7783    253.76901   -939.42375    174.81979 
  590000    276.47203   -4217.9091   -3744.0455   -4217.9091            0   -304.15901    18.429912    23.356987    22.095763    9511.5014   -962.53942   -406.48441    456.54681    812.77826    195.70227   -829.18652 
  590500    267.95125   -4217.3297   -3758.0704   -4217.3297            0   -1087.9344    18.091908      23.7746    22.214683    9555.1544    -929.6861   -1577.2943   -756.82295    202.48508    316.75024    205.80545 
  591000    256.68172   -4207.0153   -3767.0717   -4207.0153            0    569.59073    18.066806    23.455797    22.298293    9449.3775    267.51086    939.03232      502.229   -528.10586    14.423998   -97.233824 
  591500    261.35478   -4154.8023   -3706.8492   -4154.8023            0   -387.55653    18.405761    23.436868    22.064692    9518.1208    158.32085    162.33747   -1483.3279     178.4628    173.65601   -345.23862 
  592000    273.19874   -4204.7831   -3736.5298   -4204.7831            0   -540.79561    17.884965    23.974514    22.074066    9464.9924    771.97589   -2522.5024    128.13966   -111.73238   -277.09564   -230.91569 
  592500    267.70528   -4185.8015   -3726.9638   -4185.8015            0    125.66938    18.281827    23.322354     22.21056    9470.0328    -994.0857    415.41092    955.68293   -423.43843    535.86981    474.77812 
  593000    268.94196   -4186.0146   -3725.0572   -4186.0146            0   -1014.7938    18.121799    23.823921    22.211883    9589.5872    3.3052868   -1157.9359   -1889.7508    687.98892   -432.31619   -59.402677 
  593500    275.49108   -4198.7457   -3726.5634   -4198.7457            0    481.25817    18.160625    23.614908    22.148818    9498.7751    701.44059   -218.55958    960.89349   -838.86327    731.84613   -19.673519 
  594000    264.90576   -4199.2375   -3745.1981   -4199.2375            0   -798.46043    18.399813     23.32047    22.360774    9594.8354   -1878.3855    261.14393   -778.13971    21.505025    335.38183    18.216402 
  594500    272.49518   -4212.9266   -3745.8792   -4212.9266            0    638.97182    17.925245    23.875352    22.187092    9495.4436    3621.3091   -1178.7535   -525.64014    832.65776   -791.25428    145.91878 
  595000    266.24853   -4208.9257   -3752.5848   -4208.9257            0     967.3507    18.274869    23.405901    22.139309    9469.8629    1366.4641    572.63154    962.95643    921.13698    861.83162    -475.8799 
  595500    265.40157   -4190.0833   -3735.1941   -4190.0833            0   -1391.1202     18.23626    23.741692    22.290508    9650.8906   -1178.9133   -2205.0983    -789.3488    77.344306    252.26807     809.4285 
  596000    266.90886    -4192.976   -3735.5033    -4192.976            0    507.56213    18.119268    23.662329    22.076694    9465.2518     528.5494    870.82071    123.31629   -1042.1753    576.14783     -408.628 
  596500    263.41325   -4194.8055   -3743.3242   -4194.8055            0    -322.6934    18.231214    23.331335     22.41268    9533.4254    320.95514    1529.6376   -2818.6729    379.71837    4.6197836    417.62895 
  597000    267.32181   -4172.8866   -3714.7062   -4172.8866            0   -593.14826    18.068189    23.731999    22.332498    9576.0464   -105.98154    90.226817     -1763.69   -174.21793   -23.329321   -251.35813 
  597500    282.60147   -4191.2724   -3706.9031   -4191.2724            0    764.69142    18.231672    23.623659    21.947713     9452.854   -206.10038    807.49077    1692.6839    628.37178   -717.46966    137.50564 
  598000    278.55633   -4202.3824   -3724.9464   -4202.3824            0    11.546564    18.185924     23.60161    22.179045     9519.625   -545.32291   -259.00169    838.96429   -37.192851   -135.98124     33.63645 
  598500    261.92563    -4226.725   -3777.7934    -4226.725            0   -97.687732    17.827036    23.675052    22.461366    9479.9546    670.62848    324.54115   -1288.2328   -720.87494    -264.7052   -116.29666 
  599000    267.58124     -4234.53   -3775.9049     -4234.53            0    198.93554    18.405757    23.419513    21.997717    9482.2011   -1381.1518    1326.5984    651.35994   -466.74852    667.28054   -578.81791 
  599500    281.43959   -4222.9415   -3740.5636   -4222.9415            0   -833.50936    18.113117    23.846621    22.072877     9534.084   -926.81523   -872.56066   -701.15219     95.01636    119.91134    265.54316 
  600000    269.08418   -4221.1605   -3759.9595   -4221.1605            0    768.67038    18.103099    23.332782    22.299949    9419.4016    869.85286    698.57076    737.58751    756.22878   -546.85013    303.68714 
  600500    262.23168   -4215.4595   -3766.0034   -4215.4595            0   -922.78394    18.277912    23.617558    22.222308    9592.9183   -884.50563    -1017.252   -866.59419   -301.38781   -1304.8091   -42.109191 
  601000    268.69865   -4204.3838   -3743.8435   -4204.3838            0    525.32316    18.087465     23.83096    22.000503    9483.1332    1272.4171   -178.75786    482.31024    152.38536   -25.361973   -437.30593 
  601500    281.33104   -4207.7003   -3725.5085   -4207.7003            0   -58.872264    18.325748    23.271501    22.238699    9484.0858   -146.32013   -501.76601    471.46935    400.57436   -173.00793    509.83191 
  602000    254.60459   -4202.9528   -3766.5692   -4202.9528            0    475.39114    18.060694    23.680931    22.200211    9494.8984    1072.5999     1470.203   -1116.6296    192.58081   -285.72674   -926.27532 
  602500    279.48893   -4190.4643   -3711.4298   -4190.4643            0    522.38753    18.227613    23.609596    22.173876    9542.4514   -424.19971   -748.00689    2739.3692   -30.373359   -394.63076    1286.5192 
  603000    281.92664   -4168.6961   -3685.4835   -4168.6961            0    880.56809     18.27192    23.257266    22.253094    9456.5611    2069.7265    1285.3495   -713.37166   -675.46109    375.98038    405.39912 
  603500    275.25442   -4221.3538   -3749.5772   -4221.3538            0    140.54954    17.843273    23.882022    22.214143    9466.1889     1312.687   -662.54207   -228.49633    552.07354   -279.62541    92.608998 
  604000    268.58464   -4213.9117   -3753.5669   -4213.9117            0   -134.43564    18.404038    23.378698    22.150553    9530.5514   -960.72858    892.92954   -335.50787   -62.190909   -34.882119   -136.57212 
  604500    277.84853   -4237.5633   -3761.3404   -4237.5633            0   -490.02074    18.165834     23.68636    22.053116    9489.0698   -1586.4144    25.857517    90.494666   -549.91363    -252.5657    -128.3443 
  605000    276.31309   -4207.0308   -3733.4396   -4207.0308            0   -915.85861    18.042177    23.679383    22.203264    9485.8479   -400.78286   -291.09116   -2055.7018     117.6103   -641.39541    276.85008 
  605500    265.48183   -4224.9539   -3769.9271   -4224.9539            0   -83.865628     18.39255    23.273959    22.230997    9516.3662   -696.45107   -329.07384    773.92803   -970.46743   -384.56546    -119.7265 
  606000    269.39091   -4207.7828    -3746.056   -4207.7828            0    1083.0032    17.946066    23.813679    22.095129    9442.6155   -185.75582    492.24131    2942.5241    977.17223   -590.39656    1223.0654 
  606500    277.60119   -4206.8006   -3731.0017   -4206.8006            0   -403.13657    18.315811    23.293621    22.191932    9468.0007   -501.43667    414.94563   -1122.9187     21.35551   -159.38617   -624.80969 
  607000    257.34595   -4221.4692    -3780.387   -4221.4692            0   -584.19206    18.195247    23.554687    22.227939    9526.5246   -1693.7754   -134.93012    76.129315   -252.82822   -328.03752   -796.40134 
  607500    259.31246   -4176.9985   -3732.5458   -4176.9985            0    852.75008    18.087183    23.587378    22.192551    9467.9904    207.19509    1043.6945    1307.3606   -289.83279   -243.23573    694.10614 
  608000    268.82352   -4202.1011   -3741.3468   -4202.1011            0   -678.08533    18.423561    23.361424    22.145955    9531.6324   -840.45969   -269.47884   -924.31746    337.51962    310.40307     -68.6651 
  608500    266.67939   -4168.6873   -3711.6079   -4168.6873            0    510.96187    17.904664     23.85835    22.271519    9513.8529    582.07822    1433.5582   -482.75077   -413.63579    -637.1298    -507.5553 
  609000    268.90358   -4222.9148   -3762.0233   -4222.9148            0    665.97555    18.153935    23.373457    22.199416    9419.6609     921.5531    52.057781    1024.3158    990.65473    663.87268    -366.1204 
  609500    255.75639   -4194.3256   -3755.9679   -4194.3256            0   -795.22429    18.286534    23.627771    22.115658     9555.513    645.08664   -1347.1363   -1683.6232    -468.0384    454.29329   -596.73651 
  610000    269.46143   -4210.8791   -3749.0314   -4210.8791            0      362.669    17.972449    23.756415    22.140238    9453.0169    1577.7218    526.21191   -1015.9267    357.89432    138.81375   -220.01144 
  610500    274.18857   -4201.8196   -3731.8697   -4201.8196            0    17.584107    18.350224    23.235565    22.341208    9525.7955   -1455.4582    2214.6932   -706.48266    774.55065    141.39307    613.57707 
  611000    280.09894   -4180.4347   -3700.3547   -4180.4347            0    312.54966    18.014629    23.704421    22.255671    9503.7582   -438.10179    201.37864    1174.3721    1097.4027    320.76388    589.57177 
  611500    276.21667   -4173.2569   -3699.8309   -4173.2569            0    11.954563    18.163979    23.697792    22.126174    9524.1272   -75.745521    -683.3594    794.96861   -547.86232    189.31858    -633.1772 
  612000    258.93969   -4223.6789   -3779.8652   -4223.6789            0   -1341.4857    18.311151    23.456089    22.322068    9587.5066    -987.6466   -1063.3085   -1973.5021     436.8351   -227.43961   -925.82727 
  612500    247.55286   -4192.9515   -3768.6544   -4192.9515            0    645.91708    18.104489    23.751864    22.102025    9504.2107    80.111781    612.62729    1245.0122    372.47083    54.128112    34.391138 
  613000    286.02353   -4175.8057   -3685.5712   -4175.8057            0   -1166.1761    18.375622    23.557282    22.178089    9600.4447   -1731.0436   -979.66205   -787.82279    479.16735    104.77616   -271.56689 
  613500    271.47931   -4187.2224   -3721.9161   -4187.2224            0   -134.58274    18.137926    23.498202    22.503739    9591.2883   -412.17209    -524.6142    533.03809   -41.226795   -504.06494   -290.17285 
  614000      260.914   -4178.8894   -3731.6918   -4178.8894            0    396.21525    18.148155    23.857713    21.971087     9512.898    228.82662   -195.74834    1155.5675    733.56697    107.33254    -960.7742 
  614500    263.84959   -4199.9116   -3747.6824   -4199.9116            0   -331.25388    18.311678    23.450098    22.105404    9492.2957   -1662.1234   -628.59196    1296.9537   -388.53066    856.10288   -331.45435 
  615000    292.83445   -4196.4221   -3694.5138   -4196.4221            0    625.16094    17.982699    23.588333    22.306069    9461.8308    2613.8811   -382.54407   -355.85421    -912.0931    -508.7716   -399.94807 
  615500     272.7528   -4215.6994   -3748.2105   -4215.6994            0   -937.10809     18.20214    23.575038    22.175199    9515.7356   -1782.5876   -714.25946    -314.4772   -479.92339   -134.45505    103.48925 
  616000    276.19347   -4208.7964   -3735.4102   -4208.7964            0   -769.45988    18.284914    23.660135    22.132911    9575.2179   -1830.3398   -70.886599   -407.15328   -255.74815    485.21864    359.87983 
  616500    269.40848   -4180.4733   -3718.7163   -4180.4733            0    950.99796    18.026681     23.54367    22.390426    9502.8151     1579.851    305.92706     967.2158    440.67284   -48.064099    -365.3757 
  617000    288.31819    -4201.838   -3707.6704    -4201.838            0    2.9727101    18.226858    23.376874    22.391932    9540.9103    840.19291    523.98501   -1355.2598    496.18492   -210.03955    76.768718 
  617500    282.91421   -4220.0702   -3735.1649   -4220.0702            0   -1342.4583    18.251965    23.805163    22.095172    9600.1534   -813.19577   -1012.7711   -2201.4079   -23.051859    176.92047    246.52519 
  618000    268.71755   -4213.0686   -3752.4959   -4213.0686            0    370.91614    18.133965    23.567118    22.199623    9487.3485    2033.9216    469.09061   -1390.2638   -200.77774    354.87993   -57.166725 
  618500    263.92981   -4185.4431   -3733.0764   -4185.4431            0    296.03435    18.072393    23.487236      22.4971    9549.3562   -876.91522    315.93233    1449.0859   -131.94255   -330.06789   -195.55015 
  619000    245.08203   -4194.3406   -3774.2784   -4194.3406            0   -641.51768    18.339506    23.814339    21.978227    9598.8412   -745.73742    -1978.373    799.55742   -229.36837   -413.22876    457.62927 
  619500    280.04634   -4193.0457   -3713.0558   -4193.0457            0     486.4433    18.266666    23.520779     22.16064    9521.2352   -318.63316    577.83424    1200.1288    1154.0351    -650.3295    100.55156 
  620000    255.66545   -4211.1042   -3772.9024   -4211.1042            0   -376.23643    17.979231    23.604722    22.493668    9546.1947   -520.80217   -555.79751   -52.109613   -166.65669   -153.31698   -962.40775 
  620500    261.35354   -4201.8617   -3753.9107   -4201.8617            0   -640.55021     18.34301    23.519691    22.135754    9549.8498   -1430.4246    53.564426   -544.79046    1236.3586   -736.20917   -70.345258 
  621000     272.8553   -4207.5271   -3739.8624   -4207.5271            0    1487.2055    18.108545    23.703126    22.069251    9472.7652    892.83101    241.90565    3326.8797   -460.26253   -122.99085   -205.35137 
  621500    272.57365   -4197.8025   -3730.6206   -4197.8025            0   -896.21548    18.057878    23.548304    22.483644    9560.7742    610.26203   -2173.8509   -1125.0576   -12.181827   -7.9546926    452.44738 
  622000    266.59037    -4203.337   -3746.4102    -4203.337            0    -439.2529    18.284965    23.521749    22.183167    9540.8551    543.22169   -1245.4874   -615.49294    685.47909    49.417558    448.91154 
  622500    280.76453   -4218.4662   -3737.2454   -4218.4662            0    636.41099    18.123534     23.70485    22.025308     9462.417    947.48697    383.91337    577.83262    847.64177   -571.29744   -387.18308 
  623000    265.03571   -4203.0798   -3748.8176   -4203.0798            0   -746.18266    18.218891    23.611453    22.217896    9557.5722   -1309.4886    312.23364    -1241.293   -86.021982   -696.78982    412.47893 
  623500    262.24996   -4216.3207   -3766.8332   -4216.3207            0    590.24128    18.103449    23.349709    22.421059    9477.6121    822.67206    574.36943    373.68234    452.32086    213.51405     638.4154 
  624000    267.17357   -4168.8583   -3710.9319   -4168.8583            0    726.02919    18.183842    23.709227    22.026946    9496.3635    552.51678     297.4946    1328.0762    174.76015   -244.39188    466.45742 
  624500    277.61843   -4212.1528   -3736.3243   -4212.1528            0   -963.50935    18.188332    23.655764    22.313695    9600.6655    -539.9031   -159.41564   -2191.2093    505.20888     240.2544   -436.11835 
  625000    270.19399   -4203.2708   -3740.1675   -4203.2708            0    460.67145    18.160041    23.435616    22.245244    9467.3921   -641.70821   -125.08408    2148.8066   -495.19719    168.59721    -86.15467 
  625500       261.81   -4229.8079   -3781.0745   -4229.8079            0    1.2921746    18.206793    23.498601    22.038602     9428.867   -1181.7261      383.071    802.53164    609.63313    524.99883   -406.93942 
  626000    272.05118   -4212.5164     -3746.23   -4212.5164            0   -1458.5816    18.126113    23.899224    22.233097    9631.3785   -597.05898   -2006.6104   -1772.0754   -226.82472   -105.02143    250.07291 
  626500    268.74691   -4205.8544   -3745.2314   -4205.8544            0    110.95309    18.308084    23.460356    22.158998    9517.6036    603.83559   -421.10049    150.12418   -371.40245    -99.07037   -206.42993 
  627000    274.38195    -4244.827   -3774.5457    -4244.827            0    685.04211    18.023018    23.736177    22.181846    9489.3395    115.92204    1462.4773    476.72696   -504.55909    986.80177    100.30651 
  627500    252.10736   -4180.9443   -3748.8409   -4180.9443            0   -1140.6113    18.230735     23.70082     22.19835    9591.5376   -1007.2611   -1367.7012   -1046.8716    659.56459    589.07844    311.50272 
  628000    268.37586   -4230.4001   -3770.4131   -4230.4001            0   -112.30795    18.280196    23.351781    22.136412    9449.4839   -259.57974    563.65876   -641.00287    148.06367    171.74952   -125.06389 
  628500    278.03991   -4148.3358   -3671.7849   -4148.3358            0    1816.3914    18.042255    23.716995    22.204924    9501.6661     3040.033    906.54275    1502.5984   -130.62236   -412.61993    -17.46691 
  629000    267.93941   -4182.8062   -3723.5672   -4182.8062            0   -219.11554    18.273874    23.553877    22.155801    9536.3126   -470.71094   -1237.2795    1050.6439   -1747.5577     355.2057   -913.12726 
  629500    269.10279   -4203.1853   -3741.9523   -4203.1853            0   -499.68537    18.134021    23.619342    22.232563    9522.5103    186.58192   -568.86575   -1116.7723   -720.58902     346.7273    398.24984 
  630000    277.85627   -4190.0141   -3713.7779   -4190.0141            0    261.14235    17.978636    23.697979    22.306581    9503.8828    916.68124   -281.71653    148.46235    352.17057    98.268133     251.4056 
  630500    261.93989   -4168.4052   -3719.4492   -4168.4052            0    -268.9346    18.405707    23.468381    22.020841     9511.949   -98.187771   -995.14258    286.52655   -770.00647   -780.17116    759.97088 
  631000    266.34579   -4217.8726    -3761.365   -4217.8726            0   -18.579818    18.013993    23.752983    22.254316    9522.3118   -660.38488    501.82191    102.82352   -1175.3311    848.99308   -788.77005 
  631500    274.12397   -4194.2276   -3724.3885   -4194.2276            0   -138.00184    18.245132    23.409366    22.299607    9524.3177   -3.5765377   -178.19908    -232.2299    98.213724    757.24707    384.52585 
  632000    253.60419   -4198.0064   -3763.3375   -4198.0064            0   -278.27966    18.355102    23.682126    21.922877    9529.6081   -933.80302   -746.39458    845.35861   -856.90889    429.11476   -453.25106 
  632500    266.13692   -4196.9108   -3740.7612   -4196.9108            0   -23.172672    17.978596    23.656955    22.342429    9502.6557    160.76352    468.21379   -698.49532    381.39132    23.546669   -17.589447 
  633000    272.14836   -4224.7913   -3758.3383   -4224.7913            0   -443.59398    18.243032    23.463414    22.224772    9513.1761    416.27595   -363.95506   -1383.1028    -312.6194    498.37585    5.1897693 
  633500    266.99504   -4205.8056   -3748.1853   -4205.8056            0    567.62939    18.194119    23.814608    22.047102    9552.6966    555.21361   -273.79029    1421.4649    82.477301    448.29037   -802.03175 
  634000    271.12108   -4172.1022   -3707.4099   -4172.1022            0    1071.7757    18.207926    23.341523    22.115661    9399.1721    1041.0546    1565.9028    608.36962   -89.054142   -489.28031   -970.29384 
  634500    281.32415   -4206.8431   -3724.6632   -4206.8431            0   -639.59505    18.054889    23.590154    22.452087    9562.7387    1265.5353   -378.30757   -2806.0128   -483.66462    -924.1699    500.13641 
  635000    261.07778   -4265.5052   -3818.0269   -4265.5052            0   -462.30465    18.194686    23.665654    22.040863    9490.5563     62.19202   -1648.7234    199.61743   -1142.3712    -42.64018     -263.597 
  635500    272.72131   -4195.3875   -3727.9525   -4195.3875            0    1789.4634    18.297737    23.538425    21.758197    9371.2536    610.73983    2064.7135     2692.937   -325.70774   -20.900518    246.45788 
  636000    271.12346   -4197.7469   -3733.0506   -4197.7469            0   -1046.0729    17.995775    23.539151    22.451119    9510.4123   -1293.3846   -712.24999    -1132.584    527.27101   -160.64408    1331.1746 
  636500    267.85254   -4212.2883   -3753.1982   -4212.2883            0    1298.6877    18.149373    23.433671    22.111733    9404.2624   -270.78952     765.0074    3401.8451    102.48706    345.28853   -526.57823 
  637000    262.45887   -4189.6863   -3739.8408   -4189.6863            0    82.473013    18.231425    23.760389    22.053676    9553.3382   -276.48128   -521.27625    1045.1766   -197.67036   -25.801959   -399.88924 
  637500    279.11264   -4197.8974   -3719.5079   -4197.8974            0   -1179.8617     18.13586    23.446327    22.360786     9508.238   -640.86783   -847.72118    -2050.996    -203.1449   -202.64051    296.14393 
  638000    275.41656   -4230.1914   -3758.1368   -4230.1914            0    1492.3783    18.073748    23.533606    22.053975     9380.448    1169.4847    884.72248    2422.9277   -446.33037    407.61537    60.367967 
  638500    256.03989   -4176.5928   -3737.7491   -4176.5928            0   -1131.1542    18.242993    23.723114    21.942143    9496.1338   -912.26584   -2640.6097     159.4129   -247.92205   -235.44144    -239.2234 
  639000    265.50232    -4207.865   -3752.8031    -4207.865            0    826.29318    18.140533    23.459582    22.271295    9477.9794    1856.1442    1282.4974   -659.76197    1189.7369   -553.18782   -59.818242 
  639500    264.85148   -4196.0158   -3742.0695   -4196.0158            0    726.24585      18.1112    23.637533     22.22273    9513.6418    881.01406    490.18622    807.53727   -15.413132    366.61161    9.0173464 
  640000    253.69237   -4212.8474   -3778.0274   -4212.8474            0   -151.30675     18.16787    23.563236    22.080585    9452.5617   -662.24161    472.22684   -263.90549    98.688853    809.24112      544.904 
  640500    275.88758   -4218.0871   -3745.2252   -4218.0871            0    50.129495    18.278809    23.284844    22.279538    9482.5996   -939.17502   -138.84225    1228.4058    475.39041    215.82202   -256.49556 
  641000    265.25619   -4187.0066   -3732.3666   -4187.0066            0   -307.92893    17.891457    23.827707    22.258067    9488.8904    1061.4952   -265.09521   -1720.1868     235.9735    435.86072    364.04502 
  641500    276.58779   -4200.6434   -3726.5814   -4200.6434            0    45.998771    18.486425    23.373814    22.060404     9532.262   -1498.7619    57.757734    1579.0005    23.681778    299.19856    395.43346 
  642000    278.26971   -4176.0909   -3699.1461   -4176.0909            0   -422.82443    18.067501    23.629622    22.246411    9497.6205    317.87055   -434.43579    -1151.908   -139.82257   -596.05156   -612.74763 
  642500    270.33943   -4217.6217   -3754.2692   -4217.6217            0   -477.36854    18.118021    23.609071     22.32652     9550.161   -1284.0217    1730.5784   -1878.6623    169.90591   -80.610942    813.19335 
  643000    287.30187   -4200.8238   -3708.3982   -4200.8238            0   -135.67955    18.418899    23.496309    22.057564    9545.9877   -1296.1691    1223.5005   -334.37007    51.653209    2.9546383   -66.183758 
  643500    260.26067     -4174.97   -3728.8921     -4174.97            0    1346.7218    17.900754    23.785541    22.189943    9448.0147    1125.8891    1142.2098    1772.0664   -119.59284    339.62159   -546.62308 
  644000    254.17912   -4171.2718   -3735.6175   -4171.2718            0    -684.1007    18.210474    23.522876     22.33628    9568.0299   -955.37521   -830.30957   -266.61731    360.43018   -312.29275   -120.08283 
  644500    262.30264   -4188.8242   -3739.2464   -4188.8242            0   -338.28808    18.258547    23.754018    22.151787    9607.5372   -563.49637   -258.50785   -192.86001    809.31112    -383.6789   -392.90611 
  645000    282.10022   -4183.2211    -3699.711   -4183.2211            0    660.59845    18.124405    23.500954    22.134752    9428.0943    1028.1908    1895.1121   -941.50755    -1526.202    370.37818    538.64331 
  645500     279.5466   -4191.6367   -3712.5033   -4191.6367            0   -252.24688     18.07821    23.556312    22.447381    9559.3505    669.61399   -55.877866   -1370.4768   -396.68246   -271.21529   -134.56088 
  646000    270.66255   -4160.4649   -3696.5586   -4160.4649            0    781.96377    18.066222    23.838337    22.081062    9509.6219    162.47863   -45.669252    2229.0819   -489.22745     56.13722     535.5982 
  646500    266.76391   -4226.3031   -3769.0789   -4226.3031            0    373.34388    18.220473    23.475583    22.109068    9456.8495    28.904268    267.28426     823.8431    283.17097   -301.31599    1376.6115 
  647000    275.07945    -4231.593   -3760.1162    -4231.593            0     259.4258    18.022921    23.642308    22.201366    9460.0783   -311.88195    25.120352     1065.039    -306.5047   -51.731313    432.77138 
  647500    274.08613   -4197.9715   -3728.1972   -4197.9715            0   -80.806702    18.141981    23.622515    22.336083    9572.3345    233.42217   -983.11583    507.27356    154.97795   -99.383628    508.84591 
  648000    266.79846   -4208.7607   -3751.4773   -4208.7607            0    540.10692    18.307144    23.577173    21.991935    9492.3946   -73.319868    192.91314    1500.7275    581.22494   -422.29475   -193.58734 
  648500    258.32799   -4200.6764    -3757.911   -4200.6764            0    1155.8636    18.062832    23.558264    22.165184    9431.9278   -146.03544    2636.1336    977.49255   -550.70055   -202.80244    891.12441 
  649000    264.90755   -4225.5969   -3771.5544   -4225.5969            0   -218.22024    18.172987    23.522984    22.207481    9493.3178   -737.43132    8.3879035    74.382692    988.54632   -22.119422    627.18916 
  649500    245.26236   -4202.7378   -3782.3665   -4202.7378            0   -893.66493    18.326583    23.607226    21.948326    9495.7188   -1362.9721   -964.00392   -354.01877   -526.24526    296.35492   -299.02055 
  650000    274.42582   -4249.5899   -3779.2334   -4249.5899            0    1167.7654    17.948342    23.571469     22.16125     9375.733    2293.1047    613.71103    596.48045   -63.917845    309.47417    532.02499 
  650500    280.85727   -4192.7977    -3711.418   -4192.7977            0    278.54865     18.24368    23.328771    22.324971    9501.5659     765.9902    1656.6309   -1586.9752   -58.193233    820.95463    308.28721 
  651000    263.47526   -4199.8415   -3748.2539   -4199.8415            0    683.46011      18.1476    23.682955    22.062543    9482.2338    1418.4058   -396.78429    1028.7589    200.49437   -155.09843    379.84336 
  651500    285.50126   -4196.1424    -3706.803   -4196.1424            0    195.51703    18.167431    23.690326    22.126188    9522.9422     594.5335   -334.25039    326.26797   -387.25723   -236.18039    1145.0385 
  652000    273.82218   -4191.5177   -3722.1958   -4191.5177            0    616.74557    18.140212    23.311868    22.394081     9470.059   -72.097274    2249.0395   -326.70551    258.35621    -690.0542    267.82837 
  652500    278.91181    -4204.607   -3726.5617    -4204.607            0   -100.42498    18.022301    23.880802    22.024513    9479.0641    926.23534    -209.1317   -1018.3786   -570.66154     -368.468   -403.41348 
  653000    277.04556   -4214.7872   -3739.9406   -4214.7872            0   -225.11878    18.431763    23.546551    21.968806    9534.5598   -1485.4355   -447.81477     1257.894    202.62733   -674.61975    371.03868 
  653500    283.49319    -4208.902   -3723.0044    -4208.902            0   -83.557141    18.029982    23.631768     22.28775    9496.3723    1060.6467   -483.55463   -827.76346   -742.33914   -124.61051    973.46716 
  654000    275.42424   -4198.4153   -3726.3476   -4198.4153            0   -1515.4197    18.232202    23.669208     22.24863    9601.2135    -1334.978   -1567.0033   -1644.2778     811.0569    513.93135   -325.35358 
  654500    272.32982   -4196.0234   -3729.2594   -4196.0234            0   -598.63365    18.301674    23.476229    21.994877     9450.193   -1363.6945   -1250.1278    817.92136    538.12274    598.01059    929.15219 
  655000    281.88318   -4184.8366   -3701.6985   -4184.8366            0    177.29097    17.993714    23.698088    22.212131    9471.6218    410.63535    176.80989   -55.572327   -741.15195    719.19877    110.34726 
  655500    273.31734   -4185.0623   -3716.6057   -4185.0623            0    -845.1955    18.208841    23.325689    22.394019     9511.496   -1686.9348    655.76636    -1504.418     394.8009   -590.56452   -410.31045 
  656000     258.1519   -4249.5439   -3807.0804   -4249.5439            0    447.78748     18.06004    23.645046    22.125303    9448.1784    1496.7169    52.784406   -206.13887    235.00065   -992.83319   -1119.5919 
  656500    255.07248   -4218.3161   -3781.1306   -4218.3161            0    269.51263    18.229998     23.65404    21.956461    9467.9135   -533.10599   -1072.3586    2414.0025   -588.59131   -737.93026   -90.995251 
  657000    274.47212   -4214.3141   -3743.8783   -4214.3141            0    8.8327734    18.152166    23.362879    22.398431    9498.8802    963.90246   -849.09343   -88.310709    25.961101   -1277.4763   -472.46857 
  657500    271.34085   -4229.3254   -3764.2565   -4229.3254            0    1458.8073    17.932937    23.769712    22.089687    9415.9664    1226.9934    740.40815    2409.0205   -981.25195   -713.64087   -76.079401 
  658000    280.25658   -4198.1345   -3717.7843   -4198.1345            0     1012.738     18.35329    23.390789    22.093122    9484.5312    671.16006     921.3335    1445.7205    20.290759   -221.59466    277.19201 
  658500    265.41194   -4212.2946   -3757.3876   -4212.2946            0    255.57094    17.992758    23.722094    22.215827    9482.2901    1281.0837    203.82544   -718.19627   -590.12802   -638.05747    12.592693 
  659000    276.94008   -4225.1907   -3750.5249   -4225.1907            0    1365.6696    18.109882    23.079796    22.456849    9386.3428    2850.1999    1483.5339   -236.72487   -512.02889    708.94482    81.511517 
  659500    244.68139   -4227.5863   -3808.2107   -4227.5863            0   -156.41292    18.191182     23.64862    21.977613     9454.689   -1350.7212   -82.700587      964.183    760.94171   -648.77515    408.47291 
  660000    267.54357   -4200.5303   -3741.9698   -4200.5303            0   -640.68191    18.152113    23.656351    22.118938    9498.1546   -1172.1324   -630.89334   -119.02001    -255.4468    394.04364    436.06156 
  660500    263.30682   -4201.1764   -3749.8775   -4201.1764            0    1063.8603    18.284137    23.226049    22.250306    9448.9983    817.71758    2836.3384   -462.47525   -298.40797   -170.21503   -198.07297 
  661000    265.78115   -4172.3467   -3716.8069   -4172.3467            0   -397.26228    17.822678    23.939577    22.215629    9478.6839    1928.1021   -2261.7314   -858.15757   -304.95564   -235.57844    6.4217263 
  661500    252.45479   -4207.3559   -3774.6571   -4207.3559            0    -285.9108    18.422921    23.466585    22.045319    9530.6993   -1093.8202    948.52679   -712.43904   -53.603818   -250.80684    11.651093 
  662000    269.98228   -4228.4236   -3765.6832   -4228.4236            0    150.36558    18.134002    23.658819    22.163781    9508.9064    485.97357   -171.99484    137.11803    284.75585   -536.81819    702.83789 
  662500    277.01858   -4218.6584    -3743.858   -4218.6584            0   -578.82872    18.096875    23.592572    22.264219    9505.7491    857.67198   -1442.4208   -1151.7373   -237.06769   -223.99753   -36.409011 
  663000    277.66692   -4220.0586    -3744.147   -4220.0586            0    142.97901    18.197849    23.615323    22.111191    9502.2419   -95.776146    622.26185    -97.54868    -1208.617   -250.59563    92.085383 
  663500    275.74598   -4215.7565   -3743.1373   -4215.7565            0    1200.1267    18.193328    23.523285    22.145975     9477.743    974.71615    1423.0826    1202.5813    1362.5642    497.92345    222.06035 
  664000    263.65389   -4195.1197    -3743.226   -4195.1197            0    184.31419    17.971703    23.782508      22.4114    9578.9053    640.96542    1022.2268   -1110.2497    -1354.181   -15.450517     766.2812 
  664500    255.41886   -4178.7953   -3741.0161   -4178.7953            0   -1254.8845    18.423434    23.498072    22.233836     9625.365   -2397.6558   -1252.4242   -114.57342   -461.65401    -554.1791    241.61887 
  665000    269.06766   -4210.9897   -3749.8169   -4210.9897            0   -761.37224    18.113883    23.806979    22.203094    9574.7918   -130.81387   -489.50314   -1663.7997    154.63938    374.94917    15.731313 
  665500    258.70091   -4235.2388   -3791.8343   -4235.2388            0    2022.4445    18.025746    23.312504    22.328086    9382.8256    2800.7631    2907.5799    358.99064   -153.07294   -1369.2068    267.73157 
  666000    284.36909   -4191.2227   -3703.8238   -4191.2227            0    154.73018    18.259163    23.610724    22.131296    9541.0691    780.51114   -283.57145   -32.749158   -625.85887   -887.81535   -98.475569 
  666500    269.69252   -4211.4498   -3749.2061   -4211.4498            0   -127.29044    18.167666    23.745681    22.272441    9608.4111    644.45962    623.25025   -1649.5812   -944.10527   -167.16935    407.04161 
  667000    278.21171   -4235.9272   -3759.0818   -4235.9272            0    298.09936    18.262091    23.364913    22.290718    9511.2746    153.55936    1378.3246   -637.58585   -1236.1392   -410.72362   -62.915456 
  667500    260.85483   -4194.8828   -3747.7866   -4194.8828            0    1037.4672    17.963039    23.808665    22.045128    9428.1719    1505.8632    737.02226    869.51596    -576.5007   -844.60345    16.024213 
  668000    285.71531   -4232.0349   -3742.3286   -4232.0349            0    -856.8636    18.414343    23.507492    22.105813    9569.0541   -1573.2738    578.98256   -1576.2996    1227.0077    147.05652   -218.03294 
  668500     264.2133   -4195.1389   -3742.2864   -4195.1389            0   -191.41452    18.040583    23.516835    22.319475    9469.2031    1176.2682   -484.02452   -1266.4872    397.80878   -215.67744    200.38592 
  669000    272.30975   -4208.8231   -3742.0935   -4208.8231            0    -236.5473     18.12222    23.574703    22.159741    9467.2167   -127.94658    1034.0032   -1615.6985   -460.98752   -506.16789    350.09019 
  669500    256.24642   -4247.7154   -3808.5178   -4247.7154            0   -1315.2136    18.467818    23.538799    21.974458    9552.5224   -2816.1389   -603.28782   -526.21425    150.11505    -1076.132   -124.34353 
  670000    258.22652    -4226.256   -3783.6646    -4226.256            0    61.329064    17.965001    23.656099    22.245517     9453.941    968.60859   -2085.3265    1300.7051    587.59215    655.67113   -180.09767 
  670500    263.06338   -4197.2306    -3746.349   -4197.2306            0   -823.73658    18.236408     23.42767    22.320077    9535.9528   -552.92842   -1965.4942    47.212879     102.2324    966.77754   -1001.0858 
  671000    282.37683   -4220.7472    -3736.763   -4220.7472            0    38.368235    18.216405    23.715491    21.928461    9473.3361   -1161.8351   -1112.4762     2389.416    -601.2478    559.10802   -133.77465 
  671500     286.4471   -4180.2584   -3689.2978   -4180.2584            0    567.71701    18.156697    23.621449    22.168436    9507.7646   -36.522029     399.9411     1339.732    497.58695   -100.86416    189.69792 
  672000    265.52666   -4235.5879   -3780.4843   -4235.5879            0    -959.1421    18.258467    23.564371    22.274025    9583.3833   -665.19706   -1380.9778   -831.25142    351.06914   -26.205712   -331.31516 
  672500    279.56765   -4200.6195   -3721.4501   -4200.6195            0    1856.0835    18.058491    23.719995    21.849905    9359.3484    1343.8056    2220.3119    2004.1329    -260.8649     61.87551   -294.81648 
  673000    272.09775   -4221.3773   -3755.0111   -4221.3773            0   -659.42662    18.211234    23.535843    22.251724    9537.4611   -597.31136   -1211.2293   -169.73922    -607.6221   -298.65427   -168.06092 
  673500    267.56539   -4233.5346   -3774.9367   -4233.5346            0    566.36966     18.05717    23.465309    22.305925    9451.4012    2616.8206   -204.56926   -713.14234   -747.69959    87.842706   -665.42951 
  674000    267.71534   -4197.1233   -3738.2683   -4197.1233            0    329.76048    18.160921    23.756616    22.004339    9493.5966    -260.6862    1100.1096    149.85805    41.491997    -230.9682    -212.3711 
  674500    271.56309   -4197.4691   -3732.0193   -4197.4691            0   -359.01311    18.266206    23.427205    22.201189    9500.4695   -985.11805    785.01559   -876.93686    650.19545   -324.71198   -163.74659 
  675000     275.5843    -4202.539   -3730.1969    -4202.539            0    147.52467    17.968736    23.563881    22.367021     9470.491    2127.3378    1318.9464   -3003.7103    1278.2165    -120.4057    593.22433 
  675500    281.21185   -4191.5739   -3709.5864   -4191.5739            0   -64.184713    18.292739    23.725803    21.992634    9545.0215   -84.952678    -1128.521    1020.9196     638.8445    114.16789   -167.99188 
  676000    274.95145   -4229.5513   -3758.2939   -4229.5513            0    447.75582    18.096354    23.393449    22.231013     9411.191    696.69121     1962.844   -1316.2677    444.10753   -35.790263    451.06483 
  676500    275.29976   -4177.6013    -3705.747   -4177.6013            0    914.63164     17.97829    23.456219    22.382693     9438.842    913.90203     1886.502   -56.509093    770.35629    -359.1656   -409.99499 
  677000    263.83904   -4184.2953   -3732.0842   -4184.2953            0   -65.692497    18.237013    23.679419    22.105379    9546.0282   -316.10353   -367.47348    486.49951   -63.053154      844.306   -241.73171 
  677500    262.99441   -4195.2776   -3744.5141   -4195.2776            0   -467.57795    18.239704    23.657025    22.055357    9516.8231     -819.676   -501.95252   -81.105311   -70.263505    1116.7179   -362.89619 
  678000     271.9942   -4193.0834   -3726.8947   -4193.0834            0   -193.71242    17.851262    23.576216    22.610244    9515.8649    1433.6379   -880.26223    -1134.513   -37.975737    1134.4098   -188.50592 
  678500    262.41102     -4199.51   -3749.7465     -4199.51            0   -772.46461    18.283481    23.508459     22.18542    9535.6585   -374.28335   -1914.2761    -28.83436   -238.32078   -626.07509    727.73502 
  679000    255.90849    -4200.521   -3761.9026    -4200.521            0   -297.48113     18.25629     23.71495    21.972537    9512.9437   -1335.4856    -1461.861    1904.9032    258.88652    22.781004   -633.87203 
  679500    276.44719   -4205.1818   -3731.3607   -4205.1818            0   -209.20816    18.101318    23.477352    22.297559    9475.8163   -299.73216    1336.3665   -1664.2589    136.40067    379.37594   -275.00136 
  680000    281.47767   -4214.0034   -3731.5603   -4214.0034            0   -788.83965    18.088944    23.457355    22.427986    9516.6153    -359.5905   -1692.9962   -313.93227   -1349.5989    381.01449    112.77557 
  680500    277.31155   -4202.7411   -3727.4386   -4202.7411            0   -252.35166    18.308308    23.628556    21.991727    9513.5965   -1613.1422    450.47091    405.61629   -144.28895   -469.72101    -1031.896 
  681000    276.31201   -4245.8214   -3772.2321   -4245.8214            0    -196.0152    18.154136      23.6233    22.224945    9531.4033   -197.99119    517.03731   -907.09171    1639.9065    54.174564    100.62752 
  681500    266.64377   -4176.0439   -3719.0256   -4176.0439            0    799.76877    18.061935    23.413195    22.451354    9494.3991     1419.099    1669.8248   -689.61744   -273.86233    215.54038    149.68782 
  682000    266.18692   -4228.8998   -3772.6646   -4228.8998            0    880.50371     18.23731    23.641286    21.799483     9398.923    307.63276    709.31686    1624.5615   -678.87648   -316.03856   -127.09743 
  682500    277.34305    -4210.417   -3735.0605    -4210.417            0    685.26058    18.125999    23.662108    22.081251    9470.6342    383.12086    898.88749    773.77339   -81.014454   -352.94494    99.673936 
  683000    274.69026   -4182.9441   -3712.1344   -4182.9441            0   -436.16493    18.174166    23.435506    22.335652    9513.2184    13.126736    617.95544    -1939.577     144.9406   -387.55221   -199.88982 
  683500    274.08384   -4188.9651   -3719.1948   -4188.9651            0   -329.99827    18.116688    23.785912    22.162616    9550.3576    264.43756    806.98937   -2061.4217   -213.02094    655.23934   -149.25828 
  684000    272.41717   -4194.4022   -3727.4885   -4194.4022            0    1600.4845    18.335349    23.414175    21.885347    9395.5343     1840.906     2498.788    461.75947    -161.7714   -79.010383    525.19603 
  684500     265.3044        -4179   -3724.2774        -4179            0    594.37297    18.018802    23.672402    22.341384    9529.6801    755.22129    1504.1369   -476.23925    33.266717   -51.141431     232.1929 
  685000    278.09902   -4215.7878   -3739.1356   -4215.7878            0    1273.0985    18.086069    23.424197    22.310099    9451.7099    2243.5742    1929.4124   -353.69106    461.12963    360.79562    102.78372 
  685500    267.75665   -4232.4477    -3773.522   -4232.4477            0   -1086.3151    18.315403    23.702015    22.007455    9553.6996    -648.8469   -1897.8757   -712.22265    1425.7753    694.98579    441.11176 
  686000    277.82727   -4205.5814    -3729.395   -4205.5814            0    688.00048    17.988603    23.710947     22.20246    9469.9445     666.9129   -285.62655    1682.7151    -650.0094   -449.99818    1157.9468 
  686500    270.58361    -4222.576   -3758.8049    -4222.576            0    -580.3818    18.267077     23.18008    22.415405    9491.4067    679.72043    564.95967   -2985.8255   -503.24472    32.142452   -122.36925 
  687000    254.67296   -4203.8341   -3767.3333   -4203.8341            0    66.018378    18.095679     23.72797    22.038515    9462.7597    -148.1656   -1106.3291    1452.5499    219.99767    714.91783   -422.52077 
  687500    270.48495    -4186.735   -3723.1331    -4186.735            0   -297.14134    18.235036    23.546579    22.222736    9541.8365    302.91101   -408.02115   -786.31389   -372.32427   -114.12382   -186.64017 
  688000    277.71245    -4211.686   -3735.6964    -4211.686            0    925.75531    18.165272     23.32697    22.420102    9500.3108    1534.5958    1612.1152   -369.44502    373.51204    536.75109    147.59931 
  688500    274.07738   -4208.4905   -3738.7312   -4208.4905            0      307.277    18.063715    23.838718    22.026696    9485.0435    1308.8387    606.90016   -993.90789   -960.75848   -568.87598    193.51192 
  689000    265.94696   -4223.7395   -3767.9155   -4223.7395            0    1276.8043    18.173479    23.502531    22.187887    9476.9515    1830.7712    1077.2855    922.35623   -450.25977   -60.098096    134.15587 
  689500    271.59742    -4221.133   -3755.6243    -4221.133            0    411.32791    18.167835    23.648177    22.134031    9509.5806    1776.1332   -170.26552   -371.88394   -1161.0954   -432.69851    466.35099 
  690000    260.62496   -4216.3906   -3769.6883   -4216.3906            0    1811.0742    18.045489    23.446035    22.197057    9391.4678    1651.1067    328.35661    3453.7594    548.66978   -252.00331    207.47457 
  690500     260.8474   -4194.6451   -3747.5616   -4194.6451            0   -735.77162    18.337984    23.467746    22.235227    9568.9559   -1400.9705     283.0709   -1089.4153    442.13811    325.44638   -31.785992 
  691000     265.2985   -4188.1518   -3733.4393   -4188.1518            0    420.26064    18.095184    23.769876    22.116794    9512.8819   -424.67519    1159.2923    526.16479    111.83378     533.8386    435.25173 
  691500    271.12838   -4216.6089   -3751.9041   -4216.6089            0    1039.3083    18.286954    23.178408    22.224886    9420.2954    1208.2442    1519.3433    390.33748    134.23889   -1101.4785    28.689997 
  692000    279.16525   -4184.0337    -3705.554   -4184.0337            0   -1527.5983    18.148148    23.699095    22.320517    9599.9357   -1732.0905   -405.21017   -2445.4941    1238.3993   -498.58134   -485.26401 
  692500    261.27211   -4212.8335    -3765.022   -4212.8335            0    445.80143    18.172768    23.620785     22.11204     9491.705    595.45443    1139.1596   -397.20974    636.19059    300.97051   -182.92893 
  693000    277.20729   -4226.5062   -3751.3824   -4226.5062            0    122.03505    18.169959    23.383012    22.276942    9464.7676   -21.037682    424.38704   -37.244206     -95.0205   -488.09059   -271.17423 
  693500    263.08938   -4175.1231   -3724.1969   -4175.1231            0   -890.26423    17.910845     23.91738    22.234444    9524.8021    458.48712    -1896.281   -1232.9988   -26.525207   -1002.9387    379.33012 
  694000     288.8097   -4216.9143   -3721.9043   -4216.9143            0    308.40508    18.382645    23.411775    22.038632    9484.7734   -742.13551    836.06786    831.28289   -591.69127   -2.6740722    534.27001 
  694500    266.84871   -4204.1111   -3746.7415   -4204.1111            0   -1033.6168    18.091722    23.803811    22.244494    9579.6342    -839.0874   -1379.4675   -882.29563   -924.65942    175.29285    916.40992 
  695000    272.40323   -4223.6673   -3756.7775   -4223.6673            0    20.156997    18.074005    23.604498    22.276065     9503.589    929.17614     364.7938   -1233.4989   -308.15483    19.924902   -151.28831 
  695500    275.61631   -4210.1367   -3737.7397   -4210.1367            0    36.321459    18.547815    23.048408    22.256678    9514.6768     -2304.16    2516.6587   -103.53434   -33.817333    61.047241   -222.16215 
  696000    254.37625   -4209.9484   -3773.9562   -4209.9484            0   -275.85764    18.026046    23.814518     22.14623    9506.9692     1218.112   -147.43852   -1898.2464   -81.571489   -483.64514   -802.52684 
  696500    258.54147   -4210.5908   -3767.4596   -4210.5908            0   -591.75499    18.344493    23.337252    22.316608    9553.9639    -860.4434    471.91871   -1386.7403   -240.28013   -665.57049  -0.67590063 
  697000    284.72231   -4198.9661   -3710.9617   -4198.9661            0    1401.3651    18.054664    23.572618    22.147241    9425.7702    2020.4726    1348.5261    835.09666    329.48861    85.291484    1039.4736 
  697500    276.04187   -4172.2401   -3699.1138   -4172.2401            0   -75.217895     18.20705    23.713275    22.061186    9524.8904    464.23387   -789.29165      99.4041     647.4066   -733.08303    393.79783 
  698000    282.17151   -4181.1033    -3697.471   -4181.1033            0    349.38226    18.189546    23.404571    22.280086    9485.0451    588.72726   -431.82004    891.23957    222.13751   -282.17223     537.6664 
  698500    275.96155   -4202.6825   -3729.6939   -4202.6825            0    983.32493    18.064432    23.625787     22.10445    9433.8795    900.25687    213.24133    1836.4766    49.791132    413.61561   -628.82532 
  699000    268.48985   -4193.6821   -3733.4997   -4193.6821            0   -476.28591    18.335695    23.598636    22.153908    9585.9382   -450.11925   -1067.6329    88.894433   -152.80646     276.5626   -393.52737 
  699500    295.61021   -4196.2566   -3689.5908   -4196.2566            0    1142.1097    18.040599    23.650999    22.240967    9489.7356    1749.2908    1218.4049    458.63328   -310.22352    292.88903     85.22801 
  700000    278.52392   -4186.3544    -3708.974   -4186.3544            0    971.55932    18.134326    23.557078    22.190907     9479.772    1134.8158    1306.4845    473.37766   -902.79284    476.53607   -369.58971 
  700500    262.75516   -4192.5811   -3742.2277   -4192.5811            0   -574.83785    18.296796    23.681375    22.109848    9580.0485    125.55966   -1990.7587    140.68547     404.8964   -887.06617    789.95869 
  701000    269.90063   -4177.4295   -3714.8291   -4177.4295            0     305.8965    18.005896    23.610707    22.236218    9453.3261    567.41736   -594.71783    944.98996   -360.05589    734.94369    726.53948 
  701500    262.10794   -4187.5938   -3738.3498   -4187.5938            0   -1389.9824     18.41072    23.234921    22.348902     9560.226   -3368.4076    1041.9533   -1843.4929   -518.28491   -389.09814    9.1911453 
  702000    263.99253   -4240.0661   -3787.5919   -4240.0661            0   -1555.5776    18.062632    23.890469     22.05873    9518.8883   -235.09327   -2738.3909   -1693.2486   -106.54815    158.37382   -173.97571 
  702500    267.99682    -4215.824   -3756.4866    -4215.824            0    262.71487    18.126089     23.51573    22.208976    9466.5367    -187.6095    1861.2859   -885.53176    731.13681   -87.869482     510.2258 
  703000     279.5018   -4220.3067   -3741.2502   -4220.3067            0   -172.17742     18.12279    23.471026    22.299634    9485.3831   -1511.4268    1182.6064   -187.71187    837.23476    -7.971895   -98.163231 
  703500    278.91835   -4212.5399   -3734.4833   -4212.5399            0   -853.53397     18.13536     23.75218    22.095404    9517.6911   -728.44241   -1673.4406   -158.71887   -304.97577   -47.177523    -529.5402 
  704000    268.64069   -4166.6986   -3706.2576   -4166.6986            0    134.14069    18.387957    23.500876     22.04699    9527.2339   -768.93495    934.50573    236.85127    465.05418   -904.61715    269.48176 
  704500    263.46922   -4226.4406   -3774.8634   -4226.4406            0   -758.71569     17.97786    23.560868    22.414452    9494.1787    1019.7368    272.05428   -3567.9382    704.30968   -96.742655    569.80094 
  705000    269.66199   -4196.3957   -3734.2043   -4196.3957            0    530.86243     18.16034    23.577226     22.20188    9506.1888    821.39694   -524.19496    1295.3853    175.40635    1009.0205   -386.73006 
  705500    261.74991     -4169.38   -3720.7497     -4169.38            0    106.48581    18.204386    23.596012    22.125711     9504.119    290.94059   -31.884953     60.40178    108.52266   -337.05459   -665.24067 
  706000    279.54502    -4198.141   -3719.0104    -4198.141            0   -717.68055    18.191071     23.68223    22.206905    9566.8487    -1007.407   -655.46594   -490.16871    1040.8957   -895.33155    136.66894 
  706500    266.89891   -4195.2688   -3737.8132   -4195.2688            0    816.13722    18.184565    23.338854    22.316015    9471.0711   -673.18296     1468.571    1653.0236    60.252811   -572.72381     25.31406 
  707000     261.5953   -4172.7624   -3724.3971   -4172.7624            0   -329.32068     18.01278    23.981467    22.099076    9546.2014    356.83791   -2249.5061    904.70615    698.86309   -688.23059   -40.917937 
  707500    280.74607   -4208.2997   -3727.1106   -4208.2997            0   -253.87834    18.402163     23.36595    22.235572    9560.9407   -555.59853    42.020104   -248.05659   -1247.6669    315.26959     471.2226 
  708000    265.03914    -4229.088     -3774.82    -4229.088            0    810.64928    17.963672    23.651871    22.190516    9428.1832    680.14241    1487.9058    263.89963    972.26571   -579.13898   -19.423934 
  708500    262.54739   -4217.9845   -3767.9872   -4217.9845            0   -1085.4899    18.289762    23.557058    22.168855    9551.5174   -1075.6429   -698.55402   -1482.2727   -741.67578   -1099.1099    58.642737 
  709000    291.30609   -4200.5581   -3701.2695   -4200.5581            0    598.29765    18.257287    23.534252    21.958237    9434.8305   -536.02798    411.79367    1919.1273    156.71817   -417.21662     1283.055 
  709500    256.78729   -4187.3251   -3747.2005   -4187.3251            0   -315.90587    18.057346    23.639075     22.30446    9520.8583   -1469.6903    87.399248     434.5734   -748.68812    97.308436   -29.279243 
  710000    276.22898   -4217.0259   -3743.5789   -4217.0259            0    553.51231    18.281529    23.339237    22.178615    9463.1033    524.59902     666.4242     469.5137   -215.77409   -676.17285    409.83623 
  710500    250.87331   -4206.7233    -3776.735   -4206.7233            0   -769.80951     17.97233    24.004107    22.075687    9523.6662   -1363.1027   -1718.6327    772.30678    321.11431   -325.78664   -541.53215 
  711000    288.05221   -4205.2189   -3711.5073   -4205.2189            0   -67.507601    18.279885    23.355479    22.210988    9482.6586   -236.05172     189.8937   -156.36478     -269.276   -458.41166    426.93957 
  711500    258.38062    -4207.815   -3764.9595    -4207.815            0   -195.19384    18.153248    23.560155    22.257241    9519.2734   -592.64544   -242.27359     249.3375   -396.23956    184.76807    170.50115 
  712000    270.89485   -4186.4797   -3722.1752   -4186.4797            0    591.36393    18.056695    23.701088    22.168013    9487.0961    117.28223    1014.4017    642.40783   -493.36098    520.73445   -148.98186 
  712500    254.65129   -4212.5763   -3776.1127   -4212.5763            0   -471.47466    18.387664    23.415386    22.039803    9489.3312   -2043.5647    426.03656     203.1042   -416.16309   -247.58639    186.45247 
  713000    255.56323   -4214.8572   -3776.8305   -4214.8572            0    365.70787    17.914758    23.715938    22.303163      9475.84    715.17244   -211.89933     593.8505   -723.04147   -200.03309   -960.88096 
  713500    259.89467   -4199.0442   -3753.5937   -4199.0442            0   -240.05569    18.142794    23.481316    22.251934    9479.6951    1264.7831   -900.40862   -1084.5415    205.41911    1383.5447    851.32143 
  714000     265.4991   -4188.1425   -3733.0861   -4188.1425            0   -233.43159    18.272927    23.580888    22.108248    9526.2635   -1638.4794    50.886332    887.29833    332.97545    240.68441     1006.673 
  714500    259.57629   -4175.1254   -3730.2205   -4175.1254            0   -257.75087    17.990527    23.671419    22.305897    9499.2182   -371.68228   -175.43232   -226.13802    1799.9263    369.23119     -289.882 
  715000    273.30022    -4191.239   -3722.8118    -4191.239            0    182.28764    18.404362    23.177219    22.164777    9454.6501    269.44166    503.96593   -226.54466   -295.42097   -427.93842    83.035329 
  715500    283.03569   -4211.1101   -3725.9966   -4211.1101            0   -197.36028    18.058369    23.875233    22.097341    9527.2192    449.19007   -1064.0142    22.743241    1572.5743   -937.64816   -565.66153 
  716000    275.41309   -4161.6278   -3689.5792   -4161.6278            0    793.72659    18.286635    23.382341    22.238943    9509.0242    878.51391    1309.2074    193.45844    56.379783    98.342727   -5.8505614 
  716500    260.00199   -4211.3046   -3765.6701   -4211.3046            0   -14.957471    18.190572    23.631739    22.182747    9535.8053   -275.88531    869.72276   -638.70986    623.27562    439.68546    1316.5604 
  717000    280.68304   -4211.6126   -3730.5315   -4211.6126            0    1519.9672    17.902249     23.67223    22.232816    9421.9596    2197.7128    2870.6213   -508.43264   -48.696758   -459.38316    252.83033 
  717500    276.31378   -4202.8297   -3729.2373   -4202.8297            0    652.47672    18.383058    23.338153    22.155164     9505.155   -230.64546    431.43334    1756.6423   -793.88895   -313.34884    65.158746 
  718000     264.7676   -4165.5156   -3711.7129   -4165.5156            0    224.12004    17.980901    23.785493     22.22695     9506.124   -283.88865    389.04873    567.20005    60.983689   -692.04674   -616.01862 
  718500    261.88397   -4229.3902     -3780.53   -4229.3902            0   -976.57278    18.279373    23.326808    22.358504    9533.6531   -747.66122    -1038.582   -1143.4751   -597.25788   -963.76125    48.548772 
  719000    275.99159   -4214.2245   -3741.1844   -4214.2245            0   -24.603067    18.169467     23.56555    22.107769    9465.9605   -427.54257   -1770.4721    2124.2055    825.10349   -112.39322   -175.33077 
  719500    269.55803   -4206.5475   -3744.5342   -4206.5475            0    517.46736    18.103019    23.663831    22.124873    9478.0032    626.91995    649.18337    276.29875    884.66138   -580.61758    773.78368 
  720000    255.84936   -4202.8728   -3764.3557   -4202.8728            0    1151.5679     18.14057    23.362443    22.245775     9427.938    1808.7945    979.99694    665.91231    -255.2708    218.13952   -7.4993444 
  720500    255.27099   -4204.0832   -3766.5574   -4204.0832            0    147.80732    18.082706    23.742517    22.033104    9459.4494    370.42132   -570.84641    643.84704    575.69635    40.515828    592.32966 
  721000    272.73015   -4197.7079   -3730.2577   -4197.7079            0   -1037.6411     18.39627    23.492824    22.164059    9578.8705   -1603.4027   -212.79773   -1296.7228   -36.645546   -113.09777    508.13164 
  721500    275.72928   -4228.5935    -3756.003   -4228.5935            0    666.07735    17.956832    23.429769    22.400659    9424.5042    872.87477     512.3093    613.04798    550.45061   -956.58567    138.26803 
  722000     265.9882   -4221.5825   -3765.6878   -4221.5825            0    -1092.322    18.220721    23.712005    22.138538    9564.9512   -1862.1156   -653.55676   -761.29381    423.34363   -416.46919    385.97677 
  722500    266.62974   -4195.5882   -3738.5939   -4195.5882            0    522.85816     18.24103    23.533128    22.186509    9523.9691    654.37749    1019.3392   -105.14221    24.413755    330.89039    1366.3779 
  723000     272.8414   -4213.2077   -3745.5669   -4213.2077            0    82.027808    18.062558    23.662051    22.261564    9514.5291    1159.9675     307.4557   -1221.3398   -859.01591    438.28641   -705.40796 
  723500    270.93631   -4242.6855   -3778.3099   -4242.6855            0   -1265.5245    18.258922    23.570692    22.184267    9547.5634   -1405.8635   -1484.4304    -906.2796    237.42678    131.49074    -493.0985 
  724000    267.79312    -4186.263   -3727.2748    -4186.263            0   -202.09593     18.31899    23.413566    22.235453     9537.072   -1953.6129    1440.7318   -93.406667   -844.34246     265.8436   -735.63488 
  724500    255.46267   -4182.7323    -3744.878   -4182.7323            0   -859.01569    17.930633    23.985749    22.225596    9558.7765    574.55279   -2132.2522   -1019.3477    48.034496   -502.85788   -271.07889 
  725000    250.93478    -4193.784   -3763.6903    -4193.784            0    1047.8279    18.416523    23.237341    22.187408    9495.1239    1066.5819    404.37237    1672.5295   -13.610417    70.313328    48.254353 
  725500      267.686    -4243.056   -3784.2514    -4243.056            0   -864.71075    18.051117    23.720547    22.225336    9516.4969    730.40684   -1079.1643   -2245.3747    -27.62253     377.4347    525.14487 
  726000    271.29043   -4229.5166   -3764.5341   -4229.5166            0    1564.1286    18.192054    23.466531    22.060489    9417.7194    1424.8391    1713.3382    1554.2086    3.7297915   -969.80422    126.57285 
  726500    269.14838   -4222.0009   -3760.6898   -4222.0009            0   -650.22568    18.249475    23.601218      22.0181    9483.4126   -1838.0302   -495.12687    382.48005    379.95952   -587.03246     -320.626 
  727000    278.24639    -4205.443   -3728.5383    -4205.443            0    935.90694    18.060971    23.579191    22.307289    9499.8513    1495.5747    446.01001    866.13608    205.54314    161.25373   -111.85727 
  727500    270.21335   -4220.6571   -3757.5206   -4220.6571            0   -176.82831     18.30241    23.458367    22.143067    9507.0077      288.221    236.75662   -1055.4625   -134.39525   -1047.1336    801.99586 
  728000    250.12023   -4203.7939   -3775.0964   -4203.7939            0   -606.39744    18.161844    23.747903    22.070511    9519.1377    -386.3777   -636.12561   -796.68902    308.54256   -130.89927   -353.87244 
  728500    268.34115   -4237.7401   -3777.8125   -4237.7401            0    376.88767    18.041341    23.334951    22.452228    9452.2494   -1275.6035    1591.1986    815.06789    28.077256     189.4431   -35.142638 
  729000    262.33861   -4224.1386   -3774.4992   -4224.1386            0   -491.22462    18.234201    23.597647    22.222357    9561.9303   -943.07228   -1097.0523    566.45074    45.529718    27.119582    357.44239 
  729500    270.20462   -4215.3504   -3752.2289   -4215.3504            0    128.22003    18.205651    23.684506    21.880135    9434.5359    519.90291    126.47565   -261.71846    1377.3466    -428.7168   -130.14493 
  730000    258.44594   -4201.8881   -3758.9206   -4201.8881            0   -82.731505    18.120186    23.475151    22.320199    9494.4343    47.157685    330.12414   -625.47634   -224.07404   -660.59547   -207.86545 
  730500    275.80296      -4210.3   -3737.5832      -4210.3            0    785.28872    18.034061    23.532515    22.338359    9480.1049    1148.8259    702.14538    504.89484    111.70364    465.72604   -374.93422 
  731000    261.12249    -4222.552    -3774.997    -4222.552            0    191.50713    18.446663     23.67832    21.783521    9514.7371   -815.60697   -1284.3129    2674.4413    389.10136   -1198.6835   -15.598229 
  731500    279.92518   -4226.4686   -3746.6864   -4226.4686            0   -276.42552    18.114576    23.631618    22.268956    9532.8218     691.4093   -613.76559   -906.92027    -157.3223   -571.38769    133.56876 
  732000    264.24594   -4213.5374   -3760.6289   -4213.5374            0   -141.12199    18.104419    23.538105    22.353734    9525.9035    905.80791   -251.89121   -1077.2827    546.92084   -130.35699    374.67116 
  732500    271.34033   -4207.1006   -3742.0326   -4207.1006            0    2127.1496    18.169549    23.587797    21.876032    9375.6219    358.43456    3157.5439    2865.4703     373.4533    -1216.424   -280.96592 
  733000    285.49149   -4158.3105   -3668.9879   -4158.3105            0   -913.72912    18.249081    23.710148    22.274825    9638.0586    324.41779    -600.1335   -2465.4716     457.3631    384.17777   -222.27982 
  733500    253.00345   -4194.8151   -3761.1759   -4194.8151            0    972.04025    18.001526    23.465899    22.298055     9419.189    3059.8427    484.07782   -627.79983   -669.44569    738.15562    713.42535 
  734000    276.40625   -4239.5687   -3765.8178   -4239.5687            0   -604.76674    18.230726    23.588734    22.114367    9510.0567     117.2628   -194.08042   -1737.4826    544.88923   -499.51391   -435.29269 
  734500    285.32258    -4215.017   -3725.9839    -4215.017            0   -1245.9075    18.154643    23.631601    22.179859    9515.6759   -1232.6324   -765.47633   -1739.6138   -933.45865   -552.79945    110.61577 
  735000    271.14697   -4197.9251   -3733.1885   -4197.9251            0    450.00193    18.138066    23.187806    22.422595    9430.5385    410.14267    1260.7065    -320.8434    788.42941    239.69733    -523.3904 
  735500    264.99885   -4212.2728   -3758.0739   -4212.2728            0   -1202.4346      18.1912    23.873252    22.067591     9583.582   -1730.5294   -374.39022   -1502.3841    776.58573   -819.87637    439.46239 
  736000    250.74158   -4220.5384   -3790.7759   -4220.5384            0   -65.767219    18.203511    23.617169    22.066156    9486.5803   -608.44022   -165.58472    576.72328   -472.70211    -861.3756    254.67169 
  736500    264.26637   -4180.6403   -3727.6968   -4180.6403            0    -628.2203    18.166395    23.485101    22.491046    9595.5715    -833.4152   -354.73325   -696.51243    328.51873    461.40579     139.5161 
  737000    281.65114   -4214.3038   -3731.5634   -4214.3038            0    305.23921    18.206201    23.697141    21.982427    9483.9864   -603.76147    1048.7368    470.74233    203.60914   -672.86815   -834.33335 
  737500    278.52627   -4198.4979   -3721.1134   -4198.4979            0   -62.480695    18.138414    23.630527    22.173245    9503.9022   -249.21461    6.8192265    54.953301   -487.65579   -635.49145   -429.61721 
  738000     277.3801    -4205.446    -3730.026    -4205.446            0   -799.56114    18.149071    23.584897    22.333183    9559.5844   -1506.6054     1129.963   -2022.0411   -81.952544   -644.69645    691.31906 
  738500    268.31867   -4197.3437   -3737.4547   -4197.3437            0    369.82755    18.173622    23.550898    22.166278    9487.2805    41.261425     986.9091     81.31212    452.53712    813.43294    787.78839 
  739000    273.11897    -4221.419   -3753.3024    -4221.419            0    1202.0745    18.099132    23.703911    22.042143    9456.5246    582.74765    612.11463    2411.3611    -541.7027   -518.65194    719.99294 
  739500    267.97357   -4183.4791   -3724.1816   -4183.4791            0   -96.398361    18.336353    23.462937    22.322993     9603.903   -1998.0965    1509.2638    199.63758     -18.9114    348.80936    171.78139 
  740000    279.47551   -4170.4294   -3691.4179   -4170.4294            0    547.92998    18.122214    23.557741    22.287011    9514.7359    1506.3072    794.55975   -657.07701   -142.13251   -269.30757    106.69369 
  740500    270.55134   -4227.9017    -3764.186   -4227.9017            0   -759.27736    18.186677    23.945067    21.987086    9574.9629   0.19174325   -1565.5332   -712.49062    1090.7265   -738.35999    83.458414 
  741000    261.69581   -4188.7525   -3740.2148   -4188.7525            0    186.90146    18.364974    23.323667     22.23543    9524.2917   -520.91326   -468.42753    1550.0452    452.23399    -1408.339   -20.353874 
  741500    268.01885   -4198.2699   -3738.8948   -4198.2699            0    584.92218    18.050228    23.625257    22.266551    9495.3762    1378.0447   -201.91996    578.64181    -178.6076   -472.52555    97.212382 
  742000    264.53724   -4218.2611   -3764.8533   -4218.2611            0   -437.19358    18.302962    23.678743    22.154974    9601.7688   -659.65618    190.76191   -842.68647   -1254.1455    573.46717    971.17943 
  742500    263.43344    -4172.268   -3720.7522    -4172.268            0    265.67985     18.23833    23.457843    22.285018     9534.241    89.994372    358.89226    348.15292   -845.81843   -277.27332   -375.95473 
  743000    254.74443   -4215.7009   -3779.0777   -4215.7009            0    385.51653    17.891495    23.717009    22.400327    9505.1924    659.58198     624.1814   -127.21378   -633.34459    171.94297   -80.920822 
  743500    283.99401   -4231.4788   -3744.7227   -4231.4788            0    265.13711     18.38431    23.487403    21.965183    9484.5589    24.059731   -1359.7253    2131.0769    607.34837     574.0664    144.48681 
  744000    280.62466   -4205.9635   -3724.9825   -4205.9635            0    288.83397    18.029895    23.663412    22.222105    9481.0352    1169.5956   -298.64633   -4.4473177    893.13084    110.79448   -892.55484 
  744500    275.27216   -4219.5844   -3747.7773   -4219.5844            0    33.297056    18.058597    23.432441    22.385307    9472.4995    1234.9627    760.54881   -1895.6203    349.49538   -299.92202   -227.36869 
  745000    271.14671   -4201.0883   -3736.3521   -4201.0883            0    744.72817    18.264482    23.580042     22.06707    9503.7851    1559.1504    665.02471    10.009353   -1425.7432    49.600506    295.85908 
  745500    264.73624   -4155.8931   -3702.1442   -4155.8931            0    120.06012     18.06117     23.71725    22.147611    9487.1788   -594.45758     -578.604     1533.242   -1299.9438   -260.95364    241.92115 
  746000    267.53517   -4179.7004   -3721.1542   -4179.7004            0   -471.76001      18.2942    23.118559    22.489524    9511.6191    -499.9547    767.90055   -1683.2259    200.14386    916.48889   -225.85738 
  746500    259.81178   -4173.0919   -3727.7834   -4173.0919            0   -1015.1883    18.112593    23.855188    22.098593    9548.3446   -586.98586   -1244.5346   -1214.0445    810.65478     79.52952    427.02293 
  747000    284.90012   -4186.0107   -3697.7017   -4186.0107            0    707.77542    18.229574    23.605226    22.133656    9524.4044    388.60136    -73.35846    1808.0834   -965.25255    852.58999   -124.23732 
  747500    272.63428   -4224.4824   -3757.1966   -4224.4824            0   -439.15882    18.136283    23.559894    22.427664    9583.0924    80.964295    397.28758   -1795.7283   -743.11135   -429.68399    307.88765 
  748000    273.54405   -4207.8732    -3739.028   -4207.8732            0    654.08116    18.141383    23.690992    21.979864    9446.6673    2039.1329    88.472285   -165.36168   -6.5564226   -543.88706   -706.60054 
  748500    268.64497   -4191.4788   -3731.0305   -4191.4788            0    325.78456    18.303718    23.408436    22.213664    9517.6978   -1567.9411     130.8279    2414.4669    581.68185   -111.09916   -78.508617 
  749000    286.65527   -4213.5885   -3722.2712   -4213.5885            0    1613.7062    17.953357    23.633411    22.205265    9421.6731    972.53468    1990.9334    1877.6506   -1408.9085    -554.4228     309.6721 
  749500    268.90473   -4197.1087   -3736.2152   -4197.1087            0    195.09842    18.299286    23.465981    22.144623    9509.1379    -602.0073    700.16668    487.13588   -381.92028   -355.00157    -168.8156 
  750000    281.19058   -4201.9735   -3720.0224   -4201.9735            0   -648.68131    18.299997    23.680851     22.05033    9555.7198   -1565.5912   -1223.6194    843.16672   -1015.4441   -656.18652     12.40131 
  750500    272.53096   -4231.6727    -3764.564   -4231.6727            0      1169.94    17.964912    23.599487    22.250328    9433.3092    3258.6901   -117.85845    368.98851   -986.12321   -245.64664   -676.44001 
  751000    273.43888   -4236.4384   -3767.7735   -4236.4384            0   -144.50181    18.186839    23.442452    22.222261    9474.3296     33.56572    908.14423   -1375.2154    254.56519    22.836687    223.18537 
  751500    268.78837   -4211.8942   -3751.2001   -4211.8942            0   -449.10621    18.136617    23.685261    22.156452    9517.7586   -1093.3265   -642.62439    388.63224   -1081.8347    -516.4756   -56.895305 
  752000    275.11762   -4172.8572    -3701.315   -4172.8572            0   -149.59186    18.374629     23.50433    21.945356    9477.8333   -446.09864    653.11931   -655.79624    160.95791    283.48166    212.82266 
  752500    262.47865   -4225.5964    -3775.717   -4225.5964            0    333.37428    18.009068    23.455345    22.422037    9471.2681   -26.105475    3109.0393    -2082.811   -163.09305   -55.929079    1050.8535 
  753000    260.42922   -4239.1171   -3792.7504   -4239.1171            0    241.86043    18.113228    23.594801    22.132762    9459.0556    788.42519    188.84102   -251.68493   -282.67763   -298.33878   -370.52492 
  753500    272.94941   -4174.3104   -3706.4845   -4174.3104            0   -15.073443    18.370047    23.640007    21.923991    9520.8888   -1088.3997    735.16935    308.01003   -62.603381    877.91748    350.55084 
  754000    278.55125   -4196.4075   -3718.9802   -4196.4075            0    1311.2045    18.036738    23.525857     22.28257    9455.1567    2646.6335    119.05223    1167.9279    614.50313   -73.623775    308.33898 
  754500    271.44046   -4196.0995   -3730.8599   -4196.0995            0    7.1518491    18.167033    23.473107    22.306731    9512.4089    52.406056    842.04731   -872.99782    536.17859   -328.00642    817.46411 
  755000      274.337   -4245.3445   -3775.1403   -4245.3445            0   -446.92319    18.201495    23.769171     21.94662    9494.8639    358.44228   -1305.4048   -393.80708    376.77472   -709.02547    156.94645 
  755500    252.02328   -4219.4266   -3787.4673   -4219.4266            0   -255.42286    18.231339    23.520056    22.204495    9521.3343   -1298.4902    1156.7271   -624.50553   -1671.4773   -272.53341    198.35454 
  756000    276.79505   -4181.4275   -3707.0103   -4181.4275            0   -311.45046    18.083097    23.564862    22.428516    9557.3666    204.53429    358.11633    -1497.002    521.16433   -800.99606    901.56494 
  756500    273.59373   -4207.4849   -3738.5546   -4207.4849            0    606.87819    18.275764    23.655665    21.953241    9490.9429   -400.03586    1114.7441    1105.9263   -158.36763    178.13288   -233.05114 
  757000    266.38904   -4211.6356   -3755.0539   -4211.6356            0   -541.91893    18.271678    23.606395    22.112872    9537.9111    178.99124   -1595.5241   -209.22391   -944.50928    594.01234     45.75207 
  757500    276.21549   -4192.9437   -3719.5198   -4192.9437            0    1009.9539     17.83218    23.471137    22.415222    9381.7017     576.6855    2377.6885    75.487732   -1051.2411   -411.43854   -164.13597 
  758000    264.84152    -4197.985   -3744.0557    -4197.985            0   -831.18601    18.331241    23.514266    22.161962    9552.8177   -1257.7133   -533.62268   -702.22201   -1338.8283    144.50149   -1382.8538 
  758500    266.96636   -4194.4876   -3736.9164   -4194.4876            0    961.87091    18.059527     23.80839    21.918629    9424.3148    935.55866    459.85886    1490.1952   -507.77261    456.58112   -220.77506 
  759000    267.09954   -4214.6053   -3756.8058   -4214.6053            0     148.3691    18.138764    23.359739     22.35789    9473.4134    246.46667    1250.0061   -1051.3655   -1082.9765   -13.548265    -438.3614 
  759500    277.34655   -4189.2981   -3713.9356   -4189.2981            0   -1024.9475    18.179856    23.502192    22.385271    9564.4759   -1835.3075   -1300.0393    60.504213   -139.65205    376.52878    1010.2827 
  760000    264.35007   -4201.4184   -3748.3314   -4201.4184            0    1260.1419    18.141905    23.682604    22.041834    9470.2202     372.7894    2447.6529    959.98347    -360.7833     225.6377    445.18897 
  760500    262.74447     -4209.21   -3758.8749     -4209.21            0   -554.78509    18.348468    23.502316    22.184204     9566.527   -1917.2621    1008.6018   -755.69496   -1018.0917    852.17218    938.47585 
  761000     276.4444   -4172.9691   -3699.1529   -4172.9691            0   -1160.6332    17.975338    23.770504    22.458995    9596.3434   -673.77772   -1423.1603   -1384.9615   -258.51822    375.00837   -269.08649 
  761500     274.9955   -4184.3955   -3713.0627   -4184.3955            0    -169.2829    18.220499    23.693836    22.148917    9561.9871    395.43409   -1396.4682    493.18543    147.96729   -193.11676   -619.75392 
  762000    271.81501    -4237.002   -3771.1204    -4237.002            0    225.97801    18.368753    23.443399    22.013467    9479.5715    619.58065    1156.3652   -1098.0119    743.48272    280.29226    167.76417 
  762500    267.18603   -4172.9999   -3715.0522   -4172.9999            0   -529.13952    17.938494    23.749964    22.365478    9528.5564    148.52517     375.9867   -2111.9304   -430.33715    774.06985   -603.18892 
  763000    270.47331   -4204.6025   -3741.0205   -4204.6025            0    78.964399    18.253987    23.413842    22.279454    9522.1489    660.94506    375.03673    -799.0886   -568.51689    328.10368    340.55625 
  763500    268.74742   -4187.7195   -3727.0956   -4187.7195            0   -1281.1799    18.321556    23.766284    22.084057    9616.1782   -775.20348   -1673.7321   -1394.6041    -558.0735    155.11465    502.15917 
  764000    269.25677   -4222.8137   -3761.3168   -4222.8137            0    287.97074    18.079315    23.647007    22.242789    9509.2744    461.11424    779.74527    -376.9473   -185.78134   -493.72267    -537.3234 
  764500    273.30494   -4165.3202   -3696.8849   -4165.3202            0   -180.50719    18.252517    23.452874    22.389673    9584.4367   -930.05903    117.78305     270.7544   -329.95518    217.23028   -406.77873 
  765000    262.34733   -4239.2503    -3789.596   -4239.2503            0    801.68374    18.103318    23.739369    22.072261    9485.8045   -1224.2448    928.44838    2700.8477    484.47339    612.12269    1104.4497 
  765500    277.62033   -4188.3457    -3712.514   -4188.3457            0   -695.73946    18.441632    23.558167    22.108394    9605.0153   -1922.7004   -1516.4084    1351.8904    482.18337    964.04291    211.13351 
  766000     278.3642   -4189.4402   -3712.3335   -4189.4402            0    952.56607    17.995067    23.473013    22.443691    9480.1799    2232.6107    1138.4143    -513.3268   -169.72155    39.187674    51.094387 
  766500     269.2774   -4245.7978   -3784.2655   -4245.7978            0   -199.59118     18.15948    23.786819    22.102683    9547.3926   -371.17496    -1542.554    1314.9555    5.8614463    353.52619   -54.769914 
  767000    264.03253   -4203.4381   -3750.8954   -4203.4381            0    1493.8478    18.306182    23.544541    22.011359    9487.1303   -332.86512    1205.8113    3608.5972   -221.52736    96.051779    661.60835 
  767500    272.34272   -4199.6732   -3732.8871   -4199.6732            0   -1027.4088    18.039252     23.79715    22.433343    9630.2479   -542.08208   -1406.0989   -1134.0455   -350.02967   -160.95815    150.93731 
  768000    261.85595   -4214.2418   -3765.4297   -4214.2418            0    75.703185    18.210687     23.49943    22.208556    9503.9466    309.17106    748.26531   -830.32681   -417.04095   -657.32475   -360.71728 
  768500     276.5604   -4204.2053   -3730.1902   -4204.2053            0    274.65805    18.232454    23.640416    22.146036    9545.4467     198.9866     956.3999   -331.41236   -635.46216    498.76946    626.85218 
  769000    265.86785    -4190.288   -3734.5996    -4190.288            0   -438.60585    18.059269    23.732983     22.45368    9623.6545   -57.223543   -496.27678   -762.31724   -319.04378   -376.99286   -744.88098 
  769500    274.46444   -4201.0357   -3730.6131   -4201.0357            0   -807.85185    18.327048     23.36479    22.378207    9582.5189   -1133.8549    943.23483   -2232.9355   -178.78609    376.92538    112.20978 
  770000    270.31048   -4196.8468   -3733.5439   -4196.8468            0   -26.842763    18.107654    23.788915     22.06277    9503.7908    563.39414   -1698.4545    1054.5321    1010.0406   -171.20522   -255.95978 
  770500    267.40552   -4227.7486   -3769.4247   -4227.7486            0   -905.49994    18.292692    23.569235     22.29327    9611.6266   -2097.1587   -765.60501    146.26391   -198.62338    58.319514   -78.769514 
  771000    271.84176   -4194.8371   -3728.9096   -4194.8371            0   -510.81611    18.145167    23.515225    22.376862    9547.9316   -575.18364   -406.17146   -551.09323   -225.88086   -810.99645    305.61965 
  771500    247.69111   -4210.7363   -3786.2022   -4210.7363            0    1804.7137    18.183229    23.779589    21.708455    9386.5129   -183.98314    2078.5123    3519.6118   -626.91692   -72.338064   -104.62417 
  772000     266.7563   -4199.4775   -3742.2663   -4199.4775            0   -1271.1437    18.272273    23.604094    22.299237    9617.6708   -1335.2756   -1161.3378   -1316.8177    394.74035    2.9141792    249.86202 
  772500    275.22734   -4221.8943   -3750.1641   -4221.8943            0    1125.1721    18.046006    23.593711    22.132503    9423.4057    1604.7991   -478.05436    2248.7715    915.99003    498.04349    829.83404 
  773000    273.85176    -4222.692   -3753.3194    -4222.692            0     1477.309    18.313107    23.382862    21.951455    9399.8954      925.016     1799.233    1707.6781   -846.40571   -566.39523   -305.17643 
  773500    272.67139    -4205.349   -3737.9996    -4205.349            0   -1012.1575     18.12463    23.728899    22.239213    9564.5856    -581.2815   -1629.2911   -825.89994   -144.98023   -394.74256   -485.47993 
  774000    272.37345   -4222.9761   -3756.1373   -4222.9761            0    68.045986    18.084322     23.54728    22.225061    9464.2445   -93.592094    659.10057   -361.37052   -792.06116   -235.82038    817.44749 
  774500    288.17221    -4175.445   -3681.5277    -4175.445            0    224.73434    18.241706    23.553741    22.214634    9544.7491    255.66114   -500.19433    918.73619   -1141.8434   -265.46111   -359.34348 
  775000    262.72624   -4206.1569   -3755.8531   -4206.1569            0    1234.1299     18.01673    23.643256    22.133971    9428.4996    1154.2505    1472.9131     1075.226   -204.94398    348.44421     304.9609 
  775500    271.46596   -4197.7465   -3732.4631   -4197.7465            0   -1155.3255    18.274426    23.524718    22.338386    9603.2881   -1182.2972   -728.00618    -1555.673   -155.02077    111.02882    549.22454 
  776000    254.77785   -4220.5482   -3783.8677   -4220.5482            0   -1030.2218    18.330601    23.509897    22.135423    9539.2721   -1049.8663    123.02411   -2163.8233   -113.60001    71.514893   -764.27103 
  776500    269.46165   -4232.1429   -3770.2949   -4232.1429            0   -157.60895      17.9799    23.781764     22.21236     9497.866    221.00663   -878.03242    184.19894    96.647911    987.28963   -12.385569 
  777000    270.42443   -4185.4973    -3721.999   -4185.4973            0    519.70297    18.288548    23.262234    22.369013    9516.5047    838.12233      437.308    283.67859   -363.98858     -14.4614   -214.51657 
  777500    257.62037   -4170.9376   -3729.3851   -4170.9376            0     277.9026    18.161604    23.912836    21.957198    9535.9109   -435.61544    530.41956    738.90369   -668.47395   -370.80341   -367.87732 
  778000    266.96326   -4219.3106   -3761.7447   -4219.3106            0    521.25365    18.155691    23.580664    22.178678    9495.2074    433.20624    820.58088    309.97383   -71.001855    284.60903    180.75258 
  778500    260.31267   -4215.4616   -3769.2945   -4215.4616            0    -178.1985    18.251245    23.418183    22.361681    9557.6287   -1101.5347    1065.5097   -498.57052    -261.0541    171.54874   -1056.1825 
  779000    280.61639   -4170.9141   -3689.9473   -4170.9141            0    -329.2512    18.118226    23.961255    22.124904    9605.2048    1450.2686   -1406.6315   -1031.3906    1279.6853    41.624584   -338.03275 
  779500    267.07762   -4218.8202   -3761.0583   -4218.8202            0    709.96217     18.35649    23.292128    22.081943    9441.3935   -1040.2001    1556.9201    1613.1666    396.19192    108.55327    942.91879 
  780000    269.73593   -4197.9877   -3735.6696   -4197.9877            0   -172.31116    18.087311    23.649452    22.336772    9554.6658   -105.18766    222.49741   -634.24323   -329.80043    1287.7186    609.37495 
  780500    266.10486   -4189.8467   -3733.7521   -4189.8467            0    319.98502    18.199808    23.586631    22.086779    9481.2394   -164.64662   -101.67881    1226.2805    251.63739   -201.12139    770.51037 
  781000    262.12616   -4203.8545   -3754.5793   -4203.8545            0   -212.00235     18.20198    23.551966    22.217995    9524.6858    117.62192   -854.53166    100.90269   -76.451926   -680.28329    205.17862 
  781500    277.50773   -4219.0603   -3743.4215   -4219.0603            0   -781.42635    18.039437     23.70154    22.302248    9535.6036   -731.71848   -465.25256    -1147.308    525.28798    129.25949    81.270742 
  782000    277.48689   -4200.1686   -3724.5656   -4200.1686            0    910.59715    18.314795    23.400933    22.079362    9462.8455    609.41057    973.37938    1149.0015     31.42028   -349.53438    365.71851 
  782500    270.90625   -4185.5697   -3721.2457   -4185.5697            0    -225.7714    17.956669    23.966275    22.026796    9479.3302   -871.71458    655.73771   -461.33732    948.48353    568.81204   -870.04394 
  783000    274.51277   -4177.2291   -3706.7236   -4177.2291            0    -421.8201    18.374851    23.307265    22.290528     9546.309     -1097.97    1793.0595   -1960.5498    320.02117    147.69683    -596.2466 
  783500    270.94247   -4158.9935   -3694.6074   -4158.9935            0   -237.67227    18.150066    23.648598    22.173028    9517.1873    136.52031   -744.20107   -105.33606   -580.23706   -633.84886    541.53278 
  784000    263.83257   -4192.7832   -3740.5832   -4192.7832            0   -775.76491    18.185728    23.711051    22.166416    9558.2196   -1160.9072   -603.63767   -562.74988    626.97637   -290.34464    24.800291 
  784500    259.07802   -4206.0047   -3761.9538   -4206.0047            0    119.48123    18.221133    23.470061    22.199432    9493.6118    707.66878   -679.24887    330.02379   -1139.4084   -279.84341   -778.77344 
  785000    267.67591   -4204.2487   -3745.4613   -4204.2487            0    577.99466    18.047324    23.777029    22.134565    9498.2019    998.04749    611.51598     124.4205    339.51025     810.3637   -305.35139 
  785500     267.1541   -4212.5674   -3754.6744   -4212.5674            0   -479.89958    18.204357    23.624733    22.191588     9544.005   -1253.7075    7.9775022   -193.96873   -940.29687    414.28469   -1107.1398 
  786000    266.28744   -4221.6146    -3765.207   -4221.6146            0   -654.97909    18.240876    23.385606    22.267058    9498.5465   -85.106431   -653.57554   -1226.2553    179.90833   -7.6439005    456.68525 
  786500    262.12577   -4197.6812   -3748.4066   -4197.6812            0    261.56763    17.941968    23.919506    22.126919    9496.0548     383.6351    619.66316   -218.59537   -234.00338    -586.3671    176.51091 
  787000    272.08522   -4202.1023   -3735.7576   -4202.1023            0    69.411901    18.323893    23.399495     22.12858    9488.0674   -170.59265    151.82514    227.00322    134.38423    361.89668    665.02675 
  787500    262.18299   -4193.4552   -3744.0825   -4193.4552            0    335.46472    18.093472    23.602944    22.275059    9512.7691    972.07539   -331.49046    365.80923   -225.35194   -200.82654    -170.6544 
  788000    255.59918   -4187.3547   -3749.2665   -4187.3547            0   -1632.6011    18.017027    23.781514    22.404048    9599.5111   -1468.7122   -589.74661   -2839.3444    500.93083   -512.27641    486.65872 
  788500    286.73891   -4210.3831   -3718.9224   -4210.3831            0    337.11553    18.255755    23.501725    22.155766    9505.7483    133.62428    75.959219    801.76308    481.77491   -72.127335   -133.61818 
  789000    258.85243   -4204.2003   -3760.5361   -4204.2003            0   -154.71289    18.114158    23.723456    22.153555    9520.0571   -875.55154    641.36816   -229.95528   -987.31002    159.66926    73.704273 
  789500    281.87676   -4203.3323   -3720.2051   -4203.3323            0   -451.30263    18.126017     23.37138    22.452194     9511.424    1049.3007   -263.41076   -2139.7979    38.011114   -247.03994    947.44821 
  790000    257.20122   -4205.0415   -3764.2074   -4205.0415            0    998.53686    18.123094    23.446934    22.145159    9410.1643    1282.8767    1163.1106    549.62327    1386.0196   -1120.9523   -2062.2219 
  790500    268.13039   -4196.1295   -3736.5632   -4196.1295            0   -519.37199    18.243902     23.78404    22.132723    9603.6915   -1853.0386    1186.0058   -891.08319    234.37273   -610.67173   -251.66391 
  791000    277.08769   -4208.9582   -3734.0394   -4208.9582            0    750.24509    18.145304    23.452463    22.164649    9432.2121    1152.7675    81.004194    1016.9636   -417.77183    173.07686    250.71861 
  791500    264.19077   -4202.4917   -3749.6778   -4202.4917            0   -725.77027     18.07463    23.841279    22.182546    9558.9537   -113.23752   -1078.6171   -985.45621   -144.01783    249.22932     309.2147 
  792000    279.18225   -4217.2946   -3738.7858   -4217.2946            0   -46.721256     18.38074    23.288301    22.125582    9470.9932   -893.35604    1036.0422   -282.84996    1463.2195    701.58823    14.685113 
  792500    261.20688   -4183.5438   -3735.8441   -4183.5438            0     406.9291    17.941569    23.731685    22.155746    9433.5548    869.11442    1133.2512    -781.5783    671.65566   -262.72061   -300.55153 
  793000     278.4893   -4199.4033   -3722.0822   -4199.4033            0   -101.40125     18.16912    23.646046    22.145414    9514.2864    159.89328   -167.15269   -296.94434   -46.084512   -892.14446   -313.40036 
  793500    262.40979   -4212.6307   -3762.8693   -4212.6307            0    1245.2457    18.241938     23.33233    22.082925    9399.0875   -305.19553    1592.2703    2448.6624   -484.41193    226.18882   -231.59017 
  794000    263.29299   -4222.8681    -3771.593   -4222.8681            0   -287.78934    17.896272     23.97046    22.224006    9533.6955    697.08143   -574.59573   -985.85371    1362.8454   -16.925803    327.67843 
  794500    275.90607   -4194.8328   -3721.9392   -4194.8328            0   -685.03774     18.30802    23.466337    22.257375    9562.2618   -671.51907    312.34313   -1695.9373    67.549005    82.612495   -212.95558 
  795000    276.19605   -4230.8539   -3757.4633   -4230.8539            0   -696.81469    18.294065    23.519151    22.215494    9558.4579   -1061.4967   -1275.1688    246.22152    450.57074   -77.411216    391.53589 
  795500    270.77413    -4194.549   -3730.4514    -4194.549            0   -788.90587     17.98499    23.795136    22.168362    9487.0676     -96.5907    -513.9755   -1756.1514    61.015139 -0.061279214    434.85677 
  796000      268.353   -4200.9607   -3741.0128   -4200.9607            0   -2563.7091    18.524089    23.240895      22.4266    9655.0193   -3339.6394   -2036.9649    -2314.523   -416.75224    -170.8663   -201.59997 
  796500    259.25954   -4185.7002   -3741.3382   -4185.7002            0    493.14893    18.126891    23.638488     22.13707    9485.5638   -173.38143    75.894322    1576.9339   -827.70615    880.33532    1124.9131 
  797000    268.51655   -4220.6728   -3760.4446   -4220.6728            0    591.37347    18.131674    23.601271    22.120049    9465.8447   -566.56298     2037.532    303.15134   -548.51213   -191.52227    551.91281 
  797500    268.70852   -4205.9882    -3745.431   -4205.9882            0    367.36397    18.212145    23.361356    22.370767    9517.8758    1757.3096    803.05923    -1458.277    894.08072   -364.82096     881.3521 
  798000    290.82829   -4210.8655   -3712.3958   -4210.8655            0     1255.235    18.003325    23.823777    22.052621    9458.5281    1440.4471    694.91037    1630.3477   -76.343451   -106.68613   -279.66417 
  798500    257.24873   -4219.9522   -3779.0366   -4219.9522            0   -312.65791    18.356886    23.461158    22.115227     9524.449    494.94704    54.835489   -1487.7563   -222.12813    726.91806    1.3350393 
  799000    264.52672   -4184.4848    -3731.095   -4184.4848            0   -152.10329    17.850423    23.601604    22.552132    9501.1816     121.5539   -1980.2035    1402.3398    125.15151   -543.03373    93.662877 
  799500    288.79941   -4204.5637   -3709.5714   -4204.5637            0     188.0233     18.22718    23.647051    22.000416    9482.5986   -179.41376   -1312.1355    2055.6192    15.516092   -417.30256    201.63218 
  800000    273.81686    -4226.918   -3757.6053    -4226.918            0    106.25615    18.268056    23.571875     22.14742    9536.9522   -1360.6171    445.37545    1234.0101   -1905.1206    -482.9882   -55.447541 
  800500     279.0603   -4198.7116   -3720.4118   -4198.7116            0   -124.68825    17.953539    23.718377    22.378895     9529.578    264.89468   -399.98061   -238.97883    428.77382    39.243098   -638.93969 
  801000    269.19993   -4222.3856   -3760.9861   -4222.3856            0   -1027.1289     18.40442    23.239702     22.28191     9530.268   -194.61107    -1054.051   -1832.7247    534.63526   -434.93183   -39.666166 
  801500    273.08488   -4181.2497   -3713.1915   -4181.2497            0    1057.1475    18.073583    23.865731    21.981003    9481.2698    971.65353    171.31949    2028.4696    240.98764   -398.29428    86.611488 
  802000    269.29659   -4207.8126   -3746.2474   -4207.8126            0   -425.28402    18.206371    23.524559    22.310801    9555.6456   -141.21797    -371.3255   -763.30861   -252.68891    270.73311   -140.83918 
  802500    276.65533   -4213.5543   -3739.3766   -4213.5543            0    -595.4828    18.070702    23.545378    22.401786    9531.5458   -154.29042   -29.370044   -1602.7879    37.074352    385.94865   -523.45751 
  803000    269.38705   -4184.3058   -3722.5856   -4184.3058            0   -92.621652    18.205395    23.787201    21.915427    9490.5939   -1866.8014    621.63912    967.29735    108.51801   -1417.0842    578.67722 
  803500    274.57168   -4217.5755   -3746.9691   -4217.5755            0   -665.21169    18.340527    23.423608    22.151222    9516.1943   -2189.8539    770.78618   -576.56733    -621.1059   -713.32786    54.460349 
  804000    289.53683   -4192.4304   -3696.1741   -4192.4304            0    937.19382    17.898972    23.557982    22.366978     9431.342    2717.1052    698.11001   -603.63378   -289.39276   -1630.4553    -300.8897 
  804500    277.99147   -4232.9785   -3756.5107   -4232.9785            0   -686.76947    18.259914    23.604834     22.08981    9521.1994    -1180.802   -907.63139    28.124951   -965.82566   -72.892801    143.02395 
  805000    280.76158   -4217.7565   -3736.5407   -4217.7565            0   -601.88832    18.240199    23.686171     22.02521    9515.7822   -1875.6713   -602.66091    672.66722    54.737431   -554.06705   -4.2312953 
  805500    276.79814   -4169.2614   -3694.8388   -4169.2614            0    163.27302    17.948795    23.536969    22.513878    9511.2182     1875.794    654.32396   -2040.2989   -387.00094    684.97428   -126.96743 
  806000    275.03926   -4205.0118   -3733.6039   -4205.0118            0    582.03025     18.16894    23.420461    22.247318    9466.7886    2173.0609    10.159387   -437.12954    -477.2252    823.65817    66.525723 
  806500    264.25119   -4207.9168   -3754.9993   -4207.9168            0    731.07835    18.227242    23.742085    21.955373    9501.2475    2032.7738   -1995.1516    2155.6128   -604.78461    11.069514   -553.68033 
  807000    273.44847   -4211.3184   -3742.6371   -4211.3184            0   -322.74401    18.164697    23.666246    22.278229    9577.1921   -234.31048   -1261.5848    527.66329    923.04909   -158.39133    -51.00482 
  807500    265.34884   -4204.4921   -3749.6932   -4204.4921            0    1796.0517      18.0994    23.419546    22.168308    9396.6961    1674.5301    2668.7035    1044.9213     770.0628     458.1582    155.57606 
  808000    267.03188   -4207.6377   -3749.9542   -4207.6377            0   -1568.7246    18.277088    23.792631    22.148311    9631.4142   -1307.7339   -2332.6113   -1065.8287    334.54671    892.41755    315.28731 
  808500    290.04454   -4242.2096   -3745.0832   -4242.2096            0     -740.303    18.169179    23.673007    22.134701    9520.5576   -229.87162   -768.01306   -1223.0243    612.06306   -606.14859   -805.60157 
  809000    270.54465   -4203.1684   -3739.4641   -4203.1684            0    486.20375    18.181606    23.517344     22.23678    9508.0708    283.66635    915.18501    259.75989   -2008.8166   -43.984485    322.26439 
  809500    281.93301   -4159.0707   -3675.8472   -4159.0707            0   -2135.8685    18.110524        23.68    22.420449     9615.171   -291.22034   -2434.9035   -3681.4818   -516.71751    377.23268   -605.59907 
  810000    259.75782   -4188.4693   -3743.2533   -4188.4693            0    202.12561    18.310546    23.696003    21.923573    9512.3477   -1072.5451   -992.67532    2671.5972   -85.284029    1271.6125    601.29963 
  810500    259.85477   -4216.4425   -3771.0604   -4216.4425            0     598.1929    18.139404    23.480858    22.213147    9461.2184    1829.5101    159.95681   -194.88815    -97.83533   -500.20965   -239.42278 
  811000    263.75995   -4212.7432   -3760.6677   -4212.7432            0    229.89842    18.081531    23.569534    22.241797    9478.8588   -584.10573    883.58323    390.21777    1031.6045    1231.5447    89.830963 
  811500    273.00466   -4241.4301   -3773.5094   -4241.4301            0     901.0058    18.294251    23.473237     22.01623    9454.3259   -370.50963   -575.74729    3649.2743   -577.47509   -321.93757    487.03978 
  812000    258.75665   -4179.9975   -3736.4974   -4179.9975            0    -357.7683     18.06922    23.807002    22.090459    9502.7404    482.30312   -2162.0142    606.40619    219.60908    756.58293    300.64685 
  812500    263.16141   -4216.0738   -3765.0241   -4216.0738            0    746.24812    18.236905    23.157436    22.526944    9513.5778    890.46183    1394.0403   -45.757735    825.45105   -613.33272   -573.50405 
  813000    260.38369   -4191.6699   -3745.3812   -4191.6699            0    623.33906    18.130228    23.594626    22.122277    9463.3782    1568.4084   -585.89776    887.50657   -69.491696   -744.26428    270.93352 
  813500    279.49252   -4201.7998   -3722.7592   -4201.7998            0   -613.80913    18.141724    23.822065    22.175052    9583.4663   -53.042335   -1826.0136    37.628571   -1282.1261   -118.65526    241.19921 
  814000    279.94561   -4201.8575   -3722.0404   -4201.8575            0    913.98551    18.223558    23.445993    22.135043    9457.6266    761.15681    1411.1485    569.65125   -720.09164   -667.82746   -97.924905 
  814500     274.9107   -4222.2156   -3751.0281   -4222.2156            0    690.81691    18.024229    23.583012    22.214852    9442.7694    1035.0799    289.00503    748.36581   -305.86171    559.33321    1256.3654 
  815000     266.0554   -4259.6482   -3803.6383   -4259.6482            0    786.55307    18.230271    23.528485    22.038343    9452.9208   -225.15228    865.19841    1719.6131    -653.6704   -426.88012   -799.30585 
  815500    275.75175   -4232.6712   -3760.0421   -4232.6712            0     808.9747    18.203168    23.673515    22.009101    9484.4473   -810.68328    818.73396    2418.8734   -357.73265   -165.32144   -26.303776 
  816000    283.13561    -4223.181   -3737.8963    -4223.181            0   -332.51308     17.98778    23.502042    22.533916    9526.2032    180.48644    228.45617   -1406.4819   -418.57563      391.859    365.94932 
  816500    276.68961   -4194.9663   -3720.7298   -4194.9663            0   -328.20465    18.293508    23.458983    22.158455    9509.2363   -624.52057    649.99408   -1010.0875   -330.33968    166.08279   -684.97823 
  817000    251.50134   -4226.0868   -3795.0221   -4226.0868            0   -1562.2328    18.141747    23.818551    22.056647    9530.9004   -1744.5417   -3043.5235    101.36688    163.67192   -330.32824    490.22235 
  817500    265.12861   -4189.7885   -3735.3671   -4189.7885            0    532.57603    18.206875    23.304502    22.314319    9468.0134   -474.70305    1261.5726    810.85855   -127.91487   -713.08526    986.02159 
  818000    276.19962   -4198.3443   -3724.9476   -4198.3443            0   -258.94895    18.070126    23.636846     22.30123     9525.319    245.55856    959.66613   -1982.0715    360.69164   -245.53124    198.12671 
  818500    282.27257     -4213.86   -3730.0545     -4213.86            0   -1228.6094    18.269259    23.833833    21.945704    9555.7405   -2766.7224   -792.02132   -127.08463   -263.48055    76.327144    400.16059 
  819000    263.32232   -4221.8819   -3770.5565   -4221.8819            0   -430.09591    18.168847    23.465041    22.161001    9447.9599   -498.39861    221.44066   -1013.3298   -838.64828    84.596523   -627.52287 
  819500    267.84219   -4228.3777   -3769.3054   -4228.3777            0    191.78034    18.078378    23.691533    22.211966    9513.4853    1184.8347    471.74957   -1081.2433   -1093.2332    247.07071    -5.780863 
  820000    273.73125   -4182.7277   -3713.5617   -4182.7277            0    126.22079    18.382003    23.523269    22.027004    9524.5825   -913.16248    520.77256     771.0523     -307.195    195.77623    409.40148 
  820500    268.74028   -4199.5444   -3738.9327   -4199.5444            0   -93.550859    17.873705    23.650953    22.268724    9413.6606      207.018   -275.32912   -212.34145   -116.61631    317.05254   -453.22973 
  821000    264.53529   -4213.8442   -3760.4398   -4213.8442            0   -1007.0804    18.265305    23.506024    22.285544    9568.1798     83.50932   -1240.8744   -1863.8761    -696.2587   -270.89488     343.1418 
  821500    255.25379   -4184.0588   -3746.5625   -4184.0588            0    578.69943    18.217496    23.496546    22.033063    9431.2138    4.4496169    1780.5062   -48.857487    301.28264   -517.08397    169.87823 
  822000    278.09046   -4211.7321   -3735.0945   -4211.7321            0    -1055.209    17.969318    23.741934    22.366769    9542.2531   -877.57608   -456.57749   -1831.4734   -385.98888    -331.0091    562.69556 
  822500    276.36034   -4223.9712   -3750.2991   -4223.9712            0    657.04188    18.321146    23.134205    22.291211     9448.022   -1088.7273    1696.7341    1363.1189   -941.95463    176.86293    689.70247 
  823000    247.98926    -4211.979   -3786.9339    -4211.979            0   -1686.2885    18.133357    23.762197     22.06585    9507.9188   -2184.9894   -2143.0367   -730.83946   -700.95181    503.45228   -1303.8134 
  823500    282.27598   -4233.0845   -3749.2731   -4233.0845            0    307.11599    18.140588    23.548542    22.269767    9513.2969    1454.8469   -554.33421    20.835268   -662.64507   -371.14446   -287.37843 
  824000    275.19628    -4218.439    -3746.762    -4218.439            0    1359.4179    18.063711    23.416102    22.231789    9403.6401    712.24596    2408.9349    957.07295    -18.17577    879.58098    369.10177 
  824500    281.64558   -4187.0234   -3704.2925   -4187.0234            0   -1059.2784    18.132096    23.905357    22.118328     9587.283    816.48492   -3640.3756   -353.94464    -1090.796   -614.01232    187.00349 
  825000     257.2772   -4178.5136   -3737.5493   -4178.5136            0    204.80358    18.372249    23.314602    22.133897    9480.8699   -759.81935    1165.9955    208.23457    431.69117    631.19608    356.51134 
  825500    278.08659    -4174.367   -3697.7361    -4174.367            0    500.29974    17.857571    23.762594    22.422127    9514.6548    1080.9895    488.05826   -68.148504    1392.1093   -782.56337   -27.834532 
  826000    260.79688   -4210.7399    -3763.743   -4210.7399            0    22.430315    18.232591    23.544935     22.07071    9474.6282    1113.1132   -1272.9507    227.12842    166.29356    417.08799   -90.925668 
  826500    275.89881   -4215.1341    -3742.253   -4215.1341            0    1471.2373    18.175398    23.536003    22.040912    9428.5782    2281.1708    726.07603    1406.4651   -380.33084   -15.087036    115.44199 
  827000    269.38944   -4204.4358   -3742.7115   -4204.4358            0   -559.08122    18.045383    23.651877    22.348245    9538.3915    17.726916   -1204.2061   -490.76449   -492.97429     196.0067   -26.620812 
  827500    269.77578   -4215.1925   -3752.8061   -4215.1925            0    949.61042    18.220586    23.289891    22.202539    9421.7687    2781.4926   -307.65001    374.98872    -346.0112   -6.3396459    214.25259 
  828000    273.92811   -4204.0343   -3734.5309   -4204.0343            0    715.12452    18.039987    23.858452     21.95437    9449.2965    24.347912    1304.1995    816.82611   -207.66682   -74.032604    268.16565 
  828500    271.70329   -4205.0584   -3739.3682   -4205.0584            0    290.83608    18.207812    23.566732    22.185726    9519.8647    281.46602   -377.48921    968.53143   -42.483735    547.29465    187.62494 
  829000    267.90852    -4219.663    -3760.477    -4219.663            0    45.928507    18.162313    23.577787    22.219834    9515.1362     69.45392   -434.95435    503.28596   -823.35449    668.80846   -27.960478 
  829500    284.18077   -4187.9623   -3700.8862   -4187.9623            0   -285.23982    18.200357    23.747362    22.163732    9579.3964    55.169671   -61.930723   -848.95841    458.37203   -868.64995    810.27289 
  830000    257.06232   -4197.2559   -3756.6599   -4197.2559            0    49.486199    18.327432    23.524199    22.013018    9490.6519   -1246.5012   -281.39063    1676.3505   -379.85914    767.45226   -3.1903216 
  830500    268.53115    -4192.939   -3732.6858    -4192.939            0    739.86826    17.909549    23.755292    22.287682    9482.2175    1960.4294   -429.07965    688.25499   -1171.9479   -55.781389     135.5071 
  831000     263.1254   -4204.8224   -3753.8344   -4204.8224            0   -252.22014    18.269803    23.370719    22.219318    9487.1696   -561.20547    661.84932   -857.30426   -915.43682   -76.803451    388.07081 
  831500    273.49312   -4193.3817   -3724.6239   -4193.3817            0   -2208.8743    18.275299    23.737548    22.031996    9557.7178   -1968.2835   -3449.7829   -1208.5564    40.584851   -35.325089   -115.67113 
  832000    270.44627   -4216.4243   -3752.8886   -4216.4243            0   -656.39347    18.109052    23.653643     22.27307    9540.5587    535.13465   -403.08912   -2101.2259    352.33499    14.263063   -591.67179 
  832500    275.83021   -4216.8853   -3744.1218   -4216.8853            0    141.66066    18.244482    23.358724    22.186166    9455.0298   -620.60555    697.95339    347.63414    1022.3475    40.284867    -353.9108 
  833000    274.27775   -4201.2685   -3731.1658   -4201.2685            0     272.6842    18.043071    23.751984     22.20484    9516.0779    496.91467    609.19445   -288.05652    253.02333   -426.48289   -44.940621 
  833500    264.09777   -4204.1675    -3751.513   -4204.1675            0   -16.380861    18.246583     23.48664    22.111998    9476.1176    241.06443   -30.265094   -259.94192    550.19807    493.38549   -54.171443 
  834000    261.67102   -4214.8493   -3766.3541   -4214.8493            0   0.51736539    18.240888    23.423784      22.2712    9515.8296    683.55164    157.49389   -839.49343    424.74918    487.14451   -652.47055 
  834500    256.65739   -4218.0927   -3778.1907   -4218.0927            0   -267.86774    18.007079    23.865835    22.198134    9539.7367   -439.51929   -1834.9533    1470.8693    38.029302    838.20581    684.44471 
  835000    270.38048   -4192.5312   -3729.1083   -4192.5312            0    167.36014    18.525072    23.298345    22.177222    9571.7671    715.56183   -667.77134    454.28992   -178.33287   -148.67677   -372.38779 
  835500    283.48545   -4213.2201   -3727.3358   -4213.2201            0    1116.2831     17.93459    23.705802    22.240552    9455.6562     1889.499    148.51835     1310.832    568.98355    297.12595    211.05017 
  836000    259.13549   -4193.4828   -3749.3334   -4193.4828            0    931.33419    18.159546    23.557462    22.158909    9479.4218     793.4608    1166.6597     833.8821   -636.08205   -375.13067    697.03121 
  836500    274.58587   -4204.4099   -3733.7791   -4204.4099            0   -1500.6701    18.362161    23.508128    22.350778    9647.9375    -621.6335   -1354.2075   -2526.1692    378.75737    72.325789    174.57502 
  837000    263.89908   -4196.9611   -3744.6471   -4196.9611            0    529.38253    17.961706    23.783676    22.105166    9443.2254    927.08562   -1106.3476    1767.4096   -305.10864   -82.675033    876.44951 
  837500    270.14777   -4188.6058   -3725.5818   -4188.6058            0   -6.3186462    18.330006    23.355906      22.2334    9518.4277   -494.67817    983.83646   -508.11423   -328.62626   -428.11771    731.78722 
  838000    269.99287   -4203.1731   -3740.4146   -4203.1731            0    -705.4031    18.091215    23.750918     22.20305    9540.2727   -1246.0809   -337.33488   -532.79347    1404.3116    185.51744    1205.5727 
  838500    269.76942    -4204.777   -3742.4015    -4204.777            0    281.10504    18.132763    23.620823    22.093571    9462.9148    126.07857    648.75062    68.485934   -616.09528    986.77096   -98.278315 
  839000    267.91031   -4231.0287   -3771.8396   -4231.0287            0   -21.376685    18.201386    23.368056    22.333492    9499.1266    1216.0588    1282.1052   -2562.2941    477.38822    8.6067354    1.5721767 
  839500    277.76785   -4199.0817   -3722.9972   -4199.0817            0     559.1771    17.921732    23.988486    22.079174    9492.1733    600.29392   -390.89488    1468.1323    1776.5789    -436.5627    202.48331 
  840000    270.60393   -4205.4085   -3741.6026   -4205.4085            0   -186.54267    18.466953    23.268157    22.119189    9504.4376    561.34819   -308.29505   -812.68114   -458.76369    292.52639   -117.08373 
  840500     279.7537    -4219.057   -3739.5688    -4219.057            0   -144.89122    17.944503    23.675725    22.344856    9493.1923    281.95362   -328.14719    -388.4801   -270.35943    273.90705   -98.838529 
  841000    288.58363   -4191.8877   -3697.2652   -4191.8877            0    1702.0557    18.070716    23.551327    22.124875    9416.1109    2245.8538   -1326.4733    4186.7866   -733.80828   -8.9971102    639.99437 
  841500    271.05636   -4176.8193    -3712.238   -4176.8193            0   -528.04836    18.352404    23.412153    22.201155    9539.1544   -2059.4249    179.74249    295.53735   -203.20486   -261.88872    337.35736 
  842000    271.76156   -4176.5081   -3710.7181   -4176.5081            0    947.57746    17.923052     23.77967    22.032938    9390.5319    817.06657   -150.59117     2176.257    1094.0078    68.511519    140.36172 
  842500    278.56975   -4229.4262   -3751.9671   -4229.4262            0     884.9008    18.347548    23.193289    22.242793    9465.1975    238.56481    1338.2221    1077.9155    84.244833    159.07711    139.09287 
  843000     260.6388   -4228.4211   -3781.6952   -4228.4211            0    1228.7814    17.936484    23.695627    22.106533    9395.6355    672.28831    1038.1389     1975.917    728.04436   -298.68875   -224.42399 
  843500    269.71349   -4214.8524   -3752.5727   -4214.8524            0   -109.38022    18.257712    23.582738    22.058152    9497.5089   -194.74276   -577.01092    443.61302    715.99571   -328.99679    287.12057 
  844000    260.87587   -4200.1926   -3753.0602   -4200.1926            0   -289.41931      18.2959    23.298645    22.302446    9506.8568   -407.23085    57.528218   -518.55531    782.03444    37.570932   -363.66671 
  844500    282.30839   -4198.4719    -3714.605   -4198.4719            0    38.775426    17.955136    23.910329    22.185003    9524.3153   -34.380658    160.99141   -10.284471    595.28542   -192.08695   -113.79899 
  845000    283.51358   -4206.7847   -3720.8521   -4206.7847            0    -1034.777    18.370876    23.327727    22.218376     9521.702   -258.02414   -1704.7143   -1141.5926    343.95995    83.981698    2.5926302 
  845500    273.45844   -4187.6596   -3718.9612   -4187.6596            0   -747.30166    18.012566    23.814509    22.341169    9583.4772   -658.78074   -501.98401   -1081.1402      55.6848    -366.2265   -405.24913 
  846000    262.21937   -4188.6209   -3739.1859   -4188.6209            0    190.44213    18.277841    23.547535    22.030609    9481.9322   -281.68614    1420.5448   -567.53225    -813.7958   -729.96182    770.82812 
  846500    268.86619   -4226.4455   -3765.6181   -4226.4455            0   -1354.4652    18.305254    23.628579    22.237802    9618.4532   -2199.7257   -162.55602   -1701.1138    463.01629   -126.70562    300.89026 
  847000    262.73816   -4197.3655   -3747.0413   -4197.3655            0    109.59325    17.911085    23.790716    22.343005    9520.7459    1257.4813   -2389.9067    1461.2051    82.478962   -593.38438    228.83783 
  847500    266.09991   -4221.1934   -3765.1072   -4221.1934            0   -245.96079    18.528719    23.317842    22.070694    9535.6379   -1305.7467    607.03075    -39.16639    366.59598   -308.42077    675.82324 
  848000    261.29893   -4204.1115   -3756.2541   -4204.1115            0    337.25284    17.974479    23.938629    22.069755    9496.2707    1625.0932   -204.15543   -409.17922    328.97256    251.60932    -61.54244 
  848500     276.5203   -4221.4977   -3747.5514   -4221.4977            0    713.14329     18.16245    23.482759    22.243758    9487.0612    290.07565    474.32333    1375.0309       -245.7   -1070.1819   -451.91044 
  849000    269.82015   -4216.6649   -3754.2024   -4216.6649            0    66.518143    18.301367    23.416557    22.225758    9524.9599   -592.16267    807.30569    -15.58859   -171.50092   -324.13282    137.76086 
  849500    271.70752   -4166.5505   -3700.8531   -4166.5505            0    1147.2776    17.985996    23.939474    21.868789    9416.1603    1179.5067    381.80113    1880.5249   -574.29715   -283.39935   -637.28109 
  850000    265.32049   -4168.0044   -3713.2542   -4168.0044            0   -413.53497    18.349353    23.284667    22.399954    9570.5723    -855.5187    1047.1845   -1432.2707   -164.97889   -75.749119    62.938745 
  850500      265.871   -4174.9533   -3719.2595   -4174.9533            0    300.16376    18.068217    23.657617    22.224029    9499.6828   -589.56227    1332.6569    157.39662   -290.78969   -7.5833623   -900.46854 
  851000    282.78985   -4193.1554   -3708.4633   -4193.1554            0   -725.82131    18.352837    23.816191    21.994874    9613.8422   -768.44314   -1489.5504    80.529591    585.02955     486.4971   -153.80317 
  851500    272.74625   -4244.9227    -3777.445   -4244.9227            0     1098.424    18.143905    23.413009    22.215351    9437.1572    1487.4508    2091.1445   -283.32321   -461.38646   -145.11751   -437.78226 
  852000    265.79035   -4240.0738   -3784.5182   -4240.0738            0   -784.67905    17.982399    23.745211    22.319983    9530.5402   -132.21095   -1707.5498   -514.27643   -1138.1942   -69.243409    255.37831 
  852500    261.28495   -4212.3818   -3764.5484   -4212.3818            0    275.43347    18.334089    23.528228    22.023997    9500.4613   -355.78782    738.69798    443.39025   -382.65069   -162.35473   -103.83388 
  853000    261.97729   -4220.8715   -3771.8514   -4220.8715            0   -11.604773    18.033606    23.678025    22.313756    9527.9779      610.241   -429.49907   -215.55625    134.45526    421.71643   -438.24724 
  853500    268.73466    -4230.876    -3770.274    -4230.876            0   -483.30277    18.115717    23.563829    22.423884      9572.21    168.13932    -1746.408    128.36035   -290.89937    214.37909    448.40532 
  854000    286.29068   -4216.6581   -3725.9657   -4216.6581            0    785.98179    18.259162    23.577045    22.071192    9501.5837    580.71035    1351.0162    426.21886    -1516.038    190.93141   -185.23713 
  854500     260.6316    -4198.094   -3751.3803    -4198.094            0    318.50386    17.948673    23.627364    22.314665    9463.1991    1399.1884   -1033.9844    590.30754   -421.81995    617.78609    756.45626 
  855000    263.68674   -4192.4749   -3740.5249   -4192.4749            0   -1526.8752    18.313378    23.549695    22.241971     9592.394   -1756.2356    -1053.493   -1770.8969    228.36121    374.70188   -370.13913 
  855500    282.99014   -4223.3414    -3738.306   -4223.3414            0    69.607746    18.169715    23.748405    22.083546    9529.0885   -601.92493   -1755.0086    2565.7568   -141.65476    657.61631   -122.16012 
  856000    271.59962   -4226.5642   -3761.0518   -4226.5642            0    1648.5233    18.059982    23.364365    22.327142    9421.1611    1366.3283    1494.5911    2084.6504    519.26777    143.99086    184.70629 
  856500    279.70951   -4185.0021   -3705.5896   -4185.0021            0    100.46559    18.283722    23.532083    22.242837    9570.0711   -551.41508   -8.2481431       861.06   -1104.8402    195.08011    106.47047 
  857000    283.18651   -4215.2681   -3729.8961   -4215.2681            0    -39.46683    18.164795     23.87954    21.957941    9524.6288    367.88653   -1335.5531    849.26605   -683.72085   -41.878062    655.40718 
  857500    266.17029   -4221.7258   -3765.5191   -4221.7258            0   -33.893259    18.205327    23.438113    22.299955    9515.3577     659.8996    -436.2588   -325.32058    508.47531   -497.68914    365.95527 
  858000    266.92154   -4187.2358   -3729.7415   -4187.2358            0    892.67135    18.125517    23.558921    22.297993    9521.6363    2252.4283   -1419.5076    1845.0933   -584.42318    259.16881   -172.53275 
  858500    258.22869   -4215.9378   -3773.3427   -4215.9378            0    511.84531    18.206347    23.699205    21.921038    9458.4007    1122.3851    982.37744   -569.22657   -713.67834   -138.96496   -637.51143 
  859000    278.04907   -4232.0474   -3755.4808   -4232.0474            0   -1078.9658     18.26645    23.581768    22.306872    9608.8006   -847.28954   -1912.3867   -477.22104   -6.4113175   -915.02548   -262.83651 
  859500    252.03017   -4196.4572   -3764.4861   -4196.4572            0    549.80708    17.992969    23.563911    22.321363    9463.9168     1.712049    2979.0668   -1331.3576    1016.6362    570.25471    77.365898 
  860000     280.4832   -4221.7864   -3741.0478   -4221.7864            0   -1238.9174     18.25095    23.764644    22.111262    9590.2585   -1958.6037   -2907.9467    1149.7983     487.6868   -311.92851    469.31552 
  860500    269.13372   -4193.8145   -3732.5285   -4193.8145            0   -1036.8349    18.367502    23.646468    22.094883    9596.3942   -1607.0514   -1960.3771    456.92382    869.70887    163.47907    111.36594 
  861000    283.13218   -4210.7487   -3725.4698   -4210.7487            0    1220.5301    17.914293    23.472888    22.410775    9423.7356    2962.9971    873.76999   -175.17667   -933.46527   -419.83956    686.68886 
  861500    268.36652   -4182.0541   -3722.0831   -4182.0541            0    -651.8646    18.293069    23.490599    22.169043    9526.3738   -856.09404   -2094.2672     994.7674   -1637.1699   -762.80347   -909.37046 
  862000    271.15345   -4205.4845   -3740.7367   -4205.4845            0   -42.177198    18.185037    23.694242    21.921299    9445.4642   -741.38682   -1461.9107    2076.7659   -333.90852     -331.093    307.45695 
  862500     280.9669   -4205.3354   -3723.7678   -4205.3354            0   -1317.6185    18.162181    23.564654    22.332375     9557.933   -2332.9786   -1024.2358   -595.64103    874.84635   -628.00678   -226.67898 
  863000    271.17903   -4218.9763   -3754.1847   -4218.9763            0   -727.42854    18.236064    23.536548    22.253983    9551.7211   -621.56666   -474.26469   -1086.4543   -362.39462    346.97003    742.72649 
  863500    275.72357    -4185.568   -3712.9872    -4185.568            0     1662.651    18.062935    23.774304    21.914282    9410.7314    2804.6999   -8.3550515    2191.6082    189.24577   -237.46308    484.52437 
  864000    271.63727   -4188.8756   -3723.2986   -4188.8756            0   -1071.9729    18.313441    23.316256    22.303491    9523.6104    -669.9779    185.44604   -2731.3868   -114.93505   -801.13301    1270.3132 
  864500    271.04843     -4173.61   -3709.0423     -4173.61            0    519.68009    17.921859    23.800276    22.191082    9465.4996    2354.3989   -1358.8158    563.45712   -600.00559   -124.24869      411.041 
  865000    267.31173   -4199.0406   -3740.8775   -4199.0406            0    488.46934    18.313922    23.454861    22.023456    9460.1866    339.27253    485.41394    640.72156    487.08144   -506.85394    483.51606 
  865500    283.70425   -4209.0098   -3722.7504   -4209.0098            0   -1817.0185    18.105469    23.768837    22.364471    9624.4593   -1053.6096   -2291.1551   -2106.2909   -244.73322    -1180.958   -427.75784 
  866000    261.35969   -4201.9763   -3754.0147   -4201.9763            0    941.53472     18.08789    23.512831    22.313542    9489.8932    179.13474    1493.0816    1152.3878    780.50169   -128.47197    16.934237 
  866500    274.91932   -4209.2212   -3738.0189   -4209.2212            0    410.34194    18.216339    23.469508    22.096767    9446.9982     639.1613    248.09592    343.76859   -806.10885   -208.23704   -451.94886 
  867000    275.73766    -4202.618   -3730.0131    -4202.618            0    642.09785    17.983469    23.784956     22.12304     9462.821    1082.0337    587.79186    256.46799    687.48133   -155.11005   -9.8719487 
  867500      273.829   -4201.8336   -3732.5001   -4201.8336            0   -851.40945    18.407805    23.222796    22.241735    9507.9125   -630.01036   -644.17794   -1280.0401    13.794603    630.12812   -389.91807 
  868000    266.23631   -4203.4054   -3747.0855   -4203.4054            0    771.98022    17.917444    23.717592    22.126824    9402.9846    899.76901   -607.65399    2023.8257   -855.06835    599.13889   -26.106256 
  868500    263.57608   -4210.9572   -3759.1968   -4210.9572            0    8.4673675    18.197485    23.612634    22.100354    9496.3131    1514.4675    425.91743   -1914.9828   -686.56018    418.86279   -394.93372 
  869000    275.84398    -4226.074   -3753.2869    -4226.074            0   -795.70892    18.258855    23.402884    22.248767    9507.1175   -871.26369   -1410.8419   -105.02113    -946.0631   -619.87845    82.962626 
  869500    251.28131   -4201.1792   -3770.4917   -4201.1792            0   -174.40627    17.831549    23.809087    22.259047    9450.1432    1024.4053   -1412.7931   -134.83099   -475.78008    258.92263   -380.70409 
  870000    273.35047   -4195.2839   -3726.7705   -4195.2839            0   -348.50792    18.429002      23.4162    22.057882    9518.7963   -228.47951   -762.49816   -54.546095   -111.81004   -585.61637    1137.6921 
  870500    277.00307   -4230.2115   -3755.4377   -4230.2115            0   -223.43338     18.13363    23.494547    22.223086    9467.9553   -287.85137    208.99184    -591.4406   -617.08131   -892.21177   -308.83777 
  871000    262.38376   -4211.7935   -3762.0767   -4211.7935            0    354.19732    18.107063    23.564496    22.272342    9503.2479    2354.6318   -355.83505    -936.2048    1431.5835    64.458085    536.40224 
  871500    264.57692   -4187.3184   -3733.8426   -4187.3184            0    2150.2379    18.192272    23.507161    21.960248     9391.271    2253.3091    2238.4157    1958.9888   -315.85573   -504.76832    28.587593 
  872000    274.79959   -4207.1193   -3736.1223   -4207.1193            0   -1169.6892    18.134283    23.659319    22.262178    9551.4714   -783.10871   -361.55183    -2364.407    1128.6501   -266.58735   -480.11193 
  872500    283.36674   -4195.6402   -3709.9593   -4195.6402            0    366.52005     18.12989    23.461503    22.302399    9486.4252    1563.7031    991.74579   -1455.8887    1679.4719   -363.30173    337.85083 
  873000    267.24816   -4201.7805   -3743.7263   -4201.7805            0   -291.31866    18.137413    23.762524    22.134328    9539.6898   -218.57234   -1537.4794    882.09574   -875.16975    257.68093    248.07167 
  873500    261.14531   -4232.2215   -3784.6274   -4232.2215            0   -729.08744     18.29503    23.505404    22.166707    9532.3951   -2153.7969   -240.00995    206.54456    24.181648    -65.88254   -206.67787 
  874000    273.29208   -4216.8909   -3748.4777   -4216.8909            0   -573.21797    17.974799    23.612347    22.485097    9543.2869   -222.35134    1078.6477   -2575.9503    149.89346     944.8816   -317.78482 
  874500    274.49406   -4238.2201   -3767.7467   -4238.2201            0    1078.5751    18.074491     23.62928    22.095864    9436.8606    780.97184    1304.6496    1150.1038    314.18857    450.51891     908.7314 
  875000    262.77246   -4217.8744   -3767.4914   -4217.8744            0    677.07567    18.325848    23.378867    22.060878    9451.7091   -738.54473    1301.8628    1467.9089   -274.55722   -448.76446   -110.22875 
  875500    276.91301   -4215.7613   -3741.1419   -4215.7613            0   -313.60597    18.035734    23.702342      22.3318    9546.6018    366.26523   -90.948881   -1216.1343    540.87207    344.93047   -451.84165 
  876000    268.06112   -4242.0794   -3782.6318   -4242.0794            0   -1284.1643    18.237042    23.387218    22.363105    9538.1701   -2289.0169    723.03114   -2286.5072    695.00619    237.60422   -362.95337 
  876500    260.43647   -4179.4199   -3733.0407   -4179.4199            0    386.01373    18.293106    23.647294    21.899284    9473.2456    1464.1566   -652.55199     346.4366   -753.42503   -779.28562   -156.74534 
  877000      270.384   -4190.0559   -3726.6269   -4190.0559            0   -1006.8963    18.069371     23.63164    22.398215    9564.2363   -1673.9994    -1183.214    -163.4754    10.813367    666.82077    75.473314 
  877500    284.25556   -4219.7402   -3732.5359   -4219.7402            0    507.87504     18.16718    23.461292    22.098168    9418.8031    1213.3462   -281.80457    592.08349   -292.55189    316.72816    436.64045 
  878000    274.04586    -4176.177   -3706.4717    -4176.177            0    509.51517    18.169632    23.767125    22.037789    9516.7972    921.26712     265.9234    341.35497   -669.36116   -860.40379   -768.41077 
  878500    278.37721    -4196.186    -3719.057    -4196.186            0    303.25071    18.079415    23.454242    22.454099     9521.413    815.47959    1869.8965    -1775.624     295.0901   -608.97247   -405.70579 
  879000    274.98142   -4196.1826   -3724.8738   -4196.1826            0    77.705102    18.163434    23.493517    22.226789    9484.6807    342.42198    1000.2593    -1109.566    -343.9987    401.53035    145.00304 
  879500    263.86309   -4178.9499   -3726.6976   -4178.9499            0    654.96972    18.176815    23.893311    21.762439    9451.5207    346.93776   -109.14365    1727.1151   -289.85816   -186.38823    537.04085 
  880000    282.85681   -4201.4296   -3716.6227   -4201.4296            0   -96.928282    18.196774    23.247396    22.558159     9542.724    884.75866   -40.912006   -1134.6315   -20.563698    806.90911    -442.8113 
  880500    276.11838   -4197.9435    -3724.686   -4197.9435            0    623.55174    18.013485    23.692088    22.204283    9476.2789    2544.7037   -250.65995   -423.38852    323.13074   -25.521352   -436.54259 
  881000    271.96842   -4194.0201   -3727.8755   -4194.0201            0   -977.74458    18.396658    23.639267    22.091754    9607.3393   -927.53998   -522.71177    -1482.982    215.02414   -950.09384    643.03152 
  881500    263.70388   -4167.6147   -3715.6353   -4167.6147            0    143.15859    18.155079    23.755167      22.1709    9561.7973    1830.9271   -2056.3772    654.92587   -102.86102    479.44701   -798.07484 
  882000    275.84364   -4204.9196    -3732.133   -4204.9196            0    387.57679    17.966173    23.449283    22.598811    9520.7403    1105.5538    30.408217    26.768343    284.76051    545.51026    390.13564 
  882500    273.45454   -4231.3484   -3762.6567   -4231.3484            0   -826.86329     18.25084    23.634795    22.120047      9541.59   -583.77893    284.47473   -2181.2857   -224.57264    690.56934   -47.255164 
  883000    280.86387   -4207.4165   -3726.0255   -4207.4165            0   -230.17646    18.140086    23.725383     22.11922    9519.6807    242.72373   -1203.1423    269.88914   -501.33632    81.841006    308.39099 
  883500    289.18204   -4205.2267   -3709.5786   -4205.2267            0    584.60344    18.152845     23.40593    22.244058    9451.1494    374.21369    366.88712    1012.7095   -1161.4469   -266.26166    103.64903 
  884000    287.10298   -4216.0949   -3724.0102   -4216.0949            0   -445.27131    18.193098     23.67104    22.140784    9534.9185   -941.23617    -285.1934   -109.38437     622.0044    630.00586   -274.72601 
  884500    248.34869    -4227.665   -3802.0038    -4227.665            0   -47.793404    18.259747    23.608601    21.880553    9432.4233    270.11942   -1178.4058    764.90619    42.350541   -558.25535   -399.34485 
  885000    262.41782   -4211.3539   -3761.5787   -4211.3539            0    1061.9779     18.02044    23.422279    22.355799    9435.9305    1260.9624     2135.769   -210.79765   -217.95176    -558.9755    76.556286 
  885500    261.03771   -4198.8757    -3751.466   -4198.8757            0     133.2031    18.168488    23.577202    22.233324    9523.9135   -26.009176   -21.392276    447.01076     24.43488    941.00661     -459.692 
  886000    280.76761   -4200.2174   -3718.9913   -4200.2174            0   -1091.9149     18.33809      23.8171    21.871551    9552.6213   -2082.6982   -1851.8821    658.83572   -913.39247    183.50423   -27.015126 
  886500    272.79886   -4195.8932   -3728.3253   -4195.8932            0    1315.5591    18.029394     23.45884    22.262509    9415.8985    2599.2298    1252.9201    94.527461    844.25836    161.46385    101.26081 
  887000    270.52534   -4217.7589   -3754.0877   -4217.7589            0   -20.024934    18.120587    23.616798    22.333026    9557.4236   -210.74142     432.2992   -281.63258    234.74481    229.59295    67.602375 
  887500    248.14104   -4198.1439   -3772.8386   -4198.1439            0    223.03191    18.270204    23.697552    21.911592    9486.8238   -612.91918   -891.90227    2173.9172    -973.2557    -390.3357   -264.84329 
  888000    271.96815   -4195.9684   -3729.8243   -4195.9684            0    1496.4797    18.086252    23.562708    22.079407    9409.3841    2458.6588   -113.73872    2144.5189   -238.99318   -448.45125    317.49555 
  888500    266.13553    -4194.773   -3738.6258    -4194.773            0   -656.29726    18.141074    23.517586    22.438022    9572.8286   -448.16124   -1159.0975   -361.63305   -623.81876   -52.407362   -45.132573 
  889000    262.32627   -4205.9936   -3756.3754   -4205.9936            0     402.4451    18.187483    23.651014    22.047446    9483.7621    142.93399    383.23262    681.16869   -733.89907   -749.04895    426.08037 
  889500    262.11285   -4182.5462   -3733.2938   -4182.5462            0    160.73681    18.128208    23.739572    22.024725    9478.4705    311.92341   -1102.9015    1273.1885   -1136.8632     271.2844    515.19784 
  890000    278.18229   -4213.7617   -3736.9668   -4213.7617            0    312.41303    18.120503    23.364097    22.376342    9473.4538    314.51116    2098.8817   -1476.1537   -1419.1007   -146.13875   -143.09056 
  890500    271.50412   -4231.5635   -3766.2147   -4231.5635            0    234.71602    18.110878    23.549305    22.114444    9431.7791    1547.8142    147.36868   -991.03484   -610.96565   -159.48855   -485.09402 
  891000    268.01512   -4213.7738   -3754.4051   -4213.7738            0     54.80276    18.232594    23.535633    22.204696    9528.3825   -605.64957    424.81258    345.24527   -520.16497   -607.57165   -224.56534 
  891500    275.27309   -4222.2486     -3750.44   -4222.2486            0    213.17383    18.204711    23.563826    22.250401    9544.8131   -163.79795     191.2668    612.05266   -1064.0148   -205.27745    181.71915 
  892000    271.90214   -4195.5186   -3729.4877   -4195.5186            0    839.64226    18.127127     23.57653    22.240519    9505.0361     1243.045    2384.1948    -1108.313   -1310.8582    396.76805    505.92345 
  892500    281.35621   -4191.7521   -3709.5172   -4191.7521            0   -676.84491    18.314776    23.606298    22.181148    9589.8873   -2297.2453   -390.14894    656.85954    772.69836    229.78321    451.90385 
  893000    279.19541   -4213.2026   -3734.6712   -4213.2026            0    931.14505    18.061543    23.678609    22.039089     9425.506    1007.9133    -531.7195    2317.2413    661.58863   -73.423727   -86.014169 
  893500    264.15881   -4208.6288   -3755.8696   -4208.6288            0    661.80111    18.116335    23.312216    22.411556    9465.1154   -898.02218    1754.4301    1128.9954    360.30262    551.09556   -466.50313 
  894000    255.66164   -4194.3463    -3756.151   -4194.3463            0    -1141.999    18.182334    23.757738    22.192521     9586.528    -2132.125   -1635.8381    341.96618    27.709138    177.56618   -117.67934 
  894500    269.35218   -4210.2701   -3748.6097   -4210.2701            0    313.32131     18.20672    23.553592     22.15566    9501.0925    319.81071    1053.6455   -433.49227   -366.96796   -706.48622   -451.21999 
  895000    268.52903   -4225.0526    -3764.803   -4225.0526            0    132.25808    18.064192    23.318533    22.524791    9488.1279    573.52962    281.38897   -458.14436    -233.1697    -454.0646    511.36574 
  895500    262.94346   -4213.4728   -3762.7967   -4213.4728            0   -682.32992    18.193622    23.910371    22.002856       9571.6   -1243.1742   -2561.9158    1758.1002   -473.66507     714.7759    45.885175 
  896000    273.49032   -4180.4947   -3711.7417   -4180.4947            0    999.05771     18.25483    23.473749     22.06421     9454.719    1112.2592    525.93952    1358.9744    221.33169    231.06895   -542.25425 
  896500    271.47796   -4212.0785   -3746.7746   -4212.0785            0    360.40867     18.06721    23.603074    22.354664    9532.9609    2353.4856   -538.39849   -733.86106    1051.8168    674.45101    137.54825 
  897000    242.68476   -4208.0921   -3792.1388   -4208.0921            0    799.01109    18.108978     23.60502    22.068107     9433.295    1975.0847   -195.89713    617.84574   -460.09379    186.69536    215.69893 
  897500    267.41648   -4215.7353   -3757.3926   -4215.7353            0   -1524.4332    18.350634    23.596396    22.112731    9575.0077   -440.00883   -2391.7054   -1741.5854    272.92307   -174.31668    233.72445 
  898000    274.55904   -4214.9039   -3744.3191   -4214.9039            0    1159.5367     17.99251    23.617435    22.369898    9505.7958    1518.6423    1138.7136    821.25426   -653.66164    4.3869238   -618.99031 
  898500    285.94146   -4225.1319    -3735.038   -4225.1319            0    265.22496    18.209333    23.440286    22.108913    9436.7905   -874.36096   -41.318903    1711.3548    -124.4978    338.98028    374.57514 
  899000     259.7449   -4205.5062   -3760.3124   -4205.5062            0   -1023.3277    18.259127    23.761693    22.024316    9555.6408   -1912.3761   -738.10841   -419.49856    34.594223    238.69215    185.51063 
  899500     257.9657   -4193.2125   -3751.0681   -4193.2125            0   -632.14343    18.139216    23.600072    22.374035    9578.0293   -1075.4542   -576.68975   -244.28639   -582.01097   -510.19629    646.04777 
  900000    279.38865   -4235.5883   -3756.7257   -4235.5883            0     659.6143    18.233899    23.372398    22.251382    9482.8697     174.3411    546.79746    1257.7043   -329.84734   -26.913029   -612.02797 
  900500    273.38277   -4208.1727    -3739.604   -4208.1727            0   -331.30807     18.17009    23.905433     22.02105     9565.149    -1524.877   -1058.7248    1589.6775    382.93774   -740.59495    284.74475 
  901000    255.94666   -4235.9025   -3797.2186   -4235.9025            0   -1144.2105    18.229535    23.557252    22.305481    9578.8158   -475.09552    -918.9937   -2038.5424   -1214.2863   -616.15521   -30.726943 
  901500    274.40685   -4199.6144   -3729.2904   -4199.6144            0    655.24148    18.119366    23.438073    22.310927    9475.0721    1045.7162    27.322271    892.68597    264.66868    11.135278   -780.22244 
  902000    272.31152   -4192.6799   -3725.9473   -4192.6799            0   -1161.3332    18.264459    23.904829    22.001175     9605.906   -1299.2038   -835.72102   -1349.0747    447.66882    99.244766   -9.3794931 
  902500    270.14618   -4191.2231   -3728.2018   -4191.2231            0   -719.28959    18.235126    23.549731    22.270854    9563.8241   -229.32883   -1040.3452   -888.19471   -643.61971    51.516343   -455.58181 
  903000    259.98774    -4221.805   -3776.1949    -4221.805            0    456.36543    18.080771    23.509201    22.300636    9479.2083   -208.90001    1363.4162    214.58012    605.01742    424.80537   -265.81112 
  903500    273.98457   -4200.8726   -3731.2724   -4200.8726            0   -464.82913     18.33654    23.835259    21.996445    9613.6823   -1847.9932    -909.6111    1363.1169   -323.69221    154.14289   -566.71899 
  904000    253.47307   -4193.4181    -3758.974   -4193.4181            0    381.98075    18.138493    23.548607    22.136008     9455.091    -974.0667    2051.5821    68.426861    -127.8217   -314.85729   -341.24339 
  904500    269.52873   -4192.4488   -3730.4858   -4192.4488            0   -280.55923    18.129813    23.452142    22.399961    9524.0814    31.378105   -378.27208   -494.78371    952.92166   -102.05137    317.99436 
  905000    269.35682    -4223.445   -3761.7767    -4223.445            0   -484.72455    18.171283    23.824382    22.051138    9546.3694    692.84393   -1789.1358   -357.88176   -20.223449      -335.34    4.4265814 
  905500    262.26718   -4226.2896   -3776.7726   -4226.2896            0    429.67797    18.344602    23.314432    22.108604    9455.7171    1174.5387   -471.37222    585.86746    643.79051    298.50681   -213.41586 
  906000    294.75117   -4242.2151   -3737.0217   -4242.2151            0    747.99724    18.019325    23.488466    22.332849    9452.2958    59.700539     1863.557    320.73418    -400.6421   -282.13003   -142.54703 
  906500     270.6847   -4190.6882   -3726.7439   -4190.6882            0   -55.076347    18.182592     23.76425    22.094574    9546.9693   -627.62164    139.91908    322.47352   -107.28125   -2.8088116   -47.263118 
  907000    270.11969   -4180.3253   -3717.3494   -4180.3253            0    1309.9058    18.324736    23.496728    22.015028    9479.0401    585.78104    1681.5555    1662.3809    481.05695   -235.24375    522.00043 
  907500     262.3783   -4213.6397   -3763.9323   -4213.6397            0     743.3208    18.046509    23.493372    22.330178    9467.4004    624.45795    1664.2536   -58.749171    384.07652    805.53084    697.18612 
  908000    275.04959   -4177.3272   -3705.9016   -4177.3272            0   -1554.2555    18.275638    23.628768    22.290074    9625.5406   -2367.4073   -393.38344   -1901.9758    935.75736   -414.09067    936.31356 
  908500    253.23277   -4214.8844   -3780.8521   -4214.8844            0    489.48683    18.254551     23.59341    21.992027    9471.6824    126.03655    473.21339    869.21055    -1234.123   -104.68873    178.03197 
  909000    260.57781   -4203.6086   -3756.9871   -4203.6086            0     95.34635    18.103865    23.680434    22.256946    9541.7167   -1025.2768   -179.75981    1491.0756    74.793522    575.76242   -79.115701 
  909500    253.66739    -4181.167   -3746.3898    -4181.167            0    587.88459    18.042166    23.476041    22.460527      9513.35    764.92143    1133.3365   -134.60413   -1097.8785   -47.406905     329.3602 
  910000    276.75278   -4193.1373   -3718.7925   -4193.1373            0   -962.75957    18.323639    23.666112    21.971333     9527.853   -2012.9906   -367.04199   -508.24606    -583.5348    389.56163    371.39384 
  910500    269.98312   -4203.8207   -3741.0788   -4203.8207            0     485.3963     18.15627    23.660426    22.038122    9467.2481    1338.3271   -652.83396    770.69576    720.31267     287.3707    225.20631 
  911000    260.62837   -4222.1561   -3775.4479   -4222.1561            0   -322.07072    18.005151    23.458015    22.472724    9491.6944   -196.99839   -426.10639   -343.10737   -946.11166   -1171.0018   -115.09686 
  911500    255.73829   -4235.2594   -3796.9328   -4235.2594            0    683.25027     18.20722    23.646532    21.984291    9465.0639    156.20032    318.51285    1575.0376   -322.26762    19.731759    635.35099 
  912000    270.60171   -4221.0649   -3757.2628   -4221.0649            0   -144.70901    18.224565    23.752968    22.088571    9561.8666    889.56726   -1682.8419    359.14754      -326.07    70.976987    591.79855 
  912500    266.55135   -4229.8316   -3772.9717   -4229.8316            0    1148.2602     18.16825    23.421833    22.263991    9474.0786    139.91945     1683.581    1621.2801    334.61917   -1575.7994   -931.40369 
  913000    274.11303    -4209.138   -3739.3177    -4209.138            0    610.91497    18.021229    23.589254    22.320187    9488.4756   -80.856617    1791.6487    121.95283    563.08301    799.75916   -149.68997 
  913500    266.90747   -4195.5239   -3738.0536   -4195.5239            0   -1637.2764    18.435162    23.806404    21.913018    9617.0738   -3053.4595   -2192.8994    334.52981    124.52242   -5.0215024   -81.458585 
  914000    258.98464   -4207.1654   -3763.2746   -4207.1654            0   -37.222092    18.157867    23.542537    22.193226    9487.2103    59.645933   -1344.7071    1173.3949   -351.74466    545.58419    822.99383 
  914500    274.40229    -4204.962   -3734.6459    -4204.962            0   -929.23423    18.043478     23.72006    22.347936    9564.7466   -1189.9547   -747.27899   -850.46897    553.39106   -477.87728    562.08207 
  915000    262.46555   -4222.7792   -3772.9222   -4222.7792            0    89.303644    18.390366    23.490678    21.999876    9503.9942   -185.35569    1227.0796   -773.81298   -29.034671    98.089251   -54.575456 
  915500    270.79231   -4203.3527   -3739.2239   -4203.3527            0   -1132.9342    18.140414    23.716802     22.30508    9596.3724   -578.98472   -792.68888   -2027.1289    449.77342   -1201.7629   -245.27584 
  916000     276.7435   -4186.4821   -3712.1532   -4186.4821            0    1009.1485    18.026187    23.565731    22.303982    9474.7377     537.1013    973.49817    1516.8459    641.56814   -320.53902    629.02328 
  916500    270.79997   -4191.9066   -3727.7647   -4191.9066            0    -436.6155    18.407295    23.558715    22.143917    9602.7588   -187.56206   -980.74991   -141.53452    1835.3233   -786.97635    73.270734 
  917000    262.70227     -4201.61   -3751.3473     -4201.61            0    -648.8922    18.098965    23.726901    22.177844    9523.8835   -143.13871   -1494.8198   -308.71813   -588.17215    495.26879    576.99787 
  917500    269.99656   -4184.2385   -3721.4736   -4184.2385            0    666.43439    18.101513    23.386035    22.355755    9463.6972    1211.8446    1368.1012   -580.64265   -100.34048    398.89218    -18.04925 
  918000    285.25297   -4221.3779   -3732.4641   -4221.3779            0   -798.41016    18.268765     23.58836    22.181112    9558.5114    855.54986   -1601.7289   -1649.0514    480.95389   -35.825753    40.940973 
  918500       254.95   -4230.7181   -3793.7425   -4230.7181            0    363.43019     18.10629    23.663084    22.086172    9462.8353    515.03458    496.91871    78.337289    782.65132    528.60922    239.16509 
  919000    257.07343   -4229.1124   -3788.4973   -4229.1124            0    223.99245    18.311381    23.300181    22.192749    9468.7244   -1082.7667    577.83496    1176.9091    204.09727   -142.70115    879.54086 
  919500    262.17223    -4201.252   -3751.8977    -4201.252            0   -1089.2579    17.954989    23.829823    22.310823    9546.0028   -516.98797    -2296.003   -454.78277    199.07425    153.07874   -127.89531 
  920000    255.42565   -4198.5074   -3760.7165   -4198.5074            0    654.95723    18.367331    23.326432    22.080179    9460.1265    134.86714    2485.7519    -655.7474   -293.65135   -755.53239    209.65966 
  920500    269.68665   -4212.2128   -3749.9791   -4212.2128            0   -202.46405     18.13397    23.680074    22.210232     9537.379   -296.08958    440.73824   -752.04083     698.8839    53.769068   -478.03418 
  921000     276.8329   -4187.9597   -3713.4776   -4187.9597            0   -234.53452    17.999113    23.610621    22.260338    9459.9813   -330.42295    465.85861   -839.03924   -1254.8809    157.65811     352.1148 
  921500     262.4729   -4215.0743   -3765.2048   -4215.0743            0   -356.01807    18.420495    23.417462    22.142907    9551.5918   -1068.2602   -275.58789    275.79391   -885.67852   -680.06882   -59.709784 
  922000    280.83748   -4183.0419   -3701.6961   -4183.0419            0    947.16206    17.918886    23.798797    22.134346    9439.1461    1717.7934    990.75183    132.94098    709.20144     711.6609    583.07208 
  922500    261.46633   -4223.8869   -3775.7426   -4223.8869            0     343.0359    18.165626    23.473166    22.270909    9496.4217    1144.2208    251.48152   -366.59458   -395.59448   -318.45997    772.72609 
  923000    275.11281   -4215.1262   -3743.5922   -4215.1262            0   -320.86915    18.375239    23.373206    22.102709     9492.854     10.82191   -1548.2102    574.78078    12.038347    909.70494    501.97973 
  923500    283.77547   -4193.5331   -3707.1516   -4193.5331            0    37.908335    17.769324     23.96466    22.303349    9497.5648    1395.4795    501.80521   -1783.5597   -1362.5891    68.121795   -260.20868 
  924000    266.20056   -4208.3345   -3752.0759   -4208.3345            0   -320.60817    18.392474    23.444312    22.223848    9582.8983   -63.024284     9.739008   -908.53922    125.90571    794.58777    1027.6901 
  924500    270.81716   -4212.2722   -3748.1008   -4212.2722            0   -875.68557    18.155907    23.756647    22.159688    9557.9937   -779.80232   -1365.4482   -481.80618    1001.4089     -393.084   -273.67664 
  925000    281.97401   -4228.0222   -3744.7284   -4228.0222            0   -511.04321    18.068079     23.62167    22.362646    9544.3368   -701.79949   -699.24263   -132.08753    373.82155    11.876078    563.38056 
  925500    269.66174   -4183.3131   -3721.1221   -4183.3131            0   -381.37771     18.32961    23.313117    22.294518    9526.9011   -1267.4683    203.71234   -80.377211   -205.03481   -50.275791   -337.36068 
  926000    268.95706    -4239.486   -3778.5028    -4239.486            0    451.94421    17.997399    23.843877    22.014461     9447.017    1755.2388   -1590.6066    1191.2004   -28.982163    -206.3072    273.24479 
  926500    260.21335   -4232.2005   -3786.2038   -4232.2005            0    229.42349    18.149205     23.49652    22.221954    9476.3998   -49.865545   -205.67678    943.81281   -90.214426   -160.51757    866.44384 
  927000    283.66344   -4195.0425   -3708.8531   -4195.0425            0    613.44068    18.135901    23.543474    22.223293    9488.9487    1692.6935    708.91659   -561.28802   -645.30066   -282.97925    58.890352 
  927500    262.85537   -4227.7004   -3777.1753   -4227.7004            0   -967.71942    18.154649    23.734817    22.119937    9531.4209   -1218.9849    114.31813   -1798.4915    323.03082   -339.74773   -848.72971 
  928000    264.94814   -4202.6715   -3748.5595   -4202.6715            0    652.18852    18.252409    23.425555    22.123768    9459.5215    1190.2835    707.74546    58.536577    496.05708   -573.58013    365.47491 
  928500    269.15075   -4189.5076   -3728.1925   -4189.5076            0    63.998666    17.937701    23.623213    22.565925    9562.2235    1653.6303   -273.19883   -1188.4355   -184.41909    185.73136   -5.6582783 
  929000    258.86389    -4174.632   -3730.9481    -4174.632            0    746.11618    18.284932     23.58985    22.094766    9530.3295    1713.4365   -75.189875    600.10192   -134.17085    587.76891    131.66567 
  929500    269.45884   -4207.3847   -3745.5415   -4207.3847            0   -240.72108    18.213563    23.679314    22.180644    9566.1716   -1031.0669    -1402.745    1711.6487   -268.28617   -243.69863    1394.7335 
  930000    261.27139   -4182.6772    -3734.867   -4182.6772            0   -1888.0314    18.129699    23.476033    22.619099    9626.9921   -2460.1839    -1045.098   -2158.8123   -341.53025   -317.83309    214.43977 
  930500    260.21213   -4204.5268   -3758.5321   -4204.5268            0     1148.949    18.247251    23.539485    21.977047    9439.8207    563.09791    851.18236    2032.5667    181.31715    -619.9253   -70.760879 
  931000    278.23985   -4192.6136   -3715.7201   -4192.6136            0    1602.7247    18.110412    23.666119    22.085042    9465.7193    1690.4745    961.41277    2156.2869   -442.86222   -689.72777   -478.73949 
  931500    268.31022    -4154.394   -3694.5195    -4154.394            0    701.84217    18.051766    23.450883    22.446597    9502.3147    1773.6975    512.11227   -180.28322    579.35884    599.67881    598.12292 
  932000    265.59568   -4224.5622   -3769.3403   -4224.5622            0    968.90125    18.204549    23.534611    22.024563    9436.1369    1782.1103    636.67755    487.91587   -1179.9283   -300.37787   -571.97954 
  932500    270.63168   -4186.8736   -3723.0202   -4186.8736            0    116.81144    18.187028    23.748164    22.089491    9540.6393    1453.8442   -1018.5905   -84.819428   -314.61453   -758.39468    594.07089 
  933000    283.22089   -4210.8893   -3725.4584   -4210.8893            0    2413.8022    18.197979    23.289627    22.244187    9427.6232      3240.34    2588.5601    1412.5065   -780.65732    358.88659   -790.56446 
  933500    280.18421   -4194.0287   -3713.8025   -4194.0287            0   -1370.2871    17.973545    23.903674    22.431632    9637.3864    16.546527   -1809.2115   -2318.1965   -569.44546    797.93467   -72.538837 
  934000    289.78784   -4203.1382   -3706.4518   -4203.1382            0    699.91975     18.33136    23.491608     21.97736    9464.1792   -440.16116    383.19547     2156.725   -994.31452    214.12744    576.85136 
  934500    273.07365   -4214.3742   -3746.3353   -4214.3742            0   -986.40909    18.064827    23.699615    22.202862    9505.6987   -1083.3801   -2260.5161    384.66893    136.83492    878.87508   -210.04456 
  935000    268.69083      -4210.1   -3749.5731      -4210.1            0    796.53722    18.037112    23.357832    22.435006    9452.0438   -319.52183    2286.6391    422.49434   -611.69273   -55.331778   -288.04223 
  935500    289.13428   -4218.8563   -3723.2901   -4218.8563            0    276.63577    18.255319    23.609206    22.031153    9495.2854   -1680.1612    380.65342    2129.4151   -239.75003   -1133.0253   -303.66357 
  936000    254.48192   -4179.6737   -3743.5004   -4179.6737            0   -1194.8707    18.098916    23.719228    22.249029    9551.3375    -2118.819   -1192.8594   -272.93355    33.551722    371.82708    419.23124 
  936500    260.85332   -4181.8369   -3734.7432   -4181.8369            0   -1376.1759    18.446252    23.404832    22.277417    9617.8614   -1377.8602    408.31385   -3158.9813    -79.77812   -635.30025   -1260.2162 
  937000     286.4535   -4207.6251   -3716.6537   -4207.6251            0    774.59699    18.033663    23.717856    22.097641    9451.5989    722.78497    1101.0907    499.91531   -664.23744   -856.40119   -65.762651 
  937500    259.96791   -4218.8413   -3773.2652   -4218.8413            0    518.61039    18.165086    23.423436    22.311733     9493.391    1000.4259    546.09098    9.3143226     283.7489    57.530948   -52.338462 
  938000     274.4417   -4212.3191   -3741.9355   -4212.3191            0   -834.97284    18.237775    23.647673    22.068999    9517.9386   -1308.3457   -517.79464    -678.7782   -145.93773    93.799896   -392.02881 
  938500    261.33942   -4212.4428    -3764.516   -4212.4428            0    846.40229    18.129939    23.626507    22.018822    9431.6994    1199.3451    793.07272    546.78905    130.91214    485.57103   -71.251642 
  939000    259.95101   -4214.3827   -3768.8356   -4214.3827            0   -674.21616    18.162091    23.425735    22.431039    9543.5173   -363.12786   -295.86981   -1363.6508   -321.17981   -191.73844    23.663735 
  939500    269.76035   -4194.1401   -3731.7801   -4194.1401            0    1073.1162    18.049309    23.802764    21.977325    9441.9741    1121.6683    573.26936    1524.4109   -400.20998    -124.4253    677.55235 
  940000    263.24843   -4197.5327    -3746.334   -4197.5327            0   -677.42259    18.371024    23.467828    22.087052    9522.3472   -399.21824   -107.84549    -1525.204    4.9609417    420.08595    174.22569 
  940500    280.98518   -4213.2915   -3731.6925   -4213.2915            0   -138.58955    18.074822    23.539626    22.363737    9515.2007   -459.89216    945.63423   -901.51072    226.88212    303.54833    788.63808 
  941000    263.63688    -4184.139   -3732.2744    -4184.139            0   -268.72905     18.13494     23.61563     22.15012    9486.1884   -1015.3192    526.89592   -317.76382    -873.0688   -111.97901   -837.67915 
  941500    272.30992   -4196.5951   -3729.8652   -4196.5951            0    1107.1107    18.260983    23.422316     22.09163    9448.9104    383.19474    1605.5165     1332.621    38.480205    127.62283    563.31286 
  942000    244.00568   -4228.0554   -3809.8381   -4228.0554            0   -120.52559    17.845995    23.774466    22.385079    9497.5186     1738.378   -563.69651   -1536.2582    518.00452   -880.92359     -445.413 
  942500    275.83017   -4215.9645    -3743.201   -4215.9645            0    629.70749    18.215624    23.475169    22.212459    9498.3771    1062.1489    562.62333    264.35024    7.0930932   -542.44234    547.86373 
  943000    257.27533   -4209.2303   -3768.2692   -4209.2303            0    1254.5442    18.217832    23.551147    21.961723    9422.6957    511.16589    409.15394    2843.3127   -1054.2499    43.335936    759.59053 
  943500    272.35213    -4201.548   -3734.7458    -4201.548            0   -1021.5051    18.040217    23.768029    22.285264    9555.4841     40.29334   -290.56368   -2814.2451    101.29974   -151.99878    -616.7259 
  944000    254.47631   -4226.6423   -3790.4786   -4226.6423            0   -4.0623155    18.398159    22.955602    22.377671    9451.0037   -1783.0335    2176.1648   -405.31824   -423.20507    404.84435    218.10998 
  944500    266.42694   -4179.4225   -3722.7758   -4179.4225            0    1487.8923    18.087594     23.73482    22.038146    9461.1034    1795.0275    1103.5187    1565.1306   -718.79562    102.87848    420.83797 
  945000    276.71609   -4212.7283   -3738.4463   -4212.7283            0   -31.566833    18.244032    23.512556    22.147939    9500.6642    402.58397   -779.03729    281.75282   -412.78098    10.845046    265.56698 
  945500    243.40309   -4209.3798   -3792.1952   -4209.3798            0    513.41727    18.032799     23.48515    22.359058    9469.1282    1605.7109    988.39915   -1053.8582    169.10679    1074.5977    957.41023 
  946000    266.80193   -4205.3556   -3748.0662   -4205.3556            0    38.322361    17.992227    23.744711    22.174009    9473.1851    2029.5352   -1064.7074   -849.86081   -480.07947    572.91521    299.33842 
  946500    264.38875   -4202.6288   -3749.4755   -4202.6288            0   -4.2164621    18.315437    23.433224      22.1018     9485.866   -464.93063     279.1448    173.13644   -113.28034   -553.87124    844.63087 
  947000    268.89221   -4206.1778   -3745.3057   -4206.1778            0   -248.36815    18.087504    23.727624    22.171606    9515.4659    924.18581   -802.29363   -866.99663   -650.35061    476.87216    546.77059 
  947500    280.12337   -4233.6869   -3753.5651   -4233.6869            0   -949.46796    18.145069    23.404069    22.485731    9548.9804     -1250.14    68.809051   -1667.0729   -179.01285   -89.572051    96.134332 
  948000    269.49207    -4251.636   -3789.7358    -4251.636            0    52.243699    18.307371     23.55563    22.014983    9493.7774   -685.69121    130.80304    711.61927    322.65913    101.62966   -717.08791 
  948500    267.85816   -4241.6824   -3782.5827   -4241.6824            0    860.91578     18.10813    23.663351    22.092448    9466.5927    1106.0264    1048.2606     428.4604    80.977989    523.45143     33.82065 
  949000    271.32289   -4237.6746   -3772.6364   -4237.6746            0    71.106862    18.222933    23.423319    22.305185    9520.7804    205.00639    1929.7665   -1921.4523     323.6941    364.94965    629.82703 
  949500    262.22284   -4238.0169   -3788.5759   -4238.0169            0    502.09569    18.054614     23.65563    22.188332    9476.4873    291.45468    -539.2927    1754.1251   -1203.9735   -515.91286    949.98032 
  950000    277.50002   -4202.1348   -3726.5092   -4202.1348            0    462.04226    18.223259    23.716324    21.927709    9476.9087    997.51568    33.457815     355.1533    689.30118   -426.07732      924.439 
  950500    279.93058   -4216.3312   -3736.5397   -4216.3312            0    506.74038    18.173721    23.369093    22.416454     9520.344    -368.1996    1451.2006    437.22017    -600.4443    108.41078   -541.27911 
  951000    273.27817    -4220.474   -3752.0846    -4220.474            0    1262.0489    17.916584    23.718363    22.192013    9430.5411    513.03146    1959.6229    1313.4924   -256.24074   -211.53383   -625.50844 
  951500    278.07208   -4201.0436   -3724.4376   -4201.0436            0   -173.39901    18.431588    23.532027    22.033172    9556.5055   -1567.6554    -222.8053    1270.2637    435.35363   -107.56389   -55.118916 
  952000    293.55879    -4231.658   -3728.5083    -4231.658            0   -566.88511    18.104491     23.65347    22.270946    9537.1768    342.69499   -992.93751   -1050.4128    626.02831   -89.594314    40.089371 
  952500    267.06328    -4190.513   -3732.7757    -4190.513            0   -700.28727    18.098472    23.618652    22.361298    9558.5941    1004.4904   -2183.1009   -922.25125    459.40559   -767.25725    572.52731 
  953000    258.81479   -4185.8458   -3742.2461   -4185.8458            0    2286.7625    18.322982    23.542809      21.7995    9403.7478    765.69413    3009.4976    3085.0959    564.28907   -543.73121   -391.67405 
  953500    284.18331    -4203.011   -3715.9306    -4203.011            0   -434.29351     18.03867    23.821606    22.218883    9547.6783    324.58805   -1093.4732   -533.99535     247.6669   -36.896461    263.15317 
  954000    275.53584   -4210.3142   -3738.0552   -4210.3142            0    77.966003    18.350816    23.247899    22.342402    9531.6691    450.08584    183.31553   -399.50336   -859.49004   -311.34221    206.71122 
  954500    266.56287   -4194.1105   -3737.2308   -4194.1105            0   -1143.1712     18.00095    24.031116    22.166771    9588.9663   -1254.0908   -3384.9378     1209.515    1535.6171     4.537272   -241.00559 
  955000     267.5482   -4178.6664    -3720.098   -4178.6664            0    446.90674    18.265662    23.469437    22.189935    9512.4877   -420.82148    926.03058    835.51113    331.94127   -215.47023   -380.71952 
  955500    259.73825   -4181.1019   -3735.9194   -4181.1019            0   -701.59464     18.31548    23.576599    22.265707    9614.7045   -1331.5692   -1396.6358    623.42102    154.64786    587.97533    176.19202 
  956000    274.85481   -4165.0587   -3693.9669   -4165.0587            0    195.70659    17.996902    23.694514    22.233521    9480.9929    810.44046   -1971.4076    1748.0869   -968.49324   -253.71247    809.14292 
  956500    266.87625    -4229.092   -3771.6753    -4229.092            0   -877.40463    18.388406    23.454459    22.122725    9541.3129   -3044.4016    366.69846    45.489247    537.53873   -312.59423   -701.10512 
  957000    274.11145   -4206.3419   -3736.5243   -4206.3419            0    818.92504    18.017931    23.591451    22.191421    9432.8883    1401.1672     2083.248   -1027.6401    87.694445   -115.92132   -500.42178 
  957500    264.90617   -4220.8066   -3766.7665   -4220.8066            0    28.742723    17.988031    23.678237    22.291728    9494.6015    578.16073    778.07023   -1270.0028   -310.23377    158.72332   -106.57582 
  958000    250.57357   -4228.1871   -3798.7125   -4228.1871            0    1047.6211    18.453311    23.209255    21.969445    9409.2413    359.57663    782.40482    2000.8818   -143.09977    704.68292    930.86305 
  958500    265.64077   -4238.6961   -3783.3969   -4238.6961            0   -475.16007    18.069427    23.754897    22.123192    9496.1006   -1582.3457   -995.31037    1152.1759    212.02756   -187.54616   -335.54186 
  959000    268.32395   -4211.4537   -3751.5557   -4211.4537            0   -433.64216    18.245799    23.584777    22.197151    9551.9469   -1196.3646    375.74969   -480.31152    407.38754    308.29238    665.12525 
  959500    270.71335   -4195.5946   -3731.6012   -4195.5946            0   -6.2231322    18.157921    23.477504    22.440179    9566.3084    289.23083    412.01199   -719.91222    405.46453   -165.66818   -500.40299 
  960000    259.77264    -4233.751   -3788.5095    -4233.751            0    937.59905    18.104294    23.761346    21.914884    9427.3977    36.288767    428.11865    2348.3897   -37.346643   -1068.9353    183.10106 
  960500     264.4498   -4202.5476   -3749.2897   -4202.5476            0   -178.32684    18.335665    23.513101    22.101796    9528.7107   -438.50923   -72.655548   -23.815735   -784.79995    41.311701    55.619999 
  961000     267.5263    -4229.491   -3770.9601    -4229.491            0    1232.9878    17.980009    23.598892    22.316247    9468.9685    2256.3688    1862.2916   -419.69703   -52.719035   -408.92847    5.0840686 
  961500    267.51767   -4220.0727   -3761.5565   -4220.0727            0   -1026.5276    18.463527    23.426528    22.066116    9544.3969    -308.4638   -2599.8356   -171.28343   -1076.0908      582.236   -521.44667 
  962000    270.81717   -4196.2466   -3732.0753   -4196.2466            0   -269.40809    18.113093    23.740027    22.057668    9484.9147    1159.1783   -191.65265   -1775.7499    38.980325   -541.47609    218.90663 
  962500    273.37479   -4211.3272   -3742.7721   -4211.3272            0    628.26187    18.124517    23.454103    22.306842    9482.5108    1484.5204    1916.5073   -1516.2421    435.24858    76.678814    387.02158 
  963000    273.21713   -4232.9531   -3764.6683   -4232.9531            0   -189.00958    18.144782    23.501934    22.265685    9494.9223   -310.14051    64.955577   -321.84381   -982.84683    212.03977   -349.87808 
  963500    278.04608   -4202.1867   -3725.6252   -4202.1867            0   -519.25187    18.135127     23.86522    21.959832    9504.1886    68.783548   -1736.5905    110.05139    92.660715    217.81004   -407.06434 
  964000     267.1988   -4188.5638   -3730.5942   -4188.5638            0    1772.4193     18.12154    23.329556    22.255792    9409.0251    1657.3528    1567.3025    2092.6026   -262.23001    620.20347    146.19803 
  964500    274.27115   -4175.9032   -3705.8118   -4175.9032            0   -279.92211    18.183923     23.46777    22.331113    9529.4931    -912.4454   -371.41715    444.09621    1045.7848   -30.012987   -225.95342 
  965000    270.38342   -4170.7365   -3707.3085   -4170.7365            0   -563.33075    18.238171    23.679437    22.075439    9533.7114    -842.9225   -1141.8964    294.82671   -1098.0159    330.80575    317.56805 
  965500    269.85472   -4162.9043   -3700.3826   -4162.9043            0    350.04613     18.13785    23.542186    22.118919    9444.8809    482.57464     -334.795    902.35877   -424.05549    290.72665    609.11208 
  966000    264.66827   -4186.3123   -3732.6799   -4186.3123            0    -1241.171    18.295684    23.217921      22.4961    9556.0675    -1641.881   -359.69334   -1721.9387    633.78913   -319.05465   -3.9050139 
  966500    280.81739   -4169.1475   -3687.8361   -4169.1475            0      257.278    18.064046    23.642795    22.134204    9453.1765    477.81736    810.78719   -516.77054     708.0853    -2.211801    228.29555 
  967000    262.45931     -4207.03   -3757.1838     -4207.03            0   -82.393788    18.256846     23.39346    22.176119    9471.2166   -1284.2311   -434.90355    1471.9533    251.57395    120.51143   -210.02043 
  967500    263.96712   -4213.1937   -3760.7631   -4213.1937            0   -1623.3716    18.232049    23.469221    22.318748    9550.0136   -1301.1081    -1532.737   -2036.2696   -55.540596   -29.410633    -331.4235 
  968000    275.70106   -4192.9904   -3720.4482   -4192.9904            0   -82.283618    17.978869    23.765759    22.259313    9510.9924    1736.3375   -819.00659   -1164.1817    241.61462   -310.05145    1103.7323 
  968500    245.78309   -4228.7011   -3807.4373   -4228.7011            0   -300.63555    18.590056    23.074251    22.125951    9490.9624    -637.8194    491.96061   -756.04785    599.50118    313.56291    1167.0547 
  969000    281.48465   -4204.1265   -3721.6714   -4204.1265            0    332.08784     18.05497    23.674483    22.215155    9495.6921    1288.0683    192.99294   -484.79767   -115.61823    393.56242    190.05382 
  969500    270.72214   -4203.2268   -3739.2183   -4203.2268            0   -338.68855    18.229845    23.587933    22.196573    9544.6231    -568.5404   -877.92666     430.4014   -480.95719    36.398962    104.41113 
  970000     286.0632   -4167.2282   -3676.9257   -4167.2282            0   -495.15104      18.3901    23.304029    22.364145    9584.4545    667.12206    107.80033   -2260.3755    211.90224    32.409143    494.50588 
  970500    263.85078   -4218.8733   -3766.6421   -4218.8733            0    595.19836     17.96695    23.816158     22.17208    9487.5155    1345.2328   -571.75061    1012.1129    581.29324   -16.960502    821.41747 
  971000    258.24798   -4199.2274   -3756.5992   -4199.2274            0    -498.3423    18.481051    23.270931    22.189296    9542.9785    -1592.962    1050.2601   -952.32494    -91.42093   -670.13406    1283.4196 
  971500    262.71063   -4183.1865   -3732.9095   -4183.1865            0    373.82972    18.058415    23.688769    22.243917    9515.5388    1182.4612   -303.50987    242.53788    751.31652   -662.51769    270.21154 
  972000    286.26451   -4201.8557   -3711.2081   -4201.8557            0   -794.56527    18.203306    23.637364    22.253485     9575.189    -1195.202   -1640.7172    452.22338   -70.137536   -440.87842    757.20161 
  972500    264.70708    -4216.297   -3762.5981    -4216.297            0   -463.85335    18.289049    23.556914    22.122779    9531.2353   -1804.6082   -405.29045    818.33856    1367.9322   -366.10935    1415.7064 
  973000     272.7382   -4206.9516   -3739.4876   -4206.9516            0   -185.05321    17.999048    23.678008    22.273797    9492.6826    291.93524    1233.5461   -2080.6409   -979.76712    -808.2713    873.96614 
  973500    268.78462   -4176.3501   -3715.6625   -4176.3501            0    36.852267    18.346383    23.299988    22.371119    9562.9936   -403.56978    246.93261    267.19397   -501.18164   -229.46682   -55.514531 
  974000     269.3828   -4221.9356   -3760.2227   -4221.9356            0    500.10505    18.059659     23.79435    21.911578    9415.7963    1040.6813   -502.77243    962.40629     1056.458    563.74814     205.4178 
  974500    266.20932   -4222.7723   -3766.4987   -4222.7723            0   -1206.2578    18.161781    23.617167    22.342305    9583.2804    -557.4346   -1521.1339   -1540.2048   -564.65495     519.1164    314.08459 
  975000    261.77924   -4166.3989   -3717.7182   -4166.3989            0    1204.7326    18.133703    23.413946    22.240201    9442.7788    81.860576    704.42701    2827.9102   -763.36026   -326.97011    192.23681 
  975500    266.05687    -4230.084   -3774.0717    -4230.084            0   -109.47791    18.157681    23.756397    22.106908    9536.0592    1887.5798   -903.81581   -1312.1977    253.19959   -614.90235    724.76101 
  976000    263.29106   -4201.8442   -3750.5723   -4201.8442            0   -772.61495     18.27703    23.470555    22.374859    9598.1892   -1814.7169     96.21067   -599.33865   -1089.9189   -444.15299   -157.22389 
  976500    263.33994   -4190.3269   -3738.9712   -4190.3269            0    1168.9903    18.095458    23.510954    22.100419    9402.4347   -143.67586    1038.1116    2612.5351    413.89962   -404.20895   -771.50323 
  977000    274.63582   -4166.8548   -3696.1385   -4166.8548            0    252.74715    18.204575     23.85038    21.983673    9545.0034    312.81772    345.87093    99.552798   -24.332839    62.161672    368.32248 
  977500    273.29962   -4218.4526   -3750.0264   -4218.4526            0    708.10082    18.163317       23.383    22.218977    9436.6847    369.77518    863.07163    891.45566     100.9538    60.996086   -253.33919 
  978000    284.11216   -4163.5783   -3676.6197   -4163.5783            0    56.103456    17.995437    23.589482    22.320017    9474.9153    1065.5862    42.641821   -939.91762    1097.4905    803.92125    563.91387 
  978500    275.47634   -4202.8262   -3730.6692   -4202.8262            0     487.2276    18.123774    23.549182     22.12305    9442.1188    2061.1958   -32.831375   -566.68159   -1413.3053    157.96577    1184.1115 
  979000    252.34794   -4199.2602   -3766.7445   -4199.2602            0   -104.98564    18.219584     23.46268    22.235035    9505.0384    850.93095   -1108.0373   -57.850556    143.88404    465.32684      -171.85 
  979500    282.05097   -4235.6852   -3752.2594   -4235.6852            0   -1447.3724    18.083174    23.969074     22.14435    9598.1792   -942.55125   -1505.2085   -1894.3575    73.101825   -404.57056    198.99544 
  980000    265.69909   -4186.6586   -3731.2594   -4186.6586            0    1120.9186    18.204988    23.147976    22.143034    9331.2654    472.06567     3143.575   -252.88496   -519.45498    -199.9236    215.06224 
  980500    256.28563   -4245.0497   -3805.7849   -4245.0497            0   -1706.0008    18.223135    23.751695    22.170988    9596.2761   -1312.9806   -2073.0153   -1732.0066    232.98675   -659.24389   -350.15202 
  981000    284.53302   -4224.7536   -3737.0737   -4224.7536            0     670.4874    18.104116    23.538063     22.14643    9437.3871   -518.35728    429.60344     2100.216   -26.962222     532.5786    333.65162 
  981500    255.35687    -4207.049   -3769.3761    -4207.049            0    568.33211    18.104482    23.498665     22.17792    9435.1782    536.99121    835.72794    332.27719   -389.17804   -191.94723    437.39912 
  982000    273.09738   -4185.7931   -3717.7136   -4185.7931            0   -1166.0785      18.2692    23.558974    22.304389    9599.8896   -1230.4886   -1157.6189    -1110.128   -806.48819   -432.17111    596.18308 
  982500    280.89271   -4197.4955    -3716.055   -4197.4955            0     1005.266    17.993431    23.673257    22.062364    9397.7533    1830.9108    605.70832    579.17878    453.79367    1037.9858    -1.966867 
  983000    278.04799   -4208.0019   -3731.4372   -4208.0019            0   -637.40089    18.274937    23.445315    22.318788    9562.7445   -2140.4287    2112.0289   -1883.8029   -467.20469    -455.3724   -423.27148 
  983500    270.56345    -4232.769   -3769.0325    -4232.769            0    901.57171    18.004665    23.653926    22.130828    9425.0997    2027.1825   -193.67325    871.20589    281.94333   -142.37414    540.34812 
  984000    249.32285   -4211.1067   -3783.7759   -4211.1067            0   -12.868158    18.355146    23.674874    21.942164    9535.0937   -1233.3848   -672.90877    1867.6891    367.98519    882.62732   0.62484922 
  984500    254.83917   -4201.6596    -3764.874   -4201.6596            0    953.35747    18.245823    23.359203    22.326259    9515.6273    1490.2137   -240.48836    1610.3471   -188.29849   -15.884755   -279.22205 
  985000    276.01698   -4214.8345   -3741.7508   -4214.8345            0   -261.56785    17.999606    23.762058    22.275045    9527.2081   -518.38637   -433.64296    167.32579    111.63869     52.89155   -95.129471 
  985500    264.17089   -4231.2455   -3778.4656   -4231.2455            0    331.18612    18.345495    23.364961    22.096838    9471.6282    728.17006    267.80272   -2.4144275    980.97916   -112.09299    580.64941 
  986000    284.85104   -4198.2675   -3710.0426   -4198.2675            0    232.82647    18.123189    23.752482    22.112291    9518.6935   -1097.6792    972.47828     823.6803   -719.83053   -913.74709   -177.42121 
  986500    270.07058    -4203.346   -3740.4543    -4203.346            0    89.475424    18.028114    23.551625    22.344809    9487.4134   -711.31867    100.16094    879.58399    -495.2466    643.31373    256.65257 
  987000    255.29355   -4177.1123   -3739.5479   -4177.1123            0    1025.3508    18.272093    23.395067    22.172521    9478.2396     1404.087     1256.279    415.68629   -528.88181   -283.58535   -459.92428 
  987500    271.73582   -4211.8251   -3746.0792   -4211.8251            0   -891.54239    18.094793    23.953344    22.122914    9588.7523    920.21566    -1742.133   -1852.7098   -1392.2106    -31.84461   -330.12331 
  988000    277.21095   -4172.1484   -3697.0183   -4172.1484            0    1450.8304    18.261078     23.19505    22.367419    9474.0922    858.37404    1587.3417    1906.7755    239.98728      726.875    101.01803 
  988500    277.43108   -4197.4882   -3721.9808   -4197.4882            0   -368.11184    18.137725    23.778225    22.199558    9574.2903   -1187.9153    293.07554   -209.49577   -506.66381   -916.37469    715.52378 
  989000    274.55402    -4202.294   -3731.7178    -4202.294            0    276.39186    18.179913    23.662894    22.096391    9505.6324   -749.08186    -170.1489    1748.4064    148.93542     242.9725    -832.9852 
  989500     254.8538   -4171.8699   -3735.0592   -4171.8699            0    297.81596    18.229922    23.499837    22.244486     9529.542   -55.892858   -292.09894    1241.4397    -648.7092   -678.04899    42.082781 
  990000     270.4765   -4175.8217   -3712.2343   -4175.8217            0   -561.18667     18.04767    23.988775    22.167804    9597.3621   -859.54522    40.399215   -864.41401   -685.30276   -616.04775   -656.10307 
  990500    266.32555    -4230.271   -3773.7981    -4230.271            0    1863.1788    18.264116     23.20208    22.175978    9397.4143    2794.5925    1435.8607    1359.0832   -95.574808   -1382.4855   -1419.7854 
  991000    259.86748   -4212.0084   -3766.6044   -4212.0084            0   -2165.7755    18.166642    23.786167    22.326084    9647.4308    -1727.998   -737.44714   -4031.8812   -636.92017    40.194311    218.11149 
  991500    275.50178   -4192.6948   -3720.4942   -4192.6948            0   -564.11318     18.15661    23.661549    22.213069    9543.0344   -1090.9534   -909.86504    308.47894    -819.0998   -849.41729    1054.3101 
  992000    272.50532   -4187.1644   -3720.0996   -4187.1644            0   -760.19216    18.339475    23.694725    22.031491    9573.7583   -1316.1617   -1436.8703    472.45555   -174.98793   -555.71903   -412.13156 
  992500    277.20914   -4216.7046   -3741.5776   -4216.7046            0    151.23307    17.825893    23.850352    22.356782    9505.0711    880.66546    363.98046   -790.94672   -68.387916   -309.57156   -389.13669 
  993000    270.15311   -4219.4459   -3756.4127   -4219.4459            0    191.39198     18.16882    23.451562    22.331343       9515.1    421.60836     957.9641   -805.39652    138.27968    176.27763    352.91573 
  993500    292.73136   -4216.0609   -3714.3293   -4216.0609            0   -388.91981    18.222276    23.757583    22.037196    9540.2821   -641.12468   -1246.6833    721.04853    597.31579   -660.33049   -98.133989 
  994000    266.04036   -4179.8161   -3723.8321   -4179.8161            0   -280.09086    18.096738    23.763004    22.204562    9548.6911   -536.83108   -912.87456    609.43306    605.55038     316.8583    136.03616 
  994500    264.46957    -4202.015   -3748.7232    -4202.015            0   -597.76526    18.169713    23.420577    22.350336    9511.0772   -1136.7926    109.88301   -766.38622    1301.4462    397.86943    631.44068 
  995000    256.01819   -4218.0999   -3779.2935   -4218.0999            0   -1440.6219    17.987813    23.918884    22.184596    9544.8874   -1809.2608   -1377.8231   -1134.7818    398.54216    100.07861   -691.53247 
  995500    280.89232   -4188.2128    -3706.773   -4188.2128            0    351.13472    18.264321    23.514682    22.003909    9450.2319   -718.22049    1562.3841    209.24059   -313.23959   -1267.8303    323.10376 
  996000    270.37062   -4218.4514   -3755.0454   -4218.4514            0   -953.77169    18.045978    23.756054    22.242523    9535.3968    109.92376   -1753.2912   -1217.9477   -410.46236    461.93726    932.66047 
  996500    267.18466   -4204.8873    -3746.942   -4204.8873            0    1488.6614    18.050205    23.389761    22.179504    9363.9642    299.80293    1199.3346    2966.8468   -141.78791    304.24107     1123.182 
  997000    266.51069   -4224.1427   -3767.3525   -4224.1427            0   -684.46404    18.202489    23.692431    22.001271    9488.2952   -1927.8235   -386.79066    261.22204   -213.15758   -120.12102   -610.71013 
  997500    272.93237   -4182.4732   -3714.6764   -4182.4732            0   -358.91378    18.007649    23.744604    22.241583    9510.1559     435.2637    -912.0113   -599.99372    236.80081    584.71045   -257.74153 
  998000     267.7919   -4210.8214   -3751.8352   -4210.8214            0   -628.01098     18.30992    23.281251    22.293743    9503.3283   -1824.2887   -641.97229    582.22807   -541.42228    103.98104    334.33577 
  998500    270.59887   -4193.2044   -3729.4072   -4193.2044            0   -467.30823    17.951655    24.149503    21.961105    9520.6564   -431.20361   -1731.6827    760.96164    22.074197    597.03754    305.49864 
  999000    263.31595   -4207.3698   -3756.0552   -4207.3698            0    148.62451    18.120906    23.322779    22.246624    9402.0885   -234.64476    1141.5311   -461.01283    824.07721    590.18968    360.52868 
  999500    271.03354   -4205.1993   -3740.6571   -4205.1993            0   -1143.8064    18.083356    23.715973    22.251886    9543.0414    -775.1639   -1510.7799   -1145.4754      317.067    418.87138    148.84196 
 1000000    259.38362   -4212.7181   -3768.1435   -4212.7181            0   -113.87117    18.118824     23.74829    22.056537    9490.7311    35.466854    1.4618262   -378.54219    780.89522    349.63691   -180.71387 
Loop time of 3198.87 on 32 procs for 1000000 steps with 864 atoms

Performance: 54.019 ns/day, 0.444 hours/ns, 312.610 timesteps/s
3185.2% CPU use with 1 MPI tasks x 32 OpenMP threads

MPI task timing breakdown:
Section |  min time  |  avg time  |  max time  |%varavg| %total
---------------------------------------------------------------
Pair    | 277.08     | 277.08     | 277.08     |   0.0 |  8.66
Bond    | 48.989     | 48.989     | 48.989     |   0.0 |  1.53
Kspace  | 2111.6     | 2111.6     | 2111.6     |   0.0 | 66.01
Neigh   | 10.366     | 10.366     | 10.366     |   0.0 |  0.32
Comm    | 198.25     | 198.25     | 198.25     |   0.0 |  6.20
Output  | 5.6995     | 5.6995     | 5.6995     |   0.0 |  0.18
Modify  | 539.37     | 539.37     | 539.37     |   0.0 | 16.86
Other   |            | 7.546      |            |       |  0.24

Nlocal:        864.000 ave         864 max         864 min
Histogram: 1 0 0 0 0 0 0 0 0 0
Nghost:        6476.00 ave        6476 max        6476 min
Histogram: 1 0 0 0 0 0 0 0 0 0
Neighs:        205221.0 ave      205221 max      205221 min
Histogram: 1 0 0 0 0 0 0 0 0 0

Total # of neighbors = 205221
Ave neighs/atom = 237.52431
Ave special neighs/atom = 2.0000000
Neighbor list builds = 28442
Dangerous builds = 0

unfix		3
unfix		2
unfix		1

write_data	data.final.${pid}
write_data	data.final.0
System init for write_data ...
PPPM initialization ...
  extracting TIP4P info from pair style
  using 12-bit tables for long-range coulomb (../kspace.cpp:340)
  G vector (1/distance) = 0.37109337
  grid = 24 27 25
  stencil order = 5
  estimated absolute RMS force accuracy = 0.0032266466
  estimated relative force accuracy = 9.7169505e-06
  using double precision FFTW3
  3d grid and FFT values/proc = 35904 16200
Last active /omp style is kspace_style pppm/tip4p/omp
WARNING: Not all mixed pair coeffs generated from mixing. Use write_data with 'pair ij' option to store all pair coeffs. (../write_data.cpp:312)

write_restart   restart.lmp.${pid}
write_restart   restart.lmp.0
System init for write_restart ...
PPPM initialization ...
  extracting TIP4P info from pair style
  using 12-bit tables for long-range coulomb (../kspace.cpp:340)
  G vector (1/distance) = 0.37109337
  grid = 24 27 25
  stencil order = 5
  estimated absolute RMS force accuracy = 0.0032266466
  estimated relative force accuracy = 9.7169505e-06
  using double precision FFTW3
  3d grid and FFT values/proc = 35904 16200
Last active /omp style is kspace_style pppm/tip4p/omp
Total wall time: 0:53:19
