LAMMPS (30 Jul 2021)
  using 1 OpenMP thread(s) per MPI task
package omp 0
using multi-threaded neighbor list subroutines
echo both

include		in.partitions
variable        pid world 0
include		in.temp
variable        temperature equal 282.13
variable	tempDamp equal 100.0
include		in.pressure
variable        pressure equal 11250.0
variable        pressureDamp equal 1000.0 # This is 1 ps
include		in.seed
variable        seed world 745823

units		real
atom_style	full
read_restart	restart.lmp.${pid}
read_restart	restart.lmp.0
Reading restart file ...
  restart file = 30 Jul 2021, LAMMPS = 30 Jul 2021
  restoring atom style full from restart
  orthogonal box = (0.68080097 1.8934249 0.83057559) to (17.526771 21.735753 21.382620)
  4 by 4 by 4 MPI processor grid
  restoring pair style lj/cut/tip4p/long/omp from restart
  restoring bond style harmonic/omp from restart
  restoring angle style harmonic/omp from restart
  864 atoms
  576 bonds
  288 angles
Finding 1-2 1-3 1-4 neighbors ...
  special bond factors lj:    0        0        0       
  special bond factors coul:  0        0        0       
     2 = max # of 1-2 neighbors
     1 = max # of 1-3 neighbors
     1 = max # of 1-4 neighbors
     2 = max # of special neighbors
  special bonds CPU = 1.655 seconds
  read_restart CPU = 1.872 seconds
include 	in.setup
variable	out_freq equal 1000
variable	out_freq2 equal 10000
variable	out_freq3 equal 1000

timestep	2.0

neigh_modify    delay 7 every 1

include		in.tip4p
# This is TIP4P/Ice

# create groups ###
group ox type 2
288 atoms in group ox
group hy type 1
576 atoms in group hy

# set charges - beside manually ###
set group ox charge -1.1794
Setting atom values ...
  288 settings made for charge
set group hy charge 0.5897
Setting atom values ...
  576 settings made for charge

# ### TIP3P Potential Parameters ###
pair_style lj/cut/tip4p/long/omp 2 1 1 1 0.1577 8.5
pair_coeff 1 1*2 0.000 0.000
pair_coeff 2 2 0.21084 3.1668
bond_style  harmonic
bond_coeff  1 450 0.9572
angle_style harmonic
angle_coeff 1 55 104.52
kspace_style pppm/tip4p/omp 1.0e-5
pair_modify tail yes

thermo          ${out_freq}
thermo          1000
thermo_style    custom step temp pe etotal epair emol press lx ly lz vol pxx pyy pzz pxy pxz pyz enthalpy

restart 	${out_freq3} restart.lmp.${pid} restart2.lmp.${pid}
restart 	1000 restart.lmp.${pid} restart2.lmp.${pid}
restart 	1000 restart.lmp.0 restart2.lmp.${pid}
restart 	1000 restart.lmp.0 restart2.lmp.0


include         in.dump
dump            myDump all atom ${out_freq2} dump.water.${pid}
dump            myDump all atom 10000 dump.water.${pid}
dump            myDump all atom 10000 dump.water.0
dump            myDump2 all dcd ${out_freq2} dump.dcd
dump            myDump2 all dcd 10000 dump.dcd
dump_modify     myDump append yes
dump_modify     myDump2 append yes


variable natoms 	equal  "count(all)"                        # NUMBER ATOMS
variable H      	equal  "enthalpy/v_natoms"                 # ENTHALPY-per-atom
variable Vol      	equal  "vol/v_natoms"                 # volume-per-atom
fix AVG all 		ave/time ${out_freq} 1 ${out_freq} v_Vol v_H file vol_enthalpy.dat
fix AVG all 		ave/time 1000 1 ${out_freq} v_Vol v_H file vol_enthalpy.dat
fix AVG all 		ave/time 1000 1 1000 v_Vol v_H file vol_enthalpy.dat


timer           timeout 23:50:00 every 1000
New timer settings: style=normal  mode=nosync  timeout=23:50:00

fix 		1 all shake 1e-6 200 0 b 1 a 1
       0 = # of size 2 clusters
       0 = # of size 3 clusters
       0 = # of size 4 clusters
     288 = # of frozen angles
  find clusters CPU = 0.179 seconds
fix             2 all nph iso ${pressure} ${pressure} ${pressureDamp}
fix             2 all nph iso 11250 ${pressure} ${pressureDamp}
fix             2 all nph iso 11250 11250 ${pressureDamp}
fix             2 all nph iso 11250 11250 1000
fix             3 all temp/csvr ${temperature} ${temperature} ${tempDamp} ${seed}
fix             3 all temp/csvr 282.13 ${temperature} ${tempDamp} ${seed}
fix             3 all temp/csvr 282.13 282.13 ${tempDamp} ${seed}
fix             3 all temp/csvr 282.13 282.13 100 ${seed}
fix             3 all temp/csvr 282.13 282.13 100 745823

run             250000
PPPM initialization ...
  extracting TIP4P info from pair style
  using 12-bit tables for long-range coulomb (../kspace.cpp:340)
  G vector (1/distance) = 0.37488985
  grid = 24 24 24
  stencil order = 5
  estimated absolute RMS force accuracy = 0.0030900578
  estimated relative force accuracy = 9.3056172e-06
  using double precision FFTW3
  3d grid and FFT values/proc = 2535 216
Last active /omp style is kspace_style pppm/tip4p/omp
Neighbor list info ...
  update every 1 steps, delay 7 steps, check yes
  max neighbors/atom: 2000, page size: 100000
  master list distance cutoff = 10.8154
  ghost atom cutoff = 10.8154
  binsize = 5.4077, bins = 4 4 4
  1 neighbor lists, perpetual/occasional/extra = 1 0 0
  (1) pair lj/cut/tip4p/long/omp, perpetual
      attributes: half, newton on, omp
      pair build: half/bin/newton/omp
      stencil: half/bin/3d
      bin: standard
Per MPI rank memory allocation (min/avg/max) = 9.239 | 9.241 | 9.243 Mbytes
Step Temp PotEng TotEng E_pair E_mol Press Lx Ly Lz Volume Pxx Pyy Pzz Pxy Pxz Pyz Enthalpy 
 5000000    284.68848   -3778.6117   -3290.6654   -3778.6117            0    10052.357     16.84597    19.842328    20.552045    6869.7937     9712.737    11270.779    9173.5563   -488.41761    1090.9755    2095.9231   -2283.5308 
 5001000    293.75147   -3782.1545   -3278.6745   -3782.1545            0    13490.678    16.751154    19.730647    20.436369    6754.4471    12780.165     15304.32     12387.55   -333.34977   -1401.2169   -2607.6571   -1949.7525 
 5002000    281.20443   -3798.4051   -3316.4303   -3798.4051            0    10681.091    16.873471     19.87472    20.585595    6903.4931    9174.5067    10740.704    12128.063    896.51222    745.31398   -596.61399   -2241.0542 
 5003000    283.81489   -3816.1242   -3329.6752   -3816.1242            0    12202.167    16.864932    19.864662    20.575177    6893.0171    13976.197    10759.601    11870.704      566.449    1039.9267    663.62866   -2103.0208 
 5004000    279.02373   -3847.3455   -3369.1083   -3847.3455            0    10323.016    16.803913     19.79279    20.500734    6818.4686    9831.9277    9405.2325    11731.886   -442.23841    397.84686   -17.612878   -2342.5839 
 5005000    284.65995    -3788.583   -3300.6856    -3788.583            0    10439.143    16.816363    19.807454    20.515923    6833.6349    10426.351    9150.5882     11740.49    194.76363    1130.3291   -1021.3923   -2260.3043 
 5006000     289.8763   -3790.2715   -3293.4334   -3790.2715            0    11135.686    16.814939    19.805777    20.514187    6831.8999    11122.948    10349.379    11934.731    200.73748   -453.61314   -1489.4981   -2183.9154 
 5007000    282.33055   -3786.9743   -3303.0694   -3786.9743            0    14668.115    16.773079    19.756472    20.463118     6781.004    15336.357    13582.017     15085.97   -178.08717    645.27966   -416.63319   -1852.4811 
 5008000    286.22177   -3775.5095   -3284.9352   -3775.5095            0    11555.196    16.794232    19.781386    20.488923    6806.6904    12390.764    9547.0744     12727.75    395.97478    488.67894   -1332.0424    -2137.867 
 5009000    293.91979   -3764.1274   -3260.3589   -3764.1274            0    12565.199    16.797197     19.78488    20.492542    6810.2972    9858.0517    13643.597    14193.948    1798.7008   -236.49235   -235.28389   -2012.3683 
 5010000    291.13656   -3803.1469   -3304.1488   -3803.1469            0    10045.068    16.920604    19.930236    20.643097    6961.5052    8910.5429    8776.5995    12448.061    103.92062     158.0628   -521.19004   -2284.3091 
 5011000    270.49957   -3768.6013   -3304.9742   -3768.6013            0    11219.669    16.838703    19.833768    20.543178    6860.9061    11619.621    11172.294    10867.092   -1317.0014    1459.3158    746.96956   -2182.3423 
 5012000    284.31899   -3759.7864   -3272.4734   -3759.7864            0    8793.7785     16.93049     19.94188    20.655158    6973.7141    7648.2694    9401.0173    9332.0488    1094.3699   -512.41367    453.99526   -2378.1068 
 5013000    282.61777   -3763.8327   -3279.4355   -3763.8327            0    9809.6371    16.864875    19.864595    20.575108    6892.9478     10782.99    8418.3055    10227.615   -1694.4025    -1773.398   -1422.9239   -2293.3063 
 5014000    275.29135   -3781.9145   -3310.0745   -3781.9145            0    11208.102    16.804033    19.792931    20.500881    6818.6145    12191.868    9800.0793     11632.36    708.59408   -1761.8435   -1750.2099   -2195.5128 
 5015000    289.80915   -3775.1181   -3278.3952   -3775.1181            0    13301.827    16.773384    19.756831     20.46349    6781.3738    13341.161    13158.659    13405.662    177.54558   -838.45798    487.62435   -1962.8527 
 5016000    287.42662   -3789.6844    -3297.045   -3789.6844            0    10596.595    16.826074    19.818892    20.527771    6845.4808    8615.3482    12427.739    10746.699    112.20037    307.83498   -1378.1709   -2239.1412 
 5017000    269.98028   -3774.6476   -3311.9107   -3774.6476            0    12619.643    16.804865    19.793911    20.501895    6819.6272    12386.161    12856.552    12616.216    1021.1502    565.01247    926.14258   -2056.7954 
 5018000    266.75755   -3773.9612   -3316.7478   -3773.9612            0    10444.189    16.809862    19.799798    20.507993    6825.7136    8137.2973    11857.539     11337.73    561.04638    432.03764    -135.9607   -2277.0703 
 5019000    267.31672    -3734.786   -3276.6143    -3734.786            0    11580.015    16.823714    19.816113    20.524892    6842.6012        10991    12573.965     11175.08   -1951.2869   -497.22133    203.27509   -2121.0178 
 5020000    271.52043   -3773.3311   -3307.9544   -3773.3311            0    10191.594    16.791141    19.777746    20.485153    6802.9333    10072.758    11430.315    9071.7103    593.36197   -1245.5094   -122.63998   -2296.8075 
 5021000    272.40232    -3788.251   -3321.3627    -3788.251            0    11853.594    16.797582    19.785333    20.493011    6810.7652    11290.807    9439.7216    14830.255   -1211.1794    -1307.697   -610.50323   -2143.9686 
 5022000    293.80336   -3779.6936   -3276.1247   -3779.6936            0    12023.036    16.826372    19.819244    20.528135    6845.8449    12801.658    12356.347    10911.104    934.09053   -1648.1449   -1092.7288   -2075.7493 
 5023000    275.29553    -3805.432   -3333.5849    -3805.432            0     12806.52    16.834482    19.828797    20.538029    6855.7487    12390.086    12376.542    13652.931    603.38004   -1634.9239   -862.64467    -2053.137 
 5024000    293.20948   -3754.1859   -3251.6349   -3754.1859            0    9850.5224    16.878268    19.880371    20.591448    6909.3829    8842.8362    10604.386    10104.345    61.282949   -1979.1876    232.77319   -2259.0345 
 5025000    279.35268   -3778.9862   -3300.1852   -3778.9862            0    10881.917    16.839456    19.834655    20.544097    6861.8267    11694.549    10829.198    10122.005   -630.21509   -1858.7918    458.67222   -2211.2024 
 5026000    287.35657   -3776.0742   -3283.5549   -3776.0742            0    10956.803    16.865153    19.864923    20.575448    6893.2887    11942.146     11821.65    9106.6127   -118.01065    1304.0686    781.52072   -2182.0506 
 5027000    284.49869   -3760.5625   -3272.9415   -3760.5625            0    11150.687    16.895402    19.900552    20.612351    6930.4459    11477.552    10646.722    11327.789    365.27009   -674.57173   -1433.2679   -2145.9031 
 5028000    273.95168   -3787.4172   -3317.8734   -3787.4172            0    9454.3153    16.915483    19.924205     20.63685    6955.1868    9535.1511    10293.945    8533.8494     1151.047     828.8813   -243.30741   -2358.8819 
 5029000    284.59424    -3830.842   -3343.0572    -3830.842            0    10852.333    16.858376     19.85694    20.567179    6884.9816    10874.141    11176.648    10506.211    1347.2762    1394.0764   -23.708716   -2253.3701 
 5030000    284.17332   -3737.7953    -3250.732   -3737.7953            0    11872.973    16.855997    19.854138    20.564277    6882.0673    13554.944    10509.622    11554.353   -905.43329   -1427.4401   -151.57618   -2059.0667 
 5031000    286.78736   -3741.1823   -3249.6385   -3741.1823            0    11398.024    16.889269    19.893328    20.604869    6922.9015    11729.809     12502.91    9961.3524    -375.6369   -322.41347    1581.8084   -2098.8551 
 5032000    285.82887   -3782.2938   -3292.3929   -3782.2938            0    12680.991    16.898861    19.904626    20.616571    6934.7032    13510.185    11864.431    12668.356    1372.9823   -880.88787    327.86505   -2009.8942 
 5033000    287.32336    -3778.512   -3286.0495    -3778.512            0    10992.829    16.832205    19.826114    20.535251    6852.9667    10883.284    11276.829    10818.375   -332.26631    192.31808    590.02769   -2187.3878 
 5034000    274.48394   -3811.8951    -3341.439   -3811.8951            0    9902.8011    16.880671    19.883201     20.59438    6912.3342    9702.5947    8807.2834    11198.525    -658.4412    367.44448    -1797.911   -2343.1445 
 5035000    283.07164   -3820.9236   -3335.7485   -3820.9236            0    10851.902    16.799083    19.787101    20.494842    6812.5909    11294.006    11404.926    9856.7738    1881.8051   -1056.4882   -1372.3397   -2257.5615 
 5036000    283.67743   -3814.0285   -3327.8151   -3814.0285            0    13485.109    16.774495    19.758139    20.464844    6782.7206      12287.7     14617.18    13550.448   -576.73114    754.33908    1335.2512   -1993.8812 
 5037000     285.0625   -3785.9438   -3297.3564   -3785.9438            0    12910.655    16.846927    19.843455    20.553212    6870.9645    12269.839    13383.559    13078.566   -1430.4659    208.92287   -1956.2748   -2003.6317 
 5038000    285.86884   -3787.0128   -3297.0434   -3787.0128            0    10781.094    16.883807    19.886895    20.598206    6916.1875    10466.916    10622.747    11253.619   -1139.4151    142.60999    268.63673   -2209.6029 
 5039000    269.23399   -3782.2031   -3320.7452   -3782.2031            0    10588.369    16.884402    19.887595    20.598931    6916.9182    10774.108    9285.7534    11705.245   -144.51459     185.8577    681.30606   -2252.6313 
 5040000    280.13695   -3820.8872   -3340.7421   -3820.8872            0    9663.4486    16.899813    19.905748    20.617733     6935.876    8961.1066    8709.2617    11319.978    467.51588    894.53052   -1401.8207   -2363.2588 
 5041000    277.71785   -3805.7888   -3329.7899   -3805.7888            0    11574.274    16.916975    19.925962     20.63867    6957.0271    13125.255    12432.641    9164.9248    935.26235   -1143.2623    1227.3632   -2155.4513 
 5042000    271.76089   -3770.1758    -3304.387   -3770.1758            0    12772.376     16.76682    19.749099    20.455481    6773.4149    12762.473    13827.473    11727.181    645.21841   -2063.9799   -300.75123   -2042.6894 
 5043000    285.80401   -3766.0673    -3276.209   -3766.0673            0    11455.198     16.82584    19.818617    20.527485    6845.1952    11221.193     12490.48    10653.921   -950.92715    969.79302    76.763016   -2132.6349 
 5044000    290.74283   -3769.2388   -3270.9155   -3769.2388            0    12079.834    16.881518    19.884198    20.595412    6913.3742    12201.231    11937.964    12100.307   -273.56766   -1198.2757   -1603.8792   -2052.9726 
 5045000    262.32123   -3805.8279   -3356.2183   -3805.8279            0    9850.3949    16.863943    19.863497    20.573971    6891.8046    11426.214    10182.129     7942.841   -2014.0031    179.14355   -1331.3288   -2366.1561 
 5046000    285.08626   -3775.2072   -3286.5791   -3775.2072            0    12156.937    16.763664    19.745382    20.451631    6769.5916    11706.245    11522.286    13242.278    1665.5569    2301.6603    2356.6615   -2086.3546 
 5047000    270.53206   -3789.2315   -3325.5488   -3789.2315            0    10423.205    16.847508    19.844139    20.553921    6871.6751    9909.2425    10142.333     11218.04    169.91267    1193.6622    650.25455   -2280.9734 
 5048000    286.08328   -3771.0054   -3280.6684   -3771.0054            0    10190.135    16.871153     19.87199    20.582768    6900.6484     10648.23    10117.342    9804.8313   -864.28654    860.48585   -849.20355   -2255.1447 
 5049000    283.08325   -3768.0197   -3282.8247   -3768.0197            0    10042.153    16.940357    19.953503    20.667196    6985.9148    11198.633    7762.3406    11165.485   -953.59895   -1601.0321   -623.19254   -2259.7061 
 5050000    280.28784   -3770.9565   -3290.5527   -3770.9565            0     12491.36    16.769178    19.751877    20.458358    6776.2737    13194.936    11136.645    13142.498   -1034.4599   -1703.8766   -296.49327   -2056.0941 
 5051000    289.95809   -3742.5692    -3245.591   -3742.5692            0    10922.767    16.919447    19.928874    20.641686    6960.0779    9700.5012    12358.134    10709.666    368.52573   -921.03679   -564.02121    -2136.869 
 5052000    286.97144   -3803.5343   -3311.6751   -3803.5343            0    11347.677    16.890199    19.894423    20.606003    6924.0446    9249.8929     12249.78    12543.358    1247.2309    59.333696   -21.507985   -2165.7857 
 5053000    274.06511   -3793.9577   -3324.2195   -3793.9577            0    12498.623    16.848502    19.845309    20.555133    6872.8909    10158.706    13706.977    13630.185   -222.46247    216.17302    271.02655   -2071.4318 
 5054000    274.66611   -3756.2119   -3285.4436   -3756.2119            0    10717.386    16.899005    19.904795    20.616746    6934.8803    10245.461     11321.09    10585.606    1323.8572    148.14086    1812.1514   -2201.5073 
 5055000    275.35101   -3769.0131   -3297.0709   -3769.0131            0    11203.914    16.834765    19.829129    20.538373    6856.0935    11463.587    10314.097    11834.058   -779.60873   -1380.1795   -754.93462   -2176.8017 
 5056000    301.56521   -3763.9764    -3247.104   -3763.9764            0    9658.6056    16.827264    19.820294    20.529223    6846.9334    9724.7458    11100.736    8150.3346    1562.1021   -186.81603    2208.6746   -2282.6391 
 5057000    278.04348   -3781.7372   -3305.1802   -3781.7372            0    10139.483    16.829431    19.822847    20.531866    6849.5791    10912.121    9462.0518    10044.275    438.83533   -433.69062   -644.72911   -2292.3059 
 5058000     291.7389   -3839.2163   -3339.1858   -3839.2163            0    9417.4405    16.908612    19.916111    20.628467    6946.7147    8589.7073    8307.3878    11355.226   -30.281508    1035.8956   -140.44421   -2385.0983 
 5059000    286.54236   -3785.8777   -3294.7539   -3785.8777            0    10498.545    16.846849    19.843363    20.553117     6870.869    11206.574    11656.072    8632.9896    1541.3512   -79.640034   -623.03159   -2242.7516 
 5060000    269.17393   -3795.7739    -3334.419   -3795.7739            0     10191.39    16.815683    19.806654    20.515094    6832.8067    10770.432    8471.1857    11332.553    583.40428   -1591.2341     775.5704   -2318.8523 
 5061000    278.50962   -3781.8967   -3304.5407   -3781.8967            0    11730.191    16.800274    19.788504    20.496295    6814.0402    13292.608    11195.467    10702.499    1769.1481    47.749207    1603.3095   -2138.8437 
 5062000     284.5271    -3758.896   -3271.2263    -3758.896            0    11858.537    16.792497    19.779343    20.486807    6804.5818    13058.876    10185.673     12331.06   -227.72613   -47.173623    436.47471   -2094.4107 
 5063000    286.93525   -3739.6415   -3247.8443   -3739.6415            0     10575.02    16.867576    19.867777    20.578404      6896.26    11283.494    12207.028    8234.5384    766.30893   -1266.1031   -1408.1039    -2184.263 
 5064000    279.80998   -3770.4702   -3290.8855   -3770.4702            0    12300.647     16.86313    19.862539    20.572979    6890.8078    14173.806    10364.848    12363.288    757.90778     -259.108   -167.90705   -2054.7275 
 5065000    265.84641   -3774.7919   -3319.1402   -3774.7919            0    13675.875    16.806812    19.796204    20.504271    6821.9983    13529.212    15075.578    12422.836    1397.4184   -2311.2039   -40.563465   -1958.5021 
 5066000     289.8401   -3764.6762   -3267.9002   -3764.6762            0    9379.9531    16.869524    19.870071    20.580779    6898.6489    6588.8527    10112.642    11438.364    488.96268    953.42664   -466.57305   -2324.1858 
 5067000    265.35483   -3781.7025   -3326.8934   -3781.7025            0    12082.935    16.805932    19.795168    20.503198     6820.927    13653.797     10850.01    11744.997   -596.59514    1414.2499   -1421.7906   -2124.9287 
 5068000    280.47922    -3760.359   -3279.6272    -3760.359            0    12142.452    16.829458    19.822878    20.531899     6849.612    13117.651    11936.969    11372.736    1424.8011    280.54483    -722.8824   -2066.6622 
 5069000    267.93067   -3801.7531   -3342.5291   -3801.7531            0    10730.805    16.822325    19.814477    20.523197    6840.9064    12053.787    10431.541    9707.0861   -809.85612   -886.34553     793.7369   -2271.9424 
 5070000     271.6421   -3769.1586   -3303.5734   -3769.1586            0     12241.81    16.840143    19.835464    20.544935    6862.6666    10863.922    13096.056    12765.451    858.63979    434.68042   -425.88973   -2078.3524 
 5071000    274.32761   -3818.2704   -3348.0822   -3818.2704            0    8948.4954    16.903866    19.910522    20.622677    6940.8673    9628.7214    8641.7337    8575.0312   -1112.1326   -1853.3762    600.85194   -2442.2669 
 5072000    293.38509   -3746.5196   -3243.6676   -3746.5196            0    9690.9622    16.860595    19.859553    20.569886    6887.7004    9251.8112    11196.538     8624.537    -1134.945   -427.30179     42.97138     -2270.21 
 5073000    276.82877   -3789.5598   -3315.0848   -3789.5598            0    13407.411     16.72348    19.698051    20.402607    6721.0259    13663.417    13788.108    12770.709    -2270.929   -939.46194   -215.77147   -2000.9001 
 5074000    280.49821   -3779.7778   -3299.0135   -3779.7778            0    9762.7652    16.862122    19.861353     20.57175    6889.5729    11846.344    9265.3124    8176.6391    11.323408   -71.711343    -1763.683   -2318.0767 
 5075000    276.23606   -3746.8027   -3273.3435   -3746.8027            0    11679.976    16.849475    19.846455     20.55632    6874.0816    11831.767    11969.541     11238.62    1191.9468   -856.19851   -809.58818   -2102.4092 
 5076000    287.52543   -3788.9366   -3296.1278   -3788.9366            0    10338.011    16.854779    19.852703    20.562791    6880.5756    10171.878     9107.106    11735.049    966.40272    841.87897   -493.16641   -2258.7484 
 5077000    276.23132   -3792.7001   -3319.2491   -3792.7001            0    12629.329     16.76144    19.742762    20.448917    6766.8965    10708.898    14361.553    12817.535    374.45608   -1476.8185    165.90182   -2072.8828 
 5078000    293.30266    -3760.468   -3257.7573    -3760.468            0    10998.677    16.906634    19.913781    20.626053    6944.2766    9239.5974    11762.761    11993.674    1646.4247   -654.01856   -895.48341   -2143.8646 
 5079000    280.41633   -3785.8247   -3305.2007   -3785.8247            0    11541.701    16.865864     19.86576    20.576315    6894.1606    10115.713     12089.76    12419.631   -401.63187   -633.62965    225.37772   -2144.7489 
 5080000    293.98389   -3775.5965   -3271.7182   -3775.5965            0    11111.602     16.86672    19.866769     20.57736    6895.2106     10283.78    10640.722    12410.305    740.98601   -721.44126    413.39355   -2154.3402 
 5081000    276.39562   -3774.2598   -3300.5272   -3774.2598            0     10724.99    16.938447    19.951253    20.664865    6983.5515    10407.272    10521.182    11246.514    1522.2905     125.6243    770.11368   -2208.2091 
 5082000    278.17412   -3824.7299    -3347.949   -3824.7299            0    11898.912    16.896324    19.901638    20.613476    6931.5808    11910.982    12137.536    11648.219   -170.63876   -2421.1649   -1714.5782    -2145.088 
 5083000    265.28521   -3777.7302   -3323.0404   -3777.7302            0    10448.893    16.881494     19.88417    20.595383    6913.3447    8388.7962    11799.576    11158.307   -386.63051   -882.32903    158.81088   -2269.5408 
 5084000    289.28497    -3744.222   -3248.3975    -3744.222            0    11386.071    16.876273    19.878021    20.589014    6906.9329    11157.195    11308.174    11692.842   -603.68381   -494.02285    1152.7819   -2101.4725 
 5085000    288.96813    -3787.426   -3292.1445    -3787.426            0    13517.698    16.815605    19.806562    20.514999    6832.7115     15172.37    12284.562    13096.161   -1175.3262    2112.6691    270.66411   -1945.1318 
 5086000    288.74876   -3804.7088   -3309.8033   -3804.7088            0    11150.489    16.883917    19.887024     20.59834    6916.3226    8265.5768     12317.81    12868.082   -287.63433   -736.85854    1444.5976   -2185.0817 
 5087000    283.67548   -3821.7442   -3335.5342   -3821.7442            0    10910.052    16.858388    19.856954    20.567193    6884.9959     10538.81    10609.654    11581.692   -308.53614   -1930.5528   -71.642622   -2240.0493 
 5088000    299.62708   -3773.5848   -3260.0342   -3773.5848            0    11915.631    16.801262    19.789668    20.497501    6815.2426    10113.409    13162.456    12471.029   -107.19754   -1456.7661   -817.17349      -2075.7 
 5089000     266.8645   -3810.0526    -3352.656   -3810.0526            0    14544.842    16.761616     19.74297    20.449133    6767.1107    13454.667    13440.253    16739.605    -698.7885    620.57624     1094.614   -1917.2057 
 5090000    283.56042   -3791.6287   -3305.6158   -3791.6287            0    12814.436    16.814906    19.805738    20.514146    6831.8594    13280.707    13101.218    12061.384    -1426.116   -199.15999    58.073092    -2028.841 
 5091000    287.75198   -3816.6994   -3323.5024   -3816.6994            0    10179.694    16.807076    19.796515    20.504593    6822.3195      11075.4    9905.7691    9557.9121   -799.21262      1046.77   -1121.8604   -2310.6581 
 5092000    296.02403   -3784.3476   -3276.9726   -3784.3476            0    11824.286    16.793177    19.780144    20.487637    6805.4082    10700.728    12065.016    12707.115    545.43173    1576.3052    7.6520894   -2103.4134 
 5093000    269.98063   -3791.5558   -3328.8182   -3791.5558            0    12018.413    16.828669     19.82195    20.530937    6848.6494    13382.847    13007.475    9664.9182    974.76075   -917.49491   -56.909144   -2128.4128 
 5094000    282.53089   -3796.6648   -3312.4165   -3796.6648            0    11332.629    16.800609    19.788898    20.496704    6814.4476    12706.736    10988.828    10302.324   -1059.4981   -2203.9347    1127.1009   -2186.1603 
 5095000    268.29752   -3822.4584   -3362.6057   -3822.4584            0    12528.892    16.831426    19.825196      20.5343    6852.0149    10353.983    15017.954    12214.741    33.483777     1420.737   -924.92665   -2110.5984 
 5096000    281.68337   -3789.0991   -3306.3034   -3789.0991            0    11366.616    16.800774    19.789093    20.496905    6814.6487    11090.432    11468.822    11540.594   -766.72688   -677.44388   -2333.0816   -2176.6361 
 5097000    294.83539   -3821.7735   -3316.4357   -3821.7735            0    13005.931    16.716785    19.690164    20.394438    6712.9567    13202.241    12075.727    13739.824    1381.1668    467.98647    -1141.414   -2043.1345 
 5098000    266.76245   -3805.8965   -3348.6747   -3805.8965            0    11939.051    16.790221    19.776662     20.48403     6801.815    11205.989    12294.953    12316.212    57.669158   -803.20263    440.30561   -2164.3508 
 5099000     282.6593   -3781.4558   -3296.9875   -3781.4558            0    9874.6834     16.85566    19.853741    20.563865    6881.6544     11274.82    11773.566    6575.6647    369.28356    818.14897    224.24958   -2305.9458 
 5100000    272.88386   -3785.6963   -3317.9827   -3785.6963            0    9239.9905    16.856133    19.854298    20.564443    6882.2344     9240.009    10168.965    8310.9971   -882.31496   -2001.6941   -501.20168   -2390.5619 
 5101000    267.48904   -3789.2952   -3330.8282   -3789.2952            0    12168.543    16.866405    19.866397    20.576975    6894.8236    13506.915    11554.279    11444.434    1511.3087    496.14278    414.70916   -2107.2334 
 5102000    293.29668   -3780.3936   -3277.6932   -3780.3936            0      11116.4    16.908876    19.916423     20.62879    6947.0405    9098.3747    13273.227    10977.599    231.45603    1612.2598   -790.33005     -2151.43 
 5103000    282.12698   -3781.5128   -3297.9568   -3781.5128            0    10815.474    16.849624    19.846632    20.556502    6874.2645    10858.235    11759.948      9828.24   -467.88031   -2070.1675    624.62854   -2213.6612 
 5104000    297.54832   -3825.8831   -3315.8955   -3825.8831            0    12212.976    16.904002    19.910682    20.622843    6941.0349    12429.535    12189.809    12019.585    554.39942   -45.415256     208.5861   -2079.6019 
 5105000    294.93006   -3783.6499   -3278.1499   -3783.6499            0    10546.767    16.877131    19.879031    20.590061    6907.9864    10832.827    11361.077    9446.3961   -13.963421   -697.18417    1633.7971   -2215.6064 
 5106000    279.68394   -3824.8801   -3345.5114   -3824.8801            0     11534.35    16.805525    19.794689    20.502702    6820.4319    11292.042    10415.101    12895.905   -929.15774    926.23968   -81.145182   -2198.2011 
 5107000    283.29981   -3829.8437   -3344.2775   -3829.8437            0    11211.601    16.763802    19.745544    20.451799    6769.7581    12077.156    10274.518    11283.129    611.74488   -1435.5279    738.58475   -2237.3564 
 5108000    279.75372   -3801.7588   -3322.2705   -3801.7588            0    9087.7017    16.889168    19.893209    20.604745    6922.7772    10594.659    7936.6844     8731.762    -444.5185   -2424.6633    -1433.871   -2404.7615 
 5109000    291.72919   -3838.7776   -3338.7637   -3838.7776            0     11001.66    16.796893    19.784522    20.492171    6809.9273    10856.266      12151.1    9997.6151    870.93049   -731.99119   -38.845129    -2246.125 
 5110000    280.88109   -3797.0701   -3315.6495   -3797.0701            0    11378.662    16.797049    19.784706    20.492361    6810.1173    11167.797    12539.483    10428.707   -747.24923   -364.70428   -1038.2315    -2185.537 
 5111000    286.13522   -3777.6357   -3287.2097   -3777.6357            0    11944.039     16.84011    19.835426    20.544895     6862.627    12099.533    10778.519    12954.065    106.16779    113.85173    1408.5157   -2091.7981 
 5112000    273.34335   -3798.2287   -3329.7275   -3798.2287            0    9813.9461    16.907037    19.914256    20.626545    6944.7734    10359.457    9543.4351    9538.9467   -1344.9539    63.934922    -507.3785   -2335.7476 
 5113000    269.36997   -3783.7997   -3322.1088   -3783.7997            0    11902.004    16.827433    19.820493    20.529429    6847.1398     9078.405    12109.471    14518.135    884.51167    301.02854   -1095.1489   -2133.5924 
 5114000    302.74072   -3795.4708   -3276.5835   -3795.4708            0    9930.1335    16.818897    19.810439    20.519015    6836.7255    11187.475    9445.8662     9157.059   -47.437774    980.44384   -1315.3104   -2286.4834 
 5115000    293.39778   -3765.3454   -3262.4717   -3765.3454            0     14219.41    16.728157    19.703559    20.408313    6726.6663    13396.263    14301.329    14960.637   -903.31036   -188.59591   -199.51012   -1867.5259 
 5116000    274.29522   -3786.2189   -3316.0863   -3786.2189            0    12017.894    16.751678    19.731264    20.437008    6755.0807    12305.392    11689.545    12058.743    -22.62839    1334.6814   -1310.7439   -2132.1324 
 5117000    282.98429   -3820.4752   -3335.4498   -3820.4752            0    11366.139    16.769835    19.752651     20.45916    6777.0699    11619.738    11036.022    11442.656    1487.5674     83.14887    426.30523   -2212.0591 
 5118000    280.48656   -3827.4371   -3346.6927   -3827.4371            0    11003.073    16.782533    19.767607    20.474651    6792.4764    10785.984    9834.0639    12389.172    -1345.708   -621.41188    24.165598    -2256.714 
 5119000     288.6982   -3786.8977   -3292.0789   -3786.8977            0    10571.891     16.80898    19.798759    20.506917    6824.6392    9012.8179    9500.8864    13201.968    555.23654   -696.43257    445.13506   -2239.8548 
 5120000    268.37884   -3776.0229   -3316.0307   -3776.0229            0    9526.0879    16.891784     19.89629    20.607937    6925.9943    10124.704    10372.932    8080.6278    518.56492   -541.98351   -332.68115   -2353.8147 
 5121000    300.61483   -3844.2975    -3329.054   -3844.2975            0    12593.614    16.844491    19.840585     20.55024    6867.9838    11304.673    14531.327    11944.842    969.23248     1289.286    380.05217   -2067.6461 
 5122000    283.41947   -3779.2155   -3293.4442   -3779.2155            0    9971.3755    16.897976    19.903584    20.615492    6933.6145    11045.186    9068.9681    9799.9724    477.92069   -1704.0905   -1138.9676   -2285.1422 
 5123000    279.74957   -3817.7785   -3338.2973   -3817.7785            0    9341.7255    16.877281    19.879208    20.590244    6908.1708    9944.7516    9150.8832    8929.5417   -278.66068   -899.59823    871.07003   -2397.1316 
 5124000    293.13344   -3776.1642   -3273.7435   -3776.1642            0    9790.2074    16.846854    19.843369    20.553122    6870.8745    10587.673    11590.742    7192.2067    594.74502   -455.66759    34.528484   -2292.7191 
 5125000    280.45696   -3742.1236     -3261.43   -3742.1236            0    11799.709    16.865519    19.865354    20.575894    6893.7374    14449.756    10855.884    10093.486   -1438.8616    -589.0584    446.56552   -2075.1099 
 5126000    300.71144   -3821.8275   -3306.4184   -3821.8275            0    12769.862    16.771836    19.755007    20.461601    6779.4959    11684.267    13021.837    13603.482   -1071.6328   -251.45212   -1455.9692   -2043.8366 
 5127000    289.12266   -3779.4328   -3283.8864   -3779.4328            0    12279.051    16.840618    19.836024    20.545515    6863.2478    12797.425    12504.234    11535.494   -1214.1483   -254.27718   -109.32513   -2054.8341 
 5128000    270.34856   -3759.2786   -3295.9104   -3759.2786            0    12101.226    16.878374    19.880495    20.591577    6909.5122     10834.98    12392.156    13076.543    123.74466    912.13489   -455.44333   -2076.4922 
 5129000    277.54804   -3748.0018   -3272.2939   -3748.0018            0     11175.25    16.876493    19.878279    20.589281    6907.2021    10476.329     10739.62    12309.802    457.52315    780.42651    797.59595   -2146.5611 
 5130000    276.17055   -3775.9638   -3302.6169   -3775.9638            0    9842.8391    16.836627    19.831322    20.540645    6858.3688    11378.948    9170.4535     8979.116    690.31894   -185.13261   -434.42568   -2318.1138 
 5131000    292.57181   -3824.5195   -3323.0614   -3824.5195            0    11731.973    16.831072    19.824779    20.533868    6851.5828    11064.162    11392.257    12739.499   -1723.9877    974.61446    -3216.032   -2150.7639 
 5132000     285.2136   -3748.6496   -3259.8033   -3748.6496            0     11606.23     16.85507    19.853046    20.563146    6880.9323    10508.455    11607.603    12702.631   -2443.1161   -710.90947    54.237343   -2095.1026 
 5133000    283.53675   -3787.8913    -3301.919   -3787.8913            0    9799.4188    16.862144    19.861379    20.571777       6889.6    8172.0158    12182.852    9043.3882     202.2055    737.03832   -242.10684   -2317.2955 
 5134000     273.9582    -3803.382   -3333.8271    -3803.382            0    9252.9451    16.840054    19.835359    20.544826    6862.5577    10571.839    7870.7795    9316.2171    595.10189   -185.92073    931.47931   -2407.7612 
 5135000    265.08467   -3786.6049   -3332.2589   -3786.6049            0    9680.4197    16.812211    19.802563    20.510858    6828.5746    8606.8988    8763.0196     11671.34   -665.82511   -658.02598    1535.3177   -2368.2076 
 5136000    286.16253    -3794.891   -3304.4182    -3794.891            0    11000.592    16.835136    19.829566    20.538826     6856.547    10363.512    10836.634    11801.629    439.83708   -390.38834    1001.0774   -2204.4063 
 5137000    271.48869   -3805.1677   -3339.8454   -3805.1677            0    11223.943    16.817215    19.808458    20.516963    6834.6746    10867.407    11762.056    11042.367    1085.4504     732.9227    -640.8177   -2221.0796 
 5138000     277.2876   -3774.9381   -3299.6767   -3774.9381            0    10403.491    16.823429    19.815777    20.524544    6842.2534    11154.732    10990.501    9065.2391   -594.70972   -77.616064    1997.4077    -2261.541 
 5139000    267.06823   -3813.2828    -3355.537   -3813.2828            0    11169.293    16.786752    19.772576    20.479798    6797.5999    12750.525    10749.737    10007.618   -3172.1056   -658.12125    1695.6962   -2248.2577 
 5140000    274.12963   -3761.2524   -3291.4036   -3761.2524            0     9602.414    16.879126    19.881381    20.592495    6910.4367    11456.642    8780.3586    8570.2418    261.26114    1486.6715    541.72802   -2323.6567 
 5141000    280.95054   -3814.4363   -3332.8967   -3814.4363            0    12139.477    16.831378     19.82514    20.534242    6851.9571    11517.196    14201.208    10700.028   -234.54589   -751.05158    96.148648   -2119.8137 
 5142000    274.82903   -3799.0288   -3327.9812   -3799.0288            0    11593.709     16.83964    19.834872    20.544322     6862.052    10272.409    11153.616      13355.1   -877.74441   -438.45855   -87.442416   -2167.7294 
 5143000    268.71708   -3756.1952   -3295.6233   -3756.1952            0    13169.737    16.833557    19.827706      20.5369    6854.6179    13957.539    10857.766    14693.906     478.9795   -641.84217    695.86073   -1979.0767 
 5144000    282.80271   -3784.9675   -3300.2534   -3784.9675            0    9565.4196    16.894456    19.899438    20.611197    6929.2824    8360.2494    9662.5708    10673.439    12.247872   -858.05507    1663.0715   -2333.6058 
 5145000    284.72042   -3743.7984   -3255.7973   -3743.7984            0    11245.698    16.882265    19.885078    20.596324    6914.2921     13818.07    10067.109    9851.9159   -192.84457    1121.4989    545.01981   -2121.8052 
 5146000    281.44887   -3788.5375   -3306.1438   -3788.5375            0    10127.288    16.910074    19.917834    20.630251    6948.5169    9705.0832    12367.214    8309.5672    1740.2289    292.12688   -1615.6693   -2279.8749 
 5147000    273.60059   -3780.5194   -3311.5774   -3780.5194            0    13144.347    16.839142    19.834285    20.543714    6861.4434    16748.664    10807.765    11876.611    1026.3501   -2105.7219   -2251.7649   -1996.2605 
 5148000    274.15009    -3778.621   -3308.7371    -3778.621            0    11965.712    16.812743    19.803191    20.511507    6829.2235    11799.276    13118.521    10979.339     -1305.21    1809.8114      256.881   -2116.9854 
 5149000    299.02047   -3754.7828   -3242.2719   -3754.7828            0     13305.55    16.791193    19.777808    20.485217    6802.9971    14332.642    13745.277    11838.729    1808.2513    212.09908   -431.07585   -1922.1654 
 5150000    284.06707   -3821.2916   -3334.4104   -3821.2916            0    10271.197    16.865259    19.865047    20.575576    6893.4179    10458.869    9599.3516     10755.37    959.14072   -122.58681    1033.8354   -2301.8118 
 5151000    289.99996   -3779.0288   -3281.9788   -3779.0288            0    12192.526    16.852904    19.850495    20.560504    6878.2797    10575.134    13992.553    12009.892   -1085.8479     868.0945   -684.80776   -2058.9141 
 5152000    264.54927   -3806.8589   -3353.4305   -3806.8589            0    9720.9072    16.834153    19.828409    20.537628    6855.3465    8579.9699     12910.96    7671.7915    317.49624   -1886.3519    1083.4086   -2381.5517 
 5153000    295.11811   -3802.5305   -3296.7081   -3802.5305            0    13069.567    16.743484    19.721612    20.427011    6745.1727    13694.204    11189.551    14324.946    1821.8396    302.71578    995.14047   -2011.0362 
 5154000    283.57376   -3805.3198   -3319.2841   -3805.3198            0    9457.4661    16.806182    19.795462    20.503502    6821.2308    9154.0092    9008.3358    10210.053   -1341.8934   -1120.8787    -272.1632   -2378.4492 
 5155000    273.96083   -3785.2429   -3315.6834   -3785.2429            0    11304.102    16.855346    19.853372    20.563483    6881.2706    9443.8724    13984.663     10483.77    1317.5459    291.30222    1319.7204   -2181.2459 
 5156000    261.43468   -3830.0926   -3382.0025   -3830.0926            0     9755.998     16.87951    19.881833    20.592963     6910.908    10166.539    9661.2135    9440.2416   -98.416957    1121.1603     207.6243   -2398.7101 
 5157000    278.62058   -3811.1657   -3333.6195   -3811.1657            0    10953.148    16.842539    19.838287    20.547859    6865.5968    10818.765    11534.026    10506.652    2293.4243    1226.3981    2191.1624   -2236.9062 
 5158000    261.52313   -3781.1462   -3332.9045   -3781.1462            0    10062.463    16.864652    19.864332    20.574836    6892.6735     11117.42    10150.269    8919.7013   -126.73942    1463.3241    1269.2639   -2321.3998 
 5159000     279.3044   -3783.9285   -3305.2103   -3783.9285            0    10696.829    16.863918    19.863468    20.573941    6891.7745    9425.0373    10339.892    12325.559   -100.40843     -346.774    594.88281   -2230.0778 
 5160000    305.67022   -3792.0358   -3268.1275   -3792.0358            0    12489.395    16.845062    19.841258    20.550936    6868.6821    12128.508    11381.044    13958.633   -1982.8512   -383.03913   -2230.2896   -2017.0313 
 5161000     267.6314   -3781.9701    -3323.259   -3781.9701            0    12171.746    16.818544    19.810024    20.518585     6836.295     9106.967     14021.26    13387.011   -595.63868    228.26446    2097.1763   -2109.7317 
 5162000    274.63497   -3771.5079    -3300.793   -3771.5079            0    9173.7318    16.879164    19.881426    20.592541    6910.4832    10485.192    8187.4649    8848.5389     296.7339    47.535784    1222.1276   -2376.2431 
 5163000     284.6237   -3758.7637   -3270.9284   -3758.7637            0    14539.752    16.757909    19.738604     20.44461    6762.6218     14932.56    14367.307    14319.388   -1916.7566   -2330.7467    914.80061   -1836.9323 
 5164000    282.49578   -3771.3763   -3287.1882   -3771.3763            0    12044.572    16.769123    19.751812    20.458291    6776.2065     14109.03     11394.11    10630.577    80.262347    198.02594   -614.59143   -2096.8951 
 5165000    279.39151   -3792.1443   -3313.2768   -3792.1443            0    11249.597    16.838196     19.83317     20.54256    6860.2865    11963.698    10821.884     10963.21   -737.62562    650.94869   -1203.5901   -2187.7518 
 5166000    295.43595   -3803.5227   -3297.1555   -3803.5227            0    10220.428    16.841167     19.83667    20.546184    6863.9185     10430.57    10406.985    9823.7305     -1214.48    947.75897   -1819.2522   -2274.0578 
 5167000    275.44223    -3818.049   -3345.9505    -3818.049            0    10238.931    16.845289    19.841525    20.551213    6868.9601    9900.0255    12241.891    8574.8754   -662.19609   -1068.9115     1188.555   -2320.2478 
 5168000    284.44285   -3754.7743   -3267.2489   -3754.7743            0     11372.26     16.82264    19.814848    20.523582     6841.291    10213.898    10780.401    13122.482   -755.50603    1850.4976    1079.1874    -2132.602 
 5169000    295.67916   -3801.3089   -3294.5249   -3801.3089            0    10239.783    16.868333    19.868669    20.579327     6897.189    9912.5453    10212.605    10594.197     741.6274    1480.1607    665.63387   -2264.5213 
 5170000    280.27231   -3770.8772      -3290.5   -3770.8772            0    13757.565    16.785288    19.770852    20.478012    6795.8217    12638.238    14315.489    14318.969   -492.64936   -202.24431   -1803.8017   -1926.9865 
 5171000    261.47013   -3752.4305   -3304.2797   -3752.4305            0    10575.148    16.845646    19.841946    20.551648    6869.3965     10809.03    10216.723    10699.689    -492.8534    1002.4981    -921.7756   -2244.8286 
 5172000    272.56001   -3758.8612   -3291.7027   -3758.8612            0    11113.751    16.806909    19.796318    20.504389    6822.1161    11703.395    11563.333    10074.524     -267.137    1103.9743   -409.23266    -2185.956 
 5173000    288.86299   -3818.2315   -3323.1303   -3818.2315            0    12932.376    16.833402    19.827524    20.536711    6854.4288    12095.996    12777.895    13923.236    541.78667   -54.448674   -339.06211   -2030.3477 
 5174000    271.22651    -3784.182   -3319.3091    -3784.182            0    12437.613    16.856217    19.854397    20.564545    6882.3369    13265.712    14200.158    9846.9699   -411.45879     -452.209    -1107.087   -2070.9231 
 5175000    294.79845    -3780.821   -3275.5466    -3780.821            0    12265.132     16.79319     19.78016    20.487653    6805.4241    11289.596    13140.978    12364.822    831.99357    315.71263    1096.1058   -2058.2306 
 5176000     282.1458   -3785.8237   -3302.2354   -3785.8237            0    10676.802    16.767204    19.749552     20.45595    6773.8808    11183.049    11294.813    9552.5449    109.96628    418.98819   -1059.4493    -2247.473 
 5177000    291.01481   -3792.9168   -3294.1274   -3792.9168            0    9414.6278    16.888648    19.892597    20.604112    6922.1383    9072.2826     10253.24    8918.3612   -1047.7651    1229.5399   -0.2991066   -2343.6992 
 5178000    302.85102   -3790.1357   -3271.0594   -3790.1357            0    14251.043    16.769634    19.752413    20.458914    6776.8256    16997.246    13427.323     12328.56    208.43175    455.83078   -1608.5854   -1862.5853 
 5179000    296.15777   -3820.9314   -3313.3271   -3820.9314            0    11320.921    16.833386    19.827505    20.536692    6854.4094    10761.982    11203.135    11997.645   -827.35293   -892.77861   -257.31273   -2181.6366 
 5180000    269.48566   -3779.2016   -3317.3124   -3779.2016            0    10529.947    16.818759    19.810277    20.518847    6836.5569    11038.693    9749.5085    10801.639    -595.0945    905.96416   -981.25018   -2267.4328 
 5181000    293.24777   -3809.0511   -3306.4344   -3809.0511            0    10180.155    16.830113    19.823651    20.532699    6850.4124    10128.109    7513.3185    12899.039   -93.889864   -799.11573    1671.4381   -2289.3734 
 5182000    293.67287   -3787.3129   -3283.9677   -3787.3129            0    11668.938    16.822479    19.814659    20.523385    6841.0946    11101.363    12227.342    11678.109   -161.29074    241.97544   -439.15815   -2119.7537 
 5183000    282.99502   -3813.2699   -3328.2261   -3813.2699            0    13708.635    16.755589     19.73587    20.441779    6759.8125    14622.756    13414.713    13088.436   -135.94804    211.95926    11.033721   -1976.7612 
 5184000    289.51334   -3805.2729   -3309.0569   -3805.2729            0    12180.513    16.813988    19.804657    20.513026    6830.7408    9437.1152    13029.844    14074.581    498.89442    1758.0275    245.60087   -2095.6421 
 5185000    301.18698   -3788.7506   -3272.5264   -3788.7506            0    12580.115    16.840287    19.835634    20.545111     6862.843    11981.393    12515.322    13243.629   -1252.9973   -321.43911    21.062917   -2013.4139 
 5186000     281.9791   -3738.1702   -3254.8677   -3738.1702            0    11540.318     16.86519    19.864966    20.575492    6893.3334    11762.778    10284.889    12573.285    154.02284    -194.8063    1532.2499   -2094.6942 
 5187000    286.66937   -3824.1624   -3332.8209   -3824.1624            0     10057.56    16.857101    19.855439    20.565624    6883.4201    8798.5573    10908.521    10465.603   -1265.7816    1612.1799    2146.9203   -2323.1663 
 5188000    288.50693   -3747.6816   -3253.1906   -3747.6816            0     12904.75    16.824829    19.817427    20.526253    6843.9621    13854.551    10868.667    13991.034    925.01412     402.7068   -1363.8612   -1965.1395 
 5189000    283.81562    -3817.059   -3330.6088    -3817.059            0     10567.84    16.855515     19.85357    20.563689    6881.4768    10298.962    10958.469     10446.09    1317.3466   -1842.1601    1286.2064   -2270.0279 
 5190000     290.6876   -3767.8046    -3269.576   -3767.8046            0    12516.771    16.825819    19.818592     20.52746      6845.17     13087.19    13768.209    10694.913   -136.46173    225.11101    769.18614   -2020.0295 
 5191000    278.96922    -3770.057   -3291.9133    -3770.057            0    11828.485    16.832284    19.826207    20.535347    6853.0627    11230.244    12711.389    11543.823    2212.1487    -30.28583   -115.84437   -2109.7167 
 5192000    276.76625   -3773.5971   -3299.2293   -3773.5971            0    12669.432     16.82007     19.81182    20.520446    6838.1554    11824.526    13695.452    12488.319   -101.15236       851.98   -1073.4821   -2035.7387 
 5193000    281.29604   -3803.6337   -3321.5019   -3803.6337            0    11648.278    16.826189    19.819028    20.527912    6845.6217    10268.735    12746.259    11929.838    306.66664   -565.33433   -36.027627   -2158.5802 
 5194000      290.253    -3801.079   -3303.5953    -3801.079            0    11488.614    16.882621    19.885498    20.596759    6914.7302    9966.8671    13657.845    10841.131    782.52884    752.32477   -92.251415   -2145.0347 
 5195000    283.83031   -3820.0364    -3333.561   -3820.0364            0    11384.192    16.885805    19.889248    20.600643    6918.6425    11171.865    12614.294    10366.418    913.61937   -500.06404    1720.1429   -2184.8811 
 5196000    281.30768   -3813.1602   -3331.0084   -3813.1602            0     9387.345    16.910315    19.918118    20.630545    6948.8142    8816.7627    8877.2548    10468.018    81.272275    419.24418    85.367935   -2379.6824 
 5197000    277.76162   -3779.7102   -3303.6363   -3779.7102            0    12240.116    16.808129    19.797756    20.505878    6823.6022    13572.575     12824.09    10323.684   -1255.3248    879.39769    33.120341   -2085.5582 
 5198000    281.10475   -3790.9059    -3309.102   -3790.9059            0    11201.914    16.815286    19.806185    20.514609    6832.3222     10683.84    12217.827    10704.075    74.518337    1640.1684   -967.77866   -2192.9163 
 5199000    284.62821   -3777.3442   -3289.5012   -3777.3442            0    9283.2086    16.857134    19.855477    20.565664    6883.4599    9341.4734    8312.3912    10195.761   -463.22195    986.29091   -547.62273   -2357.5766 
 5200000    278.03851   -3793.6808   -3317.1324   -3793.6808            0    13214.805     16.76013     19.74122     20.44732    6765.3108     14724.48    11739.884     13180.05   -1065.8293    148.51097   -1049.2245   -2013.2921 
 5201000    295.52173   -3820.6213   -3314.1071   -3820.6213            0    9263.3783    16.893671    19.898513     20.61024    6928.3164     9028.742    10298.036    8463.3567   -821.98423   -1075.8992    1139.5505   -2378.1133 
 5202000    280.41461   -3778.7363   -3298.1152   -3778.7363            0    10195.621    16.863876    19.863418    20.573889    6891.7226    9744.6637    9469.9145    11372.285     211.4481   -1425.5721   -642.33808   -2273.3666 
 5203000    273.03294   -3806.7712   -3338.8021   -3806.7712            0    12392.417     16.78828    19.774376    20.481662     6799.456    11953.164    13072.278    12151.808    472.72751   -940.35435     1059.122   -2109.9317 
 5204000    281.63954    -3778.076   -3295.3555    -3778.076            0    13560.132    16.711972    19.684496    20.388567    6707.1606    13127.506    12112.018    15440.873   -536.54088   -343.92179   -1004.0223   -1968.9432 
 5205000    277.63788   -3807.4656   -3331.6038   -3807.4656            0    10736.879    16.829841    19.823329    20.532366    6850.0792    9652.0703    10323.281    12235.285    423.80019   -262.75852    783.37528   -2258.9748 
 5206000    282.05675   -3803.7366    -3320.301   -3803.7366            0    13208.704    16.719095    19.692885    20.397256    6715.7398    13916.284    13713.395    11996.434   -584.48856   -1091.6849    494.88704   -2026.6118 
 5207000    280.37927   -3796.2628   -3315.7023   -3796.2628            0    9128.5548    16.853871    19.851634    20.561683    6879.4639    9694.0157    9091.4221    8600.2264    1934.3939    411.04426   -858.89439   -2399.8351 
 5208000    288.34295   -3779.9653   -3285.7553   -3779.9653            0    10817.659    16.866156    19.866104    20.576671    6894.5181    11426.204    11137.964    9888.8076    317.23912   -1214.7437   -547.69326   -2198.0454 
 5209000     271.2848   -3787.8652   -3322.8924   -3787.8652            0    12790.512    16.847774    19.844452    20.554244    6871.9999    11409.065    12029.783    14932.687   -298.41122   -216.43172    -2058.333   -2041.0136 
 5210000     297.6404    -3780.778   -3270.6326    -3780.778            0    10989.355      16.8703    19.870985    20.581726     6899.601    13443.295    10059.904    9464.8649    889.05699    13.404208   -1118.3474   -2164.8441 
 5211000    287.60896   -3821.2182   -3328.2662   -3821.2182            0    13029.588    16.900901    19.907028    20.619059    6937.2146    14795.218    12760.899    11532.648    1341.5604   -1694.7734      1383.44   -2010.0347 
 5212000     284.8304   -3804.0836    -3315.894   -3804.0836            0    10223.903    16.897723    19.903286    20.615183    6933.3028    12042.582    7937.6787    10691.447    180.74826   -43.712791    191.77256    -2282.103 
 5213000    293.74989   -3805.4566   -3301.9794   -3805.4566            0     9696.322    16.902402    19.908798    20.620892    6939.0642    8207.6455    11102.226    9779.0944    238.93212   -804.54513   -576.22532     -2320.72 
 5214000    273.26223   -3787.2837   -3318.9216   -3787.2837            0    11648.403    16.869053    19.869516    20.580205    6898.0712    11582.533     11270.04    12092.637   -724.59758    410.16029   -1212.8757   -2147.0772 
 5215000    272.34589   -3852.8102   -3386.0187   -3852.8102            0    10713.122    16.818972    19.810527    20.519106    6836.8163    10481.579    11506.391    10151.394   -820.22274    368.82655    1318.4809   -2317.8353 
 5216000    280.58635   -3831.8525   -3350.9371   -3831.8525            0    10535.234    16.885557    19.888955     20.60034    6918.3374    8193.0642    11191.177    12221.461    1295.1801     879.4817    1594.5888   -2287.9651 
 5217000    278.82847   -3818.4018   -3340.4994   -3818.4018            0    11798.246    16.817969    19.809346    20.517883    6835.5937     10557.98    11766.507    13070.252   -76.566198   -1032.3544    659.00837   -2164.3308 
 5218000    284.96533   -3781.1277   -3292.7069   -3781.1277            0    12143.367    16.812887     19.80336    20.511683    6829.3991    10771.179    12201.138    13457.784   -579.90189    944.78353   -575.24548   -2083.2302 
 5219000    287.00964   -3779.0996   -3287.1749   -3779.0996            0    11059.695    16.850189    19.847297    20.557191    6874.9558    11876.888    11401.277    9900.9194   -621.42982    579.13884    533.13605   -2178.2837 
 5220000    271.53809   -3816.5026   -3351.0956   -3816.5026            0    13132.209    16.832856    19.826881    20.536045    6853.7616    11865.436    12378.731    15152.459    1717.7588   -110.46751   -165.32996   -2038.4647 
 5221000    278.10917   -3816.2615   -3339.5919   -3816.2615            0    9235.8589    16.898965    19.904748    20.616698    6934.8311    10396.419    9193.6138    8117.5443    964.93231   -12.813524   -1250.9671   -2405.5012 
 5222000    285.74248   -3835.5631   -3345.8102   -3835.5631            0    11272.245    16.887048    19.890712    20.602159    6920.1703    10479.624    10405.109    12932.003   -1082.8184    497.97691    503.08681   -2208.1748 
 5223000    274.85848    -3809.391    -3338.293    -3809.391            0    11592.863    16.933876    19.945869    20.659289    6977.8993    10426.708    10850.243    13501.639   -955.89021   -357.27672   -1194.9989   -2158.5394 
 5224000    272.29482   -3761.8402   -3295.1362   -3761.8402            0    11059.893     16.86444    19.864083    20.574578    6892.4143    13097.215    9779.8812    10302.582   -283.96351    831.11106   -674.20051   -2183.4091 
 5225000    280.93609   -3777.1005   -3295.5856   -3777.1005            0     13339.93    16.784706    19.770167    20.477302    6795.1151    13200.455    14226.294     12593.04   -885.30118   -307.32479    655.49089   -1973.6015 
 5226000    277.91448   -3776.6435   -3300.3076   -3776.6435            0    11560.141    16.865136    19.864903    20.575427     6893.268     10831.21    11272.502    12576.712   -222.74886   -454.95921   -688.67083   -2138.1522 
 5227000       293.46   -3739.0465   -3236.0661   -3739.0465            0    12421.395    16.852127     19.84958    20.559556    6877.3284    12002.812     11627.74    13633.634    2183.6791    262.75442    12.735629   -1990.2153 
 5228000    285.09826   -3773.4432   -3284.7945   -3773.4432            0    9060.0521    16.879573    19.881908     20.59304    6910.9855    10751.542     9083.529    7345.0855   -994.17633    1504.5305    820.24471   -2371.6352 
 5229000    281.91902   -3780.3534   -3297.1538   -3780.3534            0    12320.623    16.808393    19.798066      20.5062    6823.9234    10839.674    12849.714    13272.482     1150.956    445.23131   -519.58916   -2071.0063 
 5230000    280.72887   -3745.9781   -3264.8184   -3745.9781            0     11414.64    16.829214    19.822591    20.531602    6849.3143    11846.591    8547.6594    13849.668    546.75722     127.6031   -693.71363   -2124.6075 
 5231000    293.64283   -3781.2356   -3277.9418   -3781.2356            0    10385.719    16.845578    19.841866    20.551566     6869.314    10271.737    11156.443    9728.9758    517.07104     1111.408    37.709922   -2237.4808 
 5232000    269.00985   -3763.6876   -3302.6139   -3763.6876            0    11223.339    16.839569    19.834788    20.544235    6861.9648    11090.077    10871.504    11708.435    1076.9353   -332.04636   -227.74088   -2179.4415 
 5233000    269.74708   -3753.2966   -3290.9593   -3753.2966            0    13249.433    16.811465    19.801685    20.509948    6827.6656    13288.513    13087.462    13372.325    1275.7409   -436.99029     536.0788   -1971.6536 
 5234000    297.58787   -3778.2949   -3268.2394   -3778.2949            0    12585.799    16.826137    19.818967    20.527848    6845.5577    13924.277    11572.452    12260.668    542.76213    1454.8903   -393.17398   -2011.7307 
 5235000    279.55831   -3797.8803   -3318.7269   -3797.8803            0    10285.729     16.85256     19.85009    20.560084    6877.8584    10296.803    9881.5683    10678.814   -25.399667    587.19313    655.43325   -2287.0014 
 5236000    280.09051   -3795.2857   -3315.2202   -3795.2857            0    9749.4458    16.945285    19.959307    20.673208    6992.0124    10035.317    10312.469    8900.5505    582.03496   -1126.5874   -41.348691   -2321.0562 
 5237000    283.46837   -3803.3599   -3317.5048   -3803.3599            0    9688.7923    16.878895    19.881109    20.592212    6910.1522    10573.087    10192.407    8300.8831    261.96968    989.06992    486.59112   -2341.0927 
 5238000    292.40835   -3805.2889    -3304.111   -3805.2889            0    11253.035    16.848628    19.845458    20.555287    6873.0456    12714.764    11294.154    9750.1854   -649.80889   -731.99314    683.97402   -2176.1482 
 5239000    283.32028   -3795.4243    -3309.823   -3795.4243            0    13678.322    16.785344    19.770918    20.478081    6795.8899    12666.233    14546.129    13822.604   -1455.8893    125.60086   -57.187498   -1954.1497 
 5240000    289.26983    -3795.797   -3299.9985    -3795.797            0    10832.433    16.809838    19.799768    20.507963    6825.6834    12004.181     10567.77    9925.3471   -336.43777   -788.33975   -1335.5642   -2221.6775 
 5241000    280.22181   -3810.3413   -3330.0507   -3810.3413            0    10264.182     16.79882    19.786791    20.494521    6812.2705     11241.06    10115.646    9435.8397   -472.57258    344.30143    732.41352   -2310.3045 
 5242000    290.32543   -3774.1426   -3276.5347   -3774.1426            0    10891.782    16.808047    19.797659    20.505777    6823.5018    10797.878    11053.025    10824.443    794.44879   -1108.3299     35.53006   -2192.6524 
 5243000    273.64036   -3733.0818   -3264.0716   -3733.0818            0    12489.178    16.823057    19.815339     20.52409    6841.7996    11592.795    12448.313    13426.427    1258.1805    1536.3495    1220.4134   -2017.8935 
 5244000    294.20944   -3777.3174   -3273.0525   -3777.3174            0    12194.353    16.772467    19.755751     20.46237    6780.2611    12017.708    11781.171     12784.18   -802.21065   -1361.5627    141.20204   -2067.2364 
 5245000    289.61742   -3752.9538   -3256.5595   -3752.9538            0    10115.976    16.804206    19.793135    20.501092    6818.8251    11894.315     9235.046    9218.5668    460.69162   -977.30544   -580.47957   -2250.5705 
 5246000    294.78354   -3826.6674   -3321.4185   -3826.6674            0    9982.5119    16.794745    19.781991    20.489549    6807.3145    9435.3771    9040.3519    11471.807   -788.23491    1861.4083    845.43382   -2330.3777 
 5247000     271.0097   -3769.4258   -3304.9245   -3769.4258            0    12450.498    16.819254     19.81086    20.519451    6837.1607    10677.768     11178.89    15494.837   -645.26156    277.09179    366.66036   -2063.4482 
 5248000    296.00078    -3796.295   -3288.9598    -3796.295            0    11681.967    16.847561    19.844201    20.553985    6871.7392    11721.198     11136.51    12188.192    351.53837    97.123766    -151.1159   -2118.2251 
 5249000    264.14483   -3814.5852     -3361.85   -3814.5852            0    9709.9745    16.878618    19.880783    20.591875    6909.8125    8194.2898    10305.741    10629.893   -322.31546   -1307.2276    812.01169   -2383.3513 
 5250000    290.75998   -3782.9223   -3284.5697   -3782.9223            0    8623.4269    16.868488    19.868851    20.579516    6897.3789    7818.3458    9275.1413    8776.7936   -471.68597    20.398975   -1026.2373   -2417.1289 
Loop time of 475.193 on 64 procs for 250000 steps with 864 atoms

Performance: 90.910 ns/day, 0.264 hours/ns, 526.102 timesteps/s
99.0% CPU use with 64 MPI tasks x 1 OpenMP threads

MPI task timing breakdown:
Section |  min time  |  avg time  |  max time  |%varavg| %total
---------------------------------------------------------------
Pair    | 22.291     | 27.568     | 32.439     |  46.5 |  5.80
Bond    | 0.27465    | 0.28413    | 0.30021    |   1.0 |  0.06
Kspace  | 199.42     | 208.1      | 219.91     |  29.8 | 43.79
Neigh   | 6.3304     | 7.1939     | 8.4952     |  23.7 |  1.51
Comm    | 104.71     | 114.49     | 122.88     |  44.1 | 24.09
Output  | 1.4529     | 1.4551     | 1.4725     |   0.3 |  0.31
Modify  | 109.82     | 111.66     | 113.41     |   8.4 | 23.50
Other   |            | 4.437      |            |       |  0.93

Nlocal:        13.5000 ave          18 max          10 min
Histogram: 3 10 7 10 0 14 12 3 4 1
Nghost:        2288.30 ave        2317 max        2245 min
Histogram: 2 2 1 2 9 14 16 9 4 5
Neighs:        4465.77 ave        6851 max        2766 min
Histogram: 4 3 11 11 17 7 6 4 0 1

Total # of neighbors = 285809
Ave neighs/atom = 330.79745
Ave special neighs/atom = 2.0000000
Neighbor list builds = 16039
Dangerous builds = 1

unfix		3
unfix		2
unfix		1

write_data	data.final.${pid}
write_data	data.final.0
System init for write_data ...
PPPM initialization ...
  extracting TIP4P info from pair style
  using 12-bit tables for long-range coulomb (../kspace.cpp:340)
  G vector (1/distance) = 0.37477999
  grid = 24 24 24
  stencil order = 5
  estimated absolute RMS force accuracy = 0.0031023579
  estimated relative force accuracy = 9.3426587e-06
  using double precision FFTW3
  3d grid and FFT values/proc = 2535 216
Last active /omp style is kspace_style pppm/tip4p/omp
WARNING: Not all mixed pair coeffs generated from mixing. Use write_data with 'pair ij' option to store all pair coeffs. (../write_data.cpp:312)

write_restart   restart.lmp.${pid}
write_restart   restart.lmp.0
System init for write_restart ...
PPPM initialization ...
  extracting TIP4P info from pair style
  using 12-bit tables for long-range coulomb (../kspace.cpp:340)
  G vector (1/distance) = 0.37477999
  grid = 24 24 24
  stencil order = 5
  estimated absolute RMS force accuracy = 0.0031023579
  estimated relative force accuracy = 9.3426587e-06
  using double precision FFTW3
  3d grid and FFT values/proc = 2535 216
Last active /omp style is kspace_style pppm/tip4p/omp
Total wall time: 0:07:58
