LAMMPS (30 Jul 2021)
  using 1 OpenMP thread(s) per MPI task
package omp 0
using multi-threaded neighbor list subroutines
echo both

include		in.partitions
variable        pid world 0
include		in.temp
variable        temperature equal 296.03
variable	tempDamp equal 100.0
include		in.pressure
variable        pressure equal 14250.0
variable        pressureDamp equal 1000.0 # This is 1 ps
include		in.seed
variable        seed world 745823

units		real
atom_style	full
read_restart	restart.lmp.${pid}
read_restart	restart.lmp.0
Reading restart file ...
  restart file = 30 Jul 2021, LAMMPS = 30 Jul 2021
  restoring atom style full from restart
  orthogonal box = (-0.12482826 -0.057495949 -0.026706091) to (24.854829 24.787497 22.836706)
  4 by 4 by 4 MPI processor grid
  restoring pair style lj/cut/tip4p/long/omp from restart
  restoring bond style harmonic/omp from restart
  restoring angle style harmonic/omp from restart
  1920 atoms
  1280 bonds
  640 angles
Finding 1-2 1-3 1-4 neighbors ...
  special bond factors lj:    0        0        0       
  special bond factors coul:  0        0        0       
     2 = max # of 1-2 neighbors
     1 = max # of 1-3 neighbors
     1 = max # of 1-4 neighbors
     2 = max # of special neighbors
  special bonds CPU = 0.459 seconds
  read_restart CPU = 0.609 seconds
include 	in.setup
variable	out_freq equal 1000
variable	out_freq2 equal 10000
variable	out_freq3 equal 1000

timestep	2.0

neigh_modify    delay 7 every 1

include		in.tip4p
# This is TIP4P/Ice

# create groups ###
group ox type 2
640 atoms in group ox
group hy type 1
1280 atoms in group hy

# set charges - beside manually ###
set group ox charge -1.1794
Setting atom values ...
  640 settings made for charge
set group hy charge 0.5897
Setting atom values ...
  1280 settings made for charge

# ### TIP3P Potential Parameters ###
pair_style lj/cut/tip4p/long/omp 2 1 1 1 0.1577 8.5
pair_coeff 1 1*2 0.000 0.000
pair_coeff 2 2 0.21084 3.1668
bond_style  harmonic
bond_coeff  1 450 0.9572
angle_style harmonic
angle_coeff 1 55 104.52
kspace_style pppm/tip4p/omp 1.0e-5
pair_modify tail yes

thermo          ${out_freq}
thermo          1000
thermo_style    custom step temp pe etotal epair emol press lx ly lz vol pxx pyy pzz pxy pxz pyz enthalpy

restart 	${out_freq3} restart.lmp.${pid} restart2.lmp.${pid}
restart 	1000 restart.lmp.${pid} restart2.lmp.${pid}
restart 	1000 restart.lmp.0 restart2.lmp.${pid}
restart 	1000 restart.lmp.0 restart2.lmp.0


include         in.dump
dump            myDump all atom ${out_freq2} dump.water.${pid}
dump            myDump all atom 10000 dump.water.${pid}
dump            myDump all atom 10000 dump.water.0
dump            myDump2 all dcd ${out_freq2} dump.dcd
dump            myDump2 all dcd 10000 dump.dcd
dump_modify     myDump append yes
dump_modify     myDump2 append yes


variable natoms 	equal  "count(all)"                        # NUMBER ATOMS
variable H      	equal  "enthalpy/v_natoms"                 # ENTHALPY-per-atom
variable Vol      	equal  "vol/v_natoms"                 # volume-per-atom
fix AVG all 		ave/time ${out_freq} 1 ${out_freq} v_Vol v_H file vol_enthalpy.dat
fix AVG all 		ave/time 1000 1 ${out_freq} v_Vol v_H file vol_enthalpy.dat
fix AVG all 		ave/time 1000 1 1000 v_Vol v_H file vol_enthalpy.dat




fix 		1 all shake 1e-6 200 0 b 1 a 1
       0 = # of size 2 clusters
       0 = # of size 3 clusters
       0 = # of size 4 clusters
     640 = # of frozen angles
  find clusters CPU = 0.001 seconds
fix             2 all nph aniso ${pressure} ${pressure} ${pressureDamp}
fix             2 all nph aniso 14250 ${pressure} ${pressureDamp}
fix             2 all nph aniso 14250 14250 ${pressureDamp}
fix             2 all nph aniso 14250 14250 1000
fix             3 all temp/csvr ${temperature} ${temperature} ${tempDamp} ${seed}
fix             3 all temp/csvr 296.03 ${temperature} ${tempDamp} ${seed}
fix             3 all temp/csvr 296.03 296.03 ${tempDamp} ${seed}
fix             3 all temp/csvr 296.03 296.03 100 ${seed}
fix             3 all temp/csvr 296.03 296.03 100 745823


run             250000
PPPM initialization ...
  extracting TIP4P info from pair style
  using 12-bit tables for long-range coulomb (../kspace.cpp:340)
  G vector (1/distance) = 0.37460552
  grid = 30 30 30
  stencil order = 5
  estimated absolute RMS force accuracy = 0.0032558448
  estimated relative force accuracy = 9.8048799e-06
  using double precision FFTW3
  3d grid and FFT values/proc = 3600 512
Last active /omp style is kspace_style pppm/tip4p/omp
Neighbor list info ...
  update every 1 steps, delay 7 steps, check yes
  max neighbors/atom: 2000, page size: 100000
  master list distance cutoff = 10.8154
  ghost atom cutoff = 10.8154
  binsize = 5.4077, bins = 5 5 5
  1 neighbor lists, perpetual/occasional/extra = 1 0 0
  (1) pair lj/cut/tip4p/long/omp, perpetual
      attributes: half, newton on, omp
      pair build: half/bin/newton/omp
      stencil: half/bin/3d
      bin: standard
Per MPI rank memory allocation (min/avg/max) = 9.332 | 9.340 | 9.345 Mbytes
Step Temp PotEng TotEng E_pair E_mol Press Lx Ly Lz Volume Pxx Pyy Pzz Pxy Pxz Pyz Enthalpy 
17000000    301.44017   -8955.3969   -7806.1695   -8955.3969            0    12627.429    24.979658    24.844993    22.863412    14189.477    12578.437    13335.051    11968.798    32.589789   -397.10376   -750.57892   -5193.0624 
17001000    284.58633   -8956.8153   -7871.8424   -8956.8153            0    11289.467    24.901205    24.967525    22.942542     14263.87    11876.444    10525.128    11466.828    150.39221    394.75047   -493.74749   -5523.3634 
17002000    297.88143   -8989.6496   -7853.9898   -8989.6496            0    11887.489    24.864426    24.910234     22.96103    14221.572    12246.796    12748.895    10666.775   -741.30504    28.279338    7.4821932    -5388.441 
17003000    304.96515   -9015.4605   -7852.7943   -9015.4605            0    12610.173    25.002147     25.01415    22.658724    14170.935    11366.346    12466.362     13997.81   -260.15517    968.66125    5.0048582   -5246.6681 
17004000    291.98781     -8999.73   -7886.5393     -8999.73            0    12882.019    24.808321    24.907357    22.880274    14137.944    14265.687    11811.794    12568.577    791.72506    593.67371    783.42098   -5230.4292 
17005000    287.41688   -8937.8208   -7842.0566   -8937.8208            0    11944.277    24.870322    25.097855    22.789709    14225.148    12629.979    10898.358    12304.494   -75.455441    165.40783    412.77694   -5364.1067 
17006000    306.46452   -8962.0592   -7793.6767   -8962.0592            0    14161.337    24.937292    24.915894    22.791535    14161.177    13605.483    14398.241    14480.288   -304.01184    233.42809   -125.31113   -4868.9889 
17007000    279.71268   -8942.2238   -7875.8315   -8942.2238            0    13028.779    24.957764    24.741751    22.968968     14183.31    12849.198    13732.267    12504.871    796.08674    38.799009     1391.204   -5180.8414 
17008000      289.755   -8976.5982     -7871.92   -8976.5982            0    13328.126    24.994818    24.845612     22.77275    14142.141    12543.151    13318.358    14122.871    461.29602    429.73928    -771.9413   -5123.0123 
17009000    296.62461   -8938.3295   -7807.4613   -8938.3295            0    13323.819    24.978697    24.855771    22.876763    14203.376    12449.744    12946.107    14575.605   -582.09059     1297.127    741.39969   -5047.5432 
17010000    297.90505   -8950.0445   -7814.2946   -8950.0445            0    13891.334    24.851268    24.859636    22.874947    14131.993    14019.735    14486.851    13167.417   -371.29357     838.9643    452.41279    -4951.282 
17011000    294.68265   -8979.6114   -7856.1467   -8979.6114            0    13580.798    24.817675    24.980918    22.846076    14163.843    13402.131     13169.73    14170.534    1079.9834     367.0809   -762.33176   -5050.8274 
17012000    307.15116     -8978.02   -7807.0197     -8978.02            0    11770.373    24.807259    24.910758     23.04679     14242.17    11744.455    12951.291    10615.374   -361.30168   -598.77798   -717.30425   -5362.2256 
17013000    294.58516   -8940.2443   -7817.1513   -8940.2443            0    12840.056    24.985679    24.937256    22.749558    14174.664    12421.815    11968.382    14129.971     147.1221     189.8356    1110.3898   -5162.8173 
17014000    289.33792   -9010.3757   -7907.2876   -9010.3757            0    11798.932    24.882134    24.906677    22.941222    14217.393    11571.095    12821.632    11004.068   -68.667392    -250.8619    533.33643   -5460.8252 
17015000    297.19604   -8980.9693   -7847.9225   -8980.9693            0    12604.626    25.003174    24.909818    22.788631    14193.318    12246.445    12240.844    13326.589    307.52337    331.33442    111.80165    -5238.828 
17016000     300.7895   -8969.1039   -7822.3571   -8969.1039            0    13364.189    24.825691    24.914144    22.889976    14157.698    12771.759    13974.395    13346.413     293.8759   -282.29673    191.14457   -5062.9794 
17017000    297.43401   -8957.1112   -7823.1571   -8957.1112            0    14119.126    24.791016    25.001483    22.787101    14123.723    14314.464    13615.072    14427.843    464.45732    -667.5374   -1005.4779   -4914.8994 
17018000    299.49436   -9032.7676   -7890.9585   -9032.7676            0    13692.957    24.852628    24.920261    22.822129     14134.52     13596.93    13727.004    13754.936    389.80013   -115.08274   -399.90478   -5068.3271 
17019000    293.79308   -8955.3732      -7835.3   -8955.3732            0    15053.031    24.943887    24.806428    22.767954    14088.098    15269.259    15038.822    14851.012    2.5980673   -77.194673    28.449851   -4742.4974 
17020000     299.9306   -9007.3764   -7863.9042   -9007.3764            0     14633.08    24.915239    24.755776    22.820398    14075.532    14496.287    15589.635    13813.318    623.73668   -82.027532    789.13249   -4860.0665 
17021000    295.17788   -8992.8103   -7867.4576   -8992.8103            0    13182.928    24.969368    24.710611    22.909802    14135.538    13651.036    15264.377    10633.372    101.07156    903.85825   -349.61322   -5149.7662 
17022000    289.64133   -8909.2102   -7804.9654   -8909.2102            0    15006.268    24.992037    24.900841    22.705843    14130.362    13542.191    15374.552    16102.063   -782.10929   -37.896063     820.7574    -4712.521 
17023000    289.82865    -8992.045    -7887.086    -8992.045            0     14506.31    24.711215     24.86804    22.954506    14105.991    15937.462    13587.551    13993.918   -286.53415   -342.34524   -801.08429   -4902.8274 
17024000    308.60889   -8951.0405   -7774.4827   -8951.0405            0    12948.076    24.819308    25.051055    22.787182    14167.926    13283.973    12619.105     12941.15    1203.4458    769.83557   -686.34402   -5099.0906 
17025000    298.53056   -8969.5851   -7831.4504   -8969.5851            0      13282.1    24.793314    24.957308    22.903047    14171.818    15913.484    12257.674    11675.143    478.29078   -281.47657    858.84544   -5086.2869 
17026000    303.65106    -8966.642   -7808.9857    -8966.642            0    13471.753    24.850883    25.001106    22.766593    14144.874    14032.542    13101.212    13281.505   -319.27776    96.417284   -329.42563   -5029.9182 
17027000    285.71237   -8914.8968   -7825.6309   -8914.8968            0    14726.978    24.889775     24.81978    22.878938    14133.664    12812.635    16218.636    15149.664    3.0990709    765.35457    701.16083   -4790.0326 
17028000    297.43192   -9000.7035   -7866.7573   -9000.7035            0    14354.575    24.884469    24.755942    22.907048    14111.623    14556.237    14525.407    13982.081   -422.22339    620.26174    441.56552   -4912.5349 
17029000    295.79864   -8997.7255   -7870.0062   -8997.7255            0    12873.818      24.9791    24.912299    22.753467    14159.182    12237.038    13206.997    13177.421    828.86279    -516.7996   -14.083307   -5211.5994 
17030000    301.27795   -8952.6129   -7804.0039   -8952.6129            0    13057.691    24.815771    24.950388    22.925841    14194.835    13677.361    12549.001    12946.711   -734.25873    1495.1889    1063.0002   -5100.8384 
17031000    301.83184   -8946.3276    -7795.607   -8946.3276            0    12114.152    24.957568    24.970039    22.824565    14224.074    11455.447    12005.095    12881.914   -472.18317   -248.05973    949.21508   -5282.6045 
17032000    299.87525   -8953.0591   -7809.7979   -8953.0591            0    12853.696    24.877732    24.925616    22.908579    14205.445     12511.53    13116.205    12933.354    928.58498   -693.92215    414.23052    -5146.874 
17033000    300.49567   -8976.7281   -7831.1016   -8976.7281            0    13870.082    24.787673    25.066301    22.756751    14139.572     14175.14     12375.67    15059.436    13.780422    -374.9841    14.282464   -4970.9359 
17034000    290.92433   -9007.5716   -7898.4353   -9007.5716            0    13157.828    24.853016    24.934901    22.823252    14143.741    12707.371    13493.106    13273.008    985.13967   -118.43522   -884.13402   -5184.3445 
17035000    282.08718   -8991.4308   -7915.9858   -8991.4308            0    13556.742    24.870577    24.860985    22.873815     14143.04    13876.303    12073.903    14720.021    1628.8121    550.55148    1430.3044   -5119.7486 
17036000    295.63302   -8985.1437   -7858.0557   -8985.1437            0    13498.287    24.990529    24.942604    22.685217    14140.351    12515.968    13248.781     14730.11     66.73374    165.89951    111.32102   -5074.4052 
17037000    303.75297   -9017.5759    -7859.531   -9017.5759            0    13716.197    24.870945    24.883057    22.865253    14150.508    14060.894    14498.583    12589.114    788.09983    1523.9602   -612.58233   -5028.9106 
17038000    304.90136   -8964.5381   -7802.1151   -8964.5381            0    16154.483    24.939313    24.794118    22.715662     14046.19    14724.544    16957.427    16781.478    561.65519    400.34788    -35.78391    -4492.881 
17039000    287.18961   -8965.5143   -7870.6165   -8965.5143            0     14473.29    24.914505    24.748364    22.845118    14086.146    13903.811     15015.02     14501.04   -799.50346   -1257.1279    739.10131   -4897.3398 
17040000    293.47039   -8960.2829   -7841.4399   -8960.2829            0    15980.037    24.788175    24.876744    22.753434    14030.884    16822.777    14907.382    16209.953   -262.09302    287.87099    573.45379    -4571.508 
17041000    299.18317   -9017.3856   -7876.7629   -9017.3856            0    16179.956    24.819079    24.792196    22.750489    13998.819    16626.328    16611.632    15301.908   -220.01505   -763.13068    724.95927   -4573.4887 
17042000    293.82922   -8971.8736   -7851.6626   -8971.8736            0    15095.225    24.779107    24.853446    22.889224    14096.242    15095.632    15890.541    14299.504     737.8589   -530.10019    132.00136   -4748.3979 
17043000    303.93107   -8975.4914   -7816.7676   -8975.4914            0    13842.313    24.893303    24.929374    22.759807    14124.155    15936.472    12515.949    13074.518    422.17946   -1304.8989   -345.17189   -4965.4406 
17044000    299.29404   -8988.0607   -7847.0153   -8988.0607            0    13706.399    24.892669    24.736051     22.93977    14125.079    14155.217    14347.873    12616.108    688.04098    157.59824    141.95025   -5023.4999 
17045000    281.41728   -8974.0188   -7901.1278   -8974.0188            0    15083.798    24.961094    24.874102    22.632064    14051.905    16837.421    13895.476    14518.498   -533.33352    584.81656   -612.60091   -4809.9655 
17046000    305.96735   -8960.5931    -7794.106   -8960.5931            0    14121.808    24.854299     24.74094    22.979513    14130.532    14590.251    13963.168    13812.004    305.94863    419.96542    622.89687   -4883.8935 
17047000    293.55323   -8975.6289   -7856.4701   -8975.6289            0    15366.296    24.814961    24.890287    22.757216    14056.029    16855.025    13091.104     16152.76    324.19002     720.3141   -186.22323   -4706.4906 
17048000    295.75399   -8990.4789   -7862.9298   -8990.4789            0    13573.157    24.848966    24.937512    22.784002    14118.594    13343.349    13449.129    13926.994    732.46754   -1167.2244   -139.48664   -5068.1459 
17049000    290.87875   -8918.7374    -7809.775   -8918.7374            0     13853.62    24.833521    24.904778    22.866775    14142.491    15704.906    14363.272    11492.682   -212.62844   -427.02056    83.240819   -4952.4143 
17050000    299.97792   -8924.9685   -7781.3159   -8924.9685            0    15546.567    24.805786    24.817827    22.853485    14069.193    15065.566    16127.289    15446.847   -173.25441   -403.02715    45.114851   -4591.3974 
17051000    303.96632   -8974.8742    -7816.016   -8974.8742            0    13908.538    24.857261    24.936018    22.729636    14088.762    13752.578     13982.61    13990.427    208.80014   -723.89802   -92.445428   -4958.2266 
17052000    296.77453   -8981.8734   -7850.4335   -8981.8734            0    14068.854    24.792601    24.963516    22.820323    14123.737    15128.611    13356.913    13721.038   -1015.4841   -1208.4367   -877.88265   -4952.5278 
17053000    289.76345   -8948.1843   -7843.4739   -8948.1843            0    14033.264    24.838309    24.940312    22.801737     14125.11    13552.141    15252.925    13294.726    82.680301   -152.19693   -592.27532   -4952.6182 
17054000    296.28756   -8955.8179   -7826.2346   -8955.8179            0    12802.093    24.794663    25.046429    22.850314    14190.451    14373.849    12197.418    11835.013    222.02028    996.99164   -82.162788   -5176.8007 
17055000    305.16517   -8971.6399   -7808.2112   -8971.6399            0    13891.468    24.855468    24.876334    22.837074    14120.458     14679.66    13935.871    13058.872   -267.67334   -429.98508   -152.78613    -4947.508 
17056000    310.05701   -8987.8314   -7805.7527   -8987.8314            0    13502.121    24.995152    24.795434    22.811691    14137.902     12969.24    13360.615    14176.508    82.849104   -1060.3399     577.3862   -5021.7936 
17057000    303.06412   -8992.6178   -7837.1992   -8992.6178            0    14076.348    24.894771    24.796827    22.854112    14108.102    13831.266    15586.765    12811.015    307.76058   -1252.7396   -418.23349   -4940.9595 
17058000    291.10377   -8961.1064    -7851.286   -8961.1064            0        15071    25.016172    24.666222     22.85003    14099.713    13434.142    17187.812    14591.046   -872.83209    178.61483    1297.3039   -4752.2387 
17059000     305.2916    -9004.258   -7840.3472    -9004.258            0    13998.295    24.881946    24.853402    22.818293    14110.855    14937.347    14588.242    12469.295   -35.368908   -444.43657    157.70973   -4959.6052 
17060000    287.29812   -8998.6774    -7903.366   -8998.6774            0    13715.003    24.873784    24.753289    22.974705    14145.709    13496.728     15162.63    12485.652    776.58803   -15.965977   -1712.7545   -5073.9518 
17061000    295.53535   -8993.9567   -7867.2411   -8993.9567            0    13162.021    25.004354    24.854251    22.758771    14143.768    12915.349    13832.266    12738.447   -757.54957    847.11502   -628.20667   -5152.2803 
17062000    305.43425   -9008.5335   -7844.0788   -9008.5335            0    13910.281    24.788148    24.794143     23.04344    14162.519    14527.505    14214.607    12988.731   -117.65831   -264.77161    592.44501   -4970.9686 
17063000    296.98152   -8905.9239   -7773.6949   -8905.9239            0    15071.828    24.810369    24.950139    22.730913    14070.939    13869.082    14846.413    16499.988   -1176.9448    29.021009   -1477.0807   -4680.8019 
17064000    300.47832   -8947.8484    -7802.288   -8947.8484            0    16239.549      24.6899    24.826705    22.912116    14044.414    18186.623    14912.167    15619.858    481.41636    135.09528    518.44165   -4476.0489 
17065000    289.86845   -9009.1226   -7904.0119   -9009.1226            0    13042.041    24.877034    24.929271    22.824085    14154.729     13550.11    11181.974    14394.038    475.97331   -384.71141    10.148136   -5211.7147 
17066000    299.38336   -8889.7048   -7748.3189   -8889.7048            0    14654.535    24.833722     24.87869    22.870096    14129.842    14360.065    14370.905    15232.634    686.85089   -1541.7932   -1302.1543   -4728.4699 
17067000     293.6159   -9002.3578   -7882.9601   -9002.3578            0    13311.484    24.996505      24.9079    22.728761    14151.164    11166.184    14093.522    14674.746    443.51491   -882.75895    720.82283   -5135.7332 
17068000    295.77656   -8997.3686   -7869.7335   -8997.3686            0     14990.94      24.8782    24.841697    22.794688    14087.498    14533.779    14619.438    15819.604     1066.952     732.0357   -249.03798   -4789.8191 
17069000    294.71989    -8982.559   -7858.9524    -8982.559            0    16403.399    24.879329    24.648941    22.861643    14019.882    15355.647    17812.178    16042.373   -1050.2276   -647.33997    86.048404   -4505.0215 
17070000    288.33423   -8949.7165   -7850.4549   -8949.7165            0    16358.328    24.884953    24.829371    22.704985    14028.904     16182.13    17055.664    15837.191   -615.55744    197.45209    477.38234   -4503.5871 
17071000    299.80803   -8957.2957   -7814.2908   -8957.2957            0    15373.448    24.823501     24.88579    22.762897    14061.834    15959.408    14859.748    15301.186    352.59887   -84.779718   -1274.5339   -4661.5437 
17072000    294.49891   -8902.5671   -7779.8029   -8902.5671            0    15165.883    24.884518    24.748575    22.878573    14089.915    15875.908     15951.52     13670.22   -367.30607   -932.83112   -268.17925   -4663.4119 
17073000    287.32073   -9006.3526    -7910.955   -9006.3526            0    15947.897    24.943859     24.80988    22.699902    14047.929    14928.244    16408.331    16507.117    79.178901   -6.9756137    826.09038   -4643.6354 
17074000    300.34425   -8956.8568   -7811.8076   -8956.8568            0    15469.874    24.846032     24.76605    22.846166    14058.116    14734.243    15028.796    16646.582    749.30481   -640.79712    1026.5623   -4640.1245 
17075000    296.32508   -8920.9667   -7791.2403   -8920.9667            0    14735.532    24.771754    24.948831    22.853599    14124.125    15125.121    13338.591    15742.883    362.16961    55.775767   -409.86943   -4755.9288 
17076000    296.42592   -8956.2712   -7826.1604   -8956.2712            0    15524.542    24.819629    24.849739    22.795073    14059.119    15416.427    15491.073    15666.125     333.6533   -161.61486   -840.30323   -4643.0421 
17077000    292.91482   -9008.1262   -7891.4013   -9008.1262            0    15202.493    24.727586    24.884446     22.86321    14068.471    15413.375    13828.879    16365.224    565.11189     599.9895    390.91962   -4772.2417 
17078000    302.86952   -8961.2382   -7806.5615   -8961.2382            0    13428.695    24.858786    24.945075    22.822517    14152.341    14361.565    12607.054    13317.467    752.55738    667.34597   -732.47838   -5034.9141 
17079000    288.47097    -8965.886   -7866.1031    -8965.886            0    13607.355    24.833114    24.899656     22.86241    14136.651    13535.973    14709.825    12576.267   -339.38611    74.435863   -612.25358   -5060.6944 
17080000    293.73031   -8968.1811   -7848.3472   -8968.1811            0    13185.417    24.850307    24.878776    22.933068     14178.26    13139.582    13295.609    13121.061    763.72944    141.03433   -778.35205   -5121.9276 
17081000    301.40311   -8951.5058   -7802.4197   -8951.5058            0    13369.481    24.998118    24.920591    22.744663    14169.194    12126.245     14970.66    13011.539    1361.0321   -370.14068   -563.42421   -5039.7077 
17082000    291.18281     -8968.08   -7857.9584     -8968.08            0     13845.93    24.826183    24.838418    22.965079    14161.258    13926.031    13906.433    13705.325   -150.37505    1137.3245   -343.28359   -4998.3941 
17083000    292.09732   -9015.7964   -7902.1882   -9015.7964            0    13919.219    24.950534    24.997935    22.599139     14095.35    12333.866    13273.124    16150.667     504.0642    328.79943    91.834565   -5040.8669 
17084000    296.45839   -8929.4466    -7799.212   -8929.4466            0    14267.909    24.816097    24.836438    22.950621    14145.465    15004.844    13931.614    13867.268    63.073045   -513.63766    1010.0515   -4855.7838 
17085000    291.88899   -8982.2187   -7869.4047   -8982.2187            0    13680.052     24.93819    24.848208    22.804097        14131    13188.671    14524.889    13326.597     433.6464   -77.080594    -525.0535   -5050.1356 
17086000    299.03124    -8971.962   -7831.9186    -8971.962            0    14316.457    24.869289    24.871137      22.7988    14101.685    12666.048    15243.335    15039.988    1060.9228    -260.2687    124.89619    -4887.616 
17087000    300.94937   -8980.7409   -7833.3847   -8980.7409            0    15294.035    24.776976    24.828457    22.869038    14068.439    15989.512    15823.263    14069.329    1347.8565   -499.67662   -458.72573   -4695.4501 
17088000    308.70768   -8945.0898   -7768.1553   -8945.0898            0    15122.911    24.715418    25.010549    22.743646    14058.898    15608.824    14972.587    14787.324    257.42482   -94.372517   -808.07429   -4667.4351 
17089000    287.30953   -8990.8936   -7895.5386   -8990.8936            0    16042.004    24.769402    24.820416    22.794817    14013.954    17322.103    16825.852    13978.057    122.27265   -365.20815    306.94905   -4616.8876 
17090000    305.28451   -8985.7373   -7821.8535   -8985.7373            0    14626.362    24.802582    24.998594    22.713064    14082.773     15332.12     13682.77    14864.198   -400.56808    1090.7563    -675.2364   -4817.8502 
17091000    283.17849   -8949.9178   -7870.3122   -8949.9178            0    16081.221    24.815275    24.747868    22.879254    14050.726    16243.187    16599.324    15401.152   -54.273981   -384.39465   -1009.4339   -4575.0221 
17092000    293.42266   -8955.3486   -7836.6876   -8955.3486            0    14808.509    25.107675    24.839384    22.613704    14103.245    13552.321    14491.171    16382.036    668.73991     1295.835    990.54372   -4790.8533 
17093000    295.26214   -8958.1392   -7832.4652   -8958.1392            0    14320.463    24.881049    24.848704    22.879534    14145.542    14255.619    14595.086    14110.686    1303.6949    812.32223   -1392.8859   -4878.1791 
17094000    291.49698   -8973.6498   -7862.3303   -8973.6498            0     14052.49    24.881489    24.964636    22.759132    14137.001    14710.057    12780.408    14667.004    373.51826   -288.60212   -729.46203   -4965.0771 
17095000    287.18831   -9020.2828     -7925.39   -9020.2828            0    15520.743    24.809906    24.830364    22.808002    14050.619     14165.54    16432.676    15964.014    368.83223   -87.114522   -864.45385   -4744.9744 
17096000    292.57567   -8960.7022   -7845.2704   -8960.7022            0    13749.214     24.79263    24.893987    22.915294    14143.031    14908.175    13430.216     12909.25    902.55707    164.97761    789.65838   -5009.3355 
17097000    293.95579   -8944.4361   -7823.7426   -8944.4361            0    14277.204    24.879183    24.892877     22.81875    14131.981    14203.989    13705.353     14922.27    746.61947      772.943    1058.8563   -4881.2044 
17098000    285.86279   -8998.3541   -7908.5148   -8998.3541            0    13907.627    24.978373    24.763441    22.842802    14129.426    13366.842    14941.728     13414.31   -337.28784   -1272.0904   -1718.7304    -5042.665 
17099000    298.29805   -8966.8486   -7829.6004   -8966.8486            0    13631.764    25.010258    24.824941    22.801774    14157.123    12793.799    14500.189    13601.305    -216.3459     404.5645   -284.61717   -5015.0892 
17100000    293.65797   -9006.0074   -7886.4493   -9006.0074            0    14099.215    24.848653    24.860047    22.805172    14087.637    15086.921    12488.569    14722.155   -392.96454    -878.8574   -1135.2475    -4989.713 
17101000    302.12767   -8985.1775   -7833.3291   -8985.1775            0    16207.184    24.751635    24.917156    22.752172    14032.183    16951.286    14660.183    17010.082    479.99315    169.84829   -1201.0639   -4516.6101 
17102000     308.5673    -8967.188   -7790.7887    -8967.188            0    15215.631    24.771315    24.895987     22.83076    14079.874    16302.605    14539.693    14804.594    239.65849    148.10664   -1315.0732   -4666.4031 
17103000     296.7301   -8963.6818   -7832.4113   -8963.6818            0    14367.403    24.843861    24.804644    22.903908    14114.376    14680.293    15576.968    12844.949   -467.89741    665.40824    989.41253    -4874.972 
17104000    301.22975   -9004.0207   -7855.5955   -9004.0207            0    12446.935    24.982364    24.994383    22.678407    14160.824    11708.756    12542.319    13089.729   -426.65952    1081.8245   -313.81699    -5285.041 
17105000     286.7533   -8919.8742   -7826.6398   -8919.8742            0    13921.363    24.873591    24.784681    22.964819    14157.444    13910.827    14542.125    13311.137   -854.79089   -71.665465    1106.7661   -4952.2709 
17106000    293.54026   -8987.6538   -7868.5445   -8987.6538            0    14110.728     24.90299    24.820992    22.803398    14095.166      12235.9    15311.183      14785.1   -171.97877    1297.0029    16.010408   -4967.8934 
17107000    294.46466   -8958.1389   -7835.5054   -8958.1389            0    14717.859    24.878544    24.894572    22.761321    14097.013    12473.488    15637.622    16042.468    200.19549    818.70204     588.3677   -4809.6538 
17108000    294.76396   -8952.7172   -7828.9426   -8952.7172            0    15129.129    24.754974    24.814383    22.925429    14082.619     15487.63    15815.152    14084.606   -265.30155    250.94673   -528.56734   -4721.7137 
17109000    296.60143   -8985.9904   -7855.2105   -8985.9904            0    13512.671    24.988743    25.011169    22.628703    14142.886    13343.915    12312.478     14881.62    1039.9372   -1066.4668    245.62306   -5068.0938 
17110000    301.30561   -9018.4218   -7869.7074   -9018.4218            0    13419.315    24.905278    24.759994    22.906313    14125.282     13733.13    13115.964     13408.85   -365.71502    122.98525    1416.4985   -5105.2917 
17111000    299.01304   -8982.2467   -7842.2727   -8982.2467            0    13518.068    24.965289    24.885779    22.770653    14146.966     11992.26    13903.639    14658.306   -226.77614   -482.17815   -616.13069   -5053.2385 
17112000    296.09444   -8973.9534   -7845.1063   -8973.9534            0    12452.518    24.858836    25.068083    22.796829    14206.149    12783.685    10718.498    13855.371    822.72072    1201.3605    84.245282   -5265.1673 
17113000    293.26415   -8961.7626   -7843.7059   -8961.7626            0    13493.035     24.78568    24.943132    22.886088    14148.923    14134.454    12827.294    13517.356    157.02768   -1361.1417   -584.01503   -5059.4515 
17114000    309.98422   -8941.6427   -7759.8415   -8941.6427            0    14817.798    24.821885    25.057101    22.672818    14101.687     15066.27    13188.604    16198.519     754.4969    168.93437    916.43962   -4712.4334 
17115000    303.24075   -8926.0569   -7769.9649   -8926.0569            0    15289.008    24.927449    24.769479    22.829152     14095.63    14965.983    15478.449    15422.593   -921.68348    1391.3857    978.63152   -4626.9987 
17116000    298.89611   -8972.7441   -7833.2158   -8972.7441            0    16451.039    24.779768     24.77402    22.804891    13999.796    16174.201    16664.123    16514.793   -822.37528   -1878.3482   -371.68936   -4474.3633 
17117000     286.3209   -8990.7101   -7899.1242   -8990.7101            0    15729.355    24.779567    25.031912    22.601063    14018.986    15789.224    13907.631    17491.208   -989.49231   -862.06164   -526.05049    -4683.218 
17118000    286.73966   -8996.0903    -7902.908   -8996.0903            0    14010.275    24.742466     24.87367    22.873987    14077.473    14836.243    13687.119    13507.462   -254.99369   -884.32126   -946.16923   -5026.5214 
17119000    300.56641   -8978.4755   -7832.5793   -8978.4755            0    15276.916    24.785979    25.076784    22.621273    14060.312    17141.259    13211.771    15477.719    837.26029   -856.37932    359.53041   -4699.9678 
17120000    293.28942   -8973.5848   -7855.4317   -8973.5848            0    14848.472    24.745717    24.953658    22.843483    14105.764    15418.588     13963.79    15163.037     462.1173   -167.44965    1139.6576   -4800.8324 
17121000    288.27105   -8955.0974   -7856.0767   -8955.0974            0    14307.383    24.860543    24.755806    22.987137    14147.267    14043.309    15253.912    13624.928   -443.86524    224.46963     -439.659   -4904.1291 
17122000    310.10074   -8990.5269   -7808.2814   -8990.5269            0    14040.171     24.96903    24.938802    22.709175    14140.951    12423.091    14448.099    15249.323   -98.214795   -236.19473    -134.5869   -4912.7592 
17123000    298.04331   -9009.8319   -7873.5549   -9009.8319            0     13481.74    24.925216    24.712043    22.952236    14137.499    12158.083    16114.502    12172.634    328.88002     703.1985   -287.38944   -5093.8775 
17124000    297.75904   -8923.6744   -7788.4811   -8923.6744            0     14015.38    24.967688     24.85274    22.746466    14114.534    12299.383    15319.744    14427.012    993.58682   -78.874766   -304.26286   -4903.4713 
17125000    303.14981   -8923.1903    -7767.445   -8923.1903            0    14949.497    24.894293     24.73057    22.913376    14106.621    14657.388    17317.283     12873.82    -389.5403    368.57382   -842.40399    -4691.876 
17126000     299.2214   -8984.1844    -7843.416   -8984.1844            0    14506.886    24.891922    24.848087    22.788336    14094.965    14535.859    13932.985    15051.814   -86.306637   -2130.6322   -949.88123   -4861.3717 
17127000    303.36613   -8972.2808   -7815.7108   -8972.2808            0    15468.231    24.778057    24.778674    22.954279    14093.179     14962.33    16554.112    14888.251   -590.86261   -81.907197     1768.422   -4636.4548 
17128000    294.09045    -8969.292    -7848.085    -8969.292            0    14009.722      24.9737     24.92987    22.653548    14103.898    12577.246    14217.811    15234.109   -1036.8051   -232.03958    1080.4426   -4966.4131 
17129000    297.43793   -8946.7831    -7812.814   -8946.7831            0    14849.848    24.884559    24.869306    22.803459    14112.188    14713.885    14062.609    15773.049   -685.97428    -3.768232   -1099.7447   -4756.5404 
17130000    289.91175   -8989.6668    -7884.391   -8989.6668            0    14827.638    24.892894       24.708    22.911705    14091.927    15005.455    15928.976    13548.482   -406.66672   -547.91309   -1651.4712   -4837.0697 
17131000    299.58779   -9003.4207   -7861.2555   -9003.4207            0    17310.283    24.681453    24.943629    22.686693    13966.949    18799.787    15053.518    18077.546    481.68123    548.43674   -556.35561    -4335.261 
17132000    283.36477   -8926.4115   -7846.0958   -8926.4115            0    14573.327    24.839316    24.854875    22.906984     14142.27    14525.731    13546.722    15647.529   -422.33572     1485.055   -478.67764   -4840.3397 
17133000    298.83736   -9001.4626   -7862.1583   -9001.4626            0    12997.574    24.890225    24.962084    22.820265    14178.502      12798.3    13012.926    13181.497   -66.805214    84.208464   -1311.1145    -5174.534 
17134000    296.89357   -9024.5038   -7892.6101   -9024.5038            0     12576.81    24.887749    25.037873     22.71923    14157.177    11246.466    12303.245    14180.719    186.76354   -600.16527    210.21424   -5295.9025 
17135000    290.89634   -9020.9892   -7911.9597   -9020.9892            0    14599.901    24.848849    24.783788    22.914073    14111.599    13827.863    15226.865    14744.974    745.27359    423.55023   -149.59741   -4907.2534 
17136000    289.86431   -8950.7719    -7845.677   -8950.7719            0    13578.236    25.068467    24.792331    22.781547    14158.862    12524.156    14194.423    14016.129    160.55291   -951.09032    64.435138   -5041.8733 
17137000    295.68198   -9006.1338   -7878.8592   -9006.1338            0    13836.232    24.917801    24.770183     22.86574    14113.158    12387.081    14875.223    14246.392    740.53801    864.57862   -1168.9834    -5031.004 
17138000    291.63678   -8964.1489   -7852.2965   -8964.1489            0    12514.548    24.885314     24.92217    22.878641    14189.243    11733.816    12622.479    13187.349   -717.40833    587.22419   -374.76534   -5262.5916 
17139000    282.79035   -8976.6488    -7898.523   -8976.6488            0    13649.887    24.821383    24.965788    22.797451    14127.247    13943.162    12940.068     14066.43    565.62658   -841.77879    385.86077   -5086.2176 
17140000    297.70539   -8995.1417    -7860.153   -8995.1417            0     11339.27    24.763615    24.974084    23.028349     14241.85    12749.788    11641.494    9626.5265    9.1490293     815.3591   -141.76397   -5504.9552 
17141000    291.04845   -8997.6105    -7888.001   -8997.6105            0    12864.618    24.939487    24.913159    22.795552    14163.364    11851.382    13184.887    13557.584   -29.875114    642.37958    175.08252   -5230.7096 
17142000     290.4465    -8993.226   -7885.9114    -8993.226            0    13560.057    24.786391    24.908373    22.915575    14147.816    14203.234     13289.98    13186.956   -52.751874   -447.75178    347.06079   -5088.0461 
17143000    300.91791   -9001.7055   -7854.4692   -9001.7055            0    12857.763     24.95647    24.996398     22.70875    14166.215    12351.346    12920.268    13301.675     180.3373    1027.4795    768.77349    -5198.059 
17144000    292.69278    -8969.129   -7853.2506    -8969.129            0    13541.936    24.815152    24.818701    22.971836    14147.891    14173.512    12585.978    13866.318   -266.62279   -1135.3616    -88.53535   -5059.1094 
17145000    304.67896   -8950.1447   -7788.5695   -8950.1447            0    13415.677     24.96674    24.988063    22.668665    14142.311    13910.985    12176.895     14159.15    93.878235    864.98165   -449.45398   -5021.5714 
17146000    290.98662    -8970.542   -7861.1683    -8970.542            0    13971.837    24.888499    24.801088    22.899602    14135.051    12307.127    15438.084    14170.301    216.95587    -815.7597   -899.76597   -4980.9409 
17147000     289.7992   -8963.2868   -7858.4401   -8963.2868            0    14384.495    24.882241    24.762627    22.916494     14119.99    14199.126    16220.642    12733.716    120.53212    366.25891    87.684231   -4896.3048 
17148000    298.10142   -9029.1861   -7892.6875   -9029.1861            0    14779.355    24.931821    24.814845    22.706186    14047.847    13934.819    15757.849    14645.398      1580.55   -29.290971    378.71247   -4864.7902 
17149000    293.63628   -8946.5658   -7827.0904   -8946.5658            0    15312.157    24.776166    24.770364    22.961403    14091.749    15776.389    16208.669    13951.411   -591.17444    916.40093    -1090.012   -4680.2323 
17150000    281.78835   -8949.9756   -7875.6699   -8949.9756            0    13676.658    24.877929    24.959362    22.752847     14128.09    13122.671    13774.745    14132.558   -279.76843    463.04549    218.61153   -5057.6806 
17151000    291.95429   -8939.0723   -7826.0094   -8939.0723            0    14412.486    24.757473    24.825035    22.970913    14118.041      14724.1    15192.564    13320.793    295.87757   -365.05487   -32.295281   -4858.5197 
17152000    287.35398   -8973.2832   -7877.7587   -8973.2832            0    14253.406     24.82745    25.022038    22.702976    14103.847    15599.023    12832.791    14328.404    482.09064    281.42142    62.081306   -4945.9737 
17153000    303.88438   -8984.8366   -7826.2907   -8984.8366            0    13437.094    24.852952    24.893181    22.876398    14152.919     13195.03    14286.465    12829.786   -571.85352    237.41414   -541.99274   -5052.7966 
17154000    287.14477   -8988.6247   -7893.8979   -8988.6247            0    13684.885    24.850399     24.87757    22.852064    14127.547    13938.197    12875.134    14241.325   -1121.8139   -342.28671   -312.93538   -5074.3218 
17155000    303.58142   -9012.4122   -7855.0214   -9012.4122            0    14164.275    24.927614    24.784182    22.810859    14092.789    12867.401    15364.276    14261.148     354.3182   -597.92369    -41.10961    -4943.854 
17156000    276.91699   -8995.6381   -7939.9043   -8995.6381            0     15840.68    24.947357    24.810743    22.689285    14043.815     15119.39    15030.138    17372.513   -39.108635   -803.54738    180.89968   -4695.5011 
17157000    292.21566   -8982.4255   -7868.3661   -8982.4255            0    13217.443    24.951914    24.764171    22.949705    14180.932    13100.973    13535.616    13015.739    884.66413    747.14423    1619.7019   -5134.8094 
17158000    296.53643   -8975.0197   -7844.4876   -8975.0197            0     13755.86    24.942992    24.875461    22.804594    14149.531    13869.695    13370.314     14027.57    -1369.346    28.087454     2157.044    -5005.878 
17159000    306.58149   -8984.1606   -7815.3321   -8984.1606            0    13456.492    24.914375    24.887484    22.779738    14124.716    13298.507    13413.196    13657.773    307.95329   -1050.5912   -843.35043   -5043.3689 
17160000    297.85262   -8974.2878   -7838.7378   -8974.2878            0    15377.547    24.710055    24.836303    22.937465    14076.869     17170.06    13647.577    15315.004   -240.69711   -117.13666   -79.579687   -4681.7782 
17161000    287.74077   -8984.7551   -7887.7561   -8984.7551            0    14851.341    24.820437     24.91769    22.738054    14062.758    14473.394    15491.574    14589.054   -298.97162    717.46029   -308.68532   -4841.8812 
17162000     289.7698   -8951.7642   -7847.0295   -8951.7642            0    15597.185    24.790415    24.777897    22.950329     14097.34    15480.923    15277.192     16033.44   -283.70077   -1502.2416   -990.49016   -4640.3225 
17163000    295.62786   -8940.4824   -7813.4141   -8940.4824            0     15517.76    24.952317    24.837871    22.697432    14067.016    13809.298    16614.853    16129.131    1591.5032    -1815.245   -588.97564   -4629.8991 
17164000    290.74777     -8975.82   -7867.3569     -8975.82            0    15201.445    24.854452     24.68372    22.929245    14067.099    14563.936    17094.776    13945.625   -277.35744    55.177265   -968.53131   -4748.7164 
17165000    296.51089   -8962.3453   -7831.9106   -8962.3453            0    16005.368    24.924411    24.824625    22.704039    14047.878     15108.69    15662.284    17245.129     1235.152   -82.218034   -65.715373   -4552.8287 
17166000    301.53935   -8955.8105    -7806.205   -8955.8105            0    14279.346    24.826389     24.86339    22.869122    14116.382    15752.687    14631.585    12453.765    701.17221   -1079.8744    911.98854   -4866.4739 
17167000    293.64918   -9058.0042   -7938.4796   -9058.0042            0    11337.857    24.907085    24.965033    22.856026    14212.019    10481.153    12522.338    11010.081    176.83491    562.56444   -232.13103   -5588.5077 
17168000    302.70048   -8946.1911   -7792.1589   -8946.1911            0    13349.703     24.89906    25.027061     22.77459    14191.993     13799.62     12648.67    13600.819    900.09621   -131.08445    29.771226   -5029.0954 
17169000    298.05127   -8990.2527   -7853.9454   -8990.2527            0     13328.04    24.865402    24.815933    22.962465    14169.176    14341.013    14033.812    11609.296    928.91729    813.25779    560.59343   -5099.8004 
17170000    291.44397   -8962.6653    -7851.548   -8962.6653            0    15393.752    25.032907    24.771592     22.69095    14070.771    13447.175    16438.247    16295.836    589.10203    -38.20727   -155.28027   -4692.6305 
17171000    297.89618   -8996.4878   -7860.7717   -8996.4878            0    15236.769    24.814399    24.790093     22.90156    14087.923    15742.557    15267.866    14699.883    437.51054    472.74443    632.72602    -4730.257 
17172000    297.65319   -8986.3739   -7851.5842   -8986.3739            0    14424.915    24.907798    24.847695    22.774198    14094.982     12973.07    14832.696     15468.98    424.82162    388.57769   -174.13087   -4886.3863 
17173000    296.76642   -8973.2026   -7841.7937   -8973.2026            0    16181.318    24.895559    24.762999    22.729483    14012.469    16458.788    15886.527     16198.64   -78.160401    1051.2822    669.91385   -4535.0201 
17174000    297.67231   -9004.7237   -7869.8611   -9004.7237            0    14967.103    24.762902    24.822594    22.867521    14056.195    15950.742    15434.409    13516.159   -416.93522   -1139.8902   -139.62079   -4801.6769 
17175000    295.62509   -8980.7633   -7853.7056   -8980.7633            0    15127.054    24.743273    24.987962    22.790782    14091.175     16643.56    14920.733    13816.869    135.22401    1442.2555   -317.37123   -4745.0153 
17176000    290.14624   -8979.0164   -7872.8466   -8979.0164            0    15512.482    24.748954    24.853239    22.830526    14042.866    16482.432    14290.592    15764.423    -900.4038    562.40925   -218.59457   -4695.8778 
17177000      292.873   -8966.2766   -7849.7112   -8966.2766            0    13028.506    24.950047    24.898363    22.832508    14183.904    12903.839    12710.526    13471.151    37.349068    1348.9293    68.778384   -5154.6646 
17178000    295.25845   -9001.4574   -7875.7975   -9001.4574            0    11826.655     24.91605    24.959028    22.857032     14214.34    12239.323     11332.99    11907.653    324.10641      916.032   -300.31352   -5424.1133 
17179000    288.39479   -8971.2963   -7871.8038   -8971.2963            0     12322.37    24.898973    25.014499    22.777389    14186.563    12009.078    12037.962     12920.07   -1584.7002    741.85497   -796.48412   -5322.3489 
17180000    287.15458   -8977.9195   -7883.1553   -8977.9195            0    13350.175    24.854469    24.796217    22.942388     14139.32     13503.35    13514.769    13032.405    -776.6157   -552.57365    1453.9506   -5130.2494 
17181000    294.29457   -8966.9773   -7844.9922   -8966.9773            0    15782.338    25.016079    24.811467    22.611558    14034.668    15413.508    15377.016    16556.491   -1259.1857    71.933843    68.146535   -4614.6437 
17182000    295.14559   -8929.9281   -7804.6985   -8929.9281            0    15198.623    24.882203    24.801854    22.847554    14099.791    14976.306    15656.914     14962.65   -491.16874   -932.98798    89.428077   -4679.3906 
17183000    293.44007    -8970.903   -7852.1756    -8970.903            0    14070.461     24.92435    24.961529    22.680986    14110.972    13674.704    13719.723    14816.957     11.77244   -17.459675   -521.56533   -4956.5584 
17184000    297.76018    -8956.993   -7821.7954    -8956.993            0    14751.603    24.727604    24.757453    23.031729    14099.852    15935.924    15209.163    13109.722    -50.56009   -19.088028    758.99948   -4788.3957 
17185000    296.14895   -8905.0323   -7775.9774   -8905.0323            0    14702.992    24.872194    24.918763    22.759929    14106.247    15477.786    15185.181     13446.01   -1344.9702   -827.76363    207.89801   -4751.2022 
17186000    302.36898   -8947.2474    -7794.479   -8947.2474            0    14856.659    24.836751     24.95715    22.785756    14123.854    16170.798    13106.208    15292.971    499.70932   -567.95683   -687.57933   -4734.2758 
17187000    293.33787   -9024.8962   -7906.5584   -9024.8962            0    13956.233     24.63353    24.879705    22.991485    14090.905    15343.295    13668.569    12856.834    556.71116    652.26961     464.8996   -5038.5332 
17188000     306.3894   -8978.9988   -7810.9027   -8978.9988            0    14736.917    24.814141    24.975444    22.746893    14097.255    15448.385    12703.078    16059.288    374.68157    487.05054    902.70771    -4781.081 
17189000    281.06455   -8987.7998   -7916.2535   -8987.7998            0    14053.257    24.911839     24.83609    22.795019    14103.567     13362.27    15355.316    13442.184   -273.24754   -291.66394    678.52396   -5025.6945 
17190000    299.94979   -8937.4785   -7793.9331   -8937.4785            0    14814.333    24.726698    24.815139    22.997105    14110.942    13749.476    16941.353    13752.169    936.98353   -133.84997    58.343522   -4745.2381 
17191000    296.80344   -8977.6266   -7846.0765   -8977.6266            0    13045.803    25.014662    24.949368    22.713779    14175.669    12645.152    12747.788    13744.468    736.09087   -899.17116    966.26619   -5149.0186 
17192000    295.31353   -8951.6999     -7825.83   -8951.6999            0    13596.263    25.020808    24.717606    22.877776    14148.863    13580.009    13910.662    13298.118    269.08159   -1136.5772   -197.66178   -5020.2867 
17193000    296.54605   -8980.7317   -7850.1629   -8980.7317            0    13811.011    24.966233    24.824367    22.823204    14145.159     12447.11    13927.792    15058.131    669.27324   -265.84224   -765.79278   -5001.0532 
17194000    292.21216   -8967.2664   -7853.2204   -8967.2664            0    13723.505    24.890299    24.955684    22.758427    14136.498    14148.737    13023.336    13998.444   -30.676477    878.38596    750.66472   -5023.8958 
17195000    295.68297   -8982.4126   -7855.1343   -8982.4126            0    13387.955    24.804555    24.864748    22.949049    14154.033    14338.225    12702.062    13123.577    652.53704    983.72425    322.46637   -5091.5653 
17196000    299.16432   -8961.0542   -7820.5033   -8961.0542            0    15050.275    24.793991    25.061791     22.65424    14076.933    14684.003    14127.376    16339.446   -314.85503   -242.43715    841.47716   -4730.7176 
17197000    291.74216    -8964.777   -7852.5228    -8964.777            0    13358.745    24.897313    24.831151    22.907787    14162.257    12037.499    13790.876     14247.86   -688.75231    18.741636   -698.34056    -5093.381 
17198000     298.9974   -8967.6937   -7827.7792   -8967.6937            0    13763.742    24.994939    24.959736    22.641017    14124.985    13564.079    12747.919     14979.23     64.82683    1075.9315   -324.50195   -4992.4701 
17199000    310.81091    -8981.758    -7796.805    -8981.758            0    14620.896     24.86217    24.779717    22.868241    14088.609    14980.023    14576.272    14306.394    430.75748    -1168.164    754.87106     -4792.68 
17200000    300.35695   -8984.6099   -7839.5122   -8984.6099            0    15394.522    24.916146    24.977989     22.57994    14052.744    14658.903    15063.239    16461.424     2104.682   -176.24366   -358.78283   -4684.4842 
17201000    312.10871   -8976.2474   -7786.3467   -8976.2474            0     16163.32    24.804087    24.783075    22.837932    14038.969    17071.606    16312.979    15105.376    736.97497   -637.93917    1192.0675   -4477.0044 
17202000    292.09483   -8957.2342   -7843.6355   -8957.2342            0    15890.748    24.851738    24.795075    22.787283    14041.539    15090.286    16288.176     16293.78   -727.73585    206.57954    1817.0259   -4589.5052 
17203000    293.68803   -9010.7589   -7891.0862   -9010.7589            0    15726.187    24.823889    24.850249    22.746453    14031.828    15651.673     15451.47    16075.417   -193.25141   -1349.3774   -626.08971   -4672.8822 
17204000    304.21696   -8971.3818    -7811.568   -8971.3818            0    14916.531    24.712962    24.796229    22.959979    14069.606    15585.772    15495.773    13668.049  -0.33413404    73.671401    516.14588   -4750.8335 
17205000    302.46997   -9025.5399   -7872.3864   -9025.5399            0     15222.31    24.808282    24.957591     22.69516    14051.821    15040.372    14239.267    16387.291    -1174.924   -1506.2523   -400.38504   -4752.8572 
17206000    285.31824   -9024.8118   -7937.0485   -9024.8118            0     15174.38    24.709271    24.686983    23.019546    14041.862    15479.598    16492.894    13550.649    99.522717   -865.25573   -349.59378   -4829.5456 
17207000     293.5153    -8948.648   -7829.6338    -8948.648            0    15752.086    24.955206    24.846628    22.642562    14039.582    15074.069    15988.174    16194.014    446.67767    664.95245   -12.078044   -4604.3485 
17208000    303.72537   -9006.5545   -7848.6148   -9006.5545            0     13821.29    24.792937    24.750136    22.998991    14112.838    14992.291    13620.503    12851.075   -427.19206    -531.2692    307.43185   -5003.8995 
17209000    299.08855   -8941.1874   -7800.9254   -8941.1874            0    14371.599    24.890114    24.970574    22.712862    14116.508    15194.387    13071.134    14849.276    180.58177    275.86319    558.59902   -4842.1756 
17210000    303.00362   -8993.9915   -7838.8035   -8993.9915            0    13661.928    24.738455    24.946094    22.945637    14160.391    14769.813    13661.645    12554.325   -641.86711   -10.116552   -1028.3424   -5017.4136 
17211000    298.49852    -8963.087   -7825.0745    -8963.087            0    14352.935     24.91745    24.821816    22.849137    14132.108    14655.188    14094.034    14309.584   -44.825576   -10.238582   -919.05585   -4866.9016 
17212000    294.28617   -8989.9703   -7868.0172   -8989.9703            0    13557.996    24.993155    24.908201    22.693411    14127.431    13097.906    13433.333    14142.749    -76.71884    543.09577    672.04783   -5074.6077 
17213000    306.25051    -9037.905   -7870.3384    -9037.905            0    13430.589    24.894785     24.80406    22.849414    14109.324    13797.501    13273.968    13220.297    419.17725    253.18821    2219.8692   -5106.7259 
17214000    301.32916   -8969.2066   -7820.4024   -8969.2066            0    15790.037    24.879189    24.765437    22.804796    14051.038    15601.804    16163.378    15604.928    1036.0922   -583.04247   -1098.6564   -4584.7085 
17215000    292.30842   -8984.2608   -7869.8478   -8984.2608            0    14967.524    24.790922    24.788478    22.885532    14063.828    16570.773    14380.083    13951.715     879.1364   -1099.0137    524.93142   -4799.9112 
17216000    280.57142   -8952.0109   -7882.3447   -8952.0109            0    14288.924    24.865554    24.935273    22.750782    14106.153    14543.199    13620.391    14703.181    -894.8777   -273.84328    980.50883   -4942.7734 
17217000    295.55899   -8963.5377   -7836.7321   -8963.5377            0    13113.111    24.892838    24.997778    22.760938    14163.349    12931.956    12194.743    14212.634    254.93055    214.23484    95.957585   -5128.1151 
17218000    294.95089     -8971.57   -7847.0827     -8971.57            0    13408.979    24.892205    24.813447    22.910192    14150.742    14550.863    12086.571    13589.502    477.00748   -446.02779   -141.10617   -5079.8174 
17219000    297.05142   -9015.2975   -7882.8021   -9015.2975            0     13904.27    25.129507    24.837302    22.576457    14091.076    10907.028    15113.212     15692.57    668.64663   -878.87395    1333.0237   -5025.4204 
17220000    296.07283   -8995.5429   -7866.7783   -8995.5429            0    12845.426    24.825672    24.799084    22.989183     14153.38     13704.75    12989.195    11842.333    847.38636    1430.0631   -113.63811   -5215.3212 
17221000     294.5437   -8964.3914   -7841.4565   -8964.3914            0    15249.667    24.831965    24.932583    22.692159    14049.283     15273.33    14454.674    16020.998   -157.43334    1280.9222    675.58705   -4716.8853 
17222000    289.49438   -8968.4866    -7864.802   -8968.4866            0    15849.005    24.784083    24.767333    22.887731    14049.305    16999.063    16624.536    13923.415    359.21137    -988.9975    654.84493    -4617.425 
17223000    289.16748   -8952.4791   -7850.0408   -8952.4791            0    15705.953    24.855325    24.948651    22.679616    14063.785    16037.878    14823.149    16256.832   -488.85331    23.999986    609.58315   -4628.6577 
17224000    296.14838   -8894.8283   -7765.7756   -8894.8283            0    15041.759     24.82132    24.911752     22.81478     14107.35    14582.462    16516.399    14026.416   -20.165211    989.52869   -143.76463   -4671.0656 
17225000    291.22872   -8985.8235   -7875.5268   -8985.8235            0    12658.242    24.738435    24.911278    22.995836    14171.553    13367.182    12477.771    12129.772   -780.05126   -808.28043   -1245.7958   -5259.3522 
17226000    292.24293   -8956.1239   -7841.9606   -8956.1239            0    14939.267    24.852264    24.909047    22.744956    14080.179    15006.412    14544.281    15267.109    252.24546   -928.23975    630.37719   -4774.2572 
17227000    292.66038   -8945.2675   -7829.5127   -8945.2675            0    12754.289    24.840942    24.841507    22.985421    14183.991    14873.059    12368.401    11021.406    -623.0201    1131.1781    672.46422   -5191.1737 
17228000     288.2283   -8914.2858    -7815.428   -8914.2858            0     13254.15    24.861346    24.984937    22.834613    14183.928    14643.549     12108.77     13010.13    682.68911    583.92053   -122.09895   -5073.7005 
17229000    289.14275   -8978.3961    -7876.052   -8978.3961            0    14288.249     24.87355    24.907785    22.787974    14118.176    13999.311    14586.692    14278.744    -504.1549   -970.17383   -159.97993   -4934.1142 
17230000    304.92307   -8983.0375   -7820.5317   -8983.0375            0    14202.475    24.745769    24.882846     22.90017    14100.669    16039.115    13841.323    12726.988    286.33976    282.23153   -2.5063532   -4899.8808 
17231000    304.88113   -8962.3186   -7799.9727   -8962.3186            0    14154.506    24.918862    24.885154    22.742963    14103.133    13986.234    14255.406    14221.877   -580.68755   -497.00265    461.85167   -4888.6779 
17232000    299.81601   -8979.0724    -7836.037   -8979.0724            0    14593.565    24.884695    24.721394     22.92803    14104.965    14785.705    15678.431    13316.561    1169.2462    1872.4306   -1267.0432   -4834.0464 
17233000    303.42391   -8961.7652   -7804.9749   -8961.7652            0     14632.99    24.911755    24.895791    22.763755    14118.031     14308.73    14794.726    14795.515   -1011.2575   -635.58546    745.24651    -4792.086 
17234000    298.68057   -8958.4336    -7819.727   -8958.4336            0    14468.316     24.87537    24.857028    22.821657    14111.264    13330.506    13944.313    16130.131   -784.44804   -725.19217    173.13983   -4842.1719 
17235000    289.87026   -8992.4744   -7887.3567   -8992.4744            0    13620.559    24.885094    24.912675    22.800113    14135.027    12204.713    14379.335    14277.628     423.4491    437.26684    133.19493   -5079.5484 
17236000    303.68861   -8977.1803   -7819.3808   -8977.1803            0    14735.999    24.796836    24.839254    22.869487    14086.115    15263.465    14168.512    14776.019   -763.65691    158.83842   -312.56572   -4792.1419 
17237000    299.00865   -9003.8027   -7863.8454   -9003.8027            0     14161.06    24.870167    25.004729    22.652164    14086.741    15503.064     11722.34    15257.776   -102.14497   -119.93492    566.96376   -4954.5877 
17238000    301.20538   -8929.6805   -7781.3482   -8929.6805            0    14067.995    24.812923     24.88079    22.951043    14169.173    14894.796    13505.359     13803.83    489.46992   -155.98619   -23.300072   -4874.2974 
17239000    293.53079   -8964.6074   -7845.5341   -8964.6074            0     12680.79    25.076689    24.872019    22.746752    14187.329    10448.311    13349.114    14244.944   -251.41588    493.16532    576.35166   -5221.7818 
17240000    299.08605   -8943.4642   -7803.2118   -8943.4642            0    13887.568    24.820625    24.919075    22.889917    14157.574    14127.303    13351.263    14184.139    464.61434   -676.66423     1188.495   -4935.7943 
17241000    302.86338   -8990.5932   -7835.9399   -8990.5932            0    13798.643     24.78055    24.947364    22.887173    14149.065    13083.498    14194.312     14118.12   -902.90482    442.26234      197.103   -4988.5953 
17242000    307.60214    -8981.845   -7809.1253    -8981.845            0    14427.095    24.733139    25.085437    22.728967    14101.997        16663    11646.683    14971.603   -92.891079    421.55195   -356.20983   -4842.0032 
17243000    292.26163   -8962.7053   -7848.4707   -8962.7053            0    14119.874    24.814298    24.890525    22.875465    14128.823     14144.92     15318.64    12896.063   -623.20733   -924.74506     558.7389   -4939.0086 
17244000    289.00317   -8999.1301   -7897.3183   -8999.1301            0    12072.945    24.820566    24.977559    22.985847     14250.24    11807.219    11982.175    12429.441    754.87672   -1175.5118    784.89511   -5388.2569 
17245000    299.72882   -8986.1132   -7843.4103   -8986.1132            0     13231.29    24.987341     24.88166    22.764824    14153.495    13201.649    13153.036    13339.186   -246.68967    1106.7206   -13.474456   -5112.2839 
17246000    283.07571    -8950.731   -7871.5173    -8950.731            0    13767.191    24.861091    24.929884    22.861591    14169.251    14910.646    13151.527    13239.398    472.03869   -51.838097   -419.59292   -5026.6101 
17247000    302.20872   -8941.2528   -7789.0953   -8941.2528            0    15280.171    24.880902    24.941865    22.724683    14102.395    14800.579    13799.349    17240.584    994.70613   -449.12962   -59.214273   -4646.4384 
17248000    282.45409   -8974.7579   -7897.9141   -8974.7579            0    13648.102    24.822707    24.908672    22.841487    14122.906    14917.575    12419.026    13607.706   -914.52212    1419.1786   -264.28249   -5086.8405 
17249000    295.61995   -9044.9061    -7917.868   -9044.9061            0     13467.19    24.900212    24.875083     22.80215    14123.535    12309.571    13097.652    14994.346    177.15885   -294.41348    254.71538    -5143.933 
17250000    295.87782   -8942.1779   -7814.1567   -8942.1779            0    13562.517    25.072555    24.789594    22.837931    14194.653    11189.534    15010.701    14487.316   -329.02501    -271.8368    1223.7843   -5006.5197 
Loop time of 540.645 on 64 procs for 250000 steps with 1920 atoms

Performance: 79.904 ns/day, 0.300 hours/ns, 462.410 timesteps/s
99.2% CPU use with 64 MPI tasks x 1 OpenMP threads

MPI task timing breakdown:
Section |  min time  |  avg time  |  max time  |%varavg| %total
---------------------------------------------------------------
Pair    | 64.169     | 67.044     | 68.803     |  11.9 | 12.40
Bond    | 0.27535    | 0.28556    | 0.29377    |   0.7 |  0.05
Kspace  | 223.08     | 234.04     | 244.18     |  31.7 | 43.29
Neigh   | 7.2013     | 8.7431     | 10.228     |  22.6 |  1.62
Comm    | 94.706     | 107.73     | 124.02     |  57.8 | 19.93
Output  | 1.0942     | 1.0955     | 1.0972     |   0.1 |  0.20
Modify  | 104.57     | 114.74     | 121.25     |  39.2 | 21.22
Other   |            | 6.972      |            |       |  1.29

Nlocal:        30.0000 ave          35 max          25 min
Histogram: 1 0 3 8 16 13 10 7 3 3
Nghost:        2864.34 ave        2897 max        2833 min
Histogram: 4 1 8 9 10 11 9 9 2 1
Neighs:        10705.9 ave       12385 max        8655 min
Histogram: 1 0 4 7 13 15 11 8 4 1

Total # of neighbors = 685178
Ave neighs/atom = 356.86354
Ave special neighs/atom = 2.0000000
Neighbor list builds = 14887
Dangerous builds = 1

unfix		3
unfix		2
unfix		1

write_data	data.final.${pid}
write_data	data.final.0
System init for write_data ...
PPPM initialization ...
  extracting TIP4P info from pair style
  using 12-bit tables for long-range coulomb (../kspace.cpp:340)
  G vector (1/distance) = 0.37457325
  grid = 30 30 30
  stencil order = 5
  estimated absolute RMS force accuracy = 0.0032609644
  estimated relative force accuracy = 9.8202976e-06
  using double precision FFTW3
  3d grid and FFT values/proc = 3600 512
Last active /omp style is kspace_style pppm/tip4p/omp
WARNING: Not all mixed pair coeffs generated from mixing. Use write_data with 'pair ij' option to store all pair coeffs. (../write_data.cpp:312)

write_restart   restart.lmp.${pid}
write_restart   restart.lmp.0
System init for write_restart ...
PPPM initialization ...
  extracting TIP4P info from pair style
  using 12-bit tables for long-range coulomb (../kspace.cpp:340)
  G vector (1/distance) = 0.37457325
  grid = 30 30 30
  stencil order = 5
  estimated absolute RMS force accuracy = 0.0032609644
  estimated relative force accuracy = 9.8202976e-06
  using double precision FFTW3
  3d grid and FFT values/proc = 3600 512
Last active /omp style is kspace_style pppm/tip4p/omp
Total wall time: 0:09:01
