#include		in.partitions
include		in.temp
variable        temperature equal 257.39
variable	tempDamp equal 100.0
include		in.pressure
variable        pressure equal 7625.0
variable        pressureDamp equal 1000.0 # This is 1 ps
include		in.seed
variable        seed equal 745823

units		real
atom_style	full
read_restart	restart.lmp.${pid}
read_restart	restart.lmp.0
Reading restart file ...
  restart file = 30 Jul 2021, LAMMPS = 30 Jul 2021
  restoring atom style full from restart
  orthogonal box = (-0.13977975 -0.10338073 -0.14652476) to (24.869781 24.833382 22.956525)
  4 by 4 by 2 MPI processor grid
  restoring pair style lj/cut/tip4p/long/omp from restart
  restoring bond style harmonic/omp from restart
  restoring angle style harmonic/omp from restart
  1920 atoms
  1280 bonds
  640 angles
Finding 1-2 1-3 1-4 neighbors ...
  special bond factors lj:    0        0        0       
  special bond factors coul:  0        0        0       
     2 = max # of 1-2 neighbors
     1 = max # of 1-3 neighbors
     1 = max # of 1-4 neighbors
     2 = max # of special neighbors
  special bonds CPU = 0.002 seconds
  read_restart CPU = 0.010 seconds
include 	in.setup
variable	out_freq equal 1000
variable	out_freq2 equal 10000
variable	out_freq3 equal 1000

timestep	2.0

neigh_modify    delay 7 every 1

include		in.tip4p
# This is TIP4P/Ice

# create groups ###
group ox type 2
640 atoms in group ox
group hy type 1
1280 atoms in group hy

# set charges - beside manually ###
set group ox charge -1.1794
Setting atom values ...
  640 settings made for charge
set group hy charge 0.5897
Setting atom values ...
  1280 settings made for charge

# ### TIP3P Potential Parameters ###
pair_style lj/cut/tip4p/long/omp 2 1 1 1 0.1577 8.5
pair_coeff 1 1*2 0.000 0.000
pair_coeff 2 2 0.21084 3.1668
bond_style  harmonic
bond_coeff  1 450 0.9572
angle_style harmonic
angle_coeff 1 55 104.52
kspace_style pppm/tip4p/omp 1.0e-5
pair_modify tail yes

thermo          ${out_freq}
thermo          1000
thermo_style    custom step temp pe etotal epair emol press lx ly lz vol pxx pyy pzz pxy pxz pyz enthalpy

restart 	${out_freq3} restart.lmp.${pid} restart2.lmp.${pid}
restart 	1000 restart.lmp.${pid} restart2.lmp.${pid}
restart 	1000 restart.lmp.0 restart2.lmp.${pid}
restart 	1000 restart.lmp.0 restart2.lmp.0


include         in.dump
dump            myDump all atom ${out_freq2} dump.water.${pid}
dump            myDump all atom 10000 dump.water.${pid}
dump            myDump all atom 10000 dump.water.0
dump            myDump2 all dcd ${out_freq2} dump.dcd
dump            myDump2 all dcd 10000 dump.dcd
dump_modify     myDump append yes
dump_modify     myDump2 append yes


variable natoms 	equal  "count(all)"                        # NUMBER ATOMS
variable H      	equal  "enthalpy/v_natoms"                 # ENTHALPY-per-atom
variable Vol      	equal  "vol/v_natoms"                 # volume-per-atom
fix AVG all 		ave/time ${out_freq} 1 ${out_freq} v_Vol v_H file vol_enthalpy.dat
fix AVG all 		ave/time 1000 1 ${out_freq} v_Vol v_H file vol_enthalpy.dat
fix AVG all 		ave/time 1000 1 1000 v_Vol v_H file vol_enthalpy.dat




fix 		1 all shake 1e-6 200 0 b 1 a 1
       0 = # of size 2 clusters
       0 = # of size 3 clusters
       0 = # of size 4 clusters
     640 = # of frozen angles
  find clusters CPU = 0.001 seconds
fix             2 all nph aniso ${pressure} ${pressure} ${pressureDamp}
fix             2 all nph aniso 7625 ${pressure} ${pressureDamp}
fix             2 all nph aniso 7625 7625 ${pressureDamp}
fix             2 all nph aniso 7625 7625 1000
fix             3 all temp/csvr ${temperature} ${temperature} ${tempDamp} ${seed}
fix             3 all temp/csvr 257.39 ${temperature} ${tempDamp} ${seed}
fix             3 all temp/csvr 257.39 257.39 ${tempDamp} ${seed}
fix             3 all temp/csvr 257.39 257.39 100 ${seed}
fix             3 all temp/csvr 257.39 257.39 100 745823


run             250000
PPPM initialization ...
  extracting TIP4P info from pair style
  using 12-bit tables for long-range coulomb (../kspace.cpp:340)
  G vector (1/distance) = 0.37425536
  grid = 30 30 30
  stencil order = 5
  estimated absolute RMS force accuracy = 0.0032929678
  estimated relative force accuracy = 9.9166746e-06
  using double precision FFTW3
  3d grid and FFT values/proc = 5400 960
Last active /omp style is kspace_style pppm/tip4p/omp
Neighbor list info ...
  update every 1 steps, delay 7 steps, check yes
  max neighbors/atom: 2000, page size: 100000
  master list distance cutoff = 10.8154
  ghost atom cutoff = 10.8154
  binsize = 5.4077, bins = 5 5 5
  1 neighbor lists, perpetual/occasional/extra = 1 0 0
  (1) pair lj/cut/tip4p/long/omp, perpetual
      attributes: half, newton on, omp
      pair build: half/bin/newton/omp
      stencil: half/bin/3d
      bin: standard
Per MPI rank memory allocation (min/avg/max) = 10.54 | 10.55 | 10.55 Mbytes
Step Temp PotEng TotEng E_pair E_mol Press Lx Ly Lz Volume Pxx Pyy Pzz Pxy Pxz Pyz Enthalpy 
 9750000    260.89384   -9098.1957   -8103.5494   -9098.1957            0    7807.6089     25.00956    24.936762     23.10305    14408.389    7444.6481    8732.7635    7245.4152    40.771467   -338.20705    653.82681   -6462.9242 
 9751000     246.6284   -9087.9755   -8147.7156   -9087.9755            0    6888.9866    25.127211    25.001648    22.994048    14445.359    6867.7728     6636.715     7162.472    434.55462    615.84684    141.95682   -6696.4076 
 9752000    263.89751   -9129.2736   -8123.1759   -9129.2736            0    7568.4622    25.037726      25.0611      22.9005    14369.445    6497.5052    7331.2517    8876.6296   -760.64395   -885.95081    -275.1324   -6537.1017 
 9753000    253.52009   -9089.5198   -8122.9856   -9089.5198            0    9642.1777    24.884339     24.98672    23.002803    14302.637    9626.4956    9219.4589    10080.579   -1617.7515    205.22561   -881.57145   -6111.7306 
 9754000    259.42245   -9166.1797    -8177.143   -9166.1797            0    6870.5414    24.930153    24.989949    23.122002    14405.082    7767.2226     6632.679    6211.7226   -870.68543    368.86145    -345.2905   -6733.7567 
 9755000    256.93029   -9101.7942   -8122.2588   -9101.7942            0     6364.635    25.065962    25.129906    22.994168    14484.148     8088.952    4205.9117    6799.0413    177.36693   -382.26891   -208.45563    -6777.816 
 9756000    262.13895   -9093.0218   -8093.6286   -9093.0218            0    7157.4696    25.037505    25.020335    23.016124    14418.376    6933.5309    7123.1236    7415.7542   -698.01831   -637.74383    372.42377   -6588.5757 
 9757000    257.09945    -9140.489   -8160.3087    -9140.489            0    6719.7807    24.935231    25.043679    23.095433    14422.403    8075.8146    5832.3924    6251.1351   -275.92781   -589.46248    287.62254   -6746.8972 
 9758000     254.5883   -9129.0367     -8158.43   -9129.0367            0    6616.2664    24.994615    25.114492    22.992266    14432.868     8011.784    5689.9296    6147.0856    193.16205    3.4972637    66.575716   -6765.7815 
 9759000    261.50468   -9084.9679   -8087.9928   -9084.9679            0    7628.1534    24.904829    24.939418    23.112511    14355.456    8562.3791    7754.0888    6567.9924    -708.0587    428.23266    720.09491   -6490.9656 
 9760000    260.69101   -9109.0489   -8115.1759   -9109.0489            0     8245.313    24.936581     24.93541    23.097301    14361.991    8501.1811     8682.932    7551.8258    705.90265    257.21316    123.38473   -6388.1546 
 9761000    258.18531   -9128.5975   -8144.2773   -9128.5975            0     6658.048    25.002343    25.037232    23.012963    14405.873    5476.6041    7139.3463    7358.1938    259.64539   -486.03166   -733.49341   -6745.4556 
 9762000    258.86097   -9083.3656   -8096.4696   -9083.3656            0    6159.6691    25.094356    25.003132    23.148547    14524.267    5773.6076     6421.095    6284.3047    454.86145   -139.55114    1544.3443    -6791.719 
 9763000    256.44079   -9079.5828   -8101.9135   -9079.5828            0    6977.5801    24.967982    24.943236    23.160835    14424.157    7598.0692    6982.9087    6351.7623    329.38054   -226.22279    378.56185    -6634.099 
 9764000    255.95875   -9162.6383   -8186.8068   -9162.6383            0    6556.7068    25.034577    25.008026    23.049614    14430.565    7026.0544    6831.6669    5812.3992   -1245.7486    739.25952    50.895267   -6806.9152 
 9765000     257.1982   -9114.7394   -8134.1826   -9114.7394            0    8122.1648    25.050974    25.118146    22.841446    14372.615    9013.2529    6082.2744    9270.9671    744.71799   -382.57612     910.1934   -6431.6968 
 9766000    265.27707   -9135.1179   -8123.7608   -9135.1179            0    7083.1146    24.894067    24.974247    23.160052    14398.849    7673.7542    6543.6073    7031.9823   -55.826782    412.57885    690.19676   -6636.3602 
 9767000    260.05104   -9120.3673   -8128.9341   -9120.3673            0    7555.1861    24.977169    24.928562    23.037151    14343.965    8171.9825    7312.9597    7180.6162    17.470382    709.52667    101.71713   -6548.4495 
 9768000    257.94618   -9153.5129   -8170.1044   -9153.5129            0    5973.0614    25.175392    25.040242    22.895563    14433.315    4724.1741    6238.2117    6956.7984   -260.79395    890.66303    558.48502   -6912.8043 
 9769000     251.2854   -9101.9921   -8143.9776   -9101.9921            0    7983.5111    25.070369    24.857545    23.036928    14356.333    7819.6602     9579.357    6551.5161    454.20314   -666.40183   -30.467975   -6472.4507 
 9770000    252.60675   -9125.2703   -8162.2182   -9125.2703            0    8424.5078    24.967027     24.79152     23.17392    14343.974    9073.0003    9660.0884    6540.4347    268.45787   -1985.9354    643.15291   -6399.8773 
 9771000    261.05264   -9152.3948   -8157.1431   -9152.3948            0     7413.175    24.992694    24.997191    23.026027    14385.445     7309.635    7596.1432    7333.7467    150.33744   -499.50102   -228.19636   -6601.8815 
 9772000    256.92665   -9089.0039   -8109.4823   -9089.0039            0    7418.6328    25.150797    25.075329    22.868475    14422.336    7273.5207    6073.3096    8909.0679   -62.652489   -514.38822   -425.52115   -6549.0844 
 9773000    253.87081   -9145.5822   -8177.7108   -9145.5822            0    7472.0533    24.990017    24.930914    23.058266    14365.852    7679.3172    7772.1461    6964.6967   -817.49131   -272.28855    1397.4503   -6612.2319 
 9774000    268.20996   -9097.4148   -8074.8762   -9097.4148            0    5700.2827    25.114408    24.984468    23.139425    14519.297    5121.9677    6755.2954    5223.5849    -201.2221    155.71598   -203.75767   -6867.8467 
 9775000    259.02345   -9119.1053   -8131.5897   -9119.1053            0    5818.7847    25.115338    25.030129    23.040772    14484.354    4567.2344    6762.1179    6127.0018   -183.75086    590.75059   -174.62926   -6902.4329 
 9776000    260.86137    -9097.346   -8102.8235    -9097.346            0    6335.3506    25.054888    25.053616    23.035173    14459.536    6085.7962    5808.4867     7111.769    201.73563    440.50606   -541.24707   -6766.8407 
 9777000     264.2726   -9139.4528   -8131.9252   -9139.4528            0     5856.112    24.969254    25.063254    23.155426    14490.915     6121.804    6023.4912    5423.0407    -782.4769    297.24839   -874.94145    -6894.323 
 9778000    252.44546    -9113.067   -8150.6298    -9113.067            0    6512.6333    24.926262    24.998952    23.132171     14414.36    6152.6106    6803.7647    6581.5245    32.481018   -106.40872   -103.09309   -6781.5528 
 9779000     249.7841   -9113.4958   -8161.2049   -9113.4958            0     6574.518    25.045766    25.105454    22.948493    14429.676    6205.3773    6023.9093    7494.2673   -113.70161    1321.9532   -422.06026     -6777.65 
 9780000    258.34451    -9083.642    -8098.715    -9083.642            0    7194.6724    25.060356    25.004253    23.031987      14432.2    6727.6865    7252.4411    7603.8896   -579.01763   -762.24351    335.99478   -6584.3887 
 9781000    265.23188   -9107.6851   -8096.5003   -9107.6851            0    5996.4853    24.979104    24.991829    23.201421    14484.032    5883.6787    6929.3564    5176.4207   -331.61779   -277.60513   -1173.0506   -6829.8342 
 9782000    259.93031   -9092.9123   -8101.9394   -9092.9123            0    5925.5652    25.075939    25.195295     22.96644    14510.097    6018.9337    4682.6218      7075.14    642.87591   -424.10074    642.16538   -6848.0016 
 9783000    262.40716   -9121.1872   -8120.7715   -9121.1872            0    7267.6791    24.932314    25.074786    23.055143     14413.44    8380.4253     6343.485    7079.1269   -831.15766   -1648.2152   -1504.3246   -6593.0673 
 9784000    255.16509   -9149.0043   -8176.1986   -9149.0043            0    6620.8075     24.92706    25.095286     23.02371    14402.521    6827.3189    6347.2414    6687.8621    170.43097   -83.667565   -204.86864   -6785.5245 
 9785000    260.06553   -9185.3835   -8193.8951   -9185.3835            0    7462.0242    24.897886    25.067597    22.976339    14340.227    8014.0571    6897.8431    7474.1724    44.068421    957.96075    556.80907    -6633.306 
 9786000    255.36278   -9123.2368   -8149.6774   -9123.2368            0    6865.8062    24.926098    25.010272     23.12568    14416.746    7529.7059    6685.2533    6382.4595    238.76391    585.23329    436.97389    -6706.118 
 9787000    255.47905   -9122.3222   -8148.3195   -9122.3222            0    7302.4849    24.955351    25.100677    22.993923    14403.306    7858.5372    7075.5188    6973.3985   -1133.2108    665.34902   -520.11995   -6614.3782 
 9788000    258.07316   -9102.4711   -8118.5785   -9102.4711            0    7238.8895    24.989506    25.137258    22.923424    14399.753    7664.3892    5912.7677    8139.5115    95.052316    -17.06532   -970.22218    -6598.371 
 9789000    253.82537   -9132.5382   -8164.8402   -9132.5382            0    6990.9739    25.007967    24.942405    23.121585    14422.293    6189.6346    8024.0202    6759.2667   -53.576021   -1073.3056    365.45994   -6694.3982 
 9790000    263.50886   -9158.5196   -8153.9037   -9158.5196            0    7689.4841    24.841855     24.97082    23.108303    14334.577    8455.6149    7660.4096    6952.4277   -553.32411    421.71266   -422.43777   -6546.3779 
 9791000    248.84937   -9129.9958   -8181.2685   -9129.9958            0    7819.2778    24.945518     25.01793    23.019823    14366.332    8387.8021    7531.7366    7538.2946   -1547.4559   -346.62103    593.07047   -6542.9874 
 9792000    245.82728   -9092.3681   -8155.1624   -9092.3681            0    6072.1347     25.17299     24.96685    23.041649    14481.452    5783.1334    6318.0519    6115.2188   -80.687479   -807.97938    21.531975    -6872.745 
 9793000      262.596   -9119.2987    -8118.163   -9119.2987            0    7508.4579    24.959046    24.919392    23.165987    14408.416    7454.1087    9008.5848    6062.6802    657.80432    952.13157   -152.61907    -6540.396 
 9794000    261.25691    -9131.904   -8135.8736    -9131.904            0     7177.147     24.93827    24.917445    23.129898    14372.872     7994.825    7516.9442    6019.6717    -475.1301   -208.53811    1192.7443    -6631.446 
 9795000    250.47851   -9153.1859   -8198.2476   -9153.1859            0    7186.2327    25.097759    25.038419    22.904785    14393.555    7158.2024    6916.7552    7483.7405   -182.37239    922.67531    1836.5724   -6689.7478 
 9796000    262.04867   -9086.9787   -8087.9297   -9086.9787            0    7073.0081    25.063987    25.005796    23.058669    14451.904    6000.3167    7601.8313    7616.8764   -1017.4099   -1637.6231    590.70455   -6597.1787 
 9797000    255.91212   -9125.1339   -8149.4802   -9125.1339            0    8498.2224    24.930598    24.860816    23.120622    14330.046    8428.8943      8961.09    8104.6831    464.88145    -519.2844   -858.99521   -6373.4449 
 9798000    256.89407   -9131.5474     -8152.15   -9131.5474            0    6626.9318    25.152128    24.959623    22.966789    14418.267    5605.0953    7066.5436    7209.1564   -473.29603    704.09857    108.61267   -6758.6677 
 9799000    257.63985   -9095.4543   -8113.2137   -9095.4543            0    7024.7802    25.095551    24.940862    23.030955    14415.182    5947.3727    7115.2785    8011.6893   -228.57975    252.13518   -747.38555   -6636.3896 
 9800000    261.33267   -9096.9971   -8100.6778   -9096.9971            0     7881.463     24.95919    24.817206     23.23542    14392.422    7085.6535    10032.619    6526.1164   -159.64007   -23.224968    678.55944   -6446.3688 
 9801000    262.41737    -9114.143   -8113.6883    -9114.143            0    6782.7258    25.041272    24.994107    23.042331    14421.831    6701.5223    7731.3814    5915.2736    -962.0246   -572.63595    218.35093   -6687.0937 
 9802000    256.07218   -9116.2571   -8139.9932   -9116.2571            0    6872.6494    25.172541    24.912551    22.976181    14408.644     6101.719    8001.4469    6514.7822   -637.58606   -729.80968     -181.314    -6695.807 
 9803000     255.2272   -9118.2317   -8145.1892   -9118.2317            0    7521.4467    25.056256    24.915961    23.023717    14373.723    8083.0938    7452.2687    7028.9777     65.02147    500.82034    -980.6281   -6568.4984 
 9804000    254.00774   -9090.7093    -8122.316   -9090.7093            0    7209.6835    25.095429    24.837706    23.181323    14449.217    6040.4122    8551.8822    7036.7562    1294.9297   -76.191404   -784.40055   -6603.0409 
 9805000    263.08291    -9105.366    -8102.374    -9105.366            0    8546.5103    25.023336    24.975128    22.938058    14335.392    7846.2472     8882.961    8910.3227    502.24472   -38.248374    1166.3141   -6315.5809 
 9806000    255.02005   -9068.3496   -8096.0968   -9068.3496            0    8078.2622    25.084276    24.918614    23.013843    14385.156    6197.7655    9275.3741    8761.6469   -146.73367    240.37238     633.0278    -6401.336 
 9807000    258.15647   -9116.7397   -8132.5295   -9116.7397            0    7485.0875    24.980423    24.813225    23.197965    14379.139    6804.0051    9298.6526    6352.6048    187.54573    447.88139   -728.58402   -6562.8693 
 9808000     256.3591   -9128.3302   -8150.9724   -9128.3302            0    8605.6742    25.039286    24.954864    22.963151     14348.57    6698.5277    8467.7449     10650.75    90.044766    157.15152    1249.4754   -6350.1561 
 9809000    258.45819   -9115.9298   -8130.5693   -9115.9298            0    8937.4245    25.021552    24.904304    22.939671    14294.726    8144.2625     9129.002    9539.0089    -124.2279    32.885458    484.48826   -6267.3494 
 9810000    255.53105   -9163.2964   -8189.0955   -9163.2964            0    8381.0362     25.01989    24.982245    22.927199    14330.715    7287.6186    8628.7873    9226.7026   -347.07646   -245.24386    111.29747   -6437.4692 
 9811000    262.80825   -9160.8303   -8158.8854   -9160.8303            0    7450.7219    24.916549     24.98244    23.075533     14363.97    8159.5425    6785.0934    7407.5299    451.43543    161.17959   -605.90371     -6598.08 
 9812000    254.04339   -9101.6417   -8133.1125   -9101.6417            0    8353.3954     24.98535    24.935582    23.054225    14363.342    7193.8397    8549.9084    9316.4382   -308.94714   -30.967778   -236.40316   -6383.2882 
 9813000    264.20728   -9080.7304   -8073.4518   -9080.7304            0    8844.0709    25.082859    24.972528     22.93587    14366.625    8186.2413    8506.8134    9839.1581   -602.81803   -546.77215    448.14982     -6220.42 
 9814000    268.43367   -9145.9854   -8122.5938   -9145.9854            0    8401.5466    24.987412    24.887757    23.042171     14329.48    8475.1167    8708.9792     8020.544   -1307.0219   -1733.6533    260.90223   -6366.8322 
 9815000    244.14161   -9116.3059   -8185.5267   -9116.3059            0     7526.765    24.954554    24.956464    23.145089    14414.239    7464.8419    8253.5075    6861.9456    443.36011   -409.17916     487.0173   -6603.2736 
 9816000    265.80623   -9078.5648   -8065.1902   -9078.5648            0    7941.8514    24.998366    25.095886    22.949724     14397.65    8335.2451    6675.6003    8814.7089    507.04573    1028.0258    371.48396   -6397.6003 
 9817000    258.09312   -9160.2355   -8176.2669   -9160.2355            0    7681.9798     25.01737    25.032806    22.910082    14347.552    6852.3402    7750.6053    8442.9939   -636.12822    428.73328   -41.273711   -6568.8561 
 9818000    260.48466   -9165.8934   -8172.8071   -9165.8934            0      7922.54    24.954724    24.904006    23.102852     14357.79    7094.6396    8894.2029    7778.7774    17.987765   -562.20238    874.85326   -6513.8776 
 9819000    261.68404   -9175.8903   -8178.2314   -9175.8903            0    7956.5829    24.938272    24.856482    23.117109    14329.781     8299.359    8477.7196    7092.6702   -415.25044    189.11341    103.96185   -6515.4237 
 9820000    253.36255   -9127.5111   -8161.5775   -9127.5111            0    7805.7486    25.055092    24.989512    22.949767    14369.183    6963.5128    8661.4996    7792.2335    245.19611   -662.70881    603.54777   -6525.8065 
 9821000    252.02443   -9085.5245   -8124.6924   -9085.5245            0    7559.3511    24.994343    24.912344    23.130869    14402.844    8372.8444    7898.0839    6407.1249    481.07049    520.84062    -806.5936   -6536.8453 
 9822000     268.3237    -9119.411   -8096.4386    -9119.411            0    7812.6362    24.931723    24.924434    23.132873    14374.977    8142.0742    8734.1204    6561.7141   -8.8134441    877.91236    642.31319    -6458.564 
 9823000    249.09374   -9151.2598   -8201.6008   -9151.2598            0    9541.5507    24.996339    24.964536     22.88265    14279.277    8398.9575    10031.311    10194.383   -448.26041    702.38265    328.59081   -6214.5861 
 9824000    267.68153    -9135.514   -8114.9899    -9135.514            0     8572.167    24.956677    25.009572    22.948444    14323.404    7918.8093    8936.0453    8861.6463    30.874528   -229.13483    129.93818   -6324.3314 
 9825000    265.34636   -9103.0622   -8091.4408   -9103.0622            0    7879.2082    24.875965    24.966577    23.118373    14358.074    8816.2721    7223.7807    7597.5719    185.32027    338.52963    855.86122    -6441.552 
 9826000     266.3535   -9147.4447   -8131.9837   -9147.4447            0    8260.1641    24.909267     24.99014    23.047598    14346.809    8257.6316     8427.631    8095.2296    230.17194    56.222262   -935.81649   -6403.6807 
 9827000    257.01968   -9152.8098   -8172.9335   -9152.8098            0    9207.3798    25.034269    24.985638    22.870398     14305.37    8006.4584     9152.425    10463.256   -564.71602   -312.45802    270.27946   -6252.0058 
 9828000    265.33207   -9103.4735   -8091.9066   -9103.4735            0       7267.3    25.003356    25.038934    23.003584    14401.564    6763.1808    6772.6016    8266.1177    890.36821    -194.6024    486.11954   -6565.5408 
 9829000    260.75887   -9148.6473   -8154.5156   -9148.6473            0    7553.2411     24.84169     25.03493    23.095808    14363.514    8856.1714    6535.9506    7267.6014   -172.72498     178.8499   -101.12896   -6572.2844 
 9830000     249.0245   -9091.8216   -8142.4266   -9091.8216            0    7485.5534    25.001304     24.97267    23.066725    14401.694    7374.3462    7138.8911    7943.4228    127.43377    483.55088    1150.2508   -6570.2064 
 9831000    260.50542   -9097.0972   -8103.9317   -9097.0972            0    7273.8229    24.956027    25.073403    23.049481     14422.81    8150.9279    6930.3088    6740.2319   -312.90288   -26.386035   -515.49137   -6573.9421 
 9832000    260.74639   -9145.3593   -8151.2751   -9145.3593            0     6609.589    24.914764    25.050482    23.118249     14428.72    6285.1278    6478.3915    7065.2476    679.41671   -1027.4839   -131.85198    -6760.432 
 9833000    254.67425   -9166.1798   -8195.2454   -9166.1798            0    6674.7046    24.960093    25.032713    23.050063    14402.113    7369.9105    5619.3537    7034.8497   -616.21955   -1006.2075    -266.1253   -6793.2901 
 9834000    262.34988   -9082.8329   -8082.6355   -9082.8329            0    7358.8802    25.017821    25.152411    22.887766    14402.321    8880.2539    5492.0778    7704.3089   -771.49521    18.505913    229.22134   -6536.9536 
 9835000    257.99105   -9136.8047   -8153.2251   -9136.8047            0    7308.1685    25.002795    25.019042     22.97583    14372.438    7373.6259    7386.1116    7164.7679   -284.48131   -855.95821    64.631125   -6621.3799 
 9836000    254.76871   -9097.2937   -8125.9992   -9097.2937            0    7564.1156    24.802023    24.948605    23.311627    14424.672    7879.0402     8702.918    6110.3884    26.502185    452.81573    692.24728   -6534.7434 
 9837000    252.05914   -9099.0082   -8138.0438   -9099.0082            0    8193.6523     24.91146    25.016715    23.034973    14355.462    8957.5796    7462.4594    8160.9178   -808.38008   -834.14128   -389.60541   -6422.6233 
 9838000    258.86051   -9079.4188   -8092.5245   -9079.4188            0    8527.7905    25.053053     25.03498    22.903624    14365.214    8667.7244    7839.9288    9075.7183   -375.42596   -400.30011   -374.32337   -6305.9361 
 9839000      253.822   -9157.8585   -8190.1733   -9157.8585            0     9386.606    24.970031     25.03096     22.82462    14265.932    9561.2735     8318.939    10279.606    25.658862   -527.56136    600.93821   -6237.2525 
 9840000    260.57369   -9121.0443   -8127.6186   -9121.0443            0    7558.3491    24.990988    24.910426    23.066578    14359.779    7400.1127    7346.1956    7928.7388   -548.04025   -922.96881    530.31181   -6544.7292 
 9841000    252.91153    -9135.567   -8171.3529    -9135.567            0    8981.5053    24.947737    24.781209    23.125242    14296.836    8002.2707    10852.676    8089.5695   -108.32991    584.18428    -900.6076   -6298.6669 
 9842000    258.13105   -9107.8747   -8123.7614   -9107.8747            0    8243.0058    25.021435    24.989136    22.911928    14326.004    8428.7461    8110.1552    8190.1161   -326.80844   -1171.3876    322.71399   -6401.5495 
 9843000    264.23501    -9125.829   -8118.4446    -9125.829            0    7917.8285    25.029346    24.994287    22.963338     14365.65    7232.3141    8309.3246    8211.8467    335.63309   -323.14554    404.43387    -6459.594 
 9844000    252.54359   -9112.1105   -8149.2991   -9112.1105            0    6997.9581     24.98693    24.927623    23.184423     14440.76    7248.0067    7332.2891    6413.5785    569.62997    531.35187    121.15423   -6675.5035 
 9845000    247.71021   -9154.0638   -8209.6795   -9154.0638            0    6946.2295    25.022539    24.983177    23.024313    14393.477    6760.9718    6640.3172    7437.3996   -144.30921    1221.2398   -1001.1111    -6751.568 
 9846000    260.33879   -9125.2867   -8132.7565   -9125.2867            0    6685.0237    24.976372    25.026436    23.077903    14425.295    7121.1668    5630.4672     7303.437    -382.3487   -555.09836   -288.61977   -6726.3737 
 9847000    260.35879   -9114.6451   -8122.0386   -9114.6451            0    7189.4486    24.994308    25.001413    23.044265      14400.2    6557.7882    8584.5721    6425.9853    927.68165   -356.21255    143.09171   -6612.1671 
 9848000    249.89734   -9156.1356    -8203.413   -9156.1356            0    5130.2812    25.025946    24.959436    23.219185     14503.48    5224.5287    5520.8674    4645.4474    369.71329    471.95623    480.56132   -7118.2642 
 9849000    255.38326   -9092.0611   -8118.4236   -9092.0611            0    6443.5571    25.068278    25.019918    23.013865     14434.44    6698.2814    6214.7856    6417.6043   -459.79391    297.00591    778.29646   -6761.9807 
 9850000    258.09428   -9154.3694   -8170.3963   -9154.3694            0    7453.1006    25.014274    24.949947    23.015321    14363.972    6248.5804    8809.6078    7301.1135    602.28211   -196.22988    455.14371   -6609.0924 
 9851000    259.30868   -9134.7482   -8146.1452   -9134.7482            0    8998.0254    24.977536    24.827159    23.101645    14325.821    9243.0426    9544.0526    8206.9811   -152.06596    465.91241    641.98054   -6266.2111 
 9852000    264.75973   -9112.2325   -8102.8477   -9112.2325            0    7738.5002    25.128393     24.85483     23.04796    14394.879     6267.219    9756.6503    7191.6313    278.97899    736.36706    756.31823   -6478.2692 
 9853000    254.49971   -9093.4842   -8123.2152   -9093.4842            0    7511.7566       25.061    24.946428    23.015097    14388.634    7259.0759    7659.8722    7616.3217   -105.97063    1046.5558    220.08799   -6546.9221 
 9854000    250.70155   -9104.4526    -8148.664   -9104.4526            0    6852.7927    25.214252    24.965563    22.869966    14396.369    5476.1725    8770.4153    6311.7902    84.665261   -357.84017   -580.22457   -6709.8771 
 9855000    256.52341   -9101.3582    -8123.374   -9101.3582            0    7036.6869    25.030667    24.977123    23.086802    14433.731    7885.0703    7196.7595    6028.2308   -583.95735   -125.10525    113.18175   -6642.1432 
 9856000    257.92088   -9148.5196   -8165.2076   -9148.5196            0    7416.1314    24.947351     24.83528    23.198596    14373.257    7837.8705    8201.4713    6209.0523   -225.05276   -1239.4071   -277.23881   -6610.6439 
 9857000    264.34165   -9147.4263   -8139.6354   -9147.4263            0    7143.0694    25.022427    24.948418    23.046062    14386.965     7096.186     6581.201    7751.8212    39.476337   -985.75041   -545.08544   -6640.8829 
 9858000    260.17386   -9129.5467   -8137.6453   -9129.5467            0    8235.1951     25.03024    25.019323    22.881408    14329.245    7531.9813    8252.7372    8920.8669    801.02127     -526.398    324.99587   -6416.6762 
 9859000    257.07732   -9129.2916   -8149.1957   -9129.2916            0    6818.2621    25.094872     24.81626    23.133158    14406.426    5569.9621    8912.0034    5972.8206   -221.58104    36.140833   -841.11991   -6716.6588 
 9860000    262.42682   -9160.5089   -8160.0182   -9160.5089            0    7005.2669    25.132067    24.903118    22.987883    14387.354    6540.6274    7771.4051    6703.7682   -409.52468   -1108.2704    -95.60424   -6690.1395 
 9861000     263.2017   -9145.1513   -8141.7064   -9145.1513            0    7409.6498    25.071307    24.858187    23.051907    14366.576    7374.2734    8570.7613    6283.9146    948.76058    662.15934    587.82263   -6589.2234 
 9862000    250.62417   -9082.0489   -8126.5553   -9082.0489            0    7762.2687    24.994973    24.969485    23.100995    14417.599    8192.2161     7161.245    7933.3451   -1046.0626    257.75046   -6.4747185   -6494.4149 
 9863000    253.39908   -9119.1062   -8153.0333   -9119.1062            0    6299.6335    25.135377    25.078943    22.951642    14467.996    4898.9505    6711.3166    7288.6334   -540.15173   -128.93753    963.64566   -6823.8051 
 9864000    264.56338   -9081.5352    -8072.899   -9081.5352            0     7060.944    25.104699    25.026965     22.94875    14418.571    6339.7224    6859.6772    7983.4324     1161.762    1028.6546    208.07445   -6588.1231 
 9865000    264.87988   -9090.4722   -8080.6293   -9090.4722            0    7998.5513    24.974039    24.832109    23.168838    14368.341    8031.7403    8596.1136    7367.8001    686.88224    453.59453   -286.77222   -6404.5527 
 9866000    261.33774   -9149.7002   -8153.3616   -9149.7002            0    8819.6511    24.963417    24.933832    22.938751     14277.85    8801.8533    8999.7458    8657.3541    129.91307   -539.36689    492.19254    -6316.865 
 9867000    252.66711   -9157.4858   -8194.2036   -9157.4858            0     7676.411    24.956338    25.028065    22.979496    14353.197    8012.1207     7343.121    7673.9912   -94.729793    491.36127    1267.7942   -6587.3262 
 9868000    238.54386   -9107.2828   -8197.8448   -9107.2828            0    7177.1345    24.861259    24.927965    23.202714    14379.664    7118.4877    7312.1431    7100.7726   -203.43943     199.1382     537.1357   -6692.7089 
 9869000    253.64003   -9100.8047   -8133.8132   -9100.8047            0    7842.2976    25.045321    25.106472    22.857582     14372.84    6847.0405    7589.8956    9089.9569   -799.85664   -23.949352    837.11453   -6489.9647 
 9870000    251.47366    -9111.531   -8152.7987    -9111.531            0    7687.0112    24.949749    24.965797    23.064431    14366.612    7139.0957    7844.9726    8076.9653    147.79301    900.39203    183.94165   -6542.1984 
 9871000    254.55173   -9125.2944   -8154.8271   -9125.2944            0    8241.6505    24.996843    24.851708    23.118666    14361.645    7276.4029    9143.1392    8305.4093    57.591317   -1382.5192    933.50589   -6428.6146 
 9872000     259.0338   -9092.7878   -8105.2328   -9092.7878            0    7459.8483      25.2004    24.954481    22.887161    14392.886     5573.083    8506.4591    8300.0026    212.55779    643.47251    61.525559   -6539.3697 
 9873000    248.85082   -9121.7007   -8172.9679   -9121.7007            0    7158.9399    25.014442    24.927605    23.086676      14395.7    7107.5443    6775.9767    7593.2988   -281.16586    -605.1454    -371.3507   -6669.9734 
 9874000    269.40927   -9117.1248   -8090.0138   -9117.1248            0    8362.3719    24.948355    24.863715    23.121569    14342.513    8624.7979    9284.0893    7178.2286   -480.43338   -752.47371    306.41025   -6340.8495 
 9875000    265.07386   -9091.5242   -8080.9418   -9091.5242            0    8454.0566    25.122999    24.940554    22.890819    14342.964    6397.3708    9689.2226    9275.5764    332.76495    -705.0376    1503.1352   -6312.5441 
 9876000    253.69349   -9096.0352   -8128.8399   -9096.0352            0    8450.3871    25.057624    24.883238    23.000853    14341.372    7526.8512    10652.929    7171.3807    406.27235   -396.59839   -54.291003    -6361.406 
 9877000    262.03591   -9121.5862   -8122.5858   -9121.5862            0    7813.1229    24.990761    24.931934     23.01749    14341.462    6648.8145    8255.0776    8535.4766   -728.20777   -215.56031   -769.65756   -6488.4282 
 9878000    251.48809   -9113.8412   -8155.0539   -9113.8412            0    8087.1272    25.014049    24.919862    23.051792    14369.257    8162.2567    7859.6458    8239.4791    88.002999   -745.40027    795.18041   -6460.3084 
 9879000    252.79323   -9078.5883   -8114.8252   -9078.5883            0    8316.4007    25.116178    24.820206    23.042316     14364.32    7581.1112    9207.9195    8160.1714   -1087.7343    -510.0817   -1053.8243   -6372.6318 
 9880000    254.27646   -9148.2998   -8178.8819   -9148.2998            0    7843.9363    25.090227    24.911823     22.94498    14341.606    6887.4402    8379.1494    8265.2194    393.50643   -104.49323    210.57818    -6538.263 
 9881000     254.9279   -9138.5352   -8166.6338   -9138.5352            0    8764.7935    25.034326     24.89393    22.958573    14307.847    8640.5138    8995.8406     8658.026   -381.98608    303.86023     740.3501   -6337.7258 
 9882000     264.0818   -9152.8745   -8146.0743   -9152.8745            0    6637.4484    24.998916    24.912009    23.162001    14424.674    6234.0938    8609.3837    5068.8677   -363.68612   -663.53657    735.44433   -6749.7604 
 9883000     255.4316   -9116.2195   -8142.3978   -9116.2195            0    6474.1359     25.07753    25.030424     22.97429     14420.99    6630.3146    6380.9257    6411.1672   -1018.2133    401.54522     604.8475   -6780.7876 
 9884000    251.72545   -9146.7031   -8187.0109   -9146.7031            0    7348.7647    24.973029    25.042751    22.988732        14377    7047.3843    7154.8643    7844.0456    -47.06047    101.76826   -411.03782   -6646.1675 
 9885000    254.47618   -9165.2969   -8195.1176   -9165.2969            0    9062.5521    24.948194    24.846097    23.042845     14283.46     9103.315     8543.221    9541.1204    190.52718    292.24501     691.3732    -6307.301 
 9886000    252.29666   -9104.6092   -8142.7393   -9104.6092            0    7625.9537    25.063221    24.963183     23.00141     14391.01    7699.9314    8347.5646    6830.3651    726.54725   -668.60572   -581.16325   -6542.2184 
 9887000    257.09119   -9142.9832   -8162.8344   -9142.9832            0    7130.3517    25.040227     25.01829    22.958856    14382.889    6590.7707    6297.0143    8503.2703    432.69365    336.63582   -660.09858    -6667.174 
 9888000    259.55578   -9124.7956   -8135.2506   -9124.7956            0    8364.9662    25.104529    25.072437    22.782922    14340.294    7217.0259    7427.4392    10450.433    -1242.589   -265.40429   -1100.5019   -6385.8143 
 9889000    252.17729   -9142.2227   -8180.8078   -9142.2227            0    8650.7216    24.973866    24.934902    23.062669    14361.606     8215.935    9489.4684    8246.7615    1255.2546    302.89238    1811.8521   -6368.9203 
 9890000    252.74436    -9096.358   -8132.7812    -9096.358            0    7351.2556    24.989992    25.019587    23.030525    14399.589    7702.0552     7138.435    7213.2768    61.754341   -312.56452   -1313.0145   -6588.9937 
 9891000    253.67992   -9145.4323   -8178.2888   -9145.4323            0    7729.1947    25.029305     25.09847    22.929025     14403.95    7735.1162    7159.3413    8293.1268    544.11161    728.71443   -371.75451   -6554.6413 
 9892000    261.55563   -9174.1766   -8177.0073   -9174.1766            0    7570.7944    24.954449    24.929942    23.059805    14345.804    8055.0341    6928.3067    7729.0423    310.95114   -1605.4385    4.4899903   -6593.0545 
 9893000     264.7584   -9143.9013   -8134.5216   -9143.9013            0    7209.9559     24.82413     25.00245     23.17439    14383.511    7333.0661    8032.0401    6264.7616   -29.466429   -293.53335    977.60052   -6622.0981 
 9894000     257.7798   -9130.1476   -8147.3735   -9130.1476            0    7917.5156    25.029671    25.062298    22.918102     14376.55     6941.237    8107.8557    8703.4542    126.29706   -348.61797   -345.38194   -6487.3299 
 9895000    268.58282    -9099.295   -8075.3349    -9099.295            0    8052.5075    24.901712    24.985779    23.095571    14369.802    8014.1403    8245.9038    7897.4785   -345.12105    49.309587    1079.9553   -6387.7803 
 9896000    249.55553   -9096.1258   -8144.7063   -9096.1258            0    7502.8495    24.940026    24.897476    23.183477    14395.634    8257.6258     8006.905    6244.0178   -539.55467   -259.99281   -58.092224   -6569.5165 
 9897000    251.46262    -9105.928   -8147.2378    -9105.928            0    8646.7984    24.983537    24.943447    22.988652    14325.965    8488.0284     9720.387    7731.9798     19.27897    -1149.787    60.308086   -6340.6665 
 9898000     254.1855   -9141.1847   -8172.1136   -9141.1847            0    8701.2785    25.082191    25.017932    22.785441    14297.968    6582.4557    9134.7768    10386.603   -1270.6805    -184.4257   -95.265305   -6357.7126 
 9899000    263.36743   -9137.7499   -8133.6731   -9137.7499            0    7584.3441    24.956949    25.016172    23.022449    14373.544    7502.5577    7013.9549    8236.5198    191.38709   -1214.7122    1092.3952   -6543.8171 
 9900000     251.9332   -9117.3601   -8156.8758   -9117.3601            0    8769.6702     24.86654    25.012431    23.046855    14334.513    9666.9044     7648.942     8993.164   -238.91069   -494.71755    1563.4622   -6323.5397 
 9901000    256.37874   -9100.5899   -8123.1572   -9100.5899            0     8619.316    24.965373    25.027783    22.959986    14346.041    8790.7747    7645.0946    9422.0787   -472.68062   -963.35298   -545.08492   -6319.8041 
 9902000    257.67158   -9143.7565   -8161.3949   -9143.7565            0    7530.5272    25.151289    25.007896    22.860474    14378.799     5846.712    7511.5679    9233.3015   -564.35596   -963.70416   -242.24244   -6582.2431 
 9903000    261.99395   -9126.1369   -8127.2965   -9126.1369            0    6726.7628    25.068311    25.014579    23.034724    14444.459    5789.5652    7195.2806    7195.4426   -194.65627     654.9998    738.08851   -6710.2526 
 9904000    260.60689   -9176.2272   -8182.6749   -9176.2272            0    6172.6962    24.906175    24.961767    23.223132    14437.871    6210.7603    7002.4943    5304.8342    140.40944     729.1692     48.23904   -6882.9425 
 9905000    256.35001   -9124.3174   -8146.9943   -9124.3174            0    7332.6931    25.051204    24.913422    23.048284    14384.692    7544.2694    7883.2273    6570.5828   -97.455382      969.412    157.15466   -6608.6981 
 9906000    248.39102   -9183.9629   -8236.9831   -9183.9629            0    7856.2297    25.068974    24.981909    22.888721    14334.539    6111.9166    7940.9478    9515.8246   -364.45799    -1087.011   -197.25545   -6594.6026 
 9907000    260.70787    -9149.905   -8155.9677    -9149.905            0     7611.182    25.080544    25.018986     22.93099    14388.962    7323.7927     6980.309    8529.4443    334.52036    -536.3353    -414.2282   -6558.7745 
 9908000    256.62023   -9123.2817   -8144.9284   -9123.2817            0    7145.3747    25.030507    24.959878    23.019488    14381.618    7555.3902    7669.3787    6211.3551    403.12632   -98.118509      201.123   -6646.2493 
 9909000    264.46919   -9128.3078   -8120.0306   -9128.3078            0    5735.1761    24.977069    25.067163    23.138773    14487.284    6739.1104    5347.0656    5119.3523    16.298839    470.27194    627.08718   -6908.2901 
 9910000    253.81274   -9115.3283   -8147.6784   -9115.3283            0    7702.2917    24.958693    24.985832    23.075535     14390.22    7457.4473    8142.7352    7506.6927   -144.58482    -395.9649     328.1609   -6531.2246 
 9911000    255.63327   -9154.2812   -8179.6906   -9154.2812            0    9604.6259    24.980307    24.888102    22.900667    14237.629    9135.0367    10256.185    9422.6563    180.05049   -822.44382    932.65012   -6185.3743 
 9912000    261.07162   -9145.1229   -8149.7988   -9145.1229            0    7649.4967    25.080209    24.958868    22.970809     14379.12    7220.7023    8583.9422    7143.8456     485.0444   -205.08775    538.32994   -6545.6632 
 9913000    257.21895   -9108.6174   -8127.9815   -9108.6174            0    6844.5339    24.980619     24.94897    23.145955    14425.501    5646.2087    8295.2534    6592.1395     461.8916   -67.231947    1091.1768   -6688.0206 
 9914000    253.22503   -9133.0145   -8167.6052   -9133.0145            0     8264.543     25.03503    24.981455    22.932821     14342.45    8043.6821    9085.6813    7664.2655    -801.2765    846.16013   -2.5747885   -6438.9114 
 9915000    249.86519   -9090.8211    -8138.221   -9090.8211            0    8280.6969     25.03682    25.024738    22.927631    14365.075    8224.3165    8375.5788    8242.1953   -721.94609   -621.97831   -504.11366    -6403.416 
 9916000    262.24097   -9107.4838   -8107.7017   -9107.4838            0    7158.6303    24.968925    25.139058    22.974163    14420.773    6762.7769    6148.9651    8564.1488    136.60383     749.9681   -914.08053   -6602.1545 
 9917000    245.91141   -9150.0479   -8212.5215   -9150.0479            0    5862.4543     24.92523    25.013381    23.222213     14478.22    7069.9431    5524.8663    4992.5533    259.55979    335.53084    716.77566   -6974.6643 
 9918000    263.76031   -9101.3952   -8095.8206   -9101.3952            0    6574.7304    25.063422    25.042708    23.010398    14442.613    6474.1947    6195.8783    7054.1183    -179.7968   -290.16364   -792.35753   -6710.9806 
 9919000    258.20416   -9138.8639   -8154.4719   -9138.8639            0    6150.7735    24.980403    24.990185    23.164801    14460.972     6328.948    6314.2184    5809.1541    403.66294   -878.30405    -307.0009   -6857.2833 
 9920000    256.47573   -9125.0218   -8147.2193   -9125.0218            0    8209.1879    25.014608    24.985731    22.884458    14302.975       7713.9    8094.3442    8819.3194    138.92269     1526.524    610.93763   -6434.8302 
 9921000    252.31158   -9111.7777   -8149.8509   -9111.7777            0    8851.1648    25.007453    24.921295    22.977193    14319.803    9044.6529    8423.2389    9085.6026   -721.68142   -1335.7818    945.35386   -6301.3769 
 9922000    253.35843   -9111.4425   -8145.5246   -9111.4425            0    8802.6308    24.859644    24.865466     23.18507    14331.773    10423.396    8757.0291    7227.4668   -357.74607   -973.07469   -1871.9562   -6305.6497 
 9923000    251.03014   -9098.3315   -8141.2902   -9098.3315            0    8756.8219    24.954527    25.008467     22.94409     14318.82    9651.9691    7022.7539    9595.7427   -384.76417     784.4866     -23.7964   -6312.6441 
 9924000    260.81993   -9164.0259   -8169.6614   -9164.0259            0    8120.5847    24.982497    24.978205    22.946535    14319.049    7532.2438    9051.7051    7777.8053    456.13626    69.918727    206.73119   -6473.8508 
 9925000    256.01288   -9134.9899    -8158.952   -9134.9899            0    7665.2499    24.978516    24.894526    23.121911    14377.859    7817.1385    8404.2109    6774.4003   -125.49543   -203.20138   -240.74389   -6551.6539 
 9926000    256.01962   -9148.2478   -8172.1843   -9148.2478            0    7735.8052    24.954514    24.995606     22.98868    14339.263    8452.0267    7110.2277    7645.1611   -115.99079   -1300.2206    135.87207   -6554.4461 
 9927000    251.93174   -9103.0056   -8142.5269   -9103.0056            0    6408.9873    25.080342    25.039791    23.029339    14462.575    5897.9606    6813.0386    6515.9626    780.28042   -127.63497    54.542077   -6790.7317 
 9928000     258.4846   -9134.5749   -8149.1137   -9134.5749            0    6459.8434     24.99119    24.985762    23.104631    14427.085     6203.845    7489.9001    5685.7852   -613.95751    20.486674    621.48451   -6789.9354 
 9929000    250.35624   -9122.3531    -8167.881   -9122.3531            0    5519.8542    25.017872    25.053802    23.118531    14490.529    6020.2522    5277.9441    5261.3662    -382.8928   -162.48183    513.46742    -7001.373 
 9930000    257.48248   -9157.7397    -8176.099   -9157.7397            0     6200.234    25.062773    25.063338    22.995755    14444.939    6413.6233    5456.9483    6730.1303   -819.52933   -547.00283    576.12813   -6869.9291 
 9931000    246.45541   -9086.2117   -8146.6112   -9086.2117            0    8746.3801    24.970547    24.892977    23.060161    14333.995     8079.505    9653.0709    8506.5645   -638.15541   -415.97413    515.23734   -6318.2101 
 9932000    252.97699    -9071.182   -8106.7184    -9071.182            0    8072.1261    25.053414    24.864872    23.106565    14394.233    8216.4796    8623.9751    7375.9237    1296.6853   -86.179605   -268.05393   -6412.1763 
 9933000    260.02835   -9136.2254   -8144.8787   -9136.2254            0    7634.8147    25.135673    24.978101    22.886054    14368.812     6673.733    8177.7608    8052.9505    -258.2372    -595.9256    16.499349   -6544.9699 
 9934000     260.0217   -9116.1772   -8124.8559   -9116.1772            0      8706.94    25.013289    24.783315    23.145002     14347.87    8697.4138    10021.688    7401.7181   -712.66603   -60.806697   -205.76897   -6302.9377 
 9935000    255.23367   -9065.5372     -8092.47   -9065.5372            0    8479.2611     24.95186    24.966762     23.09738    14388.909    8546.6887    7922.9917    8968.1029    268.30787   -94.633191    486.31998   -6313.1185 
 9936000    263.01008   -9110.2625   -8107.5481   -9110.2625            0     6645.739    25.111243    25.064334    22.956089    14448.484    6158.2433    6410.4162    7368.5575   -147.64486     215.4163    275.70911   -6707.1824 
 9937000    247.84715   -9146.2409   -8201.3345   -9146.2409            0    6861.3108    24.961382    25.012031    23.095398    14419.262    7586.4267    6465.5885    6531.9172    -640.3363     183.0245    785.91591   -6758.4684 
 9938000     264.4399   -9120.9464   -8112.7809   -9120.9464            0    7939.0498     24.94282    24.871813    23.122047    14344.298    7380.0467    8579.9041    7857.1985    4.0038031   -1304.3781    781.37206   -6451.9565 
 9939000    250.37412   -9148.6258   -8194.0855   -9148.6258            0    7823.2296    25.014445     25.06597    22.873229    14341.774    7707.7682    6925.5729    8836.3476    -455.5616     22.75715    204.82338   -6557.7784 
 9940000    257.66354   -9080.2342   -8097.9033   -9080.2342            0     7839.789    24.975954    25.004314    23.078919    14412.937    7558.0528    9014.0922     6947.222    32.198624    1234.1543   -676.69462    -6449.996 
 9941000    258.16068   -9124.7552   -8140.5289   -9124.7552            0    7153.3834    24.985128    25.007148    23.083078    14422.464    8052.5981    7142.0332    6265.5188    215.14089    283.81012     731.6522   -6635.9089 
 9942000    266.25531   -9124.4892   -8109.4025   -9124.4892            0    8305.2707    24.941286    25.045438    22.971624    14349.579     7801.958    7929.0268    9184.8273     310.3648   -170.30961    196.85114   -6371.3261 
 9943000    261.38275   -9137.4165   -8140.9063   -9137.4165            0    7737.2112    24.986006    24.993104    22.992908    14358.562    8681.5399    6592.5015    7937.5921   -328.13622    -332.3365    1139.9256   -6520.6964 
 9944000    249.05813   -9102.7902    -8153.267   -9102.7902            0    7139.6854    25.115534    24.941755    23.019053    14419.722    6425.3366    6967.2857    8026.4338   -794.39985    261.17124   -154.24883   -6651.8136 
 9945000    261.86513   -9145.0597   -8146.7104   -9145.0597            0    6965.3604    24.995628    24.919413    23.113678    14396.964    6073.1867    8423.9547    6398.9396   -611.51545   -476.57049   -736.26876   -6684.2288 
 9946000    267.53394   -9132.0476   -8112.0862   -9132.0476            0    8236.1426    25.039293    24.879638    23.046177    14357.043    8418.7923    7711.4858    8578.1496    132.64226   -757.64878    173.18672   -6387.5801 
 9947000    254.42558   -9116.7406   -8146.7542   -9116.7406            0    7300.0031    25.147945    24.903846    22.976666    14389.839    5909.6835    7985.9179     8004.408    182.67106   -618.70162   -586.48904    -6614.768 
 9948000    264.42859   -9119.8113    -8111.689   -9119.8113            0     8090.342    25.045244    24.877389    23.020817    14343.357    6799.3559    9411.2899    8060.3802   -892.88314   -27.479272    605.36592   -6419.3258 
 9949000    265.01388   -9114.5062   -8104.1525   -9114.5062            0    8228.3463    24.961102    24.859293    23.134403    14355.252    9369.1935    7424.9574    7890.8879    678.27385   -399.91602   -386.69295   -6381.4937 
 9950000    256.71609   -9118.6151   -8139.8963   -9118.6151            0    7928.8055    24.932535    25.040207    23.001573    14360.246    9127.5205    6581.0789    8077.8172    -1337.142    84.103403     32.87454   -6479.3708 
 9951000    269.12849   -9114.3208   -8088.2802   -9114.3208            0    9163.9903    24.778023    25.031908    23.020779    14278.435    9540.4196    8632.0594    9319.4919   -243.98288    120.33744    199.39202   -6180.0045 
 9952000    257.13764   -9127.1239    -8146.798   -9127.1239            0    9288.1111    24.860105    24.968505    23.013881    14285.168    10616.515    9008.4025    8239.4158   -758.18793    807.09795     1000.355   -6211.7637 
 9953000    261.40838   -9175.7956   -8179.1877   -9175.7956            0    9048.5304    24.808824    24.987807    22.990193    14252.037    9527.1225    8753.6133    8864.8555   -676.71636    -1125.085    1090.0205   -6298.4385 
 9954000     266.1613   -9127.8692    -8113.141   -9127.8692            0    9509.1289    24.860666    25.101955    22.885739    14281.876    10405.819     8308.408    9813.1597    517.36781    727.64587   -317.31997   -6132.5177 
 9955000    253.01891   -9128.3598   -8163.7363   -9128.3598            0    8069.0359    24.973996    25.055659    22.919772    14341.817    7037.3119     8171.469    8998.3268    286.91127   -213.54819   -430.07242   -6476.0113 
 9956000    244.22656   -9156.2961   -8225.1931   -9156.2961            0    8231.8432    24.809107    24.976703    23.132873    14334.278    9295.9054    7562.2004    7837.4238   -803.00226   -455.12254    645.78633   -6504.3202 
 9957000    254.02312   -9111.0531   -8142.6011   -9111.0531            0    7282.0079    24.877851    25.009921    23.125226    14388.356    8499.6994    6933.0165    6413.3078    420.34158   -556.63411   -425.89058   -6614.5488 
 9958000    260.01714   -9137.8108   -8146.5069   -9137.8108            0    7156.1639    25.019253    25.106624    22.915515    14394.357    7135.9316    6500.9646    7831.5954   -731.13682     319.9217    806.01832   -6644.2354 
 9959000    253.16775   -9078.4789    -8113.288   -9078.4789            0     5903.296     25.04909    25.102576     23.01299    14470.492    5780.7125    5744.3494     6184.826    578.21198    416.98789    11.677342   -6867.4725 
 9960000    260.24496   -9126.9782   -8134.8057   -9126.9782            0    6848.0699    24.937259     25.00076    23.140918    14427.215    7910.4006    6841.8754    5791.9339   -179.20693   -37.872833   -687.77417   -6693.9298 
 9961000    258.24134   -9102.5103   -8117.9765   -9102.5103            0    6535.1786    24.999772    25.095253    23.062956    14469.136    7031.4732    5842.5376     6731.525    635.06623   -570.52497   -116.88169   -6738.9394 
 9962000    248.10829   -9105.4161   -8159.5141   -9105.4161            0    6713.3386    25.018743    25.029105    23.040204    14427.701    6496.5519    6647.8457     6995.618   -439.70138     580.0206    731.66658    -6746.939 
 9963000    253.80322   -9123.2434   -8155.6297   -9123.2434            0    6351.0717    25.059784    25.003084    23.077326    14459.604    5887.7204    6038.4241    7127.0705    321.42976    82.664343   -469.30881   -6816.3254 
 9964000    253.05631   -9090.1609   -8125.3948   -9090.1609            0    7551.3921    25.118327    25.038308    22.887924    14394.683    7233.0181    7718.1427    7703.0155    272.24344    -502.4391     334.9492   -6540.1184 
 9965000    247.02434   -9098.6874    -8156.918   -9098.6874            0     7285.555    25.148045    24.920107    22.957061    14387.006    6505.7865    7942.5411    7408.3373    1024.6374    844.85051    860.62736   -6628.2648 
 9966000    257.82028   -9168.8127   -8185.8842   -9168.8127            0    6352.0495     24.97536    24.901323    23.147376    14395.805    6556.8411     7207.096    5292.2115   -1087.2244    767.94675   -1074.9895   -6852.2838 
 9967000    267.83703   -9137.2646   -8116.1477   -9137.2646            0    8114.4308    25.025206    24.936137    22.967812    14332.649    7324.8208    7500.7608    9517.7107    228.55623    403.10381    660.46291   -6420.0127 
 9968000    254.63243   -9100.9229    -8130.148   -9100.9229            0     7961.528    25.079021    24.973321    22.947264    14372.019    6916.7838    7770.7266    9197.0737   -668.36289    887.69692    625.96545   -6461.4025 
 9969000    249.89805   -9129.5925   -8176.8672   -9129.5925            0    7247.5994    24.991361    24.877811    23.162508    14400.834    7434.2339    7727.5209    6581.0434    982.18404   -523.29614    913.27868   -6654.7162 
 9970000    250.87633   -9113.4424   -8156.9875   -9113.4424            0    6672.6044    25.067049    25.064086     22.92957    14406.251    6326.5031    7477.4339    6213.8763    609.37111   -757.46767    23.448567   -6755.0706 
 9971000    251.82726   -9114.4867   -8154.4064   -9114.4867            0    8685.3873    24.914484    25.092509    22.948866    14346.872     9631.963    7411.1159     9013.083   -460.50417   -371.41616   -272.79702   -6337.1245 
 9972000    255.90778   -9136.7732    -8161.136   -9136.7732            0    8543.8791     24.87593      24.9575    23.022979     14293.61    9514.9334    8636.5736    7480.1304   -890.70389   -717.03693    500.53799   -6380.0992 
 9973000    259.03208    -9136.138   -8148.5896    -9136.138            0    7828.0884    24.998495    25.158283    22.791151    14333.792    7988.8043    6422.1964    9073.2645    529.30803    259.79457   -576.61586   -6512.1773 
 9974000    266.82218   -9088.3468    -8071.099   -9088.3468            0    8714.1437    24.889896     25.01969    23.045434    14351.255    8863.0277    8207.6672    9071.7364   -274.76568   -448.02905    948.01251   -6247.2431 
 9975000     255.6983   -9127.6644   -8152.8258   -9127.6644            0    7641.4867    24.839165    24.950683    23.206108    14382.082    9012.6062     8679.436    5232.4178    261.03709   -1379.8642    43.390675     -6550.04 
 9976000      262.988   -9140.3328   -8137.7026   -9140.3328            0    7567.1305    25.017985    25.005966    22.925571    14342.211    7185.9636    7308.3762    8207.0516   -985.54266   -350.28131   -85.753868   -6554.9128 
 9977000    258.86329   -9110.3535   -8123.4486   -9110.3535            0    6329.7028    25.142743     25.16768    22.890176    14484.549     5903.845    6062.1127    7023.1506    274.92824    -132.1495    975.76606   -6786.3477 
 9978000    253.88288   -9094.3736   -8126.4563   -9094.3736            0    5854.7134    24.999802    25.053225    23.146833    14497.455    6500.9671    5951.4129    5111.7602   -198.42447    695.17523    251.72477   -6888.5912 
 9979000    264.28484   -9164.9852   -8157.4109   -9164.9852            0    7701.4936     24.83152    25.096647    23.063535    14372.916    9233.1257    6458.1763    7413.1788   -428.63899   -781.93839    685.33753   -6543.0682 
 9980000    260.78291   -9113.0844    -8118.861   -9113.0844            0    7603.1003     24.89753    25.156959    22.947284    14372.942    8316.0936    6306.7996    8186.4077    -888.7575    20.811043   -146.01229     -6525.14 
 9981000    266.60849   -9117.0972    -8100.664   -9117.0972            0    6540.9768    24.976492    25.132958    23.023512    14452.621    6029.3434    5694.3151    7899.2719    458.24975   -408.80405   -372.67445   -6721.9788 
 9982000    259.88557   -9120.1672   -8129.3649   -9120.1672            0    6811.5905    24.855354    25.088697    23.128378    14422.589    8122.7557    6173.4546    6138.5613    524.46468   -1666.9568    482.45812   -6696.6241 
 9983000    261.93155   -9110.9409   -8112.3384   -9110.9409            0    7629.4918    24.985552    24.975997    23.074845    14399.605    7644.3953    7109.0416    8135.0386   -478.05671    221.58633   -427.75034   -6510.1187 
 9984000     266.4104   -9142.2386   -8126.5606   -9142.2386            0    6242.8356    25.015559    25.028247    23.077194     14448.53    6965.8157    6006.4831     5756.208    495.03934   -188.28345   -231.16265   -6811.0891 
 9985000    243.38669   -9106.5396   -8178.6385   -9106.5396            0    6280.9929    24.999975    25.005905    23.112698    14448.834    7905.7415    5446.6188    5490.6184   -229.87992    869.45135    919.52142   -6855.0987 
 9986000    255.00588   -9102.0295   -8129.8308   -9102.0295            0    6485.7907    25.075779    25.096511    22.932138    14431.529    6352.2822    6165.7765    6939.3132   -209.50073    472.23186    1324.4946   -6764.7727 
 9987000    257.80519   -9139.1968   -8156.3258   -9139.1968            0     7459.472    24.970033    25.070667    22.974035    14382.099    7360.6425    6972.6625    8045.1109    440.74889   -825.65589   -275.84261   -6591.7153 
 9988000    262.15226   -9086.7893   -8087.3454   -9086.7893            0    6391.0868    24.978306    24.994814     23.17603    14469.447    6840.3493    6077.1565    6255.7547    508.50641    133.51411    222.48335   -6738.6852 
 9989000     262.0994   -9125.7333   -8126.4909   -9125.7333            0    7393.9427     24.99129    24.984829    23.044538    14389.081    7008.0038    7731.1787    7442.6457    999.21567   -194.78291   -241.55301   -6574.8721 
 9990000     266.1629   -9109.4137   -8094.6793   -9109.4137            0    8583.3339    24.953605    25.054695    22.962425    14356.222    8549.5612    7721.9243    9478.5163    -218.1846    178.23093    445.98344   -6297.5801 
 9991000    251.23509   -9075.6201   -8117.7974   -9075.6201            0    8379.0335    24.898728    25.151397    22.957684    14376.969     8555.797    7600.4431    8980.8605    168.80431    133.23925    702.06343   -6360.9374 
 9992000    262.58674   -9097.2829   -8096.1825   -9097.2829            0     8607.929    24.885741    24.975144     23.07021    14338.712    9408.8242    8484.5708    7930.3921    197.30983    308.91285   -1178.1039    -6296.132 
 9993000    258.93138   -9122.0099   -8134.8454   -9122.0099            0    7656.3322    24.924155     24.93377     23.14308     14382.34    7569.7045     8737.951     6661.341   -121.06005   -426.67712    346.74447   -6528.9169 
 9994000    251.91913   -9123.2169   -8162.7863   -9123.2169            0    7541.2172    25.040117    25.071451    22.918308    14387.932    7800.1542    5993.5545    8829.9429   -301.60501    391.52747    454.45176   -6580.3883 
 9995000    262.52403   -9124.3497   -8123.4884   -9124.3497            0    8012.4601    24.965456    24.992918     23.05328    14384.315    9171.7068    7854.6997    7010.9737   -156.43842   -799.91535    454.40555   -6442.6307 
 9996000    254.45924   -9127.7465   -8157.6319   -9127.7465            0    7598.7945    24.886149    24.921119    23.160928    14364.192    8175.5768    8465.4198    6155.3867   -67.247538   -542.69702    255.51899   -6565.7832 
 9997000    263.95891   -9083.5412   -8077.2095   -9083.5412            0    8512.9663    24.986563    25.039135    22.932092    14347.278    8155.1469    8327.6952    9056.0569    591.97939   -226.30239   -85.726279   -6295.9536 
 9998000    249.08756   -9132.9628   -8183.3274   -9132.9628            0    7353.3996    24.848928    24.964087    23.208273    14396.806    8019.4622    7229.5945     6811.142   -311.43136   -302.70776   -960.54685   -6639.3881 
 9999000    246.09477   -9132.4955     -8194.27   -9132.4955            0    8182.9465    24.933423    25.047263    22.977784    14349.948    7988.9849    7041.5194    9518.3353   -798.02489   -237.40449   -1466.7118    -6481.749 
10000000     265.0166   -9113.2002   -8102.8361   -9113.2002            0    7604.6119    24.943578    25.171576    22.914515    14387.317    8806.3493    6673.6777    7333.8088    675.36828   -358.32098   -308.46654    -6507.204 
Loop time of 610.738 on 64 procs for 250000 steps with 1920 atoms

Performance: 70.734 ns/day, 0.339 hours/ns, 409.341 timesteps/s
195.2% CPU use with 32 MPI tasks x 2 OpenMP threads

MPI task timing breakdown:
Section |  min time  |  avg time  |  max time  |%varavg| %total
---------------------------------------------------------------
Pair    | 69.71      | 74.657     | 89.693     |  45.1 | 12.22
Bond    | 0.61612    | 0.89616    | 1.621      |  22.5 |  0.15
Kspace  | 271.58     | 298.91     | 311        |  49.8 | 48.94
Neigh   | 4.5216     | 6.1097     | 7.1722     |  28.1 |  1.00
Comm    | 93.441     | 107.68     | 123.31     |  87.3 | 17.63
Output  | 0.55671    | 0.55701    | 0.55887    |   0.0 |  0.09
Modify  | 97.156     | 104.79     | 111.51     |  36.4 | 17.16
Other   |            | 17.14      |            |       |  2.81

Nlocal:        60.0000 ave          64 max          55 min
Histogram: 1 1 3 4 3 6 5 5 2 2
Nghost:        3334.66 ave        3354 max        3323 min
Histogram: 3 5 8 3 2 5 3 2 0 1
Neighs:        21116.4 ave       22946 max       19336 min
Histogram: 1 2 5 3 4 6 6 2 2 1

Total # of neighbors = 675725
Ave neighs/atom = 351.94010
Ave special neighs/atom = 2.0000000
Neighbor list builds = 10690
Dangerous builds = 0

unfix		3
unfix		2
unfix		1

write_data	data.final.${pid}
write_data	data.final.0
System init for write_data ...
PPPM initialization ...
  extracting TIP4P info from pair style
  using 12-bit tables for long-range coulomb (../kspace.cpp:340)
  G vector (1/distance) = 0.37419041
  grid = 30 30 30
  stencil order = 5
  estimated absolute RMS force accuracy = 0.0033070283
  estimated relative force accuracy = 9.9590175e-06
  using double precision FFTW3
  3d grid and FFT values/proc = 5400 960
Last active /omp style is kspace_style pppm/tip4p/omp
WARNING: Not all mixed pair coeffs generated from mixing. Use write_data with 'pair ij' option to store all pair coeffs. (../write_data.cpp:312)

write_restart   restart.lmp.${pid}
write_restart   restart.lmp.0
System init for write_restart ...
PPPM initialization ...
  extracting TIP4P info from pair style
  using 12-bit tables for long-range coulomb (../kspace.cpp:340)
  G vector (1/distance) = 0.37419041
  grid = 30 30 30
  stencil order = 5
  estimated absolute RMS force accuracy = 0.0033070283
  estimated relative force accuracy = 9.9590175e-06
  using double precision FFTW3
  3d grid and FFT values/proc = 5400 960
Last active /omp style is kspace_style pppm/tip4p/omp
Total wall time: 0:10:10
