LAMMPS (30 Jul 2021)
Processor partition = 0
  using 2 OpenMP thread(s) per MPI task
using multi-threaded neighbor list subroutines
variable        pid world 0 1
variable        phase world IceIh IceIII

shell cd ${phase}
shell cd IceIh
include Restart.lmp
echo both
log log.lammps
#include		in.partitions
include		in.temp
variable        temperature equal 207.72
variable	tempDamp equal 100.0
include		in.pressure
variable        pressure equal 1658.4
variable        pressureDamp equal 1000.0 # This is 1 ps
include		in.seed
variable        seed equal 745823

units		real
atom_style	full
#include		in.box
read_restart	restart.lmp.${pid}
read_restart	restart.lmp.0
Reading restart file ...
  restart file = 30 Jul 2021, LAMMPS = 30 Jul 2021
  restoring atom style full from restart
  orthogonal box = (0.19337882 0.033595915 -0.031806023) to (18.014194 23.595582 22.245002)
  2 by 4 by 4 MPI processor grid
  restoring pair style lj/cut/tip4p/long/omp from restart
  restoring bond style harmonic/omp from restart
  restoring angle style harmonic/omp from restart
  864 atoms
  576 bonds
  288 angles
Finding 1-2 1-3 1-4 neighbors ...
  special bond factors lj:    0        0        0       
  special bond factors coul:  0        0        0       
     2 = max # of 1-2 neighbors
     1 = max # of 1-3 neighbors
     1 = max # of 1-4 neighbors
     2 = max # of special neighbors
  special bonds CPU = 0.002 seconds
  read_restart CPU = 0.008 seconds
include 	in.setup
variable	out_freq equal 1000
variable	out_freq2 equal 10000
variable	out_freq3 equal 1000

timestep	2.0

neigh_modify    delay 7 every 1

include		in.tip4p
# This is TIP4P/Ice

# create groups ###
group ox type 2
288 atoms in group ox
group hy type 1
576 atoms in group hy

# set charges - beside manually ###
set group ox charge -1.1794
Setting atom values ...
  288 settings made for charge
set group hy charge 0.5897
Setting atom values ...
  576 settings made for charge

# ### TIP3P Potential Parameters ###
pair_style lj/cut/tip4p/long/omp 2 1 1 1 0.1577 8.5
pair_coeff 1 1*2 0.000 0.000
pair_coeff 2 2 0.21084 3.1668
bond_style  harmonic
bond_coeff  1 450 0.9572
angle_style harmonic
angle_coeff 1 55 104.52
kspace_style pppm/tip4p/omp 1.0e-5
pair_modify tail yes

thermo          ${out_freq}
thermo          1000
thermo_style    custom step temp pe etotal epair emol press lx ly lz vol pxx pyy pzz pxy pxz pyz enthalpy

restart 	${out_freq3} restart.lmp.${pid} restart2.lmp.${pid}
restart 	1000 restart.lmp.${pid} restart2.lmp.${pid}
restart 	1000 restart.lmp.0 restart2.lmp.${pid}
restart 	1000 restart.lmp.0 restart2.lmp.0


include         in.dump
dump            myDump all atom ${out_freq2} dump.water.${pid}
dump            myDump all atom 10000 dump.water.${pid}
dump            myDump all atom 10000 dump.water.0
dump            myDump2 all dcd ${out_freq2} dump.dcd
dump            myDump2 all dcd 10000 dump.dcd
dump_modify     myDump append yes
dump_modify     myDump2 append yes


variable natoms 	equal  "count(all)"                        # NUMBER ATOMS
variable H      	equal  "enthalpy/v_natoms"                 # ENTHALPY-per-atom
variable Vol      	equal  "vol/v_natoms"                 # volume-per-atom
fix AVG all 		ave/time ${out_freq} 1 ${out_freq} v_Vol v_H file vol_enthalpy.dat
fix AVG all 		ave/time 1000 1 ${out_freq} v_Vol v_H file vol_enthalpy.dat
fix AVG all 		ave/time 1000 1 1000 v_Vol v_H file vol_enthalpy.dat


timer           timeout 23:50:00 every 1000
New timer settings: style=normal  mode=nosync  timeout=23:50:00

fix 		1 all shake 1e-6 200 0 b 1 a 1
Finding SHAKE clusters ...
       0 = # of size 2 clusters
       0 = # of size 3 clusters
       0 = # of size 4 clusters
     288 = # of frozen angles
  find clusters CPU = 0.000 seconds
fix             2 all nph aniso ${pressure} ${pressure} ${pressureDamp}
fix             2 all nph aniso 1658.4 ${pressure} ${pressureDamp}
fix             2 all nph aniso 1658.4 1658.4 ${pressureDamp}
fix             2 all nph aniso 1658.4 1658.4 1000
fix             3 all temp/csvr ${temperature} ${temperature} ${tempDamp} ${seed}
fix             3 all temp/csvr 207.72 ${temperature} ${tempDamp} ${seed}
fix             3 all temp/csvr 207.72 207.72 ${tempDamp} ${seed}
fix             3 all temp/csvr 207.72 207.72 100 ${seed}
fix             3 all temp/csvr 207.72 207.72 100 745823


run             250000
PPPM initialization ...
  extracting TIP4P info from pair style
  using 12-bit tables for long-range coulomb (../kspace.cpp:340)
  G vector (1/distance) = 0.3711873
  grid = 24 27 25
  stencil order = 5
  estimated absolute RMS force accuracy = 0.00323387
  estimated relative force accuracy = 9.7387034e-06
  using double precision FFTW3
  3d grid and FFT values/proc = 4410 672
Last active /omp style is kspace_style pppm/tip4p/omp
Neighbor list info ...
  update every 1 steps, delay 7 steps, check yes
  max neighbors/atom: 2000, page size: 100000
  master list distance cutoff = 10.8154
  ghost atom cutoff = 10.8154
  binsize = 5.4077, bins = 4 5 5
  1 neighbor lists, perpetual/occasional/extra = 1 0 0
  (1) pair lj/cut/tip4p/long/omp, perpetual
      attributes: half, newton on, omp
      pair build: half/bin/newton/omp
      stencil: half/bin/3d
      bin: standard
Setting up Verlet run ...
  Unit style    : real
  Current step  : 9250000
  Time step     : 2
  Walltime left : 23:49:59.93
Per MPI rank memory allocation (min/avg/max) = 10.19 | 10.21 | 10.23 Mbytes
Step Temp PotEng TotEng E_pair E_mol Press Lx Ly Lz Volume Pxx Pyy Pzz Pxy Pxz Pyz Enthalpy 
 9250000    212.51864    -4322.843   -3958.5933    -4322.843            0    1076.5348    17.820815    23.561986    22.276808    9353.8932    2260.4283    674.24933    294.92661    630.50342    24.560013    484.75445   -3811.7358 
 9251000    215.83928   -4361.3994   -3991.4582   -4361.3994            0     969.3152    18.298022    23.535103    21.714322    9351.1821   -333.81874    654.34624    2587.4181    386.97738   -138.76259    647.96309   -3859.2655 
 9252000    210.29784   -4348.5782   -3988.1349   -4348.5782            0    2047.1844    17.967203    23.361029    22.114799    9282.2967    2722.8573    1995.6143    1423.0818    129.54102    168.39197    471.62799   -3711.0019 
 9253000    202.79986   -4339.1973   -3991.6053   -4339.1973            0    2542.4926    18.065529    23.491031    21.811543    9256.3368    2040.5959    2646.8428    2940.0392    840.91128   -454.56205    -1002.381   -3648.3836 
 9254000    196.37864   -4356.1002   -4019.5139   -4356.1002            0     1517.404    17.730265    23.258107    22.503124     9279.667    2944.8676    1089.0051    518.33918   -440.74915    727.79017   -359.49475   -3814.1569 
 9255000      207.147   -4337.5077   -3982.4649   -4337.5077            0    1275.6456    18.169365    23.423027    21.897507    9319.1745    757.85313    895.88703    2173.1965   -258.37491    95.289783   -295.86398   -3809.0911 
 9256000    209.32883   -4331.5887   -3972.8062   -4331.5887            0    2666.4532    17.927237    23.176027    22.332523    9278.7645    3171.0466    3357.0019    1471.3111   -754.87818    90.288701   -338.03013   -3611.9784 
 9257000    202.73735   -4339.3404   -3991.8555   -4339.3404            0    1249.0605    18.059211     23.53269    21.927774     9318.905    1091.3662     1425.193    1230.6222   -805.83287    329.74171    123.82885   -3822.0998 
 9258000    208.71621   -4339.8133   -3982.0809   -4339.8133            0   -33.241236    18.152805    23.345817    22.228742    9420.3645   -368.50789    517.57354   -248.78936    1240.6363    91.923227    1233.9713   -3986.6478 
 9259000    213.63139   -4335.6464   -3969.4895   -4335.6464            0    800.76651    18.191437    23.486878    21.943461    9375.5644   -10.465222    1348.9793    1063.7854    -24.28147    166.16192   -151.14379   -3859.9983 
 9260000     200.7719   -4331.2112    -3987.095   -4331.2112            0    1208.5458     17.77722    23.598017    22.288227    9350.0703    1543.2227    159.04605    1923.3688   -1142.0289    1046.0023    -23.41425   -3822.2963 
 9261000    202.70714   -4342.1867   -3994.7536   -4342.1867            0    1757.1518    18.132167    23.472934    21.837568    9294.4001    1409.6638    3016.9247     844.8668   -496.76707   -135.08145    761.85425   -3756.5729 
 9262000    221.12902   -4333.5496   -3954.5421   -4333.5496            0    2042.5453    17.935404    23.277621     22.35239    9331.9784    3199.4587    1239.3627    1688.8144    1161.6264   -420.75123    213.86218   -3676.5571 
 9263000    212.71621   -4335.7998   -3971.2115   -4335.7998            0    1738.6773    18.090113    23.516635    21.922324    9326.1636    2179.0092     1436.445    1600.5776    394.19539   -273.61907    662.09886   -3734.7296 
 9264000    201.10645   -4351.8295   -4007.1399   -4351.8295            0     731.6785    18.190494    23.240281    22.147443    9362.8806    95.940526    1794.6691     304.4259     50.11739    480.11863   -374.78266   -3907.2306 
 9265000    206.59558   -4342.6468    -3988.549   -4342.6468            0    453.28137    18.074222    23.483196    22.063746    9364.7471     765.8664    86.437183    507.54053   -344.56265   -933.63413    663.04056    -3926.642 
 9266000    205.15029   -4336.8264   -3985.2058   -4336.8264            0    899.27129    18.024276    23.558124    22.092373    9380.8219    252.01363    1721.0639    724.73635   -715.93833   -556.08009   -182.19836   -3862.1768 
 9267000      203.654   -4334.2323   -3985.1763   -4334.2323            0    1126.6424    18.158237     23.23283    22.124589     9333.639    1074.2205    1935.7734     369.9333   -584.22225     353.4687    263.83724    -3831.816 
 9268000    206.64856   -4371.7529   -4017.5644   -4371.7529            0    1511.2398    18.092953    23.311269    22.055096    9302.1708    1226.7995    1940.9235    1365.9965    14.687002   -82.207147    456.64564   -3812.5456 
 9269000    225.23523   -4374.7577   -3988.7123   -4374.7577            0    2395.9662    17.827449    23.594316    21.946117    9231.1182    2770.1211    1140.6751    3277.1025   -32.678157   -285.74633    221.66064    -3666.152 
 9270000    199.94469   -4350.3312   -4007.6328   -4350.3312            0    1402.9271    18.113422    23.440271    22.025298    9351.5786    189.32419    711.99186    3307.4654   -189.81728   -7.6785837    334.72628   -3816.2971 
 9271000     199.7425   -4352.9513   -4010.5995   -4352.9513            0    1205.7621    18.188401    23.362596    21.969816    9335.5954   -699.09391    971.29579    3345.0844   -177.64883    130.52113    208.55652   -3846.4349 
 9272000    218.57891   -4349.6807   -3975.0439   -4349.6807            0    1319.0397    17.968408    23.420386    22.084167    9293.6149    2593.6133    -225.9285    1589.4344   -168.81247     -402.299    59.909577   -3796.2641 
 9273000     200.4806    -4352.946   -4009.3291    -4352.946            0    1060.5393    17.950306    23.705574    21.916365    9325.9022    683.53668    779.81551    1718.2658    830.65319   -92.103046   -900.52141   -3865.0866 
 9274000    220.30424    -4329.929    -3952.335    -4329.929            0    1740.2953    18.098452    23.288395    22.171054    9344.7422    1269.1831    2686.9114    1264.7914    692.36754   -983.79755   -106.73772   -3715.1615 
 9275000     206.8438   -4336.7622    -3982.239   -4336.7622            0     2377.532    18.035888    23.467723     21.85275    9249.4217    3583.6538    1409.8895    2139.0527    361.95126   -77.831928    370.73742   -3661.5258 
 9276000    211.51186   -4328.2235   -3965.6994   -4328.2235            0    1616.8265    17.892558    23.421849    22.188488    9298.6801    2399.3336    1608.4852    842.66063   -754.88217   -417.95016   -331.99147   -3746.4388 
 9277000     218.5965   -4350.5025   -3975.8356   -4350.5025            0    1334.7808    18.109288    23.353401    22.086396    9340.6345    1464.4961    1231.1536    1308.6926   -399.16832    129.46679    150.28844    -3794.007 
 9278000     201.3229   -4348.4839   -4003.4234   -4348.4839            0    1435.6091      18.0008    23.453869    22.010226    9292.4622      2771.76   -356.20523    1891.2726    436.36958   -453.10823   -42.166789   -3808.8681 
 9279000    200.32507   -4364.8661   -4021.5158   -4364.8661            0    1834.9818    18.086211    23.376576    21.987381    9296.1259    1268.8445    2757.7987    1478.3022   -1047.9655    265.72302    -380.4246   -3772.7391 
 9280000    213.37762   -4336.6673   -3970.9454   -4336.6673            0     1664.524    18.068261    23.395069     22.05587    9323.1975    1316.9182     1313.844    2362.8098   -235.98055    193.43874    313.61844   -3744.6213 
 9281000    212.37712   -4324.6108   -3960.6037   -4324.6108            0    2493.0656    17.847365    23.559809    22.012214    9255.7074    2640.5174    2788.3367    2050.3426   -175.79369     510.5909    13.704772   -3624.0772 
 9282000    215.65776   -4348.8194   -3979.1894   -4348.8194            0    723.87771    18.183454    23.292915    22.059664    9343.2747   -774.14784    1829.9917    1115.7893   -544.13617    141.41774    500.20876   -3880.5523 
 9283000    216.34109   -4355.0532    -3984.252   -4355.0532            0    1747.7949    18.085997    23.429022    21.922092    9289.2065    2129.3897    1558.5721     1555.423   -472.70991    1089.9963   -607.98993    -3747.472 
 9284000    206.46256   -4362.2711   -4008.4014   -4362.2711            0    1708.0359    17.777486      23.5963    22.086916    9265.0837    2094.0563    1884.4908    1145.5606   -904.04222    398.55419    179.05506   -3777.6086 
 9285000    199.14091   -4364.4523   -4023.1316   -4364.4523            0    1408.1514    18.108135    23.302248    22.130447    9338.1686    949.37486     1258.193    2016.8863    167.15755   -424.01361   -1345.9588   -3831.3588 
 9286000     206.9966   -4364.4038   -4009.6187   -4364.4038            0    944.61398    18.098718    23.544268    21.796815    9288.0821   -270.28539    1017.6113     2086.516    190.92674    -191.3989   -257.92678    -3881.664 
 9287000    218.25101   -4359.6966   -3985.6219   -4359.6966            0    2406.4336    17.977615     23.37864    22.020287    9254.9544    1435.9583    3144.3388    2639.0038    40.963011   -875.92822    587.16041   -3660.8159 
 9288000    213.20476   -4365.8249   -4000.3993   -4365.8249            0    1132.3929     18.21988    23.381546    21.914369    9335.7173    686.52965    669.44854    2041.2006   -17.808463   -213.10395   -15.039602   -3846.2219 
 9289000     203.0677    -4334.547   -3986.4959    -4334.547            0    1188.4244    17.988266    23.337398    22.179018    9310.7368    1043.8985    1779.9987    741.37606   -215.19772   -90.726728    -602.1382   -3825.1227 
 9290000    207.02867   -4355.2156   -4000.3755   -4355.2156            0    1629.7725    17.854455    23.731087    21.865029    9264.3363    2255.8853     241.5429    2391.8892   -753.07308    611.25876    367.80624   -3780.1756 
 9291000    200.40098   -4336.2961   -3992.8156   -4336.2961            0    2290.6744    18.135869    23.190397    22.105297    9297.0018     911.9977    4295.4163    1664.6093     585.0646    89.467795    151.51138   -3682.2294 
 9292000    206.12301   -4355.7461   -4002.4583   -4355.7461            0    455.43521    18.114282     23.58355    21.965104    9383.4722    1012.2305    484.40737   -130.33219    684.82462    310.23277   -559.25253   -3940.1327 
 9293000    210.22792   -4341.3538   -3981.0304   -4341.3538            0    1772.0187    17.915059    23.554172    22.008179    9286.8878    1033.1747    2614.8841    1667.9974    90.439413   -104.88083    292.90948   -3741.0286 
 9294000    210.69002   -4349.6017   -3988.4862   -4349.6017            0    1412.3192     18.19309    23.201831    22.126168    9339.7431    1857.9512    1754.4896    624.51666    -392.4669    361.05726      452.545   -3796.1134 
 9295000    200.61768   -4373.5744   -4029.7226   -4373.5744            0    1595.5107    18.014507    23.337116    22.098661    9290.4243    1022.0416    2604.2436     1160.247   -829.84032    28.852062    865.63471   -3813.5448 
 9296000    204.87049   -4326.3333   -3975.1923   -4326.3333            0    2637.6597    17.889458    23.670057    21.852482    9253.3132    2718.9672    2300.8453    2893.1665   -368.12904   -38.407177    151.53926   -3619.2399 
 9297000    199.82898   -4349.3386   -4006.8386   -4349.3386            0    1874.3334    18.190317    23.020002    22.143246     9272.288    690.59695    3139.6869    1792.7163   -158.59888   -83.446557   -53.954249   -3753.3785 
 9298000     207.5774   -4339.7632   -3983.9826   -4339.7632            0    1230.1587    17.927905     23.54912    21.938961     9262.331    1482.0522    1860.3769    348.04712   -694.63682    812.59287   -262.35793   -3817.8108 
 9299000    210.38703   -4337.7409   -3977.1447   -4337.7409            0    2825.2814    18.008738    23.173576    22.091162     9219.235    1497.0026    4069.6686     2909.173   -96.151244   -1187.5061    -20.91246   -3597.2769 
 9300000    206.10793   -4352.5645   -3999.3026   -4352.5645            0    2448.3166    18.128564    23.253787    21.927036    9243.5125    2695.8062    2537.4057    2111.7378    -341.0517   -125.72871    350.82759    -3669.252 
 9301000    205.27242   -4326.9327   -3975.1028   -4326.9327            0    1533.4934    17.867192    23.548285    22.145367    9317.4798    2781.5446    1726.4748    92.460713     395.9378    122.00329    565.93193   -3766.7227 
 9302000    207.25022    -4347.102   -3991.8822    -4347.102            0    2052.4128    18.359383    23.224796    21.669925    9239.9026    1666.9795    865.63238    3624.6266    -63.67125    638.30472   -113.79554   -3715.3103 
 9303000    193.70536   -4340.1576   -4008.1532   -4340.1576            0    1023.6672    18.011821    23.459831    22.142408    9356.3691    -8.238053    1981.5502    1097.6896   -319.52366   -112.97045   -309.89201   -3868.4707 
 9304000    217.09436    -4348.428   -3976.3357    -4348.428            0    1544.0501    17.915483    23.714991    21.978432    9337.8781    1647.9866    1100.6745    1883.4891    126.74444     232.0954       616.42   -3766.0618 
 9305000    202.53169   -4337.8253   -3990.6929   -4337.8253            0    2224.4226     18.12803    23.341796    21.994159    9306.6256     2258.524     2182.922    2231.8217     371.8969     -434.692    599.71066   -3688.7774 
 9306000    213.25328   -4329.7995   -3964.2907   -4329.7995            0    3096.6707    17.900067    23.322346    22.178393    9258.8481    2997.1003    3068.8911    3224.0206     967.6435   -502.02983    495.63812   -3546.1448 
 9307000    217.22534   -4362.2674   -3989.9506   -4362.2674            0    2009.5246    18.080828    23.692628    21.761081    9322.0624    3058.2783    2358.5798    611.71573   -565.23722    482.65162    240.38391   -3716.7502 
 9308000    207.10602   -4343.8051   -3988.8325   -4343.8051            0    2519.1771    18.059613    23.217077    22.124444    9276.5896     3190.656    3684.0288    682.84649   -844.39579    83.464546    567.46569   -3648.0142 
 9309000    210.08797   -4348.8299   -3988.7463   -4348.8299            0    1817.8895    17.935741    23.716205    21.822911    9282.7614     482.7955    1892.9912    3077.8819   -389.71303   -423.14993   -237.56275   -3742.6412 
 9310000    190.48046   -4350.5137   -4024.0367   -4350.5137            0    1728.7771    18.014636    23.368249    22.120712    9312.1669    1269.2155    1333.0097    2584.1061   -510.55919    25.300548     326.2272   -3789.2542 
 9311000    206.12631   -4351.4894    -3998.196   -4351.4894            0    1672.0911    18.113485    23.413449    21.989107     9325.562    1784.0337    2242.0683    990.17117   -2078.3682    203.26057   -549.57948   -3770.7853 
 9312000    205.99685   -4328.7599   -3975.6884   -4328.7599            0    1183.6205    18.024038    23.513294    22.021751    9332.9171    281.16341     2504.173    765.52494    -379.8727   -342.20272    740.50243   -3814.5846 
 9313000    210.69788   -4320.4345   -3959.3055   -4320.4345            0    2412.7233     17.96618    23.417283     22.03825    9271.9134    2085.7697    2165.5157    2986.8844   -376.36523   -34.857889    1436.5109   -3633.0538 
 9314000    210.65155    -4357.587   -3996.5374    -4357.587            0    2730.0358    18.070635    23.368976    21.901623    9248.8853    2345.2864    1686.2744    4158.5466   -673.61517    297.92583    87.581407   -3628.2952 
 9315000     198.3307   -4353.6224   -4013.6904   -4353.6224            0    970.54222    18.039381    23.367185     22.14975    9336.7741    612.17991    1088.6662    1210.7805    375.74302   -14.149239    363.39041   -3881.5343 
 9316000    202.50299   -4316.6459   -3969.5627   -4316.6459            0    647.99134    18.039144      23.6202     22.02231    9383.4462    1901.9753    147.08831   -105.08958     654.6878    -78.35293    176.70883   -3880.8865 
 9317000    203.65326   -4374.1724   -4025.1177   -4374.1724            0    31.154618    17.908837    23.335503    22.477249    9393.5064    1038.0883    -108.6607   -835.96379   -417.51537   -808.01152   -521.30225   -4020.8497 
 9318000    212.88342   -4361.8214   -3996.9465   -4361.8214            0    2099.4394    18.156066    23.421417    21.742838    9245.9422    1673.3659    1575.8505    3049.1018     247.0825    230.45411   -93.431215   -3713.8527 
 9319000    197.65686   -4363.2758   -4024.4987   -4363.2758            0    2283.5094    17.913558    23.327628    22.126799    9246.3648    3007.6672    1810.2389    2032.6222    230.73314    305.31368     308.4706   -3716.5704 
 9320000    207.99498   -4350.2796   -3993.7833   -4350.2796            0    874.83196    18.040851    23.551443    21.914257     9311.106    1815.5062   -360.78962    1169.7793    299.49918    195.18832   -452.13507   -3874.9873 
 9321000    209.19398   -4356.4948   -3997.9435   -4356.4948            0    840.91304    18.027013    23.233284    22.282247    9332.4002   -26.843493    2976.1272   -426.54456   -614.66444    808.15865   -138.11345   -3883.4923 
 9322000    216.75237   -4313.5283   -3942.0221   -4313.5283            0    2876.6311    18.063126    23.545843    21.771449    9259.6481    2630.8415    2503.6854    3495.3665   -380.76999    75.061651   -437.97806   -3553.5547 
 9323000    192.62864   -4351.5968   -4021.4379   -4351.5968            0     2240.604    17.944284    23.414157    22.082197    9277.8412     2127.382    1538.1453    3056.2847    271.13393   -652.98002    704.00616   -3718.2667 
 9324000    204.85058   -4348.3107   -3997.2038   -4348.3107            0    2501.4106    18.254229    23.346675    21.781032    9282.5433    1672.9327     2412.875     3418.424    168.78927    551.90578     171.9954   -3658.5719 
 9325000    206.44182   -4350.5591   -3996.7249   -4350.5591            0    2854.0141     17.92259    23.353466    22.121302    9258.9731    3798.2996    2516.9173    2246.8253   -400.49541    624.85447   -139.67025   -3611.3399 
 9326000     207.9743   -4353.1478    -3996.687   -4353.1478            0    2362.3936    17.887481    23.815039     21.70267    9245.1431    2407.9786    940.74015    3738.4622    714.62078   -496.70186   -76.310888   -3678.1632 
 9327000    194.47445   -4340.2596    -4006.937   -4340.2596            0    3252.6095     18.03002     23.08443    22.072236    9186.7458    3781.7098    3658.7042    2317.4144    1129.1555   -127.63889    44.387921   -3571.1548 
 9328000    223.72999    -4337.847   -3954.3814    -4337.847            0    384.61238    18.043034    23.567554    22.062419    9381.6063    454.79026    870.36127   -171.31437   -756.66918   -338.78041    306.87274   -3901.7583 
 9329000    206.52283   -4351.3253   -3997.3522   -4351.3253            0    656.64391    17.991999    23.519689    22.140615    9369.1602    1363.1775    945.91065   -339.15641    505.29396   -273.33962    818.02963   -3907.6287 
 9330000    217.58523   -4335.8772   -3962.9436   -4335.8772            0    620.20085     18.32062    23.319416    22.011841    9404.0344     86.23783    212.28291    1562.0818   -861.47551    535.02563    438.95835   -3877.8842 
 9331000     207.3396    -4349.788   -3994.4151    -4349.788            0    1899.0569    17.954492    23.543008    22.051636    9321.2873    1171.1825    2170.2559    2355.7324    1052.7181   -492.38963   -601.65516   -3736.2546 
 9332000    204.73926   -4364.0898   -4013.1738   -4364.0898            0    677.77311    18.087184    23.398488    22.118839    9360.9752    249.80528    362.46036    1421.0537    174.90252   -638.58045    369.86015    -3920.644 
 9333000    197.71081   -4349.3414   -4010.4718   -4349.3414            0   -40.663486    18.132482    23.329198    22.173457    9379.7333   -61.260797   -320.75943    260.02976   -63.482287    420.81908    112.65094   -4016.0343 
 9334000    209.71371   -4314.8788   -3955.4367   -4314.8788            0    2750.0238    17.853563    23.503777    22.079205    9265.0124    3673.5272    3307.1772    1269.3669   -228.28503    -120.0714   -187.33914   -3583.8515 
 9335000    210.33709   -4357.1371   -3996.6265   -4357.1371            0    493.33582    18.231628     23.35488    21.930791     9338.076    954.40195   -323.22456    848.83008    -273.2999   -372.42396    173.56122    -3929.441 
 9336000    209.75993   -4351.8439   -3992.3226   -4351.8439            0    2083.3779    18.024425    23.336495    22.055371    9277.0827    1703.5832    1592.3125    2954.2381   -289.80836   -15.073331    191.99712   -3710.4483 
 9337000    208.35045   -4363.4034   -4006.2979   -4363.4034            0     2553.571    17.940224    23.442578    21.993763    9249.8089     3288.954    2618.2407    1753.5183   -1735.1817   -454.81692    571.23053   -3661.8238 
 9338000    206.57231   -4321.1186   -3967.0608   -4321.1186            0     3274.795    17.916022    23.357541    21.991783    9202.9943    2998.1711    3045.0552    3781.1586   -722.02021   -329.01099   -268.92102   -3527.5301 
 9339000    203.70005   -4368.4941   -4019.3592   -4368.4941            0    2046.2367    18.229892    23.242618    21.900836    9279.6122    699.85047    3347.1738    2091.6858    309.98015    513.29337    307.27614   -3742.4346 
 9340000    204.91412    -4340.367   -3989.1512    -4340.367            0    2721.8478    17.831384    23.447606    22.134426    9254.4759    3187.2567    1660.8823    3317.4044   -553.54738   -189.97729    373.10774   -3621.7915 
 9341000    199.18247   -4360.1746   -4018.7826   -4360.1746            0    1796.7365     18.04736    23.518946    21.950246    9316.8891   -6.8974084    1813.3096    3583.7974   -448.65093   -326.22524     459.3285    -3774.647 
 9342000    210.12646   -4336.7311   -3976.5816   -4336.7311            0    2374.3387    18.126407      23.1982    22.086805    9287.5021    3773.8423    2396.2949    952.87903    316.97954   -430.02417   -213.14401   -3654.9805 
 9343000     209.9467   -4374.8083   -4014.9668   -4374.8083            0    1475.8664    17.955229    23.616513    21.987048    9323.3858    623.33217    1661.4387    2142.8283    182.77652    942.52117    733.61856   -3814.2903 
 9344000    213.44424   -4365.8946   -4000.0584   -4365.8946            0    919.77728    17.907237     23.54266    22.150592    9338.3352    2058.9458    1428.7326   -728.34655    350.45264    273.65091   -121.94862   -3874.7939 
 9345000    197.04514   -4349.3148   -4011.5861   -4349.3148            0    1139.5558    18.209785    23.259997    21.996172    9316.6883    1172.9652    930.37531    1315.3269    139.89936      131.242   -53.056626   -3856.7497 
 9346000    214.91361    -4343.589   -3975.2344    -4343.589            0    1788.3126    17.931846     23.30631    22.274832    9309.2124    2678.9781     1580.604    1105.3559   -8.4339448   -1133.1789   -69.712334   -3732.4436 
 9347000    214.53275   -4356.7228    -3989.021   -4356.7228            0    2152.3515    17.983416    23.514641    21.909565     9264.976    3044.9445    2861.7091    550.40086   -197.44862    274.81317    465.82422   -3698.1949 
 9348000    203.05341   -4366.0158   -4017.9892   -4366.0158            0    1203.8647    18.022471    23.390388    22.088724    9311.5585    1689.2742    341.03498    1581.2848    -565.4947   -198.07678    951.98311   -3854.5049 
 9349000    212.74452   -4353.8421   -3989.2053   -4353.8421            0    1639.6441     18.10787    23.454931    21.876938     9291.548    1188.2665    1819.6088     1911.057   -199.01082   -9.3440684    68.084662   -3767.0209 
 9350000    198.94049    -4352.459   -4011.4818    -4352.459            0    803.24225    18.049526     23.45449    22.063179    9340.2799    751.60626    105.07754    1553.0429   -181.58478    423.83421   -86.550981   -3902.0654 
 9351000    195.14447   -4357.1173   -4022.6463   -4357.1173            0    1305.8377    17.958196    23.414472    22.116347    9299.5182    3278.3343    1787.6882   -1148.5095   -742.85106   -18.169829     286.0783   -3845.5435 
 9352000    207.85318   -4335.7232     -3979.47   -4335.7232            0    1508.2021    18.102653    23.418081    22.082783    9361.5406    187.18385    1222.9677    3114.4547   -337.72958    66.714892   -670.18061   -3773.5575 
 9353000    202.56993   -4324.1845   -3976.9866   -4324.1845            0    1584.8373    18.153464    23.295358    21.960759     9287.017    1996.6298    1758.3396    999.54253   -141.32359   -450.15827   -160.48868   -3762.3337 
 9354000    217.57101   -4363.2557   -3990.3464   -4363.2557            0    1656.7286    17.925924    23.504595    21.961769    9253.4064    1718.1354    1915.3198    1336.7306   -902.20517   -702.27928   -111.23912   -3766.7685 
 9355000    227.39067   -4360.9292   -3971.1894   -4360.9292            0    2591.3752    17.863358     23.35107    22.148349     9238.708    2301.1981    3416.1314    2056.7961   -800.52313   -346.50292   -280.12647    -3622.035 
 9356000    195.82855   -4353.6232   -4017.9798   -4353.6232            0    1984.5731    18.124445     23.28735     22.01821    9293.2321    2439.8522    1572.5643    1941.3028    518.29294   -353.19307   -969.98891   -3749.0061 
 9357000    207.89964   -4370.0194   -4013.6865   -4370.0194            0    1235.4358    17.911468    23.445245    22.212875    9328.0475    2558.2792    515.71899    632.30928   -798.89956   -293.92805    692.62128   -3845.6178 
 9358000    207.35137   -4348.5216   -3993.1285   -4348.5216            0    2283.4865    18.040986    23.468956    21.872806    9261.0138    348.80204    3643.2805    2858.3769    1305.6702    311.15925   -299.10694   -3684.7153 
 9359000    210.10539   -4360.5736   -4000.4601   -4360.5736            0    2443.0687    18.105368    23.089809    22.153366    9261.2037    1308.4737    3336.3011    2684.4311   -470.35112   -812.16825    -12.91709   -3670.4867 
 9360000    206.40715   -4352.7691   -3998.9943   -4352.7691            0    2547.4882    17.952669    23.583361     21.82256    9239.3289    3294.7171    1372.7661    2974.9814   -81.857534   -765.93375    545.07979   -3655.7301 
 9361000    212.92591   -4351.8998    -3986.952   -4351.8998            0    1932.2426    17.884752    23.364494    22.227212    9288.0449    2473.6251     1913.148    1409.9546   -231.25924    202.74635   -709.33216    -3725.217 
 9362000    199.17306   -4328.3262   -3986.9504   -4328.3262            0    2393.3592    18.401082    23.274907    21.595208     9248.871    1604.8259    2021.3096    3553.9421   -1371.3396    768.67318     360.6338   -3664.1215 
 9363000    200.23943   -4341.0015   -3997.7979   -4341.0015            0    1492.4479    17.919568    23.392667    22.110977     9268.623     1935.097    1285.5242    1256.7226     536.4044   -98.133228   -463.49027   -3796.0587 
 9364000    220.50942   -4340.5096    -3962.564   -4340.5096            0    1013.1196    18.146449    23.598995    21.711017    9297.4814     1238.212    1283.1787    517.96798   -282.70725   -97.055956   -178.56091   -3825.1908 
 9365000    212.52285   -4340.3019    -3976.045   -4340.3019            0    1056.7935    17.902145    23.419407     22.24851    9327.8569     2186.757    39.906615    943.71693   -1054.0851   -246.65103   -87.593477   -3832.2818 
 9366000     196.1172   -4343.6554   -4007.5172   -4343.6554            0    2649.5616    18.074464    23.351442    21.921481    9252.2854     2412.199    3419.1703    2117.3155   -396.61092   -440.72515   -353.85914   -3649.9984 
 9367000     202.1196   -4370.0486   -4023.6225   -4370.0486            0    1160.7788    18.094191    23.433746    22.018681    9336.2441    381.68442    2829.6981    270.95379    -252.6732   -89.355454    188.38728   -3865.5714 
 9368000     211.1629   -4368.8175   -4006.8915   -4368.8175            0     2300.662    17.751964    23.656118     22.09118    9277.0264    2385.7369    2044.1645    2472.0845    -32.17872    577.62908    285.60107   -3695.6213 
 9369000    206.78861   -4336.9742   -3982.5456   -4336.9742            0    1630.1813    18.156503     23.26376    21.989379    9288.0611    727.49188    1456.7043    2706.3476    756.90862   -494.27243   -93.705023   -3761.7264 
 9370000    204.12617   -4353.4479   -4003.5826   -4353.4479            0    940.36695    17.998755    23.407213    22.066933    9296.8143    1332.2758    420.00204     1068.823   -331.32661    287.90974    177.71998   -3876.0834 
 9371000    212.63484   -4369.2036   -4004.7547   -4369.2036            0    1275.0414    18.020062    23.669885    21.940432    9358.3137    2105.0754   -389.32516    2109.3739    349.23373    24.283789    -480.6617   -3830.7353 
 9372000    216.92405   -4344.5645   -3972.7641   -4344.5645            0    1227.7216     18.01414    23.436938    22.050295    9309.5527    865.63881    1199.7663    1617.7595   -94.090887   -13.953877   -444.00539    -3806.076 
 9373000    199.68194   -4363.7077   -4021.4597   -4363.7077            0    1406.6295    18.171688     23.34845    21.963586    9318.7262    1266.5465      3088.26    -134.9181   -42.483256   -801.27511    397.75022    -3830.293 
 9374000    217.47902    -4346.151   -3973.3995    -4346.151            0    2464.0775    17.922801    23.352458    21.997704    9206.9512    2077.5617    2508.9419     2805.729    87.398642     -230.705    201.67074   -3642.5381 
 9375000     223.2562   -4339.9527   -3957.2992   -4339.9527            0    1823.7435    17.801259     23.58646    22.093002    9276.1596    3531.4954    2165.8523   -226.11709    1349.5052    606.50101   -444.02313   -3710.5772 
 9376000    207.44677   -4355.5695   -4000.0128   -4355.5695            0    1912.8504    18.127415     23.39502    21.921195    9296.5865    1340.1697     1573.773    2824.6087   -980.90924   -351.83329   -425.48863   -3740.6663 
 9377000    209.61424   -4343.0601   -3983.7885   -4343.0601            0    629.53726    18.038257    23.599249    21.896956       9321.3    870.41382    1117.0265   -98.828509    138.60915    -821.9572    958.66935   -3898.2082 
 9378000     206.1628   -4347.6384   -3994.2824   -4347.6384            0    1294.6378    17.896739    23.396524    22.330124    9350.1025    1884.1777     2486.169   -486.43326    -236.0386    -339.8297   -12.014091   -3817.7435 
 9379000    219.17943   -4347.6739   -3972.0079   -4347.6739            0    1957.5875    18.142828    23.336527    21.943614    9290.7197    1000.5224    2571.7042     2300.536   -43.019137    77.404504    184.86344   -3706.7633 
 9380000    206.50821   -4364.0688   -4010.1208   -4364.0688            0    3580.4343    17.815285    23.406861    22.113996    9221.5337    4155.6319    3833.9236    2751.7475   -56.142724   -712.40705    401.75791   -3528.6003 
 9381000    200.05321   -4368.1111   -4025.2268   -4368.1111            0    1147.1533    18.142057    23.409497    21.939064    9317.4419      1067.64    2469.0254   -95.205495   -529.31681    167.60446   -85.498333   -3869.3455 
 9382000    213.65444   -4332.5613   -3966.3649   -4332.5613            0    3329.3656    17.937934    23.247056    22.071342    9203.8413    1879.8575    4733.3685     3374.871    1191.6216   -295.54288     160.4141   -3519.4689 
 9383000    199.31421   -4345.4932   -4003.8755   -4345.4932            0    1666.5256    18.002766    23.445384    21.986189    9279.9694    3346.4735    377.78442    1275.3189    1164.9216   -904.03109     255.3489   -3778.3298 
 9384000    199.83418   -4358.6245   -4016.1155   -4358.6245            0    1210.1622    18.063606    23.130438    22.240388    9292.4593    1103.1293    1881.7669    645.59049    440.03621   -626.42871   -239.71941   -3852.1132 
 9385000    201.51666   -4366.3676    -4020.975   -4366.3676            0    2787.1638    17.974239    23.526763    21.816919    9225.8441    3178.2022    2441.4674     2741.822   -311.64517   -358.37232    393.20574   -3645.9635 
 9386000    206.53838   -4348.4553   -3994.4556   -4348.4553            0    1910.5077    18.004417    23.432692    22.032525    9295.3452    1334.1291    2081.4251    2315.9688   -96.461264    715.23102    461.14704   -3735.4613 
 9387000    206.54984   -4366.0567   -4012.0373   -4366.0567            0     1374.213    18.228375    23.247839    21.907543    9283.7666    1672.0714    270.65638    2179.9112    277.88158    -339.3768    232.16191   -3825.9768 
 9388000     206.8242    -4351.951   -3997.4614    -4351.951            0    1174.3417    17.987549    23.585053    22.027864    9345.0417    1193.9585     920.1549    1408.9119    278.49946   -493.67505    228.71022   -3837.4128 
 9389000    197.89781   -4371.9095   -4032.7194   -4371.9095            0    970.72646     18.01827    23.319746    22.163593    9312.7316    1260.0005    1567.8364    84.342429    219.12874    262.31889     46.41166   -3900.8786 
 9390000    205.16202   -4346.9046   -3995.2639   -4346.9046            0    2383.9759    18.171585    23.220125    21.973866    9271.7954    815.75645     2099.017    4237.1544   -209.19889   -474.13756   -561.10765   -3672.9036 
 9391000    205.63026   -4368.7127   -4016.2695   -4368.7127            0    3108.0868     17.85931    23.624817    21.892331    9236.8764    4638.4843    1908.5464    2777.2296   -307.97621   -309.64537    142.91815    -3597.578 
 9392000    195.41286   -4342.3485   -4007.4175   -4342.3485            0    1891.0968    17.872809    23.460262    22.136087    9281.6789    3003.1837    1762.1844    907.92236   -774.38738    270.09816    6.0838262   -3751.4316 
 9393000    199.09438    -4344.151     -4002.91    -4344.151            0    2243.9076    18.182794    23.146109    22.042795    9276.9511    2528.1626    3488.1275    715.43264    120.52172    543.04948   -648.06993   -3699.3209 
 9394000    199.52611    -4339.791   -3997.8101    -4339.791            0    1944.7192    17.995132    23.450012    22.010141    9287.9728    1737.0486    2141.6454    1955.4636    228.70134   -545.68139   -1060.1564   -3734.3871 
 9395000    211.10355    -4335.329   -3973.5047    -4335.329            0    2924.0039    17.852636    23.497011    22.027284    9240.0835    4436.8615    2280.7774    2054.3727   -1706.5768    720.16095    798.68715   -3579.4743 
 9396000    200.95704   -4349.2993   -4004.8658   -4349.2993            0     569.5413    18.211389    23.231036    22.106229    9352.4702   -163.42895    1880.8842   -8.8313878   -367.51107   -625.11189   -587.15281   -3927.1825 
 9397000     195.5753   -4354.0349   -4018.8255   -4354.0349            0    2023.3988    17.978595    23.532975    22.000156    9308.0423     2007.557    2354.3715     1708.268    -206.4874    199.77816    149.81802   -3744.1527 
 9398000    200.44175    -4370.996   -4027.4457    -4370.996            0    1390.6737    18.028107    23.359407    22.075156    9296.4197    1256.8228     411.4767    2503.7216   -149.45607   -162.99309    130.22857   -3838.8999 
 9399000    219.78976   -4340.4672   -3963.7551   -4340.4672            0    1977.7207    18.046883     23.25546    22.178993    9308.2699    1254.0159    1765.4225    2913.7236     63.31733    498.94833     -871.879   -3695.2764 
 9400000    204.97819   -4354.6772   -4003.3516   -4354.6772            0    1530.9761    17.940752     23.64421    21.872214     9278.082    2161.2022   -488.91468    2920.6409    1132.7526   -638.25771    252.96497   -3796.1932 
 9401000    208.16215   -4335.9387   -3979.1559   -4335.9387            0    3117.5921    17.968383    23.284167    21.953677    9184.9539    3281.7342     2957.463    3113.5792    259.93066    468.67346    139.44247   -3561.5447 
 9402000    202.68332   -4367.3157   -4019.9234   -4367.3157            0    1864.8563    18.129923    23.356244    21.860746    9256.8653    1425.2043    2864.2489    1305.1157   -358.48372    88.775582   -470.76581   -3768.1643 
 9403000    213.30284   -4354.5643   -3988.9705   -4354.5643            0    1527.6026    17.959886    23.593795    22.007468    9325.4857    1646.7693    682.62505    2253.4134   -33.420059    74.470267    522.12657   -3781.2125 
 9404000    205.74103   -4368.3463   -4015.7132   -4368.3463            0    2146.5103    18.085904    23.301454    21.917294    9236.5583    2596.4181    2023.4531    1819.6595    394.90125    -496.7111     510.2736    -3726.566 
 9405000     213.3242   -4368.1166   -4002.4863   -4368.1166            0    1748.3702    18.017135    23.324772      22.1266    9298.6054    1861.3901    1850.3384     1533.382    961.77936   -260.50362   -472.44203   -3765.3887 
 9406000    197.39645   -4375.2246   -4036.8938   -4375.2246            0    1295.7449    17.940928    23.640003    21.955467    9311.8314    1026.8258    966.46558    1893.9434   -515.13165   -248.12184    860.65278   -3860.9271 
 9407000    201.07814   -4353.1831    -4008.542   -4353.1831            0    1445.5856     18.10302    23.260554    22.083649    9299.1214    1298.5922    2075.3373    962.82729    749.75722   -569.09553    416.76111   -3812.4944 
 9408000    198.95894   -4348.5156   -4007.5067   -4348.5156            0    1567.4991    17.910749    23.600362    21.947793    9277.3355     2644.536   -114.82348    2172.7849   -2078.4747   -918.28435    1281.0293   -3795.4234 
 9409000     205.5131   -4349.6545   -3997.4121   -4349.6545            0    1519.4539    17.960466    23.463685    22.045721    9290.4793     349.0257    1455.7613    2753.5748   -183.81626   -407.79866   -265.56742   -3791.5381 
 9410000    204.70949   -4320.0861    -3969.221   -4320.0861            0    2251.4823    18.152013    23.363893    21.959472    9313.0488    1476.8862    3605.0643    1672.4962     370.3151   -181.28172    182.10157   -3663.4219 
 9411000    200.20262   -4364.1023   -4020.9618   -4364.1023            0    3173.5695    17.857176     23.43048    22.098793    9246.1837    4072.0966    2183.0184    3265.5935   -1185.4567    335.47289     92.67654   -3593.0183 
 9412000    203.68474    -4355.323   -4006.2144    -4355.323            0    2173.5394    18.174095    23.324887    21.894799    9281.3956    2783.0251    2999.1594    738.43381   -147.45229   -300.19197    386.52827   -3712.0049 
 9413000    200.09208   -4339.5273   -3996.5763   -4339.5273            0    561.19506    18.044735    23.291585    22.249274    9351.1582    508.71971     1514.794   -339.92852   -182.78281   -28.138136    411.54464   -3920.0422 
 9414000    207.75424   -4363.0393   -4006.9557   -4363.0393            0    979.32483    17.904575    23.656086    21.957011    9299.9395    686.03878    334.81379    1917.1219   -64.124739   -13.275351   -36.732305   -3874.1298 
 9415000    205.05557   -4353.2992    -4001.841   -4353.2992            0    845.68642    18.015308    23.443818    22.181908    9368.4758    1434.2414    1437.4737   -334.65581    1172.5066    368.89949    487.41871   -3886.2952 
 9416000    214.86628   -4351.0928   -3982.8193   -4351.0928            0    1704.0624    18.183724    23.316128    21.959259    9310.1557    1574.8564    2434.2002    1103.1307    329.38332    208.12721    348.31338   -3751.4433 
 9417000    200.67302   -4363.3111   -4019.3644   -4363.3111            0    1502.4628    17.889761      23.5512    22.131952    9324.7527   -272.26232    2135.7346    2643.9162    -1745.184    98.654505    192.79788   -3815.0415 
 9418000    220.89122   -4344.9649   -3966.3649   -4344.9649            0    1258.6506    17.918705    23.666947    22.044667    9348.7255    2130.5928    676.57149    968.78749   -19.273098    -506.8637    319.27312   -3794.7585 
 9419000    216.01803   -4341.9292   -3971.6817   -4341.9292            0    1484.4723    18.053951    23.296005    22.085879    9288.9876    2064.0524    1995.9793    393.38506    1002.7602   -133.92199   -80.550556   -3770.5797 
 9420000     208.1611   -4351.2965   -3994.5155   -4351.2965            0    1473.4743    18.040076    23.461867    22.041587    9329.1865    1417.3689    1936.3197    1066.7343    461.49455    277.76193    102.80296   -3794.0396 
 9421000    212.45202   -4360.6908   -3996.5553   -4360.6908            0    555.44607    18.017868    23.624881    21.943741    9340.7922    716.90386    156.92097    792.51338   -222.26008    396.57931    188.64406   -3920.8892 
 9422000    205.27839   -4354.4516   -4002.6114   -4354.4516            0    1208.0576    18.306598    23.070111    22.077406    9324.0666    637.42157    1508.2983     1478.453   -204.07621   -809.36039   -271.17035   -3838.3374 
 9423000    212.04772   -4364.7951   -4001.3526   -4364.7951            0    2182.6572    17.985598    23.362262    21.987935    9238.9844    1382.8359     1547.543    3617.5928   -702.99146     482.9257   -163.61571   -3707.2589 
 9424000    199.37967   -4346.4817   -4004.7518   -4346.4817            0    1951.2173    18.002039    23.470813    21.978045    9286.2181    1863.2211    2304.6203    1685.8105   -121.27148   -384.36544    38.415455   -3740.4985 
 9425000    202.73438   -4332.5765   -3985.0967   -4332.5765            0     628.3624    18.066516    23.491429    22.002046    9337.8502    1756.3503    912.80809   -784.07121    1897.6422   -92.840332    349.75125   -3899.5245 
 9426000    200.02233    -4345.301   -4002.4696    -4345.301            0    1606.8801    18.073756    23.296202    22.048543    9283.5364    681.45701    1756.3733      2382.81    155.22922    1.8819594    203.04288   -3784.9127 
 9427000    215.16095   -4345.9115    -3977.133   -4345.9115            0    1315.2833     18.08456    23.527143    21.855893     9299.202    2045.1044    605.09371    1295.6518    153.04803    67.613492    6.7985632   -3798.7551 
 9428000    214.37143   -4351.7973   -3984.3719   -4351.7973            0    1400.4553      17.9454    23.446162    22.143427    9316.8632    483.93369    2364.3611    1353.0712    241.10795      307.226     1284.687   -3794.0824 
 9429000     212.3763   -4359.0537    -3995.048   -4359.0537            0    835.44315    18.151339    23.452559    21.916778    9329.8704    50.695622    1103.4521    1352.1817   -311.88917    630.21836   -951.65159   -3881.3721 
 9430000     203.8383   -4352.8047   -4003.4329   -4352.8047            0    886.82509    17.995288     23.37308    22.047757    9273.4032    1792.3096    1697.3255   -829.15976   -236.45577    421.29304    1008.9217   -3883.4959 
 9431000    208.58144   -4344.9752   -3987.4737   -4344.9752            0    3286.1903    17.933557    23.257288    21.972533    9164.4336    3121.2094    2902.4476    3834.9141   -1452.4101   -69.359868   -25.090319   -3548.2617 
 9432000    224.64489   -4350.9016   -3965.8679   -4350.9016            0    1408.3659    17.772679    23.862358    21.955662    9311.3533    3127.8656     181.7011    915.53091   -457.03418    883.41623    88.463811   -3774.6167 
 9433000     205.3333   -4359.3967   -4007.4625   -4359.3967            0    2596.8824    18.047254      23.3978    21.977549    9280.3724    2781.4302    2266.9826    2742.2345   -70.884771    204.48036   -715.20859   -3655.9881 
 9434000    201.67315    -4354.091   -4008.4301    -4354.091            0    2724.8334    18.178678    23.221672    21.853059    9225.0353    111.99568    3622.3372    4440.1672    194.40562   -412.73132   -617.79162   -3641.8374 
 9435000    213.20083   -4341.5461   -3976.1271   -4341.5461            0    1921.7677    17.898044     23.57904     21.94405    9260.7995    2283.1835    2036.9642    1445.1554    -160.7411   -241.28253    340.23666   -3716.5746 
 9436000     213.9019   -4346.7982   -3980.1777   -4346.7982            0    2024.1983    18.019349    23.458732    21.960805    9283.0757    2092.5174    3040.1389    939.93845    370.16376   -26.128266   -501.95902   -3706.1333 
 9437000    207.23808   -4358.7193   -4003.5203   -4358.7193            0     1435.982    18.042717    23.351416    21.956218    9250.6599    1833.6869    1456.8682    1017.3908    531.07736   -145.05617    25.837459     -3809.79 
 9438000    215.52676   -4340.9811   -3971.5756   -4340.9811            0     689.7735    18.138082    23.372296    22.157379    9393.1472    1832.5991    610.14114   -373.41975   -541.05196   -344.74373   -677.43789    -3877.084 
 9439000    193.64392   -4353.7114   -4021.8123   -4353.7114            0    1564.5476     18.00608    23.436563    22.084667    9319.7438    1623.8425    1570.5772     1499.223   -93.551523   -410.87479    466.51416   -3809.1607 
 9440000    211.00704   -4312.7473   -3951.0884   -4312.7473            0    2395.7345    18.136786     23.38728     21.79514    9244.8469    2281.0751    1441.4221    3464.7061    568.44156    302.52536   -416.79923   -3628.0797 
 9441000     207.3016   -4343.2448    -3987.937   -4343.2448            0    461.93855     18.12516     23.28425       22.313    9416.7726   -336.67816    450.37931    1272.1145   -1850.0146    90.828099    170.16135   -3924.4971 
 9442000    207.61762   -4340.0296   -3984.1801   -4340.0296            0    1176.3911     18.09513    23.462578    21.972769    9328.7235    1246.0287    874.01214    1409.1325   -958.88681   -297.43992   -388.80476   -3824.1323 
 9443000    202.07121   -4336.4769   -3990.1338   -4336.4769            0    2087.2562    17.837772    23.505948    22.223346    9318.1097    827.46338    1003.2391    4431.0662    926.01793   -118.58882     337.1195   -3706.4859 
 9444000    217.46254   -4344.9135   -3972.1901   -4344.9135            0    2857.7232    18.100046    23.288244    21.902241    9232.1951    3283.9755    1988.7771    3300.4169    1286.7783    99.197311    339.99521   -3587.4203 
 9445000    198.65171   -4336.3779   -3995.8956   -4336.3779            0    1956.5277    17.867197    23.332051    22.186274    9248.9777    2030.5692    2872.5924    966.42163    356.09323   -566.61677   -104.06074   -3731.9858 
 9446000    206.82676   -4350.9001   -3996.4062   -4350.9001            0    688.56475    18.022722    23.643764    21.864536    9317.0249     1032.631    833.01222    200.05103   -463.38325     420.8909   -721.88422   -3902.8445 
 9447000    194.59102   -4322.4461   -3988.9237   -4322.4461            0    2179.1355    18.051762    23.228823    22.106528    9269.7359    2215.9713    1833.2047    2488.2305    21.852296   -192.73583    704.75338   -3694.3273 
 9448000    214.11029   -4357.2517    -3990.274   -4357.2517            0    2234.4931     18.17745     23.59374    21.637233    9279.6476    2620.8609    2037.2273    2045.3911    592.43914    512.96868    155.51646   -3687.8708 
 9449000     217.0034   -4349.0148   -3977.0784   -4349.0148            0    863.57282    17.944508    23.479237    22.219743    9361.6969    1472.6115    544.96692    573.14005    552.60549    190.84957    213.87424   -3859.1742 
 9450000    214.28109   -4361.0121   -3993.7417   -4361.0121            0    2956.0684    18.180845    23.326022    21.784719    9238.6115    1900.8609    3084.4225    3882.9218    84.038645    376.25326   -595.28171   -3595.4538 
 9451000     206.0201   -4340.4608   -3987.3494   -4340.4608            0    2620.0181    17.862073    23.402244    22.218834    9287.7524     2020.558    2936.9591    2902.5373    277.30555   -1146.7125   -33.642629   -3632.4618 
 9452000    203.90946    -4333.717   -3984.2232    -4333.717            0    2943.2822    18.034185    23.549254    21.723577    9225.8208    3536.9453     1411.809    3881.0924   -469.94827    248.24427    -78.37569   -3588.2071 
 9453000    210.45575   -4372.8939     -4012.18   -4372.8939            0    1911.2007    18.042071    23.270961     22.08128    9270.9654    1501.7833    2469.7224    1762.0965    118.59158    151.22713    453.95865   -3753.7713 
 9454000    207.59242   -4364.7088   -4008.9025   -4364.7088            0    2102.0156    17.961948    23.551685    21.949083    9285.2112    2908.4543    2613.7014    783.89124   -1646.2269    539.75875   -866.90804   -3724.2575 
 9455000    206.38825   -4374.1684    -4020.426   -4374.1684            0    114.36835    18.071988    23.427072    22.137394    9372.3915   -60.846104    336.33091    67.620239    499.45652    793.81101    135.39567   -4004.7934 
 9456000    199.60608   -4351.3162   -4009.1982   -4351.3162            0    1450.1939    18.105433    23.351973    21.991933    9298.1362    2417.4333    566.22798    1366.9205   -255.57316    535.74019    167.24994   -3812.5464 
 9457000    204.01188   -4345.9471   -3996.2777   -4345.9471            0    1163.8394    17.943559    23.487087    22.064124    9298.7471    1105.1432   -13.449085     2399.824     435.5111   -148.43389   -141.08045   -3838.4463 
 9458000     208.8056   -4335.6416   -3977.7559   -4335.6416            0    1024.9503    18.132771    23.502664    21.917567     9340.575    421.76081    1342.9028    1310.1872    309.43868   -493.33715    276.89944   -3838.1344 
 9459000    211.19086   -4355.9187   -3993.9448   -4355.9187            0    1704.9817    17.844576    23.256516    22.316124    9261.2511    1690.7164    2746.4667    677.76184    -1028.368    504.91114   -18.802342     -3763.66 
 9460000    215.26148   -4342.2519   -3973.3011   -4342.2519            0    1724.5107    18.092518    23.479843    21.782311    9253.3323    603.37464    1305.3803    3264.7773   -863.98135   -106.41465    23.909811   -3740.5778 
 9461000    209.08719   -4360.2611   -4001.8928   -4360.2611            0      1665.21    17.989355    23.269386    22.206643    9295.7285    2226.6026    642.02581    2127.0016   -735.48435    532.54251   -249.96543   -3776.1425 
 9462000    206.73731   -4347.5576   -3993.2169   -4347.5576            0    338.80645    18.043179    23.712481     21.88419    9363.1184    832.58125    219.91007   -36.071963   -36.906014   -427.05783   -635.78724   -3946.9524 
 9463000     208.9154   -4338.5356   -3980.4617   -4338.5356            0    1518.7137    17.952876    23.448703    22.068508    9290.2162    2060.7966    745.82195    1749.5227    170.25312   -477.58098    396.55783   -3774.6938 
 9464000     207.9054    -4353.498   -3997.1552    -4353.498            0    184.78447    18.401835    23.162514    22.033631    9391.4557   -1901.5765     2416.558    39.371924   -18.107257    116.52548    263.70028   -3971.8463 
 9465000    204.18087   -4390.2696   -4040.3106   -4390.2696            0    1194.7749    17.885055    23.495472     22.15475    9309.8207    632.03025    1259.2147    1693.0797     322.3116   -260.71747    1045.6823    -3878.091 
 9466000     198.5615   -4347.7406   -4007.4129   -4347.7406            0    1649.3874    18.011716    23.497089    21.928176    9280.5064    1428.1207    1546.5635    1973.4779     477.8994   -32.728419     10.57545   -3784.1739 
 9467000    204.59097     -4371.48   -4020.8181     -4371.48            0    1533.9513    18.042654    23.236492    22.182478    9299.9594    899.66968    2534.4655    1167.7187    105.43453    713.47907   -1043.3848   -3812.7677 
 9468000    207.72384   -4342.8874   -3986.8559   -4342.8874            0    2256.8081    18.066757    23.605909    21.750889    9276.3676    762.66687    2189.8397    3817.9178   -661.81861    97.914803   -43.358211   -3681.5406 
 9469000    212.49156   -4351.6947   -3987.4914   -4351.6947            0    2454.9139    17.900185    23.472038    22.071803    9273.5523     2835.631    2288.4418    2240.6688   -469.70241    74.049185      104.481    -3655.476 
 9470000    194.55817   -4350.8642   -4017.3982   -4350.8642            0    1390.7341    18.286649    23.323144    21.871205    9328.1159   -80.912826    2189.2384    2063.8768   -443.11177   -435.87413   -52.184468   -3828.2013 
 9471000    199.09191   -4337.5068   -3996.2701   -4337.5068            0    1728.2323    17.946785    23.449833    22.125513    9311.5025    916.72377    2192.4238    2075.5493     271.9566   -540.83515    -247.2412   -3761.5784 
 9472000    206.15287   -4367.1564   -4013.8175   -4367.1564            0     1735.816    18.081146    23.514334    21.880902    9303.0179    962.55929    976.97095    3267.9179   -517.92882     -400.121    -200.2344   -3778.3107 
 9473000    202.21357   -4352.0132   -4005.4261   -4352.0132            0     1333.611    18.068244    23.163077    22.248636    9311.4132    1551.4825    1386.1567    1063.1938   -492.03274    183.48444    78.333739   -3824.3252 
 9474000    207.56688   -4357.2924   -4001.5298   -4357.2924            0    502.25524    18.108663    23.562302    21.942995    9362.6765    420.77542   -911.33479    1997.3251   -814.65194    178.27844   -267.87983   -3932.9494 
 9475000    203.92433   -4359.1807   -4009.6614   -4359.1807            0    1221.4706    18.038996    23.205459    22.268717    9321.7559    1855.4071    689.75409    1119.2507   -617.28179    249.72158   -306.63025   -3843.6046 
 9476000    199.65337     -4330.35    -3988.151     -4330.35            0    996.22607    18.132634    23.473356    21.913808     9327.257    337.76816    1280.3604    1370.5496    327.63495    796.12192   -26.456893   -3852.6359 
 9477000    218.48345   -4323.0724   -3948.5992   -4323.0724            0    733.19818    17.929386    23.340022    22.337716    9347.7148    697.69219    1249.7797    252.12264    -480.8958    40.953383    51.588732   -3848.6446 
 9478000    213.52607   -4345.9413   -3979.9649   -4345.9413            0    896.65136    18.098323    23.610304    21.925508    9368.9208    1640.0773    680.93943    368.93735   -134.65146   -95.636481    -449.3581     -3857.45 
 9479000    205.46719   -4331.7098   -3979.5461   -4331.7098            0    1577.2911    17.845073    23.268789     22.35009    9280.5004    2435.8894    831.48364    1464.5001    805.23236   -638.86275    875.81276   -3766.0652 
 9480000     206.0785   -4323.1467   -3969.9352   -4323.1467            0    1630.5417    18.050055    23.584049    21.888748    9317.8955    624.30654    1378.3133    2889.0053   -783.19121   -666.63158    798.07369   -3748.3578 
 9481000    216.24131    -4352.183   -3981.5528    -4352.183            0    2482.3359    18.017204     23.23425    22.184276    9286.6978    1445.5446    3317.1408    2684.3222    396.45457    -594.4239    756.95897   -3645.3528 
 9482000    207.49775   -4349.1215   -3993.4774   -4349.1215            0    1196.1186    18.099649    23.484509    21.931242    9322.1235    1963.2748    879.78943     745.2915   -326.25889    361.64162    308.94243   -3830.8608 
 9483000    202.14623   -4356.4366   -4009.9649   -4356.4366            0    1224.8733    17.832478    23.475904     22.21867    9301.4807    2079.9052   -284.97706    1879.6918    96.528152    817.68595   -291.61275   -3843.8077 
 9484000    201.73938   -4327.1392   -3981.3648   -4327.1392            0    873.72347    18.213276     23.31528    21.931951    9313.3511    617.10542    1638.7029    365.36211   -195.19072   -346.30272   -119.08933   -3862.6907 
 9485000     210.2617    -4370.583   -4010.2017    -4370.583            0    2209.7427    17.951279    23.433456    22.084588     9290.114    2538.5498    1593.4007    2497.2777   -274.60377   -152.49752   -169.42144   -3710.8107 
 9486000    209.91015    -4358.923   -3999.1442    -4358.923            0    3738.3511    17.869805    23.661041    21.787447    9212.1288      4546.95    2854.3626    3813.7406   -579.91564    857.53019   -42.130516   -3496.8988 
 9487000    204.64904   -4343.4524    -3992.691   -4343.4524            0    2005.3319    17.983926    23.280594    22.104549    9254.6549    2515.6578    2555.4515    944.88638     148.3549    87.035015    215.40802   -3722.0321 
 9488000    214.14896   -4345.5614   -3978.5174   -4345.5614            0    897.86196     18.22475    23.475652    21.851074    9348.7175    1012.7001   -392.62369    2073.5095   -301.33681    249.39518     1174.912   -3856.1016 
 9489000    213.29581    -4358.787   -3993.2053    -4358.787            0    388.28481    17.847602    23.523995     22.31223    9367.7204    1483.7115    1312.3148   -1631.1718   -347.68648    94.884199    316.75428   -3940.1584 
 9490000    206.03494   -4343.8389   -3990.7021   -4343.8389            0    2487.7705    18.098613    23.361023    21.894214    9256.9196    362.86541    2637.3331    4463.1131    393.54915    153.65198    -307.4649   -3654.8464 
 9491000     202.0646   -4362.2527   -4015.9209   -4362.2527            0    551.03426    18.104708    23.233352    22.266219    9365.9076    1411.5176    876.83094   -635.24576   -195.28982    442.87789   -214.18666   -3940.6539 
 9492000    213.63989   -4356.1411   -3989.9697   -4356.1411            0     2549.605      17.9193    23.600667    21.863771    9246.3516    2585.9464    2382.2497    2680.6188   -180.47415    599.34873    479.77869   -3646.1591 
 9493000    215.63062   -4339.8131   -3970.2296   -4339.8131            0    1398.5017    17.994472    23.429374    22.137749    9333.2572    1988.5982    1496.9262    709.98067   -209.89045    777.89784    211.31767   -3779.8712 
 9494000    214.22519   -4354.1466    -3986.972   -4354.1466            0    2028.3425    18.215754    23.472392    21.752049    9300.4652    1137.0915    2656.1796    2291.7565   -1329.4663     -170.946    776.91203   -3711.8522 
 9495000      221.854   -4349.0385   -3968.7884   -4349.0385            0      1310.91    17.896774    23.377742    22.174853    9277.6517     1536.964    172.05188     2223.714   -1403.7732    131.79043   -254.48036   -3791.4157 
 9496000    200.74371   -4344.6866   -4000.6188   -4344.6866            0    983.14456    18.163461    23.399845    21.897554     9306.946    1866.1689    704.68562    378.57917    329.73499   -318.20013   -665.15896   -3867.1743 
 9497000    208.62593   -4356.1248   -3998.5471   -4356.1248            0    3612.6622    17.905984    23.316524    22.042836    9203.0014    4006.5882    4129.3514    2702.0469    696.88982   -282.65302   -118.08577   -3513.6689 
 9498000    206.33297   -4325.6138   -3971.9662   -4325.6138            0    1835.0823    18.085265    23.526824    21.795382    9273.6917    2165.0297    512.70949    2827.5075   -178.39851   -180.51528    121.46958   -3723.7763 
 9499000     195.5408   -4349.6311   -4014.4809   -4349.6311            0    2809.3918    18.133511    23.132607    22.116041    9277.1346    1900.7339    4666.6362    1860.8054    63.423532    449.91058     544.5272   -3634.3772 
 9500000    223.41357   -4344.7533   -3961.8301   -4344.7533            0    1529.8671    18.041539    23.503978     21.82359    9254.2486    531.17157    743.41601    3315.0136    739.93394   -736.68799    263.09594   -3755.3536 
Loop time of 356.85 on 64 procs for 250000 steps with 864 atoms

Performance: 121.059 ns/day, 0.198 hours/ns, 700.574 timesteps/s
195.0% CPU use with 32 MPI tasks x 2 OpenMP threads

MPI task timing breakdown:
Section |  min time  |  avg time  |  max time  |%varavg| %total
---------------------------------------------------------------
Pair    | 17.026     | 24.488     | 32.978     | 103.0 |  6.86
Bond    | 1.0203     | 1.1678     | 1.4039     |   8.0 |  0.33
Kspace  | 178.5      | 188.15     | 196.23     |  39.8 | 52.73
Neigh   | 1.1278     | 1.2111     | 1.2924     |   3.7 |  0.34
Comm    | 55.417     | 58.347     | 61.538     |  17.4 | 16.35
Output  | 0.511      | 0.51146    | 0.51332    |   0.1 |  0.14
Modify  | 65.555     | 67.531     | 70.895     |  15.1 | 18.92
Other   |            | 15.44      |            |       |  4.33

Nlocal:        27.0000 ave          39 max          19 min
Histogram: 6 4 6 1 3 3 1 1 3 4
Nghost:        2127.34 ave        2223 max        2037 min
Histogram: 13 3 0 0 0 0 0 0 6 10
Neighs:        6575.78 ave        9331 max        4589 min
Histogram: 5 7 4 1 4 2 1 1 3 4

Total # of neighbors = 210425
Ave neighs/atom = 243.54745
Ave special neighs/atom = 2.0000000
Neighbor list builds = 4417
Dangerous builds = 0

unfix		3
unfix		2
unfix		1

write_data	data.final.${pid} nocoeff
write_data	data.final.0 nocoeff
System init for write_data ...
PPPM initialization ...
  extracting TIP4P info from pair style
  using 12-bit tables for long-range coulomb (../kspace.cpp:340)
  G vector (1/distance) = 0.37186825
  grid = 24 27 25
  stencil order = 5
  estimated absolute RMS force accuracy = 0.0031339985
  estimated relative force accuracy = 9.4379435e-06
  using double precision FFTW3
  3d grid and FFT values/proc = 4410 672
Last active /omp style is kspace_style pppm/tip4p/omp

write_restart   restart.lmp.${pid}
write_restart   restart.lmp.0
System init for write_restart ...
PPPM initialization ...
  extracting TIP4P info from pair style
  using 12-bit tables for long-range coulomb (../kspace.cpp:340)
  G vector (1/distance) = 0.37186825
  grid = 24 27 25
  stencil order = 5
  estimated absolute RMS force accuracy = 0.0031339985
  estimated relative force accuracy = 9.4379435e-06
  using double precision FFTW3
  3d grid and FFT values/proc = 4410 672
Last active /omp style is kspace_style pppm/tip4p/omp
Total wall time: 0:05:56
