LAMMPS (30 Jul 2021)
Processor partition = 0
  using 2 OpenMP thread(s) per MPI task
using multi-threaded neighbor list subroutines
variable        pid world 0 1
variable        phase world IceIh IceIII

shell cd ${phase}
shell cd IceIh
include Restart.lmp
echo both
log log.lammps
#include		in.partitions
include		in.temp
variable        temperature equal 212.72
variable	tempDamp equal 100.0
include		in.pressure
variable        pressure equal 1633.1
variable        pressureDamp equal 1000.0 # This is 1 ps
include		in.seed
variable        seed equal 745823

units		real
atom_style	full
#include		in.box
read_restart	restart.lmp.${pid}
read_restart	restart.lmp.0
Reading restart file ...
  restart file = 30 Jul 2021, LAMMPS = 30 Jul 2021
  restoring atom style full from restart
  orthogonal box = (0.10819996 0.10270294 -0.0038964380) to (18.099372 23.526475 22.217092)
  2 by 4 by 4 MPI processor grid
  restoring pair style lj/cut/tip4p/long/omp from restart
  restoring bond style harmonic/omp from restart
  restoring angle style harmonic/omp from restart
  864 atoms
  576 bonds
  288 angles
Finding 1-2 1-3 1-4 neighbors ...
  special bond factors lj:    0        0        0       
  special bond factors coul:  0        0        0       
     2 = max # of 1-2 neighbors
     1 = max # of 1-3 neighbors
     1 = max # of 1-4 neighbors
     2 = max # of special neighbors
  special bonds CPU = 0.002 seconds
  read_restart CPU = 0.007 seconds
include 	in.setup
variable	out_freq equal 1000
variable	out_freq2 equal 10000
variable	out_freq3 equal 1000

timestep	2.0

neigh_modify    delay 7 every 1

include		in.tip4p
# This is TIP4P/Ice

# create groups ###
group ox type 2
288 atoms in group ox
group hy type 1
576 atoms in group hy

# set charges - beside manually ###
set group ox charge -1.1794
Setting atom values ...
  288 settings made for charge
set group hy charge 0.5897
Setting atom values ...
  576 settings made for charge

# ### TIP3P Potential Parameters ###
pair_style lj/cut/tip4p/long/omp 2 1 1 1 0.1577 8.5
pair_coeff 1 1*2 0.000 0.000
pair_coeff 2 2 0.21084 3.1668
bond_style  harmonic
bond_coeff  1 450 0.9572
angle_style harmonic
angle_coeff 1 55 104.52
kspace_style pppm/tip4p/omp 1.0e-5
pair_modify tail yes

thermo          ${out_freq}
thermo          1000
thermo_style    custom step temp pe etotal epair emol press lx ly lz vol pxx pyy pzz pxy pxz pyz enthalpy

restart 	${out_freq3} restart.lmp.${pid} restart2.lmp.${pid}
restart 	1000 restart.lmp.${pid} restart2.lmp.${pid}
restart 	1000 restart.lmp.0 restart2.lmp.${pid}
restart 	1000 restart.lmp.0 restart2.lmp.0


include         in.dump
dump            myDump all atom ${out_freq2} dump.water.${pid}
dump            myDump all atom 10000 dump.water.${pid}
dump            myDump all atom 10000 dump.water.0
dump            myDump2 all dcd ${out_freq2} dump.dcd
dump            myDump2 all dcd 10000 dump.dcd
dump_modify     myDump append yes
dump_modify     myDump2 append yes


variable natoms 	equal  "count(all)"                        # NUMBER ATOMS
variable H      	equal  "enthalpy/v_natoms"                 # ENTHALPY-per-atom
variable Vol      	equal  "vol/v_natoms"                 # volume-per-atom
fix AVG all 		ave/time ${out_freq} 1 ${out_freq} v_Vol v_H file vol_enthalpy.dat
fix AVG all 		ave/time 1000 1 ${out_freq} v_Vol v_H file vol_enthalpy.dat
fix AVG all 		ave/time 1000 1 1000 v_Vol v_H file vol_enthalpy.dat


timer           timeout 23:50:00 every 1000
New timer settings: style=normal  mode=nosync  timeout=23:50:00

fix 		1 all shake 1e-6 200 0 b 1 a 1
Finding SHAKE clusters ...
       0 = # of size 2 clusters
       0 = # of size 3 clusters
       0 = # of size 4 clusters
     288 = # of frozen angles
  find clusters CPU = 0.001 seconds
fix             2 all nph aniso ${pressure} ${pressure} ${pressureDamp}
fix             2 all nph aniso 1633.1 ${pressure} ${pressureDamp}
fix             2 all nph aniso 1633.1 1633.1 ${pressureDamp}
fix             2 all nph aniso 1633.1 1633.1 1000
fix             3 all temp/csvr ${temperature} ${temperature} ${tempDamp} ${seed}
fix             3 all temp/csvr 212.72 ${temperature} ${tempDamp} ${seed}
fix             3 all temp/csvr 212.72 212.72 ${tempDamp} ${seed}
fix             3 all temp/csvr 212.72 212.72 100 ${seed}
fix             3 all temp/csvr 212.72 212.72 100 745823


run             250000
PPPM initialization ...
  extracting TIP4P info from pair style
  using 12-bit tables for long-range coulomb (../kspace.cpp:340)
  G vector (1/distance) = 0.37131562
  grid = 24 27 25
  stencil order = 5
  estimated absolute RMS force accuracy = 0.0032097664
  estimated relative force accuracy = 9.6661161e-06
  using double precision FFTW3
  3d grid and FFT values/proc = 4410 672
Last active /omp style is kspace_style pppm/tip4p/omp
Neighbor list info ...
  update every 1 steps, delay 7 steps, check yes
  max neighbors/atom: 2000, page size: 100000
  master list distance cutoff = 10.8154
  ghost atom cutoff = 10.8154
  binsize = 5.4077, bins = 4 5 5
  1 neighbor lists, perpetual/occasional/extra = 1 0 0
  (1) pair lj/cut/tip4p/long/omp, perpetual
      attributes: half, newton on, omp
      pair build: half/bin/newton/omp
      stencil: half/bin/3d
      bin: standard
Setting up Verlet run ...
  Unit style    : real
  Current step  : 8250000
  Time step     : 2
  Walltime left : 23:49:59.93
Per MPI rank memory allocation (min/avg/max) = 10.19 | 10.21 | 10.23 Mbytes
Step Temp PotEng TotEng E_pair E_mol Press Lx Ly Lz Volume Pxx Pyy Pzz Pxy Pxz Pyz Enthalpy 
 8250000    219.27637    -4315.796   -3939.9638    -4315.796            0     558.6442    17.991172    23.423772    22.220989    9364.3939    190.18506    1001.3371    484.41046   -95.089217    210.51096    1170.2715   -3863.6697 
 8251000     216.3073   -4336.8404   -3966.0971   -4336.8404            0    1947.2712      18.1984    23.363028    21.768913    9255.4828    1215.0699    3210.4773    1416.2665    685.64471   -368.55027    563.68474   -3703.2511 
 8252000    202.99105   -4318.4837    -3970.564   -4318.4837            0    1676.3453    17.823619    23.528722    22.219361    9318.0662    3049.7018    689.60047    1289.7335    83.269468    165.86693   -89.907198    -3742.758 
 8253000     219.5309    -4349.735   -3973.4665    -4349.735            0     2171.143    18.021525    23.528014    21.854034    9266.3439    1671.6399     2329.635    2512.1541    309.42536    236.79686    454.63999    -3680.058 
 8254000    204.52439    -4359.813   -4009.2651    -4359.813            0    964.12143    18.075707    23.297496    22.188518    9344.0004    1086.5403    980.72006    825.10396   -10.385921   -52.892638    274.60173   -3877.8817 
 8255000     215.1525   -4329.3314   -3960.5674   -4329.3314            0    1962.0765    18.205606    23.307249    21.875073    9282.0875    1762.2068    2081.8661    2042.1566    17.902835   -162.49997   -340.26668   -3694.9616 
 8256000    219.59286    -4332.338   -3955.9634    -4332.338            0    2038.0055    17.882655    23.445355    22.114912    9272.0129    1860.6192    2306.8433    1946.5541   -946.67203   -532.74919    544.06429   -3680.3786 
 8257000    228.72256   -4360.5447    -3968.522   -4360.5447            0    705.62342    18.074465    23.517174    22.026066     9362.407   -212.63535    151.96273    2177.5429   -790.45305    428.53346   -76.530561   -3872.1754 
 8258000    215.81214    -4328.075   -3958.1804    -4328.075            0    1226.6205    18.025461    23.247667    22.304575    9346.7306    1233.0246    2934.5758   -487.73883    344.33207    242.06757    430.11496   -3790.9767 
 8259000    225.66807   -4330.4278   -3943.6405   -4330.4278            0    1491.2871    18.262712    23.419718    21.882126    9359.1509    1359.4978    974.47027    2139.8932   -1394.8811   -434.57275    334.59111   -3740.0893 
 8260000     216.4047   -4336.3948   -3965.4845   -4336.3948            0    945.05438    17.966311    23.305377    22.251507     9316.965    1451.7107    1602.8518   -219.39935    201.91935    372.97888    711.13052   -3837.0721 
 8261000    210.04069   -4332.0429   -3972.0403   -4332.0429            0     2559.174    17.916043     23.62559    21.965441    9297.4676    3142.5642    3103.7852    1431.1726   -299.67743     844.2223   -161.67036   -3625.0316 
 8262000     221.7437   -4316.7276   -3936.6665   -4316.7276            0    1045.6092    18.069092    23.257183    22.205536    9331.5696     870.9097    1586.2136    679.70426   -475.27472    147.20818   -201.22824   -3794.3681 
 8263000    217.24396   -4317.5916   -3945.2429   -4317.5916            0    1670.7314    18.297962    23.121124    21.903054     9266.513    1307.0876     3416.334    288.77256   -294.33419   -213.39995    818.35589    -3719.456 
 8264000    218.63406   -4358.7518   -3984.0205   -4358.7518            0    3028.6546    17.903472    23.444803    22.064818    9261.5611    4192.9123    2874.8482    2018.2033   -548.39796   -852.04204    225.94546    -3574.939 
 8265000    202.23918   -4317.4914   -3970.8604   -4317.4914            0    1442.7904    17.922457    23.465609    22.157027    9318.3894     1724.652    1175.4752    1428.2439   -217.55917    463.65121    90.771705   -3774.7864 
 8266000    206.91019   -4317.5748   -3962.9378   -4317.5748            0    1572.1729     18.26143    23.164577    21.985678    9300.3443    840.00359    1571.2576    2305.2574   -1248.8323   -293.68521    126.74355   -3749.6946 
 8267000    223.00572   -4352.6037   -3970.3795   -4352.6037            0    2123.0597    17.969678    23.412149    22.105706    9300.0646    1857.5935    1392.0563    3119.5293    2.0658694    93.061226    38.520675   -3682.4249 
 8268000    206.80434   -4350.8573   -3996.4017   -4350.8573            0    2428.5196    17.903778    23.692903    21.885866    9283.8197    2789.9196    2138.6473    2356.9918     -1247.14   -806.36884    521.40002   -3667.5923 
 8269000    206.73928   -4330.4157   -3976.0717   -4330.4157            0    1682.0231     18.06465    23.374254    22.094107    9329.1862    1364.5504    1941.8254    1739.6937     42.57833   -205.88872   -711.63216   -3747.2213 
 8270000     201.3548   -4330.2503   -3985.1351   -4330.2503            0    1654.6076    18.196774    23.227698    22.048725    9319.3159    1129.4485    3016.1865    818.18778   -682.50741    95.377796    530.58452   -3760.2529 
 8271000    205.99578   -4336.4775   -3983.4078   -4336.4775            0    2356.4894    17.774531    23.777534    21.960961    9281.4602    3498.5865    850.39944    2720.4821    112.19683   -478.96112    1493.5063    -3664.432 
 8272000    219.19803   -4328.8059   -3953.1079   -4328.8059            0    3251.8062    17.923349    23.466581    21.970804    9240.9136    3007.5509    2679.3096     4068.558   -513.05099    75.288387    399.06732   -3514.8645 
 8273000    206.34108   -4339.6163   -3985.9547   -4339.6163            0    3248.0204     18.22642    23.000097    22.027386    9234.0875    1972.2027    3652.4938    4119.3646   -1025.5377   -442.03556   -478.19175   -3548.5448 
 8274000    219.71367   -4300.2761   -3923.6944   -4300.2761            0    1842.4451    17.939487    23.443024    22.098814    9293.7853    1797.4719    1738.1017    1991.7618   -1361.9623    60.962391   -265.84049   -3673.9688 
 8275000    215.45916   -4334.7661   -3965.4765   -4334.7661            0    1644.5154       17.946    23.464402    22.042337    9281.8554    1965.7072    35.937933     2931.901    493.12211   -151.24535   -343.09605   -3742.8645 
 8276000    213.23793   -4308.9464   -3943.4639   -4308.9464            0    3134.5702    18.124633    23.162705    22.021949    9245.1562    3742.8495    2722.4352    2938.4261    -950.8594    617.66676   -429.31936   -3520.8263 
 8277000    216.57061    -4322.082   -3950.8874    -4322.082            0    1743.0565    17.860375    23.744904    21.946376    9307.3023     2322.509    798.67619    2107.9844   -41.335854     219.6622    216.53137   -3714.2894 
 8278000    208.59935   -4340.0987   -3982.5666   -4340.0987            0    3162.9495    18.061982    23.354761    21.953679    9260.7923     1983.074    4254.3244    3251.4503    448.60696   -508.32795    427.68398   -3555.3813 
 8279000    201.11381   -4344.2275   -3999.5253   -4344.2275            0    1885.4166    18.116006    23.248726    22.158325    9332.5114    461.90955    2250.4748    2943.8655    494.90596   -31.391293   -309.61403   -3742.9105 
 8280000    215.26509    -4324.217     -3955.26    -4324.217            0    1664.7342    17.890552    23.684099    22.001142    9322.3592    1660.3263    1071.4688    2262.4075    -577.2048   -247.56342    260.27963   -3728.9277 
 8281000    215.99933   -4312.6959   -3942.4804   -4312.6959            0    2463.8524    18.176551    23.319032    22.006771    9327.7805    2328.2046    1451.1336    3612.2189    -269.2658   -53.437857    394.37201   -3607.3075 
 8282000    210.01555   -4316.0881   -3956.1287   -4316.0881            0    1414.4049     18.13328    23.241114    22.109072    9317.5949    1154.7293    1455.9775     1632.508     867.7582    9.1464902   -602.74386   -3763.9286 
 8283000    211.81997   -4328.4314   -3965.3792   -4328.4314            0    884.52161     17.89286    23.744194    22.036903    9362.4118    281.18198    1300.7041    1071.6787   -64.347617   -552.08863    22.082015   -3844.6056 
 8284000    202.25359   -4346.5738   -3999.9181   -4346.5738            0    1438.3785    18.060175    23.392345    22.028011    9306.1704    1017.0432    1429.8101    1868.2823   -723.48341   -45.001331   -26.863609      -3804.7 
 8285000    209.69578   -4363.0228   -4003.6115   -4363.0228            0    1760.3254    18.089348    23.151632    22.157661    9279.5826    2768.0023    1704.5426    808.43134   -30.044733   -236.65677   -287.89875    -3765.381 
 8286000    207.54542   -4339.2898   -3983.5641   -4339.2898            0    582.82284    17.958587    23.759061    21.880563    9335.9799    1805.9672   -269.26126    211.76252    -45.18532    446.12417   -236.46444   -3904.2094 
 8287000    216.44119   -4337.7453   -3966.7725   -4337.7453            0    261.33054    18.032632    23.475282     22.08024     9347.032    360.00135   -870.97691    1294.9672    400.57641    446.00488    72.223246   -3931.1488 
 8288000    209.64073   -4333.0412   -3973.7242   -4333.0412            0    971.24326    18.066575    23.513497    22.078863    9379.2855    572.86271    1265.5881     1075.279    294.07496    249.91836    619.16472   -3840.8705 
 8289000    212.48609   -4329.4945   -3965.3006   -4329.4945            0    2689.7575    17.805019    23.488544    22.075755    9232.3892    3945.9657    1448.1178    2675.1891    30.006888   -38.542776    681.76747   -3603.1384 
 8290000    211.60607   -4343.6196   -3980.9341   -4343.6196            0    1653.0104    18.112171    23.212989    22.099722    9291.5546    2437.2669    1818.4556     703.3086    475.86479    623.11329    243.10344   -3756.9383 
 8291000    202.35263   -4323.4701   -3976.6446   -4323.4701            0    1674.0017    17.931088    23.698447    21.913382    9311.8492    1923.0525    1458.0249    1640.9277    1262.5162   -832.16582    103.18094   -3749.3088 
 8292000    224.86833   -4357.6244   -3972.2077   -4357.6244            0    1436.6051    17.936781     23.42807    22.096399    9285.4406    2065.9875     184.5095    2059.3182   -686.01207    74.076247    31.062615   -3777.6647 
 8293000    213.00989   -4328.7045   -3963.6128   -4328.7045            0    1165.6164     18.06055    23.440622    22.115265    9362.5089    2269.2222    1120.4955    107.13161    323.89175   -286.44671    706.54106   -3804.4566 
 8294000    212.98701   -4330.1582   -3965.1057   -4330.1582            0    1331.6694     18.14658    23.342633    22.035146    9333.8443    1025.9052     2166.866    802.23708    336.78632    849.73933   -194.69257   -3783.8328 
 8295000    195.46716   -4346.7923   -4011.7683   -4346.7923            0    1858.2765    17.948287    23.556838    22.013369    9307.3599    2373.3771    889.70126    2311.7511   -82.902994   -300.27805   -295.76996    -3759.529 
 8296000    225.61133   -4343.4026   -3956.7125   -4343.4026            0   -5.1688668    18.013061    23.590282     22.11882    9399.0206   -1071.4372    546.64077    509.28982   -274.63736   -37.746202    770.97076   -3957.4211 
 8297000    203.24167   -4334.3215   -3985.9723   -4334.3215            0    1817.9441    18.100674    23.421264    22.011289    9331.4802     1541.943    2912.9584    998.93094   -413.73885   -251.26014   -555.58924   -3738.5681 
 8298000    207.25704   -4323.4221   -3968.1906   -4323.4221            0     519.3132    17.996997    23.517229    22.168563    9382.6115    1168.4289    981.03011   -591.51943    230.36631   -131.59794    439.92675     -3897.13 
 8299000    209.74435    -4316.816   -3957.3214    -4316.816            0    1368.7035     18.18695    23.478848    21.983206    9387.0189    1788.1299    1548.7699    769.21087    153.00417    548.90144   -553.51971   -3769.9458 
 8300000    205.78684   -4333.3767   -3980.6651   -4333.3767            0     1524.731    18.059275    23.299394    22.158709    9323.7237    1556.5756    2636.7485    380.86889   -137.44606   -1243.9272   -16.273992   -3773.3368 
 8301000     218.9365   -4333.3997     -3958.15   -4333.3997            0    816.57926    18.047032    23.544865    22.036234     9363.525    789.09486    1240.8697     419.7732    306.97761    56.530985    340.19346     -3846.64 
 8302000    212.39668   -4342.4896    -3978.449   -4342.4896            0    1726.7014    18.143654    23.189595    22.140764    9315.5932    1121.7155      2706.84    1351.5486    670.71581    57.105138    533.68286   -3743.8621 
 8303000    213.59445   -4351.1476    -3985.054   -4351.1476            0    1380.2865    18.172732    23.272886    22.032589    9318.2855   -45.677487     1348.464    2838.0732   -788.83954   -256.57448    216.15194   -3797.4763 
 8304000    223.69338   -4339.2296   -3955.8268   -4339.2296            0    1879.0325    17.991984    23.453301    21.998493     9282.735    1941.5841    2233.4064     1462.107   -154.36546    167.38655    420.96231    -3701.445 
 8305000    213.61939   -4334.9807   -3968.8444   -4334.9807            0    3848.7292    18.002095    23.366425      21.8632    9196.6372    3793.9427    4292.8663    3459.3787    186.01671   -606.74121   -113.04874   -3452.6393 
 8306000    213.77738   -4307.8403   -3941.4332   -4307.8403            0    858.90741    18.044805    23.474605    22.050099    9340.3045    457.60118    904.77521    1214.3458    951.29988   -285.00291    483.69833   -3824.4339 
 8307000    216.99973   -4338.0502   -3966.1201   -4338.0502            0    2078.3771    18.038775    23.237752    22.071068     9251.763    2882.8642    1679.1133    1673.1539    579.31714    -660.8176   -167.70181   -3685.6899 
 8308000    205.06916   -4320.6032   -3969.1216   -4320.6032            0    2002.2921    17.868765    23.488573    22.103959    9277.2925    1998.7694    2453.8728    1554.2343    125.41997    802.42827    142.78923   -3698.2119 
 8309000    212.12051   -4331.3523    -3967.785   -4331.3523            0    1897.7932    18.055305    23.451842    21.952492    9295.3474     972.2843    2156.0691    2565.0263   -1194.0627   -355.20409    863.99073   -3710.5142 
 8310000    204.99455   -4357.7569   -4006.4032   -4357.7569            0    1661.9911    18.220395    23.145049    22.084638    9313.3556   -329.32585    2375.4298    2939.8693   -194.02685   -654.22549    587.66783   -3780.6621 
 8311000    210.58105   -4337.3987   -3976.4699   -4337.3987            0    1117.5582    18.063194    23.578418    21.958001    9351.9465    1521.9841    1169.1379    661.55271   -200.27652     336.2342   -178.47683   -3824.0478 
 8312000    213.15611    -4325.734   -3960.3918    -4325.734            0    1840.1625     17.93366    23.356033    22.238718    9314.8907    1706.7824    2604.2686    1209.4366    779.83788   -281.13691    709.75146   -3710.4091 
 8313000    225.62066   -4324.8477   -3938.1416   -4324.8477            0    1889.2338    18.255153    23.283846    21.933326    9322.7642    842.55308    3351.1235    1474.0249   -702.26255   -886.13297   -931.05681   -3681.2758 
 8314000    209.25247   -4328.3395   -3969.6879   -4328.3395            0    1554.8259    17.713141     23.68263     22.21912    9320.7817    2305.3783   -269.44483    2628.5442   -24.781899    350.24611    280.95268   -3758.3342 
 8315000    221.26814   -4373.0098   -3993.7637   -4373.0098            0    2029.1956    18.044755    23.476618    21.884211    9270.8042    1431.3211    2134.1791    2522.0867   -242.67318    335.49861   -85.767881    -3719.406 
 8316000    224.13303   -4331.2304   -3947.0741   -4331.2304            0    1414.8471    18.092543    23.218219    22.237662    9341.5221    1177.1071    2530.2026    537.23171     253.3982   -102.62668    309.80159   -3754.3203 
 8317000    205.55702   -4350.6518   -3998.3342   -4350.6518            0    1708.6177    18.041238    23.550704    21.819768    9270.8672    1909.5385    690.39609    2525.9185     377.5711   -520.20659    341.04787   -3767.3186 
 8318000    212.14495   -4339.9719   -3976.3628   -4339.9719            0    712.52516      17.8636    23.549106    22.310669    9385.4693    1621.0763     947.1491    -430.6499   -396.40903   -468.59974    -349.8855   -3878.8341 
 8319000    201.86401   -4356.0121   -4010.0241   -4356.0121            0    546.26583    18.155516    23.425309    21.963729    9341.1425    1074.1139    2013.6726    -1448.989    249.42456   -97.179425     594.1608   -3935.6058 
 8320000    206.76077   -4320.4201   -3966.0392   -4320.4201            0    4130.3826    17.982351    23.156645    22.009693    9165.0765    3775.9634    4821.4471    3793.7374   -17.098426    442.74288   -470.74877   -3413.9589 
 8321000    205.46907   -4330.2498   -3978.0828   -4330.2498            0    827.38412    18.058053     23.54986     22.03491    9370.6674    1147.4499    985.93472    348.76774    524.78279    483.93123    -6.610821   -3865.0112 
 8322000    227.94962   -4316.4127   -3925.7148   -4316.4127            0    2276.3238    17.920009    23.428008    22.153307    9300.6256     2233.039    3609.1227    986.80979   -411.25207    -812.8975    79.720824   -3616.9541 
 8323000      204.035   -4343.7274   -3994.0184   -4343.7274            0    1187.3924    18.151772     23.39467    21.965628    9327.8072    1714.5628    1371.3828    476.23145   -772.95218    610.63989   -24.189522   -3832.4897 
 8324000    219.70391   -4353.9814   -3977.4164   -4353.9814            0    2809.6953    18.058969    23.259225    22.034785    9255.4386    2218.2828    3190.6282     3020.175   -759.85896    -261.2663    379.03593   -3598.1607 
 8325000    207.36207    -4333.306   -3977.8945    -4333.306            0    869.55053    17.958161      23.5761    22.061183    9340.3382    1601.8401     1790.448    -783.6365    30.545149   -397.46577   -150.44178    -3859.445 
 8326000    209.70949   -4342.8844   -3983.4495   -4342.8844            0    1704.3414    18.024911    23.458706    22.069211    9331.7689    2123.0158    1979.0598    1010.9485   -1070.4357    163.07048    313.26425   -3751.4984 
 8327000    208.44305   -4349.8485   -3992.5842   -4349.8485            0    1672.9683    18.067942    23.421173    21.991952    9306.3872    1577.7219    713.79259    2727.3903    418.11312   -882.83686    50.761381   -3765.5221 
 8328000    229.12627   -4328.1414   -3935.4268   -4328.1414            0    1388.7596    18.029749    23.442361    22.085239    9334.5445    328.56882    1952.4636    1885.2463   -276.95155    272.57508   -67.179864   -3746.3684 
 8329000    209.92727   -4337.4351    -3977.627   -4337.4351            0   -80.295917    18.214022    23.590331    21.915207    9416.4126   -1476.9211    657.99283    578.04051   -526.51829     227.6409    148.40975   -3988.6539 
 8330000    223.18489   -4331.1738   -3948.6425   -4331.1738            0    2875.3813    17.938314    23.512895    22.035615    9294.2187    4465.6902    1536.3619    2624.0918   -1120.0915   -1188.9541   -208.31553   -3558.8942 
 8331000     209.0543   -4325.7354   -3967.4235   -4325.7354            0    1298.7179    17.993852    23.493509    22.050771    9321.7149    1373.8424    2162.9696     359.3416   -1206.2182    232.45337   -204.88946   -3790.8658 
 8332000    215.94686   -4365.4175    -3995.292   -4365.4175            0    365.53768    18.046484    23.333765    22.264299    9375.3271    1227.2618    -462.6217     331.9729    116.61352   -128.23767     231.8087   -3945.3122 
 8333000    202.42372   -4340.3854    -3993.438   -4340.3854            0    1053.4405     18.14796    23.413782    21.907673    9308.8415    525.87156    888.82345    1745.6264   -552.60136   -445.61752   -96.475226    -3850.423 
 8334000    222.95392   -4321.9066   -3939.7712   -4321.9066            0    1402.0959    17.885864    23.506063    22.141774     9308.983     1131.768    1479.0601    1595.4595    345.65642   -310.29618    611.45083   -3749.4199 
 8335000    210.06982   -4334.6434   -3974.5909   -4334.6434            0    733.09081    18.134378    23.379203    22.070187    9357.0376    197.18711    1478.7793    523.30606    110.70507   -554.15162   -96.728687   -3874.5513 
 8336000    205.94289    -4320.736   -3967.7569    -4320.736            0    1536.7833    18.089935    23.309974    22.139032    9335.4965    1912.7494    1323.0594     1374.541    339.04816   -408.41842     519.1975    -3758.526 
 8337000    209.42817   -4344.8652   -3985.9125   -4344.8652            0    1961.8293    17.935341    23.648105    21.909919    9292.8032    1358.4524    2080.7455      2446.29    -105.6437    687.43116   -235.77964   -3720.0336 
 8338000    219.34004   -4316.8419   -3940.9006   -4316.8419            0    3882.4576    17.959404    23.274815    21.981018    9188.1053     3779.162    4121.7096    3746.5012   -1439.8361   -57.565572     244.7336   -3420.6548 
 8339000    204.98584   -4350.1657    -3998.827   -4350.1657            0    1727.1893    18.075277    23.447746    21.846523    9259.0919    3174.0513      580.967    1426.5496   -838.43531   -14.317878    566.83293   -3765.5971 
 8340000    206.98656   -4325.3531   -3970.5852   -4325.3531            0    893.22824    17.988274    23.424388    22.242612    9372.2431    1370.2825     1383.504   -74.101766   -324.57028   -666.92432   -697.45006   -3848.4947 
 8341000    209.77877   -4358.4614   -3998.9078   -4358.4614            0    1477.7566    18.240426    23.408904    21.813142     9313.958    166.42231    2191.9382    2074.9094    78.358896   -604.20182    283.15693   -3798.1774 
 8342000    226.67312   -4348.3668   -3959.8569   -4348.3668            0    1726.1378     17.96794    23.393217     22.15084    9310.6165    1755.2639    1506.3308    1916.8187    204.61334    647.17253    322.61103   -3725.4719 
 8343000    203.42648   -4340.3456   -3991.6796   -4340.3456            0    2851.3089    18.133437    23.630629    21.622786    9265.4615    1854.0917    2770.8394    3928.9956     -519.264    741.09337    216.65657     -3606.39 
 8344000    206.36036   -4332.0582   -3978.3636   -4332.0582            0    1096.6717    18.070327    23.313887    22.191454    9349.0275    1142.7948    804.30829    1342.9119    28.674716    423.11886   -159.41949   -3828.8368 
 8345000    202.83476   -4335.1755   -3987.5236   -4335.1755            0    1982.5636    18.008896    23.513777    21.927759    9285.4667    2462.9528    2322.7181    1162.0198   -638.51738    794.90039   -55.509425   -3719.0468 
 8346000    218.12919   -4332.6037   -3958.7377   -4332.6037            0    1537.2948     18.06776    23.243691    22.210248    9327.4477    33.022915    1418.4437    3160.4176   -542.67462   -337.71613   -285.56493   -3749.6175 
 8347000    216.08899   -4337.1524   -3966.7833   -4337.1524            0    664.70172     18.27988     23.33899    21.884977    9336.8741    15.737992    1486.9365    491.43066    1122.5737    187.07821    589.09713   -3876.2717 
 8348000    215.71676   -4373.8873   -4004.1562   -4373.8873            0    2443.0044    17.863171    23.391007    22.150743    9255.4126    2440.6819    3419.1046    1469.2266    -97.80747   -752.44762   -146.56606   -3674.3977 
 8349000    224.38645   -4350.1685   -3965.5778   -4350.1685            0    2060.0724    18.032994    23.486331    21.865614    9260.7183    2466.4911    1188.6233    2525.1028    1226.6563    208.09423    277.40604   -3687.3484 
 8350000    224.60818   -4376.6668   -3991.6961   -4376.6668            0    1730.1068    17.967625    23.316798    22.210114    9304.8711    876.70378    1147.1416    3166.4749      188.902   -40.217919   -162.46551   -3756.9171 
 8351000    199.77662   -4343.6114   -4001.2011   -4343.6114            0    3088.5315    18.099795    23.539875    21.713161    9251.2595     3906.165    1787.4168    3572.0126    726.69625    498.85067    498.24941    -3584.496 
 8352000    211.62012   -4324.2188   -3961.5091   -4324.2188            0    1972.9889    17.971599    23.231433    22.261983    9294.5112    1419.2286    1506.5645    2993.1735   -49.633958   -56.977348     283.3749   -3694.0687 
 8353000    220.06933   -4337.2606   -3960.0693   -4337.2606            0    1018.5878    18.101055    23.729166    21.750728     9342.437    95.210778    -973.7411    3934.2937    310.97256     131.8922    640.53971   -3821.2869 
 8354000    215.90278   -4338.4433   -3968.3933   -4338.4433            0    2215.4381     17.98037    23.184353    22.252334    9276.1803      1644.23    2609.5189    2392.5654   -203.35061   -1015.9179   -200.36709   -3668.6809 
 8355000    211.59324   -4318.6458   -3955.9822   -4318.6458            0    1263.3939    18.174644      23.4628    21.917398    9346.1929    2189.9251    571.94583    1028.3108   -627.25547    310.15102    42.386422   -3783.7758 
 8356000    202.79378    -4344.681   -3997.0994    -4344.681            0    1750.2391    17.799285    23.539461    22.183907    9294.7371      1430.18    1449.3101    2371.2272    346.11204    329.34506    733.52583   -3759.8471 
 8357000    217.74315   -4365.5589   -3992.3546   -4365.5589            0    2057.1456    18.076868    23.485569    21.864603    9282.5199    1402.9427    2524.3296    2244.1645    530.34738    246.75385    396.05417   -3713.8664 
 8358000    211.28421   -4335.9412   -3973.8073   -4335.9412            0    833.50671    18.042901    23.178266    22.347386    9345.7473    1013.0956    895.36249    592.06203    4.8133661    284.27302    484.12741   -3860.2019 
 8359000    215.10607   -4353.1735   -3984.4891   -4353.1735            0     1501.517    18.119144    23.387767    21.983872    9316.0248    1931.7006    605.12718    1967.7231    131.47516    974.62474   -228.29906    -3780.486 
 8360000    205.66456   -4333.2341    -3980.732   -4333.2341            0    913.55894    18.002435    23.435977    22.104411     9325.954    697.68559    1195.0701    847.92119    769.84579   -152.37342    81.954074   -3856.4794 
 8361000     208.5323   -4321.3383   -3963.9211   -4321.3383            0    1239.8102    17.921302    23.798113    21.913365    9345.9007    2380.0765    1449.0561    -109.7021    577.27702   -693.24074    -206.1062   -3794.9345 
 8362000     215.7625   -4344.5567   -3974.7471   -4344.5567            0    1110.7518    18.276123    23.167274    22.011738    9319.9451    6.4861323    886.35689    2439.4122   -730.86674    336.33607    295.71443   -3823.7717 
 8363000    208.46067   -4334.2788   -3976.9844   -4334.2788            0    1022.4885    18.058069    23.400651    22.152931    9361.1771    1615.4168    1381.8148    70.233822    617.20726   -191.84588   -158.17878    -3837.391 
 8364000    226.68294   -4328.2467   -3939.7199   -4328.2467            0    1041.4743    17.929952    23.672146    21.899529    9295.0457    3213.3423    313.89197   -402.81143     711.3251   -242.18549   -369.23864    -3798.539 
 8365000    219.72113   -4329.7634   -3953.1689   -4329.7634            0    1086.5394    18.080802    23.274919    22.249714    9363.3291   -446.05643    2407.7404    1297.9342   -598.44461   -567.20738     405.4422    -3804.797 
 8366000    208.92991   -4343.7899   -3985.6912   -4343.7899            0    1847.4534    18.138498    23.285591    21.972459    9280.4119    1450.5493    1735.6547    2356.1561   -513.23263    -906.4325   -69.737644   -3735.6471 
 8367000    205.86859   -4353.3714   -4000.5197   -4353.3714            0    2053.8055    17.895539    23.446468    22.122551    9282.3389    1618.3439    2519.2149    2023.8576   -965.74247    211.28367    215.09212   -3722.4891 
 8368000    209.26994    -4355.504   -3996.8225    -4355.504            0    299.44432    18.152205    23.399683    21.980276     9336.251    48.081602   -612.96902    1463.2204    -637.6962   -22.872235    1016.9249   -3956.0503 
 8369000    217.16969   -4335.6456   -3963.4241   -4335.6456            0    2131.3626    18.067158    23.286232    22.092476    9294.6585    3155.8352    1340.8886     1897.364    172.39173    159.04305   -1501.5426   -3674.5114 
 8370000    206.00761   -4340.2004   -3987.1104   -4340.2004            0    1857.8709    17.911904    23.720925     21.89693    9303.7195    2042.7231     55.20038    3475.6892   -18.624582   -262.91872    768.91251   -3735.0248 
 8371000    206.55854   -4342.9396   -3988.9054   -4342.9396            0    1913.3534    17.956097    23.372379    22.239396    9333.3567    1582.8708    1513.9187    2643.2707   -307.54528   -267.02516   -277.63811   -3728.4646 
 8372000    225.39265   -4334.3501   -3948.0348   -4334.3501            0    1650.9552    18.264291    23.270589    21.845939    9284.9786    2268.0954    857.91008    1826.8601   -540.40798    257.28213    451.06868   -3724.4758 
 8373000    205.70933   -4359.3052   -4006.7264   -4359.3052            0     1411.718    17.915775    23.520635    22.179593     9346.268    2586.6487    2155.8478   -507.34255   -590.96314   -156.10841   -440.97703   -3814.3012 
 8374000    226.80476   -4345.1229   -3956.3873   -4345.1229            0    1911.1318    18.021106    23.527907    21.951056     9307.224     3615.774      2156.36   -38.738443   -149.42657    370.05817   -158.91702   -3696.9773 
 8375000    224.36294   -4329.3905   -3944.8401   -4329.3905            0    951.43021    18.105525    23.334472    22.174332    9368.2751    1963.8483    1524.1107    -633.6683   -226.92624    345.28492     991.0247   -3814.8493 
 8376000    214.24264   -4337.8188   -3970.6142   -4337.8188            0    3413.4812    17.940796    23.317354    21.965222    9188.7529    3220.6379    3960.0717    3059.7338     536.7964    413.12555    797.68035   -3513.1786 
 8377000    211.45169   -4330.5234   -3968.1025   -4330.5234            0    747.25746    17.998814    23.690229    21.901219    9338.5928    -48.24114    68.831751    2221.1818    289.65115   -233.18888    386.04223   -3866.3306 
 8378000    209.67279   -4326.2183   -3966.8463   -4326.2183            0    1835.8073    18.120318    23.238382      22.0657    9291.5768    960.93513    2253.3421    2293.1449    197.14309    212.33779    502.93801   -3718.0796 
 8379000    225.29076   -4334.8579   -3948.7173   -4334.8579            0    2374.3828    18.030055    23.442944    22.009659    9302.9889      2173.14    1934.0635     3015.945    -581.0196   -30.052154    464.42611    -3626.574 
 8380000    210.58793   -4354.3074   -3993.3669   -4354.3074            0    301.39724    18.084023    23.500913    22.061816    9376.0743     919.7528   -1005.8787    990.31758   -799.65487    192.50365  -0.84010447   -3952.1537 
 8381000    206.55518   -4353.7916   -3999.7631   -4353.7916            0    1166.3421    18.150328    23.321472    22.082963    9347.5498    61.816535    2137.8071    1299.4028   -850.68076    380.66426   -162.07463   -3840.7622 
 8382000     216.1909   -4317.3926   -3946.8488   -4317.3926            0    3087.6637    17.865618    23.550106    21.995972    9254.5235    4583.6097     2614.627    2064.7544   -140.49461   -172.64999   -148.18319   -3530.1138 
 8383000    206.52715   -4334.0382   -3980.0577   -4334.0382            0     1996.708    17.901953    23.544711    21.968637    9259.6992    2589.7229    1890.3811    1510.0199    103.84557   -236.01964    58.438999   -3710.4158 
 8384000    200.65267   -4340.5718     -3996.66   -4340.5718            0    1275.5351    18.150522    23.254771    22.106389    9330.8028    323.85273    1883.8304    1618.9223    212.44395   -475.01156   -675.06431    -3823.085 
 8385000    199.46826   -4351.8666   -4009.9848   -4351.8666            0    1381.3855    18.107944     23.38485    21.963547    9300.4984     1332.769    531.23701    2280.1504    83.174314    296.87539   -626.29219   -3822.6161 
 8386000    210.07929   -4332.7951   -3972.7264   -4332.7951            0    1537.6174     17.82208    23.753949    22.011078    9318.2745    2413.6396    397.21629    1801.9964    -1186.392   -1371.3308     487.7716   -3763.7681 
 8387000    199.88539   -4329.1702   -3986.5735   -4329.1702            0    1724.3416    18.100409    23.387331    21.960741    9296.4262    714.90916    2135.9946     2322.121   -102.10453    332.60135    102.68061   -3752.7893 
 8388000    211.10171   -4334.3921    -3972.571   -4334.3921            0    1627.2114    18.173532    23.106997    22.176846    9312.8504    1162.4714     3139.424    579.73872    452.41907    677.15082   -63.395867   -3751.5658 
 8389000    199.22429   -4360.0604   -4018.5968   -4360.0604            0    309.55931    18.035951    23.598343    21.990752    9359.6723   -97.783769    695.41329     331.0484   -239.52242    14.604328   -182.16567   -3976.3416 
 8390000    214.56606   -4340.2938   -3972.5349   -4340.2938            0    1474.6643    17.975187    23.459717    21.992555    9274.1019    939.55868    2031.6777    1452.7565    1049.5916    373.46686    237.72517   -3773.0818 
 8391000    206.64137   -4351.8548   -3997.6785   -4351.8548            0    2576.6032    18.354624    22.873012    21.945923    9213.4593    1737.4176    3506.6528    2485.7392   -631.02568   -304.69644   -342.30726   -3651.4633 
 8392000    210.37354    -4352.815    -3992.242    -4352.815            0    598.54325    17.983151    23.498538    22.239776    9398.0347    1047.7039   -219.72582    967.65169    968.62041    186.63853    569.48352   -3910.2052 
 8393000    200.98473   -4333.4897   -3989.0087   -4333.4897            0    2322.7332    17.964668     23.49181    22.017911    9292.0553    2466.8807    2718.8685    1782.4503   -800.29831   -635.41705    154.24347   -3674.2433 
 8394000    213.45489    -4348.297   -3982.4427    -4348.297            0    1433.7363    18.242516    23.294211    21.978086    9339.4779   -360.56738    1098.5076    3563.2687    -535.6342     587.3532  -0.29002977   -3787.1582 
 8395000    218.75724   -4324.4182   -3949.4758   -4324.4182            0    1824.1897    18.169918    23.196489    22.117036    9321.8507    1254.2006    3903.1422    315.22638    17.251841   -43.540875   -175.09537   -3701.4778 
 8396000    209.41549   -4345.5068   -3986.5758   -4345.5068            0    1333.5399     17.86488    23.837346    21.930312    9339.0524    1441.0824    2250.4399    309.09731   -598.80944    123.06474    439.43604    -3804.947 
 8397000    202.84298   -4352.9714   -4005.3055   -4352.9714            0    2051.4017    18.038289    23.408979    22.079686    9323.3224    2167.8025    2272.2572    1714.1454     -1368.65    282.43953     86.63134   -3726.3742 
 8398000    196.84371   -4341.9823   -4004.5989   -4341.9823            0    2160.5784    18.179455    23.289723    21.887699    9267.1308    1751.3215    2810.5773    1919.8365    602.36882     341.3643   -547.07079   -3712.5933 
 8399000    221.33535   -4315.2981   -3935.9369   -4315.2981            0    3145.1985    17.891411    23.412846    22.109781    9261.5407    3672.5561    3263.0294    2500.0101   -402.80108    589.57139    109.40665   -3511.1147 
 8400000    207.80542   -4333.8336   -3977.6622   -4333.8336            0    1931.5792    17.996354    23.521132    21.886206    9264.3132    2834.3304    2303.2306    657.17664     985.5923   -152.76048   -267.39685   -3716.6856 
 8401000    226.05038   -4344.5583   -3957.1157   -4344.5583            0     1104.583    17.916261    23.407132    22.309359    9355.8377    1800.5046    2029.6335   -516.38902   -536.15905   -102.65773   -40.921766   -3806.4005 
 8402000    209.19237   -4362.9092   -4004.3606   -4362.9092            0   -9.4704463    18.246679    23.457913    21.941874    9391.7584   -1049.1128    763.28267    257.41878   -466.77073   -100.05862   -290.13149   -4005.6578 
 8403000    218.68582   -4345.8359   -3971.0159   -4345.8359            0    3210.8827     18.03928    23.242444    22.102774    9267.1838    3555.1453    3184.5395    2892.9633    451.39253    1398.6522   -928.51318   -3537.0575 
 8404000    204.75379   -4346.2095   -3995.2685   -4346.2095            0   -65.262975    18.051418     23.74283    22.012743    9434.4797   -1110.1455   -981.51284    1895.8694    14.993992    470.77765    277.57297   -4004.2481 
 8405000    220.60965   -4362.4457   -3984.3283   -4362.4457            0    1339.4236    18.051783    23.444551    22.104391     9354.931    1129.1698    2099.8568    789.24414    543.27037     82.85283    215.33716    -3801.588 
 8406000    202.80814   -4360.6624   -4013.0562   -4360.6624            0    2471.9724    18.175239    23.221557    21.926139    9254.0878    1754.3503    3697.3355    1964.2312   -1496.3582   -627.57436   -117.01391   -3679.4354 
 8407000    205.84252   -4345.8336   -3993.0266   -4345.8336            0    649.63119    17.992486    23.495158    22.089238    9337.9224    423.04647    47.309943    1478.5372   -754.43722   -414.97844    683.34764   -3904.5572 
 8408000    200.64019   -4334.7125   -3990.8221   -4334.7125            0    1148.7597    18.063751    23.456001    22.119716     9372.198    1635.1112    407.85869    1403.3091   -1150.4866   -360.41007   -70.024959   -3833.8052 
 8409000    207.93582    -4334.565   -3978.1701    -4334.565            0    2593.9911    18.219529    23.116947    22.015177      9272.35    1814.3771    3383.5671     2584.029   -295.92654   -569.82716   -297.49882   -3627.3907 
 8410000    220.03785    -4332.621   -3955.4836    -4332.621            0    899.94929    18.023844    23.615986    22.042663    9382.4779    741.70744    1924.6917    33.448752    346.65712    988.11347   -829.20617   -3832.3401 
 8411000    203.40044    -4354.689   -4006.0676    -4354.689            0    2436.3409    17.859876    23.348764    22.175611    9247.3633    3553.8333    2976.0609    779.12857   -1003.4028   -496.51151   -40.764508   -3677.4946 
 8412000    213.30434   -4346.5842   -3980.9878   -4346.5842            0     1763.661     18.15704    23.373569    21.836256    9267.1939    767.08169    1874.2582     2649.643   -539.95831    73.399727   -105.58972   -3742.6246 
 8413000    212.40576   -4339.2194   -3975.1632   -4339.2194            0    1983.8662    17.771132    23.554241    22.214444    9298.6451    4159.7562    20.913271    1770.9292    22.265595    46.262721   -9.4896247   -3706.1287 
 8414000    208.25728   -4342.6094   -3985.6636   -4342.6094            0    1660.0499    18.121367    23.584905    21.772612    9305.4119    2779.8868    458.50861    1741.7542     -39.1871   -21.049547   -247.91689   -3760.3784 
 8415000    216.46216   -4344.8074   -3973.7987   -4344.8074            0    1885.9288      18.0185    23.204117    22.203806    9283.4863    2268.5006    1964.8447     1424.441    -259.9234   -180.86929   -223.09864   -3718.4625 
 8416000    218.56604    -4341.577   -3966.9623    -4341.577            0    1622.5657    18.069813    23.553436    21.888045    9315.6877    220.62869    1052.1859    3594.8826   -1184.5135    433.08085    745.52393    -3746.521 
 8417000    210.65641   -4358.6033   -3997.5454   -4358.6033            0    1631.1948    17.929262     23.20988    22.258125    9262.4075    332.87765    4374.4984    186.20835    -345.7716    28.732992   -303.10934   -3777.1992 
 8418000    222.32143    -4321.745   -3940.6936    -4321.745            0    2046.8028    18.195225    23.452068    21.826353    9313.6464    1731.2106    379.62937    4029.5685    1190.4134   -495.92998    1298.9569   -3662.6764 
 8419000    217.01827   -4325.7305   -3953.7686   -4325.7305            0    617.05639     17.87006     23.50332    22.300433    9366.3099    516.22201    1073.5296    261.41757     158.3245     82.42831    147.19699   -3869.4799 
 8420000    210.35083   -4330.5717   -3970.0375   -4330.5717            0    1769.5234    18.234524    23.490772    21.721842    9304.3998    1036.7415    2104.5151    2167.3136   -577.95516    99.632566     303.5595   -3729.9218 
 8421000    204.63264   -4331.3895   -3980.6561   -4331.3895            0    651.92968    18.097622    23.346229    22.117327    9344.8185    801.10103    1095.0346    59.653384    1026.3608   -79.056738   -357.11295   -3891.8082 
 8422000    204.77503   -4330.1655   -3979.1881   -4330.1655            0    3229.9201    17.797461    23.639318    21.850283    9192.8478    4471.4702    2140.3796    3077.9104   -193.77997    774.06723   -433.07777   -3546.1583 
 8423000    206.00268   -4342.4102   -3989.3286   -4342.4102            0    2000.1844     18.13324      23.3048    21.975555    9286.6834    2342.6817    382.91185    3274.9596    607.79361   -747.81208   -838.13527   -3718.4302 
 8424000    205.78235   -4344.3053   -3991.6013   -4344.3053            0    1676.7555    18.037811    23.218108    22.140701    9272.6103    2824.6725    1341.5032     864.0908    244.02523   -660.04332      -428.45   -3764.8512 
 8425000    212.18194   -4329.0106    -3965.338   -4329.0106            0    1648.0332    17.841459    23.648296     22.02906    9294.5034     985.8031    1235.7174    2722.5791     717.1183   -680.89759    398.95323   -3741.9458 
 8426000    203.10902   -4337.8404   -3989.7185   -4337.8404            0    1486.0979    17.987717    23.442591    22.109973    9323.3043    1405.8291    330.64658    2721.8182    102.64106    237.95364   -29.161189   -3787.6525 
 8427000    217.99476   -4319.3215   -3945.6859   -4319.3215            0    377.45032    18.147739    23.592957    21.810173     9338.218   -481.27478    12.768424    1600.8573    537.77981   -237.18877   -268.71938   -3894.2816 
 8428000    217.60098   -4329.4848   -3956.5241   -4329.4848            0    2449.9129    17.916274    23.391361     22.21039    9308.0641    2178.5527    3115.4225    2055.7637    846.23312   -90.727158   -312.63001    -3623.952 
 8429000    201.14926   -4324.5898   -3979.8269   -4324.5898            0     903.9245    18.147773    23.425449    22.007404    9355.7816    1429.1694    1280.8759    1.7281118   -90.230535   -23.751073    139.26491   -3856.4914 
 8430000    208.88352   -4337.1005   -3979.0813   -4337.1005            0    769.51728    18.066846    23.405758    22.110328    9349.7553    786.23288    1863.0731   -340.75411     212.6891    185.61775   -53.306568   -3874.1525 
 8431000    211.23617   -4331.7529   -3969.7013   -4331.7529            0    1086.5304    18.055014    23.541768    21.923055    9318.3276    746.47909    448.26306     2064.849   -505.37379    453.03106    175.33752   -3822.0437 
 8432000    213.04249   -4311.4149   -3946.2673   -4311.4149            0    1691.7742    17.952472    23.504589    22.183263    9360.5711    1908.5828    1762.2672    1404.4724   -680.85907    1929.8444    567.72852   -3715.3159 
 8433000    207.50859    -4349.281   -3993.6184    -4349.281            0    2155.9669    18.169887    23.351619    21.911495    9296.9663     2199.019    2073.1649    2195.7167    253.53406   -286.60077   -155.65461   -3701.2979 
 8434000    209.95043   -4355.5312   -3995.6833   -4355.5312            0    708.86303    18.037506     23.38337    22.168328    9350.1062    394.17553    1348.0947    384.31881   -726.11974    406.09198    40.146185   -3899.0216 
 8435000    214.66814   -4333.3855   -3965.4517   -4333.3855            0    1344.5607    18.045582    23.625757    21.965461    9364.7665    1397.9396    1542.1514     1093.591   -671.17114    679.81272    388.74645   -3781.8176 
 8436000    218.55372   -4333.8344   -3959.2408   -4333.8344            0    2332.2815    18.124075    23.301213    22.038573    9307.1739    3090.8345    1920.9566    1985.0532   -1052.9724    -423.2884    2.8937593   -3642.6672 
 8437000    203.58508    -4332.536   -3983.5982    -4332.536            0    1514.8114    18.111247    23.283067    22.020902    9285.8927    1555.6331    2010.0335    978.76752   -1110.1942    422.06227   -510.75581   -3778.4545 
 8438000    213.86951   -4314.4753   -3947.9102   -4314.4753            0    2870.8494    17.851365    23.711931    21.882031     9262.452    3237.2265    2534.5411    2840.7804    1379.9161   -44.255199   -217.79798   -3560.1063 
 8439000    205.06216    -4349.661   -3998.1914    -4349.661            0    1480.4687    18.042123    23.416661    22.075092    9326.4229    1795.0606    1455.2641    1191.0815   -387.28784    705.26124   -559.72202   -3796.8235 
 8440000    219.89949   -4320.0074   -3943.1072   -4320.0074            0    1414.8397    18.214831    23.132542    22.049129     9290.518    1573.8622    1877.2112    793.44573    747.70954    734.56485    207.33436   -3751.4068 
 8441000    218.40324     -4346.08   -3971.7443     -4346.08            0    585.62845    17.986152    23.573455    22.072979    9358.8495     1184.462    267.26884    305.15452    89.734874    96.058254   -432.41011   -3891.8124 
 8442000    211.20166   -4331.5125     -3969.52   -4331.5125            0    1848.5057    17.907461    23.529483    22.086775    9306.3354    2519.5373    2218.9453    807.03448    114.58567     482.4752   -279.62374   -3718.6346 
 8443000    219.68071   -4347.9443   -3971.4191   -4347.9443            0    561.40697    18.297638    23.327909     22.01191     9395.688   -139.75965    911.71727    912.26327   -351.51106   -388.52354   -325.43917   -3894.4914 
 8444000    210.94334   -4308.8062   -3947.2565   -4308.8062            0    2202.0328    18.044659    23.454923    21.959419    9294.0183    2314.2318    2235.9258    2055.9409     38.09637   -52.446036   -67.882949   -3648.7848 
 8445000    212.22388    -4340.443   -3976.6986    -4340.443            0    3193.8423    17.771029    23.430714    22.135255    9216.8523    3705.1532    3846.3328     2030.041    444.50444   -63.857828   -272.34106   -3547.3876 
 8446000    222.08483   -4353.6467    -3973.001   -4353.6467            0    1656.8374    18.114272    23.318024    21.924003    9260.4578    1911.9334    846.08946    2212.4892   -181.02054    922.43448   -338.33561    -3749.238 
 8447000    197.40625   -4311.4797   -3973.1321   -4311.4797            0    1943.0201    18.022667    23.314496    22.104698      9288.16    3010.7674     969.1897    1849.1032    249.24346   -693.89744    411.32551    -3709.934 
 8448000    216.87943   -4343.0575   -3971.3335   -4343.0575            0    522.03327     18.15868    23.514775    21.982845    9386.6145   -290.84806    356.50159    1500.4463   -71.091107   -497.06321    419.94321   -3899.8702 
 8449000      216.105   -4326.5232   -3956.1267   -4326.5232            0    486.36528     17.97538    23.458353    22.217662     9368.584    1562.9254    1393.6713   -1497.5009    21.070514   -114.29682   -390.61002    -3889.674 
 8450000    200.79704   -4318.9371   -3974.7779   -4318.9371            0     985.9662     18.06869    23.460684    21.998206    9325.1236     1200.401    634.80717    1122.6904    847.82127    6.7141672     365.3162   -3840.6891 
 8451000    211.33226   -4334.3523    -3972.136   -4334.3523            0    1685.9548    18.023177    23.374437    22.031694    9281.5477    1610.4111    1879.1292    1568.3241    224.43947    53.679609    684.29894   -3743.9221 
 8452000    215.42113   -4334.2456   -3965.0212   -4334.2456            0     2124.297    18.068339    23.263488    22.025726    9258.1304    1840.0773    1838.4596    2694.3541   -76.834067   -398.32146    266.80976   -3678.1979 
 8453000    203.60921   -4344.0864   -3995.1071   -4344.0864            0    1532.9276    17.697069    23.786198    22.090066    9298.7251    3622.1273    2086.7181   -1110.0627   -2123.8401     490.9397    347.63776   -3787.2232 
 8454000    201.41642   -4338.5997   -3993.3789   -4338.5997            0    1253.6729    18.070808    23.316688    22.013061    9275.2338    1114.4012    2008.2826    638.33486   -672.90307   -399.66235     -285.818   -3823.7948 
 8455000    202.86555   -4349.0611   -4001.3565   -4349.0611            0    1463.4416    18.177868     23.12724    22.061505    9274.7428    994.77589    2062.0309    1333.5181   -746.33131    736.89182   -484.24535   -3803.4076 
 8456000    207.45519   -4351.9801    -3996.409   -4351.9801            0    1023.5089    17.993677     23.47551    22.080387    9326.9926    1793.6342    1545.9125   -269.02005    1007.4579    174.03322   -425.10394   -3857.1866 
 8457000    220.80409   -4359.1221   -3980.6715   -4359.1221            0    1984.0341     17.92134    23.616015    21.928694    9280.8952     2435.097    1529.9876    1987.0177   -1397.1688    769.79224   -418.35805   -3712.1278 
 8458000    215.45548   -4332.3792   -3963.0959   -4332.3792            0    1291.8866    18.146155    23.344566    22.135001    9376.6987    2092.4161    1277.7001    505.54363   -166.42118    493.36368    213.61941    -3786.431 
 8459000     203.6947   -4327.4641   -3978.3384   -4327.4641            0    1468.5588    18.078121    23.411963    22.043103    9329.6179    1402.2157    1213.5071    1789.9537    356.48229    260.09488    233.57012    -3778.522 
 8460000    211.51222   -4316.4242   -3953.8995   -4316.4242            0     736.9862    18.113785    23.463472    22.031297    9363.5719    1585.6552    380.71941    244.58396    1427.4953   -1269.2567      810.981    -3853.258 
 8461000    208.78546   -4341.0048   -3983.1537   -4341.0048            0    2010.5111    17.967135    23.535718    21.979753    9294.5653    2719.1823    2294.6021    1017.7491   -680.46929    -241.5079    95.597325   -3710.6255 
 8462000    216.84596   -4345.3939   -3973.7273   -4345.3939            0    960.15805    17.917734    23.738809    22.085248    9393.8642   -249.29718    333.99054    2795.7808   -203.88129    197.12818    654.15443   -3842.1858 
 8463000    218.26958   -4332.7877   -3958.6811   -4332.7877            0    690.81488    18.169273    23.339596    22.147507    9391.9492    1456.7434    953.29991   -337.59862    470.03353  -0.53315825    293.12674   -3864.0588 
 8464000    221.34432   -4362.6797   -3983.3031   -4362.6797            0    708.76402    18.068588    23.448136    22.125825    9374.1523    589.35534    2814.6998   -1277.7631   -439.96916    90.891386    665.28211   -3886.4062 
 8465000    196.02193   -4358.7444   -4022.7695   -4358.7444            0    1268.7285    17.976822    23.518037     22.14836    9363.8737    2100.6044    2192.0049   -486.42391    802.59832   -341.77339     573.9669   -3849.5088 
 8466000    200.50718   -4326.4704   -3982.8079   -4326.4704            0    1202.3808    18.195904    23.395772    21.893244     9320.112    696.96947     1689.165    1221.0079   -1161.0899    309.77147    1164.8993   -3819.3752 
 8467000    206.18068   -4357.3481   -4003.9615   -4357.3481            0    762.60264    18.073852    23.394848     22.10774    9347.9269    686.63081    1614.8627   -13.685623   -818.32168   -434.90878    446.27477    -3899.996 
 8468000    213.26884   -4332.2671   -3966.7316   -4332.2671            0    1864.1588     17.94185    23.576418     21.93787    9279.8188    1736.4963     517.6559    3338.3242   -1073.0014   -138.31133    300.43895   -3714.4426 
 8469000    205.86907   -4315.9225     -3963.07   -4315.9225            0    1632.3391    18.016463    23.409922    22.098144    9320.2015    2829.6829    1548.8982    518.43634   -681.28174   -213.35917   -212.38429   -3741.1933 
 8470000    207.45427   -4354.3181   -3998.7486   -4354.3181            0    1300.9279    18.179705    23.347846    21.981464    9330.1851   -72.332503    1213.9634    2761.1527    314.93497   -51.053694    277.67374   -3821.7298 
 8471000    212.75897   -4343.3919   -3978.7303   -4343.3919            0    1649.4187    17.937624    23.432459    22.030078    9259.7402    1305.5968    2023.4017    1619.2577   -684.96855   -519.20342    302.02546   -3755.9865 
 8472000    207.27088    -4344.236   -3988.9808    -4344.236            0    1492.4065    17.833123    23.581895    22.047766     9271.942    1438.4389    1702.1013    1336.6793   -293.41915    288.03139   -672.38512    -3787.175 
 8473000    211.05486   -4350.0809   -3988.3401   -4350.0809            0    1355.9563    18.092974    23.369418    21.931229    9273.0119    1088.8486    1895.1747    1083.8456   -409.53081    233.20497    1082.7211   -3804.9641 
 8474000    209.11397   -4334.5397   -3976.1255   -4334.5397            0     300.3868    18.149629    23.214036    22.220864    9362.2307    1042.4784    588.65909   -729.97713     892.2192   -284.11655   -152.33547   -3935.1112 
 8475000    203.81389   -4335.3681   -3986.0381   -4335.3681            0    2726.2649    17.981962    23.433505    21.921159    9237.1466    2375.3127    2150.5866    3652.8954   -155.15087    98.613965   -233.08148   -3618.7712 
 8476000    215.66498   -4338.2063   -3968.5639   -4338.2063            0    2034.8167    17.921829    23.304258    22.094152    9227.7312    1879.2881    3871.7777    353.38447   -78.037923   -153.53815    527.51729   -3694.7244 
 8477000    229.68562   -4320.9679   -3927.2946   -4320.9679            0    1548.3809    18.135362    23.396994    21.969348    9321.8791    1296.2798    369.53259    2979.3302   -431.49567   -914.03503    417.91973   -3716.7922 
 8478000    216.51442   -4324.6298   -3953.5315   -4324.6298            0    1216.6015    17.982996    23.381016    22.227958     9345.983    1176.4763    1868.1185    605.20967    190.29629   -243.88462    850.66942   -3787.7068 
 8479000    217.42314   -4335.9636   -3963.3078   -4335.9636            0    2343.5572    18.083419    23.489596    21.734067    9232.0274    1851.3695    2718.6159    2460.6864   -687.57999   -258.88713    798.66466   -3647.7721 
 8480000    216.90457   -4316.9896   -3945.2226   -4316.9896            0    1807.3638    17.938732     23.37387    22.115417    9272.9409    1822.6081    1801.5893    1797.8939   -309.56975    287.51055   -463.86294   -3700.8013 
 8481000    215.49269   -4329.4429   -3960.0958   -4329.4429            0    1884.3294    18.132259    23.466708    21.821685    9285.2235    2199.9739    1299.2534    2153.7608   -380.69585    384.18425    471.63333   -3704.9285 
 8482000    223.98945    -4354.573   -3970.6628    -4354.573            0    449.05418    18.178769    23.143833    22.203143    9341.4482    176.44579    1480.4308   -309.71408    134.57545    48.908225   -311.68518   -3909.4857 
 8483000    202.81627   -4332.3911   -3984.7709   -4332.3911            0    2352.4956    17.841995    23.606147    22.022887     9275.616    4112.5628    735.05083    2209.8731    184.40429    70.363228   -25.297191   -3666.5363 
 8484000    216.60655   -4332.2094   -3960.9532   -4332.2094            0    1570.4827    18.012294    23.463928    22.030214    9310.8317    1202.4544    2654.9631    854.03048   -495.63863    174.18732    119.30835   -3747.6991 
 8485000    210.43245   -4361.8115   -4001.1375   -4361.8115            0    591.95164    18.209225     23.40207    22.058356    9399.8055    807.20192    565.90003    402.75297    449.59305    22.603446    137.74881   -3919.9889 
 8486000    200.39108   -4325.4042   -3981.9408   -4325.4042            0    1170.0749    17.984761      23.6033    22.039744    9355.8651    1987.2809    1665.2605   -142.31682   -506.58088   -84.753018    875.78792   -3822.2891 
 8487000    212.01168   -4339.3723   -3975.9916   -4339.3723            0    1024.4556    17.885136     23.57081    22.155579    9340.0642    958.07408    526.10233    1589.1903   -122.38352   -328.94491    333.18858   -3836.4451 
 8488000    218.52515   -4338.5516    -3964.007   -4338.5516            0    1391.7009    18.197167    23.183866    22.136963    9339.1568    1018.5555    827.83257    2328.7146    59.772798    120.12456   -510.85596   -3774.4545 
 8489000    209.84689   -4334.5905   -3974.9201   -4334.5905            0     1371.407    18.055574    23.520938    22.013547    9348.8022     1191.706    1130.6328    1791.8821    413.85476   -437.41842   -214.33523   -3787.9388 
 8490000    207.91525   -4332.9833   -3976.6237   -4332.9833            0    1504.7606    17.962791    23.671102    21.940536    9329.0953    187.77426    816.02166    3510.4858    860.87749    432.68302    453.87979   -3771.8931 
 8491000    205.44836    -4348.796   -3996.6645    -4348.796            0    1061.7293    18.055763    23.367443    22.112286      9329.55      1174.34     1533.123     477.7249   -919.89112    396.70696   -114.26158   -3852.2036 
 8492000    209.68805   -4332.1612   -3972.7631   -4332.1612            0    1483.9425    18.138675    23.337917    21.998695    9312.4631    260.43087    1737.3456     2454.051   -552.49694    -1305.441   -209.80292   -3771.2248 
 8493000    210.70325   -4312.5699   -3951.4318   -4312.5699            0    1966.7377    17.814807    23.476085    22.297985    9325.5056    2527.3938    1504.2996    1868.5197    1228.6146   -196.08819    462.68096   -3683.9497 
 8494000    211.07766   -4325.4719    -3963.692   -4325.4719            0    979.77387    18.077176    23.656887    21.882305    9357.9612    646.29105    340.57761    1952.4529    328.71159   -637.26575   -62.582116   -3829.9761 
 8495000    220.73532   -4328.1952   -3949.8624   -4328.1952            0     688.3176    18.166958    23.310797    22.175498    9391.0191    438.32968    2337.3177   -710.69458   -109.03573    391.45659    334.31718   -3855.5915 
 8496000    218.28236   -4354.4688   -3980.3403   -4354.4688            0    758.12608    18.235341    23.473317    21.886797    9368.5104    321.84248    1463.4715    489.06428    632.07944   -29.464419     5.040615   -3876.7574 
 8497000    204.66544   -4330.8659   -3980.0763   -4330.8659            0    1905.9418    17.864842    23.448359    22.157217    9281.6855    2893.2808    1674.5447    1149.9998    -833.2132    119.92542    433.29749   -3722.0807 
 8498000    210.41832   -4317.5517   -3956.9019   -4317.5517            0    255.70481    18.176273    23.559139    21.970316    9408.0708   -32.066561    530.83312    268.34786   -320.30008    951.76128    157.05921   -3921.8174 
 8499000    204.78725   -4338.1717   -3987.1734   -4338.1717            0    1253.7713     17.96699    23.329239    22.249995    9326.2232    2589.8559    874.42584    297.03217    454.56515   -130.99211    175.33673   -3816.6437 
 8500000    221.67358   -4323.1652   -3943.2243   -4323.1652            0    1033.9478    18.255505    23.552145    21.804004    9374.7689    526.31781   -258.81608    2834.3415    236.43366   -477.28836   -231.15696   -3801.8615 
Loop time of 355.858 on 64 procs for 250000 steps with 864 atoms

Performance: 121.397 ns/day, 0.198 hours/ns, 702.527 timesteps/s
195.0% CPU use with 32 MPI tasks x 2 OpenMP threads

MPI task timing breakdown:
Section |  min time  |  avg time  |  max time  |%varavg| %total
---------------------------------------------------------------
Pair    | 17.326     | 24.988     | 33.54      |  98.0 |  7.02
Bond    | 0.92062    | 1.2364     | 1.8238     |  17.3 |  0.35
Kspace  | 176.73     | 188.73     | 197.33     |  40.5 | 53.03
Neigh   | 1.1392     | 1.2544     | 1.37       |   6.1 |  0.35
Comm    | 54.373     | 57.649     | 61.294     |  24.8 | 16.20
Output  | 0.6234     | 0.62377    | 0.62575    |   0.1 |  0.18
Modify  | 64.01      | 66.52      | 69.323     |  13.9 | 18.69
Other   |            | 14.86      |            |       |  4.17

Nlocal:        27.0000 ave          40 max          18 min
Histogram: 7 4 4 1 3 3 3 2 3 2
Nghost:        2093.56 ave        2206 max        1987 min
Histogram: 7 8 1 0 0 0 0 0 13 3
Neighs:        6491.38 ave        9561 max        4131 min
Histogram: 4 5 5 2 3 3 2 4 2 2

Total # of neighbors = 207724
Ave neighs/atom = 240.42130
Ave special neighs/atom = 2.0000000
Neighbor list builds = 4580
Dangerous builds = 0

unfix		3
unfix		2
unfix		1

write_data	data.final.${pid} nocoeff
write_data	data.final.0 nocoeff
System init for write_data ...
PPPM initialization ...
  extracting TIP4P info from pair style
  using 12-bit tables for long-range coulomb (../kspace.cpp:340)
  G vector (1/distance) = 0.37164803
  grid = 24 27 25
  stencil order = 5
  estimated absolute RMS force accuracy = 0.0031509402
  estimated relative force accuracy = 9.4889628e-06
  using double precision FFTW3
  3d grid and FFT values/proc = 4410 672
Last active /omp style is kspace_style pppm/tip4p/omp

write_restart   restart.lmp.${pid}
write_restart   restart.lmp.0
System init for write_restart ...
PPPM initialization ...
  extracting TIP4P info from pair style
  using 12-bit tables for long-range coulomb (../kspace.cpp:340)
  G vector (1/distance) = 0.37164803
  grid = 24 27 25
  stencil order = 5
  estimated absolute RMS force accuracy = 0.0031509402
  estimated relative force accuracy = 9.4889628e-06
  using double precision FFTW3
  3d grid and FFT values/proc = 4410 672
Last active /omp style is kspace_style pppm/tip4p/omp
Total wall time: 0:05:56
