LAMMPS (30 Jul 2021)
Processor partition = 1
  using 1 OpenMP thread(s) per MPI task
using multi-threaded neighbor list subroutines
variable        pid world 0 1
variable        phase world IceII IceIII

shell cd ${phase}
shell cd IceIII
include Restart.lmp
echo both
log log.lammps
#include		in.partitions
include		in.temp
variable        temperature equal 105.46
variable	tempDamp equal 100.0
include		in.pressure
variable        pressure equal 2668.8
variable        pressureDamp equal 1000.0 # This is 1 ps
include		in.seed
variable        seed equal 745823

units		real
atom_style	full

read_restart	restart.lmp.${pid}
read_restart	restart.lmp.1
Reading restart file ...
  restart file = 30 Jul 2021, LAMMPS = 30 Jul 2021
  restoring atom style full from restart
  orthogonal box = (-0.022902194 0.0029579922 0.050527222) to (20.022903 19.997043 20.649471)
  4 by 4 by 4 MPI processor grid
  restoring pair style lj/cut/tip4p/long/omp from restart
  restoring bond style harmonic/omp from restart
  restoring angle style harmonic/omp from restart
  972 atoms
  648 bonds
  324 angles
Finding 1-2 1-3 1-4 neighbors ...
  special bond factors lj:    0        0        0       
  special bond factors coul:  0        0        0       
     2 = max # of 1-2 neighbors
     1 = max # of 1-3 neighbors
     1 = max # of 1-4 neighbors
     2 = max # of special neighbors
  special bonds CPU = 0.011 seconds
  read_restart CPU = 0.025 seconds
include 	in.setup
variable	out_freq equal 1000
variable	out_freq2 equal 10000
variable	out_freq3 equal 1000

timestep	2.0

neigh_modify    delay 7 every 1

include		in.tip4p
# This is TIP4P/Ice

# create groups ###
group ox type 2
324 atoms in group ox
group hy type 1
648 atoms in group hy

# set charges - beside manually ###
set group ox charge -1.1794
Setting atom values ...
  324 settings made for charge
set group hy charge 0.5897
Setting atom values ...
  648 settings made for charge

# ### TIP3P Potential Parameters ###
pair_style lj/cut/tip4p/long/omp 2 1 1 1 0.1577 8.5
pair_coeff 1 1*2 0.000 0.000
pair_coeff 2 2 0.21084 3.1668
bond_style  harmonic
bond_coeff  1 450 0.9572
angle_style harmonic
angle_coeff 1 55 104.52
kspace_style pppm/tip4p/omp 1.0e-5
pair_modify tail yes

thermo          ${out_freq}
thermo          1000
thermo_style    custom step temp pe etotal epair emol press lx ly lz vol pxx pyy pzz pxy pxz pyz enthalpy

restart 	${out_freq3} restart.lmp.${pid} restart2.lmp.${pid}
restart 	1000 restart.lmp.${pid} restart2.lmp.${pid}
restart 	1000 restart.lmp.1 restart2.lmp.${pid}
restart 	1000 restart.lmp.1 restart2.lmp.1


include         in.dump
dump            myDump all atom ${out_freq2} dump.water.${pid}
dump            myDump all atom 10000 dump.water.${pid}
dump            myDump all atom 10000 dump.water.1
dump            myDump2 all dcd ${out_freq2} dump.dcd
dump            myDump2 all dcd 10000 dump.dcd
dump_modify     myDump append yes
dump_modify     myDump2 append yes


variable natoms 	equal  "count(all)"                        # NUMBER ATOMS
variable H      	equal  "enthalpy/v_natoms"                 # ENTHALPY-per-atom
variable Vol      	equal  "vol/v_natoms"                 # volume-per-atom
fix AVG all 		ave/time ${out_freq} 1 ${out_freq} v_Vol v_H file vol_enthalpy.dat
fix AVG all 		ave/time 1000 1 ${out_freq} v_Vol v_H file vol_enthalpy.dat
fix AVG all 		ave/time 1000 1 1000 v_Vol v_H file vol_enthalpy.dat


timer           timeout 02:55:00 every 1000
New timer settings: style=normal  mode=nosync  timeout=02:55:00

fix 		1 all shake 1e-6 200 0 b 1 a 1
Finding SHAKE clusters ...
       0 = # of size 2 clusters
       0 = # of size 3 clusters
       0 = # of size 4 clusters
     324 = # of frozen angles
  find clusters CPU = 0.002 seconds
fix             2 all nph aniso ${pressure} ${pressure} ${pressureDamp}
fix             2 all nph aniso 2668.8 ${pressure} ${pressureDamp}
fix             2 all nph aniso 2668.8 2668.8 ${pressureDamp}
fix             2 all nph aniso 2668.8 2668.8 1000
fix             3 all temp/csvr ${temperature} ${temperature} ${tempDamp} ${seed}
fix             3 all temp/csvr 105.46 ${temperature} ${tempDamp} ${seed}
fix             3 all temp/csvr 105.46 105.46 ${tempDamp} ${seed}
fix             3 all temp/csvr 105.46 105.46 100 ${seed}
fix             3 all temp/csvr 105.46 105.46 100 745823


run             250000
PPPM initialization ...
  extracting TIP4P info from pair style
  using 12-bit tables for long-range coulomb (../kspace.cpp:340)
  G vector (1/distance) = 0.37144131
  grid = 24 24 24
  stencil order = 5
  estimated absolute RMS force accuracy = 0.00360277
  estimated relative force accuracy = 1.0849635e-05
  using double precision FFTW3
  3d grid and FFT values/proc = 2197 216
Last active /omp style is kspace_style pppm/tip4p/omp
Neighbor list info ...
  update every 1 steps, delay 7 steps, check yes
  max neighbors/atom: 2000, page size: 100000
  master list distance cutoff = 10.8154
  ghost atom cutoff = 10.8154
  binsize = 5.4077, bins = 4 4 4
  1 neighbor lists, perpetual/occasional/extra = 1 0 0
  (1) pair lj/cut/tip4p/long/omp, perpetual
      attributes: half, newton on, omp
      pair build: half/bin/newton/omp
      stencil: half/bin/3d
      bin: standard
Setting up Verlet run ...
  Unit style    : real
  Current step  : 2500000
  Time step     : 2
  Walltime left : 2:54:59.89
Per MPI rank memory allocation (min/avg/max) = 9.222 | 9.224 | 9.226 Mbytes
Step Temp PotEng TotEng E_pair E_mol Press Lx Ly Lz Volume Pxx Pyy Pzz Pxy Pxz Pyz Enthalpy 
 2500000    102.14685   -5026.2462   -4829.2474   -5026.2462            0    2208.1932    20.045805    19.994085    20.598944    8256.0058     1393.025    2637.2752    2594.2794   -266.62849   -538.53343   -447.37717   -4563.3691 
 2501000    102.38763   -5036.8947   -4839.4316   -5036.8947            0    3145.0447    20.040926    19.893681    20.599266    8212.6757    3030.1168    3110.2656    3294.7516    66.370864    264.69247    -166.5942   -4462.7387 
 2502000    107.13877   -5040.9013   -4834.2751   -5040.9013            0    2655.4372    20.015437    19.883954    20.687753     8233.437    1314.0725    3393.5187    3258.7203   -146.53955   -327.36951   -703.35509   -4515.4203 
 2503000    103.77634   -5035.6332   -4835.4918   -5035.6332            0    4877.1829    19.981932    19.767343    20.622866      8145.82    4705.4332    4942.9578    4983.1578    31.843232    334.72138   -432.28988   -4256.0901 
 2504000    102.30896   -5048.8188   -4851.5074   -5048.8188            0    2255.1449    19.932656    19.912935    20.752389    8236.9901    3182.7501    1675.6298    1907.0548   -77.637838    464.78684   -541.68734   -4580.6013 
 2505000    107.04874   -5045.2669   -4838.8144   -5045.2669            0    1388.6787    19.924554     19.81937    20.930845    8265.4257     1263.781    2480.8152    421.43973   -309.50392   -475.15473    229.61849   -4671.4192 
 2506000    104.05115   -5027.9826   -4827.3112   -5027.9826            0     3296.176    19.934436    19.872036    20.773111    8229.0149    2801.9429    4426.8494    2659.7357   -365.04327   -226.30648   -1092.7277   -4431.7313 
 2507000    107.51777   -5043.8902   -4836.5331   -5043.8902            0    1966.0305    19.871381    19.934511     20.85531    8261.3356    2592.7445    1524.9029     1780.444   -501.21915    1.0645712   -384.75861   -4599.6597 
 2508000    109.75318   -5045.0144   -4833.3462   -5045.0144            0    3816.4428    19.953786    19.874133    20.626233    8179.6256    4594.5154    2798.1774    4056.6356    5.4061612   -431.62189    22.046848   -4378.0772 
 2509000    107.44157   -5034.4149   -4827.2048   -5034.4149            0    1173.4857     20.10926    19.939996    20.632902    8273.3514    99.350334    1851.9239    1569.1828    4.0742229    403.93731   -662.91598    -4685.614 
 2510000    107.68954   -5038.8216   -4831.1333   -5038.8216            0    2229.2269    19.995982    19.978074    20.717747    8276.3506    2259.5735    2061.6002    2366.5071   -28.071837    1001.6286   -884.50575   -4562.0609 
 2511000     102.1834   -5035.9986   -4838.9293   -5035.9986            0    2190.2437     19.93826    19.930289    20.784847    8259.3841    2630.9114    2317.7677    1622.0519    107.81384    236.19522    550.88384   -4575.1043 
 2512000    113.33853   -5035.2907   -4816.7078   -5035.2907            0    2650.1978    20.004023     20.02475    20.592382    8248.8051     1913.448    2925.6915     3111.454    -89.04592    356.55751   -796.47586   -4497.8881 
 2513000    106.87924   -5026.6368   -4820.5111   -5026.6368            0    2684.1082    20.045352    19.978615    20.628533    8261.2817    3640.5036    1758.0329    2653.7881    619.27103    97.273434    704.03605   -4497.1236 
 2514000     102.5271   -5038.8798   -4841.1476   -5038.8798            0    2687.7791    19.924928     20.04928    20.674524    8259.0683     2845.568     3038.866    2178.9034   -419.09923   -123.79162   -353.79976   -4517.4045 
 2515000    106.40628   -5045.3296   -4840.1161   -5045.3296            0    2112.9766    20.103268    19.880902    20.639516    8249.0182    1941.4324    1379.2458    3018.2516   -27.482641   -317.65228    -388.3241   -4585.9177 
 2516000    107.73809   -5044.1471   -4836.3651   -5044.1471            0    2463.2771    19.983282    19.875389     20.68491    8215.5396    1855.3424    3371.7616    2162.7273   -120.31337    798.99614     411.4967   -4541.2271 
 2517000    104.22564   -5040.6366   -4839.6287   -5040.6366            0    2682.6832    19.953023    19.980554    20.742594    8269.5008    593.18329    4916.3506    2538.5158   -461.94108   -702.17931   -215.34883   -4516.0912 
 2518000    101.56248   -5040.7062   -4844.8345   -5040.7062            0    2970.3945    19.822026    19.885233    20.710962     8163.549    3062.0689    3093.2932    2755.8213    37.936465    447.69632   -490.33827   -4491.1882 
 2519000    104.99668   -5040.3691   -4837.8742   -5040.3691            0    2433.0272    19.895688    19.853339    20.896241    8253.9283    2866.5697    2668.6636    1763.8482   -152.27799    606.20187    863.30569   -4544.9983 
 2520000    108.05563    -5048.869   -4840.4746    -5048.869            0    3129.3391    19.904323    19.967607    20.678566    8218.5246    3181.0382    2363.5207    3843.4582   -354.33864   -758.69893    181.51968   -4465.3959 
 2521000    98.590341   -5038.2543   -4848.1146   -5038.2543            0    2329.8211    20.018222    20.034073     20.67087    8289.9805    1982.2745    2174.0182    2833.1707    65.505053    599.73971    690.42443   -4566.4372 
 2522000    102.93231   -5029.8308   -4831.3172   -5029.8308            0    2834.4878    19.995237    19.823548     20.65754    8188.1643    3439.1227    2373.5349    2690.8058   -339.83062   -544.05002    765.21483   -4492.8341 
 2523000    103.57899   -5047.9968    -4848.236   -5047.9968            0    2468.6504    19.883357     19.98494    20.790206    8261.3561    2326.6119    2738.6475    2340.6919    87.165606    216.22737    785.41757   -4550.8046 
 2524000    105.82569   -5023.8642   -4819.7705   -5023.8642            0    2773.5081    20.034467    19.894727    20.743731    8268.0418    2903.3369    2734.1632    2683.0241    166.31568    843.40612    736.03465   -4485.3384 
 2525000     112.9743   -5041.6805   -4823.8001   -5041.6805            0    2406.7595    19.927888    19.998192    20.666859    8236.1924     2639.978    1827.4372    2752.8633   -421.20657   -10.645231    292.44384   -4534.7087 
 2526000    111.25115   -5038.0582    -4823.501   -5038.0582            0    2333.4748    20.006333    19.946868    20.650997    8241.0626      2284.25    2725.4139    1990.7605    412.93257    230.95099    -257.9844   -4543.0466 
 2527000    108.73307   -5032.4759    -4822.775   -5032.4759            0    2689.9223    20.059301    19.903675    20.604532    8226.4379    2646.4618    2670.9793     2752.326   -474.45746   -66.338245   -478.36801   -4500.0539 
 2528000    101.50054   -5036.5156   -4840.7632   -5036.5156            0    1252.5365    19.972521    20.004086    20.659026    8253.9425    1878.1914    815.56364    1063.8546   -782.69475   -442.36939   -1102.8924   -4689.9888 
 2529000    105.74893   -5039.5826   -4835.6368   -5039.5826            0    1827.2038    20.027437    19.923418    20.669883    8247.5932     1790.325      1900.28    1791.0065    -935.8306   -633.92911   -1009.9922   -4615.8559 
 2530000    108.19731   -5038.4602   -4829.7926   -5038.4602            0     2638.408    20.104662    19.770052    20.774953    8257.4251    1055.9138    4959.9549    1899.3552    13.135846   -681.17387   -200.88265   -4512.0595 
 2531000    109.16485   -5033.0102   -4822.4766   -5033.0102            0    4042.0465    19.936817     19.96859    20.589736    8196.9826     3795.899    4131.4206    4198.8199   -101.08394   -576.97234    549.51901   -4339.2719 
 2532000    108.51592   -5037.5711    -4828.289   -5037.5711            0     2084.378    20.092576    19.932639    20.628192    8261.5511    202.99219    3252.0321    2798.1096   -284.28018   -485.63811    776.03665   -4577.1501 
 2533000    104.27388   -5036.0118   -4834.9109   -5036.0118            0    2649.5561    19.954024    20.001951    20.589768    8217.7763    1976.3761    2424.1416    3548.1506   -445.12128   -352.67221    83.090055   -4517.3673 
 2534000     103.9278   -5041.6408   -4841.2073   -5041.6408            0     3693.958    19.987479    19.857869    20.556049    8158.8754    3324.8819    3360.3738    4396.6185    13.635079    178.13795    1429.9145   -4401.6676 
 2535000    104.65563   -5053.3751   -4851.5379   -5053.3751            0    3184.3068    19.902141    19.929236    20.583959    8164.3076    3374.6759    2739.1738    3439.0708    -63.75744    334.94036   -220.81134   -4472.3887 
 2536000    101.42179   -5043.8364   -4848.2359   -5043.8364            0     2628.039     19.95683    19.861384    20.767484    8231.6133    3192.6555    2672.4003    2019.0612    5.0491055    633.51152    193.03529   -4532.7408 
 2537000    108.85574   -5048.9829   -4839.0455   -5048.9829            0    3070.0624    19.887753    19.842525    20.776421    8198.8583    3563.0769    2877.0776    2770.0326    267.43909    276.16106    89.564081   -4471.9521 
 2538000    111.20516   -5045.1226   -4830.6541   -5045.1226            0    2746.2371    19.829447    19.913396    20.831204    8225.6515    3236.5664    3147.1863    1854.9586   -7.1383602    429.83564   -459.25666   -4501.2081 
 2539000    103.77486   -5046.6349   -4846.4964   -5046.6349            0    2716.4722    20.005671    19.914049    20.737141    8261.5508    1738.7918     3383.297    3027.3279   -15.147724   -433.49551    191.61182   -4519.1989 
 2540000    106.89563   -5045.4604   -4839.3032   -5045.4604            0    3151.5858    20.023543     19.87628    20.701249    8238.9633    3202.8885    3168.1641    3083.7048   -86.826257   -361.16622    316.94163   -4460.6187 
 2541000    102.65087    -5031.535   -4833.5641    -5031.535            0    4006.3585    20.022665    19.758883    20.740556    8205.4929    3932.5985    5032.8817    3053.5953   -169.60791      247.328   -58.091655   -4354.1284 
 2542000     109.1627   -5052.4464    -4841.917   -5052.4464            0    2125.7622    19.998148    19.858342    20.733583    8233.9294    2946.0316    1444.0657    1987.1892   -82.114891     643.9488    41.981205   -4586.6482 
 2543000    109.73485   -5042.8728     -4831.24   -5042.8728            0    2209.1551     20.09064    19.826022    20.737214    8259.9945    1495.4648    2626.5606    2505.4398    250.49609    235.68607   -1648.5585   -4565.1173 
 2544000    100.60739   -5042.5992   -4848.5694   -5042.5992            0    2618.6008     19.96472     19.98171    20.572387    8206.9268    3007.8928    1825.9247    3021.9848   -470.40261   -432.58208    1133.8794   -4535.1501 
 2545000    102.72156   -5047.5431   -4849.4359   -5047.5431            0    3195.6501    20.053599    19.873775     20.64001    8225.8844    2451.6043    4564.2569    2571.0891   -319.24339   -17.291342   -111.93944   -4466.0663 
 2546000    105.51848   -5047.4302    -4843.929   -5047.4302            0    3136.3898     19.93078    19.989169    20.647528    8225.9696    3875.6529    1947.4006    3586.1158   -292.28315     430.8202      525.249   -4467.6647 
 2547000    104.80456   -5043.6021   -4841.4777   -5043.6021            0     3050.445    19.994818    19.896864    20.632291    8208.2306    3979.0248    1310.2023    3862.1078     139.1571    642.04859     211.4431   -4476.3131 
 2548000    101.36693   -5047.3903   -4851.8956   -5047.3903            0    2445.8459    19.987632    19.923874    20.695765    8241.6967    1735.7882    2876.7735    2724.9761   -453.78326   -32.502504    489.23304    -4557.913 
 2549000    105.34942   -5035.6878   -4832.5125   -5035.6878            0    2555.1679     19.87794    19.754102     21.01506    8252.0013    2808.9897    3283.1307    1573.3833   -46.201195   -426.85519    22.512783   -4525.0058 
 2550000    103.41645   -5047.8344   -4848.3871   -5047.8344            0    2977.3592    19.934388    19.863783    20.777979    8227.5053    3037.5947    2829.3786    3065.1043   -100.70746    914.29205   -454.91058   -4491.1346 
 2551000    113.78674   -5028.7722   -4809.3249   -5028.7722            0    2663.0783    19.952497    19.764152     20.93996    8257.5512    3099.0178    3565.8192     1324.398    245.33203     81.99799    328.68531    -4488.616 
 2552000    103.58646   -5043.4941   -4843.7189   -5043.4941            0    2540.8315    19.885038    19.880962    20.761125    8207.5721    2817.3356    2300.2165    2504.9424    194.65839   -65.801757    251.08759   -4539.5839 
 2553000    101.09643   -5048.4137   -4853.4407   -5048.4137            0    2112.7114    20.028389     19.88098    20.775022    8272.2816    1765.7328    2586.0916    1986.3099   -67.874011    370.34394    1679.1126   -4598.5574 
 2554000    106.28833   -5034.5316   -4829.5457   -5034.5316            0    2756.8337    19.959783    19.967758    20.741036    8266.3837    2992.8236    2318.4196    2959.2579    178.36813   -96.795753   -306.53896   -4497.1908 
 2555000    107.92875   -5046.0375   -4837.8879   -5046.0375            0    2182.4585    19.929384    20.020803    20.844658    8317.0661    2421.4177    2234.3415    1891.6163   -23.939856   -653.98551   -478.56977   -4573.1646 
 2556000    107.68148   -5029.6247   -4821.9519   -5029.6247            0    2642.1415    19.990585    19.839441    20.781794    8242.1018    2241.3085    4052.1726    1632.9435     44.26559    660.55713   -283.91871   -4504.3596 
 2557000    105.10318   -5055.3412   -4852.6409   -5055.3412            0    2032.3323     19.96034    19.887738    20.734553    8230.9129    1524.9185     3318.304    1253.7744   -78.522661   -689.10252   -88.713936   -4608.6809 
 2558000    106.50741   -5041.6784   -4836.2699   -5041.6784            0    2191.1335    19.895655    19.994353     20.68197    8227.3033    1514.6208    2941.5559    2117.2237     117.4906    115.00964    472.03163   -4573.3629 
 2559000    102.78771   -5038.5121   -4840.2774   -5038.5121            0    3298.5654    20.011674    19.840024    20.616044    8185.2312    3291.6635    3333.2783    3270.7546   -38.420656    195.54683   -229.51828   -4446.5171 
 2560000    108.41909   -5047.5653   -4838.4699   -5047.5653            0    2520.5336    20.207426    19.869161    20.542193    8247.7851      994.756      3662.81    2904.0347   -220.96599    291.12191   -121.11266   -4535.2863 
 2561000    103.60801   -5034.3813   -4834.5645   -5034.3813            0    2341.6862     19.97478     19.94726    20.757869    8270.8095    2561.8061    1909.6821    2553.5703   -79.126959    501.52051    20.441237   -4552.1074 
 2562000    112.47996   -5034.6625   -4817.7354   -5034.6625            0    3191.2339    19.892471    19.883515    20.814586      8232.84    2561.2002    4029.5407    2982.9607   -584.45348     344.4296     89.27438   -4434.5719 
 2563000    111.48595   -5041.2996   -4826.2896   -5041.2996            0    2933.2715    19.926401    19.890793    20.791935    8240.9231    3032.2361     2827.464    2940.1145   -46.645238     630.9541     504.4913   -4473.7532 
 2564000    103.33318   -5037.2999   -4838.0131   -5037.2999            0    2992.3462    20.005848    19.883255     20.65401    8215.7805    3046.2962    3622.0732     2308.669    51.939065    351.51394    160.11032    -4479.474 
 2565000    103.79589   -5043.4456   -4843.2665   -5043.4456            0    2989.2343     19.99844    19.950161     20.60748    8221.8095    3212.9632    2183.8996      3570.84    189.22278    180.01139   -252.31001   -4484.8374 
 2566000    112.07078   -5036.1032   -4819.9652   -5036.1032            0    3765.4238    20.050283     19.96367    20.510374    8209.8356    3542.2317    2168.9064    5585.1332    -332.8219    648.05369   -1027.4178   -4369.1234 
 2567000    108.38529   -5050.4159   -4841.3858   -5050.4159            0    3309.9982    19.972818    19.988005    20.546982       8202.7    3348.6402    2681.3805    3899.9738   -59.665312   -432.54884    416.07296   -4445.4174 
 2568000    100.21035   -5031.2332   -4837.9691   -5031.2332            0    3276.9549    20.084768    19.983536    20.473933    8217.5138     3145.139    2600.0302    4085.6954    127.39887   -174.94545    895.59032   -4445.2457 
 2569000    106.49839   -5059.7885   -4854.3974   -5059.7885            0    2099.8626    20.007195    20.022114    20.630825    8264.4265    1139.7631    2963.0877     2196.737   -367.01186    312.21904    962.37199   -4601.3048 
 2570000    104.01264   -5036.7417   -4836.1446   -5036.7417            0     1668.957    19.989031    19.919312     20.79664    8280.5516    2038.9387    1738.7899    1229.1423   -34.381526    637.56536   -371.69213   -4634.5958 
 2571000    104.73628   -5034.7414   -4832.7486   -5034.7414            0    2309.3466     19.92976    20.032806    20.637714    8239.5873    2827.9724     1379.911    2720.1565   -24.222011    197.36557     323.1458   -4555.2438 
 2572000    111.21209     -5026.85   -4812.3681     -5026.85            0    2455.4586    20.038186    19.898553    20.662283    8238.6913    1964.5174    2971.5502     2430.308   -312.25078    364.68373   -878.87084   -4517.3377 
 2573000    98.804576   -5042.8037   -4852.2508   -5042.8037            0     2282.761    19.947148    19.915327    20.740501    8239.2468     3383.155    1227.2491    2237.8789   -268.10325    1429.4315    69.227041    -4577.952 
 2574000    99.929393   -5037.4679   -4844.7456   -5037.4679            0    3553.3204    20.042174     19.79557    20.682898    8205.8627    2723.9665    4421.3377     3514.657   -191.81094   -82.914877   -1389.0349   -4419.5052 
 2575000     102.0635   -5039.6462   -4842.8082   -5039.6462            0    2261.7105    19.988279    19.949482     20.68072    8246.5572      1030.26    2991.3811    2763.4903    301.26199   -73.067525   -132.87443   -4570.7977 
 2576000    106.84508   -5048.9217    -4842.862   -5048.9217            0    1211.0652    20.082416    19.950798    20.682096    8286.4928    759.30103    959.50534    1914.3892   -205.37026    657.83729   -341.72887   -4696.5048 
 2577000    102.34444    -5051.283   -4853.9032    -5051.283            0    3214.1929    19.959502    19.955697    20.603945    8206.6703    3271.9153    3297.4463    3073.2169    426.63022   -28.887629    399.93727   -4469.2097 
 2578000    109.18868   -5028.5579   -4817.9783   -5028.5579            0    3823.5269    19.887478    19.963244    20.582492    8171.6317    3944.1073    3660.5136    3865.9597   -50.057317    204.39083    480.79436     -4362.31 
 2579000    101.83656   -5038.4219   -4842.0216   -5038.4219            0    4248.4256    19.897926    19.998827    20.615286    8203.5474    4369.6987    4251.3376    4124.2406    201.71704   -108.07317    106.11584   -4333.7385 
 2580000    105.74794   -5032.2289   -4828.2851   -5032.2289            0     2781.897     20.02833    19.893246    20.701292    8247.9845    2221.6034    2704.8935    3419.1943   -187.91421   -410.24202    754.70125   -4493.6552 
 2581000    108.00529   -5038.2274   -4829.9301   -5038.2274            0    2606.0115     19.74649    20.060495    20.761464    8224.1215    3761.8562    2010.0049    2046.1735   -190.52538    262.78224   -771.54148   -4517.3641 
 2582000    103.63957    -5047.961   -4848.0834    -5047.961            0    2361.3315     19.93479    19.937819    20.757691    8250.2735    3912.9398     1343.176    1827.8786    136.39558    429.52919    254.94076   -4563.9638 
 2583000     108.4144    -5040.629   -4831.5427    -5040.629            0    2920.0972    19.989498    19.860594    20.730881    8230.2281    2949.5317    2445.1669    3365.5929   -700.47132    133.46747    870.92964   -4481.0451 
 2584000    110.64088   -5038.9009   -4825.5206   -5038.9009            0    2405.0683    20.022031    19.925172      20.7287    8269.5574    1930.8121    2355.0966    2929.2962   -5.1744124   -800.82519     170.2315   -4535.4621 
 2585000    104.75367   -5049.9898   -4847.9635   -5049.9898            0    2027.4801    19.934456    19.987196     20.80757    8290.4407    2828.8644    1622.3243    1631.2516   -383.26629    146.46211   -48.803462   -4602.8258 
 2586000    101.43598   -5036.8613   -4841.2335   -5036.8613            0    3310.0502    19.878151    19.909591    20.754836    8214.0553    4923.2167    2178.8556    2828.0782   -223.45097    278.28517    -486.9098   -4444.7108 
 2587000    102.18242    -5038.401   -4841.3336    -5038.401            0    2786.1029    19.945924    19.864251     20.79778     8240.306    2656.5157    3921.6585    1780.1345   -92.818647    230.78985    138.95671   -4506.5098 
 2588000    101.49099   -5032.2333   -4836.4993   -5032.2333            0     3462.431    19.840141    19.889787    20.866619    8234.3058    3574.6537    4285.0317    2527.6076   -176.38394   -257.76481    140.08089   -4420.6998 
 2589000    99.832067   -5051.2037   -4858.6692   -5051.2037            0    2818.4017     19.93724    19.925337    20.749583    8242.9009    2262.7637      3370.73    2821.7113    126.97209   -81.299232    772.68067   -4519.8571 
 2590000    105.79954   -5046.2821   -4842.2388   -5046.2821            0    2893.2276    19.955499    19.937511    20.722228    8244.6075    3122.2432    3277.8424    2279.5971   -412.60553   -616.53055   -1134.7965   -4494.3596 
 2591000     104.7843   -5049.3302   -4847.2449   -5049.3302            0    1452.5968    19.819027    20.079993    20.781323    8270.2586    2652.0813    35.877876    1669.8313   -282.48083    -299.5534    374.59992   -4672.0425 
 2592000    109.13948   -5051.5245   -4841.0398   -5051.5245            0    2196.7056    19.964511    19.849345    20.826974    8253.3648    2016.3491    2372.1196    2201.6482    310.04396    70.543257     258.5766   -4576.6292 
 2593000    108.92939   -5037.3106   -4827.2311   -5037.3106            0    3885.0535    19.957942    19.795408    20.743026    8195.0635    3324.6982    5505.7738    2824.6884   -103.35695   -28.078728   -834.46795   -4362.9028 
 2594000    104.02034   -5039.4325   -4838.8205   -5039.4325            0    2535.0205     19.93407    19.922761    20.845522     8278.626    1484.4421    3450.4999    2670.1196   -985.54953   -887.30809    62.923912   -4532.7541 
 2595000    101.12797   -5048.8213   -4853.7875   -5048.8213            0    1933.1957    19.923997    19.877997    20.891411    8274.0256    2003.2859     1720.489    2075.8123    107.86788    524.08388    900.86726   -4620.5123 
 2596000    104.82674   -5037.3991   -4835.2319   -5037.3991            0    2529.0445    19.960404    19.895966    20.856416      8282.74    3169.4363    1948.4814     2469.216    400.74915    720.58351   -152.80287   -4529.7353 
 2597000    107.08328   -5044.3445   -4837.8254   -5044.3445            0    1582.0564     19.83518    20.043608    20.792277    8266.3561    1836.3904    1746.7549     1163.024    200.03011    675.46992    287.36352   -4647.0985 
 2598000    103.81762   -5042.0328   -4841.8117   -5042.0328            0     2122.551    19.947564    19.953502    20.721308    8247.5725    2093.6708    1823.9548    2450.0275   -494.66286    204.68048    359.29354   -4586.5062 
 2599000    104.55135   -5044.2522   -4842.6162   -5044.2522            0    1875.1355    19.975019     19.95938     20.72806    8264.0493    1880.1939     1736.037    2009.1757   -300.85056   -217.20862    381.65338   -4616.6198 
 2600000    103.41878   -5038.3533   -4838.9015   -5038.3533            0     3439.816    19.852873    19.987132    20.675138     8203.936    3453.2981     3669.852    3196.2978   -139.43683    345.17584   -255.83776   -4427.3413 
 2601000    103.21791   -5053.0206   -4853.9562   -5053.0206            0    3518.5689    19.866121    19.906832    20.678583    8177.7907    3946.0849    3443.0764    3166.5454   -254.24944   -510.96632    256.44976   -4434.3152 
 2602000    100.86795   -5030.4181   -4835.8858   -5030.4181            0    1811.2291    20.000691    19.887054    20.813772    8278.7782    1998.7177    2658.2229    776.74657    98.934636    -29.16936   -411.73488   -4617.2026 
 2603000    105.79423   -5032.7772   -4828.7441   -5032.7772            0    2363.7758    19.874584    19.973569     20.75136    8237.5925    2286.9539     3214.568    1589.8057   -58.520659    625.33913    531.96404   -4544.7676 
 2604000    108.07001   -5040.4576   -4832.0354   -5040.4576            0    2034.2291    19.940311     19.93344    20.803618    8269.0009    2969.1032    2435.2168    698.36742     190.4503    90.023176    279.37484   -4586.7178 
 2605000    107.29073   -5024.9967   -4818.0775   -5024.9967            0    2543.3464    19.932085    19.978821    20.709323    8246.8577    2271.9928    2524.5137    2833.5327   -87.228334   -511.89479   -256.61278   -4512.1842 
 2606000    101.33031     -5047.34    -4851.916     -5047.34            0    3000.6537    19.973557    19.995193    20.736301    8281.5631    2905.1572    3095.8262    3000.9776    189.55975   -33.367802   -162.33169   -4489.5027 
 2607000    104.06276   -5037.6876   -4836.9938   -5037.6876            0    2386.2785    19.950549    19.932043     20.79015    8267.3114    3910.1525    1789.2909    1459.3921    230.34163    51.040981      477.602   -4549.2796 
 2608000    104.23413   -5033.6415   -4832.6172   -5033.6415            0    2972.1421    19.927343    19.934803    20.818026    8269.9119    2156.1631    3506.9727    3253.2905    46.740247    462.10977    153.37945   -4474.1526 
 2609000    105.03374   -5041.3386   -4838.7722   -5041.3386            0    2205.4647    19.955561    19.972764    20.709794    8254.2552     3451.464    1538.5288    1626.4015    21.834523   -232.53566   0.82082428   -4573.2787 
 2610000    108.98472   -5038.0882    -4827.902   -5038.0882            0    3226.7031    19.983962    19.898692    20.703492    8232.8408    2856.2116    3845.5628    2978.3349   -334.23366    112.23198   -1009.8004   -4440.4797 
 2611000    108.28903   -5031.4958   -4822.6513   -5031.4958            0    2887.2659    19.858968    19.947942    20.717466    8207.1315    2750.4239    3091.6035    2819.7702   -188.22145      60.8442    230.61452   -4477.0669 
 2612000    106.61653   -5035.4581   -4829.8391   -5035.4581            0    3651.7705     19.93783    19.846616    20.768043    8217.8825    3402.1226    3765.1782    3788.0108    -360.2757     -173.946    51.557249   -4392.1767 
 2613000    103.31855    -5048.312   -4849.0535    -5048.312            0    3863.5147    19.816431    20.025417    20.709353    8218.1402    4563.6294    3527.7309    3499.1838    194.25531   -448.16451   -92.774767   -4385.9991 
 2614000    105.12573   -5035.2351   -4832.4913   -5035.2351            0    1981.9689    19.992207     19.89701     20.73045    8246.2651    1837.2168    2036.1122    2072.5777   -133.81717   -819.86547    537.28048   -4594.1331 
 2615000    104.90163   -5038.9607   -4836.6491   -5038.9607            0    1641.7223    20.001247    19.999609    20.633381    8253.7056    966.73299    1892.2595    2066.1743    46.663488    357.83583   -370.49116   -4639.0319 
 2616000     105.1273   -5050.7347   -4847.9879   -5050.7347            0    2100.7346     19.98592    19.898889    20.739595    8248.0872       1678.7    2340.9076    2282.5961    111.95795    -77.84198    386.21459   -4595.2907 
 2617000    98.957231   -5039.1624    -4848.315   -5039.1624            0    3298.7827    19.985896    19.904835    20.735669    8248.9802    3322.3754    3079.9974    3493.9752    27.189011   -344.58328   -397.31183   -4451.4619 
 2618000    104.01082   -5039.8278   -4839.2342   -5039.8278            0     2687.261    19.999279    19.953361    20.519139    8188.2204    2127.8249    2191.5901    3742.3678    24.984294    91.893122   -171.56707   -4518.3301 
 2619000    102.17904    -5048.194   -4851.1331    -5048.194            0     2548.572    19.933568    20.039749    20.649957    8248.9084    2906.1441    1220.7987    3518.7731   -521.25737    1355.1457    223.30118   -4544.5351 
 2620000    108.30401   -5047.0328   -4838.1594   -5047.0328            0    3599.4333    19.982478    19.909965    20.665147     8221.638    3028.3208    3903.0243    3866.9548   -184.29093    188.84906   -381.30028   -4406.5724 
 2621000    100.20339   -5047.1129   -4853.8622   -5047.1129            0     3286.067    19.952218    19.934988     20.62776    8204.6344    3758.3606    2399.0308    3700.8097   -33.704242    1369.2116   -59.998178    -4460.664 
 2622000    109.83276   -5038.4061   -4826.5844   -5038.4061            0     2034.907    20.021744    20.069602    20.653792    8299.2805    1249.2714    1595.5553    3259.8944   -27.036392   -770.89928   -358.65657   -4580.2864 
 2623000    104.12036   -5037.5189    -4836.714   -5037.5189            0    2999.1295    19.930667    19.874539    20.686091     8194.026    3463.7016    2564.8744    2968.8124   -256.68853   -65.051379    1155.7282   -4478.3137 
 2624000    105.68675   -5039.2361   -4835.4103   -5039.2361            0    1501.4074     20.05406    19.832019    20.770907    8260.8495     1959.369     2309.706    235.14724   -33.532765   -254.91599    246.25506   -4654.5267 
 2625000     110.2338   -5037.7612   -4825.1661   -5037.7612            0    1923.0362    19.985253    20.063563    20.659847    8284.0901    2485.9915    504.61934    2778.4977   -329.38203   -456.14192   -243.80466   -4592.8346 
 2626000    100.16112   -5044.3301    -4851.161   -5044.3301            0    2118.2783    20.029089    19.831376    20.678315    8213.5176    1821.5811     2494.823    2038.4308   -133.11809    673.49026    143.29717   -4597.4215 
 2627000     105.5005   -5043.7546    -4840.288   -5043.7546            0    2565.4038    19.941288    19.971942    20.713393    8249.4452     2249.834    2372.2469    3074.1306   -128.63615   -893.67215   -701.57832   -4531.6451 
 2628000    103.82771   -5043.8228   -4843.5823   -5043.8228            0    3719.4633    19.921557    19.973475    20.606206    8199.2655    3620.2582    3512.6238    4025.5078   -15.072007   -22.675449    -561.4771   -4398.8168 
 2629000    112.18472   -5034.7083   -4818.3507   -5034.7083            0    3932.3522    19.865179    19.861504    20.704025    8168.8214    5250.4057    3568.7007    2977.9503   -125.32018    104.63203    465.31682   -4349.8743 
 2630000    101.29653   -5052.6705   -4857.3116   -5052.6705            0    1978.4035     19.98823    19.991148    20.640577    8247.7199    1935.7429    2195.2748    1804.1928    -267.8917    778.81574   -156.89173   -4619.3402 
 2631000    100.50793    -5048.386    -4854.548    -5048.386            0    2871.0344     19.91594    19.950463    20.601991    8185.8348     3063.365    1907.9972     3641.741   -508.58241    292.52125    317.28511   -4511.7982 
 2632000    103.01521   -5019.4311   -4820.7576   -5019.4311            0    3210.3717    20.035237    19.767655    20.743494    8215.4538    3221.6233    3658.7685    2750.7233   -148.41811    884.46275     -451.019   -4436.1102 
 2633000    106.05721   -5028.3048   -4823.7646   -5028.3048            0    3535.8369     20.01463    19.927994    20.686929    8251.0113    4541.4022    3300.6111    2765.4973    57.276959   -1087.6275     740.4566   -4398.2883 
 2634000    109.48828   -5057.2766   -4846.1192   -5057.2766            0    2484.0712    19.891679    20.035842     20.73271    8262.9497    3299.4413    1469.0133    2683.7591      76.2248      394.858   -392.37651   -4546.7721 
 2635000    104.85168   -5045.6485   -4843.4332   -5045.6485            0    1635.6471    20.069265    19.971276    20.709925    8300.7207    2261.9533    917.48702    1727.5009    444.47219    1228.6834   -243.54857   -4645.4259 
 2636000    109.24199   -5046.1648   -4835.4824   -5046.1648            0    2640.9847    19.989172    19.897713    20.643272    8210.6301    2935.7132     2206.122    2781.1189    -116.2273    378.50406   -647.76063   -4519.2413 
 2637000    103.39728   -5044.9299   -4845.5195   -5044.9299            0    2336.4794    20.085332    19.974896    20.520796    8232.9929    1594.8343    2859.8035    2554.8004    242.54342   -22.710168    437.89021    -4564.979 
 2638000    105.10219   -5043.6972   -4840.9988   -5043.6972            0    3131.1587    20.012802     19.86666    20.677994    8221.3126    2646.5105    3031.7011    3715.2645    356.83042    233.67902    734.93511   -4465.5747 
 2639000    97.773436   -5041.1065   -4852.5422   -5041.1065            0    3464.3334     19.86926    19.964834    20.605931    8174.0942    4984.8394    2250.0416    3158.1193   -53.039957   -447.88987    456.09641   -4439.5563 
 2640000    104.06153   -5033.2151   -4832.5236   -5033.2151            0    2639.4485    20.115183    19.903344    20.566832    8234.1243    1526.4381    3407.2919    2984.6154   -27.728606    620.47965    75.736776   -4515.5622 
 2641000    107.99553   -5046.9481   -4838.6697   -5046.9481            0    3108.6793    19.911592    20.048156    20.537807    8198.5016    2777.3433    2667.7529    3880.9417    -64.54482   -966.91916   -223.80262    -4466.975 
 2642000    107.12416   -5046.2842   -4839.6863   -5046.2842            0    1811.3552    19.923459     19.92704    20.690933    8214.6223    2604.8353    767.60906    2061.6214   -137.60175   -1109.8581      49.9059   -4622.6826 
 2643000    109.12636   -5051.5445   -4841.0851   -5051.5445            0    2387.7797    20.037459    19.934063      20.6003     8228.336    3029.8613    1730.5349     2402.943    507.53912    624.27995    316.28023   -4554.5471 
 2644000    103.75576   -5038.3766   -4838.2749   -5038.3766            0    2206.2005    19.961486    20.050632    20.583319    8238.2761    2603.5419     1857.455    2157.6047   -68.512808     60.77462   -368.71138   -4573.2069 
 2645000    107.38483   -5049.9732   -4842.8725   -5049.9732            0    2346.3826    19.927782    19.903434    20.734587    8223.9859    2177.3268    2570.0288    2291.7924    217.84506    596.50848    69.876993   -4561.4511 
 2646000    103.09527   -5044.7668   -4845.9389   -5044.7668            0    2860.0444    19.876681    19.945597     20.75721     8229.243    3673.0924    2484.7722    2422.2685   -205.47185   -303.12536   -643.54566   -4502.6905 
 2647000     101.5879   -5044.1775   -4848.2567   -5044.1775            0    3699.3529    19.853772    19.848023    20.725106    8166.8965    4390.1951    3378.1913    3329.6724   -464.26205     234.8011   -309.01627   -4407.6423 
 2648000    101.99444   -5045.7704   -4849.0655   -5045.7704            0    1607.0169    20.038484    19.902443    20.816284    8301.8421    2241.5105    1385.8437    1193.6966   -323.62645    827.97674   -278.55379   -4654.4978 
 2649000    110.21475    -5043.211   -4830.6526    -5043.211            0     2082.422    19.915771    19.974416    20.801881    8275.1104     1229.653    3115.9001     1901.713    -248.7228    910.06085   -546.96825   -4579.3375 
 2650000    105.12313   -5044.4539   -4841.7151   -5044.4539            0    3619.5102    20.022032    19.826064    20.687165    8211.9374    2781.3317    4816.4296    3260.7692   -119.36306    673.46539     -792.522   -4408.2328 
 2651000     105.9081   -5028.3559   -4824.1032   -5028.3559            0     2494.343    19.904569    19.991661    20.781656    8269.5486    1953.3123    3079.8472    2449.8696    166.66032    -256.3925   -388.13162   -4523.2783 
 2652000    104.59859   -5036.1504   -4834.4232   -5036.1504            0    2101.5488    19.890031    19.974371    20.848191    8282.7959    2417.5846    2360.1768    1526.8851    362.44892    379.02628    4.1245929   -4580.5643 
 2653000    104.04114   -5043.2442   -4842.5921   -5043.2442            0    2342.5486    19.944643    19.954743    20.848398     8297.459    2924.9145    2371.8565    1730.8749   -43.951617   -50.581389    290.51729   -4559.1204 
 2654000    107.11868    -5043.626   -4837.0387    -5043.626            0    3563.7531    19.930966    20.001172    20.545009    8190.1173     4588.259    2500.9922    3602.0082     -438.558    50.097836     557.0556   -4411.3681 
 2655000    107.67613   -5047.6276   -4839.9651   -5047.6276            0    2604.6138    19.945097    19.950095     20.66684    8223.4714    3264.8118    2053.6174    2495.4123   -359.60277   -97.115602   -622.47861   -4527.5914 
 2656000    105.42632   -5051.9368   -4848.6133   -5051.9368            0    2633.2432    19.846235    19.946052    20.767503    8220.8999     3386.539    2288.4576     2224.733    337.46491    697.54886   -325.43065   -4532.9048 
 2657000    106.21626   -5037.5886   -4832.7417   -5037.5886            0    3515.4615    19.949082    19.911337    20.578911    8174.2088    2444.7235    4779.8649    3321.7962   -185.99644   -205.59417   -1179.7364   -4413.6549 
 2658000     98.71298   -5042.5399   -4852.1636   -5042.5399            0    3212.0225     19.89379    19.951116    20.610262    8180.2812    4699.1123    2265.2582    2671.6971    125.15114    169.76957   -89.489158   -4468.9661 
 2659000    105.23492   -5046.9173   -4843.9629   -5046.9173            0    2413.6546     19.88459    19.941397    20.751573    8228.5489    3667.9184    1318.4238    2254.6215   -597.48599    118.30673   -150.66624   -4554.3124 
 2660000    107.77029   -5045.0401    -4837.196   -5045.0401            0    2248.2578    20.002986     19.94893    20.799264    8299.6999    1796.3953    2787.1601    2161.2179   -297.06662   -80.451211   -513.38873    -4565.061 
 2661000    102.96753   -5046.4269   -4847.8453   -5046.4269            0    2039.4726    19.905708    19.895974    20.793424    8235.0995    1330.4667    2464.1265    2323.8245   -114.94255    680.31703    -51.49869   -4602.9037 
 2662000    106.47076   -5041.7602   -4836.4223   -5041.7602            0    2603.2034    19.844292    19.954299    20.818442    8243.6643    3420.1941    2341.8668    2047.5494   -501.26153    466.45525   -826.77001   -4523.4512 
 2663000    102.16583   -5030.2629   -4833.2275   -5030.2629            0    3089.1936     19.90359     19.85704    20.819729    8228.5064    3616.3264    2868.6748    2782.5796   -129.92621   -29.868176     178.3608   -4462.5109 
 2664000    99.880908   -5037.5157   -4844.8869   -5037.5157            0     3091.047     20.00812    19.972916    20.582937    8225.3634    2259.9384    3205.4088    3807.7939   -224.67079   -308.26003    43.927247   -4474.0896 
 2665000    103.81625   -5038.7807   -4838.5623   -5038.7807            0    2679.5792    19.884602    19.872907    20.777715    8210.6224    721.25479    4915.9122    2401.5707   -163.16759    639.78375    362.08757   -4517.7001 
 2666000    108.68653   -5043.7225   -4834.1114   -5043.7225            0    2334.1728    19.889665    19.940012    20.763995    8235.0038     1595.653    2579.3189    2827.5465    560.49667   -15.332696   -430.94272   -4553.7794 
 2667000    104.33088   -5036.6737   -4835.4629   -5036.6737            0    2461.1119    19.932066    20.015746    20.602727    8219.5646    4044.8257    1476.3599    1862.1501    -649.5347    154.58579    587.08468   -4540.4397 
 2668000    109.85588   -5033.2543    -4821.388   -5033.2543            0     2720.409    19.903997    20.020176    20.585694    8203.0186    2017.0833    2645.8414    3498.3023    40.963738    1138.9849   -8.7639483   -4495.9384 
 2669000    111.30113   -5039.5396   -4824.8861   -5039.5396            0    3204.5184    19.961297    19.975682    20.650403    8234.1527    3784.8275    2728.2762    3100.4515    15.954198    60.773334   -403.37066   -4440.0661 
 2670000    106.41237   -5040.2438   -4835.0186   -5040.2438            0     2782.138    19.963378    20.005174    20.661958    8251.7836    2573.7525    2045.9554    3726.7062   -5.0597857    78.577903   -127.15943   -4500.2055 
 2671000    107.61726   -5039.7789     -4832.23   -5039.7789            0    2633.9362    19.932444    19.992157    20.728728    8260.2436    2523.1956    1441.6594    3936.9537   -135.12606    191.62498    89.472634   -4514.9271 
 2672000    103.81192   -5046.1895   -4845.9794   -5046.1895            0    3004.9814    19.984174    19.964851    20.687123    8253.7702    3694.4698    2795.8868    2524.5877   -383.57345    956.92386   -507.60719   -4484.2615 
 2673000    98.661068   -5038.4246   -4848.1484   -5038.4246            0    2229.6932     20.05465    19.886688    20.663374    8240.9788    980.95902    3362.8958    2345.2247   -339.28592    198.65108    594.51485     -4580.17 
 2674000    106.82339   -5046.2771   -4840.2592   -5046.2771            0    2676.1167    19.874427    20.055597    20.747734    8269.9119    2059.2585    2710.9566     3258.135   -731.50483    607.03932   -692.96433   -4517.4977 
 2675000    106.03422   -5047.2563   -4842.7604   -5047.2563            0    1649.6972    20.040297    19.926055    20.702924     8267.176    1766.3761     972.7064    2210.0092   -698.67982   -682.47204    526.80653   -4643.8593 
 2676000    103.24526    -5049.103   -4849.9858    -5049.103            0    2680.7916     19.96396     19.95547    20.730254    8258.7304    3074.7924     2724.049    2243.5334   -231.03267    -100.4251   -665.17073   -4527.0976 
 2677000    108.55002   -5044.5262   -4835.1784   -5044.5262            0    2966.6253    19.868654    19.989246    20.620042    8189.4435    3838.3628    2032.1068    3029.4062   -411.58756    645.09432   -270.60099   -4480.8606 
 2678000    101.82511    -5035.143   -4838.7647    -5035.143            0    1803.0445    19.836423    20.084425    20.764456    8272.6247    1096.0996      1892.61    2420.4238   -527.62608    197.59422    209.38017   -4621.2315 
 2679000    107.66706   -5034.8095   -4827.1645   -5034.8095            0    2772.8337    19.794619    20.018498    20.784071    8235.8658    3419.9606    2084.7717     2813.769    168.02343    124.17264    -328.4965   -4494.1149 
 2680000    105.82479   -5039.8562   -4835.7642   -5039.8562            0    2760.1663    19.986191    19.906252     20.78553    8269.5266    3422.1569    2385.4005    2472.9414    257.23452    385.67087    347.44402   -4502.8811 
 2681000    103.46999   -5041.5502   -4841.9997   -5041.5502            0    3213.3231    19.839834    20.030168    20.704769    8227.9759     2966.054    4042.1327    2631.7827    3.2345363    384.63687    322.32508   -4456.4119 
 2682000    104.36906   -5039.5992   -4838.3147   -5039.5992            0    3610.0823    19.825279    19.855981    20.868175    8214.7644    4370.6829    3479.6611    2979.9028   -36.325836    359.86086    903.12474   -4405.8127 
 2683000    108.33955   -5060.1683   -4851.2264   -5060.1683            0    1167.5233    19.928753    20.019919    20.796699     8297.301    1685.2779     70.09219       1747.2    -92.23864   -557.21559    229.22021   -4709.9471 
 2684000    109.40145   -5057.7925   -4846.8026   -5057.7925            0    3470.9054     20.06445    19.835117    20.596962    8197.1939    2903.2559    3374.4345    4135.0258   -324.01796    183.74666    595.87742    -4431.864 
 2685000    108.38995   -5041.0779   -4832.0388   -5041.0779            0    1791.7336     19.93309    20.077363    20.719557    8292.0475    1332.1898    850.02785    3192.9832   -297.39201    576.56349   -533.58773   -4615.3626 
 2686000     105.0164   -5030.1051   -4827.5722   -5030.1051            0    2862.8139    19.856071    20.039607    20.733654    8250.0841    2951.7547    2460.4942    3176.1929   -302.80871     198.8746    91.711422   -4483.1212 
 2687000    103.85559   -5042.0596   -4841.7654   -5042.0596            0    3373.2004    19.797538    20.014015    20.699382    8201.6791    4695.9387    2165.5608    3258.1017    15.379572     1171.991     524.0613   -4438.2865 
 2688000    104.84413   -5039.7203   -4837.5196   -5039.7203            0    2985.0835     19.87357    20.044666    20.764241    8271.6239    3023.0209    2472.1205    3460.1091   -434.35699    171.51423   -232.65837   -4477.4196 
 2689000    97.484677   -5038.6026   -4850.5952   -5038.6026            0    2432.8568    20.022261    19.872277    20.693496    8233.6922    843.93955     3610.945    2843.6859   -1.8352544   -51.698992   -274.49925   -4558.4578 
 2690000    110.05816   -5032.7501   -4820.4937   -5032.7501            0    3661.3024    19.801815    19.947835    20.696123    8175.0374    4186.1593    3369.6145    3428.1334    -69.43348    819.56172    139.98645   -4383.9766 
 2691000     101.3253   -5032.5895   -4837.1751   -5032.5895            0    2815.7001    19.930183    19.986398    20.669569    8233.3626    4295.8978    1512.3854    2638.8172    138.38655   -685.83302     1478.459   -4499.0795 
 2692000    107.71892   -5043.7686   -4836.0236   -5043.7686            0    2512.8334    19.992304     19.75821    20.886479    8250.4129    2200.2514    3221.7355    2116.5134   -217.28026    -222.2236   -147.52651   -4533.6699 
 2693000    106.52451   -5040.7158   -4835.2743   -5040.7158            0    2834.8976    19.943827    19.803016    20.858645    8238.0784    3813.3106     2557.295    2134.0873    97.360955     639.5403   -471.26869   -4494.6786 
 2694000    106.48997   -5030.9237   -4825.5489   -5030.9237            0    1975.1265     19.98444     19.86527    20.760585    8241.8753    2644.9939    1724.0321    1556.3536   -357.13198   -438.71318    228.62302   -4588.1401 
 2695000    105.81106    -5042.662   -4838.5964    -5042.662            0    1944.1733    19.967958    19.792709    20.883353    8253.5186    1145.3752    3670.1658     1016.979   -102.21708    427.87265     200.7135    -4604.578 
 2696000    105.24808   -5046.3894   -4843.4096   -5046.3894            0    2843.5192    20.017136     19.83632    20.747032    8237.9476    2484.1682    2958.5991    3087.7903    9.0530595    240.55452   -745.03506   -4501.7835 
 2697000    104.52263    -5036.901   -4835.3203    -5036.901            0     3450.942    19.936499    19.966691    20.662912    8225.2008    2028.6504    3955.6716     4368.504   -763.28073   -680.63251   -40.562913   -4421.3587 
 2698000     106.6332   -5043.4356   -4837.7845   -5043.4356            0    2686.6109     19.93707    19.948377    20.760604    8256.7455    1941.8872    3559.2307    2558.7147   -3.0231588   -578.74006    562.75957   -4514.2732 
 2699000    104.64018   -5029.0975   -4827.2901   -5029.0975            0    1623.1669    19.936136     19.95728    20.795938    8274.1018    1097.4667    2479.8872    1292.1468   -547.88541    87.303862   -398.42933   -4631.4237 
 2700000     104.8999   -5048.5255   -4846.2172   -5048.5255            0     1706.379    20.016628    19.977982     20.71619    8284.2352    2105.6023    615.93538    2397.5992   -565.03468   -227.54692    413.89068   -4640.0575 
 2701000    104.49311   -5044.4616   -4842.9379   -5044.4616            0    1682.6825    20.035049    19.885855       20.702    8247.9679    1065.3734    2340.3811    1642.2929    406.90394   -223.11182    186.24155   -4640.5311 
 2702000    106.52825   -5040.7106   -4835.2619   -5040.7106            0    2832.6011    20.098736    19.829674    20.619007    8217.7338    2130.1725    3391.1672    2976.4638       268.79   -220.54782     -205.752   -4495.7826 
 2703000    104.63329   -5047.4321    -4845.638   -5047.4321            0     4244.482    19.991613    20.003042    20.481452    8190.3906    4655.6477    3228.5094     4849.289   -418.83459   -424.66685    57.277635   -4338.6413 
 2704000    101.82392   -5045.7408   -4849.3648   -5045.7408            0    2400.1461    19.949532    19.999351     20.70801    8262.0343    3026.9136    2191.9959    1981.5287    469.51099   -28.867626   -353.50754   -4560.1633 
 2705000    104.16343   -5052.3364   -4851.4484   -5052.3364            0    3013.3449    19.947347    19.880437    20.786346    8243.0745    3528.4847    2642.4428    2869.1071   -16.560811   -268.73883    212.02308   -4489.1938 
 2706000    101.79997    -5047.486   -4851.1562    -5047.486            0    2074.5148    19.886993    19.945681    20.833544    8263.8258    1929.9651    2643.1468    1650.4323     251.4868     188.9436    298.82599   -4601.1369 
 2707000    106.65644   -5046.4161   -4840.7202   -5046.4161            0    2969.9616    19.841615    19.851394    20.923123    8241.2773    4078.8709    2154.0445    2676.9694    239.34862    274.50939   -470.63182   -4483.7588 
 2708000    105.39907   -5036.5888   -4833.3178   -5036.5888            0    3397.4346     19.98745    19.848584    20.779666     8243.763     4841.954    2815.2501    2535.0998    -316.6044    69.554922    1075.5562    -4424.855 
 2709000     109.0676   -5047.6343   -4837.2883   -5047.6343            0    2576.0929    19.990121    19.938384    20.582824    8203.7107    2662.0754     2402.008    2664.1954    43.376784     508.4809   -688.50228   -4529.0775 
 2710000    110.29344   -5035.8138   -4823.1036   -5035.8138            0     2531.706    20.013915    19.927884    20.579626    8207.8747    4024.6922    1855.5948    1714.8308   -376.90377    770.76882   -57.827396   -4520.0497 
 2711000    104.66339   -5034.6575   -4832.8054   -5034.6575            0    3160.6284    20.026058    19.900729    20.585418    8203.9716    2989.7303    2525.4776    3966.6775    612.83806   -288.37596    130.04365   -4454.6472 
 2712000    103.03177   -5036.4326   -4837.7272   -5036.4326            0    1337.3672    20.110363    19.936926    20.698116     8298.678    1075.6827    1375.1702    1561.2485    193.10083    123.71466    280.33245   -4675.8687 
 2713000    106.44476   -5033.9173   -4828.6296   -5033.9173            0    3331.9816    19.962484    19.977197    20.688846    8250.5974    3220.4621    3257.3006    3518.1822    -2.847657    388.69668    312.53289   -4427.7039 
 2714000    101.59998   -5032.4878   -4836.5437   -5032.4878            0    2538.1638    19.957053    19.914915    20.731811    8239.7133     2548.998    2349.3441    2716.1492   -479.34619     883.0901    291.19378   -4531.5382 
 2715000    102.78258   -5057.3403   -4859.1154   -5057.3403            0    2806.4322    19.986332    19.897378    20.699211    8231.5715    2217.8964     3328.291    2873.1091    -158.8919    1.7463276   -574.42606    -4522.206 
 2716000    106.10993   -5048.8154   -4844.1734   -5048.8154            0    2298.1225    19.977711    19.930028    20.776252    8272.1967    1366.8699    3511.8382    2015.6594   -109.08505   -108.56553   -1521.6792   -4566.9245 
 2717000    101.39203   -5047.8647   -4852.3217   -5047.8647            0    3505.6172    19.883866    19.950434    20.707979    8214.6843     4015.548    2684.1504    3817.1534   -410.82791   -282.38797   -488.38482   -4432.3391 
 2718000    106.85038   -5032.1909   -4826.1209   -5032.1909            0    4719.0895    19.989181    19.675783    20.793321    8178.0712    4570.8225    6008.9414    3577.5045     -285.572    33.589294   -149.32128   -4263.2809 
 2719000    105.74982     -5036.36   -4832.4126     -5036.36            0    2600.3593     19.96387    19.792407    20.767984    8206.1164    3027.2216    3011.5862    1762.2702   -330.30152    223.31321     286.0685   -4521.2073 
 2720000     102.8243   -5047.4061   -4849.1008   -5047.4061            0    2679.5867    20.014004    20.068729    20.582701    8267.1581    2137.2935    2814.1631    3087.3034     -186.144    148.89963    -721.6309   -4526.0283 
 2721000    107.97517   -5048.4122    -4840.173   -5048.4122            0    2822.6565    20.001994    19.927435      20.5782    8202.2325    4114.2948    2053.2695    2300.4051   -23.157426   -704.34641   -141.16262   -4502.5236 
 2722000    100.46825   -5039.9364   -4846.1749   -5039.9364            0    2694.1018    19.941336    19.952846    20.686344    8230.8152    2945.9671    2113.7246    3022.6138    313.16868    -177.8471   -415.05973   -4522.7803 
 2723000    107.40385   -5054.6216   -4847.4842   -5054.6216            0    3581.7704    20.055304    19.852706    20.593906    8199.5059    2537.0781    4563.2313    3645.0018    76.363627    745.40694   -379.02709   -4419.1712 
 2724000    103.87331   -5038.4727   -4838.1443   -5038.4727            0    2535.4714     19.92592    19.983769    20.702665     8243.697    3490.5915    1986.6548    2129.1678    270.12818    275.47177      1080.02    -4533.315 
 2725000    103.74782   -5047.4979   -4847.4115   -5047.4979            0    2428.1011    20.067375    19.802014    20.691596    8222.3117    1774.0209    2602.6842     2907.598      229.834    730.86616    625.48462   -4556.2482 
 2726000    108.42842   -5047.8587   -4838.7454   -5047.8587            0    2257.7549    19.887742    20.019561    20.739343     8257.242    2134.1109    3200.7723    1438.3816   -126.55493   -639.45699   -131.37898   -4566.8588 
 2727000    112.92456   -5031.1398   -4813.3553   -5031.1398            0    3250.0752    19.984099    19.884754    20.713228    8230.9996     3996.661    2896.5632    2857.0013    342.66324    235.24332   -638.85558    -4423.214 
 2728000     108.8483   -5039.3289   -4829.4058   -5039.3289            0    1693.2875    20.047091    19.981806    20.645113    8269.9594    398.71349    1730.9511     2950.198   -339.89523    893.29785    1185.2132   -4625.1803 
 2729000    109.06451   -5039.7433   -4829.4032   -5039.7433            0    2894.9324    19.904073    19.942288    20.673325      8205.92    3602.0122    2421.5337    2661.2515   -244.78959    361.66096   -428.07978   -4482.9524 
 2730000    107.15238   -5033.7622   -4827.1098   -5033.7622            0    2251.3641    20.088902    19.809775     20.76916    8265.2246     2499.868     2834.763    1419.4611    100.87213    491.25585   -294.07651   -4555.7308 
 2731000    107.36553   -5038.3623   -4831.2989   -5038.3623            0    2802.5117    19.959202    19.891715    20.833613    8271.4188    2468.1639    2727.3206    3212.0506   -605.97843     350.6286   -1213.0557   -4493.2315 
 2732000    102.56509   -5031.3931   -4833.5877   -5031.3931            0    2849.6677    20.059379    19.926169     20.62906    8245.5707    2280.3589    2992.5063    3276.1381    154.64571    442.33485    173.49945   -4490.9061 
 2733000    104.05908   -5046.1252   -4845.4386   -5046.1252            0    1999.4121    19.912029    19.939293    20.801057    8258.6805    2297.2669    1785.8923    1915.0771    90.883739      85.6354    258.49533   -4604.6206 
 2734000    106.46377   -5036.0092   -4830.6848   -5036.0092            0    2192.6521    19.972384    19.933617    20.764256    8266.7043    2961.8148    1672.1292    1944.0122    91.720085    422.66738    110.09481   -4566.3356 
 2735000    99.804011   -5041.8855    -4849.405   -5041.8855            0    3213.1314    19.967441    19.896282    20.691813    8220.3992    3357.3579    3334.0139    2948.0223   -153.05559     858.4554    -431.8779   -4464.1953 
 2736000    102.76763   -5045.0549   -4846.8589   -5045.0549            0     1732.187    20.000954    19.904087    20.736951    8255.3953    2043.3306    1248.2373    1904.9931    288.01086   -375.14075    522.69257   -4638.3097 
 2737000    104.45213   -5043.1138   -4841.6691   -5043.1138            0    1874.8219    19.966703     19.92136     20.86736     8300.282    2203.3952    1990.6213    1430.4492    312.83463   -551.30454   -699.89635   -4614.7198 
 2738000    104.97403   -5035.8565   -4833.4053   -5035.8565            0    2898.5746    19.859887    19.818844    20.960429    8250.0248    3729.8469    3422.5804    1543.2964   -406.45518    19.571776    177.97101   -4484.6542 
 2739000    104.36729   -5040.4328   -4839.1517   -5040.4328            0    2470.5433    19.948677    20.006695    20.621466    8230.1738    3161.5535    1647.1542    2602.9221   -188.95658    477.76412   -764.76159   -4542.6158 
 2740000     105.3973   -5038.0828   -4834.8152   -5038.0828            0    2200.3138    19.990253    19.849769    20.811484    8258.0368    1902.8233    3071.0636    1627.0544   -124.34635    803.23499    642.68247   -4569.8205 
 2741000    106.86999   -5052.4785   -4846.3707   -5052.4785            0    3906.0461    19.983807     19.77618    20.701939    8181.4758    3865.4132    4448.7739    3403.9511    30.850874    22.259707     622.8163   -4380.3074 
 2742000    101.13328   -5033.3181   -4838.2741   -5033.3181            0    3526.7677    19.895793     20.00755    20.709062    8243.5751    3678.5734    2756.1859    4145.5438   -422.06225    70.678734   -332.76733   -4414.2717 
 2743000    109.44408    -5043.562   -4832.4899    -5043.562            0    1231.1314    20.041797    19.964508     20.70219    8283.4556     1924.442    538.98757    1229.9646   -50.615304    164.50588   -162.45588   -4683.7622 
 2744000    106.34304   -5033.6921   -4828.6006   -5033.6921            0    3008.9592    19.980504     19.89044    20.633025    8199.9977    2156.3506    3097.4599    3773.0669  -0.24984873     564.7698    329.94032   -4468.7635 
 2745000     109.3971   -5034.1054   -4823.1238   -5034.1054            0     1525.209    20.072566    20.089591    20.579303    8298.5963    1284.1872    1513.4147    1778.0251    64.069589   -27.311716   -449.45864   -4638.5331 
 2746000    108.44735   -5040.3407   -4831.1909   -5040.3407            0    2561.7459    19.975305    20.008999    20.558603    8216.9825    3103.8576    1806.9115    2774.4688   -54.915274    96.427908    354.77567   -4524.2008 
 2747000    104.91852    -5047.504   -4845.1598    -5047.504            0    748.83196    19.908547    20.081493    20.874352     8345.427    839.20265    157.28187    1250.0113    379.82448     138.3514    163.95777   -4754.0198 
 2748000    108.23741   -5037.7612   -4829.0163   -5037.7612            0    2331.7207    19.845924     20.00754    20.748688    8238.6425    2367.5839    2716.0974    1911.4809   -309.33849    265.50069    309.72827    -4548.855 
 2749000    104.81321   -5046.6399   -4844.4988   -5046.6399            0    3618.2068    19.837985    20.041299     20.61281      8195.22    3644.4891    2574.6983    4635.4331   -89.666253    1555.0409    292.77057   -4412.0548 
 2750000    108.94631   -5031.0152   -4820.9031   -5031.0152            0    2270.4963    19.965208    20.063601    20.651627    8272.5041    1118.3993    2596.8767     3096.213    25.045561    985.21462    360.66147   -4546.9768 
Loop time of 344.017 on 64 procs for 250000 steps with 972 atoms

Performance: 125.575 ns/day, 0.191 hours/ns, 726.708 timesteps/s
99.1% CPU use with 64 MPI tasks x 1 OpenMP threads

MPI task timing breakdown:
Section |  min time  |  avg time  |  max time  |%varavg| %total
---------------------------------------------------------------
Pair    | 18.654     | 27.499     | 36.819     |  86.2 |  7.99
Bond    | 0.25986    | 0.27458    | 0.29364    |   1.1 |  0.08
Kspace  | 135.88     | 145.21     | 154.28     |  38.1 | 42.21
Neigh   | 0.69261    | 0.70739    | 0.7173     |   0.6 |  0.21
Comm    | 80.573     | 81.225     | 82.454     |   5.2 | 23.61
Output  | 0.5674     | 0.56787    | 0.57009    |   0.1 |  0.17
Modify  | 82.051     | 82.959     | 83.493     |   3.8 | 24.11
Other   |            | 5.574      |            |       |  1.62

Nlocal:        15.1875 ave          20 max          11 min
Histogram: 2 7 8 9 10 6 10 9 2 1
Nghost:        2235.16 ave        2273 max        2195 min
Histogram: 3 3 5 10 9 11 9 5 6 3
Neighs:        4764.14 ave        7169 max        3384 min
Histogram: 9 8 11 10 9 6 7 3 0 1

Total # of neighbors = 304905
Ave neighs/atom = 313.68827
Ave special neighs/atom = 2.0000000
Neighbor list builds = 2030
Dangerous builds = 0

unfix		3
unfix		2
unfix		1

write_data	data.final.${pid}
write_data	data.final.1
System init for write_data ...
PPPM initialization ...
  extracting TIP4P info from pair style
  using 12-bit tables for long-range coulomb (../kspace.cpp:340)
  G vector (1/distance) = 0.37137411
  grid = 24 24 24
  stencil order = 5
  estimated absolute RMS force accuracy = 0.0036121948
  estimated relative force accuracy = 1.0878017e-05
  using double precision FFTW3
  3d grid and FFT values/proc = 2197 216
Last active /omp style is kspace_style pppm/tip4p/omp
WARNING: Not all mixed pair coeffs generated from mixing. Use write_data with 'pair ij' option to store all pair coeffs. (../write_data.cpp:312)

write_restart   restart.lmp.${pid}
write_restart   restart.lmp.1
System init for write_restart ...
PPPM initialization ...
  extracting TIP4P info from pair style
  using 12-bit tables for long-range coulomb (../kspace.cpp:340)
  G vector (1/distance) = 0.37137411
  grid = 24 24 24
  stencil order = 5
  estimated absolute RMS force accuracy = 0.0036121948
  estimated relative force accuracy = 1.0878017e-05
  using double precision FFTW3
  3d grid and FFT values/proc = 2197 216
Last active /omp style is kspace_style pppm/tip4p/omp
Total wall time: 0:05:44
