LAMMPS (30 Jul 2021)
Processor partition = 1
  using 4 OpenMP thread(s) per MPI task
using multi-threaded neighbor list subroutines
variable        pid world 0 1
variable        phase world IceVI IceV

shell cd ${phase}
shell cd IceV
include Restart.lmp
echo both
log log.lammps
#include		in.partitions
include		in.temp
variable        temperature equal 153.27
variable	tempDamp equal 100.0
include		in.pressure
variable        pressure equal 8338.9
variable        pressureDamp equal 1000.0 # This is 1 ps
include		in.seed
variable        seed equal 745823

units		real
atom_style	full
read_restart    restart.lmp.${pid}
read_restart    restart.lmp.1
Reading restart file ...
  restart file = 30 Jul 2021, LAMMPS = 30 Jul 2021
  restoring atom style full from restart
  triclinic box = (-3.1863805 0.013445809 -0.00081225479) to (14.796379 22.566553 19.230810) with tilt (-0.092243183 -6.7414046 0.20049308)
  2 by 4 by 2 MPI processor grid
  restoring pair style lj/cut/tip4p/long/omp from restart
  restoring bond style harmonic/omp from restart
  restoring angle style harmonic/omp from restart
  1008 atoms
  672 bonds
  336 angles
Finding 1-2 1-3 1-4 neighbors ...
  special bond factors lj:    0        0        0       
  special bond factors coul:  0        0        0       
     2 = max # of 1-2 neighbors
     1 = max # of 1-3 neighbors
     1 = max # of 1-4 neighbors
     2 = max # of special neighbors
  special bonds CPU = 0.001 seconds
  read_restart CPU = 0.005 seconds

include 	in.setup
variable	out_freq equal 1000
variable	out_freq2 equal 10000
variable	out_freq3 equal 1000

timestep	2.0

neigh_modify    delay 7 every 1

include		in.tip4p
# This is TIP4P/Ice

# create groups ###
group ox type 2
336 atoms in group ox
group hy type 1
672 atoms in group hy

# set charges - beside manually ###
set group ox charge -1.1794
Setting atom values ...
  336 settings made for charge
set group hy charge 0.5897
Setting atom values ...
  672 settings made for charge

# ### TIP3P Potential Parameters ###
pair_style lj/cut/tip4p/long/omp 2 1 1 1 0.1577 8.5
pair_coeff 1 1*2 0.000 0.000
pair_coeff 2 2 0.21084 3.1668
bond_style  harmonic
bond_coeff  1 450 0.9572
angle_style harmonic
angle_coeff 1 55 104.52
kspace_style pppm/tip4p/omp 1.0e-5
pair_modify tail yes

thermo          ${out_freq}
thermo          1000
thermo_style    custom step temp pe etotal epair emol press lx ly lz vol pxx pyy pzz pxy pxz pyz enthalpy

restart 	${out_freq3} restart.lmp.${pid} restart2.lmp.${pid}
restart 	1000 restart.lmp.${pid} restart2.lmp.${pid}
restart 	1000 restart.lmp.1 restart2.lmp.${pid}
restart 	1000 restart.lmp.1 restart2.lmp.1


include         in.dump
dump            myDump all atom ${out_freq2} dump.water.${pid}
dump            myDump all atom 10000 dump.water.${pid}
dump            myDump all atom 10000 dump.water.1
dump            myDump2 all dcd ${out_freq2} dump.dcd
dump            myDump2 all dcd 10000 dump.dcd
dump_modify     myDump append yes
dump_modify     myDump2 append yes


variable natoms 	equal  "count(all)"                        # NUMBER ATOMS
variable H      	equal  "enthalpy/v_natoms"                 # ENTHALPY-per-atom
variable Vol      	equal  "vol/v_natoms"                 # volume-per-atom
fix AVG all 		ave/time ${out_freq} 1 ${out_freq} v_Vol v_H file vol_enthalpy.dat
fix AVG all 		ave/time 1000 1 ${out_freq} v_Vol v_H file vol_enthalpy.dat
fix AVG all 		ave/time 1000 1 1000 v_Vol v_H file vol_enthalpy.dat



fix 		1 all shake 1e-6 200 0 b 1 a 1
Finding SHAKE clusters ...
       0 = # of size 2 clusters
       0 = # of size 3 clusters
       0 = # of size 4 clusters
     336 = # of frozen angles
  find clusters CPU = 0.000 seconds
fix             2 all nph tri ${pressure} ${pressure} ${pressureDamp}
fix             2 all nph tri 8338.9 ${pressure} ${pressureDamp}
fix             2 all nph tri 8338.9 8338.9 ${pressureDamp}
fix             2 all nph tri 8338.9 8338.9 1000
fix             3 all temp/csvr ${temperature} ${temperature} ${tempDamp} ${seed}
fix             3 all temp/csvr 153.27 ${temperature} ${tempDamp} ${seed}
fix             3 all temp/csvr 153.27 153.27 ${tempDamp} ${seed}
fix             3 all temp/csvr 153.27 153.27 100 ${seed}
fix             3 all temp/csvr 153.27 153.27 100 745823


run             250000
PPPM initialization ...
  extracting TIP4P info from pair style
  using 12-bit tables for long-range coulomb (../kspace.cpp:340)
  G vector (1/distance) = 0.37971671
  grid = 24 27 32
  stencil order = 5
  estimated absolute RMS force accuracy = 0.002409526
  estimated relative force accuracy = 7.2562158e-06
  using double precision FFTW3
  3d grid and FFT values/proc = 7875 1344
Last active /omp style is kspace_style pppm/tip4p/omp
Neighbor list info ...
  update every 1 steps, delay 7 steps, check yes
  max neighbors/atom: 2000, page size: 100000
  master list distance cutoff = 10.8154
  ghost atom cutoff = 10.8154
  binsize = 5.4077, bins = 5 5 4
  1 neighbor lists, perpetual/occasional/extra = 1 0 0
  (1) pair lj/cut/tip4p/long/omp, perpetual
      attributes: half, newton on, omp
      pair build: half/bin/newton/tri/omp
      stencil: half/bin/3d/tri
      bin: standard
Setting up Verlet run ...
  Unit style    : real
  Current step  : 22250000
  Time step     : 2
Per MPI rank memory allocation (min/avg/max) = 12.46 | 12.47 | 12.48 Mbytes
Step Temp PotEng TotEng E_pair E_mol Press Lx Ly Lz Volume Pxx Pyy Pzz Pxy Pxz Pyz Enthalpy 
22250000    152.24386   -5046.1494   -4741.6429   -5046.1494            0    8170.1258     17.98276    22.553107    19.231623    7799.7137    7422.2059    8767.2725    8320.8991   -751.06637    440.24035   -2513.0529   -3812.2843 
22251000    149.20946   -5073.9481   -4775.5107   -5073.9481            0    7808.6361    17.894019     22.84471    19.134287     7821.784    8878.4963    7496.1435    7051.2686   -281.27222    620.51264    301.47734   -3884.7585 
22252000    153.81115   -5070.8071   -4763.1658   -5070.8071            0    7830.6528    17.848796    22.799948    19.135293    7787.1386    7574.3897    8162.8786    7754.6901    -54.83811   -35.888566    571.66634   -3873.8587 
22253000    145.47773   -5056.0706   -4765.0972   -5056.0706            0    8832.6641    17.877958    22.764122    19.127918     7784.604    9725.2063    8226.4942     8546.292   -1144.5965    7.6265667    108.98735   -3762.3207 
22254000    146.86639   -5075.2491   -4781.4982   -5075.2491            0    8144.6474    17.779914    22.744503    19.209898    7768.3926    9224.7307    7755.9434    7453.2682   -1380.9441    31.487735   -90.214622   -3858.7582 
22255000    148.00744   -5052.6366   -4756.6034   -5052.6366            0    9072.2497     17.85024    22.638319    19.226784    7769.5326    9562.9317    9040.2414    8613.5759    323.19243   -625.36858    486.98177   -3728.6208 
22256000    153.47857   -5057.5238   -4750.5477   -5057.5238            0    8313.3196     17.80123    22.851709    19.157434    7793.0245    9724.3342    7853.9853    7361.6394   -484.87721   -174.86281   -421.26826   -3805.7117 
22257000    145.46222   -5050.0489   -4759.1065   -5050.0489            0     9805.237    17.849729    22.639708    19.158117    7742.0374    9457.5983    10252.476    9705.6366   -479.20424    477.46658   -1180.8188   -3652.0004 
22258000    151.91685   -5068.0618   -4764.2093   -5068.0618            0    6001.3056    17.944017    22.724067    19.239226     7845.007    5699.1057    6387.0549    5917.7561    1008.5266    707.77499   -1037.0899   -4077.5917 
22259000    158.37284    -5059.359   -4742.5938    -5059.359            0    9382.9955    17.823355    22.759481    19.166694     7774.975    8918.8708    9554.1718     9675.944   -377.86043    898.67672    -1607.521   -3678.6556 
22260000    152.09624   -5063.8252   -4759.6139   -5063.8252            0    7568.2942    17.883984    22.691925    19.355649    7854.9486    8041.5773    8213.7148    6449.5905   -1131.2441    1309.7758    63.094127   -3892.6176 
22261000     149.2083   -5066.1553   -4767.7202   -5066.1553            0    8384.2151    17.810085    22.780101    19.178877    7781.1686    8886.3205    9151.7344    7114.5904    725.50299    418.60065   -227.55577   -3816.2764 
22262000     159.0599   -5048.6836   -4730.5442   -5048.6836            0    8697.5557    17.892707    22.745832    19.094798    7771.2874    8799.9473    8443.3634    8849.3564   -439.96584   -104.22231    1290.7158   -3744.7958 
22263000    159.82107   -5063.4294   -4743.7675   -5063.4294            0    8122.5598    17.894443    22.761766     19.16728    7807.0077    8598.4661    7713.0366    8056.1766    172.39484    161.99103   -1749.1502   -3818.9556 
22264000     156.1212   -5073.0027    -4760.741   -5073.0027            0    8891.1404    17.833128    22.779005    19.120594     7767.185    9696.3487     8060.649    8916.4235   -562.37677   -278.67661   -1252.9857   -3753.5844 
22265000    149.58118   -5059.0875   -4759.9066   -5059.0875            0    7861.5453    17.874076    22.766788    19.148358    7792.1427     7029.501    8966.3583    7588.7767   -1019.5162    255.57578   -246.94376   -3866.5174 
22266000    154.53596     -5068.62    -4759.529     -5068.62            0    6945.0664    17.956346    22.768785    19.139371    7825.0205    6476.5398    6746.0253     7612.634   -210.53991    345.21153   -2114.9861   -3966.9587 
22267000    149.90033   -5062.2421   -4762.4229   -5062.2421            0     8662.221    17.861848    22.648259    19.247797     7786.499     8001.561    9054.4175    8930.6843   -1171.5544    849.22344   -254.70629   -3778.7576 
22268000     155.2485   -5086.8777   -4776.3615   -5086.8777            0    7066.8334    17.821393    22.701992    19.338899    7824.1533    7668.7515    7377.3345    6154.4143   -11.509586    594.47596    116.57211   -3969.9845 
22269000    150.53208   -5064.0313   -4762.9486   -5064.0313            0    7834.9025    17.702756    22.938988    19.251811     7817.839    8714.2899    7815.1584    6975.2591   -722.53225    384.31406    644.30678   -3869.6509 
22270000    154.88059   -5078.3123    -4768.532   -5078.3123            0    7815.6176    17.948519    22.631208    19.250686    7819.5646    7294.7959    8499.1667    7652.8902    65.902583    543.36738   -1571.8301   -3877.2364 
22271000    149.95498   -5080.4005    -4780.472   -5080.4005            0    6491.6226      17.9646    22.685224    19.186214    7818.9766    6536.8485    7334.7265    5603.2929   -205.42223    811.67672   -774.74353   -4040.2209 
22272000    155.22818   -5069.3927   -4758.9172   -5069.3927            0    8899.5439    17.750886    22.971088    19.064883    7773.8428    9464.5298    9222.3134    8011.7884   -28.629535    1133.6724    469.65891   -3749.9445 
22273000    143.82783   -5069.8593   -4782.1858   -5069.8593            0    7287.5883    17.934645    22.539398    19.362111    7826.8647    8497.2995    7424.7413     5940.724   -1460.7461   -142.15688   -2121.3323    -3950.331 
22274000    161.69803   -5054.2311    -4730.815   -5054.2311            0    8858.1161    17.739011    22.808594    19.214658     7774.287    9149.2573     8798.021    8627.0699   -1090.2058   -310.03131   -1357.2143   -3726.4818 
22275000    160.06769   -5063.9337   -4743.7785   -5063.9337            0    8113.9378    17.763021    22.801416    19.243661    7794.1068    9144.3608    7900.1931    7297.2596    110.85971   -426.50057   -65.858793   -3821.4749 
22276000    156.53413   -5062.7118   -4749.6242   -5062.7118            0    8390.6837    17.739979    22.643033    19.389696    7788.5875    8554.4642     8206.522    8411.0649    752.53996    136.40124    802.03343   -3796.5386 
22277000    160.90652    -5064.079   -4742.2461    -5064.079            0    8312.5212    17.799044    22.685065    19.286684    7787.4321    9495.9035    7392.0473    8049.6127   -413.27599   -430.74278    195.37864   -3798.1788 
22278000    159.14815   -5089.5797   -4771.2637   -5089.5797            0    7829.7878    17.721777    22.883348    19.212417    7791.2806    7704.7738    7333.8696    8450.7201    532.50207    8.5256672    -140.2657   -3881.5819 
22279000    150.36943   -5066.2138   -4765.4564   -5066.2138            0    7013.9147    17.876787    22.726534    19.296012    7839.5337    9809.8607    5072.0256    6159.8577   -211.89825   -363.24437   -78.140146   -3963.5446 
22280000    161.14085   -5071.7622   -4749.4605   -5071.7622            0    7022.2792    17.887413    22.563372    19.374662    7819.6204     8160.264    7295.4095    5611.1643    -498.1813   -1108.3483   -216.32785   -3948.6318 
22281000    155.66564   -5047.2196   -4735.8691   -5047.2196            0    9710.8496    17.803892    22.742381    19.135394    7747.9764    7330.2382    10528.897    11273.414     320.3015   -167.72854   -601.46046   -3638.5792 
22282000    160.41903   -5071.0908   -4750.2329   -5071.0908            0    7265.4704    17.780109    22.706628    19.291117    7788.3317    8005.4178     6798.384    6992.6094   -209.88549    868.30061    376.25716   -3924.9857 
22283000    155.90251   -5074.8213    -4762.997   -5074.8213            0    7723.3484    17.812084    22.779232    19.241538    7807.1692    7569.9966    8123.4619    7476.5867    528.45214   -219.70598    744.57281     -3883.62 
22284000    151.79677   -5085.6293    -4782.017   -5085.6293            0    7218.0222     17.88407    22.727317     19.24161    7820.8857    8112.5857    6847.2557    6694.2253   -554.68205    676.71097   -1324.8447   -3958.7323 
22285000    144.22452   -5072.9582   -4784.4914   -5072.9582            0    7396.6924    17.994191    22.872145    19.013763    7825.4136    5928.9858    7522.3012    8738.7902     -19.8941   -76.570084    453.06696   -3940.3392 
22286000    145.10159   -5072.3377   -4782.1166   -5072.3377            0    6388.3102    18.005277    22.716698    19.200898    7853.5598     5036.032    6384.7421    7744.1565    180.23487   -1028.6203   -859.19167   -4050.4244 
22287000    151.78615   -5060.7622   -4757.1711   -5060.7622            0    9147.7902    17.908404    22.693291      19.1421    7779.3612    9757.3734    8886.5317    8799.4655   -787.03426   -400.24995     454.5399   -3719.3177 
22288000    151.02023   -5065.8558   -4763.7967   -5065.8558            0    7898.0619     17.89579    22.752975    19.156761    7800.2969    7926.3493     7992.379    7775.4574   -645.20664    -606.4117    557.82169   -3865.3184 
22289000    156.71833   -5080.0089   -4766.5529   -5080.0089            0    7776.9362    17.858687    22.862671    19.072661    7787.3157    6874.2831    7901.4497    8555.0757   -247.37483    338.90075   -1239.8998   -3883.3262 
22290000    151.71368   -5062.3314   -4758.8853   -5062.3314            0    8252.4082    17.948584    22.733094    19.088401    7788.5802    8061.0825    8385.5793    8310.5628    143.27046    448.18627   -1237.8681    -3821.507 
22291000    153.08573   -5068.1355   -4761.9452   -5068.1355            0     7713.603    17.908796    22.715458    19.163056    7795.6557     7783.026    7876.2592    7481.5238   -199.26357    780.73123   -229.51222    -3884.973 
22292000    149.43976   -5057.0651   -4758.1671   -5057.0651            0    8459.0221     17.87152    22.780047    19.115677    7782.2607    9660.4222    7896.5285    7820.1156   -723.50402    208.21567    221.01162   -3798.0995 
22293000    153.22429   -5059.9649   -4753.4974   -5059.9649            0    8807.3736    17.958362    22.788999    19.023276    7785.3344    6072.2265    10522.681    9827.2138   -266.92837    2355.3451    582.44349   -3753.4984 
22294000    145.54242   -5064.0714   -4772.9686   -5064.0714            0    10129.555    17.972681    22.691322    18.965043    7734.3975    7710.7528     10149.33    12528.583   -207.36003   -76.976529    1323.8564   -3630.3725 
22295000    151.27968   -5076.7518   -4774.1738   -5076.7518            0    8995.4689    17.829361    22.704973    19.134307    7745.8577    8874.3197    8656.8894    9455.1976   -73.026293   -1007.1461    127.99362   -3757.9971 
22296000    151.17995   -5077.3595   -4774.9809   -5077.3595            0    7742.8668    17.727139    22.937451     19.17449    7796.6427    8298.5804    7169.7667    7760.2534    137.68378   -143.52789   -397.80674   -3894.5702 
22297000    153.53858   -5069.1224   -4762.0263   -5069.1224            0    8518.3435    17.947533    22.568102    19.226361    7787.4791    7428.2782    8413.7321    9713.0202    486.06661   -1278.3668    521.12227   -3794.5777 
22298000    150.91911   -5082.4165   -4780.5597   -5082.4165            0    6457.3155    17.872234    22.729089     19.28389    7833.4939    6994.8626    5709.0477    6668.0361    724.35227    232.28282    1108.2472   -4042.8535 
22299000    152.31077   -5052.9762   -4748.3358   -5052.9762            0    9320.3646    17.762757    23.006488    19.031922    7777.5595    9225.2724    8247.6326    10488.189    1078.9028    509.04877    1249.2615    -3691.148 
22300000    152.04969   -5077.0788   -4772.9606   -5077.0788            0    8444.0021    17.996704    22.556043    19.122307    7762.4024     7706.439    9649.4051    7976.1622   -213.77103   -247.17305    81.237416   -3817.0432 
22301000    168.23278   -5066.7156   -4730.2293   -5066.7156            0    7299.7196    17.884168    22.854819    19.151549    7827.9927    7220.8965    6977.6971    7700.5651    806.13378   -544.25294    305.23485   -3896.8696 
22302000     147.8845   -5072.6911   -4776.9038   -5072.6911            0    7259.5498    17.827082    22.845218    19.202439    7820.4541    6447.2005    8130.7616    7200.6874     -990.358    780.67392   -1495.6076   -3948.9282 
22303000    147.03644   -5081.0661   -4786.9751   -5081.0661            0    9240.5815    17.892137    22.512744    19.266594    7760.6053    9862.4984    9844.6743    8014.5717   -1177.9426   -739.07235   -508.30902   -3741.1218 
22304000    163.18495   -5068.7783   -4742.3883   -5068.7783            0    7974.3753    17.796806    22.860293    19.173802    7800.6734    8477.3065    7573.5367    7872.2828   -1769.5235    515.98606   -2675.5758   -3835.1849 
22305000    161.66692   -5070.4898   -4747.1359   -5070.4898            0    9682.6161    17.801312    22.820451    19.055726    7741.0831    9205.0298    9955.1854     9887.633   -398.61537    477.24113    414.26575   -3654.0097 
22306000    160.77264   -5053.2003   -4731.6352   -5053.2003            0     8790.388    18.087611    22.641907    19.022059    7790.2563    8142.5716    8410.0751    9818.5172   -907.10797   -239.24042    126.43563   -3732.9338 
22307000    146.15339   -5078.0599   -4785.7351   -5078.0599            0     7325.102    17.853084    22.809485    19.155165    7800.3595    8873.3696    6679.9233    6422.0132   -559.76459   -181.86021    1033.0814   -3952.4297 
22308000    154.31678   -5068.2134   -4759.5608   -5068.2134            0    7999.3359    17.865142    22.668188    19.211272    7779.9967    9464.6284    7379.5577    7153.8215   -317.90134   -430.43499   -544.90387     -3851.93 
22309000    156.94932   -5076.8366   -4762.9185   -5076.8366            0    8463.8321    17.873762    22.727058    19.139259     7774.712    8183.6872    9021.3879    8186.4212    99.899151    349.99102   -144.70012   -3803.2368 
22310000    155.40956   -5071.9456   -4761.1073   -5071.9456            0    9468.0274    17.851345    22.671938    19.144697    7748.3294    10958.704    9414.1855    8031.1925   -294.80063    762.71686   -170.85972   -3691.2066 
22311000    152.55658   -5051.9288   -4746.7967   -5051.9288            0    9184.2679     17.83839    22.758274    19.180248    7786.6241     9545.263    8788.8079    9218.7328     492.1122   -405.38725    1014.8364    -3703.832 
22312000    168.78599   -5064.9952   -4727.4023   -5064.9952            0    8706.6887    17.699735    22.898365    19.190662    7777.8789    8997.6205    9181.8952    7940.5505    676.87316   -182.24785    1018.5835   -3739.7819 
22313000    160.55628   -5061.7713   -4740.6389   -5061.7713            0    8484.8692    17.774426    22.742483    19.243614    7778.9346    9473.1499    6899.3225    9082.1351   -747.75853   -1296.8773     768.8545   -3778.0493 
22314000    148.89893   -5066.8368   -4769.0206   -5066.8368            0    8025.4712    17.910126    22.636764    19.255246    7806.6021    7517.4252    8704.7935    7854.1949    416.42186   -319.20206    228.51948   -3855.3104 
22315000    145.92632   -5064.3085   -4772.4378   -5064.3085            0    8866.0876     17.69849    22.869423    19.190271    7767.3436    8446.8612    9291.7511    8859.6506   -1202.5981   -25.753357    344.12497   -3768.0986 
22316000    154.51828   -5052.4275   -4743.3719   -5052.4275            0    9043.0097    17.845571    22.704814    19.235118     7793.692      8858.37     8424.321     9846.338     476.7013   -791.17268   -29.804325   -3715.5163 
22317000    155.47734   -5078.1276   -4767.1537   -5078.1276            0    8606.0249    17.857133    22.553612    19.301834    7773.6759     7839.018       9592.4    8386.6566    1155.1314   -115.93746   -548.62315   -3791.4793 
22318000    160.34541   -5082.2684   -4761.5578   -5082.2684            0    8510.3429    17.824202    22.796922    19.203329    7803.0221    9016.3987    8218.6882    8295.9417    -557.7862   -104.36849   -385.63607   -3793.0887 
22319000    144.69237   -5070.7023   -4781.2997   -5070.7023            0    7975.3032    17.825895    22.681336    19.262815    7788.2473    8471.5037    8302.5917    7151.8142   -506.22319   -91.563588   -523.88629   -3875.4361 
22320000    153.69325   -5060.8287   -4753.4233   -5060.8287            0    9049.0475    17.810253    22.641508    19.257594     7765.644    9740.7413    8527.6855    8878.7156    1098.3637    580.03745    18.693493   -3728.5829 
22321000    157.06188   -5077.0489   -4762.9058   -5077.0489            0    7248.9607    17.882149    22.762646    19.199691    7815.1389    6762.9247    7538.8306     7445.127    770.54361    743.49795    937.16213   -3936.6998 
22322000    162.76345   -5061.0687   -4735.5217   -5061.0687            0     6955.801    17.866709    22.833285    19.174956    7822.5322    8148.7137    6496.4889    6222.2004   -383.50428    389.93827     413.4515   -3941.9788 
22323000     151.5325    -5084.999   -4781.9153    -5084.999            0    7647.4161    17.892007    22.705526     19.15306    7780.8812    8028.6719    7052.2075    7861.3688     15.59504   -353.81985    932.62092   -3914.1158 
22324000    145.06754   -5068.1002   -4777.9473   -5068.1002            0    9805.7505    17.834672    22.664038        19.12    7728.4122    10396.395    10322.684    8698.1719   -1879.8742    152.52893    156.02396   -3672.7316 
22325000    154.54394    -5077.623    -4768.516    -5077.623            0    8146.7967    17.799193    22.914222    19.066814    7776.4889    8324.3888    7073.4846    9042.5167    1197.2906    53.374579   -726.56067   -3844.5706 
22326000    155.97619   -5073.0441   -4761.0724   -5073.0441            0    7396.4722    17.914067    22.634917    19.249552    7805.3742     7612.643    7765.4541    6811.3194    87.213438   -24.857323   -1258.4322    -3919.107 
22327000    145.08423   -5081.9628   -4791.7765   -5081.9628            0    6855.0972    17.818578    22.844876    19.170708      7803.69    5711.0403    7449.7961    7404.4551    -1865.273   -241.47324    -18.77147    -4011.606 
22328000    164.79518   -5062.1169   -4732.5062   -5062.1169            0    8734.7067    17.810263    22.816013    19.140915    7778.0866    9153.2496      8204.89    8845.9806   -583.27877   -1239.0065    502.32995   -3741.6811 
22329000    151.26983    -5076.889   -4774.3306    -5076.889            0    7536.4117    17.875739    22.729799    19.170911    7789.3706    7376.7351    7203.5744    8028.9257   -40.447694   -417.71027    740.81008   -3918.1944 
22330000    153.82226   -5051.8918   -4744.2283   -5051.8918            0    8894.6169    17.832611    22.632223    19.269351    7776.9486    8376.8471    9341.1863    8965.8173   -655.79516   -99.763468    819.50994   -3735.4114 
22331000    152.10209   -5057.5391   -4753.3162   -5057.5391            0    8898.6826    17.751184    22.679194    19.285741     7764.103    9826.3376    9243.8144    7625.8957    787.35753    906.25719   -29.312513   -3745.7052 
22332000    153.01718   -5086.8704   -4780.8172   -5086.8704            0    7607.6967    17.804984    22.917485    19.137661    7809.0351    7222.1693    7794.4186    7806.5022     723.4268   -125.34944    156.14792   -3914.4012 
22333000    147.00537   -5047.9695   -4753.9406   -5047.9695            0    8543.5414    17.937012    22.521453    19.298524     7795.978    8874.5537    8864.2247     7891.846    579.58712   -180.86932     522.0946   -3782.5712 
22334000    160.27999   -5058.1072   -4737.5274   -5058.1072            0    9142.4358    17.777606    22.814587    19.147486    7766.0049    8434.4521    9349.1318    9643.7235    498.75005   -222.00385   -199.15568   -3702.0623 
22335000    153.13564   -5078.4051   -4772.1149   -5078.4051            0    8491.1832    17.766878    22.809686     19.19584    7779.2465    8610.3221    8762.5013    8100.7261   -51.057014     79.96478   -303.98312   -3808.7704 
22336000    148.78856    -5070.227   -4772.6315    -5070.227            0    8129.1227    17.895367    22.648926    19.207425    7784.9773    8006.0513    8356.4064    8024.9104    701.21008   -278.15294   -1074.0715   -3849.6842 
22337000    147.11522   -5068.2979   -4774.0492   -5068.2979            0    8578.7296    17.918643    22.700424    19.152361    7790.4296    8089.3567     9381.758    8265.0742   -968.08178    17.443951    1208.8518   -3799.3732 
22338000    154.59917   -5071.6892   -4762.4717   -5071.6892            0    8047.2074     17.96428    22.734991    19.076571      7791.21    8244.3013    7165.1663    8732.1547   -802.92175   -580.97924    1034.3444   -3848.0933 
22339000    144.74134   -5081.0322   -4791.5317   -5081.0322            0    7617.2032    17.885944     22.76416    19.153974    7798.7036    7853.1074    7643.1694    7355.3329    663.21107    -313.1973   -1462.4389   -3925.1807 
22340000    147.25454   -5065.1228   -4770.5955   -5065.1228            0    8008.9042    17.862036     22.77269    19.161182    7794.1288    9106.9272    7358.5289    7561.2565    630.84777   -1170.1089    137.59606   -3860.2284 
22341000    143.65549   -5062.2059   -4774.8772   -5062.2059            0    8134.7029    17.826692    22.796855     19.15439    7784.2005      7577.67    8458.4114    8368.0272    1489.1533   -225.04861   -325.56755   -3851.3885 
22342000    154.87572   -5079.3859   -4769.6153   -5079.3859            0    8334.4495    17.879918    22.717581     19.16185    7783.3232    7356.7106    8601.1087    9045.5293    231.16551    520.25309    908.30267    -3823.557 
22343000    158.81362   -5063.1369     -4745.49   -5063.1369            0    9514.1664    18.040891    22.527407    19.124641     7772.531    9206.4546    9802.9153    9533.1294    180.91008   -549.14797    1712.9016   -3667.0174 
22344000    143.93148   -5045.6876   -4757.8069   -5045.6876            0    10468.844    17.878845    22.776233    19.009765    7741.0187    9533.5693    10686.357    11186.605    1649.0682    566.33601    1405.6565   -3575.9287 
22345000    149.97851   -5088.5026   -4788.5271   -5088.5026            0    8906.5574    18.023894    22.697436    18.995277    7770.8955    9201.8267    8430.6689    9087.1765   -1474.7361    1271.5268    475.08996   -3779.1421 
22346000      161.389   -5078.7513   -4755.9533   -5078.7513            0    8306.0064    17.818988    22.834176     19.12363    7781.0591    8335.1514    7780.1215    8802.7463    -993.1499    84.779448   -1445.9452    -3813.398 
22347000    156.30195   -5076.3295   -4763.7063   -5076.3295            0    9523.9494    17.811084    22.721904    19.164777    7756.0187    9012.3287    9407.7073    10151.812   -927.53268    307.93516   -946.43013   -3686.4183 
22348000    149.94827   -5067.4178   -4767.5027   -5067.4178            0    6685.1294    17.794041    22.719482    19.399175    7842.5313    7010.0684    7602.3819    5442.9379   -1003.9543    1235.3145   -927.56403   -4002.8892 
22349000    153.61642   -5078.3048    -4771.053   -5078.3048            0    7217.0572    17.916407    22.740037    19.203362    7823.8293    6431.6907    7270.4521    7949.0289   -199.56371   -29.131417    658.24675   -3947.5685 
22350000    160.93163   -5088.5475   -4766.6644   -5088.5475            0    8271.8085     17.92202    22.715019    19.113272    7780.9944    7525.2496     8109.423    9180.7529    148.43259    364.59769   -704.28023   -3827.9976 
22351000    148.92549   -5086.5138   -4788.6444   -5086.5138            0    8122.7544    17.888591    22.583866    19.242482    7773.8382    7404.6608    9164.6769    7798.9254   -286.93227    397.87452    840.85575   -3867.7397 
22352000     156.8164   -5075.0251   -4761.3729   -5075.0251            0    7099.0586    17.784092    22.932835    19.147076     7808.937    7155.4984    7053.2912    7088.3863   -833.37018   -636.60813   -1157.3906   -3952.8942 
22353000     151.1023   -5053.4307   -4751.2075   -5053.4307            0    8259.0046    17.777673    22.937412    19.071271     7776.765    8696.8965     7318.348    8761.7694     487.7641   -434.27508   -192.87084    -3814.503 
22354000    150.30772   -5048.5436   -4747.9096   -5048.5436            0      9789.47    17.935253    22.640093    19.113996     7761.349    11489.778    8595.8757    9282.7561   -523.06474   -1456.6102   -853.03876   -3639.8266 
22355000    168.15264   -5067.1439   -4730.8179   -5067.1439            0     8258.536    17.696852    22.963518     19.12523    7772.1485    7563.0261    8365.1769    8847.4048    154.51471    616.99431   -2019.8547   -3794.7226 
22356000    148.17604   -5076.0059   -4779.6355   -5076.0059            0    8126.0539    17.812142    22.791287    19.197031     7793.258    8610.9497    7901.4072    7865.8047    132.02848    578.15036   -232.76176   -3856.0553 
22357000    156.11028   -5072.0819   -4759.8421   -5072.0819            0    7879.8003    17.776646    22.750551     19.28171    7798.0731    8680.7834    8073.3842    6885.2333   -1117.9842    -689.0782    407.58715   -3863.6968 
22358000    154.48832   -5057.0661   -4748.0704   -5057.0661            0    8738.9769    17.788954    22.817625    19.144643    7770.8429    8703.6473     8565.856    8947.4274     1898.589   -170.78387   -641.21787   -3757.6841 
22359000    147.70227   -5063.6589   -4768.2361   -5063.6589            0    8280.4544    17.867458     22.76182    19.138852    7783.6918    9370.8369    7294.0759    8176.4503   -108.89161   -38.481846    38.171824   -3828.2624 
22360000    159.06831   -5067.4718   -4749.3156   -5067.4718            0    8099.0379    17.910545    22.656453    19.222612    7800.3327    8062.9137    8339.6661     7894.534   -1227.7398    716.78014     602.3506   -3827.9702 
22361000    166.34482   -5075.9092    -4743.199   -5075.9092            0    7785.3021    17.879597    22.775289    19.174368    7808.0516    7698.3654    7610.8736    8046.6674    224.07467    1101.2532   -28.127279   -3856.6678 
22362000    156.60508   -5073.4804   -4760.2509   -5073.4804            0    8321.7034    17.784578    22.781592    19.206233    7781.6168    9574.3536    7055.4516    8335.3049   -323.55822    358.60373    200.10727   -3815.8465 
22363000     157.7716   -5084.8166   -4769.2539   -5084.8166            0    8555.8385     17.89196    22.581103    19.255869    7779.7601    8206.6407    9468.2002    7992.6745   -727.61349    461.85849    1268.1466     -3798.51 
22364000    154.62267    -5059.817   -4750.5526    -5059.817            0    8357.9942    17.862709    22.784205    19.131304     7786.204    7956.9324     8812.959    8304.0913    64.999429    905.55652   -465.55899   -3801.4706 
22365000     154.7734   -5069.0753   -4759.5093   -5069.0753            0    9074.3222    18.004823     22.52479    19.189386    7782.3487    7747.7403    9470.6003    10004.626   -1156.5242    76.859085   -804.59365   -3729.5958 
22366000    150.93843   -5081.1988   -4779.3033   -5081.1988            0    7597.4043    17.852816    22.668391    19.254787    7792.3089     7329.176     8041.943     7421.094   -562.57067    119.11619   -938.85851   -3915.9128 
22367000    143.63536   -5075.4046   -4788.1162   -5075.4046            0    6850.3047    17.707151    23.083353    19.167876    7834.6857    7487.1368    6479.3601    6584.4171    1471.2347    181.25723   -426.03452   -4005.3945 
22368000    151.27954   -5082.8736   -4780.2958   -5082.8736            0    7750.6623    17.891845    22.639953     19.29558    7816.0706     9585.515    7270.7057    6395.7663    806.96369    55.722502    1121.1153   -3896.8027 
22369000    149.92635   -5080.5297   -4780.6585   -5080.5297            0    7737.1524      17.9539    22.634426     19.20678    7805.1786    6766.8181    7575.9345    8868.7046    369.63639   -442.65314   -671.63662   -3899.9344 
22370000    150.84267   -5071.9971   -4770.2931   -5071.9971            0    8145.7597    17.745709    23.041835    19.084484    7803.5249    7961.3812     7388.087    9087.8111   -818.80055    -747.2217   -1060.0575   -3843.2535 
22371000    147.76831   -5073.6665   -4778.1117   -5073.6665            0    8323.9676     17.99368    22.551629    19.226319    7801.7867    8556.9704    8838.0306    7576.9018   -582.83115   -221.85774    737.40957   -3831.0018 
22372000    154.91742   -5055.6628   -4745.8088   -5055.6628            0    8270.7923    17.847225    22.799709    19.145202    7790.4035     8310.566    8547.3563    7954.4545   -726.35703    321.56441   -646.44689   -3806.1224 
22373000    156.19709   -5077.5672   -4765.1537   -5077.5672            0     7946.989    17.759199    23.025432    19.097204    7809.0993     6727.907    8093.8531     9019.207     430.6311    264.27197    -1296.125   -3860.0894 
22374000    156.83943   -5067.5862    -4753.888   -5067.5862            0    8567.4854    17.938151    22.531095    19.268034    7787.4877    7153.6092    8934.7716    9614.0754   -101.52428    16.357919    2091.3149   -3780.8571 
22375000    152.44103   -5052.7975   -4747.8966   -5052.7975            0    8583.8675    17.714908    22.925363    19.165708    7783.5908    9063.2579    7958.7616     8729.583    127.16739    48.386856   -289.34205    -3773.493 
22376000    156.54102   -5081.5419   -4768.4405   -5081.5419            0    8866.8129      17.6899    22.831396    19.197778     7753.697      9060.15    8685.6863    8854.6025   -109.53904    215.27385   -634.10828   -3765.7838 
22377000    152.13611    -5077.533   -4773.2419    -5077.533            0     8043.843    18.013684    22.405607     19.27477    7779.4423     7309.395    9900.1462    6921.9878    489.46832    210.33128   -771.02485   -3860.6262 
22378000    151.50179   -5072.9209   -4769.8986   -5072.9209            0    8852.9291    17.689973    23.006501    19.081281    7765.7834    9213.7406    7806.1078    9538.9388   -447.56164   -671.83872   -22.864912   -3767.2514 
22379000     156.6911   -5050.4816   -4737.0801   -5050.4816            0    8607.2647    17.861248    22.711252    19.230226    7800.7663    9897.4656     8114.079    7810.2494   -136.33988   -869.10663   -297.85758   -3757.8645 
22380000    146.15757   -5075.4758   -4783.1426   -5075.4758            0    7517.1612    17.911613    22.615972    19.253545    7799.3904    7531.1871    7568.0554     7452.241   -319.90556   -207.82309    119.95912   -3928.0948 
22381000    152.33785   -5091.4254   -4786.7308   -5091.4254            0    8283.0502    17.774756    22.779335    19.254781    7796.2055    8113.9979    8733.1797    8001.9729   -2667.9549    846.48752   -2060.4855   -3844.9509 
22382000    157.15202   -5063.2827   -4748.9592   -5063.2827            0    7077.0091    17.844761    22.759293    19.228207    7809.2314    7255.6809    7466.7034    6508.6429   -671.68993   -520.08676   -611.23504   -3942.9613 
22383000    154.64127   -5057.8425   -4748.5409   -5057.8425            0    8847.9997    17.856981    22.675008     19.21245    7779.2592    9656.3731    9380.6655    7506.9606   -792.52456    354.14045   -425.40773   -3744.7131 
22384000    143.52981   -5064.7462   -4777.6688   -5064.7462            0    8121.8529    17.829633    22.602312    19.334996    7791.8282    8120.8855    8921.8789    7322.7942   -300.43141   -402.09822   -736.09863   -3854.7354 
22385000    147.90555   -5067.4193   -4771.5899   -5067.4193            0    7921.3471     17.75174    22.989546    19.131888    7807.8083    9492.6998    7278.3329    6993.0085   -68.011913    341.62918   -954.54875   -3869.5951 
22386000    159.70186   -5074.2891   -4754.8657   -5074.2891            0    7538.7767    17.959054    22.554577    19.271885     7806.248    7101.8006    8482.0614     7032.468   -428.30379    844.65659    184.03178   -3896.6052 
22387000    149.60175   -5066.4784   -4767.2564   -5066.4784            0    8843.6284    17.810159    22.685745    19.180986    7749.8228    9056.7654    8811.0251    8663.0946   -851.15862   -546.91272   -2470.4377   -3767.7211 
22388000    155.92529   -5080.4539   -4768.5841   -5080.4539            0    7958.0236    17.780955    22.877563    19.165856    7796.3812     8917.257    7617.0867    7339.7272    799.49159    1348.2247   -1953.0525   -3863.7391 
22389000    146.73164   -5071.1155   -4777.6341   -5071.1155            0    9747.7414    17.957929    22.434452    19.215475    7741.4592    8519.4158    11240.984    9482.8243   -1161.9557   -77.282903   -139.27463    -3677.102 
22390000    157.98228   -5071.0397   -4755.0557   -5071.0397            0    8492.7582      17.9461    22.678592    19.161892    7798.7425     6380.897    10054.693    9042.6843    -982.3136    1086.5257    373.76068   -3789.1177 
22391000    152.02065   -5075.5783   -4771.5182   -5075.5783            0     7227.145    17.914915    22.839823    19.123341    7824.7642    7294.7569    6980.0554    7406.6228   -454.16243    350.41412    276.73512   -3946.7842 
22392000    159.33051   -5076.0715   -4757.3908   -5076.0715            0    9258.4397    17.949895    22.609149    19.119467    7759.2885    6972.4169    10309.695    10493.207   -121.85433     214.8405   -1143.7893   -3709.6941 
22393000    146.47854   -5066.2014   -4773.2262   -5066.2014            0    8133.8302    17.999791    22.764538      19.0383    7801.0754    7310.1183    7770.1919    9321.1805   -408.92987     290.3549   -141.87261   -3847.8348 
22394000    158.94545   -5081.9142   -4764.0037   -5081.9142            0    8509.8935    17.897112    22.786019      19.0664    7775.3533    8847.8391    8213.6353    8468.2062   -828.41409    542.88481    390.91846   -3799.0196 
22395000    156.05195   -5073.4091   -4761.2859   -5073.4091            0    9918.5161    17.894715    22.704101    19.078899    7751.4402    8549.1107    9994.1679     11212.27    566.00286     299.4483    256.33234   -3640.0294 
22396000    151.86609   -5072.4264   -4768.6754   -5072.4264            0    8718.5464     17.90021     22.72748     19.13815    7785.9102    8889.5732    8498.5491    8767.5169    986.77396    614.20032    1240.8548   -3778.6887 
22397000    148.55692   -5078.5433   -4781.4111   -5078.5433            0    8803.1193    17.767726    23.008588    19.032719    7780.7712    9627.4082    7689.4908    9092.4589   -957.94805   -303.86909    705.50575    -3782.481 
22398000     152.0535    -5074.624   -4770.4982    -5074.624            0    9591.0922    17.959029    22.605112    19.118926    7761.6313    8348.1853    9890.9042    10534.187   -517.39274    533.14601     905.3273   -3684.8304 
22399000    157.59104   -5067.8323   -4752.6308   -5067.8323            0    7207.5795    17.943811      22.8417    19.130703    7841.0466    8658.8002    5864.6166    7099.3216   -198.48276   -421.91137   -336.42107    -3928.418 
22400000    155.33149   -5082.0517   -4771.3695   -5082.0517            0    8279.3046    17.835298    22.924366    19.009201    7772.1572    8288.4862    8223.4949    8325.9326   -606.01099    129.35592    113.60185   -3832.9191 
22401000     160.7331    -5057.724   -4736.2379    -5057.724            0    8135.1643    17.978538     22.54778     19.22133     7791.868    7714.8616    8903.6631    7786.9683   -1069.3475    570.24789   -444.07659   -3811.7871 
22402000    149.96775   -5067.4475   -4767.4935   -5067.4475            0    7223.8511    17.864856    22.949337    19.054565    7812.1165    8167.2858    6762.7349    6741.5325    791.00867    249.07603   -32.519762   -3944.4678 
22403000    157.07385   -5069.5248   -4755.3577   -5069.5248            0    8410.9714    17.786269     22.86672     19.15255    7789.6031    7972.4738    8011.6733    9248.7672   -753.74323    49.159931   -1003.5756    -3799.843 
22404000    156.67972   -5078.3276   -4764.9488   -5078.3276            0    8835.6479    17.937687    22.519199    19.276135     7786.447    8927.9776    9631.8473    7947.1188    510.86599    927.00634   -275.04592   -3761.5961 
22405000    146.61852   -5062.2802    -4769.025   -5062.2802            0    8087.5744    17.855519    22.802966    19.137978    7792.1962    8015.7485    7989.6856     8257.289   -54.276047     379.2406     274.8692   -3849.9434 
22406000    150.48668   -5086.9961   -4786.0041   -5086.9961            0     7615.749    17.840514    22.788432    19.201294    7806.4268     6814.814    7850.4968    8181.9364    209.05201    434.49693    972.22531   -3918.9608 
22407000     157.0354   -5078.4901   -4764.3999   -5078.4901            0    9595.0996    17.856235    22.595459    19.210206    7750.7381    9517.7508    9485.7952    9781.7528     896.4779    181.68333    192.43869   -3679.8028 
22408000    151.03635    -5085.968   -4783.8767    -5085.968            0    7890.0166     17.75494    22.835002    19.236714    7799.2199     8806.529    8363.4047    6500.1159    415.24631    558.14811    545.89163   -3886.4376 
22409000    152.25001   -5081.2717   -4776.7529   -5081.2717            0    9463.8117    17.875489    22.642372    19.137797    7745.8982    9201.4377    9529.5468    9660.4507   -967.03246    -73.50551     216.2656   -3707.6641 
22410000     155.4953   -5059.0689   -4748.0591   -5059.0689            0    11116.923    18.084146    22.495451    18.999024    7729.0123    7985.3367    12332.704    13032.729    -467.1141    217.82689    128.27465   -3494.9627 
22411000    151.48724   -5078.1995   -4775.2063   -5078.1995            0    9143.7132    17.832047    22.955702    18.967468    7764.2794    8878.6214    8321.6926    10230.826   -213.13753   -234.83065    1425.6859   -3739.8266 
22412000    152.22812   -5065.0697   -4760.5947   -5065.0697            0    8818.9603    17.903271    22.603296    19.210536     7773.984    8231.3139    8868.1069    9357.4602    -77.22526   -1028.8641    -1319.367   -3760.7399 
22413000    150.28567   -5074.4843   -4773.8944   -5074.4843            0    7353.6522    17.928111    22.650042    19.296387    7835.7315    6436.9136     7419.338     8204.705   -433.27097   -29.946146   -1128.2272   -3933.5476 
22414000    153.33878   -5079.7525    -4773.056   -5079.7525            0    8424.1943    17.727876    23.164856    18.968803    7789.7987    8264.8165    8620.6873    8387.0792    199.99142    1109.1714    567.09286   -3816.0151 
22415000    150.76286     -5073.63   -4772.0857     -5073.63            0    8788.6938    17.868263    22.550052    19.300986    7776.9513    9943.6894    8740.3454    7682.0467    851.17798    121.72993    875.31739   -3775.2821 
22416000    164.30944    -5064.108   -4735.4688    -5064.108            0     10102.37    17.730759    22.871449    19.099067    7745.2092    9663.9958    10397.179    10245.936    440.42177   -103.54719    562.48346   -3594.3462 
22417000     157.8901   -5082.3716   -4766.5719   -5082.3716            0    8246.1457    17.881379    22.826204    19.040993    7771.8479    8493.2476    7923.3629    8321.8266    522.99913   -923.73795   -1405.7513   -3831.9172 
22418000     150.3004   -5051.1352   -4750.5159   -5051.1352            0    6994.9504    18.049328     22.49286    19.289595    7831.2095    5752.0442    7628.6248    7604.1823   -627.85652   -395.67281   -501.52402   -3951.6215 
22419000    156.57822   -5051.9028    -4738.727   -5051.9028            0    8768.3891     17.91988    22.879787    19.025224    7800.3996    7610.9866    8725.0508    9969.1299    136.43595   -208.21441    171.99475   -3741.2279 
22420000    156.56541   -5081.5908   -4768.4407   -5081.5908            0    7437.9314    17.838088    22.928978    19.128135    7823.5817    8637.7831    7086.9976    6589.0135   -368.57879    542.07897    740.25218   -3919.7808 
22421000    148.62154   -5052.5957   -4755.3342   -5052.5957            0    8700.4018     17.97798    22.494902    19.278288    7796.3884    9841.5026    8877.2148    7382.4881    -466.0958   -18.970431   -810.39864   -3766.0783 
22422000    148.38633     -5072.26    -4775.469     -5072.26            0    8120.8697    17.666949    22.948843    19.178667    7775.7227    8481.8988    8516.4606    7364.2497   -881.40176     489.5865   -886.36684   -3854.5547 
22423000    150.35897   -5082.4491   -4781.7126   -5082.4491            0    8695.1112    17.895788    22.606232    19.220258    7775.6771    7690.6147    9483.7558     8910.963   -677.97092    184.31755   -521.89811   -3795.6846 
22424000    152.45766   -5067.1236   -4762.1894   -5067.1236            0    9830.2545    17.930063    22.555795    19.129464    7736.4683    8186.3387    10706.698    10597.727   -846.52697   -970.85314    454.71331    -3653.057 
22425000    146.81582   -5062.7574   -4769.1077   -5062.7574            0    7727.0712    17.781539    22.960008    19.106903    7800.6658    8264.2664    7425.9053    7491.0419     -1072.76    605.61734   -370.25323   -3890.0396 
22426000    152.33249   -5073.2205   -4768.5367   -5073.2205            0    8229.1753    17.934462    22.494949    19.285066     7780.267     8409.965    9080.6087    7196.9524   -699.39898   -110.92982   -1074.1172   -3834.7951 
22427000     149.9413    -5050.768   -4750.8669    -5050.768            0    8786.9853    17.847985    22.718305    19.212126    7790.0555    10780.257    8157.3698    7423.3286   -141.14959   -510.83333   -1178.0109   -3752.5778 
22428000    153.99227    -5061.851   -4753.8474    -5061.851            0    8198.7691    17.712639    23.034531    19.074492    7782.4374    9550.4011    7464.1846    7581.7217   -80.255696    289.52042    377.72717   -3823.2964 
22429000    155.43799   -5070.9363   -4760.0411   -5070.9363            0    6933.7513    18.086373    22.560765    19.225415    7844.7847    5839.8133    6734.6901    8226.7506   -47.484455   -652.57094    720.32174   -3966.7635 
22430000    149.72668   -5055.8877   -4756.4159   -5055.8877            0    9788.0864    17.848094    22.687033    19.119976    7742.0662    9711.8228    9379.0006    10273.436     160.0952    373.04962   -112.50614   -3651.2421 
22431000    155.98617   -5087.4417   -4775.4501   -5087.4417            0    7365.0664    17.827395    22.901875    19.098257    7797.4508    6971.5604    6845.8461    8277.7928   -162.79203   -694.29288    973.73198   -3937.9108 
22432000     157.4278     -5066.33    -4751.455     -5066.33            0    10145.125    17.929923    22.438358    19.199383    7724.2581    9492.6308    10739.686    10203.058   -925.53789   -1166.8436   -268.33013   -3608.6028 
22433000    152.22949   -5080.4432   -4775.9654   -5080.4432            0    8756.1268    17.845771    22.764127    19.110566    7763.5413    8691.0659    8319.3589    9257.9557    181.80431    -404.6583    -348.5835    -3784.568 
22434000    148.73843   -5081.5663    -4784.071   -5081.5663            0    8722.6498    17.786102    22.842225    19.162304     7785.149    9314.5276    8356.1101    8497.3116    110.42792    -478.6146    1510.4671   -3793.7152 
22435000    158.70632   -5059.3291   -4741.8969   -5059.3291            0    9103.2348    17.919745    22.524489    19.233488    7763.2723    7392.2151    8987.4564    10930.033   -654.44704   -526.95008   -105.12343   -3711.2344 
22436000    160.10505   -5074.9425   -4754.7126   -5074.9425            0    8181.9628    17.799929    22.961043     19.08425     7799.827    8440.7334     7242.788    8862.3671    213.76563   -1211.8971     163.4993   -3823.9941 
22437000     146.9384   -5069.7642   -4775.8692   -5069.7642            0     7089.074    17.964073    22.779933    19.158358    7839.9902    5837.3696    7130.3447    8299.5077    927.75622   -9.5465548    497.68982   -3965.3171 
22438000    154.43487   -5067.1753   -4758.2865   -5067.1753            0    7725.4767    17.965025    22.623002    19.247334    7822.5554    7044.7775    7957.8437    8173.8089   -71.892393   -391.58757    59.773268   -3876.9336 
22439000    147.61667   -5074.2615   -4779.0099   -5074.2615            0    8256.5042    17.670723    23.141567    18.976648    7760.0869    8237.3061    7944.8829    8587.3237    1158.6883    12.337266    329.52262   -3844.5973 
22440000    159.98823   -5054.6447   -4734.6485   -5054.6447            0    9797.4044    17.973325    22.566224    19.147305    7765.9567    10025.196    9699.1707    9667.8459   -119.24682   -255.97048    194.89666   -3625.0091 
22441000    157.28142   -5069.8602   -4755.2779   -5069.8602            0    8250.3678    17.860115    22.759747    19.180871    7796.8648     9739.576    7135.6974    7875.8301    291.26864   -458.30429   -919.10963   -3817.1346 
22442000    158.35663   -5069.4131   -4752.6802   -5069.4131            0    9298.8904    17.732995    22.886198    19.113427    7757.0096    9057.9632    9662.6455    9176.0625    286.44549    1112.3846    900.97472   -3700.7151 
22443000    150.11413   -5070.7662   -4770.5194   -5070.7662            0    7356.9591    17.893768    22.635641    19.310275    7821.3741    8272.5235    6919.4487    6878.9052   -386.52459   -204.72527   -1273.6465   -3931.3352 
22444000     154.1568   -5070.8048   -4762.4721   -5070.8048            0     5822.104     17.96545    22.669346    19.242064    7836.6196    6444.2861     6175.639    4846.3869   -89.752199   -344.43623   -517.68511   -4097.0693 
22445000    153.30328   -5069.6249   -4762.9994   -5069.6249            0    8159.7677    17.728655     22.87181    19.197416    7784.2919    8977.2568    7999.7816    7502.2647    924.76113    -510.4461    855.81793   -3836.6543 
22446000    149.98937    -5073.477   -4773.4797    -5073.477            0    7833.1719    17.788654    22.844713    19.173352    7791.6038    7632.2426    8076.3811    7790.8919    604.38035   -405.64571   -439.86252   -3883.3764 
22447000    145.94051    -5058.274   -4766.3749    -5058.274            0    6758.5011    17.947932    22.618179    19.289282    7830.4747     5803.079    8005.7136    6466.7107    188.86293    650.72614   -493.18316   -3994.5579 
22448000     147.9475   -5056.6222    -4760.709   -5056.6222            0    8367.1692    17.838107    22.684188    19.200408    7769.3101    7479.1707    8987.0365    8635.3005     270.9048     82.50238   -1430.8586   -3812.6466 
22449000    155.23855   -5062.8715   -4752.3752   -5062.8715            0    8033.7234    17.884911     22.74651    19.172987    7799.9409    7841.7909    8375.4231    7883.9562   -599.60796    305.70949   -217.07034   -3838.5059 
22450000    150.13468   -5068.2331   -4767.9452   -5068.2331            0    8843.7638    17.740066    22.900249     19.11501    7765.5097     8588.274    9118.5414     8824.476   -1099.8779    131.67756    280.97822   -3766.3713 
22451000    153.70867   -5070.1259   -4762.6895   -5070.1259            0    8911.3631    17.831092    22.740437    19.147007    7763.8591    8229.7882    8339.0915     10165.21    323.86167   -538.58805   -628.78556   -3753.6744 
22452000    151.15342   -5073.5553   -4771.2298   -5073.5553            0    7735.7151    17.830357     22.64176    19.325601    7801.9512    8389.0884    7892.4204    6925.6365   -498.44501    248.32391     751.9348   -3891.0334 
22453000    151.40655   -5082.1537   -4779.3219   -5082.1537            0    8427.2883    17.716603    22.862046    19.233169    7790.1606    9270.9895    8138.5652    7872.3101     629.7984     690.6831    38.576786   -3821.8851 
22454000    147.02329   -5078.0022   -4783.9374   -5078.0022            0    8079.9131    17.860735     22.84168    19.066808    7778.6706    7629.9105    7785.9567     8823.872    38.700077   -16.650749    536.55914   -3867.3203 
22455000    154.27164   -5087.7995   -4779.2372   -5087.7995            0    8110.4706    18.030583    22.537517    19.144227    7779.5355    6244.0114     8543.289    9544.1113     -24.8669   -887.65636    1285.1389   -3859.0512 
22456000    147.91646   -5068.4433   -4772.5921   -5068.4433            0    8622.3439    17.821179     22.92079     19.07067    7789.9013    8823.1554    7865.5303    9178.3459    1279.9057   -583.04635    140.45583   -3793.0273 
22457000    151.30295   -5071.7148   -4769.0902   -5071.7148            0    7057.3916    17.949342    22.799379     19.12996    7828.6272    6405.3035    7018.9075    7747.9639   -45.357939   -108.95545    1699.7616   -3963.3302 
22458000    156.73281   -5066.5758   -4753.0909   -5066.5758            0    7966.2816    17.924953    22.716178    19.211223    7822.5493    7413.9711    8165.6804    8319.1934     413.8806    155.79232   -112.95192   -3844.2667 
22459000    155.49599   -5070.7002    -4759.689   -5070.7002            0    8796.0085    17.924673    22.761118    19.022516    7760.9124     9423.328    7276.2017    9688.4958    411.82985    -105.9297   -501.34847   -3764.1133 
22460000    155.59247   -5066.8974   -4755.6933   -5066.8974            0    6898.8317    18.038718    22.749837    19.004429    7798.9978    5888.6036    6877.2535    7930.6381    804.25461   -34.610331   -588.48978   -3971.0175 
22461000    157.46956   -5069.5156   -4754.5571   -5069.5156            0    9314.8888    17.869941    22.834077    19.028985    7764.6557    8944.0522    9497.7027    9502.9116    633.05522   -580.66148    1469.7641   -3699.7433 
22462000    158.55378   -5084.6389   -4767.5117   -5084.6389            0    7784.7461    17.994654    22.642251    19.126345    7792.8277    7152.3377    8262.8221    7939.0785    1144.7403   -194.31688     1470.834   -3882.7722 
22463000    156.61388   -5079.7248   -4766.4777   -5079.7248            0     8345.114     17.95682    22.733614    19.096931    7795.8141    7097.2069    9170.2339    8767.9012    710.79031   -137.75434    961.46834   -3817.6887 
22464000    155.45346   -5081.3649   -4770.4388   -5081.3649            0    8913.2669    17.837694    22.896134    19.041921    7776.9916    9117.9983    8881.8159    8739.9865    790.68257     625.3128    -106.2495    -3759.501 
22465000    146.78338   -5082.4861   -4788.9012   -5082.4861            0    8873.3596    17.988562    22.594275    19.093635    7760.3886    10018.078    7763.6649    8838.3356    -874.5493   -548.39585    95.562325   -3784.6382 
22466000      154.513   -5078.9955   -4769.9504   -5078.9955            0    7086.1273    18.024596    22.662605    19.109685    7806.0064    5622.7281    7287.8338      8347.82    365.54548   -487.55963   -257.02411   -3963.2472 
22467000     145.1026   -5075.4573   -4785.2342   -5075.4573            0    7398.5823    17.766152    22.940471    19.139802    7800.6924    8466.1033     6386.044    7343.5996   -395.69043   -88.134458   -10.187687   -3943.5338 
22468000    161.24766   -5077.3752     -4754.86   -5077.3752            0    7015.9765    17.959055    22.797405     19.09005    7815.8453    8090.1317    5623.9686    7333.8292    1081.0172   -1078.7711    1492.0722   -3955.1363 
22469000    157.83568   -5085.5765   -4769.8856   -5085.5765            0    8126.2194    17.920575    22.523015    19.303896    7791.5422    8304.7555    8785.0623    7288.8403    747.50723   -488.12304   -109.38253   -3846.4899 
22470000    145.44886   -5074.9248   -4784.0091   -5074.9248            0    7412.4204    17.737953    22.862623    19.198849    7785.8269    7649.3299     6992.288    7595.6433    164.56053   -410.13202   -490.30489   -3942.3413 
22471000    147.52691   -5074.2397   -4779.1677   -5074.2397            0    6439.6782    17.912394    22.655139    19.296618    7830.7179    5056.2387    6956.8702    7305.9256   -311.59084   -1310.8821   -57.107392   -4043.7372 
22472000    146.97152    -5080.537   -4786.5758    -5080.537            0    8786.0108    17.949918     22.66744    19.115227    7777.5783    7696.7852    8772.1126    9889.1344   -952.39072   -328.29159     1203.922   -3789.9962 
22473000    150.62835   -5086.9106   -4785.6353   -5086.9106            0    7562.5514    17.821256    22.731969    19.263128    7803.7288    8232.5055    7442.1203    7013.0284    272.53523   -52.503417    487.60942    -3924.946 
22474000    149.80945   -5066.6996   -4767.0622   -5066.6996            0    7333.0375     17.76966    22.972089    19.146223    7815.6071    7115.4022    7694.3207    7189.3895   -1000.5216      448.944   -224.92794   -3931.2234 
22475000    146.15572   -5062.6435    -4770.314   -5062.6435            0     9771.075    18.056061    22.479703    19.142541    7769.8596    9600.2927    10477.212    9235.7207   -1438.5547   -380.94831   -1462.3599   -3663.1004 
22476000      152.458   -5077.9031   -4772.9682   -5077.9031            0    7711.2785    17.880129    22.882465    19.102862    7815.7721     7250.177     7354.681    8528.9774    1313.7028   -491.20062    167.77648    -3893.998 
22477000     164.7191   -5061.3393   -4731.8808   -5061.3393            0    6847.5331    17.879743    22.795925    19.247932    7845.1737    8346.9676     6161.269    6034.3625    257.60871   -223.02369    884.88402   -3948.4284 
22478000    154.33414   -5061.2562   -4752.5688   -5061.2562            0    7564.1382    17.882534    22.572197    19.370097    7818.7026    7399.1686    8954.7281    6338.5179   -91.524238   -188.16146    77.398633   -3890.0471 
22479000    156.32571   -5068.2958   -4755.6251   -5068.2958            0    8410.9916    17.746265    22.844641    19.237096    7798.8547    8442.7731    8287.0661    8503.1355   -589.91286    724.96802   -387.40738   -3798.9732 
22480000    162.18713   -5071.0702   -4746.6759   -5071.0702            0    7391.0591    17.883882    22.687221    19.287758    7825.7298    6984.0065    8556.1256    6633.0453   -646.28527   -517.49368   -1319.7311   -3903.1326 
22481000    155.73618   -5062.0606    -4750.569   -5062.0606            0    8022.2032     17.92185    22.718794    19.153649    7798.6538    7582.3114    7906.1689    8578.1293    -85.48915   -20.312907    845.68094   -3838.1608 
22482000    150.86376   -5057.9229   -4756.1767   -5057.9229            0    9968.0808    17.742948    22.920333    19.035961    7741.4359      11306.5    8691.6498    9906.0929   -91.951385   -281.34851   -1165.2259   -3630.7714 
22483000    153.04383   -5083.3223   -4777.2157   -5083.3223            0    8105.8551     18.11114    22.224665    19.332742    7781.6996    8292.5788    8696.0851    7328.9015   -463.30732   -339.94006   -869.15173   -3857.2976 
22484000    160.18331   -5071.2501   -4750.8637   -5071.2501            0    8585.6739     17.79854    22.912572    19.079514    7780.8226    7983.4499    8975.7909    8797.7809    513.90371    626.88347    1223.0742   -3776.6016 
22485000    147.20857   -5075.9484    -4781.513   -5075.9484            0    8144.6252    17.829804    22.719627    19.262495    7802.9768    6641.6469    9078.4951    8713.7337   -714.39556   -5.9292702    143.68804   -3854.6676 
22486000    152.18484   -5079.2384   -4774.8499   -5079.2384            0    7395.1688    17.958659    22.386557    19.427362    7810.4317     7358.921    8064.7784    6761.8069   -416.76991   -139.27136   -590.39248   -3932.4874 
22487000    154.88112   -5085.3883   -4775.6069   -5085.3883            0    7222.3779     17.68931    23.027799    19.133148    7793.8088    8188.2761    6247.2093    7231.6482   -1061.4612    484.22716    232.68499   -3954.6775 
22488000    155.53616   -5062.9162   -4751.8247   -5062.9162            0    8618.7992    17.855795    22.798276    19.117114    7782.2206    9431.1678    7604.3028     8820.927   -960.48815   -416.38123     101.7927    -3773.628 
22489000    152.06121    -5068.392   -4764.2508    -5068.392            0    7672.7065    17.994532     22.49484    19.252298    7793.0247    8666.6598    7584.9599    6766.4998    -48.22077   -120.45289    560.64299   -3892.2226 
22490000       159.77    -5070.213   -4750.6533    -5070.213            0    8938.5829    17.742505    22.953361    19.053357    7759.4817    9443.0426    8524.9935    8847.7127    1071.2407    1450.3803   -510.21029   -3739.1268 
22491000    146.89781   -5069.6553   -4775.8415   -5069.6553            0     8870.765    17.780565    22.609375    19.313366    7764.1175    9923.7058    8904.7309    7783.8585    110.76466    43.575758   -697.04865   -3771.3898 
22492000    154.83571   -5084.2471   -4774.5566   -5084.2471            0    7215.7095    17.782714    22.705342    19.369644    7820.7376    8542.5112    7300.9754    5803.6419     617.9255    693.82543    712.97977   -3951.5513 
22493000    155.37842   -5064.0233   -4753.2472   -5064.0233            0    8570.7547    17.789248     22.89033    19.141469      7794.44    8705.6809    8250.9161     8755.667    575.83155    1023.8453    1442.0768    -3778.976 
22494000    156.12586   -5061.0454   -4748.7744   -5061.0454            0    8655.2724    17.910361    22.541761     19.29757    7791.0288     9593.217    8873.9927    7498.6076    154.52762    -871.6454    829.82953   -3765.3263 
22495000    154.06423   -5050.0088   -4741.8614   -5050.0088            0    8242.1118    17.667448    22.961279    19.156016    7770.9676     9256.334    7353.1109    8116.8905   -321.88016   -998.21125   -333.62828   -3807.7697 
22496000    148.92925    -5068.118   -4770.2411    -5068.118            0    6947.8546    17.727585     22.89163    19.240548    7808.0703    8249.9893    6267.5193    6326.0553   -453.81034    47.556051    158.25374   -3979.0701 
22497000    152.23068   -5069.1271   -4764.6469   -5069.1271            0    8926.1981    17.729668     22.68265    19.335959    7776.0689    9878.9788    8458.4616     8441.154    1255.5075   -886.14502    -1363.515   -3752.3626 
22498000    157.52798   -5066.7709   -4751.6955   -5066.7709            0    8041.0447    17.867445    22.726629    19.205908    7798.8813    6715.1302    8373.9715    9034.0324     922.5948    417.90733    303.58536   -3837.1176 
22499000    149.25187   -5067.2895   -4768.7673   -5067.2895            0    8735.8296    17.948774     22.59824    19.171424    7776.1345    7649.4995    9323.6258    9234.3637    984.37361    247.15942    1561.7857   -3778.0635 
22500000    161.73444   -5063.3511   -4739.8623   -5063.3511            0    7616.2802    17.678555    22.826711    19.297303     7787.297    9478.6544    6805.7926    6564.3937    1081.7112   -321.84635   -506.32248   -3874.8833 
Loop time of 537.471 on 64 procs for 250000 steps with 1008 atoms

Performance: 80.376 ns/day, 0.299 hours/ns, 465.141 timesteps/s
373.0% CPU use with 16 MPI tasks x 4 OpenMP threads

MPI task timing breakdown:
Section |  min time  |  avg time  |  max time  |%varavg| %total
---------------------------------------------------------------
Pair    | 42.638     | 44.513     | 48.092     |  20.1 |  8.28
Bond    | 1.6502     | 1.94       | 2.8404     |  21.5 |  0.36
Kspace  | 258.53     | 265.41     | 272        |  22.1 | 49.38
Neigh   | 1.9677     | 2.0238     | 2.0829     |   2.8 |  0.38
Comm    | 72.634     | 78.777     | 84.458     |  35.6 | 14.66
Output  | 0.58725    | 0.58759    | 0.58911    |   0.1 |  0.11
Modify  | 111.79     | 116.19     | 120.19     |  21.7 | 21.62
Other   |            | 28.03      |            |       |  5.21

Nlocal:        63.0000 ave          68 max          56 min
Histogram: 1 0 0 1 3 3 3 3 0 2
Nghost:        3452.75 ave        3465 max        3434 min
Histogram: 1 1 1 0 1 3 2 2 3 2
Neighs:        21441.8 ave       23312 max       18909 min
Histogram: 1 0 0 1 4 2 4 2 1 1

Total # of neighbors = 343069
Ave neighs/atom = 340.34623
Ave special neighs/atom = 2.0000000
Neighbor list builds = 4049
Dangerous builds = 0

unfix		3
unfix		2
unfix		1

write_data	data.final.${pid}
write_data	data.final.1
System init for write_data ...
PPPM initialization ...
  extracting TIP4P info from pair style
  using 12-bit tables for long-range coulomb (../kspace.cpp:340)
  G vector (1/distance) = 0.38037226
  grid = 24 27 32
  stencil order = 5
  estimated absolute RMS force accuracy = 0.0023262018
  estimated relative force accuracy = 7.0052876e-06
  using double precision FFTW3
  3d grid and FFT values/proc = 7875 1344
Last active /omp style is kspace_style pppm/tip4p/omp
WARNING: Not all mixed pair coeffs generated from mixing. Use write_data with 'pair ij' option to store all pair coeffs. (../write_data.cpp:312)

write_restart   restart.lmp.${pid}
write_restart   restart.lmp.1
System init for write_restart ...
PPPM initialization ...
  extracting TIP4P info from pair style
  using 12-bit tables for long-range coulomb (../kspace.cpp:340)
  G vector (1/distance) = 0.38037226
  grid = 24 27 32
  stencil order = 5
  estimated absolute RMS force accuracy = 0.0023262018
  estimated relative force accuracy = 7.0052876e-06
  using double precision FFTW3
  3d grid and FFT values/proc = 7875 1344
Last active /omp style is kspace_style pppm/tip4p/omp
Total wall time: 0:08:57
