#include		in.partitions
include		in.temp
variable        temperature equal 247.90
variable	tempDamp equal 100.0
include		in.pressure
variable        pressure equal 5506.6
variable        pressureDamp equal 1000.0 # This is 1 ps
include		in.seed
variable        seed equal 745823

units		real
atom_style	full
read_restart    restart.lmp.${pid}
read_restart    restart.lmp.1
Reading restart file ...
  restart file = 7 Jan 2022, LAMMPS = 7 Jan 2022
  restoring atom style full from restart
  triclinic box = (-3.1749504 -0.26620529 -0.077519756) to (14.784949 22.846204 19.307518) with tilt (0.172794 -6.5335301 -0.097592618)
  2 by 4 by 3 MPI processor grid
  restoring pair style lj/cut/tip4p/long/omp from restart
  restoring bond style harmonic/omp from restart
  restoring angle style harmonic/omp from restart
  1008 atoms
  672 bonds
  336 angles
Finding 1-2 1-3 1-4 neighbors ...
  special bond factors lj:    0        0        0       
  special bond factors coul:  0        0        0       
     2 = max # of 1-2 neighbors
     1 = max # of 1-3 neighbors
     1 = max # of 1-4 neighbors
     2 = max # of special neighbors
  special bonds CPU = 0.001 seconds
  read_restart CPU = 0.005 seconds

include 	in.setup
variable	out_freq equal 1000
variable	out_freq2 equal 10000
variable	out_freq3 equal 1000

timestep	2.0

neigh_modify    delay 7 every 1

include		in.tip4p
# This is TIP4P/Ice

# create groups ###
group ox type 2
336 atoms in group ox
group hy type 1
672 atoms in group hy

# set charges - beside manually ###
set group ox charge -1.1794
Setting atom values ...
  336 settings made for charge
set group hy charge 0.5897
Setting atom values ...
  672 settings made for charge

# ### TIP3P Potential Parameters ###
pair_style lj/cut/tip4p/long/omp 2 1 1 1 0.1577 8.5
pair_coeff 1 1*2 0.000 0.000
pair_coeff 2 2 0.21084 3.1668
bond_style  harmonic
bond_coeff  1 450 0.9572
angle_style harmonic
angle_coeff 1 55 104.52
kspace_style pppm/tip4p/omp 1.0e-5
pair_modify tail yes

thermo          ${out_freq}
thermo          1000
thermo_style    custom step temp pe etotal epair emol press lx ly lz vol pxx pyy pzz pxy pxz pyz enthalpy

restart 	${out_freq3} restart.lmp.${pid} restart2.lmp.${pid}
restart 	1000 restart.lmp.${pid} restart2.lmp.${pid}
restart 	1000 restart.lmp.1 restart2.lmp.${pid}
restart 	1000 restart.lmp.1 restart2.lmp.1


include         in.dump
dump            myDump all atom ${out_freq2} dump.water.${pid}
dump            myDump all atom 10000 dump.water.${pid}
dump            myDump all atom 10000 dump.water.1
dump            myDump2 all dcd ${out_freq2} dump.dcd
dump            myDump2 all dcd 10000 dump.dcd
dump_modify     myDump append yes
dump_modify     myDump2 append yes


variable natoms 	equal  "count(all)"                        # NUMBER ATOMS
variable H      	equal  "enthalpy/v_natoms"                 # ENTHALPY-per-atom
variable Vol      	equal  "vol/v_natoms"                 # volume-per-atom
fix AVG all 		ave/time ${out_freq} 1 ${out_freq} v_Vol v_H file vol_enthalpy.dat
fix AVG all 		ave/time 1000 1 ${out_freq} v_Vol v_H file vol_enthalpy.dat
fix AVG all 		ave/time 1000 1 1000 v_Vol v_H file vol_enthalpy.dat



fix 		1 all shake 1e-6 200 0 b 1 a 1
       0 = # of size 2 clusters
       0 = # of size 3 clusters
       0 = # of size 4 clusters
     336 = # of frozen angles
  find clusters CPU = 0.001 seconds
fix             2 all nph tri ${pressure} ${pressure} ${pressureDamp}
fix             2 all nph tri 5506.6 ${pressure} ${pressureDamp}
fix             2 all nph tri 5506.6 5506.6 ${pressureDamp}
fix             2 all nph tri 5506.6 5506.6 1000
fix             3 all temp/csvr ${temperature} ${temperature} ${tempDamp} ${seed}
fix             3 all temp/csvr 247.9 ${temperature} ${tempDamp} ${seed}
fix             3 all temp/csvr 247.9 247.9 ${tempDamp} ${seed}
fix             3 all temp/csvr 247.9 247.9 100 ${seed}
fix             3 all temp/csvr 247.9 247.9 100 745823


run             250000
PPPM initialization ...
  extracting TIP4P info from pair style
  using 12-bit tables for long-range coulomb (../kspace.cpp:340)
  G vector (1/distance) = 0.38276329
  grid = 24 30 36
  stencil order = 5
  estimated absolute RMS force accuracy = 0.0020057823
  estimated relative force accuracy = 6.0403537e-06
  using single precision MKL FFT
  3d grid and FFT values/proc = 7056 1440
  generated 0 of 1 mixed pair_coeff terms from geometric mixing rule
Last active /omp style is kspace_style pppm/tip4p/omp
Neighbor list info ...
  update every 1 steps, delay 7 steps, check yes
  max neighbors/atom: 2000, page size: 100000
  master list distance cutoff = 10.8154
  ghost atom cutoff = 10.8154
  binsize = 5.4077, bins = 5 5 4
  1 neighbor lists, perpetual/occasional/extra = 1 0 0
  (1) pair lj/cut/tip4p/long/omp, perpetual
      attributes: half, newton on, omp
      pair build: half/bin/newton/tri/omp
      stencil: half/bin/3d/tri
      bin: standard
Per MPI rank memory allocation (min/avg/max) = 10.41 | 10.44 | 10.46 Mbytes
Step Temp PotEng TotEng E_pair E_mol Press Lx Ly Lz Volume Pxx Pyy Pzz Pxy Pxz Pyz Enthalpy 
  750000    259.60567    -4840.749   -4321.5056    -4840.749            0    6014.8045      17.9599     23.11241    19.385038    8046.6624    6253.1082    5806.4879    5984.8175   -42.016196    1143.4832   -27.497909   -3615.6543 
  751000    236.24386   -4831.4717   -4358.9548   -4831.4717            0    6416.3022    17.950523    23.090583    19.297156    7998.4403    7669.7967    5894.4913    5684.6186   -637.63741   -127.93764     -283.381   -3610.4993 
  752000    240.43989      -4827.1   -4346.1905      -4827.1            0    6953.0523     17.95588    22.938122    19.461265    8015.5925    7987.3861    7227.6013    5644.1696   -651.42028    759.47299    496.51226   -3533.3843 
  753000    238.00412    -4837.162   -4361.1244    -4837.162            0     4067.572    18.303109    22.808516    19.435665    8113.7438    2283.4096    5341.5652    4577.7414   -1233.4744    48.141191    1083.8518    -3879.806 
  754000    245.34579   -4884.6003   -4393.8784   -4884.6003            0    3578.7072    18.050997     22.86443    19.568326    8076.3521    5300.7984    2815.7745    2619.5488   -27.260356   -679.78411    615.18731   -3972.3593 
  755000    241.95417   -4823.8068   -4339.8686   -4823.8068            0    7070.6378    18.178895    22.694415    19.424079    8013.5862    7078.5184    8359.5535    5773.8415   -444.66642    637.39973   -997.19603   -3513.5236 
  756000    246.88734   -4823.1221   -4329.3169   -4823.1221            0    5692.4278    18.126069    22.732457    19.558815    8059.2114    7081.6016    5077.0325    4918.6492   -955.65409   -824.85869    679.94393   -3660.2556 
  757000    244.68875    -4841.367   -4351.9592    -4841.367            0    5838.9235    18.239142    22.628663    19.435951    8021.7496      4951.09    7198.2146    5367.4659   -1370.7057   -28.623294    1497.0548   -3668.8695 
  758000    246.73187   -4837.1719   -4343.6776   -4837.1719            0    5857.7119    18.019233    22.884956    19.509791    8045.2399    6846.2581     5573.087    5153.7906   -1343.1969   -90.283525   -773.92133   -3656.3831 
  759000     246.5584   -4818.6072     -4325.46   -4818.6072            0     5177.189    18.088344    22.949902    19.350041    8032.6997    5187.6905    6416.7226    3927.1539    -447.8338     389.2466    -559.6608   -3718.9591 
  760000    257.91871   -4850.7352   -4334.8659   -4850.7352            0    5572.3874    18.026034    22.882646    19.409363    8006.0387      6109.66    5706.1104    4901.3918   -249.70528    1214.4519   -1645.9707   -3684.2347 
  761000    248.40684   -4851.5315   -4354.6871   -4851.5315            0    5518.3363    18.181772     22.69733    19.437208    8021.3021    5000.2691    4989.3989    6565.3408   -170.24058   -31.625173    121.67681   -3709.1385 
  762000    249.21372   -4807.6325   -4309.1743   -4807.6325            0     6565.876    18.182332     22.64576    19.570584    8058.2411    5514.6216    7498.4837    6684.5228   -418.83314    895.40367   -1258.8754   -3537.5448 
  763000    261.51784   -4831.8145   -4308.7465   -4831.8145            0    5952.7489    18.097691     22.84545    19.423519    8030.6517    5980.4022    6573.1164    5304.7282    95.804554   -953.22442     118.3606   -3611.5676 
  764000    248.92904   -4857.0317   -4359.1429   -4857.0317            0    5416.0008    18.092025    22.967742    19.360341    8044.8594    6207.1504    4958.9314    5081.9206     1089.505     -1423.52   -946.16518   -3723.7051 
  765000    257.70977   -4859.4713   -4344.0199   -4859.4713            0    7093.6632     17.91174    22.957198    19.420399    7985.7336    7086.6074    6633.8815    7560.5008    195.96224    602.71253   -1054.1945   -3517.8654 
  766000    249.32063   -4837.3202   -4338.6481   -4837.3202            0    5371.2967    18.096751     22.97467      19.3692    8053.0717    6752.1411    4853.7528    4507.9963    2614.0544   -447.84537    854.82615   -3707.8119 
  767000    254.09782   -4852.7247   -4344.4976   -4852.7247            0    7435.0075    18.168598    22.708338    19.262449    7947.2756    6740.4245    7821.4909    7743.1071    1919.0682   -1169.4986   -1047.0451    -3482.759 
  768000    235.26164   -4843.5269   -4372.9746   -4843.5269            0    3955.9245    18.171633    22.896413    19.461497    8097.2519    3538.3263    4285.6904    4043.7567   -901.44133   -942.72418   -101.59041    -3905.819 
  769000    227.64518   -4800.7578   -4345.4393   -4800.7578            0    5757.9075    18.005435    22.823117    19.548214    8033.1461    5872.8244    7384.1934    4016.7048    1500.0523    148.42681   -1820.7468   -3670.8705 
  770000    251.04977   -4857.3483   -4355.2178   -4857.3483            0    4116.0894    18.320094    22.987011    19.220788    8094.3389    3944.4171     4126.796    4277.0552    1467.8614    557.09832    98.020027   -3869.3232 
  771000    249.21552   -4867.0893   -4368.6275   -4867.0893            0    6785.1259    17.972538     22.83842    19.411522    7967.7383    5693.6322    7199.8575    7461.8879    1146.7396   -955.34171    275.64183   -3580.1871 
  772000    243.69173   -4827.9017   -4340.4882   -4827.9017            0    6561.1007    18.143603    22.915832     19.26551    8010.1322    6715.5875    5777.0376     7190.677   -167.27693   -733.18276   -2361.5233   -3574.0233 
  773000    238.44698   -4860.7226   -4383.7992   -4860.7226            0    5277.7091     17.98248    22.973322    19.463873    8040.8628    5597.9181    6338.0337    3897.1754    1403.7739   -262.67618    99.149403   -3764.8942 
  774000    258.06069   -4819.1595   -4303.0063   -4819.1595            0    6834.9301    18.130295    22.995178    19.233231    8018.5143    6322.6361    5648.7155    8533.4388    446.74053   -803.04325   -2014.0361   -3503.7172 
  775000    257.06731   -4828.3223   -4314.1559   -4828.3223            0    6400.8209     17.97329    23.057263      19.3686    8026.6364    5863.8812    6706.8029    6631.7787    1532.2851    1358.0173    571.31821   -3564.8742 
  776000    252.54139   -4835.7682   -4330.6543   -4835.7682            0    4224.2772    18.049422    23.260784     19.24276    8078.9516    4670.8619    3113.1471    4888.8226    150.04937   -126.73096    -2702.338   -3832.9363 
  777000    257.70278   -4835.3421   -4319.9048   -4835.3421            0    5448.0838    17.964705    23.025055    19.401522    8025.2132    5294.2448    5620.3221    5429.6845    562.16653    985.70377    322.80839   -3682.2637 
  778000    246.62862   -4851.0851   -4357.7974   -4851.0851            0    6177.2355    18.067144    22.866848    19.319097    7981.4654    7048.3391    5723.5556    5759.8118   -992.04891   -1008.7639   -1025.0861    -3638.758 
  779000     247.3603   -4839.2776   -4344.5264   -4839.2776            0    5808.9944     18.12882    22.849395    19.427856    8047.6504    5091.9138    6513.2547    5821.8147   -263.90426    727.42466   -435.07497   -3662.7437 
  780000    257.87152   -4849.3355   -4333.5606   -4849.3355            0    4242.8321     18.19521    22.804177    19.529046    8103.1245    4634.3116    4327.8583    3766.3264   -194.75614    289.91894   -736.78767   -3832.1607 
  781000    256.59922   -4841.4099   -4328.1798   -4841.4099            0    4467.6897    18.195938    22.834608    19.456815    8084.2502    2414.3058    5072.7222    5916.0411    2206.2676   -384.54975   -1061.0707    -3801.437 
  782000     242.1226   -4821.1201    -4336.845   -4821.1201            0    6173.3723    18.079747    22.878715    19.487386    8060.7895    5253.0735    7686.8375    5580.2061   -752.51053   -742.72721   -1595.5854   -3611.1135 
  783000    242.91181   -4828.2382   -4342.3846   -4828.2382            0     6067.921    18.114572    22.941091     19.29326    8017.6623    5097.9326    6128.3609    6977.4696    1225.4801    66.584295   -443.59906   -3632.8663 
  784000    243.71115   -4871.4828   -4384.0304   -4871.4828            0    4245.3341    18.092746    22.915023    19.454153    8065.6082    4106.1482    5295.8616    3333.9926     1274.439    171.23369    606.29699   -3884.6576 
  785000    242.87437   -4868.8232   -4383.0445   -4868.8232            0    5908.6472    18.135048     22.86114    19.344658    8020.0603    4970.3803    6456.2594     6299.302     267.9686     5.487703    1454.8459   -3691.9434 
  786000    243.74573   -4866.4006    -4378.879   -4866.4006            0    5096.7718    18.210665    22.896634    19.274934     8036.933      3876.38    4954.6122    6459.3232   -685.95348   -89.227449   -1131.0706   -3781.4843 
  787000    256.13634    -4855.749   -4343.4447    -4855.749            0    5894.9408    17.834029    22.874195    19.636879    8010.6501    5077.1295    7204.6415    5403.0515    466.14791   -182.14339   -107.60916   -3654.7557 
  788000    249.77992   -4856.2202   -4356.6295   -4856.2202            0    4871.3628    18.279579     22.75293    19.328752    8039.0984    4436.9056    5374.4626    4802.7203    532.11719   -725.61966   -674.59417   -3785.5012 
  789000    244.93933   -4844.3755   -4354.4666   -4844.3755            0    7148.2879    18.061993    22.565616    19.533273    7961.3711    6646.1047    8417.5995    6381.1597   -615.57567    132.45872    419.25997   -3524.4901 
  790000    245.60578   -4832.7269   -4341.4849   -4832.7269            0    5485.9339    18.388919    22.613466    19.386367    8061.5728    4716.8643    5707.9097    6033.0278   -563.27389   -638.04262    1123.4349   -3696.5049 
  791000    236.34776    -4808.137   -4335.4122    -4808.137            0    5497.7372    18.015757    22.614092    19.775473    8056.7254     5408.552    6610.3485    4474.3111     962.7171    802.30971    1819.4505   -3689.4332 
  792000    248.61276   -4847.8586   -4350.6024   -4847.8586            0    3353.5203    18.418051    22.719988    19.328881     8088.323    1838.1156     3638.282    4584.1634   -704.53344   -1118.8726    1486.8878   -3955.0215 
  793000    252.89927   -4831.3563   -4325.5265   -4831.3563            0    6281.3774    18.103467    22.669891    19.521689    8011.7719    7003.6293    7352.4746    4488.0284   -2209.7223    127.09409   -914.36428   -3591.5885 
  794000    245.26617   -4868.9018   -4378.3392   -4868.9018            0    5686.9908    18.247087    22.660702    19.458008    8045.7266    4132.6455    6987.9881    5940.3387    141.92242    681.38851    120.44136   -3711.0353 
  795000    245.84727   -4874.4676   -4382.7426   -4874.4676            0    5901.0856    18.117377    22.804482    19.467863    8043.2916     6940.004    5628.7034    5134.5493   -413.31599    -608.7478    1007.6526   -3690.5267 
  796000    241.52545   -4849.4302   -4366.3495   -4849.4302            0    5032.0531    18.139338    22.760947    19.512743    8056.1971    4706.5033    5480.0975    4909.5585    522.77801    678.16843    1988.1195   -3775.1267 
  797000    247.87097   -4846.7343   -4350.9617   -4846.7343            0    4369.6264    18.134926    22.688534    19.559502    8047.8528    4694.5012    5722.6299    2691.7483   -1621.3676   -226.31467    446.23849   -3838.1001 
  798000    243.10221   -4856.3164    -4370.082   -4856.3164            0    6426.0122    18.060529    22.806732    19.458755    8015.0933    7328.3215    6440.5647    5509.1504     129.7139   -90.080276    646.60203   -3618.9331 
  799000    261.68695   -4847.2416   -4323.8354   -4847.2416            0    5923.1056    18.102123     22.91999    19.337109    8022.9755    6652.8101    5721.2698    5395.2368    -696.7603    671.05121      662.255   -3630.7913 
  800000    241.83805   -4856.4684   -4372.7624   -4856.4684            0    5938.2416    18.117901    22.942204    19.325344    8032.8611    5973.4393     5124.946    6716.3395   -319.29302    128.70027    1746.2259   -3677.0913 
  801000    268.74624   -4828.4195   -4290.8938   -4828.4195            0    5850.7263     18.05292    22.970442    19.461136    8070.2128    5872.1694    5770.1682    5909.8413   -245.00435    154.03924   -111.96611    -3602.288 
  802000    255.82812   -4879.8719    -4368.184   -4879.8719            0    5407.8368    18.047687    22.977804    19.327193    8014.9139    5913.6807    4411.7363    5898.0935   -1360.6668   -1086.1619    904.45641   -3736.0658 
  803000    249.16173   -4883.8571   -4385.5028   -4883.8571            0    5959.0226    17.949173    23.071498    19.401152    8034.2946    5957.0847    5938.7444    5981.2385   -766.65963    469.09016    398.04881   -3687.2726 
  804000    259.63963   -4835.2598   -4315.9484   -4835.2598            0    4861.2004    18.179123    22.983961    19.344579    8082.7114    4483.0399    4920.0273     5180.534    354.92505    1114.7988    949.91579   -3742.9196 
  805000    256.75627   -4846.2484   -4332.7042   -4846.2484            0    4881.2969    18.023564    22.964203     19.44338    8047.5524    4235.2107    4701.1158    5707.5641   -1457.1773    1.5691344   -999.31974   -3759.8093 
  806000    256.58165   -4811.3198   -4298.1247   -4811.3198            0    5453.3385    18.013815    22.971569    19.452825    8049.6879    6398.9328    5605.9155    4355.1673   -219.65293    -919.2167    2290.0981   -3657.9222 
  807000    243.41364   -4866.0579   -4379.2005   -4866.0579            0    4120.1652    18.058515    23.010945    19.373306     8050.451    4378.3815     3611.649    4370.4653   -184.47198   -7.1062371    808.12625    -3895.462 
  808000     249.6957   -4857.3743   -4357.9521   -4857.3743            0    3503.8758    17.973993    23.168701    19.508073     8123.826    4752.6608    2829.4401    2929.5264   -227.29695   -52.368317    77.124278    -3942.821 
  809000     250.1367   -4863.2742   -4362.9699   -4863.2742            0    4819.0156     18.20435    23.192924    19.159101    8089.2045    3234.2128    4438.4265    6784.4076   -1596.2868    648.31509   -727.30912   -3794.4574 
  810000    256.90041   -4876.1791   -4362.3466   -4876.1791            0    6234.8703    17.980188    23.074126    19.298221    8006.3906    5704.8916    7368.0285    5631.6909   -707.32475    1731.5221   -366.31503    -3634.332 
  811000    250.71751   -4827.6593   -4326.1933   -4827.6593            0    6155.7913    17.863419    23.209571    19.367615    8029.8575     6228.561    6093.9239     6144.889   -1012.5548   -707.64412    138.73407   -3605.3056 
  812000    265.37301   -4835.4747   -4304.6959   -4835.4747            0    4110.0073    18.149741    22.940246    19.390099    8073.2519    4633.5403    3663.5955    4032.8862    944.00926   -659.52769   -500.12221   -3820.7833 
  813000    252.24675   -4825.2609   -4320.7363   -4825.2609            0    6238.8787    18.027907     23.06587    19.364955    8052.5171    6278.0434    6363.9476     6074.645   -702.10881    586.23224   -2104.2064   -3588.0567 
  814000    247.45927   -4866.7994   -4371.8503   -4866.7994            0    3819.3659    18.136951    22.865226    19.506459    8089.4351    4430.5078     2878.825     4148.765    1372.7158    -311.5923    1189.1279   -3921.2564 
  815000    242.30446   -4860.0825   -4375.4436   -4860.0825            0    6057.9938    18.261272    22.702973    19.376677    8033.2828    4971.1216    5736.5116    7466.3483   -533.53801     584.3333   -1379.4816   -3665.7061 
  816000    252.77871   -4822.7585   -4317.1699   -4822.7585            0    6245.0571    18.125528    22.767511    19.475889    8037.1763    6146.7685    6921.7653    5666.6374   -261.56745   -36.066095    1102.2151   -3585.1619 
  817000    242.63587   -4844.3334   -4359.0317   -4844.3334            0    5996.5555    18.075523    22.757498    19.529439    8033.5066    5529.5487    6032.1726    6427.9451    1278.0575   -798.37924    410.42301   -3656.4726 
  818000    246.47361   -4842.5291   -4349.5515   -4842.5291            0     4489.556    18.081048    22.959553    19.380783    8045.5988    6558.5249     3379.416    3530.7271    1369.0163   -2256.9644    1572.3822   -3822.7613 
  819000    244.89595    -4871.534   -4381.7119    -4871.534            0    6386.1046    18.106173    22.765129    19.381103    7988.6847    6059.5065    6320.0982    6778.7092   -529.58515   -18.669469    1322.1103   -3637.6874 
  820000    255.26111   -4854.5743   -4344.0205   -4854.5743            0    3330.4621     18.25677     22.83517    19.466381    8115.4652     1482.417    4249.6879    4259.2813   -1095.5828    991.18074   -188.40019   -3949.8412 
  821000    247.92009   -4844.8443   -4348.9735   -4844.8443            0    7843.2735    18.086458    22.584846    19.469874    7953.0517    7921.3073    8463.0144    7145.4989    1169.3262    353.95321   -937.98026    -3439.255 
  822000    258.86383   -4815.0469   -4297.2873   -4815.0469            0    2172.7934    18.183699    22.949239    19.625257    8189.6596    1913.1076    2979.4749    1625.7978   -155.01219   -201.22182    1661.7051   -4037.7736 
  823000    241.92944   -4874.7107    -4390.822   -4874.7107            0     6233.287    18.007955    22.711963     19.53313    7988.9722    8271.2652    6429.1983    3999.3976   -2305.9629    464.01026   -546.86963   -3664.5757 
  824000    235.01237   -4860.9136   -4390.8598   -4860.9136            0    4889.4096    18.247485    22.716902    19.404533      8043.69    4472.2443    5745.4783    4450.5062    -565.2965    -210.8999    749.47466   -3817.2882 
  825000    254.31475   -4873.2318   -4364.5709   -4873.2318            0     5250.347    18.063888    22.775913    19.571018    8051.9388     6289.079    4733.7128    4728.2491   -1277.0402   -680.65386   -307.62409   -3748.0265 
  826000     252.5814   -4849.5855   -4344.3915   -4849.5855            0      5199.04    18.149992    22.946877    19.297864     8037.283    4742.7788    5846.8245    5007.5167    -535.7555    864.10903    1449.4102   -3734.9833 
  827000    229.46125   -4858.0094   -4399.0586   -4858.0094            0    5127.2856     17.96899    23.004961    19.430476    8032.0911    6820.9375    4287.6133     4273.306   -1508.0497   -1224.5603     1239.526   -3798.4493 
  828000    266.19689   -4834.5581   -4302.1314   -4834.5581            0    5661.7362    18.122864    23.184311    19.121975    8034.4055    3988.5147    5109.8548    7886.8391   -433.14346    279.92953    1161.6981   -3638.7256 
  829000    246.05719   -4859.5802   -4367.4354   -4859.5802            0    5911.0342    17.817836    23.059563    19.503176    8013.2994     7823.398    5428.8122    4480.8923   -1967.0695    973.85426    134.64246   -3676.6379 
  830000    258.60813   -4841.8113   -4324.5631   -4841.8113            0    6759.6665    18.191604    23.016286    19.183145    8032.0431    7118.0671    4902.8895    8258.0431   -808.37688   -552.45168    1776.1558   -3532.7418 
  831000    247.15446   -4836.9003   -4342.5608   -4836.9003            0    6552.4128     17.94614    22.893551    19.553809    8033.6992     6013.518    6407.1544     7236.566   -1332.0989    7.0428613    2193.9042   -3574.8588 
  832000    241.70315   -4859.8553   -4376.4192   -4859.8553            0    4044.8538    18.097386    22.993064    19.342022    8048.4933    4127.9481      3545.24    4461.3731   -574.13161   -1008.5077   -369.25113   -3901.6382 
  833000    256.78043   -4855.4686    -4341.876   -4855.4686            0    5507.3388    17.995696    22.954223    19.468394    8041.9497    5698.3901    5441.5695    5382.0569   -486.90446    377.40649    292.92754   -3695.9555 
  834000    249.51569   -4816.0094   -4316.9471   -4816.0094            0    4873.3084    18.132469    23.032633     19.26909     8047.514    4408.4136    5421.3894    4790.1224    210.12152    1168.8624    1497.7123   -3744.9926 
  835000    245.00457   -4862.1037   -4372.0643   -4862.1037            0    3972.7971     18.05647    23.038049    19.424381    8080.2676    5506.5121    4127.3753    2284.5039   -2051.4332   -765.07129   -2036.3369   -3903.9003 
  836000    249.17657   -4867.9531   -4369.5692   -4867.9531            0    6110.1107    17.919898    23.021059    19.433652    8017.0621    6447.3604    6300.2647     5582.707    1423.9981    591.44038    1500.0712   -3655.1712 
  837000    239.85135   -4847.8671   -4368.1348   -4847.8671            0    6496.8454    18.059932    23.045105    19.295818    8030.7851    5172.5223    5996.3352    8321.6788    393.53415    103.24134   -1848.6496   -3607.2193 
  838000    254.52852   -4858.4481   -4349.3596   -4858.4481            0    4582.9707    18.035845    22.996175    19.456394    8069.6453    3506.2922    5167.1668    5075.4531    922.41775   -410.26482    143.64651   -3810.0013 
  839000    237.56346   -4882.6124   -4407.4561   -4882.6124            0    3643.8242    18.319282    23.004021    19.170667    8078.8478    3045.7999    2584.6175    5301.0551    95.160006    332.80042    -279.9091   -3978.1345 
  840000    237.90575   -4839.1649    -4363.324   -4839.1649            0    6564.4732    17.897479    22.770359    19.658405    8011.4293     8614.871    6257.7738    4820.7747    -1157.057   -1064.4533    682.64808    -3596.341 
  841000    243.03522   -4847.9998   -4361.8993   -4847.9998            0    5109.7846    18.217807      22.9658     19.24869    8053.3921    4282.9943    5448.1785     5598.181   -614.56985   -289.70067    -960.0991   -3761.7527 
  842000    250.78978   -4865.1407   -4363.5301   -4865.1407            0     6174.792    18.040897    22.843068     19.39884    7994.4448    6824.1139    6631.9825    5068.2796    216.78432   -229.17794    451.04144   -3643.6063 
  843000    252.13164   -4840.3789   -4336.0845   -4840.3789            0    4769.2466    18.115137    22.901328    19.520359    8098.2299    4247.7669    4841.4362    5218.5366   -78.277985    838.98567    479.26471   -3772.8156 
  844000    249.63344   -4860.0807    -4360.783   -4860.0807            0    5462.9228    18.225239    22.755864    19.367662    8032.3706    2941.3982    6353.3097    7094.0605    749.85525    660.79041   -1655.2908   -3720.8349 
  845000    238.17703   -4871.1705    -4394.787   -4871.1705            0    5814.2124    18.004533    22.914196    19.442965    8021.3779    7072.7602     5728.834    4641.0431   -684.02057    -643.4159   -1046.0514   -3714.6197 
  846000    261.74966   -4862.8795   -4339.3478   -4862.8795            0    5297.0017    18.038408    22.882469    19.379526    7999.1574    3963.1197    6975.2789    4952.6065    1503.4577   -604.40403    906.65167   -3721.4022 
  847000    243.47492   -4845.8346   -4358.8547   -4845.8346            0    4588.0707    18.003001    22.991783    19.464973    8056.9625     5994.458    3922.9454    3846.8086    732.67734     16.54208    568.93561   -3819.7447 
  848000     246.2016   -4844.8925   -4352.4589   -4844.8925            0    5878.2116    17.989539    23.016471    19.421313    8041.5056    7084.2472    6086.6688    4463.7188    503.68934    840.84815   -1802.8312   -3663.0792 
  849000    248.75307   -4856.7012   -4359.1643   -4856.7012            0    5853.9198    18.149537    22.962007    19.267906    8029.8957    6471.0307     5742.253    5348.4757    582.63982    73.595987    758.21239   -3673.6247 
  850000    251.06934   -4856.8204   -4354.6507   -4856.8204            0    6293.3267     18.01661    22.884667    19.414649    8004.7397    4939.7156    6908.5872    7031.6772    189.72663   -932.96833   -824.64548   -3619.9619 
  851000    235.38788   -4866.4872   -4395.6823   -4866.4872            0    7587.8709    17.996404    23.070958    19.237405    7987.2603    8295.7469    6774.0849    7693.7811    1374.8936    214.93656   -753.66552   -3511.8016 
  852000     258.2755   -4874.6688   -4358.0859   -4874.6688            0    4004.2717    17.971926     23.29862    19.284321    8074.7513    3345.5086    3617.1583    5050.1481   -469.47611   -989.15898   -255.14602    -3886.535 
  853000    245.11641   -4830.6646   -4340.4015   -4830.6646            0    5460.3378    18.155659    22.984406     19.28326    8046.8475    3659.7201    6825.6505    5895.6428    1187.1207    311.73474    321.96028   -3699.6034 
  854000    258.53149   -4851.5112   -4334.4163   -4851.5112            0    7717.5331    17.903478    22.857581    19.482929    7973.0031    7142.9552    8977.4779    7032.1662   -88.923241    1159.6421   -2374.8649   -3437.0364 
  855000    254.33499   -4818.7041   -4310.0027   -4818.7041            0    5633.3381    18.151056    22.819935    19.480245    8068.8328    5383.8928    6535.0678    4981.0536     759.0539    765.62864    1291.1588    -3647.096 
  856000    246.09597   -4882.0384   -4389.8161   -4882.0384            0    3923.9802     18.09789    22.835988    19.564656    8085.7436    4153.7059    3948.2576    3669.9772  -0.59726106     -455.738    1293.6915   -3927.0914 
  857000    250.09873   -4841.9568   -4341.7284   -4841.9568            0    6032.5797      18.2058    22.629502    19.488562    8029.0575    4928.0227    6670.3049    6499.4114    640.69199    248.35098    -1910.532   -3635.3401 
  858000    248.94122      -4829.8   -4331.8868      -4829.8            0    6849.7392    18.251284     22.39925    19.555475    7994.5727    6142.2065     8964.665    5442.3462     1019.091    704.97622    639.88302   -3533.2576 
  859000    246.84818   -4866.9724   -4373.2455   -4866.9724            0    5263.8286    18.181484    22.699647    19.457045    8030.1805    5560.5726    4865.4392    5365.4738    588.57301    381.80125    304.00351   -3756.7883 
  860000    250.25443   -4830.4552   -4329.9155   -4830.4552            0    4801.3481    18.037507    23.032021    19.411896    8064.4825    5702.1837    4725.7095     3976.151    214.60086    64.344521    420.28225   -3765.2183 
  861000    262.38489   -4839.9714   -4315.1692   -4839.9714            0    4037.6706    18.078164    23.131528    19.376856    8102.9275     2977.084    4052.2458    5083.6819   -290.20123    564.04701    314.83472    -3838.026 
  862000    250.74042   -4841.1386   -4339.6268   -4841.1386            0    6640.4991    17.881115    23.037189    19.375372    7981.3091    4456.6694    7472.0016    7992.8262    1051.8069   -27.722537    333.13224   -3566.6779 
  863000    243.60029   -4862.2178   -4374.9871   -4862.2178            0    5938.9981    18.088699    23.090778    19.242313      8037.17    5472.0486    5818.8771    6526.0687    772.94427    665.47791   -121.65627   -3678.8541 
  864000    252.84881   -4847.5449   -4341.8161   -4847.5449            0    3583.9459    18.106248    23.131971    19.283468    8076.5566    2486.8065    2316.1918    5948.8394    1048.5214   -550.14177      1893.52   -3919.6692 
  865000    245.50728   -4849.2176   -4358.1727   -4849.2176            0    5128.5521     17.97662    23.019673    19.517076    8076.4765    6805.7842    5027.4056    3552.4666   -395.91378    1126.4568   -936.54058   -3754.0953 
  866000    246.78613    -4867.813   -4374.2102    -4867.813            0    6903.2933    18.141276    23.032201    19.044997    7957.6384    5690.7822    6365.1868    8653.9109    0.8532699    -1181.121    3.3483334   -3573.0555 
  867000    239.84743   -4867.8764    -4388.152   -4867.8764            0    4237.3071    17.902103    23.125431    19.479978     8064.591    5968.4308    3280.0887    3463.4019    788.62621     -89.6446   -360.10321   -3889.7862 
  868000    238.37183   -4850.2347   -4373.4616   -4850.2347            0    4034.0691    18.103385    23.115074    19.286502    8070.6506    5228.3685    2732.5097     4141.329   -690.42036   -984.31035   -1094.9434    -3898.643 
  869000    237.30928   -4849.0659    -4374.418   -4849.0659            0    6586.7106    17.896892     23.04145    19.426824     8011.046     7388.533    6123.2289    6248.3699    2355.0016    414.58629   -48.978875   -3604.8736 
  870000    251.37412   -4864.0268   -4361.2475   -4864.0268            0    4145.8943    18.124561    23.158623    19.203839     8060.617    3638.9803     4326.474    4472.2287    890.47308    278.92487    2222.4008   -3873.8734 
  871000    251.25545    -4878.009   -4375.4671    -4878.009            0    5259.6122     17.91771    23.022512     19.43275    8016.2173    6031.6956    5224.9099     4522.231    545.40274   -596.70701    1470.1865   -3760.5748 
  872000    244.58605   -4818.3423     -4329.14   -4818.3423            0    4237.6425    18.161612    23.072001    19.348338    8107.4321    3528.4539    4131.8184    5052.6551   -295.56046   -757.07073   -1780.2088   -3828.0872 
  873000    246.33173   -4849.1717   -4356.4778   -4849.1717            0    5861.5941    18.211454    22.676108    19.481871    8045.3292    4606.7022      7698.93      5279.15    50.783295    -418.7537    281.44261   -3668.7201 
  874000     246.7532   -4833.2581   -4339.7212   -4833.2581            0    5682.6099    18.085309    22.623607    19.590614     8015.596    5667.1805    6807.6266    4573.0226   -893.48086    149.71848   -1646.6253   -3675.4284 
  875000    254.02269   -4832.3032   -4324.2264   -4832.3032            0    5463.3769    18.333595    22.790026    19.372393    8094.2334    3503.4714    6733.6909    6152.9685    1181.5231    1171.3099   -1315.2286   -3679.2961 
  876000    251.19247    -4869.796     -4367.38    -4869.796            0    5509.2637     18.07122    22.771945    19.486091    8018.8545    4854.2107    6500.1798    5173.4005    -426.2877   -607.15031   -1092.7079   -3723.0894 
  877000     249.4694   -4861.9106    -4362.941   -4861.9106            0    7940.7127     18.13412    22.726625    19.327576    7965.4223    7559.5021    8856.7934    7405.8426    347.74092    1118.9309    -831.9544   -3440.4881 
  878000    246.22791   -4861.8163   -4369.3301   -4861.8163            0    6475.1074     18.09893    22.978506    19.214847    7991.1928    8011.6835    5330.1223    6083.5165    1240.8704   -1033.1194    2176.4072   -3614.6994 
  879000    252.16848   -4809.2044   -4304.8363   -4809.2044            0    6017.9709    18.047793    23.052049    19.396275    8069.5993    4719.2527    6014.7694    7319.8907   -396.30616    114.99478   -557.56715   -3596.6004 
  880000    239.83311   -4871.4992   -4391.8033   -4871.4992            0    4687.8699    18.020683    23.006549    19.451144    8064.3219    4421.1703    5058.0288    4584.4104   -204.66621   -762.98238    195.29251   -3840.4636 
  881000    244.84439    -4879.483    -4389.764    -4879.483            0    4272.2964    17.955596    23.202328    19.302372    8041.5925    5895.3606    3473.7911    3447.7376    1783.1332    44.210556   -110.54318    -3888.716 
  882000    249.04517   -4828.7494   -4330.6283   -4828.7494            0    4959.0121    18.077315    23.168502     19.26317     8067.884    4110.5293    3481.6027    7284.9042   -153.28603   -267.88347   -582.63891    -3747.142 
  883000    257.45807   -4839.1785   -4324.2305   -4839.1785            0    5102.3582    17.939146    23.612909    19.062181    8074.6525     4675.455    3347.7312    7283.8883    1887.1287    1586.5546    691.67146   -3723.3741 
  884000     238.1029   -4852.9825   -4376.7473   -4852.9825            0    5223.6472     17.84784    23.158923    19.425883    8029.4317    5579.6997    5300.3808    4790.8612    856.61219   -346.25034    1680.8052   -3765.0529 
  885000     240.1019    -4842.189   -4361.9555    -4842.189            0    6433.7182    18.027334    23.000633    19.227149     7972.347    5773.4197     6665.696    6862.0389   -141.06889   -264.27958     -1815.92   -3613.9168 
  886000    256.98722   -4851.1846   -4337.1784   -4851.1846            0    6386.1929    17.785131    23.240781    19.430974    8031.6049     7677.562    5113.4857     6367.531    671.93104   -327.67607    602.21219   -3589.1462 
  887000    244.34598   -4854.8592   -4366.1371   -4854.8592            0    4933.0879    18.081379    22.971068    19.284707    8009.8756    4946.6033    4749.9246    5102.7359    1048.8936   -243.11137   -35.649316   -3789.8744 
  888000    250.38723   -4857.3817   -4356.5763   -4857.3817            0    5299.7823    18.086392    22.933379    19.398545     8046.169    4201.5354    5429.7463    6268.0651    1234.8014     1073.392   -709.03957   -3734.6727 
  889000    243.72598   -4871.7406   -4384.2585   -4871.7406            0     4856.525    18.037772    22.930036    19.417962    8031.4004    5274.5031    5142.1502    4152.9217   -439.41213   -20.600914   -2008.8362    -3815.415 
  890000     257.9865   -4854.0594   -4338.0546   -4854.0594            0    4345.2594     18.11911    23.025586    19.375886    8083.6802     5113.698    3669.2498    4252.8303    212.75599   -508.05473   -869.35666   -3825.7824 
  891000    238.68885   -4837.5019   -4360.0947   -4837.5019            0    3684.9419    18.045268    22.910523    19.572429    8091.7613    3948.2795    3506.2237    3600.3225    1228.9034   -1325.6337   -1559.7595   -3925.2345 
  892000    252.36052   -4863.4397   -4358.6875   -4863.4397            0    4827.6116    18.149264    22.811918    19.407468    8035.0709    5508.0828    5232.4837    3742.2681   -1416.7457   -1306.6485   -43.160531   -3792.9722 
  893000     251.2289   -4871.1908    -4368.702   -4871.1908            0     3799.575    18.209687    22.734126    19.486644    8067.1062    2324.7542    4612.2137     4461.757    736.34543    537.80108   -858.18775   -3921.6802 
  894000    255.50312   -4866.9053   -4355.8675   -4866.9053            0    4965.7703    18.245345    22.807749    19.344625    8049.9805    4176.8709    5083.7477    5636.6923    1859.3087   -835.49293   -506.41836   -3772.8826 
  895000    243.65698   -4845.7856   -4358.4415   -4845.7856            0       2726.5    17.976379    22.965222    19.694229    8130.3988    3257.9416     2369.975    2551.5833    1772.5725   -1421.9885   -193.35317   -4035.1508 
  896000    255.35862   -4882.4796   -4371.7308   -4882.4796            0     5091.368     17.98557    23.090292    19.284489    8008.6953    5174.3582    5178.6783    4921.0674   -291.35599   -739.35917   -2073.7223   -3777.0661 
  897000    248.12007   -4883.5653   -4387.2945   -4883.5653            0    3290.6917    18.030811    23.195037    19.335284    8086.5054    3628.8471    2447.2291    3795.9988    580.34639    252.56792   -110.39531   -3999.2121 
  898000    249.44548   -4868.3119   -4369.3901   -4868.3119            0    5610.8697    18.143595    23.067399    19.231858    8049.0239    5396.6612    5396.8246    6039.1233   -577.13158    367.37956   -1031.7172   -3710.7483 
  899000    258.41381   -4841.4642   -4324.6047   -4841.4642            0    6202.3086    17.858688      23.1303    19.396622    8012.2948    9478.3452    5597.0635    3531.5171    1768.5528   -1052.6513    696.25789   -3599.8581 
  900000    240.64102      -4858.9   -4377.5882      -4858.9            0    4405.4665    17.986896    23.003137    19.416799    8033.7982    3749.2993    5140.9264    4326.1737    -683.3303   -452.87449    106.93154    -3861.423 
  901000    253.58408   -4817.8739   -4310.6744   -4817.8739            0    4991.6638    18.011346    23.002682    19.498232    8078.2986    5924.4077    4556.1735    4494.4101    802.88229   -1107.6371    385.83589   -3722.5881 
  902000    252.33715   -4849.2921   -4344.5866   -4849.2921            0    6247.9206    18.058171    22.830892    19.406113    8000.8332     6608.488    6899.2144    5236.0593   -1602.2308    257.29276    -2488.115   -3615.5546 
  903000    243.40193    -4824.456    -4337.622    -4824.456            0    4882.2008    18.295936    22.963297    19.276492    8098.7291    4775.8481    4873.1791    4997.5753    737.90903    93.404832   -885.89957   -3760.9772 
  904000    246.81692   -4853.5295   -4359.8652   -4853.5295            0    5495.3042    18.078584    22.781976     19.48551    8025.4162    5971.2345    5706.5558    4808.1225   -1622.7259    207.10079     -769.568   -3716.6812 
  905000    244.50671   -4854.5746    -4365.531   -4854.5746            0    6704.0653    18.040576    22.707133    19.523267    7997.7017    8345.7006    5959.2906    5807.2047    42.978582    -811.0844   -6.5386146   -3583.5804 
  906000    249.85654   -4886.0861   -4386.3421   -4886.0861            0    4839.3665    18.297006    22.547108    19.511712    8049.4509    2766.7369    5865.4875    5885.8752   -750.18606   -395.40205    426.08499   -3818.2345 
  907000     264.5369   -4890.7328   -4361.6264   -4890.7328            0    6077.3654    18.034063     22.65751    19.531754    7980.8108    8728.8925    5010.0096    4493.1942    255.18045    475.69079   -1431.4646     -3654.27 
  908000    244.16731   -4870.5384   -4382.1737   -4870.5384            0    5767.9419    18.205838    22.775464    19.288944    7998.0913     4654.301    5588.9205    7060.6041    11.373114    -106.6513   -2177.4386   -3709.3781 
  909000    241.66207   -4862.1413   -4378.7873   -4862.1413            0    3144.9013    18.065307    22.974761    19.505638    8095.7394    1773.6553    3763.9761    3897.0725   -369.26464    51.151813    -97.60511   -4007.4749 
  910000    244.92908   -4831.1828   -4341.2943   -4831.1828            0    6603.6608    17.916995    23.036051    19.355634    7988.7829    5650.3112     7893.026    6267.6451    875.61498    1066.7759   -85.230705   -3571.9137 
  911000    248.13639   -4877.4284    -4381.125   -4877.4284            0    5286.2355    17.981834    23.017437     19.40154    8030.2145    5441.3647    5622.2087    4795.1331   -1138.8155    270.17132   -1721.2633    -3762.041 
  912000    251.67215   -4852.2133   -4348.8379   -4852.2133            0    4630.8377     18.13313    23.069664    19.335329    8088.4556    5273.1696    4795.5294    3823.8142    1462.4819    1452.0691    116.62868   -3802.5758 
  913000    248.54542   -4855.4794   -4358.3579   -4855.4794            0    4305.9773    18.083524    22.980655     19.38089    8054.1402    5164.8263    4584.3755    3168.7302    152.83728    989.91228   -495.01679   -3852.5719 
  914000    239.67519   -4852.9986   -4373.6186   -4852.9986            0    4904.6445    18.169115    23.018735    19.277196    8062.3027      3197.94    4634.4607    6881.5327   -277.15943      297.855   -302.38288   -3796.9284 
  915000    241.21317   -4849.3517   -4366.8956   -4849.3517            0    5761.2248    18.039181      22.7483    19.555127    8024.6556    6837.9798    4930.6132    5515.0814   -1039.1282    -378.9474   -2219.1567   -3692.6515 
  916000    255.28705   -4835.0179   -4324.4123   -4835.0179            0    4344.3523    18.191947    22.860407    19.511815    8114.4824    2733.0534    5326.6168    4973.3867    100.55978    -417.8834    -1263.209   -3810.2956 
  917000    245.79549   -4863.4017   -4371.7804   -4863.4017            0    5818.5999    18.062084    23.023975    19.310819     8030.616     5389.502      4766.52    7299.7779    669.77196   -1285.6927   -1938.6279   -3690.3159 
  918000    256.51459   -4839.2953   -4326.2345   -4839.2953            0    5726.1472    18.016563    22.918824    19.510605    8056.2886    7118.7117    5512.9499      4546.78   -1099.4433    223.60086   -1908.6118   -3653.4539 
  919000    262.07182   -4839.2334   -4315.0573   -4839.2334            0    3707.8906    18.083621     23.02538    19.407152    8080.7936    2900.5026    3664.9969    4558.1722    925.53387    127.98888    1960.4903   -3878.0821 
  920000    246.44153   -4836.0572   -4343.1437   -4836.0572            0    5834.7982    18.053053    22.861193    19.471705    8036.2514    5369.0817    5783.2704    6352.0426    203.32268   -914.01244    798.27799   -3659.3025 
  921000    246.68596    -4842.462   -4349.0596    -4842.462            0    3903.5904    18.106328    22.836893     19.60045     8104.635    5645.8202    3448.9028    2616.0482   -1264.5325   -1330.8802   -1699.6779   -3887.6638 
  922000    243.53879   -4856.6571   -4369.5495   -4856.6571            0     6511.623    18.105629     22.89579    19.324093    8010.6613    5371.8442    6203.2532    7959.7717   -776.67163   -276.30152   -1277.8218   -3608.8143 
  923000    225.30494   -4837.7242   -4387.0865   -4837.7242            0    5106.4899    18.104978    22.786896    19.502235    8045.7691    4443.7556    5461.2197    5414.4945    965.45368    583.77475   -678.73966   -3787.8946 
  924000    250.57344   -4865.3001   -4364.1222   -4865.3001            0    7428.1447    18.022844    22.811571     19.40875    7979.5076    8218.1977    6848.0342    7218.2022    748.88197   -821.76796    401.12003   -3499.6872 
  925000    237.30447   -4840.9827   -4366.3445   -4840.9827            0    5712.9991    17.975897    22.982476    19.410538    8019.0876    4729.5993    6003.3525    6406.0453    1337.6972   -390.48203    1188.2488   -3698.2083 
  926000    254.41174   -4869.0518   -4360.1968   -4869.0518            0    7057.3861    17.944644    22.993384    19.299905    7963.2969    6791.2156    7883.4906    6497.4522   -1072.4203   -220.70111   -1612.6121   -3540.5766 
  927000    253.91869   -4839.5244   -4331.6557   -4839.5244            0    6392.3261    17.843738    23.144608    19.357309    7994.3039    8742.4395    5575.6513    4858.8875    169.01588    665.95339    23.549477   -3586.3825 
  928000    259.08084   -4861.0082   -4342.8146   -4861.0082            0    6609.3494    18.032202     23.17164    19.096198    7979.0734    6089.9603    6257.5368    7480.5512     -586.749    156.68358   -316.74427    -3573.707 
  929000    248.09387   -4832.2715   -4336.0531   -4832.2715            0    6100.2711    17.850571    23.064883    19.540987    8045.4409     6129.306    6396.9078    5774.5995   -891.09442    745.85791   -1264.8623   -3620.2809 
  930000    238.35401   -4830.3712   -4353.6338   -4830.3712            0    3355.8245    18.138442    23.029633    19.434789    8118.3323    1690.6048     4502.767    3874.1018    807.65225   -164.57398    1958.5508   -3956.3124 
  931000    245.10229   -4851.3465   -4361.1117   -4851.3465            0    6150.3811    17.880146    23.183571    19.290783     7996.524    7136.8836    6094.7253    5219.5344   -424.27678   -414.03843    1414.2501   -3643.8475 
  932000     256.1242    -4862.781    -4350.501    -4862.781            0    4857.0954    18.077238    23.002733    19.384377    8060.5256    4707.7376    4062.4318    5801.1168    560.62752   -303.87386   -197.16867   -3779.5276 
  933000    239.74257   -4859.4843   -4379.9695   -4859.4843            0    5136.1209    17.993501    23.008317    19.387855    8026.5754    5789.4144    4313.6059    5305.3424    96.217344    378.61024   -126.30496   -3778.7384 
  934000    242.69212   -4878.9979   -4393.5837   -4878.9979            0    3577.1783    18.081211    23.087701    19.409334    8102.4959    4541.4455    2976.9082    3213.1811   -1016.3459   -105.32357   -1348.5612   -3970.8807 
  935000    259.94799   -4845.1243   -4325.1962   -4845.1243            0    5530.5778    18.042759    22.980562    19.399564    8043.6946     3407.075    5904.7062     7279.952   -705.31565   -1043.1362    -1127.096   -3676.4095 
  936000    247.94997   -4828.5864   -4332.6558   -4828.5864            0    6219.3781    18.044164    22.885797    19.396627    8009.9357      5800.57    5494.4071    7363.1572   -1423.4471   -1027.5319   -462.73893   -3606.1286 
  937000    251.11971   -4864.4223   -4362.1519   -4864.4223            0    5528.8104    17.999422    23.120043    19.347491    8051.4079    6335.7554    4086.1786    6164.4973    96.931616   -864.31121     1293.225   -3712.9505 
  938000    248.75676   -4829.3493    -4331.805   -4829.3493            0    5992.1669    17.975713    22.961423    19.475525     8038.483    6372.4748    6306.3361    5297.6896   -1244.8105    862.00199   -796.26595   -3629.3251 
  939000    246.75571     -4879.38   -4385.8381     -4879.38            0     5378.604    18.083188    22.870722    19.369755    8010.8577    5516.5398    5464.5034    5154.7688   -863.05868    223.11729    178.84796    -3757.455 
  940000    248.52409   -4811.2664   -4314.1875   -4811.2664            0    5051.9385    18.159677    22.946271    19.462031    8109.7674    5651.1449     5026.958    4477.7125    1186.4155   -946.29042    296.60929   -3716.6814 
  941000    251.65729   -4843.0311   -4339.6854   -4843.0311            0    6051.0858    17.975575    22.832262    19.558029    8027.0656    6305.2926    6764.6542    5083.3106   -1557.9339   -537.49145   -771.49492   -3631.3059 
  942000    253.19619   -4853.3584   -4346.9347   -4853.3584            0    4594.7878     18.04826    22.869183    19.508883    8052.2711    4642.5778     4413.213    4728.5726   -396.34964   -148.95821    427.38638   -3807.3499 
  943000    238.57686   -4844.4056   -4367.2224   -4844.4056            0     4729.625       18.152    22.999659    19.389394    8094.8747    4260.9253    4526.7405    5401.2094   -505.16439   -493.52029     712.9017   -3808.8644 
  944000    250.56063    -4846.987   -4345.8348    -4846.987            0    5447.1669    18.088353    23.004599    19.302646    8032.1266    5407.2255    5080.1162     5854.159    1961.8007    1048.6163    1133.2639   -3707.7518 
  945000    244.75128   -4847.4652   -4357.9324   -4847.4652            0    6028.7361    18.102665    23.016683    19.324015    8051.6077    6232.3839    5214.2943    6639.5301   -109.22479   -9.2377729    1440.9511   -3650.0114 
  946000    232.20728   -4824.5269   -4360.0836   -4824.5269            0    4816.3403    17.870586    23.193513    19.496033    8080.7479    5681.8835    4794.9669    3972.1704    1443.3566    380.53381    342.79493   -3792.4807 
  947000    246.92915   -4852.0021   -4358.1133   -4852.0021            0    4805.7692    17.973881    23.157035    19.385137    8068.5163    6629.8481    3411.1474    4376.3121    972.08399   -2066.7019    482.35436   -3792.6134 
  948000    250.15904   -4847.7694   -4347.4204   -4847.7694            0    6576.5482    17.969357    23.011086    19.321837    7989.4721    6695.7318    6863.5398    6170.3731   -377.43393    184.03696   -2134.7658   -3581.1325 
  949000    243.71638   -4825.3226   -4337.8597   -4825.3226            0     3812.164    18.101319    23.152063    19.389769      8125.92    3929.6338    2971.7153     4535.143    1478.4839   -302.84489    115.92238    -3886.087 
  950000    239.11622   -4837.9926   -4359.7306   -4837.9926            0    3245.2483    18.085376    23.225144    19.287094    8101.2634    3480.5402    2588.0549    3667.1497    261.35538   -266.65981   -387.89347    -3976.309 
  951000    248.28737   -4849.7054      -4353.1   -4849.7054            0    5737.3008     17.98192    23.157794     19.29306    8034.0467     6211.089    6168.0073    4832.8062   -1044.8315    1656.0732    316.36155   -3680.8701 
  952000    241.93572   -4841.8012   -4357.8998   -4841.8012            0    6701.5141     18.06561    22.929947    19.440225    8052.9861    6039.9869    7462.0786    6602.4769    130.98195    496.36421    21.857504   -3570.8436 
  953000      242.351   -4869.6049    -4384.873   -4869.6049            0     6399.371    18.103681    22.683948    19.429986    7979.1756    6369.5525    7381.2332    5447.3274    543.65548     88.82584    -678.3052   -3640.1904 
  954000    245.12673   -4876.2328    -4385.949   -4876.2328            0    6550.3544    18.017538     22.66651    19.489089    7959.2409    7268.1954    6524.9302    5857.9376    21.358126   -1529.7705   -79.598123   -3625.6012 
  955000    239.84306   -4869.9084   -4390.1927   -4869.9084            0    4778.2197    18.164102    22.686543    19.529346    8047.6663    4569.3266    5488.3213    4277.0111    331.59203    275.56655   -1010.8338   -3829.3876 
  956000    234.53166   -4849.4929   -4380.4006   -4849.4929            0    4915.2394    18.290621    22.668808     19.50258    8086.2879    3334.1078    6666.9238    4744.6866    1085.1748    238.86666    232.64899   -3800.7454 
  957000    253.28004   -4856.0245   -4349.4332   -4856.0245            0    6523.0453    18.176421    22.488399    19.552884    7992.4097    6019.6953     7941.604    5607.8366    20.039349    420.36268   -1766.3904   -3589.0998 
  958000    254.76686   -4851.0221   -4341.4569   -4851.0221            0    4253.1119    18.176274    22.836966    19.435585    8067.5352    4846.7368    3854.0145    4058.5844    142.78027   -536.15532   -859.41916   -3841.0496 
  959000    243.91075   -4845.7786    -4357.927   -4845.7786            0    4210.3249    18.121106    22.742541    19.618054    8084.9919    4022.2659    4798.4677    3810.2412    213.98919     681.0608   -2582.0076    -3861.482 
  960000    248.09801   -4839.1658   -4342.9391   -4839.1658            0    3201.2303    18.314271    22.714995    19.479287    8103.5503    674.50106    4693.5737    4235.6162    617.99593   -867.81384    103.29353   -3964.6114 
  961000    248.24087   -4838.9225   -4342.4101   -4838.9225            0    7347.7905    18.101589    22.729599    19.384704    7975.6784    6225.8125    7765.7315    8051.8275   -1655.0674    337.64492    -1202.205   -3487.7365 
  962000    239.43735   -4835.5572   -4356.6529   -4835.5572            0    5430.2561    17.958968    22.931374    19.556398    8053.7899    5497.7898    5536.7573    5256.2213    127.98158   -350.99358   -292.34106   -3718.8353 
  963000    246.18743   -4850.7471   -4358.3418   -4850.7471            0    3849.2159    18.197472    23.063712    19.341961    8117.8454    2442.8118    3936.8331    5168.0027   -568.80869   -695.85718   -461.34585   -3902.6314 
  964000    246.73591   -4853.3563    -4359.854   -4853.3563            0    5164.7163    17.933607    22.786511    19.648087    8029.0789    5643.9286    5491.4434     4358.777    470.76052   -531.25564   -552.45616    -3755.087 
  965000    235.08691   -4868.2797   -4398.0768   -4868.2797            0     5730.812    18.076265    22.920367    19.313729    8001.9608    5194.0798    6328.2132    5670.1431   -227.82786    -402.4495    1658.5812   -3729.2888 
  966000    243.28158   -4852.0449   -4365.4516   -4852.0449            0    4576.0538    18.148392    22.869713    19.451427    8073.2859    3119.0592    4722.6684    5886.4338   -101.38255    608.78925    536.12937   -3826.6643 
  967000    243.22447   -4878.7074   -4392.2285   -4878.7074            0    5231.6913    18.127879    22.692946    19.502593    8022.8787    4693.6354     6045.554    4955.8845    115.54059   -112.70282   -1380.0339    -3780.092 
  968000    249.65461   -4837.3573   -4338.0172   -4837.3573            0    5062.6887    18.268134     22.77673    19.391731    8068.6733    4474.3345    5242.8765    5470.8552   -1004.5788   -438.32791    526.75617   -3742.2738 
  969000    244.32426   -4848.2151   -4359.5364   -4848.2151            0    4821.8914    18.115455    22.863731    19.430998    8048.0647    4525.2578    4055.3931    5885.0234   -876.52398    -52.45682   -786.57369   -3793.5777 
  970000    234.67255   -4864.9186   -4395.5445   -4864.9186            0     6631.622    17.997949    22.904719    19.400226    7997.5096    5975.2416      6512.27    7407.3545   -627.38247   -412.90948   -813.50545   -3622.0622 
  971000    236.25579    -4834.382   -4361.8412    -4834.382            0    6995.6652    18.118704    22.914448    19.184486    7965.0167    6418.1497    6894.6829    7674.1629   -200.72253    1502.6234   -295.35472   -3549.2136 
  972000    233.88849   -4865.8375   -4398.0317   -4865.8375            0    4375.6752    18.117898    22.945835    19.471491    8094.8889     3258.484     5716.063    4152.4786     1309.543    536.43667    317.81622   -3881.4585 
  973000    238.10475   -4865.1662   -4388.9273   -4865.1662            0    6740.6045    18.113136    22.776281    19.355475    7985.0991    6717.1275    6411.1969    7093.4892    1503.4522    473.60245    1551.3389   -3603.9537 
  974000    242.40122   -4836.7077   -4351.8753   -4836.7077            0    4912.3144    18.047386    22.779579    19.663666    8083.9665    5669.2479    4782.2505    4285.4447   -1576.1585   -152.01801   -435.39866   -3772.7313 
  975000     241.1121   -4857.3422   -4375.0882   -4857.3422            0     6057.044    18.097133    22.718277     19.42242    7985.2497    6303.1857    6153.7776    5714.1688   -457.25548   -537.10502    1940.2644    -3669.705 
  976000    250.96008   -4859.5008   -4357.5496   -4859.5008            0     6210.996    18.134917    22.760987    19.372605    7996.4029    6294.1436    6822.9462    5515.8981    39.513903    201.26108   -1069.7292   -3633.2274 
  977000    260.95485   -4820.4076   -4298.4657   -4820.4076            0    4389.6496    18.096516     22.65875    19.724633    8087.9763    5775.9712    3879.8787    3513.0989    488.27935   -733.26088   -486.88404   -3780.6853 
  978000    260.51456   -4845.2088   -4324.1475   -4845.2088            0    5863.0329    18.207407    22.873364    19.234135    8010.3373    4913.1515    6340.1291    6335.8182   -1173.8322   -664.35951    334.60841    -3639.213 
  979000    244.97008      -4828.7   -4338.7296      -4828.7            0     5701.834    17.908778    23.001191    19.547566    8052.0964    9460.6599    4610.5776    3034.2646   -26.111025   -943.02683    597.19604   -3669.1543 
  980000    259.89358   -4844.9275   -4325.1082   -4844.9275            0    3118.8146    18.190271    23.201024     19.33725     8160.956    2175.2147    2917.4357    4263.7932     1432.653    659.91499    355.56175   -3953.9095 
  981000    246.32295   -4824.1535   -4331.4772   -4824.1535            0    6498.9549    18.112362    22.981617    19.260096    8017.0411    6231.4281    6366.9497    6898.4868     645.8645    114.19416    196.30048   -3571.6173 
  982000     258.4067   -4869.1834    -4352.338   -4869.1834            0    4087.2586     17.99038    23.032178    19.447818     8058.352     3912.025    4490.3559    3859.3947   -452.41923    291.01643    1340.0651    -3871.992 
  983000    249.52823   -4870.0947   -4371.0074   -4870.0947            0    5746.1038    18.089082    22.907984    19.374475    8028.4801    5778.3964    4121.3873    7338.5278    1747.7045   -281.56821    1610.8291   -3698.2125 
  984000     258.7455   -4842.9477   -4325.4247   -4842.9477            0    5341.7713    17.894721    22.802874    19.633918    8011.6413    7003.5402     5993.575    3028.1986    374.05322    -369.5138   -1180.4343   -3701.2838 
  985000    232.62603   -4850.5245   -4385.2437   -4850.5245            0    4778.8698    18.166941    22.904075     19.36946    8059.5741    4809.6739     4326.869    5200.0664    275.48779   -950.65449   -2690.0812   -3823.5324 
  986000    249.78173    -4874.172   -4374.5777    -4874.172            0    5099.0993    18.052182     22.88758    19.488304    8051.9972    5355.1587    4553.9382    5388.2008   -379.96138      960.661   -1223.2824   -3775.7899 
  987000    241.70778   -4851.6698   -4368.2244   -4851.6698            0    2902.1718    18.170751    23.074545    19.405907    8136.5438    3758.2425    2720.5042    2227.7687   -1127.6409   -150.06445   -675.65354   -4023.8436 
  988000    247.21706   -4824.0253   -4329.5606   -4824.0253            0    7504.9422    18.030598     22.93853    19.291308    7978.7965    6438.5195     7850.835    8225.4721   -1343.4212   -979.82377   -376.52378   -3456.2663 
  989000    243.67254   -4833.1733   -4345.7981   -4833.1733            0    5575.4397    18.001425    23.114288    19.346703    8049.9721     6875.133    4166.3486    5684.8376    112.64606   -27.169422    792.55471   -3691.2382 
  990000    256.07163   -4842.8798   -4330.7049   -4842.8798            0    6357.4104    17.932878    23.095885    19.342575    8011.2242     7288.721    5431.3839    6352.1262    644.19457   -574.91543   -368.70925   -3587.9338 
  991000    242.76868   -4858.4673      -4372.9   -4858.4673            0    4496.9718    18.118417    22.946935    19.383201    8058.8013     3244.588    4808.2154    5438.1119    1228.1543   -409.29263   -1209.8144   -3844.3738 
  992000    236.71735   -4842.0923   -4368.6284   -4842.0923            0    5236.9966    18.203773    22.924747    19.350032    8075.0951    5092.3531     4798.339    5820.2978      2012.67   -304.61767      568.139   -3751.8831 
  993000    258.63158   -4836.7327   -4319.4376   -4836.7327            0    4026.5482    17.955445    23.095453    19.563448    8112.7495    4932.4541    3865.1902    3282.0003    1677.1418   -285.44012   -304.97447    -3843.032 
  994000    258.59583   -4851.4849   -4334.2613   -4851.4849            0    5231.2756    18.184439    22.991965    19.234653     8041.931    3888.9358    5091.2606    6713.6303    179.16467   -794.26334   -926.25454     -3720.72 
  995000    257.31391   -4822.7298   -4308.0702   -4822.7298            0    6500.6274    18.053003    22.743702    19.649747    8068.0312    8607.4618    5800.5569    5093.8636    46.528649   -1310.4702   -1537.0996   -3543.1806 
  996000    239.21666   -4848.4898    -4370.027   -4848.4898            0    4098.1177    18.239243    22.853911    19.380039    8078.3377    3640.0041    4224.6643    4429.6846    307.91322    88.862821    1138.9507   -3887.2102 
  997000    248.65268   -4859.1602   -4361.8241   -4859.1602            0    5360.5518    18.055958    22.875223    19.476502    8044.4592    4918.7486    5407.2722    5755.6345   -125.82594    627.41201   -560.49136   -3732.9232 
  998000    247.24866   -4837.0218   -4342.4939   -4837.0218            0    5953.1007    18.155585    22.836572     19.36276    8028.0194    4299.1668    6657.0904    6903.0448   -64.024835    553.15125   -677.89048   -3645.5024 
  999000    253.16356   -4870.4427   -4364.0843   -4870.4427            0    8081.1793    17.923815    22.994591    19.319211    7962.4281    9814.2813    7634.0503    6795.2064    1708.0304       728.68    66.989277   -3425.6667 
 1000000    256.43115   -4836.4428   -4323.5488   -4836.4428            0    3566.4168    18.096958    23.067008    19.394687      8096.17    3992.7345    3237.6857    3468.8301    -594.6065   -242.35314    1300.8087   -3902.4465 
Loop time of 410.966 on 48 procs for 250000 steps with 1008 atoms

Performance: 105.118 ns/day, 0.228 hours/ns, 608.323 timesteps/s
196.5% CPU use with 24 MPI tasks x 2 OpenMP threads

MPI task timing breakdown:
Section |  min time  |  avg time  |  max time  |%varavg| %total
---------------------------------------------------------------
Pair    | 58.628     | 68.785     | 80.081     |  68.7 | 16.74
Bond    | 0.75394    | 0.84262    | 1.1374     |   9.5 |  0.21
Kspace  | 126.96     | 139.74     | 152.06     |  54.7 | 34.00
Neigh   | 4.2806     | 4.3974     | 4.5698     |   3.5 |  1.07
Comm    | 63.194     | 70.699     | 75.936     |  48.6 | 17.20
Output  | 0.5185     | 0.51973    | 0.52359    |   0.1 |  0.13
Modify  | 75.77      | 99.523     | 130.88     | 207.5 | 24.22
Other   |            | 26.45      |            |       |  6.44

Nlocal:             42 ave          46 max          37 min
Histogram: 1 2 2 2 3 2 4 4 2 2
Nghost:        3002.79 ave        3042 max        2937 min
Histogram: 2 0 5 1 0 1 3 1 5 6
Neighs:        13772.7 ave       15131 max       12230 min
Histogram: 3 1 1 2 4 2 3 4 2 2

Total # of neighbors = 330544
Ave neighs/atom = 327.92063
Ave special neighs/atom = 2
Neighbor list builds = 8735
Dangerous builds = 0

unfix		3
unfix		2
unfix		1

write_data	data.final.${pid}
write_data	data.final.1
System init for write_data ...
PPPM initialization ...
  extracting TIP4P info from pair style
  using 12-bit tables for long-range coulomb (../kspace.cpp:340)
  G vector (1/distance) = 0.3829031
  grid = 24 30 32
  stencil order = 5
  estimated absolute RMS force accuracy = 0.0019842287
  estimated relative force accuracy = 5.9754457e-06
  using single precision MKL FFT
  3d grid and FFT values/proc = 6720 1440
  generated 0 of 1 mixed pair_coeff terms from geometric mixing rule
Last active /omp style is kspace_style pppm/tip4p/omp
WARNING: Not all mixed pair coeffs generated from mixing. Use write_data with 'pair ij' option to store all pair coeffs. (../write_data.cpp:309)

write_restart   restart.lmp.${pid}
write_restart   restart.lmp.1
System init for write_restart ...
PPPM initialization ...
  extracting TIP4P info from pair style
  using 12-bit tables for long-range coulomb (../kspace.cpp:340)
  G vector (1/distance) = 0.3829031
  grid = 24 30 32
  stencil order = 5
  estimated absolute RMS force accuracy = 0.0019842287
  estimated relative force accuracy = 5.9754457e-06
  using single precision MKL FFT
  3d grid and FFT values/proc = 6720 1440
  generated 0 of 1 mixed pair_coeff terms from geometric mixing rule
Last active /omp style is kspace_style pppm/tip4p/omp
Total wall time: 0:06:51
