LAMMPS (30 Jul 2021)
  using 1 OpenMP thread(s) per MPI task
package omp 0
using multi-threaded neighbor list subroutines
echo both

include		in.partitions
variable        pid world 0
include		in.temp
variable        temperature equal 272.36
variable	tempDamp equal 100.0
include		in.pressure
variable        pressure equal 9625.0
variable        pressureDamp equal 1000.0 # This is 1 ps
include		in.seed
variable        seed world 745823

units		real
atom_style	full
read_restart	restart.lmp.${pid}
read_restart	restart.lmp.0
Reading restart file ...
  restart file = 30 Jul 2021, LAMMPS = 30 Jul 2021
  restoring atom style full from restart
  orthogonal box = (0.62570484 1.8285289 0.76335845) to (17.581868 21.800649 21.449837)
  4 by 4 by 4 MPI processor grid
  restoring pair style lj/cut/tip4p/long/omp from restart
  restoring bond style harmonic/omp from restart
  restoring angle style harmonic/omp from restart
  864 atoms
  576 bonds
  288 angles
Finding 1-2 1-3 1-4 neighbors ...
  special bond factors lj:    0        0        0       
  special bond factors coul:  0        0        0       
     2 = max # of 1-2 neighbors
     1 = max # of 1-3 neighbors
     1 = max # of 1-4 neighbors
     2 = max # of special neighbors
  special bonds CPU = 1.756 seconds
  read_restart CPU = 2.142 seconds
include 	in.setup
variable	out_freq equal 1000
variable	out_freq2 equal 10000
variable	out_freq3 equal 1000

timestep	2.0

neigh_modify    delay 7 every 1

include		in.tip4p
# This is TIP4P/Ice

# create groups ###
group ox type 2
288 atoms in group ox
group hy type 1
576 atoms in group hy

# set charges - beside manually ###
set group ox charge -1.1794
Setting atom values ...
  288 settings made for charge
set group hy charge 0.5897
Setting atom values ...
  576 settings made for charge

# ### TIP3P Potential Parameters ###
pair_style lj/cut/tip4p/long/omp 2 1 1 1 0.1577 8.5
pair_coeff 1 1*2 0.000 0.000
pair_coeff 2 2 0.21084 3.1668
bond_style  harmonic
bond_coeff  1 450 0.9572
angle_style harmonic
angle_coeff 1 55 104.52
kspace_style pppm/tip4p/omp 1.0e-5
pair_modify tail yes

thermo          ${out_freq}
thermo          1000
thermo_style    custom step temp pe etotal epair emol press lx ly lz vol pxx pyy pzz pxy pxz pyz enthalpy

restart 	${out_freq3} restart.lmp.${pid} restart2.lmp.${pid}
restart 	1000 restart.lmp.${pid} restart2.lmp.${pid}
restart 	1000 restart.lmp.0 restart2.lmp.${pid}
restart 	1000 restart.lmp.0 restart2.lmp.0


include         in.dump
dump            myDump all atom ${out_freq2} dump.water.${pid}
dump            myDump all atom 10000 dump.water.${pid}
dump            myDump all atom 10000 dump.water.0
dump            myDump2 all dcd ${out_freq2} dump.dcd
dump            myDump2 all dcd 10000 dump.dcd
dump_modify     myDump append yes
dump_modify     myDump2 append yes


variable natoms 	equal  "count(all)"                        # NUMBER ATOMS
variable H      	equal  "enthalpy/v_natoms"                 # ENTHALPY-per-atom
variable Vol      	equal  "vol/v_natoms"                 # volume-per-atom
fix AVG all 		ave/time ${out_freq} 1 ${out_freq} v_Vol v_H file vol_enthalpy.dat
fix AVG all 		ave/time 1000 1 ${out_freq} v_Vol v_H file vol_enthalpy.dat
fix AVG all 		ave/time 1000 1 1000 v_Vol v_H file vol_enthalpy.dat


timer           timeout 23:50:00 every 1000
New timer settings: style=normal  mode=nosync  timeout=23:50:00

fix 		1 all shake 1e-6 200 0 b 1 a 1
       0 = # of size 2 clusters
       0 = # of size 3 clusters
       0 = # of size 4 clusters
     288 = # of frozen angles
  find clusters CPU = 0.310 seconds
fix             2 all nph iso ${pressure} ${pressure} ${pressureDamp}
fix             2 all nph iso 9625 ${pressure} ${pressureDamp}
fix             2 all nph iso 9625 9625 ${pressureDamp}
fix             2 all nph iso 9625 9625 1000
fix             3 all temp/csvr ${temperature} ${temperature} ${tempDamp} ${seed}
fix             3 all temp/csvr 272.36 ${temperature} ${tempDamp} ${seed}
fix             3 all temp/csvr 272.36 272.36 ${tempDamp} ${seed}
fix             3 all temp/csvr 272.36 272.36 100 ${seed}
fix             3 all temp/csvr 272.36 272.36 100 745823

run             250000
PPPM initialization ...
  extracting TIP4P info from pair style
  using 12-bit tables for long-range coulomb (../kspace.cpp:340)
  G vector (1/distance) = 0.37435307
  grid = 24 24 24
  stencil order = 5
  estimated absolute RMS force accuracy = 0.0031505816
  estimated relative force accuracy = 9.4878828e-06
  using double precision FFTW3
  3d grid and FFT values/proc = 2535 216
Last active /omp style is kspace_style pppm/tip4p/omp
Neighbor list info ...
  update every 1 steps, delay 7 steps, check yes
  max neighbors/atom: 2000, page size: 100000
  master list distance cutoff = 10.8154
  ghost atom cutoff = 10.8154
  binsize = 5.4077, bins = 4 4 4
  1 neighbor lists, perpetual/occasional/extra = 1 0 0
  (1) pair lj/cut/tip4p/long/omp, perpetual
      attributes: half, newton on, omp
      pair build: half/bin/newton/omp
      stencil: half/bin/3d
      bin: standard
Per MPI rank memory allocation (min/avg/max) = 9.236 | 9.240 | 9.244 Mbytes
Step Temp PotEng TotEng E_pair E_mol Press Lx Ly Lz Volume Pxx Pyy Pzz Pxy Pxz Pyz Enthalpy 
 1500000     271.1928   -3814.6093   -3349.7941   -3814.6093            0    9292.2467    16.956163     19.97212    20.686479    7005.4867    9462.1253    8708.6978    9705.9169    -614.6185   -765.29306   -34.489835   -2400.4253 
 1501000    263.57081   -3821.6465   -3369.8952   -3821.6465            0    7896.2386    16.955573    19.971425     20.68576    7004.7559    7168.1539    8357.3851    8163.1767   -349.15508    840.58632    1516.5849   -2563.2377 
 1502000    267.04274   -3807.2354   -3349.5333   -3807.2354            0    9720.1159    16.929325    19.940509    20.653737    6972.2751    9050.8069    10091.081     10018.46    299.04951    -385.2706    2745.2086   -2361.1581 
 1503000    284.27893   -3828.7968   -3341.5524   -3828.7968            0    8854.1632    16.917715    19.926833    20.639572    6957.9399    8375.0273    7987.9358    10199.527   -467.24721    1180.4646    224.30986   -2443.0814 
 1504000    265.89228   -3878.1255   -3422.3953   -3878.1255            0    8636.1532    17.003065    20.027364    20.743699    7063.7805    9321.2468    7048.2888    9538.9239    179.45335    172.57242    494.33618   -2532.7161 
 1505000    279.27721   -3821.2737   -3342.6021   -3821.2737            0    8835.4974    17.026048    20.054436    20.771739    7092.4643    8448.7402    8975.6176    9082.1346   -1528.2708   -602.15875    1178.2223   -2428.6908 
 1506000    283.02868   -3815.1787   -3330.0773   -3815.1787            0     10520.04    16.925199    19.935649    20.648703    6967.1786    10459.849    10013.021    11087.249   -1202.4978   -533.22334   -82.678842   -2261.1449 
 1507000    275.06661   -3834.4131   -3362.9583   -3834.4131            0    9416.7355      16.9843    20.005262    20.720807    7040.4202     7468.514     13050.96    7730.7324    512.30945    641.19939    51.534017   -2396.0733 
 1508000    263.33655   -3803.0617   -3351.7118   -3803.0617            0    9429.7046    17.007717    20.032844    20.749375    7069.5807    9529.1016      7525.49    11234.522   -2774.1054    991.86649   -228.59958   -2379.4849 
 1509000    286.77327   -3817.5925   -3326.0729   -3817.5925            0    11405.271    16.909245    19.916857    20.629239    6947.4946    12508.937    9527.2992    12179.577    1228.9149    2243.1155    2483.1128   -2170.4671 
 1510000    259.49154   -3817.1715   -3372.4119   -3817.1715            0    8571.0425    16.950517     19.96547    20.679591    6998.4916    10771.629    7343.4072    7598.0909   -1830.1887   -720.61591   -76.126141   -2497.6014 
 1511000    274.68167    -3846.796    -3376.001    -3846.796            0    9677.9832    16.949466    19.964232    20.678309    6997.1897    10495.851     10993.37    7544.7286    846.95884   -297.78611   -1315.9845   -2388.3935 
 1512000    275.79888    -3788.827   -3316.1172    -3788.827            0    9671.2115    16.883046    19.885998    20.597277     6915.252    12754.337    8189.2455    8070.0517    152.51232    671.69988   -166.79563   -2340.7575 
 1513000    277.73937   -3784.9965   -3308.9608   -3784.9965            0     10822.67    16.909264     19.91688    20.629263    6947.5184    9215.2628    12383.746        10869   -1467.3647    177.58558   -405.18405   -2212.3816 
 1514000    262.18837   -3832.6525   -3383.2706   -3832.6525            0    9518.8921    16.916806    19.925763    20.638463    6956.8185    10756.508    9100.3568    8699.8118   -201.74681    -853.5439    769.22862   -2417.5023 
 1515000    270.32726   -3834.3368   -3371.0051   -3834.3368            0    7136.8582    16.929725     19.94098    20.654225    6972.7691     5866.868    6717.2798    8826.4269   -1312.3265    499.13924   -1446.8865   -2645.2531 
 1516000    273.08316    -3838.171   -3370.1158    -3838.171            0    11407.252    16.817968    19.809345    20.517882    6835.5925     12762.39    11345.898    10113.468   -879.33205   -175.17172     1523.187   -2232.9257 
 1517000     268.4193   -3823.7108   -3363.6494   -3823.7108            0    8486.3645    16.951227    19.966306    20.680457    6999.3706    7264.7537    8768.0512    9426.2885    188.64423   -135.42587   -318.02802   -2497.3728 
 1518000     275.6164   -3877.6714   -3405.2744   -3877.6714            0    9223.9033    16.922823    19.932851    20.645805    6964.2453    10834.664    8923.9959    7913.0502   -549.11529    158.42345   -1027.0303   -2468.4359 
 1519000    273.86488   -3804.8229   -3335.4279   -3804.8229            0    9145.1922    16.924746    19.935115     20.64815    6966.6187    7705.4242    9658.0128    10072.139    136.65931    196.42929   -122.82945   -2406.2674 
 1520000    263.61566   -3827.0218   -3375.1936   -3827.0218            0    10131.566    16.899128    19.904941    20.616897    6935.0325    10881.269    9777.3838    9736.0449   -2903.9267    1398.4554    1053.0222   -2350.4837 
 1521000    266.35046    -3827.561   -3371.0455    -3827.561            0    9493.8928    16.904099    19.910796    20.622961    6941.1536    9773.0217    7860.1023    10848.554   -2301.2125    1254.3304   -642.34133   -2409.9824 
 1522000    275.54254   -3816.3936   -3344.1231   -3816.3936            0    10399.453    16.927593    19.938468    20.651623    6970.1348    11516.145    9176.2485    10505.966   -1078.9732   -439.18464    1036.1627   -2286.9952 
 1523000     261.3931   -3833.0846   -3385.0658   -3833.0846            0    10713.614    16.906958    19.914163    20.626449    6944.6761     11603.63    9789.6546    10747.557    477.13272   -1487.4137   -147.42773   -2299.9805 
 1524000    280.80402   -3765.5864   -3284.2979   -3765.5864            0    9120.5357    16.972726    19.991629    20.706686     7026.036    10733.731    7905.6048    8722.2714    642.34219   -296.95138    421.04179   -2349.7391 
 1525000    281.54177   -3827.3134   -3344.7605   -3827.3134            0     9929.527    16.893855    19.898729    20.610463    6928.5419    10496.248    9514.7772    9777.5561   -1533.4695     707.0043   -145.55567   -2341.4247 
 1526000    272.22849   -3779.9563    -3313.366   -3779.9563            0    6810.6715    16.975819    19.995272    20.710459     7029.878     5888.408    6821.1573    7722.4493   -555.51001   -1937.9512   -45.459533   -2615.1117 
 1527000    282.95637   -3810.1167   -3325.1391   -3810.1167            0    9050.4739    16.899959    19.905919     20.61791    6936.0547    9250.6799    9853.8348    8046.9071    17.591647    798.28274    1863.1678   -2409.6362 
 1528000    273.51296   -3826.6889   -3357.8971   -3826.6889            0    10408.444    16.946829    19.961126    20.675092    6993.9246    10251.602    10806.373    10167.356   -1556.3123   -1586.4756    1395.5673    -2296.244 
 1529000    251.76073   -3822.4108   -3390.9015   -3822.4108            0    9518.4699    16.921774    19.931615    20.644525    6962.9503    9542.9144    8696.9776    10315.518   -123.46881   -304.67807    202.40423   -2424.3248 
 1530000    273.48824   -3808.7977   -3340.0482   -3808.7977            0    11074.009    16.975028     19.99434    20.709494    7028.8951    10957.732    10535.138    11729.157    -433.8533   -425.92898   -644.47311   -2204.8601 
 1531000     279.8138   -3814.9372   -3335.3459   -3814.9372            0    6681.8152    17.033481    20.063191    20.780807    7101.7573    10044.162    4395.5251    5605.7579   -1190.2559   -418.36931    630.56263    -2643.298 
 1532000    262.90224   -3783.1754     -3332.57   -3783.1754            0    9961.5247    16.906443    19.913557    20.625821    6944.0417    12205.407    9229.9954    8449.1717   -1321.7931    588.50334    -98.92375   -2323.7492 
 1533000    280.95745   -3816.8834   -3335.3319   -3816.8834            0    9249.9846    16.891845    19.896362    20.608011    6926.0693    11022.375    7970.5438    8757.0353    633.49261   -475.09424    414.33047   -2400.9945 
 1534000    260.03575   -3823.1834    -3377.491   -3823.1834            0    10087.163    16.826851    19.819808    20.528719    6846.4291    11377.244    8886.8677    9997.3771   -124.78842   -256.52519     1388.911   -2370.3065 
 1535000    260.97864   -3818.1189   -3370.8104   -3818.1189            0    11393.304    16.779003    19.763449    20.470345    6788.1912    12006.393    10633.797    11539.722     137.7102    453.22788    1451.0066   -2242.8869 
 1536000    266.90239   -3830.3501   -3372.8885   -3830.3501            0    10108.679    16.967967    19.986024     20.70088    7020.1281    10003.714    11061.388    9260.9342    605.16771    484.15052    1298.0026   -2337.9482 
 1537000    280.51774   -3809.0998   -3328.3019   -3809.0998            0    10360.544    16.888946    19.892948    20.604475    6922.5045    11014.258    10886.547    9180.8281   -880.36141    1257.4506    719.72291   -2282.3259 
 1538000     278.2323   -3825.2017   -3348.3211   -3825.2017            0    9842.9778    16.935448    19.947721    20.661208    6979.8437    9243.9011     10074.19    10210.843    774.49646   -2699.5207    1184.4932   -2346.3664 
 1539000    268.77043   -3817.5335   -3356.8702   -3817.5335            0    7604.9103    16.978104    19.997964    20.713248    7032.7178    6831.1984    7725.5889    8257.9436   -122.48652    835.43586   -672.60215   -2576.8727 
 1540000    282.79328   -3852.4734   -3367.7754   -3852.4734            0    10241.101    16.908162    19.915581    20.627918    6946.1596    11390.771    7794.0912    11538.441    1037.6247    1288.9838     1478.342    -2330.325 
 1541000    264.80604   -3815.6225    -3361.754   -3815.6225            0    11736.527    16.859542    19.858313    20.568602    6886.4103    12715.019     10233.46    12261.101   -672.37493   -1145.7457   -1287.1275   -2183.0402 
 1542000    267.63365   -3815.5281   -3356.8132   -3815.5281            0    11825.057    16.854487     19.85236    20.562435    6880.2186    11779.538    14208.318    9487.3148      2035.74    456.84748   -934.14081    -2170.276 
 1543000    274.12447   -3812.0049   -3342.1649   -3812.0049            0    9125.5172    16.902732    19.909186    20.621293      6939.47    8828.4305     9857.109     8691.012   -1956.1642   -1184.7109    -864.6085   -2418.6165 
 1544000    274.51373   -3807.9272     -3337.42   -3807.9272            0    12795.015    16.814477    19.805233    20.513622    6831.3364    12937.809    11515.164    13932.072    368.28303    1025.7518    530.98576   -2062.6778 
 1545000    267.80675   -3861.0121   -3402.0005   -3861.0121            0    11280.166    16.800694    19.788998    20.496808    6814.5513    11687.613    12881.156    9271.7279   -663.28937    1875.2788    510.34703   -2280.9411 
 1546000    281.14099    -3830.055    -3348.189    -3830.055            0    10931.221    16.793206    19.780179    20.487672    6805.4436    10637.797    10383.333    11772.532   -480.40121    1399.7527   -34.018743   -2263.2607 
 1547000    270.19451    -3840.202   -3377.0978    -3840.202            0    9419.0538    16.869251    19.869749    20.580446     6898.314    9345.7085    10010.755    8900.6977    492.26904   -10.572767    407.73026   -2429.4955 
 1548000    276.51372   -3815.6502   -3341.7151   -3815.6502            0    11167.738    16.874769    19.876249    20.587179    6905.0862    10527.885    12489.351    10485.979    1659.4545   -900.30049    1322.0138   -2217.0837 
 1549000    281.06792   -3817.6774   -3335.9366   -3817.6774            0    8821.6914    16.910582    19.918432    20.630871    6949.1435    9847.5268    8701.1411    7916.4063   -645.02358    717.79961    318.29875   -2441.8924 
 1550000    268.42724   -3824.4998   -3364.4247   -3824.4998            0    8260.9345     16.96757    19.985556    20.700396    7019.6354    10157.868    8120.8779    6504.0577   -123.65009   -1786.7828    -666.6537   -2518.7183 
 1551000    271.01341   -3801.1127    -3336.605   -3801.1127            0    8654.6081     16.98259    20.003247     20.71872    7038.2928    9995.2773    6639.0762    9329.4707   -519.89765    1317.2906     -653.652   -2448.2416 
 1552000    269.44728   -3831.1649   -3369.3415   -3831.1649            0    7239.7269    16.931908    19.943551    20.656888     6975.467    8671.5337    5839.4306    7208.2165    54.709606   -382.99169    742.70156   -2632.8439 
 1553000    285.19131   -3863.2723   -3374.4642   -3863.2723            0    10120.411    16.907736    19.915079    20.627398    6945.6345    12064.836     7594.582    10701.814    1274.3246    606.51926    53.072905   -2349.3176 
 1554000    277.46544   -3798.4983   -3322.9321   -3798.4983            0     9742.993    16.952534    19.967846    20.682052      7000.99    9466.4804    11883.693    7878.8055      1440.61    688.43481    1852.3594   -2328.1505 
 1555000    271.59331   -3819.7779   -3354.2762   -3819.7779            0    9578.2723    16.969596    19.987943    20.702868    7022.1504    9701.1561    9491.4504    9542.2105   -165.76686    1240.1973     455.9076   -2373.3571 
 1556000    280.61724   -3805.9292   -3324.9608   -3805.9292            0    10534.383    16.977871     19.99769    20.712963    7032.4283    10211.884     10309.81    11081.457   -322.22525     355.3755   -580.98747   -2244.5465 
 1557000     274.1113    -3824.532   -3354.7146    -3824.532            0    11108.744    16.958595    19.974985    20.689447    7008.5022     11635.48    10452.626    11238.125   -1793.4292    235.14653    1848.1095   -2219.2697 
 1558000    271.98423   -3826.1166    -3359.945   -3826.1166            0    8242.1703    16.924281    19.934567    20.647583    6966.0443    9394.9702    7572.1244    7759.4164   -1415.1577   -837.77995   -609.26262   -2522.6014 
 1559000    278.71237   -3835.6221   -3357.9187   -3835.6221            0    9306.2166    16.921404    19.931178    20.644073    6962.4927    8975.3927    10326.758    8616.4991    864.33726   -1436.8558   -73.560337   -2412.9578 
 1560000    263.67641   -3840.7085   -3388.7762   -3840.7085            0    7222.1215    16.958717    19.975129    20.689595    7008.6534    8843.0742    7430.3316    5392.9586    -169.9655    951.98744    373.09652   -2650.5741 
 1561000    278.18319   -3847.1292   -3370.3328   -3847.1292            0    9663.4296    16.901295    19.907493    20.619541    6937.7006    7599.9787    10070.768    11319.542   -241.92311    1.2203145   -352.52261   -2392.5942 
 1562000    272.01806    -3789.885   -3323.6554    -3789.885            0    9674.9539    16.963056    19.980239    20.694889    7014.0343     8802.923    9588.7361    10633.203    603.77913   -106.42278   -1794.7282   -2333.9802 
 1563000    293.69363   -3802.5273   -3299.1465   -3802.5273            0     10056.64    16.933378    19.945283    20.658682    6977.2844    10326.683    10708.806    9134.4321    214.13615    134.05956   -170.86368   -2275.8176 
 1564000    277.60321   -3843.7694    -3367.967   -3843.7694            0    8290.7996    16.973921    19.993037    20.708144     7027.521    9330.0585    9012.8537    6529.4867   -397.26397   -548.26875   -414.73129   -2518.2497 
 1565000    278.69867   -3853.8534   -3376.1734   -3853.8534            0    11037.779    16.835207     19.82965    20.538913    6856.6343     11487.35    9537.0275    12088.961   -530.50242   -200.32498    1016.3734   -2272.4288 
 1566000    280.51951   -3799.7644   -3318.9635   -3799.7644            0    9411.4903    16.887409    19.891138      20.6026     6920.615    9065.1727    10642.255    8527.0433   -631.24355   -526.00358   -543.00623   -2369.0611 
 1567000    252.29455   -3834.8534   -3402.4291   -3834.8534            0     11196.97    16.867165    19.867293    20.577902    6895.7561    11903.326    11693.038    9994.5462    1070.4664    141.88931   -1027.4424   -2276.3775 
 1568000    266.07627     -3818.39   -3362.3444     -3818.39            0    7180.6599    16.960284    19.976974    20.691506    7010.5958    7640.0076    7204.4174    6697.5547   -62.470736   -399.72678   -978.57268   -2628.1769 
 1569000    258.47588   -3846.4771   -3403.4583   -3846.4771            0    10254.387    16.938197    19.950959    20.664561    6983.2427    9545.7166    9728.4387    11489.005    1229.9015    -311.4078    236.14039   -2359.1164 
 1570000    266.16794    -3813.822   -3357.6192    -3813.822            0    9014.0145    16.925199    19.935649    20.648704     6967.179    9936.4265    10060.052    7045.5653    -210.5104   -427.31495    632.54269   -2441.7128 
 1571000    269.03884   -3822.8057   -3361.6823   -3822.8057            0    9604.0921    16.912121    19.920244    20.632748    6951.0402    9549.7359    9508.6114     9753.929    763.47395   -1186.3826   -1181.9225   -2388.0791 
 1572000    293.57687   -3790.6552   -3287.4745   -3790.6552            0    10829.626    16.865198    19.864976    20.575503    6893.3441    11459.086    10187.428    10842.363   -1506.4836    1412.4217    818.41322   -2198.7468 
 1573000    260.54747   -3844.1153   -3397.5459   -3844.1153            0    9466.8782    16.911017    19.918944    20.631401    6949.6791    9674.1285    10308.094    8418.4117   -943.94155    827.05525   -68.474815   -2438.0405 
 1574000    266.56508   -3807.9304    -3351.047   -3807.9304            0    8557.3043    16.923405    19.933536    20.646515    6964.9635    7027.1237      10333.7    8311.0889   -435.06333    953.22302    517.07098    -2481.823 
 1575000    264.65337   -3800.8498    -3347.243   -3800.8498            0    10432.936    16.873167    19.874362    20.585224    6903.1194    10542.495    9445.3456    11310.969    65.720565    231.88459    134.93636    -2296.908 
 1576000     268.1046   -3825.4698   -3365.9477   -3825.4698            0    9417.4809    16.910824    19.918718    20.631166     6949.442      10164.2     9148.676    8939.5669    772.71128   -1014.7071    1039.8671   -2411.4814 
 1577000     272.7631   -3865.7934   -3398.2868   -3865.7934            0    7973.7599    16.938565    19.951392    20.665009    6983.6972    7310.5583    8842.9513      7767.77    288.69378    -988.8126   -736.80443   -2586.1589 
 1578000     290.9916   -3819.2824   -3320.5328   -3819.2824            0    8754.8515     16.97578    19.995226    20.710411    7029.8292    9156.6067    9227.2671    7880.6805   -1013.5724   -774.87388    1902.9604   -2422.9604 
 1579000     283.5745   -3863.7736   -3377.7366   -3863.7736            0    9957.0769    16.910247    19.918037    20.630462    6948.7298    12445.913    7947.7868    9477.5312   -194.09815    760.08113   -87.889938   -2368.6854 
 1580000    290.67421   -3839.1768   -3340.9711   -3839.1768            0    8242.1741    16.998126    20.021547    20.737674    7057.6274    8697.9492    8888.1738    7140.3992   -475.92042    37.241895    1827.7642   -2492.6185 
 1581000    280.53215    -3843.859   -3363.0365    -3843.859            0    9692.0768    16.925831    19.936393    20.649474    6967.9586    7968.2508    9557.7252    11550.254   -376.41388   -945.96747    600.62195   -2378.1225 
 1582000    268.29222   -3850.9451   -3391.1015   -3850.9451            0    10422.995    16.933849    19.945837    20.659256    6977.8663    9760.7221    9531.5108    11976.752     1059.261   -2708.8249     1695.933   -2330.4052 
 1583000    267.41229   -3841.7016   -3383.3661   -3841.7016            0    9392.0729    16.913089    19.921385    20.633929    6952.2343    8618.5283    10888.577    8669.1134   -958.76854   -127.24416    2056.9063   -2431.0925 
 1584000    276.04671   -3793.3064   -3320.1718   -3793.3064            0    10472.428    16.941543      19.9549    20.668643    6987.3816     9494.753    10699.961    11222.572     580.0081    1128.3729    412.48621   -2252.9916 
 1585000    277.22875   -3842.3867   -3367.2262   -3842.3867            0    7429.7584    16.929489    19.940701    20.653937    6972.4773    8276.2917    7217.3918    6795.5919   -227.72739   -389.46554   -550.30202   -2611.7206 
 1586000    272.59237   -3812.4694   -3345.2554   -3812.4694            0    11410.927    16.883913     19.88702    20.598335    6916.3177    10863.494    10543.703    12825.585    181.06299   -259.35872   -1188.9365   -2194.2649 
 1587000    277.84632   -3854.7715   -3378.5524   -3854.7715            0    10783.873    16.958654    19.975055    20.689519    7008.5755    9735.4422    9979.1399    12637.036   -457.12966    57.113032   -1110.8669   -2276.3017 
 1588000    275.04481   -3803.8659   -3332.4485   -3803.8659            0    10044.803    16.965924    19.983618    20.698388    7017.5927     9923.912    9288.8808    10921.618   -910.54726    1015.2555   -854.88658   -2304.4192 
 1589000     266.6495   -3848.3715   -3391.3434   -3848.3715            0    9954.6423    16.912991    19.921269    20.633809    6952.1131      9555.99    11404.193    8903.7444    645.03999    187.71122    -67.27271   -2382.0478 
 1590000    270.92336   -3817.3322   -3352.9789   -3817.3322            0    11064.105    16.860986    19.860015    20.570364    6888.1805    9452.6893    12968.542    10771.085    293.12176   -179.50916     1232.275   -2241.5115 
 1591000    262.72595   -3833.2106   -3382.9073   -3833.2106            0    10140.459    16.889486    19.893584    20.605134    6923.1686    11157.762    10184.529    9079.0859   -656.66832     446.1663     1869.138   -2359.0524 
 1592000    287.68402   -3831.4847   -3338.4041   -3831.4847            0    9528.8149    16.957653    19.973876    20.688298    7007.3345    10825.889    9533.5455    8227.0104    1116.8071   -1446.3959    385.43197   -2364.6089 
 1593000    264.67721   -3857.3182   -3403.6705   -3857.3182            0    6872.1379    17.020761    20.048208    20.765288    7085.8585    8157.0886    7119.3465    5339.9787    -103.5909    530.88461    344.64969   -2693.5039 
 1594000    263.28186   -3813.3774   -3362.1213   -3813.3774            0    9063.5484    16.945823    19.959941    20.673865    6992.6792    9138.1557    10458.501    7593.9883   -970.67013    219.39157    994.43125   -2437.8111 
 1595000    272.33383   -3831.2603   -3364.4894   -3831.2603            0     9564.415    16.935358    19.947614    20.661097    6979.7312    8080.0638    11799.274    8813.9075   -1610.4742    992.30716   -223.69934   -2390.9063 
 1596000    273.43462   -3804.7133   -3336.0557   -3804.7133            0    9621.2511    16.942409     19.95592    20.669699    6988.4534    8342.8679    9188.4108    11332.475    2017.6046   -1104.8009   -689.42366   -2355.4633 
 1597000    275.55522   -3816.9153   -3344.6231   -3816.9153            0    8245.8366    16.917621    19.926723    20.639459     6957.825    9222.2391    8635.1009    6880.1699    855.78671   -1060.1897   -85.569138   -2507.8954 
 1598000    266.11165   -3834.6158   -3378.5095   -3834.6158            0    10281.222    16.881138     19.88375    20.594949    6912.9072    10235.637    9979.7896    10628.238    441.20888   -224.22772    223.60683   -2341.9808 
 1599000    277.53492    -3832.639   -3356.9537    -3832.639            0     9405.245    16.900279    19.906296    20.618301    6936.4489    8640.0331    8690.9254    10884.776    380.43982     -32.6456   -150.68226   -2405.5097 
 1600000    256.24781   -3828.9891   -3389.7891   -3828.9891            0    10300.386    16.832757    19.826764    20.535924    6853.6407    9985.1967    10494.168    10421.795   -78.426116   -2136.4913   -1128.4826   -2360.2313 
 1601000    274.60919   -3855.4634   -3384.7927   -3855.4634            0    9018.4051     16.88604    19.889525    20.600929    6918.9314    7270.7188    8497.3141    11287.182    -171.3277    -1641.149    133.16323   -2474.7859 
 1602000    288.79217   -3844.4028   -3349.4229   -3844.4028            0    9892.1458    16.886495    19.890061    20.601485    6919.4914    10065.335    9940.1048    9670.9971    574.43761   -1058.7945   -178.22387     -2351.17 
 1603000    268.80335   -3833.8088   -3373.0891   -3833.8088            0    7370.8475     16.95792     19.97419    20.688623    7007.6655    6605.6928    8611.3882    6895.4615    631.09054    683.14557    -860.4811   -2619.7914 
 1604000    261.44965   -3843.1332   -3395.0174   -3843.1332            0    8721.2339    16.937624    19.950284    20.663862    6982.5345    10096.296    8303.5761    7763.8297   -359.75184    340.01335    1401.9015   -2506.9071 
 1605000    262.60069   -3810.4739   -3360.3853   -3810.4739            0    8765.8771    16.936525    19.948989     20.66252    6981.1742    8120.9842    10855.027    7321.6202   -834.17825   -611.36352   -1016.9546   -2467.9027 
 1606000    256.30481   -3831.8905   -3392.5928   -3831.8905            0    9372.6816    16.890371    19.894626    20.606214    6924.2571    10592.008    9071.6345    8454.4026    1134.4394    342.65044    992.29157   -2446.1096 
 1607000    269.06682   -3838.1959   -3377.0246   -3838.1959            0    9090.0512    16.883022     19.88597    20.597247    6915.2221    9936.8414    9242.2555    8091.0568    1424.2715    784.05991   -371.06939     -2460.28 
 1608000    268.88482    -3821.537   -3360.6776    -3821.537            0    9087.4376    16.857847    19.856318    20.566535    6884.3343    7276.0124    11182.949    8803.3512   -1138.3549   -238.86171   -525.19614   -2448.2902 
 1609000    273.09893   -3824.3585   -3356.2763   -3824.3585            0    9135.1665    16.867507    19.867695    20.578319    6896.1749    9021.3696    10150.861    8233.2685   -365.30968    965.22641    637.86074   -2437.5193 
 1610000    266.80607   -3838.4353   -3381.1388   -3838.4353            0    9633.4127    17.001061    20.025004    20.741254    7061.2835    8620.7578    9294.9083    10984.572   -409.42983     216.9877    402.66367   -2389.0748 
 1611000    287.05888   -3844.9106   -3352.9015   -3844.9106            0    8753.2439    16.935036    19.947236    20.660705     6979.334    6588.2936    8601.9251    11069.513    1405.5655    332.75439    904.74994   -2461.9401 
 1612000    262.59006   -3828.3103     -3378.24   -3828.3103            0    9925.7638     16.92899    19.940114    20.653328    6971.8607    8984.8414     12414.18    8378.2701    1125.5766   -1369.7935    202.02728   -2369.0137 
 1613000    276.67889   -3839.7541    -3365.536   -3839.7541            0    10745.394    16.863201    19.862623    20.573066     6890.895    9096.6599     11297.47    11842.053    362.96052    689.11255    315.09547     -2285.66 
 1614000    285.43703   -3798.9843    -3309.755   -3798.9843            0    9429.0388    16.940011    19.953095    20.666774    6985.4862    10328.604    9097.1185    8861.3939   -640.99087   -418.63604    505.14457   -2349.1608 
 1615000    285.70087   -3809.5042   -3319.8227   -3809.5042            0    9374.2417    16.872093    19.873096    20.583914    6901.8012    7189.1817    11045.874    9887.6695   -132.23483    1521.3239    1417.8648   -2376.2519 
 1616000    272.34465   -3857.5802   -3390.7908   -3857.5802            0    7412.5151    16.932845    19.944655    20.658032    6976.6256    5702.1751    8143.0978    8392.2725   -350.39935    315.05421   -894.83174   -2636.5902 
 1617000    265.17428   -3860.7859   -3406.2862   -3860.7859            0    9359.6596    16.943128    19.956767    20.670577    6989.3437    9810.7664    8607.1688    9661.0436     17.93097    175.83831     701.8784   -2452.2336 
 1618000    271.16314   -3841.5202   -3376.7559   -3841.5202            0    9944.5672    16.858334    19.856891    20.567128    6884.9302    8696.4094    10616.174    10521.118    752.81848    231.93538    1156.0015   -2378.2254 
 1619000    278.05164   -3816.4506   -3339.8796   -3816.4506            0    11258.383    16.862012    19.861223    20.571616     6889.438     9776.312     10460.07    13538.767    641.99368    689.99146      92.9304   -2208.6892 
 1620000    275.31566     -3873.36   -3401.4784     -3873.36            0    9261.8826    16.927008    19.937779     20.65091    6969.4124     11773.64     8517.206     7494.802   -1620.0695    528.93352   -184.87052   -2460.0846 
 1621000    269.89542   -3841.6549   -3379.0634   -3841.6549            0    10613.882    16.859553    19.858326    20.568615    6886.4237    12425.966    11474.561    7941.1187    286.23565    156.98614   -1249.5601   -2313.0961 
 1622000    284.09274   -3808.9218   -3321.9966   -3808.9218            0    9089.8776    16.876699    19.878522    20.589533    6907.4555    9123.5139     9689.579    8456.5399   -739.78797   -1046.7288   -2310.6113   -2406.2991 
 1623000    269.58386   -3877.7214   -3415.6639   -3877.7214            0    8347.5951    16.925068    19.935495    20.648544    6967.0171    10414.228     6286.233    8342.3247   -774.34673   -137.42214    1137.1733   -2567.4915 
 1624000    271.50667     -3831.44   -3366.0869     -3831.44            0    8679.3537    16.914081    19.922554     20.63514    6953.4581    9193.1735    7243.6665    9601.2212   -731.25549    662.74313    143.59498   -2485.9218 
 1625000    286.48384   -3800.9323   -3309.9088   -3800.9323            0    9676.5712    16.881643    19.884345    20.595565    6913.5277    10345.635    8611.0285     10073.05    663.17674   -405.44256    662.63122    -2334.252 
 1626000    275.05225   -3809.7102     -3338.28   -3809.7102            0    8746.5496    16.864103    19.863686    20.574166     6892.001    9500.4999    8549.5155    8189.6333   -667.09802     682.7459   -533.00521   -2459.1402 
 1627000    279.84631   -3808.3369     -3328.69   -3808.3369            0     10547.51    16.836057    19.830651     20.53995    6857.6723    10436.759    11154.678    10051.093    1445.8283   -750.00316    1088.4306   -2273.8112 
 1628000    277.19052   -3837.7266   -3362.6315   -3837.7266            0     8643.441     16.97863    19.998583    20.713888    7033.3704     9396.825    7928.1578    8605.3403    1031.9338    547.62958    1864.7758   -2476.0349 
 1629000    287.70644   -3830.9295   -3337.8105   -3830.9295            0    10023.044    16.918893    19.928221     20.64101    6959.3936    10702.151    8892.4027    10474.579    243.89304    -1843.549   -195.88171   -2320.5155 
 1630000    265.05166   -3854.1926   -3399.9031   -3854.1926            0    7588.0723    16.993747    20.016389    20.732332    7052.1743     6310.397    8692.8494    7760.9706    1181.4042    47.623113   -674.94338   -2619.4796 
 1631000     268.3551   -3855.6578   -3395.7063   -3855.6578            0    11471.064    16.880341    19.882812    20.593976    6911.9281    12825.489      11059.1    10528.604   -862.12494   -231.64169    533.56026   -2239.3843 
 1632000    285.99517   -3827.1671   -3336.9812   -3827.1671            0    9664.7856    16.952981    19.968372    20.682597    7001.5433    8078.6511    10729.301    10186.405    1621.3944    296.81545   -123.68436   -2350.1067 
 1633000     266.2184   -3832.6673   -3376.3781   -3832.6673            0    7880.1093    16.947136    19.961487    20.675466    6994.3039    8581.2795    7234.2701    7824.7784   -1575.7245    720.19018   -1002.0708   -2572.5695 
 1634000    270.04055   -3852.1249   -3389.2846   -3852.1249            0    8481.2218    16.938673    19.951519    20.665141     6983.831    9442.7097     7737.111    8263.8447    -568.4818   -357.32349   -542.64838   -2525.4551 
 1635000    265.31578   -3857.1648   -3402.4227   -3857.1648            0    8733.5259    16.951869    19.967062     20.68124    7000.1659    6485.8479    9680.9117    10033.818   -511.74208    110.49784   -1462.9384   -2510.8149 
 1636000    266.69154    -3803.621   -3346.5208    -3803.621            0    8671.7608    16.948724    19.963358    20.677404    6996.2707    10269.238    7760.3202    7985.7238   -1698.2528     1070.487    -2226.505   -2461.7113 
 1637000    261.75952    -3821.962   -3373.3152    -3821.962            0    9696.5805    16.941129    19.954413    20.668138    6986.8701    8901.6081    10943.466    9244.6674   -290.34247    1373.9071   -117.01582   -2385.2691 
 1638000    282.77182   -3840.2158   -3355.5545   -3840.2158            0    10680.222    16.879151     19.88141    20.592525    6910.4669    12774.937    9403.1509    9862.5775   -2010.7897    453.45698     1963.798   -2279.1797 
 1639000    255.63931   -3852.4088   -3414.2518   -3852.4088            0    9670.0511    16.892021    19.896569    20.608226    6926.2861    9347.8841    9730.6066    9931.6627   -258.25538   -384.40707   -696.70183   -2437.4531 
 1640000    259.53943   -3807.4082   -3362.5665   -3807.4082            0    8991.6035    16.952602    19.967926    20.682135     7001.074     8421.839    9729.1381    8823.8332   -370.25852     872.6689    12.741681   -2444.4925 
 1641000    273.10874   -3871.3086   -3403.2096   -3871.3086            0    7631.9397    16.939071    19.951988    20.665627    6984.3236    7410.9508    6802.5196    8682.3488    1631.5266    562.02934    540.27629   -2625.8264 
 1642000     273.4214   -3863.3045   -3394.6695   -3863.3045            0     10158.81    16.894107    19.899027    20.610772    6928.8529    11035.062    9819.9163    9621.4521   -1151.9084   -1331.2568   -923.51063   -2368.1196 
 1643000    258.57283   -3826.7678   -3383.5828   -3826.7678            0    9099.6689    16.963876    19.981206     20.69589    7015.0519    9310.8245    8193.2595    9794.9226   -2259.7026   -1404.2303    2306.9388   -2452.6199 
 1644000    261.56581   -3793.1782   -3344.8634   -3793.1782            0    8292.9889    16.925393    19.935878     20.64894    6967.4185    7833.6958    8676.6862    8368.5846    1451.3632   -279.39143    1437.1963   -2502.1908 
 1645000    265.16183   -3788.9287   -3334.4504   -3788.9287            0    8375.9121    16.925085    19.935514    20.648564    6967.0372    7114.3896    7611.3992    10401.948    782.94908   -206.34289    1028.2076   -2483.3983 
 1646000     264.9521    -3831.054   -3376.9351    -3831.054            0    10489.301    16.895266    19.900392    20.612185    6930.2787    9770.8425    10327.251     11369.81   -1793.6818    1321.5947    296.01998   -2316.7709 
 1647000    268.30406   -3875.9917   -3416.1277   -3875.9917            0    9353.4829    16.949591     19.96438    20.678462     6997.345    8729.6459     11416.41    7914.3932    310.37498    426.47183    519.88996   -2461.6132 
 1648000    261.49887   -3843.9605   -3395.7604   -3843.9605            0    9315.8737    16.881145    19.883758    20.594957    6912.9156     9181.016     9983.059     8783.546    124.71824   -369.94405   -1528.8051   -2456.5547 
 1649000     279.5189   -3800.2047   -3321.1189   -3800.2047            0    9191.6762    16.903881    19.910539    20.622695    6940.8851    8371.9869     11258.83    7944.2117    496.62972    427.47184    148.95238   -2390.6852 
 1650000     268.8911   -3846.7952    -3385.925   -3846.7952            0    8863.9213    16.914093    19.922567    20.635154     6953.472     8539.736    11010.543    7041.4843   -142.64806    532.81519    1777.0318   -2487.0414 
 1651000    280.95143   -3830.6153   -3349.0742   -3830.6153            0    8829.5642    16.976115    19.995621    20.710821    7030.2461    8745.2985    9417.9393    8325.4548   -1423.4867    487.89336    49.431275   -2443.7884 
 1652000    265.75798    -3851.913   -3396.4129    -3851.913            0    10578.201    16.894254    19.899199     20.61095    6929.0328    13123.879    10853.161    7757.5624   -1158.9006    200.32881    1162.6378   -2327.4558 
 1653000    272.58451   -3821.9065   -3354.7059   -3821.9065            0    8792.8909    16.919723    19.929199    20.642023    6960.4188    8189.5232    9425.6686    8763.4808    798.93507   -1485.6646     1450.808   -2462.1346 
 1654000    258.87919   -3833.3838   -3389.6737   -3833.3838            0    8828.9392    16.944532     19.95842    20.672289    6991.0806    10822.192    7276.8121    8387.8134    -631.3213   -640.60851   -906.01159    -2489.495 
 1655000    266.62015   -3788.6471   -3331.6693   -3788.6471            0    10162.818    16.853737    19.851476     20.56152    6879.3001    7971.3268    10369.258    12147.871   -49.839358    29.814594     57.29443   -2312.0588 
 1656000    252.93097   -3813.8272   -3380.3122   -3813.8272            0    10158.878    16.924685    19.935043    20.648076    6966.5439    10035.502    10740.679    9700.4524   -1805.2714    -2114.166    1981.2288   -2348.1713 
 1657000    264.84439    -3837.635   -3383.7008    -3837.635            0    8648.5992    16.955164    19.970944    20.685261    7004.2494    7536.1277    9050.4684    9359.2015   -305.90902   -1127.8091   -865.43227   -2500.2482 
 1658000     277.6109   -3831.0509   -3355.2353   -3831.0509            0    8576.3517    16.931222    19.942743    20.656051     6974.619    10249.003    9158.7227    6321.3298    70.373748   -885.00189    -410.5256   -2482.8688 
 1659000    258.44494   -3803.0718    -3360.106   -3803.0718            0    7883.2466    16.926761    19.937489    20.650609    6969.1081     9741.719    6538.8075    7369.2131   -586.26367    1413.7454    157.95526   -2558.8742 
 1660000    285.24567   -3813.8768   -3324.9755   -3813.8768            0    11253.794    16.889177     19.89322    20.604757    6922.7887    10195.683    9879.6825    13686.017    565.75125    -111.1467    290.95235   -2188.7725 
 1661000    257.53477   -3836.6625   -3395.2568   -3836.6625            0    9144.5764    16.933633    19.945583    20.658993    6977.5994    7184.4239    10183.309    10065.997    -1301.617   -197.29354   -1161.6695   -2464.6943 
 1662000    254.77054   -3821.9761   -3385.3081   -3821.9761            0    9235.5214    16.930686    19.942112    20.655397    6973.9567    10032.082    11331.115    6343.3673   -482.08504   -1779.9045    907.57362   -2445.9816 
 1663000    268.72098   -3821.8039   -3361.2253   -3821.8039            0    9983.8589    16.906462    19.913579    20.625844    6944.0654    10949.985    9840.2674    9161.3244    2642.5774    794.18475    178.80809   -2350.1393 
 1664000    275.16347   -3847.1242   -3375.5034   -3847.1242            0    11155.433     16.86913    19.869607      20.5803    6898.1666    11206.702     12596.93    9662.6685      228.508     745.8294    791.22959   -2253.2369 
 1665000    272.57623   -3836.1678   -3368.9815   -3836.1678            0    8484.3434    16.897815    19.903395    20.615295    6933.4164    8586.3856    7956.8488    8909.7957    1601.5008    965.52069    1712.6435   -2511.0721 
 1666000    278.64419   -3846.1699   -3368.5833   -3846.1699            0    9513.1715    16.922284    19.932215    20.645147    6963.5791    8844.6447    10762.448    8932.4214   -52.036068    1396.5139    160.13991   -2402.4574 
 1667000    258.53825   -3845.8031   -3402.6773   -3845.8031            0    8323.5417    16.929337    19.940523    20.653752    6972.2906     7895.856     9993.453    7081.3162    554.52644    506.19318    1540.0647   -2556.3088 
 1668000    289.67035   -3831.8718   -3335.3867   -3831.8718            0    9200.6687    16.932938    19.944764    20.658144    6976.7396    9162.6487    7528.7781    10910.579    1232.5882    76.852163    1440.7844   -2399.2316 
 1669000    271.98597   -3800.4198   -3334.2452   -3800.4198            0    10602.647    16.841618    19.837201    20.546734    6864.4698    11975.377    8184.9832    11647.582   -209.97432   -390.75608   -817.38553   -2272.8009 
 1670000    272.05874   -3819.8744    -3353.575   -3819.8744            0    9043.2407    16.967862      19.9859    20.700751     7019.997     9988.251    8730.5277    8410.9434   -886.02152    181.16647   -96.383699    -2427.733 
 1671000    272.16535   -3835.9035   -3369.4214   -3835.9035            0    7842.2642    16.974844    19.994124     20.70927    7028.6665    8436.2017     7817.341    7273.2498   -1528.9731   -595.14487    -852.6001   -2565.5431 
 1672000    273.79211   -3838.7176   -3369.4473   -3838.7176            0    11374.749    16.873654    19.874935    20.585818    6903.7173    13431.675    9412.5961    11279.975    306.12775   -1592.6885   -277.83614   -2224.1962 
 1673000    258.13804   -3837.2204   -3394.7806   -3837.2204            0    9939.6725    16.952827    19.968191    20.682409    7001.3529    11237.054    8615.4454    9966.5185   -437.97581    -352.5237   -1273.0175    -2379.865 
 1674000    259.35542    -3825.336   -3380.8097    -3825.336            0    12171.835     16.90445     19.91121     20.62339    6941.5869    13163.298    13490.222    9861.9856   -1262.9138    610.63779    2040.0507   -2148.5828 
 1675000    269.95056   -3814.4989   -3351.8129   -3814.4989            0    7993.6225    16.981658     20.00215    20.717583    7037.1349    8149.8008    7634.0815    8196.9853      587.455   -142.85233    262.32181   -2531.4322 
 1676000    256.01709   -3806.2945     -3367.49   -3806.2945            0    9367.6434    16.947757     19.96222    20.676225     6995.074     11669.12     10008.09    6425.7207    955.79985    643.61104   -1905.0543   -2411.8407 
 1677000    283.93289   -3805.2027   -3318.5514   -3805.2027            0    10257.405    16.924644    19.934995    20.648026    6966.4926    10346.827    9288.8095    11136.579    346.92567    1189.5284    650.53712   -2276.4077 
 1678000    276.82688   -3819.7133   -3345.2415   -3819.7133            0    10059.324     16.93159    19.943177    20.656501    6975.0743    8657.5114     10796.58    10723.882    183.97375   -80.799242    868.67455   -2321.9638 
 1679000    267.58465   -3809.3232   -3350.6923   -3809.3232            0    8921.3478    16.948421    19.963002    20.677034    6995.8959    9447.6976    7962.9391    9353.4067    575.00315   -87.230784   -14.729399   -2440.4653 
 1680000    280.13324   -3857.9162   -3377.7774   -3857.9162            0    7591.5567    16.935812     19.94815    20.661652    6980.2938    7594.5536    7201.9283    7978.1882    457.57844     1123.587     584.3352   -2604.9537 
 1681000    271.93199   -3836.1704   -3370.0883   -3836.1704            0    11335.892    16.918346    19.927576    20.640342    6958.7184    10958.173    11890.048    11159.457   -1024.1752   -466.00201   -1177.2464   -2219.6565 
 1682000    296.70518   -3828.0497   -3319.5072   -3828.0497            0    11425.479    16.835301    19.829761    20.539028     6856.749    11255.368    9273.8173     13747.25   -2218.5024   -343.05382     -371.263   -2176.9747 
 1683000    263.77583   -3823.6183   -3371.5155   -3823.6183            0    9315.3031    16.934751    19.946899    20.660356     6978.981    8766.4552     10346.68    8832.7739   -2192.0284    1886.3661   -1133.8174   -2423.3921 
 1684000      261.199   -3810.9554   -3363.2693   -3810.9554            0    7980.3066    16.913513    19.921885    20.634447    6952.7575    8755.4472    6773.7432    8411.7294   -501.67179    559.03245   -674.17039   -2554.0755 
 1685000    276.94331    -3772.683   -3298.0117    -3772.683            0    9278.3914    16.879558     19.88189    20.593021    6910.9666    8375.7921    8711.3328    10748.049    688.15376    1128.3633   -769.46299   -2362.8486 
 1686000    277.36013   -3808.2054   -3332.8197   -3808.2054            0     11795.68    16.921436    19.931217    20.644113    6962.5331    8785.3448    14301.483    12300.213    385.39866    1892.0691    1051.7108   -2135.0697 
 1687000    261.26719   -3811.1886   -3363.3856   -3811.1886            0    10098.812    16.892376    19.896988    20.608659    6926.7227    11696.691    9630.5842    8969.1622    1265.3699    1848.4582   -459.69368   -2343.2122 
 1688000     283.0198   -3837.2526   -3352.1664   -3837.2526            0    11150.807    16.904309    19.911043    20.623217     6941.412    10632.299    12509.817    10310.306    515.80427    26.163352    -401.4533   -2223.3326 
 1689000    251.91985   -3826.8866   -3395.1046   -3826.8866            0    11347.046    16.901632    19.907891    20.619952    6938.1159     14321.83    9923.2528    9796.0556    1378.9571    579.23261   -214.67988   -2246.9503 
 1690000    281.41923   -3808.9435   -3326.6006   -3808.9435            0    10272.355    16.891565    19.896032     20.60767    6925.7253    10167.437    10029.045    10620.582   -2066.1818    160.75906    560.07312   -2289.0455 
 1691000    273.12416   -3822.4409   -3354.3154   -3822.4409            0    9171.3377    16.917845    19.926987    20.639731    6958.1005    10479.235    9491.9444    7542.8331    132.52744    1148.7658    411.52607   -2423.6378 
 1692000    271.64103   -3825.8318   -3360.2483   -3825.8318            0    8696.0708    16.917916    19.927071    20.639819    6958.1889    9476.9668    8733.0152    7878.2303     768.1965   -94.504467   -107.70698    -2477.788 
 1693000    277.73996   -3803.9995   -3327.9627   -3803.9995            0    9465.7255    16.891741     19.89624    20.607885    6925.9423    9039.4611    10959.035      8398.68    380.44716   -1006.0996   -687.79265    -2371.851 
 1694000    291.87221   -3845.2657   -3345.0067   -3845.2657            0    9362.3121    16.912405    19.920579    20.633094    6951.3903    7484.7015    10564.937    10037.298   -101.76227   -1603.5495    -215.7674   -2395.8658 
 1695000    261.37325   -3818.2427   -3370.2578   -3818.2427            0    7762.3426    16.938099    19.950843    20.664441    6983.1211    9517.6715    6576.6781    7192.6783   -331.69082   -1417.5266   -991.72488    -2579.728 
 1696000    264.55618   -3796.3688   -3342.9286   -3796.3688            0    10311.929    16.892145    19.896716    20.608378     6926.439    10088.445    10427.392     10419.95   -194.43378    3215.9351   -811.10272    -2301.269 
 1697000    278.73599   -3830.3252   -3352.5812   -3830.3252            0    9159.9543    16.916833    19.925795    20.638497    6956.8522    8753.9848     8535.924    10189.954    1486.2781   -1187.7366   -493.17586   -2423.2255 
 1698000    272.85436   -3841.0312   -3373.3682   -3841.0312            0    8594.7472    16.922803    19.932827     20.64578    6964.2201    8198.4667    9286.8221    8298.9527   -28.410235   -455.27626    155.79583   -2500.4341 
 1699000     291.1579   -3830.4402   -3331.4055   -3830.4402            0    8683.3875    16.899417    19.905281    20.617249     6935.388     8101.269     9114.512    8834.3815    897.61764   -87.977929     1081.735   -2453.1198 
 1700000    273.83089    -3813.605   -3344.2683    -3813.605            0    10847.597    16.867305    19.867457    20.578072    6895.9271    9350.0831    12765.107    10427.601   -463.53243    255.57969    834.29483   -2253.3252 
 1701000    269.40698   -3843.4678   -3381.7135   -3843.4678            0     9802.408    16.892028    19.896577    20.608234    6926.2942    8834.9517    10239.271    10333.001   -186.90106    -556.2812   -1212.4117   -2391.5439 
 1702000    277.88111   -3838.3748   -3362.0961   -3838.3748            0     12005.54    16.884294    19.887468    20.598799    6916.7851    12169.217    10799.765    13047.637   -1133.6153    58.042382   -1528.9043   -2151.0467 
 1703000     262.9855   -3863.8168   -3413.0687   -3863.8168            0    9123.6348    16.910954     19.91887    20.631324    6949.6012    7754.9785    11033.575    8582.3509    53.243467    1113.3586   -707.52776   -2488.3627 
 1704000    261.77944   -3847.3396   -3398.6586   -3847.3396            0    9182.1814    16.949754    19.964572    20.678661    6997.5467    8863.7762    10145.468    8537.3001    497.38723   -797.55995    1416.8363   -2461.5982 
 1705000    268.34143   -3857.2236   -3397.2956   -3857.2236            0    7952.1336    16.963486    19.980746    20.695414    7014.5681    7984.2626    7840.3996    8031.7386    365.94413    1156.1405   -903.01226   -2583.7901 
 1706000    259.33553   -3827.1697   -3382.6775   -3827.1697            0      9430.82    16.903093    19.909611    20.621734     6939.915    8825.8209    10578.439    8888.1997 -0.099760148   -1890.8027   -1191.0634   -2428.1696 
 1707000    267.42379   -3804.0913   -3345.7361   -3804.0913            0    9610.8252    16.915112    19.923767    20.636397    6954.7287    9558.4729    9750.1293    9523.8734    284.79718     1355.228   -1940.8027   -2370.9333 
 1708000     290.7415   -3830.0161   -3331.6952   -3830.0161            0     10368.14    16.913568    19.921948    20.634513    6952.8243    10345.272    10349.428    10409.722   -1197.4405   -646.85019   -331.50994   -2280.3677 
 1709000    281.18253   -3858.8713   -3376.9341   -3858.8713            0    8500.9419    16.935155    19.947376     20.66085    6979.4808    10242.296     7341.065    7919.4651   -267.11824    627.76799   -735.15263   -2511.6354 
 1710000    276.09747    -3822.519   -3349.2974    -3822.519            0    9792.6679    16.916165    19.925008    20.637682     6956.028    8708.0605    10893.792     9776.151    571.79272   -656.52182   -576.46434   -2355.8652 
 1711000    279.63961    -3866.081   -3386.7882    -3866.081            0    9813.9642     16.90386    19.910514     20.62267    6940.8596    10568.103    8882.8794    9990.9102   -1407.6499   -462.09541    690.33957   -2393.3666 
 1712000    277.69504   -3840.5607   -3364.6009   -3840.5607            0    9812.5088    16.962813    19.979953    20.694592    7013.7322    10010.279    8755.2639    10671.984    464.50426    67.382791    443.44149   -2360.8981 
 1713000    272.22556   -3792.3912   -3325.8059   -3792.3912            0    9502.8248    16.950542      19.9655    20.679622    6998.5228    9935.9774    9894.7452    8677.7518   -558.83223   -1452.7618    216.77972    -2355.888 
 1714000    268.82394   -3838.7379   -3377.9829   -3838.7379            0    9919.3987    16.941188    19.954482     20.66821    6986.9424    9765.4664    12085.562    7907.1673   -193.40199   -1127.7041   -1697.8135    -2367.222 
 1715000    245.15923   -3832.0417   -3411.8472   -3832.0417            0    11133.459    16.831621    19.825426    20.534538    6852.2533     11183.02    10154.817    12062.539   -736.55116    1545.1731   -296.15591   -2299.2463 
 1716000    273.12907   -3840.7772   -3372.6433   -3840.7772            0    12793.679    16.850441    19.847594    20.557499    6875.2644    14391.297    12992.715    10997.026    850.27271   -2.3449723   -1573.0204    -2089.838 
 1717000    260.03007   -3838.9813   -3393.2986   -3838.9813            0    9522.6301    16.895948    19.901195    20.613017    6931.1182    8988.3457    10640.993    8938.5512    24.775791   -1390.7114    104.85622   -2430.7203 
 1718000    273.80515   -3817.0043   -3347.7116   -3817.0043            0    10021.065    16.972809    19.991728    20.706788    7026.1399    9524.2119    10839.069     9699.914    696.88202   -551.82797   -2453.5299   -2320.8627 
 1719000    275.90671   -3815.8252   -3342.9306   -3815.8252            0    9968.9389    16.956368    19.972362    20.686729    7005.7412    11618.555    9557.1616    8731.1003    540.54096   -609.28804   -289.37198   -2324.3887 
 1720000    261.22904   -3862.4616    -3414.724   -3862.4616            0    9213.3611    17.011444    20.037234    20.753922    7074.2293    11016.592    8735.3921    7888.0996   -357.89415   -270.97274    1151.0713    -2464.178 
 1721000    260.20649   -3802.9862   -3357.0012   -3802.9862            0    9606.7867    16.910809      19.9187    20.631148    6949.4235    7677.4638    11719.651    9423.2457    1991.4042   -153.93704    89.609361   -2383.3513 
 1722000    291.60118   -3873.1016   -3373.3072   -3873.1016            0    9594.4011    16.900343    19.906372    20.618379    6936.5281    11157.611    8456.5822    9169.0101   -117.20965    -1409.806   -1054.0475    -2402.717 
 1723000    260.73554    -3827.308   -3380.4162    -3827.308            0    10130.668    16.905156     19.91204     20.62425    6942.4555    9770.5921    11536.662    9084.7491    966.11284   -687.65908   -1272.5652   -2354.7004 
 1724000    263.50585    -3810.318    -3358.678    -3810.318            0    10980.567    16.890926    19.895279     20.60689    6924.9389    10572.091    10080.109    12289.501   -639.57813    806.23072    183.25289   -2249.7162 
 1725000    268.31285   -3829.3944   -3369.5153   -3829.3944            0    11056.457    16.870581    19.871316    20.582069    6899.9458    10123.962    10599.687    12445.722   -1135.0149    532.79047    -588.1011   -2256.9191 
 1726000    266.38511   -3824.5304   -3367.9555   -3824.5304            0    10221.584    16.905445    19.912382    20.624604    6942.8125    10765.748    9406.0747    10492.931   -562.23752    345.44829   -721.94658   -2332.9812 
 1727000    282.09734   -3771.3258   -3287.8206   -3771.3258            0    9512.7972    16.915022    19.923662    20.636288    6954.6184    9996.2461    9348.9071    9193.2385   -133.96233    156.07901    59.649186   -2322.9758 
 1728000    278.35873   -3810.4253    -3333.328   -3810.4253            0    12374.481    16.841807    19.837424    20.546965    6864.7012    12731.921    13665.972    10725.549    221.49851    215.47821   -1322.9699   -2094.4615 
 1729000    273.31997   -3821.6005   -3353.1395   -3821.6005            0    9150.7269    16.932704    19.944489    20.657859     6976.451    10608.392    8560.8471    8282.9412   -234.70436    860.41928   -2100.4047   -2422.1044 
 1730000    276.24585   -3809.4209   -3335.9449   -3809.4209            0    8332.8247    16.979208    19.999264    20.714594    7034.0887    7387.5857    10953.412    6657.4764     140.0422    48.938193     111.5551   -2481.1224 
 1731000    264.47507    -3761.123   -3307.8218    -3761.123            0    11459.728    16.837232    19.832036    20.541384     6859.109    10633.954    11329.311    12415.919    -724.5918    1102.0569    -346.4381     -2161.47 
 1732000    283.76789   -3810.2589   -3323.8905   -3810.2589            0    9451.7318    16.902385    19.908777     20.62087    6939.0425    13206.873    6939.9814    8208.3405    -507.1179    1246.5876    857.64312   -2367.3864 
 1733000    273.87696   -3836.3845   -3366.9687   -3836.3845            0    9706.7117    16.884045    19.887174    20.598495    6916.4791    9608.5539     10288.33    9223.2516    1816.8971    957.43939    -87.65794   -2387.8551 
 1734000    283.65107   -3854.2816   -3368.1134   -3854.2816            0    6357.8569    17.010592     20.03623    20.752882    7073.1659     4795.212    7198.0131    7080.3458    430.09935   -639.51111    755.34765   -2712.2695 
 1735000    261.15259   -3825.4008   -3377.7942   -3825.4008            0    10727.373    16.873047     19.87422    20.585078    6902.9721    8081.9445    11184.329    12915.845    187.81047   -979.28996   -929.72596   -2297.8399 
 1736000    275.80467   -3852.7771   -3380.0574   -3852.7771            0    8277.0808    16.950465    19.965409    20.679528    6998.4269    7263.4226    9835.2566    7732.5633    1134.9089    1165.4494     728.3438   -2535.2581 
 1737000     263.7875    -3826.547   -3374.4243    -3826.547            0    9453.5291    16.890305    19.894549    20.606133     6924.176    9476.0884    8535.3444    10349.154   -230.40395    1029.9372   -897.17007    -2419.788 
 1738000     276.7651   -3840.3726   -3366.0067   -3840.3726            0    9119.0516    16.861602     19.86074    20.571116    6888.9357    9839.7311    8985.2363    8532.1873    -305.7903    853.74191    64.613799   -2449.8333 
 1739000    264.56254   -3820.3555   -3366.9044   -3820.3555            0    9723.8906    16.906494    19.913617    20.625883    6944.1047    9002.6105    9729.9391    10439.122   -1172.9005    475.79316   -1781.1356   -2382.1403 
 1740000    275.15274   -3833.3479   -3361.7455   -3833.3479            0     8032.097    16.958214    19.974536    20.688981     7008.029    8524.4739    7342.8533    8228.9637   -1379.3625   -1833.9815     1013.054   -2540.8257 
 1741000    268.10291   -3861.2216   -3401.7024   -3861.2216            0    6553.7834    16.982338    20.002951    20.718412    7037.9796    5029.3804    7277.9263    7354.0433   -441.19214    -832.8054    1034.6441   -2729.0108 
 1742000    266.53605   -3814.0349   -3357.2012   -3814.0349            0    8843.1505    16.981582     20.00206     20.71749    7037.0401    5108.0747    9438.3739    11983.003   -367.24315    519.10912   -563.48018   -2449.6462 
 1743000    273.63332   -3813.1769   -3344.1788   -3813.1769            0    9041.3624    16.952404    19.967693    20.681893     7000.829     9265.773    10360.928    7497.3864   -529.88566    326.89495   -978.05007   -2421.0565 
 1744000    280.92602   -3817.7579   -3336.2604   -3817.7579            0     10004.07    16.917572    19.926665    20.639399    6957.7642    9778.3717    8496.7832    11737.056    -1352.404    1332.7635   -307.30231   -2321.1288 
 1745000    272.26647   -3773.5624    -3306.907   -3773.5624            0    9810.3048    16.974659    19.993907    20.709045    7028.4376    11310.352    9889.1813    8231.3809     1511.582    1509.8453    -210.7069   -2301.3257 
 1746000    273.13684   -3818.9241   -3350.7769   -3818.9241            0    8999.9171     16.91722    19.926251    20.638969    6957.3296    9518.3064    9149.9191    8331.5256    61.909185   -1152.5187    1075.3048   -2437.5956 
 1747000    268.04718   -3834.4361   -3375.0124   -3834.4361            0    9464.7833    16.904725    19.911534    20.623726    6941.9256    8489.6129    10273.864    9630.8727   -277.43264   -572.12966   -1187.4209   -2416.7895 
 1748000    275.06623   -3784.3712   -3312.9171   -3784.3712            0    10255.404    16.850468    19.847626    20.557532    6875.2974    10018.808    8958.3139    11789.089   -593.70254   -641.00577    -764.4402   -2284.6164 
 1749000    262.16793   -3843.8757   -3394.5288   -3843.8757            0    8243.8289    16.915514    19.924241    20.636887    6955.2247    8691.3334     5954.516    10085.637    289.27135   -540.69818    365.37105   -2558.3176 
 1750000    272.96378   -3799.1101   -3331.2595   -3799.1101            0     9194.611    16.918466    19.927718    20.640489    6958.8671    10603.656    11616.415    5363.7622    1843.4078   -684.76863   -80.020804   -2398.1174 
Loop time of 462.296 on 64 procs for 250000 steps with 864 atoms

Performance: 93.447 ns/day, 0.257 hours/ns, 540.779 timesteps/s
99.1% CPU use with 64 MPI tasks x 1 OpenMP threads

MPI task timing breakdown:
Section |  min time  |  avg time  |  max time  |%varavg| %total
---------------------------------------------------------------
Pair    | 22.154     | 27.041     | 31.839     |  47.2 |  5.85
Bond    | 0.26594    | 0.28355    | 0.30305    |   1.1 |  0.06
Kspace  | 197.43     | 208.95     | 217.19     |  31.3 | 45.20
Neigh   | 5.8533     | 6.8835     | 7.6097     |  20.1 |  1.49
Comm    | 96.243     | 104.27     | 116.6      |  47.0 | 22.55
Output  | 1.0297     | 1.0303     | 1.0318     |   0.0 |  0.22
Modify  | 105.21     | 109.37     | 113.31     |  20.5 | 23.66
Other   |            | 4.473      |            |       |  0.97

Nlocal:        13.5000 ave          19 max           9 min
Histogram: 1 2 10 9 9 11 13 4 4 1
Nghost:        2284.41 ave        2309 max        2245 min
Histogram: 1 5 2 2 8 12 6 13 7 8
Neighs:        4431.28 ave        6179 max        2747 min
Histogram: 1 3 9 13 9 11 7 5 3 3

Total # of neighbors = 283602
Ave neighs/atom = 328.24306
Ave special neighs/atom = 2.0000000
Neighbor list builds = 15192
Dangerous builds = 0

unfix		3
unfix		2
unfix		1

write_data	data.final.${pid}
write_data	data.final.0
System init for write_data ...
PPPM initialization ...
  extracting TIP4P info from pair style
  using 12-bit tables for long-range coulomb (../kspace.cpp:340)
  G vector (1/distance) = 0.37453647
  grid = 24 24 24
  stencil order = 5
  estimated absolute RMS force accuracy = 0.0031297823
  estimated relative force accuracy = 9.4252465e-06
  using double precision FFTW3
  3d grid and FFT values/proc = 2535 216
Last active /omp style is kspace_style pppm/tip4p/omp
WARNING: Not all mixed pair coeffs generated from mixing. Use write_data with 'pair ij' option to store all pair coeffs. (../write_data.cpp:312)

write_restart   restart.lmp.${pid}
write_restart   restart.lmp.0
System init for write_restart ...
PPPM initialization ...
  extracting TIP4P info from pair style
  using 12-bit tables for long-range coulomb (../kspace.cpp:340)
  G vector (1/distance) = 0.37453647
  grid = 24 24 24
  stencil order = 5
  estimated absolute RMS force accuracy = 0.0031297823
  estimated relative force accuracy = 9.4252465e-06
  using double precision FFTW3
  3d grid and FFT values/proc = 2535 216
Last active /omp style is kspace_style pppm/tip4p/omp
Total wall time: 0:07:46
