LAMMPS (30 Jul 2021)
Processor partition = 1
  using 2 OpenMP thread(s) per MPI task
using multi-threaded neighbor list subroutines
variable        pid world 0 1
variable        phase world IceV IceIII

shell cd ${phase}
shell cd IceIII
include Restart.lmp
echo both
log log.lammps
#include		in.partitions
include		in.temp
variable        temperature equal 136.47
variable	tempDamp equal 100.0
include		in.pressure
variable        pressure equal 7126.6
variable        pressureDamp equal 1000.0 # This is 1 ps
include		in.seed
variable        seed equal 745823

units		real
atom_style	full

read_restart	restart.lmp.${pid}
read_restart	restart.lmp.1
Reading restart file ...
  restart file = 30 Jul 2021, LAMMPS = 30 Jul 2021
  restoring atom style full from restart
  orthogonal box = (0.24029427 0.12682144 0.019029059) to (19.759707 19.873180 20.680969)
  2 by 4 by 4 MPI processor grid
  restoring pair style lj/cut/tip4p/long/omp from restart
  restoring bond style harmonic/omp from restart
  restoring angle style harmonic/omp from restart
  972 atoms
  648 bonds
  324 angles
Finding 1-2 1-3 1-4 neighbors ...
  special bond factors lj:    0        0        0       
  special bond factors coul:  0        0        0       
     2 = max # of 1-2 neighbors
     1 = max # of 1-3 neighbors
     1 = max # of 1-4 neighbors
     2 = max # of special neighbors
  special bonds CPU = 0.002 seconds
  read_restart CPU = 0.008 seconds
include 	in.setup
variable	out_freq equal 1000
variable	out_freq2 equal 10000
variable	out_freq3 equal 1000

timestep	2.0

neigh_modify    delay 7 every 1

include		in.tip4p
# This is TIP4P/Ice

# create groups ###
group ox type 2
324 atoms in group ox
group hy type 1
648 atoms in group hy

# set charges - beside manually ###
set group ox charge -1.1794
Setting atom values ...
  324 settings made for charge
set group hy charge 0.5897
Setting atom values ...
  648 settings made for charge

# ### TIP3P Potential Parameters ###
pair_style lj/cut/tip4p/long/omp 2 1 1 1 0.1577 8.5
pair_coeff 1 1*2 0.000 0.000
pair_coeff 2 2 0.21084 3.1668
bond_style  harmonic
bond_coeff  1 450 0.9572
angle_style harmonic
angle_coeff 1 55 104.52
kspace_style pppm/tip4p/omp 1.0e-5
pair_modify tail yes

thermo          ${out_freq}
thermo          1000
thermo_style    custom step temp pe etotal epair emol press lx ly lz vol pxx pyy pzz pxy pxz pyz enthalpy

restart 	${out_freq3} restart.lmp.${pid} restart2.lmp.${pid}
restart 	1000 restart.lmp.${pid} restart2.lmp.${pid}
restart 	1000 restart.lmp.1 restart2.lmp.${pid}
restart 	1000 restart.lmp.1 restart2.lmp.1


include         in.dump
dump            myDump all atom ${out_freq2} dump.water.${pid}
dump            myDump all atom 10000 dump.water.${pid}
dump            myDump all atom 10000 dump.water.1
dump            myDump2 all dcd ${out_freq2} dump.dcd
dump            myDump2 all dcd 10000 dump.dcd
dump_modify     myDump append yes
dump_modify     myDump2 append yes


variable natoms 	equal  "count(all)"                        # NUMBER ATOMS
variable H      	equal  "enthalpy/v_natoms"                 # ENTHALPY-per-atom
variable Vol      	equal  "vol/v_natoms"                 # volume-per-atom
fix AVG all 		ave/time ${out_freq} 1 ${out_freq} v_Vol v_H file vol_enthalpy.dat
fix AVG all 		ave/time 1000 1 ${out_freq} v_Vol v_H file vol_enthalpy.dat
fix AVG all 		ave/time 1000 1 1000 v_Vol v_H file vol_enthalpy.dat


timer           timeout 02:55:00 every 1000
New timer settings: style=normal  mode=nosync  timeout=02:55:00

fix 		1 all shake 1e-6 200 0 b 1 a 1
Finding SHAKE clusters ...
       0 = # of size 2 clusters
       0 = # of size 3 clusters
       0 = # of size 4 clusters
     324 = # of frozen angles
  find clusters CPU = 0.002 seconds
fix             2 all nph aniso ${pressure} ${pressure} ${pressureDamp}
fix             2 all nph aniso 7126.6 ${pressure} ${pressureDamp}
fix             2 all nph aniso 7126.6 7126.6 ${pressureDamp}
fix             2 all nph aniso 7126.6 7126.6 1000
fix             3 all temp/csvr ${temperature} ${temperature} ${tempDamp} ${seed}
fix             3 all temp/csvr 136.47 ${temperature} ${tempDamp} ${seed}
fix             3 all temp/csvr 136.47 136.47 ${tempDamp} ${seed}
fix             3 all temp/csvr 136.47 136.47 100 ${seed}
fix             3 all temp/csvr 136.47 136.47 100 745823


run             250000
PPPM initialization ...
  extracting TIP4P info from pair style
  using 12-bit tables for long-range coulomb (../kspace.cpp:340)
  G vector (1/distance) = 0.37360434
  grid = 24 24 25
  stencil order = 5
  estimated absolute RMS force accuracy = 0.0032641667
  estimated relative force accuracy = 9.829941e-06
  using double precision FFTW3
  3d grid and FFT values/proc = 3458 576
Last active /omp style is kspace_style pppm/tip4p/omp
Neighbor list info ...
  update every 1 steps, delay 7 steps, check yes
  max neighbors/atom: 2000, page size: 100000
  master list distance cutoff = 10.8154
  ghost atom cutoff = 10.8154
  binsize = 5.4077, bins = 4 4 4
  1 neighbor lists, perpetual/occasional/extra = 1 0 0
  (1) pair lj/cut/tip4p/long/omp, perpetual
      attributes: half, newton on, omp
      pair build: half/bin/newton/omp
      stencil: half/bin/3d
      bin: standard
Setting up Verlet run ...
  Unit style    : real
  Current step  : 25000000
  Time step     : 2
  Walltime left : 2:54:59.93
Per MPI rank memory allocation (min/avg/max) = 10.19 | 10.20 | 10.21 Mbytes
Step Temp PotEng TotEng E_pair E_mol Press Lx Ly Lz Volume Pxx Pyy Pzz Pxy Pxz Pyz Enthalpy 
25000000    140.51023   -4938.2609   -4667.2751   -4938.2609            0    8693.3309    19.519412    19.746358     20.66194    7963.8825    9919.7052     9239.915    6920.3724   -413.01611    354.68355    1794.8063   -3657.5877 
25001000    134.87297   -4967.2697   -4707.1558   -4967.2697            0     6775.116    19.744804    19.702081    20.592848    8010.9004     6205.578    8373.1767    5746.5933   -218.36134    351.74264    326.74195   -3915.6139 
25002000    135.65263   -4959.3591   -4697.7416   -4959.3591            0    7079.9727    19.599966    19.753836    20.665515    8001.1609    8424.3946    6695.6934    6119.8301   -262.45087    86.722857   -408.22186   -3871.5886 
25003000     139.5624   -4979.2419   -4710.0841   -4979.2419            0    7563.2451    19.799448    19.729191    20.469232    7995.8367      7010.75    8108.9554      7570.03    110.63585    235.15082   -790.88154    -3828.126 
25004000    130.20902   -4978.0557   -4726.9366   -4978.0557            0    7165.2605    19.770953     19.86518    20.481722    8044.2685    6349.6921     7875.962    7270.1273   -651.08122   -113.54976      -52.186   -3886.3269 
25005000    128.87592   -4960.3336   -4711.7855   -4960.3336            0    5400.4511    19.846005    19.739531    20.658145    8092.8454    5473.6689     6453.075    4274.6094    6.4963473   -46.698431    641.00908   -4074.3927 
25006000    138.35558    -4966.562   -4699.7316    -4966.562            0    5954.2311    19.741114    19.879085    20.466377    8031.7286    5916.8114    5600.4507     6345.431   -831.18905    175.53657    340.98773   -4002.2856 
25007000    134.15485   -4960.9682   -4702.2393   -4960.9682            0    7466.0234    19.888335    19.884163    20.308494    8031.2556    5750.9564    7846.6794    8800.4343    186.41564    970.18932    640.94829   -3827.7617 
25008000    136.41178   -4965.8052   -4702.7236   -4965.8052            0    5982.5452    19.894612    19.868096    20.299312    8023.6697    4585.8873    6216.9338    7144.8146    498.76069   -464.52921   -385.83457   -4002.6642 
25009000    139.89025   -4957.3305   -4687.5404   -4957.3305            0    7665.4597    19.757687    19.849401    20.395292    7998.5896    7378.0816    7692.5713    7925.7263   -353.86127     1998.394    1660.2303   -3793.3551 
25010000    140.86564   -4962.4723   -4690.8011   -4962.4723            0    7169.8001    19.604689    19.850716    20.569667    8005.0381    7613.0198    6690.3905    7205.9901   -480.75866    718.21223   -475.43421   -3853.7608 
25011000    132.57897   -4963.7498   -4708.0601   -4963.7498            0    7574.3839     19.72287    19.814583    20.533494    8024.4982    7351.5808    8075.6467    7295.9243     241.5187    50.160956    424.30814    -3821.637 
25012000    139.06473   -4938.1137   -4669.9157   -4938.1137            0    8675.2933    19.638828    19.813854    20.395279    7936.2286    10844.081    6520.2528    8661.5462    284.74483    620.16711    724.69371    -3665.822 
25013000    145.91721   -4960.1133   -4678.6997   -4960.1133            0    7846.7214    19.686374    19.855099    20.394989    7971.8892    8477.3412    7338.2116    7724.6114   -725.85914     569.7528   -352.32259   -3766.4255 
25014000    133.11052    -4961.894   -4705.1792    -4961.894            0    8011.6624    19.853754    19.667026     20.53589    8018.5322    7805.5556    8521.5572    7707.8742    -848.5209   -212.83844    553.66583   -3768.2789 
25015000    132.05871   -4964.5021   -4709.8158   -4964.5021            0    5970.2807    20.023396    19.680706    20.451138    8059.2736    5169.3527    6630.1423    6111.3472   -41.535864    666.08222   -98.787465   -4008.0915 
25016000    132.11132   -4959.8752   -4705.0874   -4959.8752            0    7039.1445    19.772283    19.886325    20.398715    8020.7348    6214.0479    6976.1767    7927.2089   -331.39595   -922.64704    12.896052   -3881.6892 
25017000    137.26895   -4966.8513   -4702.1166   -4966.8513            0    7665.7863    19.770705    19.766348    20.507473    8014.2105     7871.894    7373.2587     7752.206   -622.44565    860.74317    -309.3505   -3806.1468 
25018000    129.14906   -4967.2285   -4718.1537   -4967.2285            0    6423.8108    19.780046    19.820976     20.47601     8027.821    7256.8767    6546.4336     5468.122    335.15838    420.26194   -34.298522   -3966.0698 
25019000    137.99778    -4968.341   -4702.2007    -4968.341            0     8072.827     19.82282    19.984759    20.171655    7991.0878    6205.5114     8298.119    9714.8507   -155.37097     422.8805   -636.63663   -3761.3788 
25020000    131.41733   -4964.5002   -4711.0508   -4964.5002            0    6426.3075    19.801021    19.887176    20.456467    8055.4787    5916.5589    6726.0642    6636.2994    -392.8796    234.69364    96.931789   -3956.0825 
25021000    131.50163   -4971.3451   -4717.7331   -4971.3451            0    7296.5112    19.689911     19.86245    20.516323    8023.7266    6837.3948    7452.9172    7599.2215    35.497043     74.83001   -255.49561   -3863.9113 
25022000    139.63273   -4972.8872   -4703.5937   -4972.8872            0    8003.2715    19.703539     19.85434    20.498151    8018.8923    7823.9002     8262.735    7923.1794    271.97799     1140.771    1120.3649   -3767.6326 
25023000    131.49296   -4968.5101   -4714.9148   -4968.5101            0    7125.8338    19.704486    19.811767    20.499413    8002.5752    5960.4667    9015.6141    6401.4206   -351.82283    -115.5559    579.51684   -3883.2634 
25024000    144.06815   -4961.3766   -4683.5291   -4961.3766            0      6766.47    19.797864    19.978292    20.378897    8060.4143    7731.7567    6269.1022    6298.5511   -46.230957    868.60809    -693.5486   -3888.1111 
25025000    144.41693   -4964.8728   -4686.3526   -4964.8728            0    8564.6506    19.805034    19.724702    20.440416    7985.0154    9002.1215    8793.2853     7898.545   -215.89706    497.26262   -188.14017   -3688.9712 
25026000    147.30022   -4971.1786   -4687.0977   -4971.1786            0    6955.7132    19.715058     19.79144    20.542349    8015.4067    7855.3577    6310.1771    6701.6049   -92.645156    944.32922   -631.87597   -3873.9993 
25027000     140.3911   -4952.5945   -4681.8384   -4952.5945            0    8392.3785    19.577283    19.864678    20.598445    8010.6617    7724.9792    10076.697    7375.4596   -272.24563   -817.95595    437.50355   -3701.3796 
25028000     134.8577   -4971.3308   -4711.2464   -4971.3308            0    6974.1846    19.747206    19.818088     20.43187    7996.0505     7702.602    7164.5207     6055.431    -122.8563    315.65578   -301.17282   -3897.9574 
25029000     143.5238    -4971.261   -4694.4633    -4971.261            0    7735.3441    19.693597    19.827168    20.447293    7984.0188    8104.9919     7125.966    7975.0744   -117.32971    1059.3531   -531.14139   -3793.7697 
25030000    135.54443    -4959.381   -4697.9722    -4959.381            0    6735.4477    19.721079    19.817731    20.637116    8065.5431    8266.6826    5541.1279    6398.5326    479.79349   -272.53813   -7.8789923   -3905.6971 
25031000    143.33555   -4966.8735   -4690.4388   -4966.8735            0    7145.0535    19.757475     19.77775    20.534687    8024.1013     6891.343    7249.3596     7294.458   -248.12491    157.85095    584.89247   -3854.3012 
25032000    138.53475   -4957.4211   -4690.2452   -4957.4211            0    7927.5421    19.834857    19.776139    20.358108    7985.6079    8010.8458    8280.7649    7491.0156   -9.8522271   -488.61471   -449.30094   -3766.9886 
25033000    139.70882   -4977.1285   -4707.6883   -4977.1285            0     5912.113    19.761683    19.797047    20.569295    8047.1807    5199.4753    6014.5815    6522.2823    159.95663    717.88315    301.41736   -4013.8434 
25034000     130.3983   -4955.4449   -4703.9608   -4955.4449            0    8030.3295     19.76869    19.644867    20.410066    7926.3162    7482.4822    9631.9218    6976.5847    210.19353    987.14174    1168.1577   -3775.6772 
25035000    131.36327   -4978.4215   -4725.0764   -4978.4215            0     7467.778    19.814795    19.745916    20.424817    7991.4401      7506.08    7674.9429     7222.311   -138.71753    285.18196    1042.8384   -3854.7296 
25036000    132.56693   -4969.3748   -4713.7083   -4969.3748            0    7732.6101    19.790332    19.837218    20.318386    7976.6963    8226.4166    7595.5978    7375.8161    -226.4931    63.492153    1443.1307   -3814.1588 
25037000    133.88571    -4964.817   -4706.6071    -4964.817            0    6544.4937    19.861619    19.739814    20.441196    8014.2708    6151.2896    6095.5195     7386.672    176.45385    632.45328   -77.028545   -3941.6872 
25038000    140.59274   -4971.6827   -4700.5378   -4971.6827            0    5667.9711    19.857152    19.731421     20.59435    8069.0684    7461.7906    5130.8688    4411.2537   -359.85257    516.10726   -1318.7979   -4033.5362 
25039000    127.24641   -4963.5428   -4718.1374   -4963.5428            0    5712.4439    19.924605    19.787177    20.435615    8056.7757    5251.5747    6184.4202    5701.3369   -174.89415     408.1131    641.59466   -4046.9263 
25040000    136.29352   -4969.7295   -4706.8759   -4969.7295            0    6335.3378     19.91198    19.913485     20.28807     8044.563    6899.9104    5136.9096    6969.1933    31.312175    91.881559   -1458.3851   -3963.6033 
25041000    134.80302   -4959.9138   -4699.9348   -4959.9138            0    7427.4014    19.768789    19.855206    20.412028    8011.9941    8177.6808    7690.3901    6414.1333    -116.4529    273.48202   -242.59365   -3832.0674 
25042000    138.18307   -4979.9391   -4713.4415   -4979.9391            0    6149.9934    19.927569    19.683018    20.537475    8055.5101    5078.0633    7411.6851    5960.2318   -176.53858    915.15183    765.14154   -3990.9319 
25043000    141.98689   -4964.7199   -4690.8862   -4964.7199            0    6776.5769    19.604639    19.831662    20.511439    7974.6951    6948.7606    6478.6516    6902.3187    182.35052   -405.53895    472.00512   -3902.7517 
25044000    134.92731   -4981.4017   -4721.1831   -4981.4017            0    7057.7776    19.687521    19.909882    20.482578    8028.6832    7494.9939    6797.0893    6881.2496   -77.269257   -156.56744   -281.66866   -3894.7871 
25045000    132.76583   -4979.5046   -4723.4546   -4979.5046            0    7287.8301    19.733597    19.787427    20.483807    7998.4576    7846.3058    6782.1868    7234.9979   -335.82906    1339.4955   -554.13345   -3873.3343 
25046000    132.63331   -4960.6857   -4704.8912   -4960.6857            0      8771.72    19.843774    19.593823    20.434296    7945.1692    7654.0194    9014.1803    9646.9603    500.37497   -713.66884   -243.44893   -3688.4933 
25047000    141.30895   -4980.5986   -4708.0724   -4980.5986            0    6646.2826    19.779442     19.87697    20.398387     8019.736    6219.6813    6691.4407    7027.7257   -107.31855   -392.27836   -269.68254   -3930.7257 
25048000    129.32442    -4970.259    -4720.846    -4970.259            0    7826.7063    19.806403    19.739145    20.522596    8023.5438    7786.6438    7532.7008    8160.7742   -176.36695    -107.8194    -1145.577   -3805.0027 
25049000    137.64414   -4964.3597   -4698.9014   -4964.3597            0    7779.4679    19.763517    19.761519    20.549032    8025.5709    7851.2587    8751.3391     6735.806    6.4090787   -653.51011    310.24667   -3788.3557 
25050000    130.45812   -4968.5397   -4716.9403   -4968.5397            0    7475.1685    19.728416    19.810584    20.443541    7989.9786    7995.4896    6475.4061    7954.6098    205.78941    10.479934   -50.733959   -3845.8915 
25051000    141.72238   -4941.0126    -4667.689   -4941.0126            0     6687.418    19.951958    19.770911     20.34495    8025.4397    5287.0497    7726.5577    7048.6466    130.80733    873.33308   -183.45901   -3884.9749 
25052000    129.39118   -4966.3955   -4716.8538   -4966.3955            0    6994.3289    19.820972    19.791282    20.440262    8018.3561    8020.3847    6718.6683    6243.9336   -198.65923    227.19258    264.51937   -3898.9404 
25053000     130.7783   -4981.9645   -4729.7475   -4981.9645            0    6337.1693    19.725043      19.8674    20.498025    8032.8754    6746.6419    5639.3703    6625.4959     -276.313    791.84326   -45.775462   -3987.3402 
25054000    139.04644   -4958.7748   -4690.6121   -4958.7748            0    7822.5059    19.727369    19.781622    20.560663    8023.5797    6842.3752    8902.6472    7722.4953   -93.426037   -422.48714    604.91267   -3775.2562 
25055000    136.80961   -4966.8533   -4703.0045   -4966.8533            0    7036.4464    19.662176     19.91869    20.458255    8012.3691       6830.7    7016.6965    7261.9426   -110.28622   -523.83918   -886.62086   -3880.7803 
25056000    141.68212   -4952.1855   -4678.9396   -4952.1855            0    6900.0027    19.649649    19.891053    20.440367    7989.1625     6994.872    6261.1528    7443.9832    9.3071885   -338.37367   -333.80167   -3874.9945 
25057000      126.054   -4968.6115   -4725.5058   -4968.6115            0    7251.0183    19.911446    19.769122    20.388506    8025.5644    6786.3796     7943.115    7023.5602     250.8304    333.72368    355.89506   -3876.8131 
25058000    136.40004    -4965.077   -4702.0181    -4965.077            0     7465.732    19.796106    19.748655    20.432542      7988.03    5846.9631    9158.2405    7391.9924    286.66603   -176.59599    1047.8077    -3832.281 
25059000    131.98045   -4961.0817   -4706.5463   -4961.0817            0    7434.7997    19.811888    19.819759      20.3525    7991.7519    6829.2261    7950.1152    7525.0577   -59.868417    1250.6541   -139.96391   -3840.0092 
25060000    139.03025   -4975.1296    -4706.998   -4975.1296            0    5490.8709    19.749431    19.890533    20.415398    8019.7133    5432.8464    4906.2399    6133.5264   -38.790168   -337.71853    12.120478   -4064.7897 
25061000    143.11876   -4967.4583   -4691.4417   -4967.4583            0    8410.3825    19.723324    19.751554    20.421071     7955.361    8436.2421    8758.6191    8036.2863   -864.31679    1156.4298    109.92485   -3715.6626 
25062000     139.0542   -4954.1474   -4685.9697   -4954.1474            0     6337.892    19.730746     19.85892    20.560886    8056.3988    6901.2074    6199.7773    5912.6913    127.81183    903.30828    1374.0779   -3941.3034 
25063000     135.6182   -4950.3879   -4688.8368   -4950.3879            0    8051.1528    19.728354    19.856305    20.412359    7996.1784    7878.1146     7738.655    8536.6889    109.43782   -961.46392   -777.60902   -3749.9431 
25064000    132.91549   -4957.1805   -4700.8417   -4957.1805            0    6877.7392     19.90132    19.800554    20.351869    8019.7996    6530.7278    6246.2693    7856.2206   -1.3113102    107.43227    207.17782   -3896.4176 
25065000    136.62387   -4975.8176    -4712.327   -4975.8176            0    8245.1189    19.849668    19.726823    20.444773     8005.578    8232.7199    7265.8855    9236.7514   -228.94843      486.152   -157.00279   -3749.6834 
25066000    139.38527   -4949.6287   -4680.8125   -4949.6287            0    7598.9168    19.721574    19.832169    20.449714    7998.3246    7011.7468     7227.612    8557.3917   -761.80204    627.58853    1883.9415   -3794.4189 
25067000    131.88581   -4969.2846   -4714.9317   -4969.2846            0    7115.8187    19.711222    19.760411    20.627905    8034.6072    6332.6615    8290.1089    6724.6857   -775.91567    23.676831   -280.93564    -3881.125 
25068000    138.43483   -4971.7989   -4704.8157   -4971.7989            0    7895.9282    19.594262    19.836877    20.592008     8003.886    8837.6383    7393.0245    7457.1218   -224.24153    161.23211   -530.03994   -3783.1361 
25069000     128.6123   -4975.3928   -4727.3532   -4975.3928            0    7439.9108    19.835538    19.700136    20.532188    8023.2157    7028.5811    8038.3141    7252.8373   -937.66578    1306.3078    2821.6373   -3856.8064 
25070000    141.02931     -4968.97   -4696.9832     -4968.97            0    6545.1551    19.603987    19.756454    20.613166    7983.5878    7042.0811    6977.5846    5615.7997   -621.71583    372.11573   -1038.7507   -3934.9148 
25071000    141.78338   -4973.0726   -4699.6314   -4973.0726            0    5849.7138    19.691439    19.996984    20.399009    8032.5053    6453.0375    4666.0327    6430.0714   -39.186579   -303.50681   -359.68399   -4014.3617 
25072000    151.50543   -4962.1368   -4669.9458   -4962.1368            0    8350.5583     19.69171    19.749088    20.451774    7953.5584     7857.939    9287.0299     7906.706    85.600799    1156.2476    -286.9021   -3701.3271 
25073000    130.33344   -4968.7953   -4717.4363   -4968.7953            0     7827.618    19.720749    19.723109    20.448658    7953.5969    7845.6314    6773.6659    8863.5567    100.38714    1431.5212    -27.39091   -3809.4714 
25074000    128.53771   -4968.6197   -4720.7239   -4968.6197            0    6949.5193    19.854821    19.845311    20.424054    8047.5898    6288.5303    6862.1684    7697.8591   -39.839526    529.79041     340.4586   -3905.0877 
25075000    138.02255   -4975.2383   -4709.0502   -4975.2383            0    8557.6451    19.598266    19.897455    20.425399    7964.9989    8911.8939    7864.0585    8896.9829    66.379491    1020.6336    67.202128   -3714.9826 
25076000    140.84493   -4978.5294   -4706.8981   -4978.5294            0    7017.8646    19.654227    19.828496    20.572357    8017.3302    6862.1377     7675.354    6516.1022    246.98009   -92.216665   -406.63269   -3886.3376 
25077000    129.74309   -4977.6723   -4727.4519   -4977.6723            0    7450.2695    19.634497    19.829214     20.58946    8016.2311    9222.7557    6030.8218    7097.2309   -497.40779    266.39188   -354.41936    -3856.452 
25078000    141.92191   -4956.6277   -4682.9194   -4956.6277            0    7796.6689    19.642621    19.888671    20.481719    8001.5034    9309.6044    5992.6457    8087.7566   -215.75011   -165.58829    1074.6517   -3773.0971 
25079000    137.38714   -4983.8152   -4718.8525   -4983.8152            0     6891.568     19.80643    19.884598      20.3911      8030.89    7321.6637    6458.6959    6894.3443    400.42018    239.13012    1254.3167   -3911.6963 
25080000    137.60145   -4956.0978   -4690.7218   -4956.0978            0     6265.199    19.780161    20.066933    20.267887     8044.875    7610.6391    4072.0894    7112.8684   -419.54542    334.69468    300.58906   -3955.6495 
25081000    138.18952   -4960.4543   -4693.9442   -4960.4543            0    7946.8334    19.902133    19.740929    20.403439    8016.2374    7996.6279    7769.3292     8074.543    2.0542067   -272.85699   -219.90527    -3764.891 
25082000    127.36401   -4970.7087   -4725.0764   -4970.7087            0    6416.5822    19.780086    19.939668    20.456592    8068.2508    7163.7805    4653.6105    7432.3555    -450.1162   -117.33264    19.027988   -3970.0554 
25083000    136.85321   -4965.4367   -4701.5038   -4965.4367            0    6183.2528    19.660564    19.842409    20.654904    8057.7452    7365.9906    6349.4226    4834.3451   -151.03029   -113.74414    577.39388   -3974.8854 
25084000    142.96886   -4959.9495    -4684.222   -4959.9495            0    8037.6334    19.670266    19.888123     20.48334    8013.1782    9409.8327     7382.978    7320.0895   -163.86423   -124.45875   -839.90526   -3744.9122 
25085000    132.11684    -4966.843   -4712.0446    -4966.843            0    7770.3918    19.809805    19.806545    20.374454    7994.1978    7743.1941    7154.5302    8413.4512    -623.3718    713.03509   -144.87088   -3806.1166 
25086000    138.77063   -4975.0081   -4707.3772   -4975.0081            0    6931.9421     19.78377    19.925784    20.241168    7979.2127    6152.5049    7139.5971    7503.7244   -158.72205   -625.42989   -139.79303   -3900.7166 
25087000    133.77342   -4970.9674   -4712.9741   -4970.9674            0     6996.478    19.818234    19.856994    20.390729     8024.375    6832.0445    6923.8932    7233.4964   -483.71688   -363.63014    92.796842   -3894.1953 
25088000    136.51686   -4965.7685   -4702.4842   -4965.7685            0    9051.8224    19.845185    19.746919    20.444035    8011.6343    9045.7307    9040.6457     9069.091   -388.92887   -143.04525   -527.96175    -3644.856 
25089000    133.58586   -4986.3549   -4728.7233   -4986.3549            0     7479.762    19.827871    19.714996    20.434534    7987.9901    8107.3188    7754.0408    6577.9264   -473.34878    855.79834    91.585972   -3857.3562 
25090000    136.66774   -4972.0909   -4708.5157   -4972.0909            0    7286.7626    19.872457    19.783291    20.325133    7990.6759    7795.2764    6657.9973     7407.014    80.471511    165.83666   -925.18828   -3859.3469 
25091000    123.71908   -4955.8961   -4717.2935   -4955.8961            0    6631.0635    19.695897    19.940727     20.46098    8036.0599    7454.7432    6014.9806    6423.4669     -212.723    28.279651    455.42032   -3940.1481 
25092000    132.89981   -4969.6763   -4713.3678   -4969.6763            0    6053.4353    19.816271    19.901754    20.404778    8047.2065    5604.2298    6396.6581    6159.4179     55.76515    1253.2031    597.24428   -4002.9351 
25093000    141.72785   -4969.9562   -4696.6221   -4969.9562            0    5578.2167    19.890088    19.864356    20.492907    8096.8252    5346.7422    5411.0057    5976.9021   -647.60348   -200.79925    28.286077   -4037.9245 
25094000     131.4698   -4955.6827   -4702.1322   -4955.6827            0    7764.9246    19.952774    19.645515    20.357486    7979.7787    6219.5583    10095.808    6979.4076    157.30141   -181.97242    353.91143   -3798.4744 
25095000    132.55299   -4986.4824   -4730.8428   -4986.4824            0    5999.1628    19.806689    19.765169    20.517223    8032.1348    6463.2004    5056.7052    6477.5826    264.32286   -565.03597    -529.7084   -4028.0982 
25096000    135.19574   -4957.9794    -4697.243   -4957.9794            0    8313.0962    19.660036    19.818098    20.529716    7998.8805    7173.5231    9868.0154    7897.7501   -777.68813    1072.4535   -972.27806   -3727.4749 
25097000    137.15914   -4973.2279    -4708.705   -4973.2279            0    6544.1137    19.786972    19.909488    20.433894    8049.9016    7154.6741    5860.6685    6616.9984    539.34924    1063.7155    4.2796438   -3940.4289 
25098000    136.94576   -4970.5792   -4706.4678   -4970.5792            0    6921.9707    19.616366    19.904874    20.618218    8050.6159    8711.2698    6271.4438    5783.1984   -494.92727    42.911278     565.0711   -3893.7594 
25099000    134.14579   -4964.5724    -4705.861   -4964.5724            0    6589.5499    19.708381    19.829818    20.481876    8004.5959    4639.9541    8838.4325    6290.2632   -373.38464    1110.8241    -214.5752   -3936.6047 
25100000    136.04829   -4970.4064   -4708.0258   -4970.4064            0    6898.1394    19.708197    19.925896    20.512379    8055.2824    6895.8005      6990.21    6808.4079    56.650119    408.26793    526.69311    -3897.646 
25101000    132.80121   -4982.3404   -4726.2221   -4982.3404            0    7278.3322    19.741917    19.866104     20.39264    7997.8912    6816.5879    7097.3407     7921.068   -7.2835994   -384.94806    376.36878   -3877.2699 
25102000     134.3965   -4965.5439   -4706.3489   -4965.5439            0    5952.7425    19.814377    19.896932    20.437266    8057.2961    5848.2126    6276.1579    5733.8569   -1016.0437   -688.83231   -1173.9686   -4006.8576 
25103000    136.89059   -4958.6589   -4694.6539   -4958.6589            0    6857.9275    19.768915     19.88522    20.353923    8001.3151    6941.1855    6677.0735    6955.5235   -517.11275   -436.77259    -498.0675   -3894.3956 
25104000    139.62962   -4968.5905    -4699.303   -4968.5905            0    8018.9432    19.806729    19.785018    20.400731     7994.567    7452.1429     7937.225    8667.4619    164.80491   -65.961673   -1187.1294   -3764.3539 
25105000    145.70032   -4961.8454   -4680.8501   -4961.8454            0    6659.1824    19.754174    19.765038    20.567828    8030.5439    6910.5499    6965.9662     6101.031   -527.13405   -579.06132   -859.27336    -3900.945 
25106000    133.25103    -4980.505   -4723.5192    -4980.505            0    6115.3786    19.796319    19.830869    20.472874    8037.2044     6308.396    6062.7719    5974.9678   -913.94125   -162.66295    284.64569   -4006.7089 
25107000    136.41916   -4971.7906   -4708.6948   -4971.7906            0    6311.3484    19.902258    19.832727    20.434355    8065.7677    6135.3712    5921.3477    6877.3264   -212.50951    -318.4767   -953.53202   -3966.2849 
25108000    138.49383   -4959.7305   -4692.6335   -4959.7305            0    7382.0022    19.740371    19.739658    20.518732    7995.4972    7918.0581    7233.9762    6993.9724   -428.89947    724.99845    16.176101   -3831.8469 
25109000    141.14303   -4977.7573   -4705.5511   -4977.7573            0    6392.7087    19.915326    19.591197    20.620167    8045.2688     4934.854    7287.5099    6955.7623    146.89815    1436.3893   -341.24417   -3955.4818 
25110000    140.30198   -4962.8487   -4692.2646   -4962.8487            0    7501.0444    19.837949    19.813072    20.383718    8011.8349     6189.273    8392.8284    7921.0318   -410.95542   -59.722773    924.58733   -3815.8096 
25111000    137.75686   -4955.0635   -4689.3878   -4955.0635            0    7172.3194    19.880101    19.827818    20.370187    8029.5003    7764.8772     6007.172    7744.9089    244.87104    952.83826    144.25842   -3849.4947 
25112000    139.03193   -4968.7064   -4700.5716   -4968.7064            0    6364.7372    19.736785    20.014864    20.428912    8070.0141     6511.696    4772.7023    7809.8131   -213.84028    536.51196   -883.43506   -3951.4874 
25113000     133.9405   -4967.1305    -4708.815   -4967.1305            0    7623.6241     19.57743    19.780892    20.515469    7944.8006    7528.4883    7315.5439    8026.8401    34.261353     480.7974    723.33148   -3825.4903 
25114000    142.14011   -4972.0755   -4697.9463   -4972.0755            0    6931.8959    19.798449    19.735322    20.560943    8033.7517    5295.5166    9658.6017    5841.5695    114.16052   -290.72066    176.70497   -3885.7775 
25115000    136.38216   -4970.7563   -4707.7318   -4970.7563            0    5463.8895    19.735561    19.799569    20.505214    8012.5273    5654.4468    4964.0015      5773.22   -42.025372   -905.51385    954.47318   -4069.2518 
25116000    129.83602   -4970.2017    -4719.802   -4970.2017            0    7456.1891    19.799034    19.829239    20.391533    8005.7114    6821.4816    7497.0923    8049.9936   -169.16419    819.10941   -612.45587    -3849.254 
25117000    131.78849    -4973.364   -4719.1988    -4973.364            0    7273.8663    19.875567    19.892959    20.230746    7998.9101    6938.8324    6683.4827    8199.2837   -138.78542    77.560127    258.72737   -3870.6594 
25118000    130.46712   -4965.3532   -4713.7364   -4965.3532            0    7717.2154    19.660626    19.970811    20.317342    7977.3737    7660.4864    7014.4055    8476.7543    85.570301    529.82348   -222.57665   -3815.9016 
25119000    138.60352   -4979.3613   -4712.0528   -4979.3613            0    8897.7376    19.636747    19.764449    20.536029    7970.2279    10265.552    7483.5585    8944.1022    260.05744    668.44114    319.20067   -3677.8011 
25120000    140.90942   -4971.3942   -4699.6385   -4971.3942            0    7803.7357    19.769715    19.695991    20.581019     8013.922    7425.4849    8534.6278    7451.0944    263.31485    29.519855     -1561.61   -3787.5782 
25121000    133.67057   -4978.1777   -4720.3827   -4978.1777            0    7324.4934    19.848175    19.598162    20.584463    8007.1039    7485.5922    7746.8516    6741.0366   -93.182903    392.22138   -602.63172   -3865.0621 
25122000      143.314   -4968.4934   -4692.1003   -4968.4934            0    7718.2711    19.743282    19.792794    20.486762    8005.7087    7680.1134     8076.389     7398.311   -711.44469   -78.203035    627.71666   -3790.9531 
25123000    136.25337   -4963.0371    -4700.261   -4963.0371            0    8221.6692    19.790146     19.78529    20.395647    7985.9928    7440.5472    8140.1107    9084.3498    90.756874    222.25198   -1094.7602   -3742.7036 
25124000    135.40048   -4959.0201   -4697.8889   -4959.0201            0    6974.5639    19.568988    19.881821    20.508673    7979.2503    8480.8544    5869.3518    6573.4855   -642.36649    245.67448   -50.803854   -3886.2646 
25125000    136.00016   -4951.9707    -4689.683   -4951.9707            0    5355.0487    19.912397    19.740133    20.398586    8018.1411    4673.2719    5434.0395    5957.8347    102.77633    163.74837    483.80792   -4063.4831 
25126000    131.39008   -4978.9484   -4725.5516   -4978.9484            0    6442.2621    19.766322    19.931093    20.399052    8036.5003    7716.3278     5593.498    6016.9605    105.70619   -602.05836   -271.43117    -3970.492 
25127000    129.59429   -4967.2547   -4717.3212   -4967.2547            0     6196.255    19.903003    19.637761    20.628103    8062.5029    6879.2993    6077.8191    5631.6465    761.57999    146.93079   -57.203392   -3988.7449 
25128000    141.75525   -4984.7216   -4711.3347   -4984.7216            0    7174.7984     19.75635    19.797919    20.444647    7996.6091    6952.6134    6547.0311    8024.7506    234.95202   -1197.0631   -286.10527   -3874.5929 
25129000    138.99748   -4950.4266   -4682.3582   -4950.4266            0    7686.4036     19.82612    19.859508    20.310311    7996.9206    5985.2091    8675.8703    8398.1314    167.63647    241.91508    182.85674   -3785.9169 
25130000    127.83295   -4972.8501   -4726.3135   -4972.8501            0    6931.6332    19.871681     19.75068    20.395415    8004.7763    7683.5352    6973.1668    6138.1975     160.0328   -710.00421   -172.90951   -3917.1046 
25131000    129.70892    -4976.832   -4726.6774    -4976.832            0    6424.6946    19.894989      19.7857    20.355421    8012.6321    5881.2308    5377.5019     8015.351   -397.81441   -112.82297   -260.46625   -3975.9132 
25132000    138.10925   -4953.4615   -4687.1062   -4953.4615            0    7613.3665    19.741751    19.755398    20.548308    8013.9669      7718.63    8025.3399    7096.1295    506.95641   -565.79503    164.75354   -3797.2903 
25133000    139.61963   -4953.0267   -4683.7585   -4953.0267            0    8436.0554    19.970617    19.567929    20.345047    7950.5115    8648.6964    8025.5819    8633.8878    477.49324    665.09182   -1340.4424   -3705.5974 
25134000    134.68178   -4977.8949   -4718.1497   -4977.8949            0    5739.9067     19.85442    19.945895    20.308936    8042.6263    5935.0497    5054.6622    6230.0083    221.12055     720.0365    276.69853   -4044.8963 
25135000    135.99553   -4967.5358    -4705.257   -4967.5358            0    7354.1341    19.658087    19.931584    20.439768    8008.6448    8358.3922    5931.6898    7772.3203   -188.59178    188.09341    620.90288   -3846.3098 
25136000    140.90381   -4975.8312   -4704.0863   -4975.8312            0    6570.4899    19.823808    19.843226    20.467397    8051.2251    6132.1739    7244.8779     6334.418   -153.55774    1000.5225    417.15708   -3932.5869 
25137000    131.65219   -4973.1909   -4719.2886   -4973.1909            0    6261.6295    19.721878    19.772467    20.662623    8057.3932    6779.8422     6468.438    5536.6082   -627.32833    707.22929   -405.03255   -3983.4919 
25138000    136.47674   -4981.5802   -4718.3733   -4981.5802            0    6174.4587    19.844087    19.790955    20.551105    8071.1062    4806.4743     7696.182    6020.7197   -246.59957    291.42078    -403.5753   -3991.5852 
25139000    126.83887   -4971.1162   -4726.4968   -4971.1162            0    8417.6388    19.776859    19.820232    20.399894    7996.3895     7895.191    8886.8476    8470.8776     69.55362   -289.35956    589.78258    -3744.839 
25140000    138.12364   -4967.9599   -4701.5769   -4967.9599            0    6377.0356    19.806025    19.874488    20.419533    8037.8346    8086.0795     4725.193    6319.8342   -244.33858   -971.33541    281.95061    -3954.038 
25141000    140.34697   -4979.2478   -4708.5769   -4979.2478            0    7769.0924    19.837027    19.850695    20.320244    8001.6808    6469.1183    8264.5364    8573.6224    89.690712    -443.3641    693.32931   -3801.9525 
25142000    135.15567   -4966.4148   -4705.7557   -4966.4148            0    6371.0273    19.859202    19.774599    20.400804     8011.554    6249.3428    6639.7267    6224.0126   -107.58655    214.79086   -1101.2958    -3961.363 
25143000     139.3459   -4980.6092   -4711.8689   -4980.6092            0    6252.7682    19.797341    19.829979    20.447406    8027.2603    6913.8553    7241.2699    4603.1795   -71.920386    518.74362    15.173956   -3979.8613 
25144000    137.22167   -4965.4259   -4700.7824   -4965.4259            0    7236.6066    19.702428    19.876004    20.397187    7987.6511      7275.95    5788.5931    8645.2765    388.29792    800.53159   -1185.6435   -3857.7778 
25145000    138.11713   -4969.8092   -4703.4387   -4969.8092            0    7735.2532    19.742036    19.877748    20.404178    8007.1547    9248.8041    7125.7515    6831.2039   -301.31182     1899.512   -370.70795   -3800.1457 
25146000    131.60352   -4970.0257   -4716.2173   -4970.0257            0    6936.2671    19.742986    19.748523    20.547869    8011.5075    6395.5872    7365.6013    7047.6127   -268.43161    406.18619    56.757209   -3905.7865 
25147000    131.78984   -4970.4019   -4716.2341   -4970.4019            0    8145.9331    19.745535     19.63194    20.551675    7966.7157    6199.7393    9983.5585    8254.5016   -356.41987   -439.09556     107.0361   -3769.7877 
25148000    137.11682   -4985.2783    -4720.837   -4985.2783            0    6246.2343     19.81044    19.781393    20.553069    8054.2975    5476.1763    7534.3806    5728.1458    252.69428   -766.39209   -355.45422   -3987.1314 
25149000    140.55293   -4962.4304   -4691.3622   -4962.4304            0    9059.8301    19.629584    19.824553    20.524553    7987.0832    10378.857    7871.9349    8928.6985    387.28224    1129.9305    618.65928   -3636.0422 
25150000    135.50457   -4976.6577   -4715.3257   -4976.6577            0    6074.0868    19.768912    19.885983    20.480896    8051.5366    7253.4734    5002.3757    5966.4114   -393.04107    1098.1836   -488.79803   -4002.0858 
25151000    141.18766   -4954.4237   -4682.1314   -4954.4237            0    7857.4885    20.044958    19.740904    20.229213    8004.8125    8548.6409    6066.7895    8957.0351   -166.36646    299.73741    236.87709   -3764.8326 
25152000    141.87244   -4973.7581   -4700.1451   -4973.7581            0     5934.281    19.831212    19.900422    20.395635    8049.1265     5428.249    6406.2758    5968.3181     207.0477   -1085.4886   -92.406854   -4003.5303 
25153000    139.78685   -4971.2704   -4701.6797   -4971.2704            0    7823.7229    19.588563    19.887717    20.422626    7956.0789    8601.8643    6584.9169    8284.3874    350.70929    1163.4511   -488.06592   -3793.8834 
25154000    132.72814   -4962.4246   -4706.4472   -4962.4246            0    5953.1349    19.877585    19.536894    20.697282    8037.7125    4972.5083    7954.7579    4932.1384    33.982166    757.34297   -547.11323     -4008.61 
25155000    135.10768   -4968.7158   -4708.1493   -4968.7158            0    7362.4786    19.668581    19.768379    20.580154    8001.8926    8443.8904    6592.9843    7050.5613   -162.01213     383.9348     881.2083   -3848.9525 
25156000    132.94432   -4975.2761   -4718.8818   -4975.2761            0     6887.147    19.775822    19.645942    20.670079    8030.6289    7048.2575    8039.9622    5573.2212    493.24948    750.78443   -970.00682   -3912.2695 
25157000    139.58429   -4972.9115   -4703.7115   -4972.9115            0    7064.2283    19.853806    19.761368    20.468497    8030.5768    7159.4927     7282.865    6750.3272   -158.33352    705.20848     34.84306   -3876.3651 
25158000    131.49943   -4980.7914   -4727.1837   -4980.7914            0    6520.7442    19.815766    19.793918    20.410867     8005.788    6376.8765    6782.7588    6402.5971   -199.53697    1194.3988    -22.41552   -3965.8464 
25159000    135.09461    -4983.128   -4722.5867    -4983.128            0    5388.7346    19.859196    19.773882    20.526743    8060.7167    2118.0692    7689.3746    6358.7601   -254.28651      699.208    330.23545   -4089.1017 
25160000    139.59833   -4969.1597   -4699.9326   -4969.1597            0    7325.2442    19.817292    19.735009    20.424179    7987.7826    9232.5497    5609.8286    7133.3542    540.02589    1362.6899     451.8156   -3846.5884 
25161000    133.84171   -4974.3168   -4716.1918   -4974.3168            0     8125.259    19.806943    19.817268    20.425484    8017.4005    8737.0657    7977.3541    7661.3573   -499.86605   -125.34653   -706.02998   -3766.1413 
25162000    133.01977   -4958.3735   -4701.8337   -4958.3735            0    7376.1333     19.88171     19.72281    20.389608    7995.2379    6609.8529    8609.1675    6909.3795    21.062326   -384.04257   -223.24493   -3841.7593 
25163000    133.42252   -4958.3235   -4701.0069   -4958.3235            0    7015.4417    19.784648    19.799352    20.474705    8020.4169    6354.3426    7228.3017    7463.6809   -243.52541   -365.86162   -133.27857   -3880.4138 
25164000    136.71663    -4978.679   -4715.0095    -4978.679            0    6872.2325    19.839304    19.648604    20.610355     8034.218    6528.6376    7553.3733    6534.6867   -184.30999    102.60524   -448.16556   -3909.7843 
25165000    133.73934   -4968.6166   -4710.6891   -4968.6166            0    7110.0668    19.890192    19.824928    20.352843    8025.5661     6547.678    7864.4875    6918.0349   -684.63856   -69.452101    1376.4071   -3878.4938 
25166000    134.75401   -4962.4788   -4702.5943   -4962.4788            0    6939.0589     19.88178    19.897635    20.372701    8059.4485    8068.7998    5933.8518    6814.5252   -5.3715153    514.06225   -922.66607   -3886.9857 
25167000    134.97794   -4964.9239   -4704.6076   -4964.9239            0    7675.4603    19.843683    19.779581    20.344341    7985.1484    7707.6424    7800.7521    7517.9862   -404.64673    186.95611   -169.22395   -3810.7603 
25168000    134.72196   -4949.3242   -4689.5016   -4949.3242            0    6307.8791    19.721412    19.771191    20.638904    8047.4348    5045.3268    7254.4358    6623.8747    121.41799    638.65168    194.88611   -3949.1863 
25169000    143.70201   -4962.9716   -4685.8302   -4962.9716            0     7415.015    19.744439    19.766611    20.465327    7987.2208    7205.5011    7506.9869     7532.557   -1070.2636    1855.3943   -242.67907    -3822.089 
25170000    136.61077    -4965.119   -4701.6536    -4965.119            0    7335.8841    19.772511    19.754679    20.510737    8011.4863    6838.1199    7156.9486    8012.5839     390.4143    389.70606   -655.48963    -3844.534 
25171000    138.62693   -4962.0839   -4694.7302   -4962.0839            0    7872.9433    19.637059    19.813537    20.515453     7982.144    8958.4909    6674.0975    7986.2416   -504.82025   -1479.2553    473.75504     -3778.23 
25172000    138.93495   -4982.4731   -4714.5254   -4982.4731            0    6606.7043    19.935904    19.722839    20.429767    8032.8337    5818.4385    7751.9023     6249.772   -607.03319    -464.1548   -507.86013   -3940.5457 
25173000    131.81379   -4974.7666   -4720.5526   -4974.7666            0    7263.7285    20.004296    19.675025    20.357077    8012.2407    7047.4001    7714.0706    7029.7149   -168.18464    376.07122    1089.3925   -3871.7837 
25174000    139.14946   -4971.9894   -4703.6279   -4971.9894            0    7046.3881    19.781907     19.74223    20.464986    7992.3742    5369.3188    7944.1355      7825.71   -693.55211     72.65702   -291.81607   -3882.2968 
25175000    137.66248   -4975.2449   -4709.7512   -4975.2449            0    7811.3274    19.857079    19.605991    20.519379    7988.5576    7555.4586    7987.0232    7891.5006    -107.1021    183.40517    523.26506   -3799.6931 
25176000    129.64964   -4973.5432    -4723.503   -4973.5432            0    7088.2739    19.876024    19.775708    20.408083    8021.6511    6272.8493    8384.6267    6607.3455   -355.55246   -746.40208   -924.96493   -3894.2631 
25177000    136.53453   -4968.4856   -4705.1672   -4968.4856            0    7984.9579      19.8662    19.817334    20.382416    8024.4577    7737.5341     6998.369    9218.9704    81.957126    666.02894    -517.4745   -3770.6997 
25178000    134.95769   -4968.3424   -4708.0651   -4968.3424            0    6879.0282    19.884049    19.769292    20.440899    8035.1859    6462.8394    6759.2419    7415.0034   -291.28887    753.72943   -1316.0615   -3901.9466 
25179000    139.11925   -4964.8193   -4696.5162   -4964.8193            0    6838.8444    19.894993    19.759939    20.510359    8063.1116    5958.6182    8651.5476    5906.3675   -397.83912    1010.9686    382.69463   -3892.3213 
25180000    137.59038   -4957.6296    -4692.275   -4957.6296            0    8445.3404    19.796976    19.715495    20.416353    7968.6492    7580.2682    8923.0617    8832.6914   -5.5517038     771.2965    178.79672   -3710.8033 
25181000    137.21091    -4974.946   -4710.3232    -4974.946            0      8284.04    19.700139    19.880335    20.421987    7998.1766    8486.3181    7885.4403    8480.3617   -990.72777    438.42392    52.986424   -3744.0297 
25182000    129.86154   -4957.3533   -4706.9044   -4957.3533            0    7429.2598    19.634563    19.704774    20.679237    8000.6857    8589.7807    7836.3755    5861.6233     422.0426    -126.1676     688.0975    -3840.045 
25183000    136.08184   -4986.9204   -4724.4751   -4986.9204            0    6398.2407    19.826421    19.752318    20.480339    8020.4646    8016.3371      5447.47     5730.915   -127.74983   -28.542558   -142.91226   -3976.0713 
25184000    130.03908   -4973.2371   -4722.4458   -4973.2371            0    7112.0945      19.7311    19.765044    20.567683    8021.1094    5212.2468    9436.9814    6687.0552   -19.877531    720.59389   -257.33685   -3890.4755 
25185000    139.37678   -4957.1819   -4688.3821   -4957.1819            0    7848.5082    19.613809     19.86878    20.417213    7956.6382    8808.1692    6385.3601    8351.9952   -251.49011    239.77326   -844.54626   -3777.6459 
25186000    141.25952   -4961.8349    -4689.404   -4961.8349            0     8386.713    19.722721    19.833622    20.395553    7978.1897    8172.2036    8732.1251    8255.8102   -104.41042    1286.7919   -100.01697   -3713.5788 
25187000    128.28051   -4959.0448    -4711.645   -4959.0448            0    7366.0705    19.679056     19.98248    20.402421    8022.9732    7861.9212    6932.8625    7303.4276    4.6797257     207.8491    610.49165   -3849.7644 
25188000    137.99216   -4959.8034   -4693.6739   -4959.8034            0    7490.4382    19.950154     19.71251    20.346864    8001.7625     7736.525    6934.0001    7800.7894   -377.60219    294.25221   -462.03278   -3819.5585 
25189000    131.99598   -4977.9361   -4723.3708   -4977.9361            0    7312.0086    19.631598     19.86864    20.503493    7997.4524    8658.5145     5436.271    7841.2403    136.95869    1057.0684   -547.25123   -3870.5373 
25190000    131.33102   -4931.4676   -4678.1847   -4931.4676            0    7519.7994    19.718272    19.732906    20.541442    7992.6508    7526.3177    7482.9106    7550.1698   -175.85644   -447.63019    157.96752   -3801.6422 
25191000    134.41227   -4965.4113   -4706.1859   -4965.4113            0    7754.9756    19.846365    19.729752    20.495056    8025.1235    6989.7262    9080.1933    7195.0072     3.189996    42.121802    89.196102   -3798.5576 
25192000    134.15888   -4963.7812   -4705.0445   -4963.7812            0    5903.6178    19.897391    20.015216    20.249854    8064.5161     5250.086    5188.4215    7272.3458   -292.33524    1049.6419    975.33039   -4010.7041 
25193000    137.93254   -4963.4323   -4697.4178   -4963.4323            0     6439.335    19.576047    19.904436     20.53289     8000.644     6659.648     6049.156    6609.2011    374.00912    303.56554    756.38767   -3946.0685 
25194000    137.24914   -4961.1228   -4696.4263   -4961.1228            0    7443.7358    19.880139    19.844819    20.372588     8037.348    7219.1604      7990.64    7121.4071    68.317312    235.24508    455.62944   -3823.8978 
25195000    133.42515   -4963.5946    -4706.273   -4963.5946            0    8156.7443    19.607832    19.981624     20.43362    8005.8173    11514.224    5099.0188    7856.9898    -235.2698    796.54483    1015.1634   -3753.9189 
25196000    137.86709   -4977.6636   -4711.7753   -4977.6636            0    7047.4641    19.828345    19.724258    20.562197    8041.8626    5730.9871    8075.9263    7335.4788    56.125843   -492.34016    744.94669   -3885.2324 
25197000    134.94559    -4961.178   -4700.9241    -4961.178            0    8468.7743    19.684449    19.867186    20.426802    7988.4039    8001.6297     9340.219    8064.4741     260.1132    114.34111   -168.00349   -3714.2893 
25198000    136.32666    -4959.508   -4696.5906    -4959.508            0    7376.4609    19.846398    19.785315    20.350237    7990.8711    7156.2305    6726.8513    8246.3008    568.89513    520.58012    317.83362   -3836.9477 
25199000    131.84151   -4949.1097   -4694.8422   -4949.1097            0    6292.8562     19.88856    19.941374    20.282008    8043.9502     6286.768    5927.4876    6664.3129    -82.90917    309.17225   -550.31527   -3956.6099 
25200000    134.54813    -4964.187   -4704.6996    -4964.187            0    8152.6778    19.742968    19.788646    20.434671     7983.552    7368.0451    8608.3946    8481.5938    -160.1109    485.86147   -876.71649   -3755.4677 
25201000    131.42533    -4960.997   -4707.5322    -4960.997            0     7415.125    19.670347    19.942502    20.353767     7984.293    7423.7977    7282.1709    7539.4065   -58.399334   -563.94904   -156.77994   -3844.0949 
25202000    138.12064   -4969.7434   -4703.3661   -4969.7434            0    7908.8832    19.785901    19.791738    20.382704    7981.8131     6577.231    9251.5618    7897.8569   -486.32927   -371.53657   -936.66306   -3782.7202 
25203000    133.06115    -4972.267   -4715.6474    -4972.267            0    6820.3314    19.785379     19.86753    20.335009    7993.4197     6643.642    6503.7168    7313.6355    333.97034    728.46877    -496.0208   -3920.5616 
25204000    130.90397   -4971.5322   -4719.0728   -4971.5322            0    6690.9398    19.732898    19.961778    20.334148    8009.6968    6260.4889    6926.8437    6885.4869    104.28915    451.83641    616.43882   -3937.4827 
25205000    133.52499   -4972.3086   -4714.7944   -4972.3086            0    8239.8385    19.668009    19.838452    20.340069     7936.346    7899.4026    8140.1669    8679.9459    542.67533   -811.65793   -543.54088    -3761.087 
25206000    129.61548    -4971.236   -4721.2617    -4971.236            0    7386.9294     19.65692    19.949156    20.489578     8034.762    7776.1277    7756.0852    6628.5754   -383.89113    477.79423    679.02162   -3855.6704 
25207000    130.98844   -4962.5634   -4709.9412   -4962.5634            0    6871.9215    19.748046    19.739584    20.581321    8022.9738    6758.2251    7485.4268    6372.1127    226.36837    142.18498    206.42389   -3905.8794 
25208000    135.84005   -4965.7866   -4703.8076   -4965.7866            0    7043.0014    19.791713    19.750088    20.542455    8029.8003    6876.2807    7027.6812    7225.0424    52.496919     600.2093   -760.03845   -3879.0271 
25209000    139.54196   -4973.3287   -4704.2103   -4973.3287            0    7910.4022    19.708552    19.915542    20.349571    7987.3389    7421.4967    8288.9776    8020.7322   -596.27471   -1420.1059     451.5003   -3782.7501 
25210000    141.97698   -4960.4698   -4686.6553   -4960.4698            0    6851.6242    19.649065    19.784764    20.638037    8023.0808    7863.5128    6180.5494    6510.8104   -352.89779    295.40486    515.00838   -3884.9577 
25211000    139.25506   -4980.3777   -4711.8126   -4980.3777            0    6485.6577     19.80758    19.829978    20.519931    8059.8978    5508.8897    7478.0763    6470.0072   -561.21855   -1016.5221    840.07944   -3949.4538 
25212000    140.01705    -4976.743   -4706.7083    -4976.743            0    6078.2496    19.656174    19.876551    20.543084    8026.1201    7276.1434     5976.216    4982.3895   -104.59792    -191.0609    83.070168   -3995.2326 
25213000    136.81802   -4958.2613   -4694.3963   -4958.2613            0    6527.3788    19.790093    19.750271    20.538576    8027.7017    5515.7672    7927.9032    6138.4662   -209.14276   -488.28963    209.42466   -3930.1982 
25214000    140.34966   -4967.5194   -4696.8432   -4967.5194            0    7867.1506    19.716193    19.792407    20.511817    8004.3452    8604.5115    8071.0422     6925.898   -682.11792   -857.83978    202.82154   -3778.4701 
25215000    131.39921    -4986.032   -4732.6176    -4986.032            0     5413.361     19.79691    19.888169    20.454465    8053.4196    5941.7511    5194.7389    5103.5929    53.586383   -75.475679    723.91408   -4096.8137 
25216000    132.61434   -4966.2295   -4710.4716   -4966.2295            0    7210.6056    19.742157    19.807169    20.428212    7988.1712    6378.1217    7566.8845    7686.8107    317.66329    1091.9622   -115.86222   -3870.4412 
25217000    131.94962   -4980.4662   -4725.9903   -4980.4662            0    8950.3967     19.80383    19.814835    20.401942    8005.9185    8727.0356    9410.5891    8713.5655    58.493316   -42.511505   -130.54294   -3680.9589 
25218000    142.73638   -4969.5817   -4694.3026   -4969.5817            0    7653.6412    19.666884    19.890867    20.434371    7993.7497    6763.0214    8383.3262    7814.5758    637.18327     312.5794   -455.41391   -3802.0362 
25219000    135.82039   -4960.3421    -4698.401   -4960.3421            0    6675.2753     19.68183    19.867046    20.471264    8004.6699    6665.5921    6427.1268    6933.1071    -58.33316    973.59659   -317.21779   -3919.1301 
25220000    128.56155   -4964.7847   -4716.8429   -4964.7847            0    8315.7852    19.688676    19.851033     20.39817    7972.4325    7632.3062    9481.3433    7833.7061   -84.392675   -794.06295    637.56019   -3749.9687 
25221000    133.83969   -4965.7972   -4707.6761   -4965.7972            0    8878.1384    19.753239    19.693347    20.521139     7982.875    7972.5537    9707.4392    8954.4222    88.457839   -435.53288   -292.74514   -3674.0651 
25222000    131.24564   -4973.7612   -4720.6429   -4973.7612            0    6702.8464    19.754842     19.84048     20.52781    8045.7841    8000.6401    5646.9362     6460.963   -30.030371    807.03211    730.31686   -3934.1342 
25223000    135.80855    -4975.538   -4713.6198    -4975.538            0    7615.2803    19.849911    19.792302     20.32289    7984.3642    7165.0999    6639.1314    9041.6097   -263.72764   -1170.0307   -968.50578   -3826.8679 
25224000    136.77292   -4968.4745   -4704.6964   -4968.4745            0    7752.5781    19.757152    19.847809    20.395557    7997.8356    8339.9169    7631.7496    7286.0679   -135.66063    666.70539     12.36898   -3800.4339 
25225000    131.88367   -4971.5659   -4717.2171   -4971.5659            0    7483.4223    19.711865    19.679222    20.656074    8012.7838    7460.2755     7611.764    7378.2273   -64.351174   -95.711901   -16.568718   -3842.7176 
25226000    137.20008   -4972.3153   -4707.7134   -4972.3153            0    7654.9005    19.915789    19.804914    20.317527    8013.8524    6529.7659    7543.1847    8891.7509   -271.12945    459.16737   -841.19245   -3813.0559 
25227000    146.24046   -4960.0562   -4678.0192   -4960.0562            0    6441.6053    19.671113    19.893652    20.533342    8035.3183    6489.1962    6968.2699    5867.3498   -78.491919   -768.37297   -608.85055   -3923.1476 
25228000    139.90852   -4968.2161   -4698.3908   -4968.2161            0    6499.1655    19.686819    19.911317    20.497747    8034.9217    7100.5617    5473.5883    6923.3464   -233.77069    1290.5763    442.39406   -3936.8115 
25229000     146.0382   -4977.2612   -4695.6143   -4977.2612            0     8417.509    19.734769     19.69146    20.566326    7992.2063    8750.9687    8206.6831    8294.8751   -185.96494    446.87298   -103.27165   -3714.4852 
25230000    139.50277   -4964.2645   -4695.2217   -4964.2645            0    5890.9203    19.784013    19.915152    20.528564    8088.2874    5062.1972     5308.561    7302.0026    446.24798   -428.99934   -341.65918   -4000.3324 
25231000    142.19806    -4967.575    -4693.334    -4967.575            0    7207.0709    20.098461    19.757968    20.210985    8025.8784    5146.3525    7757.3927    8717.4676   -165.94839   -404.75608    777.82776   -3849.7521 
25232000    138.90039    -4975.666   -4707.7849    -4975.666            0    5928.3154    19.977013    19.723009    20.448462    8056.8333    3342.7813    7686.2281    6755.9369   -179.87466    781.23731   -64.092302    -4011.204 
25233000     130.9013   -4963.6844   -4711.2302   -4963.6844            0     6781.419     19.76908    19.746436    20.484883    7996.6606    6252.3108     7647.516    6444.4301    469.28707   -388.89315    425.02365   -3920.3601 
25234000    135.48462   -4956.8005    -4695.507   -4956.8005            0    7192.5179    19.668873    19.942191    20.434711    8015.3194    6538.3007    7655.5866    7383.6665   -124.39666    1350.5378    1404.6668   -3854.7361 
25235000    130.93981   -4969.1301   -4716.6016   -4969.1301            0    8060.1262    19.705221    19.841739    20.367842    7963.5379    8459.7574    8359.8296    7360.7918    267.95279    874.18429   -182.17039   -3780.4983 
25236000    133.43281    -4975.923   -4718.5866    -4975.923            0     7055.632    19.758166    19.841326    20.444807    8014.9412    7632.5625    6750.8683    6783.4653    618.60705   -213.92198   -147.09762    -3893.856 
25237000    134.40452   -4965.2853   -4706.0749   -4965.2853            0    7872.7164    19.700501    19.786287    20.565823    8016.5529    8404.5503     7655.708     7557.891   -67.409708    303.08565   -431.11808   -3785.6505 
25238000    138.40553   -4957.1529   -4690.2262   -4957.1529            0     9857.387    19.704409    19.813877    20.392049    7961.4785    8925.1289    9134.6908    11512.341   -316.17741    158.80432    -259.9833   -3545.6851 
25239000    130.94414   -4965.5944   -4713.0576   -4965.5944            0    7052.6431    19.795999    19.902204    20.429283    8048.8107    6221.9895    7831.6116    7104.3282    121.96509   -965.57893   -224.15876   -3885.1926 
25240000    138.14125   -4964.8665   -4698.4495   -4964.8665            0    8105.1439    19.882823    19.724185    20.356563    7983.2835     7949.334    8211.4486    8154.6492   -219.37872    393.77868   -16.684525   -3754.7838 
25241000    135.37191    -4978.338   -4717.2619    -4978.338            0    7264.0152    19.879522    19.886777    20.290894    8021.7944    8238.4471    6174.9872    7378.6114    321.51826     -201.776    234.97695   -3867.4473 
25242000    132.39507   -4969.8578   -4714.5227   -4969.8578            0    6160.6711    19.816511    19.832393    20.514668    8062.4459    5164.3733     7380.029    5937.6108   -671.62998   -565.20036    762.86619   -3990.1356 
25243000    138.18407   -4963.2559   -4696.7563   -4963.2559            0    6802.0069    19.895096    19.661417    20.514456    8024.5534    6074.4167    7861.4248    6470.1791    180.32408    502.35282    881.49171   -3900.7183 
25244000    142.27189   -4975.4449   -4701.0616   -4975.4449            0    6525.4045    19.787156    19.930544    20.395855    8043.4885    5775.0053     6059.259    7741.9493   -57.633151   -31.211842    930.73582   -3935.5923 
25245000    141.52398   -4957.9435   -4685.0026   -4957.9435            0    7270.5268     19.84019    19.827917    20.411702    8029.7521    7290.6747    6954.0099    7566.8958    251.49235   -981.32711    726.44139   -3833.5825 
25246000    140.79438   -4968.8135   -4697.2797   -4968.8135            0    6576.4819    19.734712    19.767592    20.549579    8016.5499    7218.3452    6851.1908    5659.9096    520.95248    241.19485    58.758796   -3928.4024 
25247000     135.6886   -4968.6451   -4706.9582   -4968.6451            0     6622.711    19.700938    19.761188    20.547761    7999.5298    7081.1005    5744.2555    7042.7769     47.36442   -354.62743   -111.79493   -3934.3201 
25248000    137.06686   -4959.6906   -4695.3457   -4959.6906            0    7810.2793    19.884753    19.750734    20.415406    8017.9148    6735.2842    8492.8329    8202.7207    477.87802   -986.53397   -274.99741   -3782.0658 
25249000    128.48582   -4968.2322   -4720.4365   -4968.2322            0    6407.5901     19.83734    19.777421    20.503488    8044.1627    5897.0078    6533.9067    6791.8557   -355.05663    169.12687   -886.30628   -3968.7245 
25250000    140.73431   -4957.1566   -4685.7387   -4957.1566            0    6030.7672    19.961727    19.636719    20.558581    8058.6105    5331.3617    7018.0911    5742.8487    131.06376    1172.9524    414.81635   -3976.9633 
Loop time of 376.978 on 64 procs for 250000 steps with 972 atoms

Performance: 114.596 ns/day, 0.209 hours/ns, 663.169 timesteps/s
194.3% CPU use with 32 MPI tasks x 2 OpenMP threads

MPI task timing breakdown:
Section |  min time  |  avg time  |  max time  |%varavg| %total
---------------------------------------------------------------
Pair    | 28.905     | 36.118     | 44.928     |  70.9 |  9.58
Bond    | 1.0197     | 1.2124     | 1.7674     |  14.6 |  0.32
Kspace  | 165.2      | 176.73     | 184.35     |  35.9 | 46.88
Neigh   | 0.92322    | 1.0458     | 1.1645     |   6.9 |  0.28
Comm    | 64.123     | 70.29      | 75.399     |  32.3 | 18.65
Output  | 0.63262    | 0.6329     | 0.6344     |   0.0 |  0.17
Modify  | 72.528     | 74.786     | 78.027     |  14.7 | 19.84
Other   |            | 16.16      |            |       |  4.29

Nlocal:        30.3750 ave          37 max          26 min
Histogram: 4 3 7 4 5 1 3 4 0 1
Nghost:        2688.66 ave        2727 max        2645 min
Histogram: 1 3 1 7 2 4 5 4 2 3
Neighs:        9753.34 ave       12207 max        7676 min
Histogram: 3 3 6 0 6 5 3 3 1 2

Total # of neighbors = 312107
Ave neighs/atom = 321.09774
Ave special neighs/atom = 2.0000000
Neighbor list builds = 2935
Dangerous builds = 0

unfix		3
unfix		2
unfix		1

write_data	data.final.${pid}
write_data	data.final.1
System init for write_data ...
PPPM initialization ...
  extracting TIP4P info from pair style
  using 12-bit tables for long-range coulomb (../kspace.cpp:340)
  G vector (1/distance) = 0.37206068
  grid = 24 24 24
  stencil order = 5
  estimated absolute RMS force accuracy = 0.0035271694
  estimated relative force accuracy = 1.0621966e-05
  using double precision FFTW3
  3d grid and FFT values/proc = 3211 432
Last active /omp style is kspace_style pppm/tip4p/omp
WARNING: Not all mixed pair coeffs generated from mixing. Use write_data with 'pair ij' option to store all pair coeffs. (../write_data.cpp:312)

write_restart   restart.lmp.${pid}
write_restart   restart.lmp.1
System init for write_restart ...
PPPM initialization ...
  extracting TIP4P info from pair style
  using 12-bit tables for long-range coulomb (../kspace.cpp:340)
  G vector (1/distance) = 0.37206068
  grid = 24 24 24
  stencil order = 5
  estimated absolute RMS force accuracy = 0.0035271694
  estimated relative force accuracy = 1.0621966e-05
  using double precision FFTW3
  3d grid and FFT values/proc = 3211 432
Last active /omp style is kspace_style pppm/tip4p/omp
Total wall time: 0:06:17
