LAMMPS (30 Jul 2021)
Processor partition = 0
  using 2 OpenMP thread(s) per MPI task
using multi-threaded neighbor list subroutines
variable        pid world 0 1
variable        phase world IceIII Liquid

shell cd ${phase}
shell cd IceIII
include Restart.lmp
echo both
log log.lammps
#include		in.partitions
include		in.temp
variable        temperature equal 258.20
variable	tempDamp equal 100.0
include		in.pressure
variable        pressure equal 2250.0
variable        pressureDamp equal 1000.0 # This is 1 ps
include		in.seed
variable        seed equal 745823

units		real
atom_style	full

read_restart	restart.lmp.${pid}
read_restart	restart.lmp.0
Reading restart file ...
  restart file = 30 Jul 2021, LAMMPS = 30 Jul 2021
  restoring atom style full from restart
  orthogonal box = (-0.064255755 -0.074199575 -0.20490255) to (20.064257 20.074201 20.904901)
  2 by 4 by 4 MPI processor grid
  restoring pair style lj/cut/tip4p/long/omp from restart
  restoring bond style harmonic/omp from restart
  restoring angle style harmonic/omp from restart
  972 atoms
  648 bonds
  324 angles
Finding 1-2 1-3 1-4 neighbors ...
  special bond factors lj:    0        0        0       
  special bond factors coul:  0        0        0       
     2 = max # of 1-2 neighbors
     1 = max # of 1-3 neighbors
     1 = max # of 1-4 neighbors
     2 = max # of special neighbors
  special bonds CPU = 0.002 seconds
  read_restart CPU = 0.007 seconds
include 	in.setup
variable	out_freq equal 1000
variable	out_freq2 equal 10000
variable	out_freq3 equal 1000

timestep	2.0

neigh_modify    delay 7 every 1

include		in.tip4p
# This is TIP4P/Ice

# create groups ###
group ox type 2
324 atoms in group ox
group hy type 1
648 atoms in group hy

# set charges - beside manually ###
set group ox charge -1.1794
Setting atom values ...
  324 settings made for charge
set group hy charge 0.5897
Setting atom values ...
  648 settings made for charge

# ### TIP3P Potential Parameters ###
pair_style lj/cut/tip4p/long/omp 2 1 1 1 0.1577 8.5
pair_coeff 1 1*2 0.000 0.000
pair_coeff 2 2 0.21084 3.1668
bond_style  harmonic
bond_coeff  1 450 0.9572
angle_style harmonic
angle_coeff 1 55 104.52
kspace_style pppm/tip4p/omp 1.0e-5
pair_modify tail yes

thermo          ${out_freq}
thermo          1000
thermo_style    custom step temp pe etotal epair emol press lx ly lz vol pxx pyy pzz pxy pxz pyz enthalpy

restart 	${out_freq3} restart.lmp.${pid} restart2.lmp.${pid}
restart 	1000 restart.lmp.${pid} restart2.lmp.${pid}
restart 	1000 restart.lmp.0 restart2.lmp.${pid}
restart 	1000 restart.lmp.0 restart2.lmp.0


include         in.dump
dump            myDump all atom ${out_freq2} dump.water.${pid}
dump            myDump all atom 10000 dump.water.${pid}
dump            myDump all atom 10000 dump.water.0
dump            myDump2 all dcd ${out_freq2} dump.dcd
dump            myDump2 all dcd 10000 dump.dcd
dump_modify     myDump append yes
dump_modify     myDump2 append yes


variable natoms 	equal  "count(all)"                        # NUMBER ATOMS
variable H      	equal  "enthalpy/v_natoms"                 # ENTHALPY-per-atom
variable Vol      	equal  "vol/v_natoms"                 # volume-per-atom
fix AVG all 		ave/time ${out_freq} 1 ${out_freq} v_Vol v_H file vol_enthalpy.dat
fix AVG all 		ave/time 1000 1 ${out_freq} v_Vol v_H file vol_enthalpy.dat
fix AVG all 		ave/time 1000 1 1000 v_Vol v_H file vol_enthalpy.dat


timer           timeout 02:55:00 every 1000
New timer settings: style=normal  mode=nosync  timeout=02:55:00

fix 		1 all shake 1e-6 200 0 b 1 a 1
Finding SHAKE clusters ...
       0 = # of size 2 clusters
       0 = # of size 3 clusters
       0 = # of size 4 clusters
     324 = # of frozen angles
  find clusters CPU = 0.001 seconds
fix             2 all nph aniso ${pressure} ${pressure} ${pressureDamp}
fix             2 all nph aniso 2250 ${pressure} ${pressureDamp}
fix             2 all nph aniso 2250 2250 ${pressureDamp}
fix             2 all nph aniso 2250 2250 1000
fix             3 all temp/csvr ${temperature} ${temperature} ${tempDamp} ${seed}
fix             3 all temp/csvr 258.2 ${temperature} ${tempDamp} ${seed}
fix             3 all temp/csvr 258.2 258.2 ${tempDamp} ${seed}
fix             3 all temp/csvr 258.2 258.2 100 ${seed}
fix             3 all temp/csvr 258.2 258.2 100 745823


run             250000
PPPM initialization ...
  extracting TIP4P info from pair style
  using 12-bit tables for long-range coulomb (../kspace.cpp:340)
  G vector (1/distance) = 0.37161447
  grid = 24 24 25
  stencil order = 5
  estimated absolute RMS force accuracy = 0.0035050366
  estimated relative force accuracy = 1.0555314e-05
  using double precision FFTW3
  3d grid and FFT values/proc = 3458 576
Last active /omp style is kspace_style pppm/tip4p/omp
Neighbor list info ...
  update every 1 steps, delay 7 steps, check yes
  max neighbors/atom: 2000, page size: 100000
  master list distance cutoff = 10.8154
  ghost atom cutoff = 10.8154
  binsize = 5.4077, bins = 4 4 4
  1 neighbor lists, perpetual/occasional/extra = 1 0 0
  (1) pair lj/cut/tip4p/long/omp, perpetual
      attributes: half, newton on, omp
      pair build: half/bin/newton/omp
      stencil: half/bin/3d
      bin: standard
Setting up Verlet run ...
  Unit style    : real
  Current step  : 1250000
  Time step     : 2
  Walltime left : 2:54:59.94
Per MPI rank memory allocation (min/avg/max) = 10.19 | 10.19 | 10.21 Mbytes
Step Temp PotEng TotEng E_pair E_mol Press Lx Ly Lz Volume Pxx Pyy Pzz Pxy Pxz Pyz Enthalpy 
 1250000    284.20595   -4691.1941   -4143.0791   -4691.1941            0    1927.3732    20.128513      20.1484    21.109803    8561.2353    2929.7315    1484.6753    1367.7128    200.97594    1202.4378    829.60049   -3902.4333 
 1251000     254.3567   -4685.9881   -4195.4398   -4685.9881            0    2715.1497     20.23021    20.112263    20.925798    8514.1908    3992.2928     1298.926    2854.2302   -544.11455    361.41463    402.30164   -3858.2977 
 1252000     254.7056   -4680.8848   -4189.6637   -4680.8848            0     2707.127    20.157368    20.339655    20.763554    8512.9307    1790.3938    2629.5622    3701.4251   -596.26012   -3.1234264    45.251964   -3853.5675 
 1253000    270.47581   -4715.8229   -4194.1876   -4715.8229            0    2176.4178    20.201558    20.073758    20.947989    8494.8531    2012.2045    2167.9138     2349.135   -620.08423    456.81127    139.35733   -3924.5539 
 1254000    242.45917   -4703.3992   -4235.7963   -4703.3992            0    1773.6649    20.077257     20.24912    20.960477    8521.4146     2740.895    1704.0267    876.07285   -541.76053     152.6808   -1323.4666   -4015.3722 
 1255000    254.32637   -4682.2766   -4191.7868   -4682.2766            0    617.42156    20.230777    19.965954    21.280661    8595.8283   -750.91393    2324.6518    278.52686    161.77878    84.287235    1370.8575    -4114.386 
 1256000    268.53616   -4695.7348   -4177.8402   -4695.7348            0    1269.4425    20.187682    20.101195    21.125518    8572.6618    2716.1512    -227.0677    1319.2439    -318.9477    784.54575   -653.84028   -4019.1301 
 1257000    258.00865   -4676.3431   -4178.7517   -4676.3431            0    515.61103    20.039411     20.32128    21.036408    8566.5825    1178.9457   -987.44227    1355.3297   -184.25782     1792.885    718.40346   -4114.3339 
 1258000    259.00114   -4690.4163   -4190.9108   -4690.4163            0    2910.1345    20.380997    19.902219    20.933897     8491.355    4304.7672    1749.2799    2676.3564   -96.888953   -663.09725     487.5053   -3830.5264 
 1259000    271.01101   -4689.1384   -4166.4709   -4689.1384            0    3340.3751    20.151139    20.079745    21.144055    8555.5129    4129.0976    2818.9455    3073.0823   -346.57477    277.35166   -422.68778    -3749.681 
 1260000    270.86905    -4692.666   -4170.2723    -4692.666            0    2009.3133    20.134591    20.032083    21.076259    8500.8521    2512.6326    2084.7144    1430.5929   -893.54561   -8.7195118    668.32128   -3921.1652 
 1261000    255.43959   -4692.3698   -4199.7331   -4692.3698            0    2142.0186    20.267391    19.931274    21.157694    8546.7549    433.23926    3193.5858    2799.2307   -548.77185   -703.27032    397.43362   -3932.7398 
 1262000    266.92172   -4648.9137   -4134.1327   -4648.9137            0    4580.8304    20.061398    19.951691    21.053523    8426.8581    4687.8226    5135.7588    3918.9099   -49.589464   -66.592693     860.1713   -3571.1621 
 1263000    264.19994   -4649.4588   -4139.9269   -4649.4588            0    1481.6597    19.995925    20.053308    21.440935    8597.4813    2822.7716    896.28693     725.9206     64.90971    19.211637    441.88122   -3954.1484 
 1264000    250.39797   -4691.1086   -4208.1951   -4691.1086            0    3668.9917     20.12515    19.995846     20.96394    8436.2963    1392.8141    5434.7369    4179.4241   -292.39266   -954.19702    771.88513   -3756.7817 
 1265000    255.79494   -4691.9898   -4198.6677   -4691.9898            0    3359.9828    20.143892    20.132069    20.762498    8419.9866    1347.3188    3867.8985    4864.7312   -357.95631    938.14605   -55.287664   -3786.0723 
 1266000    262.92899   -4702.4992   -4195.4185   -4702.4992            0    1641.0501     20.27866    20.092998    21.057195    8579.9452    2082.2998    477.46951     2363.381    270.25433    -745.7936   -552.15734   -3990.0744 
 1267000    271.42487   -4717.9105   -4194.4448   -4717.9105            0    1659.4444    20.394803    19.893612    21.028448    8531.7941   -727.15697    4876.3417    829.14841   -816.10805    746.61688   -322.22132   -3987.9643 
 1268000    247.92321   -4694.3919   -4216.2512   -4694.3919            0    1795.4558    20.095721    20.303142    21.058087    8591.8314    1028.2817    1750.1556    2607.9302   -606.57476   -2005.0981    757.61985   -3991.2751 
 1269000     248.2739   -4673.8669   -4195.0498   -4673.8669            0    2637.8211    20.156027    20.125998     20.87797    8469.3605    3177.3367    2441.7733    2294.3533     491.4968   -243.01874   -540.12923   -3869.2342 
 1270000    264.30357   -4708.5218   -4198.7902   -4708.5218            0    2304.5951    20.192082    20.169939    20.746673    8449.5609    3420.5308    1243.2608    2249.9937   -4.8585638    781.17354     451.7053   -3914.7991 
 1271000    260.41508   -4729.2428   -4227.0104   -4729.2428            0    1980.3033    20.238389    20.295406    20.729774    8514.6784     1025.552    2202.0716    2713.2862   -138.27697    1253.2672    127.04131   -3981.1006 
 1272000    252.22293   -4673.4923   -4187.0592   -4673.4923            0    2968.6019    20.105054    20.144443    20.994667     8502.948    2488.2188    3005.3657    3412.2213   -212.74053   -185.88203    131.30083   -3818.9324 
 1273000    255.99881   -4715.0884   -4221.3732   -4715.0884            0    1543.9872    20.008862    20.092844    21.275098    8553.3327    730.80707    2688.5593    1212.5953   -681.83214   -213.23611   -81.480012   -4028.7738 
 1274000    269.52278   -4658.2363   -4138.4389   -4658.2363            0    2974.9203    20.021293    19.987209    21.416475    8570.2257    2837.4102    4575.2527    1512.0981   -211.04695   -361.09734    506.59754   -3766.6097 
 1275000    273.03437   -4683.2361   -4156.6664   -4683.2361            0     2643.864    20.169317    20.007576    21.060649    8498.7961    312.62211      4519.24      3099.73    155.61794    271.15079    1500.0181   -3828.9694 
 1276000    267.34909   -4662.9555   -4147.3503   -4662.9555            0    3077.4312     20.13637    20.234421    20.913871    8521.3101    2189.3206    3419.3673    3623.6058    587.60041   -375.77625    787.57021   -3764.9039 
 1277000    273.31354   -4667.1627   -4140.0546   -4667.1627            0    3587.9079    20.173068     20.10534    21.020754    8525.7321    5121.5588    2511.1895    3130.9753    608.47277    1332.6541   -566.91264   -3693.9375 
 1278000    254.01723   -4696.2483   -4206.3547   -4696.2483            0    2012.3243    20.153029    19.956173    21.348385    8585.8363    703.51852    5148.5718     184.8827    153.29247   -170.61341    395.84169   -3954.3803 
 1279000    256.05318   -4672.7438   -4178.9237   -4672.7438            0    925.67183    19.967958    20.317855    21.214207    8606.7325    2357.5638    419.32351   0.12818285    90.524245   -1094.9777    -1158.166   -4062.7331 
 1280000    263.36758   -4669.3616   -4161.4351   -4669.3616            0    2728.7447     20.26203    20.125127    20.909872    8526.5422    1073.4121    3367.6827    3745.1393    -913.0252    216.74577    59.667899   -3822.1133 
 1281000    258.33473    -4651.238   -4153.0178    -4651.238            0    1791.9681    20.323391    20.357783    20.717668    8571.7113    426.50439    1715.5016    3233.8984   -540.07247    211.26645   -1366.3688   -3929.0045 
 1282000     254.5367   -4668.9299   -4178.0345   -4668.9299            0    2219.4466    20.218149    20.095502       20.965    8517.9504    313.61278    4213.4546    2131.2725   -172.68217    299.64596   -1079.3535   -3902.3225 
 1283000    262.92864   -4686.1724   -4179.0925   -4686.1724            0    2752.7288    20.019117    20.099287    20.973281    8439.0189    2803.9058    2811.6214    2642.6591     206.5394    48.089405    1769.3602   -3840.3019 
 1284000    244.25704   -4677.6117   -4206.5415   -4677.6117            0     2053.163    20.083127    20.289942    20.897804    8515.5516     2253.434    1387.5736    2518.4816    110.03506   -146.37063    556.44501    -3951.558 
 1285000    252.26277   -4730.3834   -4243.8735   -4730.3834            0     2533.749    20.085965    20.185773    20.884102    8467.4742    2513.0072     2017.394    3070.8458    345.02893   -32.088668    432.52017   -3930.9822 
 1286000    254.38601    -4713.064   -4222.4592    -4713.064            0    3162.8738     20.24987    19.965593    20.897012    8448.6761    3758.7597    3142.8346    2587.0272   -422.37487   -1390.5403    267.81825   -3832.7448 
 1287000    254.80657   -4685.8824   -4194.4665   -4685.8824            0    1587.7281    19.926767    20.233394    21.181032    8539.8985    4080.2938    133.19254    549.69805    -453.2823    1018.1872   -774.35839   -3996.7218 
 1288000    259.71479   -4668.1408    -4167.259   -4668.1408            0    5265.1105    20.008685    20.047443    21.006921    8426.3586    7133.0929    5289.3798    3372.8589   -308.02346   -16.135392   -663.69722   -3520.2307 
 1289000      260.989   -4723.9932    -4220.654   -4723.9932            0    997.27688     20.02956    20.134268     21.23707    8564.4967    872.58843    2447.1763   -327.93415    -260.2984   -1677.7016    1041.8486   -4096.0897 
 1290000    254.43092   -4685.1283   -4194.4369   -4685.1283            0      3008.54     20.12847    20.056684    20.998827    8477.4442    2970.0325     3568.852    2486.7356   -469.85223    1037.1948    668.53321   -3822.4766 
 1291000    260.82848   -4684.8603   -4181.8307   -4684.8603            0    2365.6063    20.064126    20.198209    20.810601     8433.692    2580.9726    2175.7226    2340.1237   -129.20937    762.95291   -1014.9407   -3890.8688 
 1292000     262.7428   -4709.1801   -4202.4585   -4709.1801            0    3027.5616    20.040383    20.349741    20.765413    8468.4802     1299.686    2859.1051    4923.8938    421.03907     1709.714    313.90109   -3828.5423 
 1293000    261.23504   -4667.6806   -4163.8669   -4667.6806            0    2595.1382    20.192655    20.099219     20.84043    8458.2261    998.97089     4805.462    1980.9818   -530.28217    530.96171    766.64252   -3843.7447 
 1294000    259.48469   -4727.5731   -4227.1351   -4727.5731            0    1992.9536     20.18265    20.154035     21.06371    8567.9132    1756.3812    2464.0782    1758.4013    276.90952   -219.58778     614.4288   -3978.1071 
 1295000    254.49678   -4722.6974    -4231.879   -4722.6974            0    4189.1857    20.138661    19.772437    21.235632    8455.8249    2063.7738    6322.9674    4180.8158   -83.762184    357.26067    1042.0283   -3715.2706 
 1296000     250.7758   -4691.9152    -4208.273   -4691.9152            0    1496.1957    20.238768    20.079838    21.064731     8560.521    1940.4526    670.24699    1877.8876    348.73373    488.52047   -497.51854   -4021.4783 
 1297000    256.69348   -4686.8776   -4191.8227   -4686.8776            0    5315.4579    20.060704    20.069032    20.775907    8364.3576    7107.1202    4852.2751    3986.9785   -314.55804    750.13194     305.2274   -3543.4135 
 1298000    247.74487   -4693.2474   -4215.4505   -4693.2474            0    3300.8541    20.180449    20.237483    20.756215     8476.869    5411.9382    1185.5362     3305.088   -472.07161   -825.92408   -865.19328   -3807.3777 
 1299000    250.72231   -4658.2284   -4174.6893   -4658.2284            0    1548.4696    20.287996    20.114388    20.991699     8566.306    1221.0961     2250.845    1173.4677    -413.3371    -974.8384    26.257364   -3981.2378 
 1300000     244.1248   -4681.7636   -4210.9484   -4681.7636            0    3326.5745     20.13402    20.032294    20.928971    8441.2945    2167.8444    4443.9935    3367.8856    38.860037    249.83436   -1064.5682   -3801.4217 
 1301000    267.40448   -4638.6093   -4122.8973   -4638.6093            0    2400.0094    19.829487    20.383768    21.053139    8509.6717    1565.0102    3672.7346    1962.2835   -666.36981   -1473.8236    59.565452   -3825.0445 
 1302000    251.54812   -4697.4671   -4212.3354   -4697.4671            0    3823.8635    20.114914    20.001727    20.928604    8420.2687    4758.1623    4038.3441     2675.084    155.79346    795.05619   -622.33408   -3742.7612 
 1303000    244.53333   -4709.4665   -4237.8634   -4709.4665            0    105.14516    20.173817    20.362998    21.079504    8659.4478    2228.0213   -1577.1548   -335.43096    194.00993   -163.47856    558.53871   -4224.5847 
 1304000    256.95847   -4658.4464   -4162.8804   -4658.4464            0    3124.9468    20.092747    20.049577    21.010101    8463.9419    3360.1105    3776.0196    2238.7102   -78.548436    1374.6809    203.29675   -3777.1435 
 1305000    270.32502   -4703.8439   -4182.4994   -4703.8439            0    2191.1124    20.031163      20.2423    21.081393    8548.0161    1781.7542    2731.5161    2060.0669   -148.04295   -811.35999   -1322.0192   -3909.3465 
 1306000    273.81552   -4669.4818   -4141.4055   -4669.4818            0    3565.7801    20.429983    20.092668    20.578458    8447.3103    1961.4154    3984.3927    4751.5322    52.920016    459.32868   -1077.4462    -3702.118 
 1307000    248.17701   -4708.2508   -4229.6206   -4708.2508            0    3429.9381    20.116572    20.095574     20.99648    8487.9124    3481.0266    4793.4599    2015.3278   -693.40932    1443.9299   -38.525681   -3805.0371 
 1308000    251.73514   -4671.1412   -4185.6488   -4671.1412            0    1417.1641    19.951847    20.006142    21.306836    8504.8255    259.38903    2991.9408    1000.1624    -314.9596   -329.80591   -908.12894   -4009.8721 
 1309000    255.27155   -4686.7519   -4194.4392   -4686.7519            0    1886.3667     20.10115    20.059512    21.238248    8563.6706    990.20345    2323.7466      2345.15    119.46221    420.61068   -6.5547467   -3958.8465 
 1310000    269.97445   -4721.0662   -4200.3978   -4721.0662            0    1537.4102    20.186215    20.041766    21.110863    8540.7674   -450.09746    3729.2777    1333.0502   -838.62029    1266.0064   -343.37179   -4008.9005 
 1311000    263.41235    -4680.662   -4172.6491    -4680.662            0    3495.8871    19.950277    20.356308     20.78611    8441.5298    6092.3211    63.492279    4331.8479   -44.515937   -1038.7153   -116.75377   -3742.2668 
 1312000    274.68623   -4674.2347   -4144.4793   -4674.2347            0    1394.1099    20.315357    20.097256    21.012782    8579.1606    999.02596    1792.1594    1391.1442   -191.70733   -1121.9471    -1213.838   -3970.0507 
 1313000    270.03569   -4682.1105    -4161.324   -4682.1105            0    1194.6484    20.122589    20.262648    21.099582    8603.0791    2056.0402   -153.40778    1681.3128     845.3695   -346.36537    350.04725   -4011.4349 
 1314000    263.93685   -4702.7089   -4193.6845   -4702.7089            0    1304.4913    20.192162     19.95744    21.154524    8524.9319    2003.3037    1229.2294    680.94075     76.22077    67.870142    562.41664   -4031.5005 
 1315000    254.88382   -4691.8161   -4200.2512   -4691.8161            0     1939.648    20.182827    19.988669    21.155863     8534.864    1240.9946    2241.2499    2336.6995    -204.4527      1268.21    260.75553   -3958.8189 
 1316000    276.03396   -4685.9413   -4153.5867   -4685.9413            0    2914.3533    20.217513    20.009686     20.99812    8494.7072    2759.7785    1612.1589    4371.1226   -288.60471    816.54099   -765.21269   -3792.5374 
 1317000    250.51722   -4690.3758   -4207.2323   -4690.3758            0    2860.1865    20.019557    19.996964     21.18367     8480.466    3074.6661     3051.869    2454.0242   -491.50516    937.66247    246.52094   -3853.4875 
 1318000    268.43566   -4715.1454   -4197.4446   -4715.1454            0      1393.49     20.17217    19.991863    21.152725    8530.4552    1412.5197      1656.33    1111.6204    100.14628    455.12215    62.857796   -4024.0834 
 1319000    254.25273   -4716.7199   -4226.3721   -4716.7199            0    1905.3262    20.224781    20.099337    20.857214    8478.5555    3015.5348    763.64627    1936.7976   -752.70352    651.60634   -547.75258   -3990.7765 
 1320000    257.35804   -4682.0151   -4185.6784   -4682.0151            0    1839.3466    20.155742    20.299975    20.738699    8485.4681    1514.5037    1784.5242     2219.012    386.76816   -1208.5562    296.06792   -3958.0559 
 1321000    254.34245   -4674.6715   -4184.1507   -4674.6715            0    4347.0577    20.152954     20.02887    20.879107    8427.6616    5566.4803    2758.1523    4716.5405   -223.11666   -107.55385    1891.2369   -3649.8591 
 1322000    278.29417   -4664.8385   -4128.1248   -4664.8385            0    718.78535    20.128302    20.163209    21.190752    8600.2913    813.42019    929.51089    413.42497   -18.108522    265.80435    486.06689   -4037.9701 
 1323000     257.0849   -4716.7401   -4220.9302   -4716.7401            0    2323.3166    20.097866    19.896778    21.335468    8531.6861    2113.7396    4429.5515    426.65875   -40.088567    192.35846    234.04189   -3931.8495 
 1324000     250.5767   -4700.6141   -4217.3558   -4700.6141            0    1826.7654    20.160201    20.102577    21.011683    8515.4464    1836.0931     2426.077    1218.1261     176.0266    426.92687   -229.72596   -3990.4916 
 1325000    257.74158   -4695.9317   -4198.8554   -4695.9317            0    941.49248    20.116204    20.294054    20.922654    8541.4504    1607.3312   -349.76554    1566.9118   -80.981911    614.79399    312.19849   -4081.5753 
 1326000     259.2027   -4683.3305   -4183.4363   -4683.3305            0    2215.7935    20.485097    19.953659    20.888522    8538.2384    988.00297    2321.5785     3337.799   -728.74327    602.34061    -676.7982   -3907.5225 
 1327000    240.14777   -4695.2348   -4232.0896   -4695.2348            0    2038.1582    20.106488    19.991085    21.042099    8457.8824    2751.8147    1723.7657     1638.894    280.28671    814.97666   -866.72117   -3980.6837 
 1328000    269.94991   -4674.9758   -4154.3547   -4674.9758            0    2011.6383    20.174699    20.074701    21.127855    8556.8033    2121.2539    2755.9196    1157.7414    65.718575   -138.31445   -1227.2601   -3903.3179 
 1329000    245.82092    -4685.409   -4211.3227    -4685.409            0    1043.8259    20.236359    20.084796    21.163659    8601.8239    579.17803    1986.7554    565.54441    80.552077    -664.9362    953.50793    -4080.376 
 1330000    257.01913   -4662.7631   -4167.0801   -4662.7631            0    1792.9065    20.159668    20.307674    20.857981    8539.1728    1392.8277    1842.6755    2143.2163   -861.18827   -1159.1762    1686.2679   -3943.8004 
 1331000    264.24249    -4691.395   -4181.7811    -4691.395            0    2492.4244     20.16505    20.173456     20.78435    8455.0475     582.4093    3104.3763    3790.4875    716.35777    894.75615    83.340659   -3874.4448 
 1332000    251.05657   -4699.4805   -4215.2968   -4699.4805            0    1957.5079    20.034325    20.282197    20.987792    8528.1822     3687.203    366.59806    1818.7227   -174.78328   -229.82156    807.54989   -3971.8322 
 1333000    252.90049   -4668.0647   -4180.3248   -4668.0647            0    3016.8694    20.276811    19.816047    21.220287    8526.4437    1946.9665     4931.615    2172.0267     33.85603    57.080337    433.65495   -3805.1788 
 1334000    265.31279   -4658.8864   -4147.2084   -4658.8864            0     1462.113    20.096517    20.116104    21.117294    8536.9542    2011.0375    3062.4823   -687.18075     249.2749    900.04295    1413.2043   -3965.1713 
 1335000    242.51801   -4664.3321   -4196.6157   -4664.3321            0    1225.8681    20.394745    19.927983    20.953519    8516.0572   -6.8415702    1716.8666    1967.5792    207.19079    1360.4265    14.937926   -4044.3654 
 1336000    255.17617   -4687.4863   -4195.3576   -4687.4863            0    2853.0289    20.093312    20.232637    20.946542    8515.6215    3601.3475    1669.2022     3288.537   -367.91499   -229.81553    433.46645   -3841.0354 
 1337000    257.91714    -4704.844   -4207.4291    -4704.844            0    2830.3944    20.369743    20.087946    20.870075    8539.7491    3256.0634    1346.5515    3888.5683   -166.54749    853.14077    347.53941   -3854.9219 
 1338000    244.92605   -4654.9147   -4182.5542   -4654.9147            0    2674.7909    20.056865    20.317427    20.785313    8470.0957    1819.5462    2105.7245     4099.102   -689.19443    56.751773    621.38807   -3852.1435 
 1339000    239.69547   -4699.0462   -4236.7733   -4699.0462            0    1867.3545    20.085223    20.096331    21.127126    8527.7383    4146.7659    414.87018    1040.4276    5.4237347    1616.8957    653.43879   -4004.5336 
 1340000    247.55433   -4680.7729   -4203.3436   -4680.7729            0    2767.6714    20.208121     19.86146    21.182433    8501.8403    3166.9906     3427.801    1708.2225    153.69804   -259.82271    956.56786   -3860.1783 
 1341000    244.61108   -4684.2793   -4212.5262   -4684.2793            0    2653.1583    20.120746    20.054649    20.968111     8460.937    3785.1276    1258.7334     2915.614   -976.95505   -278.36433   -965.22682   -3885.1422 
 1342000      252.933   -4692.7103   -4204.9078   -4692.7103            0    3147.8434    20.311439    20.069383    20.822538    8488.0588    2359.6001     3686.002    3397.9279   -654.77208   -1466.5941    160.62779   -3815.2374 
 1343000    261.24363   -4671.5008   -4167.6705   -4671.5008            0    3832.9714    19.956752    20.281787    20.926088    8470.0139    4613.2861    3263.2292    3622.3988   -98.758152    272.43513    497.87998   -3694.1971 
 1344000    257.30936   -4686.3552   -4190.1125   -4686.3552            0    2682.7663    20.328442    20.427121    20.507535    8515.7854    3985.8183   -34.736183    4097.2169    -68.19852    248.44936   -779.69665    -3856.929 
 1345000    248.22136   -4711.6084   -4232.8926   -4711.6084            0    2942.1869    20.052967    20.127537    20.997485    8474.9387    2105.6591     4096.286    2624.6156   -173.81982   -158.14735    344.82918   -3869.2434 
 1346000    259.97442   -4672.1976   -4170.8151   -4672.1976            0    4504.0241    20.004114    20.022968    20.880496    8363.5103    3184.8076    5802.2107    4525.0538    113.80993    1079.7243    1032.1161   -3621.4448 
 1347000     261.9185   -4699.9924   -4194.8606   -4699.9924            0    1590.4357    20.155296    20.239522    21.040837    8583.2634    226.62946    1305.9082    3238.7694   -344.08091    620.10598   -1471.3692   -3995.7729 
 1348000    257.05548    -4685.383   -4189.6299    -4685.383            0    3175.7984    20.421976    19.806585    20.706072    8375.3912    3564.6853    2166.5244    3796.1855   -889.10765   -303.18868   -1124.7449   -3801.7173 
 1349000    253.19439   -4689.2484   -4200.9417   -4689.2484            0     982.7632    20.131499    20.427328    20.945602    8613.5173    2025.0458    -534.8144    1458.0582    560.74248     180.4758   -336.30516   -4077.4877 
 1350000    255.59249   -4673.6643   -4180.7327   -4673.6643            0    2177.6051    20.214908    20.041031    20.945888    8485.7575    2442.1107    2112.6287    1978.0758    321.66717    486.01341    861.71508   -3911.2409 
 1351000    256.55207   -4724.1852   -4229.4029   -4724.1852            0    1147.4568    20.162748    20.244501    20.941971    8548.1935    1358.9162    1500.0098    583.44439    90.364902    446.50235    -441.3893   -4086.3533 
 1352000    253.86499   -4692.4593   -4202.8593   -4692.4593            0    892.37429    20.198976    20.086972    21.085563    8555.1776    1378.0531    852.88239    446.18737   -40.882721    1008.8874    945.09938   -4091.5191 
 1353000    267.30366    -4693.097   -4177.5795    -4693.097            0    3074.6265    19.996273    19.993455    21.138859    8451.2013    3431.2763    3417.2163    2375.3868   -546.39739   -903.48201   -353.41289   -3798.6253 
 1354000    258.10338   -4676.1121    -4178.338   -4676.1121            0    832.17983    20.162751    20.099173    21.201555    8592.0286     1453.724    397.33273     645.4828    -422.6448    347.41796   -185.63658    -4074.061 
 1355000    268.60058   -4669.3541   -4151.3353   -4669.3541            0    1852.3259    20.232678    20.019211    21.223357    8596.3561    569.58166    3143.5458    1843.8501   -519.11891    1128.0718   -784.07039    -3919.111 
 1356000    253.58042   -4713.1367   -4224.0855   -4713.1367            0    2839.8757    20.166737    20.210125     20.84306    8495.0534    1642.4407    4725.0235    2152.1631    1209.2749   -576.94369    377.69209   -3872.2486 
 1357000    250.71984   -4673.5481   -4190.0138   -4673.5481            0    3144.6738    20.184388    20.217546    20.881981     8521.493     2037.006    3649.0791    3747.9362   -76.506924   -438.74369    882.47648   -3799.2024 
 1358000    252.78466   -4663.7428   -4176.2263   -4663.7428            0    2488.2644    20.104534    20.089783    21.112005    8527.0487    4736.4577    1103.5966    1624.7387    -528.9446    112.42572    859.46763   -3866.7901 
 1359000    266.36362    -4705.749   -4192.0444    -4705.749            0     3150.145    20.040644    20.044625    21.168754    8503.6407    3751.8579    3855.7196    1842.8575   -121.62459   -745.64836    11.190286   -3801.3732 
 1360000    260.39376   -4668.1401   -4165.9488   -4668.1401            0    1286.5707    20.140581    20.052884    21.174176    8551.7573     1472.494    1383.9971    1003.2209    -439.6337    176.11537     1254.209   -4005.4895 
 1361000    264.88416   -4671.9545   -4161.1031   -4671.9545            0    4879.2248    19.966364    20.174774    21.010245    8463.2817    5011.8839    4398.7774    5227.0133   -721.47901    251.57382   -553.44683   -3558.8688 
 1362000    257.83755   -4672.6483   -4175.3869   -4672.6483            0    2707.2931    20.370641    20.020875     20.82012    8491.2377     445.4105    4046.7353    3629.7335     -575.323   -181.10252    90.794069   -3840.1265 
 1363000    250.90701   -4713.7313   -4229.8361   -4713.7313            0    2205.5361    20.169568    19.999682    21.231855    8564.6108    490.90865    2827.5169    3298.1827   -3.6564485    -182.6267   -349.32726   -3954.3512 
 1364000    258.61491    -4682.312   -4183.5514    -4682.312            0     3218.936    20.007218    20.011939    21.172609    8477.1574    3519.9761    3365.3116    2771.5201   -29.115744   -72.016306    118.57531   -3785.5923 
 1365000    261.74608    -4699.061   -4194.2617    -4699.061            0    1194.5083    20.377543    20.048701    20.743387    8474.5713   -292.00909    1734.1528    2141.3813    333.72835   -689.79289    172.27521   -4046.6289 
 1366000    249.03281   -4700.6133   -4220.3326   -4700.6133            0    2540.7907    20.163258    20.057084    21.081948    8525.8803    3304.7038    3527.5817    790.08642    70.241122   -538.57893   -355.42118   -3904.4076 
 1367000    242.70405   -4694.0029   -4225.9277   -4694.0029            0    2840.8678     20.13892    20.060974    20.930396    8456.0128    2909.2519    1891.1865     3722.165    244.48356    637.65963   -1449.0465   -3875.5854 
 1368000    249.49049    -4701.279   -4220.1156    -4701.279            0    1869.8145    20.194297     20.21014    20.810455    8493.3618    1801.6207    2099.6827      1708.14   -163.81819     65.11604    643.88994   -3988.5074 
 1369000    256.76488   -4709.9973   -4214.8046   -4709.9973            0    1638.2916    20.071344    20.338661    20.893682    8529.3077     2069.985    1173.7938     1671.096    46.731276   -1063.0381     856.3206   -4011.0155 
 1370000    262.24353   -4693.9799   -4188.2212   -4693.9799            0    2194.5885    20.083971    20.074678    21.054957    8488.9219    2837.7905    1667.7609    2078.2139   -1161.1513   -629.34521    1421.2274   -3916.5262 
 1371000    237.11269   -4692.5404   -4235.2487   -4692.5404            0    217.90973    20.262634    20.051539    21.392556    8691.7312   -260.00286     489.4758    424.25626   -93.291796   -1415.7377   -350.68331   -4207.6264 
 1372000    272.83586   -4686.0533   -4159.8664   -4686.0533            0    1582.9645    20.135833    20.001403    21.016175    8464.1575    512.39463     3256.529    979.96976     123.3098   -15.150529    394.05242   -3964.4636 
 1373000    259.72915   -4686.7685    -4185.859   -4686.7685            0   -381.92089    20.274768    20.211841    21.030052    8617.9129   -1744.7033    183.24644    415.69415   -187.09574    541.76083    576.16399   -4233.8601 
 1374000    259.78489   -4688.1622   -4187.1451   -4688.1622            0    1928.2183    20.285159    20.296872    20.773474    8552.9643    5478.8397   -1465.6891    1771.5043    -837.3693    28.843986   -319.75087   -3946.6265 
 1375000    262.73972   -4668.2386    -4161.523   -4668.2386            0    2860.1837    20.321026    20.270485    20.858544    8591.9896    4036.0281    1046.3354    3498.1875    692.04976   -1803.9551    1001.3388   -3803.1266 
 1376000     255.4329   -4714.6394   -4222.0156   -4714.6394            0    2538.2931    20.112816    20.255822    20.922864    8524.0084    3151.1855    1823.6553    2640.0385   -299.10233    119.40025   -36.833826   -3906.4704 
 1377000    256.31801   -4695.2815   -4200.9507   -4695.2815            0    2758.7705    20.089556     19.89835    21.232595     8487.709    1602.8006    4983.6167    1689.8943    716.60993   -104.77994    -72.65443   -3859.4576 
 1378000    252.97265   -4702.3591   -4214.4801   -4702.3591            0    144.54908    20.157446    20.191004    21.191831    8625.0555    432.03104   -729.46262    731.07882    -572.4798    576.09559    -1282.741   -4196.2976 
 1379000    265.46216   -4659.0897   -4147.1236   -4659.0897            0    2786.8608    20.214177    20.017217    21.008115    8500.5466    2460.0887    2946.2015    2954.2921    447.24107   -382.57195   -127.27363   -3801.6316 
 1380000    246.01515   -4704.1555   -4229.6946   -4704.1555            0    510.11976    20.238004     20.28114     20.93163    8591.3833    725.70176   -494.59323    1299.2507   -280.65673    684.02761   -1564.4781   -4165.7784 
 1381000    240.38611   -4697.2687   -4233.6639   -4697.2687            0    397.12786    20.218613    20.090429    21.054521    8552.3595    964.80548    -25.78395    252.36205   -699.06693    424.40372     406.6711   -4184.1311 
 1382000    279.05423   -4689.2166    -4151.037   -4689.2166            0     4328.614    20.227605    20.135153    20.656792    8413.2204    3540.6217    6328.3672    3116.8531   -310.52691    -1044.767    974.20506   -3619.9239 
 1383000     257.0425   -4658.2433   -4162.5153   -4658.2433            0    2574.9537    20.091013    20.159167    21.148289    8565.4397    2322.6786    2426.9482    2975.2344    35.849547    165.46612    986.78083   -3840.8568 
 1384000    256.37447   -4714.8851   -4220.4454   -4714.8851            0    2579.8615    19.869021    20.106309    21.371448     8537.737    3097.2558    3438.6198    1203.7088   -57.267384    1795.2108    1214.4403   -3899.2161 
 1385000    259.74497   -4704.9349   -4203.9949   -4704.9349            0    3386.2271    20.131534    20.065211    21.036541    8497.5735    3953.4132    3042.2332    3163.0347    -645.7537   -960.42281   -394.76936   -3784.3452 
 1386000    252.38666   -4675.5988   -4188.8499   -4675.5988            0    4057.1985    20.130122      19.9914    21.101613    8491.9074    4315.9216    4401.1587    3454.5153    628.60399    30.168713   -336.80908   -3686.3831 
 1387000    249.45037   -4688.4093   -4207.3233   -4688.4093            0    1523.1202    20.141907    19.994499    21.262065    8562.8147    1492.1558    1887.4701    1189.7345   -92.488274    971.82946   -1581.5167   -4017.1163 
 1388000    258.55132   -4707.1136   -4208.4757   -4707.1136            0    3210.6348    19.935282    20.130246    21.058204    8450.7022     3873.194    3000.8639    2757.8465   -182.38311   -60.804516    1034.8006   -3812.7816 
 1389000    247.16504   -4719.6626    -4242.984   -4719.6626            0    1418.7218    20.209506    20.228196    20.918236    8551.4134    2222.9201   -306.69375    2339.9389     286.7899    681.04291    85.807067   -4066.0501 
 1390000    259.02637   -4676.7868   -4177.2327   -4676.7868            0    793.98658    20.058067    20.223008     20.92729    8488.8295    1197.3072    840.95552    343.69701    307.25676   -1114.2127   -659.68864   -4078.9364 
 1391000    260.48214   -4698.3454   -4195.9837   -4698.3454            0    721.28636    20.178409     20.33677    20.925044    8586.8779   -397.19606    1118.8479    1442.2072   -26.662522    679.15152    16.306985   -4105.6564 
 1392000     262.8942    -4702.879   -4195.8655    -4702.879            0    2920.2889    20.109329    20.019605    20.947422    8433.0303    2086.4898    3211.3194    3463.0577    146.12886    622.21494   -1039.1384   -3836.7076 
 1393000    255.89947   -4698.7702   -4205.2466   -4698.7702            0    2621.7733    20.172164    20.114411     21.03369    8534.4451    3497.1935     2461.214    1906.9124   -146.19297    167.36627   -172.56801   -3878.9246 
 1394000    258.01806   -4689.6082   -4191.9986   -4689.6082            0    3602.2344    20.011773    20.104671     20.97275    8437.9689    3654.3381    4606.4884    2545.8767    370.96324    144.88139   -643.60123   -3748.7108 
 1395000    261.83357   -4698.7707   -4193.8027   -4698.7707            0    2251.4586    20.387498    20.140886    20.813453    8546.4674    693.90041    1796.7312    4263.7442   -182.00864    384.33554    214.91328   -3913.1776 
 1396000    249.97925   -4697.1491   -4215.0431   -4697.1491            0     2110.784    20.344158    20.156198    20.734298    8502.3241    1086.4746    2540.6678    2705.2096    514.58826    524.88984   -1470.5175   -3953.3108 
 1397000     252.1602   -4702.6053   -4216.2931   -4702.6053            0    4065.1871    20.250524     20.02558    20.783192    8428.1765     3771.967    2998.2984    5425.2957   -57.740333   -1126.0388    74.269941   -3716.6153 
 1398000    251.82735    -4699.205   -4213.5348    -4699.205            0    2894.4786    20.001886    20.264942    21.058652    8535.8524    3362.6443    3134.9453    2185.8462    349.44867   -301.81627   -568.17223   -3853.2108 
 1399000    270.43014    -4688.523   -4166.9757    -4688.523            0    1949.3108    20.352057    19.958735    20.908272    8492.9675    1618.6124    3556.2184    673.10142   -248.46925   -532.41917   -293.24261   -3925.5317 
 1400000     258.3838   -4704.5571   -4206.2422   -4704.5571            0    1903.9222    20.154912    20.276784    20.901155    8541.8171    1696.8432    1190.3455    2824.5778    262.76466   -468.78269    473.96041   -3969.0637 
 1401000    261.11503   -4657.2473    -4153.665   -4657.2473            0    2880.0919     20.21926     20.05401    20.912033    8479.3533    1531.5218    4754.2125    2354.5413    435.96229    1873.7782   -231.36068   -3797.5052 
 1402000    263.08875   -4672.6315   -4165.2427   -4672.6315            0    3277.0246    20.237141    20.133187    20.930069    8527.7085    2784.4535    3216.9692    3829.6511   -83.357097    81.103996   -20.041544   -3757.6861 
 1403000    257.88727   -4703.3435   -4205.9862   -4703.3435            0    1684.3931    20.181175     20.05632    20.947354    8478.6533    1271.9877    519.98547    3261.2062   -28.129574    1035.0483    188.59226   -3997.7069 
 1404000    246.40342   -4663.3387    -4188.129   -4663.3387            0    2642.1402    20.081247    20.056897    20.999036    8457.7291    3749.8157    2418.1898    1758.4152    541.14108   -396.23229   -1463.3601   -3862.2281 
 1405000    252.34292   -4689.1055   -4202.4409   -4689.1055            0    3020.6097     20.00942    20.299049     21.14224    8587.3902    3016.1912     3109.195    2936.4429    658.62939   -179.11673    -164.0231    -3824.145 
 1406000     244.7897   -4686.4181   -4214.3205   -4686.4181            0    3664.3154    20.237404    19.823471    21.127206    8475.7195    2698.8362    5035.8853    3258.2247    998.45527    -543.1148   -67.072589   -3761.3757 
 1407000    271.31348   -4710.1115   -4186.8606   -4710.1115            0    1729.3919    20.172572    20.197059    20.988445    8551.2513    2037.6103     1776.759    1373.8063   -20.295016    578.70037    265.71263   -3971.1861 
 1408000    256.85881   -4716.4221   -4221.0482   -4716.4221            0    2776.6979    20.208464    20.234624     20.68322    8457.5895    1312.1086    2403.2095    4614.7756   -234.75099   -1407.6499    363.18573   -3878.5557 
 1409000    249.56133   -4698.1514   -4216.8514   -4698.1514            0     2117.328    20.201551    20.151684    21.045643    8567.5819    2119.9492    2044.4505    2187.5844    485.86001    396.78025    427.62151   -3952.2925 
 1410000    253.58663   -4678.2113   -4189.1482   -4678.2113            0    2512.8961    20.081894    20.121921    21.096565    8524.8327    3181.1613    2502.0054    1855.5216   -999.92273    131.78781   -183.46446     -3876.73 
 1411000    246.52123    -4690.065   -4214.6281    -4690.065            0    2349.4072    20.115884    20.059064    21.111331    8518.5445    1759.9111    3923.7542    1364.5562    25.059992     1153.273    97.966586   -3922.7513 
 1412000    257.95173   -4689.7863   -4192.3047   -4689.7863            0     735.0638    20.166576    20.257891    20.849656    8517.7579    329.31729    229.72966    1646.1445   -986.51005    1684.0941   -824.51747   -4100.9931 
 1413000    258.81856   -4682.3198   -4183.1664   -4682.3198            0    3690.7539    20.274401    20.102032    20.674297    8425.9472    2688.3069    4584.4146    3799.5403   -112.05998    352.22915    307.22679   -3729.6325 
 1414000    252.73317   -4687.0809   -4199.6637   -4687.0809            0    4217.1221    20.044661    20.098231    20.949209    8439.6448    6016.4857    1862.2247    4772.6558   -65.843676   -56.233544    615.33567   -3680.6053 
 1415000    267.60326   -4720.7182   -4204.6228   -4720.7182            0    1641.9854    20.207359    20.176401     21.04904    8581.9416     972.5585    2439.8251    1513.5726   -84.794568    1843.7199    345.85604   -3999.1139 
 1416000    264.21912   -4680.2975   -4170.7287   -4680.2975            0    1974.5197    20.274862    19.965708    21.047768    8520.1781    32.225134    5004.8217    886.51236   -289.11636    894.79974    403.46929   -3925.3787 
 1417000    270.02957   -4713.2404   -4192.4656   -4713.2404            0    2011.9322    20.234782    20.071513    21.027497    8540.1641    1617.0593      1068.14    3350.5975    86.011238   -307.96573    42.712535   -3941.8804 
 1418000    263.45436   -4668.7768    -4160.683   -4668.7768            0    1057.2521    20.339448    20.235046    20.759774    8544.0931   -82.906871    1260.1031    1994.5602    668.70504   -1137.3675    1032.8325   -4028.9421 
 1419000    267.40746   -4677.8637    -4162.146   -4677.8637            0    3640.1566    20.219294    20.097812    20.850793    8473.0026    4162.3509    4017.0567    2741.0624    415.86684    1940.7219     83.25931   -3712.3316 
 1420000    264.98713    -4694.468    -4183.418    -4694.468            0    1442.7607    20.277312     19.98199      21.1048    8551.2654      179.337    3304.5525    844.39266    339.22725     602.7173    1329.6981   -4003.4893 
 1421000    260.12524   -4674.9141   -4173.2407   -4674.9141            0    3546.7015    19.977763    20.040143    21.215602    8493.8196    4734.2836    3376.1461    2529.6749    172.65291    1340.3298   -127.78979   -3733.8978 
 1422000    261.45176   -4710.2287    -4205.997   -4710.2287            0     3133.081    20.196936    20.129973    21.079041    8569.9745    2714.5285    3389.3733    3295.3413   -171.29731     227.8509   -409.57454   -3814.4111 
 1423000     250.6204   -4702.3276   -4218.9851   -4702.3276            0    3035.7937    20.254177    20.058598    20.862057    8475.6363    2533.0916    2998.5038    3575.7857    1158.9107    338.59257   -894.66259   -3843.7353 
 1424000    260.11908   -4699.2808   -4197.6193   -4699.2808            0    833.16983    20.352525    20.322956    20.766782    8589.6283    1086.1455   -124.47599      1537.84    505.93509    349.98923    104.70951   -4093.2474 
 1425000    250.42163   -4687.4128   -4204.4536   -4687.4128            0    4113.5506    20.026801    19.984557    20.986843     8399.496    4231.6124     5257.707    2851.3324   -1298.6997    1363.1239   -1674.0732   -3700.5518 
 1426000     258.0006   -4722.8717   -4225.2958   -4722.8717            0    3138.0412    20.052424    20.134545    21.149935    8539.2111    3882.9918    3054.8751    2476.2566    176.41971     838.0815    257.45849   -3834.4979 
 1427000    250.71003   -4670.3582   -4186.8429   -4670.3582            0    1747.7461      19.9488    20.273214    21.185823    8568.1036    2057.6075    1260.4901    1925.1405    -298.4329   -550.73193   -39.774023   -3968.4498 
 1428000    250.78594    -4673.292   -4189.6302    -4673.292            0    2928.2385    20.065726    19.998731    21.021971    8435.8867    1455.6954    4367.9204    2961.0997    -928.0773   -681.26952   -150.45497   -3829.3727 
 1429000    261.61951   -4672.3502    -4167.795   -4672.3502            0    585.25102    20.054957    20.267444    21.386456    8692.7969    2324.0794   -458.69303   -109.63326    163.62512    128.95833   -376.21849   -4093.5995 
 1430000    267.57576   -4698.8984    -4182.856   -4698.8984            0    3454.6799    20.142009    20.054497    20.898934    8441.8705    3053.6031    4672.9904    2637.4463    446.84755    1336.8638    1030.9876   -3757.5296 
 1431000     258.9554    -4704.851   -4205.4337    -4704.851            0    3101.2664    20.154247    20.297981    20.633464    8440.9549    3192.7749     2927.164    3183.8604   -334.26481   -1074.3122    384.27393   -3823.6595 
 1432000    245.89049   -4668.7759   -4194.5554   -4668.7759            0    1878.5205    20.223036    20.221561    21.068842    8615.9212    545.37231    3467.5925    1622.5967   -554.44317    1159.0024    987.97339   -3958.5111 
 1433000     252.9516    -4706.928   -4219.0896    -4706.928            0    2643.6145    20.157937    20.081568    21.054295    8522.8414    2598.8828    3442.5413    1889.4195   -780.85007    1552.0701   -813.25522   -3890.4965 
 1434000    254.98222   -4714.0719   -4222.3172   -4714.0719            0    806.07523    20.153369    20.078786    21.365717    8645.7479    1577.9935    828.90558      11.3266    527.31166    506.49154    36.994774   -4120.6797 
 1435000    264.66644   -4680.5059   -4170.0744   -4680.5059            0    3330.7233    20.059222    20.083241    21.010757    8464.2712    4016.2942    3371.9068    2603.9689    224.88549    741.59755    101.67997   -3758.9209 
 1436000     263.7973   -4664.1345   -4155.3793   -4664.1345            0    3649.7928    20.321119    20.002393    20.778914    8446.0263     2517.328    5246.6204    3185.4299    357.34736    555.62218    1342.5381   -3705.8101 
 1437000    255.56342   -4706.2594   -4213.3839   -4706.2594            0    3246.0251    20.283385    19.868796     21.03142    8475.7976    1346.0468    5562.4751    2829.5534    407.99931   -615.27393    -184.9083   -3812.1401 
 1438000    253.02718   -4670.3148   -4182.3306   -4670.3148            0    2623.6677    20.209697    20.047236    21.028665    8519.7336    2303.1524    2777.9695    2789.8814   -400.28211    895.18517    360.33324   -3856.3358 
 1439000    253.17957   -4707.2807   -4219.0026   -4707.2807            0    2763.2614     20.22477    20.033635     20.79794    8426.8191    2533.0836    2987.4286     2769.272    10.366064   -860.39358   -740.12056   -3879.4074 
 1440000    258.45631   -4654.8505   -4156.3957   -4654.8505            0    928.23303    20.109087      20.2565    21.212173    8640.5607    1190.6589    490.47143    1103.5688    36.569943   -751.08641   -724.14159   -4039.4256 
 1441000    257.60135   -4684.6272   -4187.8213   -4684.6272            0    2756.0498    20.276969    19.890943    21.152933    8531.5708    1267.5105    4144.6994    2855.9395   -372.24008    183.57442    1732.5317    -3844.902 
 1442000    261.19368   -4682.6589   -4178.9249   -4682.6589            0    1364.0588    20.063242    20.204661    21.079887     8545.175    3686.0659   -845.68535    1251.7959   -875.41537    -297.0737   -805.55416   -4008.9323 
 1443000    252.46824   -4679.8979   -4192.9917   -4679.8979            0    2107.2015     20.16703    19.920457    21.158077    8499.9712   -55.130689    4484.2752      1892.46   -576.64257     340.8249    1163.5211   -3931.7759 
 1444000    261.70709   -4667.0729   -4162.3488   -4667.0729            0     2837.472    20.128957    19.816762     21.33914    8511.9859    2490.6199    4150.7971     1870.999   -257.64121    270.64555   -1108.9783    -3810.109 
 1445000    264.36125   -4705.3615   -4195.5186   -4705.3615            0    1382.3531     20.25928    20.172716    20.968914    8569.6744   -132.52472    2304.9912    1974.5928   -924.63399   -819.49644    408.94621   -4022.7522 
 1446000    256.98672    -4693.811   -4198.1905    -4693.811            0     2095.838    20.290556     20.18918    20.552896    8419.4874    1169.3668    2120.6589    2997.4885   -335.98766    849.38427    964.73514   -3940.8434 
 1447000    251.00229   -4675.1111    -4191.032   -4675.1111            0    274.70266    20.222477    20.195327    20.936058    8550.2764    -1146.787    1479.6995    491.19546   -877.22397    239.78424    -391.2478   -4156.7774 
 1448000    255.24107   -4687.6787   -4195.4248   -4687.6787            0    2241.6858    20.074294    20.159183    21.153102    8560.2663    4142.1997    476.93934    2105.9185    533.29089     211.5234    543.02259   -3915.5667 
 1449000    270.36562   -4683.0568    -4161.634   -4683.0568            0    3440.1247    20.126227    20.040817     21.03422    8484.0689    4086.8272    1959.5661    4273.9808   -428.04107    568.24257   -2101.8805   -3735.9824 
 1450000     251.2918   -4686.0158   -4201.3785   -4686.0158            0    3073.0249    20.138539    19.954059    21.224968    8529.1598    3232.3798    4026.2851    1960.4099   -264.74146    722.43416    560.14008   -3819.1278 
 1451000    248.07148   -4683.3631   -4204.9364   -4683.3631            0    662.61743    20.186383    20.264287    20.979838    8582.0683   -181.33156    1209.9945    959.18934   -1156.1538   -478.99442     224.0841   -4122.0028 
 1452000    256.81072    -4678.779   -4183.4979    -4678.779            0    1895.7213    20.185318    20.050474    21.034114    8513.0357    3325.2064    629.99416    1731.9635    590.68007     434.9462   -642.55339   -3948.1367 
 1453000    250.98975   -4704.6385   -4220.5836   -4704.6385            0    -45.89346    20.177984    20.283144    20.877063     8544.417   -2090.3574    678.60028    1274.0767    25.753147    353.98706    510.32821   -4226.3025 
 1454000    249.75771   -4703.9797   -4222.3009   -4703.9797            0    2919.2273    20.069458    20.190595    20.822973    8437.7664    3997.8251    1460.4807    3299.3761   -647.07906    888.04932     294.2656    -3863.072 
 1455000    246.79634   -4700.9077   -4224.9402   -4700.9077            0    1771.1922    20.153094    20.109305    20.944869    8488.2161     1632.148    2399.3133    1282.1153    252.82995   -1395.1162    220.06924   -4005.6809 
 1456000    250.89264   -4705.9135   -4222.0459   -4705.9135            0    1490.4456    19.841771    19.987634    21.419451    8494.7414    1153.4727    4054.7152   -736.85106    202.06824    625.28854   -332.92626    -4037.399 
 1457000    256.96872   -4696.7905   -4201.2047   -4696.7905            0    291.51153    20.104576    20.168072     21.34556    8654.9961    1810.4457   -1316.6629    380.75177   -304.17124    477.13779   -1664.3946   -4164.4089 
 1458000    256.30142   -4667.6357   -4173.3368   -4667.6357            0    4234.8976    20.188612    19.932936    20.936847    8425.3705    5329.1292     3172.926    4202.6377   -370.61364   -355.94737    1134.0461   -3652.9721 
 1459000    268.75819   -4714.9531   -4196.6303   -4714.9531            0    3982.7071    19.965325    20.220732    20.889645    8433.4312    4377.7967    3659.8948    3910.4299   -732.11593   -494.70284    212.52476   -3706.7854 
 1460000    268.83677   -4682.2693   -4163.7949   -4682.2693            0    2697.4181    20.275333    20.109592    20.772796    8469.6648    1975.5478    2326.9533    3789.7532   -763.77528   -33.036603    307.30427   -3830.6062 
 1461000    259.92456   -4692.1237   -4190.8374   -4692.1237            0       2194.4    20.037481    20.066138    21.274655    8554.0043    2990.6376    2172.0911    1420.4713   -875.40767   -845.74709   -389.26349   -3917.0829 
 1462000     253.2471    -4679.129   -4190.7207    -4679.129            0    2803.1199    20.003811    19.974436    21.312852    8515.8662    4184.4206    3105.6128    1119.3265   -313.00048    449.98407   -435.21408   -3842.5867 
 1463000    264.71662   -4677.4138   -4166.8855   -4677.4138            0    1011.5031      20.2375    20.184454     21.04069    8594.7618    993.68565    288.46708    1752.3564    71.148271    976.20019    166.63599   -4040.0978 
 1464000    267.06683   -4694.1288   -4179.0679   -4694.1288            0    3353.3611    20.066716    20.282701     20.63032    8396.6886    2737.2726    2687.5222    4635.2886   -193.21887    1323.3598    391.66533   -3768.4251 
 1465000    252.47564   -4730.3806     -4243.46   -4730.3806            0     3114.324    20.188899    19.954608     20.96136     8444.526    1614.5803    4005.6401    3722.7517    30.767802   -381.95663    349.56635   -3859.9162 
 1466000    265.27898   -4720.8735   -4209.2607   -4720.8735            0    3443.7088    20.068517    20.219963    20.901845    8481.6487    3779.4529    2636.7175     3914.956    169.03725   -203.64723   -92.977903   -3783.2872 
 1467000    243.72752   -4695.0839   -4225.0349   -4695.0839            0    2717.7061    20.324572    19.994619    20.826364    8463.4613    1014.1299    3573.7042    3565.2843    563.39796   -617.12671    347.32058    -3889.586 
 1468000    257.70964   -4678.0476   -4181.0329   -4678.0476            0    1159.1522    20.249042    20.255996    21.041572    8630.5059    1666.8123    870.18766    940.45652   -461.01699   -22.736111   -255.54523   -4035.1338 
 1469000    254.98183   -4674.6203   -4182.8664   -4674.6203            0    3082.2685    20.021513    20.135466    21.055014    8488.1707    4180.1811    1810.0853    3256.5391   -179.31411    488.91498   -760.87669   -3801.3085 
 1470000    254.61052   -4718.0942   -4227.0564   -4718.0942            0    1303.2111    20.080497    19.895269    21.418438    8556.8138    3512.3138    753.90236   -356.58285   -416.27737   -1688.6998   -387.30487   -4064.4256 
 1471000    249.81315   -4679.4135   -4197.6278   -4679.4135            0     2813.926    20.142132    20.006571    21.304555    8585.2025    2712.2777    2948.9764     2780.524   -249.94643    1433.3749   -1800.9318   -3845.3063 
 1472000    266.31377   -4733.7372   -4220.1287   -4733.7372            0    2559.1354    20.165104    20.125905    20.852385    8462.7523    2693.0667    1678.6788    3305.6607   -449.76051   -91.366848    928.49309   -3904.2788 
 1473000    252.81482   -4699.9634   -4212.3887   -4699.9634            0    1792.7723    20.159346    20.258907    20.853482    8516.6938    1376.5625      1310.04    2691.7143   -731.70936    728.79324   -1133.4971   -3989.7134 
 1474000     253.3509   -4696.5858   -4207.9772   -4696.5858            0    3320.1622    20.095538    19.915171    21.218845    8491.9107    2513.4315    4511.4484    2935.6067   -181.48351    536.15231    122.76273   -3796.7891 
 1475000    244.61135   -4685.3114   -4213.5578   -4685.3114            0    2484.2796    20.007765    19.912839    21.387843    8521.1606    1738.3887    3745.8351     1968.615    198.70554   -1403.8535    535.78843   -3904.8305 
 1476000    245.63407   -4676.4878   -4202.7618   -4676.4878            0     1818.895    20.304741    19.994685    21.102235    8567.2313   -281.32418     3902.625    1835.3842    87.781299   -282.44659   -932.30135   -3975.5013 
 1477000    268.15364   -4653.4075   -4136.2506   -4653.4075            0     1321.796    20.219155    20.239454    20.822584    8521.1145    2385.7423     149.4489    1430.1967    365.04775    115.43226    640.95911   -3971.9888 
 1478000    267.98091    -4682.159   -4165.3352    -4682.159            0    4692.5085    19.906573    20.158007    20.922525    8395.7245    5139.3789    4769.7423    4168.4043    676.82781    886.09324    442.92941   -3590.7703 
 1479000    267.98578   -4692.0308   -4175.1977   -4692.0308            0    3023.4851    20.083214     20.02367    21.281676     8558.206    2763.3487    4521.8923    1785.2143    99.214875   -358.61015   -784.13456   -3797.8285 
 1480000     267.9581   -4668.5307    -4151.751   -4668.5307            0    184.12826    20.220562    20.127251     21.12827    8598.8747   -395.39352    288.68056    659.09774    717.58337    -1063.832    1435.8296   -4128.6603 
 1481000    275.26822   -4704.1686   -4173.2907   -4704.1686            0    2842.9759    19.903472    20.401365     21.05863    8551.0251    4131.0898    666.14819    3731.6896    609.06693   -683.42273    526.60585   -3818.7491 
 1482000    261.97802   -4690.0731   -4184.8265   -4690.0731            0    2490.4497    20.129596    20.150138    20.775732    8426.9309    3084.1185    1508.2512    2878.9794    223.43277   -872.03096   -317.63062   -3878.7548 
 1483000    253.48488   -4694.4025   -4205.5356   -4694.4025            0   -124.39424    20.170493    20.403103     20.93472    8615.4888   -1061.6873    113.08211     575.4225    134.05172   -324.35112   -679.64969   -4221.1655 
 1484000     252.2938   -4658.6519   -4172.0821   -4658.6519            0    3221.6389    20.091489    20.318834    20.577453    8400.4496    2969.3096    2428.9701    4266.6369   -444.62637   -2.7730115     755.1547   -3777.3929 
 1485000    253.46489   -4710.9872   -4222.1588   -4710.9872            0    1904.1358    20.029496    20.313174    20.977431    8534.9328    1578.7901    595.02957    3538.5879   -566.06665   -1604.9926    1188.4419   -3985.1448 
 1486000    255.61497   -4700.7996   -4207.8246   -4700.7996            0    2484.7047    20.080141    19.991531    21.018773    8437.6243    1061.9099    5212.2528    1179.9515   -400.02117   -1336.2359    586.77973   -3902.0715 
 1487000    251.67549   -4677.6877   -4192.3103   -4677.6877            0    2511.8882    20.275504    20.020292    21.109273    8568.7077    691.35811    4120.5147    2723.7918   -375.51695    300.37409    969.12382   -3878.4102 
 1488000    254.43775   -4668.9775   -4178.2729   -4668.9775            0    3343.4604    19.917142    20.217389    21.146853    8515.2586      4430.84    2009.3475    3590.1936    112.02782    -860.0274    956.59218   -3763.0608 
 1489000    245.79395   -4680.6589   -4206.6246   -4680.6589            0    883.53009    20.198969     20.17662     20.96817    8545.5131    1424.2128   -411.70376    1638.0812    437.04346    52.193469    340.80045   -4096.5124 
 1490000    274.68868   -4707.5782    -4177.818   -4707.5782            0    2067.4966    20.218544    20.190691    20.739333    8466.3428    3548.2294   -425.66155    3079.9221   -234.27771    783.28136    296.87469   -3922.5381 
 1491000    252.32482   -4705.2513   -4218.6217   -4705.2513            0    3034.2916    20.271526    20.101586    20.822437    8484.9313    1506.4045    4371.3046    3225.1658    -96.78957    687.20665   -269.67022   -3843.1463 
 1492000    255.43519   -4688.8742    -4196.246   -4688.8742            0    2763.5399    20.114309     20.08039    20.952544    8462.7989    1449.4273    4131.3399    2709.8526    579.76755    1160.0972   -71.237292   -3855.1665 
 1493000    255.05728     -4665.34   -4173.4406     -4665.34            0    2973.6359    20.032373    20.038158    21.255952    8532.3914     3164.439    2637.8087      3118.66    -864.2167   -739.10407   -777.64791   -3803.4127 
 1494000    260.42361   -4684.1209   -4181.8721   -4684.1209            0    1953.5067    20.043075    20.189618    21.010814    8502.2784    836.23941    4087.5239    936.75684    158.71964    102.39377    924.63245   -3939.6431 
 1495000    273.04563   -4665.7955   -4139.2041   -4665.7955            0    254.61372    20.274195    20.186088    20.876264    8543.7508    1477.2141   -1547.8284    834.45548   -755.04604   -345.28839     1230.715   -4107.4787 
 1496000    263.20929   -4676.1117   -4168.4905   -4676.1117            0    1222.7175    20.259558    20.292248    20.881523    8584.6442     633.0305    1881.2388    1153.8831    245.45959   -129.85496    534.41103   -4015.4084 
 1497000    259.44547   -4702.8635   -4202.5011   -4702.8635            0    2130.5203    20.168478     20.20358     20.75515    8457.2142    736.15633    2489.7176    3165.6869    59.863707    2499.2995    882.73179   -3939.7232 
 1498000    269.92596   -4689.9628   -4169.3879   -4689.9628            0    1826.6155    20.060267    20.229826    21.078606    8554.0292    1698.2337    2312.4496    1469.1633   -428.96546    58.668062   -992.91327   -3941.5144 
 1499000    238.50947   -4675.7106   -4215.7251   -4675.7106            0    1741.0639     19.96936    20.140771    21.253108    8547.9639    2147.1812    2061.9863    1014.0244   -246.77657    907.38333   -452.93805   -3998.6783 
 1500000    260.27951   -4649.9781   -4148.0072   -4649.9781            0     2844.273    19.964958    20.219807    21.226469    8568.8622    4562.4478     1923.363    2047.0083    510.08514    1088.1291    2073.0803   -3792.5639 
Loop time of 382.321 on 64 procs for 250000 steps with 972 atoms

Performance: 112.994 ns/day, 0.212 hours/ns, 653.900 timesteps/s
193.5% CPU use with 32 MPI tasks x 2 OpenMP threads

MPI task timing breakdown:
Section |  min time  |  avg time  |  max time  |%varavg| %total
---------------------------------------------------------------
Pair    | 27.603     | 34.016     | 42.425     |  64.4 |  8.90
Bond    | 0.81792    | 1.1484     | 2.2209     |  23.5 |  0.30
Kspace  | 163.42     | 172.71     | 180.51     |  36.2 | 45.17
Neigh   | 2.2596     | 2.548      | 2.8088     |  10.0 |  0.67
Comm    | 74.917     | 80.455     | 85.967     |  30.4 | 21.04
Output  | 0.48136    | 0.48175    | 0.48344    |   0.0 |  0.13
Modify  | 73.281     | 76.118     | 79.78      |  18.5 | 19.91
Other   |            | 14.85      |            |       |  3.88

Nlocal:        30.3750 ave          37 max          23 min
Histogram: 1 2 4 4 4 4 4 5 1 3
Nghost:        2538.50 ave        2573 max        2499 min
Histogram: 1 2 2 2 5 7 8 2 2 1
Neighs:        9203.91 ave       11558 max        7014 min
Histogram: 2 5 3 6 2 1 4 4 2 3

Total # of neighbors = 294525
Ave neighs/atom = 303.00926
Ave special neighs/atom = 2.0000000
Neighbor list builds = 8294
Dangerous builds = 0

unfix		3
unfix		2
unfix		1

write_data	data.final.${pid}
write_data	data.final.0
System init for write_data ...
PPPM initialization ...
  extracting TIP4P info from pair style
  using 12-bit tables for long-range coulomb (../kspace.cpp:340)
  G vector (1/distance) = 0.37158545
  grid = 24 24 25
  stencil order = 5
  estimated absolute RMS force accuracy = 0.0035089473
  estimated relative force accuracy = 1.0567091e-05
  using double precision FFTW3
  3d grid and FFT values/proc = 3458 576
Last active /omp style is kspace_style pppm/tip4p/omp
WARNING: Not all mixed pair coeffs generated from mixing. Use write_data with 'pair ij' option to store all pair coeffs. (../write_data.cpp:312)

write_restart   restart.lmp.${pid}
write_restart   restart.lmp.0
System init for write_restart ...
PPPM initialization ...
  extracting TIP4P info from pair style
  using 12-bit tables for long-range coulomb (../kspace.cpp:340)
  G vector (1/distance) = 0.37158545
  grid = 24 24 25
  stencil order = 5
  estimated absolute RMS force accuracy = 0.0035089473
  estimated relative force accuracy = 1.0567091e-05
  using double precision FFTW3
  3d grid and FFT values/proc = 3458 576
Last active /omp style is kspace_style pppm/tip4p/omp
Total wall time: 0:06:22
