LAMMPS (30 Jul 2021)
  using 1 OpenMP thread(s) per MPI task
package omp 0
using multi-threaded neighbor list subroutines
echo both

include		in.partitions
variable        pid world 0
include		in.temp
variable        temperature equal 245.87
variable	tempDamp equal 100.0
include		in.pressure
variable        pressure equal 6500.0
variable        pressureDamp equal 1000.0 # This is 1 ps
include		in.seed
variable        seed world 745823

units		real
atom_style	full
read_restart	restart.lmp.${pid}
read_restart	restart.lmp.0
Reading restart file ...
  restart file = 30 Jul 2021, LAMMPS = 30 Jul 2021
  restoring atom style full from restart
  orthogonal box = (0.57304710 1.7665051 0.69911613) to (17.634525 21.862673 21.514080)
  4 by 4 by 4 MPI processor grid
  restoring pair style lj/cut/tip4p/long/omp from restart
  restoring bond style harmonic/omp from restart
  restoring angle style harmonic/omp from restart
  864 atoms
  576 bonds
  288 angles
Finding 1-2 1-3 1-4 neighbors ...
  special bond factors lj:    0        0        0       
  special bond factors coul:  0        0        0       
     2 = max # of 1-2 neighbors
     1 = max # of 1-3 neighbors
     1 = max # of 1-4 neighbors
     2 = max # of special neighbors
  special bonds CPU = 1.979 seconds
  read_restart CPU = 2.410 seconds
include 	in.setup
variable	out_freq equal 1000
variable	out_freq2 equal 10000
variable	out_freq3 equal 1000

timestep	2.0

neigh_modify    delay 7 every 1

include		in.tip4p
# This is TIP4P/Ice

# create groups ###
group ox type 2
288 atoms in group ox
group hy type 1
576 atoms in group hy

# set charges - beside manually ###
set group ox charge -1.1794
Setting atom values ...
  288 settings made for charge
set group hy charge 0.5897
Setting atom values ...
  576 settings made for charge

# ### TIP3P Potential Parameters ###
pair_style lj/cut/tip4p/long/omp 2 1 1 1 0.1577 8.5
pair_coeff 1 1*2 0.000 0.000
pair_coeff 2 2 0.21084 3.1668
bond_style  harmonic
bond_coeff  1 450 0.9572
angle_style harmonic
angle_coeff 1 55 104.52
kspace_style pppm/tip4p/omp 1.0e-5
pair_modify tail yes

thermo          ${out_freq}
thermo          1000
thermo_style    custom step temp pe etotal epair emol press lx ly lz vol pxx pyy pzz pxy pxz pyz enthalpy

restart 	${out_freq3} restart.lmp.${pid} restart2.lmp.${pid}
restart 	1000 restart.lmp.${pid} restart2.lmp.${pid}
restart 	1000 restart.lmp.0 restart2.lmp.${pid}
restart 	1000 restart.lmp.0 restart2.lmp.0


include         in.dump
dump            myDump all atom ${out_freq2} dump.water.${pid}
dump            myDump all atom 10000 dump.water.${pid}
dump            myDump all atom 10000 dump.water.0
dump            myDump2 all dcd ${out_freq2} dump.dcd
dump            myDump2 all dcd 10000 dump.dcd
dump_modify     myDump append yes
dump_modify     myDump2 append yes


variable natoms 	equal  "count(all)"                        # NUMBER ATOMS
variable H      	equal  "enthalpy/v_natoms"                 # ENTHALPY-per-atom
variable Vol      	equal  "vol/v_natoms"                 # volume-per-atom
fix AVG all 		ave/time ${out_freq} 1 ${out_freq} v_Vol v_H file vol_enthalpy.dat
fix AVG all 		ave/time 1000 1 ${out_freq} v_Vol v_H file vol_enthalpy.dat
fix AVG all 		ave/time 1000 1 1000 v_Vol v_H file vol_enthalpy.dat


timer           timeout 23:50:00 every 1000
New timer settings: style=normal  mode=nosync  timeout=23:50:00

fix 		1 all shake 1e-6 200 0 b 1 a 1
       0 = # of size 2 clusters
       0 = # of size 3 clusters
       0 = # of size 4 clusters
     288 = # of frozen angles
  find clusters CPU = 0.259 seconds
fix             2 all nph iso ${pressure} ${pressure} ${pressureDamp}
fix             2 all nph iso 6500 ${pressure} ${pressureDamp}
fix             2 all nph iso 6500 6500 ${pressureDamp}
fix             2 all nph iso 6500 6500 1000
fix             3 all temp/csvr ${temperature} ${temperature} ${tempDamp} ${seed}
fix             3 all temp/csvr 245.87 ${temperature} ${tempDamp} ${seed}
fix             3 all temp/csvr 245.87 245.87 ${tempDamp} ${seed}
fix             3 all temp/csvr 245.87 245.87 100 ${seed}
fix             3 all temp/csvr 245.87 245.87 100 745823

run             250000
PPPM initialization ...
  extracting TIP4P info from pair style
  using 12-bit tables for long-range coulomb (../kspace.cpp:340)
  G vector (1/distance) = 0.373842
  grid = 24 24 24
  stencil order = 5
  estimated absolute RMS force accuracy = 0.0032092099
  estimated relative force accuracy = 9.6644403e-06
  using double precision FFTW3
  3d grid and FFT values/proc = 2535 216
Last active /omp style is kspace_style pppm/tip4p/omp
Neighbor list info ...
  update every 1 steps, delay 7 steps, check yes
  max neighbors/atom: 2000, page size: 100000
  master list distance cutoff = 10.8154
  ghost atom cutoff = 10.8154
  binsize = 5.4077, bins = 4 4 4
  1 neighbor lists, perpetual/occasional/extra = 1 0 0
  (1) pair lj/cut/tip4p/long/omp, perpetual
      attributes: half, newton on, omp
      pair build: half/bin/newton/omp
      stencil: half/bin/3d
      bin: standard
Per MPI rank memory allocation (min/avg/max) = 9.236 | 9.238 | 9.241 Mbytes
Step Temp PotEng TotEng E_pair E_mol Press Lx Ly Lz Volume Pxx Pyy Pzz Pxy Pxz Pyz Enthalpy 
14000000    250.02822   -3917.2821   -3488.7423   -3917.2821            0    7665.0844    17.061478    20.096168    20.814964    7136.8333    8521.6423    7833.6682    6639.9427   -1287.1384    2407.0093    1418.6232   -2690.9343 
14001000    255.81339   -3959.6106   -3521.1552   -3959.6106            0    6657.8585    17.061069    20.095686    20.814464    7136.3199    7440.7861     6666.499    5866.2903   -726.40941   -37.807494    83.134326   -2828.2325 
14002000    250.65869   -3960.9213   -3531.3008   -3960.9213            0    8920.8836    17.066693     20.10231    20.821326    7143.3793    8939.5713    10037.019    7786.0609    853.68806    835.72243    741.10923   -2601.9333 
14003000    238.76188   -3954.5604   -3545.3307   -3954.5604            0    4554.6135    17.160439    20.212731    20.935696    7261.7417    5317.1811    6017.6846    2328.9748   -406.23646    412.76042    1198.5147   -3062.9741 
14004000    238.89857   -3963.3567   -3553.8927   -3963.3567            0    5570.2544    17.116487    20.160961    20.882074    7206.0869     4717.139     6519.646    5473.9781   -339.30874   -1051.0958   -1396.8228   -2968.4958 
14005000    258.44033   -3940.7519    -3497.794   -3940.7519            0    7471.3113    17.037637    20.068086    20.785877    7106.9564     8468.852    6541.3141    7403.7676   -602.51608   -1683.7295    74.797015     -2723.41 
14006000     247.9829   -3932.5335   -3507.4993   -3932.5335            0    7647.6147    17.023433    20.051355    20.768548    7089.1963    9080.1274    6008.3556     7854.361    447.71715   -41.185297     373.1218   -2716.8227 
14007000    238.03025   -3905.1551   -3497.1794   -3905.1551            0    8116.9057    17.029303    20.058269    20.775709    7096.5322    8338.0096    7014.7226     8997.985    900.05967   -120.73979    608.44783    -2657.115 
14008000    256.72392   -3957.0815   -3517.0655   -3957.0815            0     5610.237    17.153968    20.205109    20.927801    7253.5298    5912.3333    6135.5103    4782.8673    573.12434   -928.67119     1491.661   -2923.5849 
14009000    248.37815    -3918.547   -3492.8354    -3918.547            0    6047.5969    17.112853     20.15668    20.877641    7201.4981    5541.8635      6404.49    6196.4372    181.96426    1237.1906    471.09698   -2857.6776 
14010000    250.90696    -3929.144   -3499.0981    -3929.144            0    7778.1089    17.062964    20.097917    20.816776    7138.6976    7393.0128    7124.3204    8816.9936    260.45298   -1798.1158   -296.83379   -2689.3147 
14011000    250.96858   -3940.7984   -3510.6469   -3940.7984            0    6789.9601    17.143026     20.19222    20.914452    7239.6579    8178.8281    6958.6559    5232.3963   -1140.4225   -834.12112   -1025.8499   -2793.7426 
14012000     258.1759   -3909.6095   -3467.1048   -3909.6095            0    7051.4957    17.093691     20.13411    20.854263    7177.3335    6352.7734    7794.8207    7006.8931    709.26729   -429.19991   -268.37505   -2728.9962 
14013000    239.94578   -3910.3898    -3499.131   -3910.3898            0    4311.1717    17.148865    20.199098    20.921576    7247.0584    3713.4383    3845.3487    5374.7281    2397.1039   -1241.3547   -1432.1305   -3043.4793 
14014000    228.90957   -3920.9962   -3528.6531   -3920.9962            0    7440.8848    17.012754    20.038778    20.755521    7075.8643    7500.2979     7024.512    7797.8447    1237.2582   -1314.2414   -968.85512   -2760.7967 
14015000    248.54117   -3937.4002   -3511.4091   -3937.4002            0    5487.6215    17.067247    20.102962    20.822001    7144.0747    4212.7951    6424.2784    5825.7911    2122.0973    124.51891   -193.58488   -2939.6593 
14016000    258.89277   -3943.8009   -3500.0676   -3943.8009            0    6972.1394    17.084474    20.123253    20.843018    7165.7292    8017.7593     5387.123     7511.536    511.76566   -578.50566   -80.986765   -2771.4454 
14017000    253.55076   -3925.6117   -3491.0344   -3925.6117            0     7426.017    17.084266    20.123008    20.842764    7165.4678    7393.4843    8978.6062    5905.9605   -935.65946    353.77767    742.09292   -2715.0082 
14018000    241.90545    -3957.987   -3543.3694    -3957.987            0     5143.678     17.15847    20.210411    20.933293    7259.2415    5850.4812    3767.7759    5812.7769   -225.20806     801.7876   -52.850321   -2998.8154 
14019000    251.11873   -3923.6346   -3493.2257   -3923.6346            0    7634.2634    17.101394    20.143183     20.86366    7187.0408    7398.8919    8352.9415    7150.9569    843.40694   -654.42596    1236.4437   -2693.0357 
14020000    234.26734   -3932.2251   -3530.6989   -3932.2251            0    5624.5874    17.118323    20.163124    20.884314    7208.4063    5775.7736    7055.2339    4042.7548    799.93514    1139.6247    1164.1672   -2939.4017 
14021000    244.62862   -3916.6382   -3497.3532   -3916.6382            0    5927.8335    17.094573    20.135149    20.855339    7178.4443    5993.7743    6397.8132     5391.913   -1013.5447    1143.8624    671.72801   -2876.7668 
14022000    253.94416   -3886.0615   -3450.8099   -3886.0615            0    7247.8182     17.05954    20.093885    20.812599    7134.4011    4867.7272    8615.7012    8260.0261    312.85001   -2508.2728   -264.83437   -2696.6894 
14023000    238.73051   -3910.8741   -3501.6982   -3910.8741            0    6274.3298     17.12913    20.175853    20.897499     7222.067    7231.5597    5616.5407     5974.889    281.49837   -155.18571   -1508.4575   -2840.8454 
14024000    256.52077   -3855.2179   -3415.5501   -3855.2179            0    8265.5107    17.017943    20.044889    20.761851      7082.34    6746.4655    8493.8971    9556.1694   -535.69828   -1874.9265    198.28342   -2561.8165 
14025000    248.50955   -3909.1313   -3483.1944   -3909.1313            0     5966.856     17.07583    20.113072    20.832473    7154.8588    5253.5959    6333.0688    6313.9034     206.0211     214.7045    629.94775   -2860.5752 
14026000    254.81558    -3911.364   -3474.6188    -3911.364            0    4827.4629     17.19422     20.25252    20.976909    7304.7113    6284.3529    4233.3339    3964.7018    212.16622   -375.56561    911.84424   -2960.3409 
14027000    249.30347   -3908.9207   -3481.6231   -3908.9207            0     5244.697    17.122376    20.167898    20.889259    7213.5276     3138.235    4888.6156    7707.2404    644.46464    1337.6614    40.708912    -2929.871 
14028000    240.94333   -3921.6025   -3508.6339   -3921.6025            0    6526.7244     17.09794    20.139115    20.859447    7182.6872     5960.507    4301.9246    9317.7415    1341.8717   -1148.2291    27.816213   -2824.9456 
14029000    239.86506   -3940.2523   -3529.1318   -3940.2523            0    3066.6156    17.143411    20.192673    20.914921    7240.1454    2699.9631    3232.6878    3267.1959   -1100.0055    831.07724    1006.0941   -3205.3276 
14030000    252.54059   -3919.4766   -3486.6306   -3919.4766            0     6483.574    17.066378    20.101939    20.820941    7142.9836    6779.9728    7524.1431    5146.6061    1175.5609    148.45098    563.50191   -2811.2167 
14031000    245.13364   -3908.6548   -3488.5042   -3908.6548            0    3985.4546    17.196528    20.255239    20.979724    7307.6529    2716.2529    3704.8189     5535.292   -1219.5269    747.79849    191.91104   -3063.7559 
14032000    234.40694   -3890.9757   -3489.2102   -3890.9757            0    6930.0927    17.056043    20.089766    20.808333    7130.0148    8261.1965    4680.6869    7848.3945    497.64148      151.902    45.993993   -2768.5918 
14033000    259.95614   -3950.9267   -3505.3708   -3950.9267            0    7612.3518    17.027644    20.056316    20.773686    7094.4591     7345.743    7396.6011    8094.7114   -1116.1795    1832.1809   -258.28583   -2717.7557 
14034000    232.41173   -3941.1531   -3542.8074   -3941.1531            0    4653.1541    17.089998     20.12976    20.849757    7172.6825    4176.7239    3757.5118    6025.2267    237.25819    2062.7418   -144.16304   -3056.0585 
14035000    232.00271   -3943.3483   -3545.7036   -3943.3483            0    8022.6075    17.017132    20.043933    20.760861    7081.3272    6669.1289    9282.4968    8116.1968    40.994305    1247.1647    898.63153   -2717.1777 
14036000    255.85029   -3973.2957   -3534.7771   -3973.2957            0    4318.9666     17.14924     20.19954    20.922033    7247.5339    3711.8161    5381.0768    3864.0069    437.61318    395.23412   -105.35397   -3078.2716 
14037000    258.20344   -3948.5639    -3506.012   -3948.5639            0    8334.6919    17.065202    20.100553    20.819506     7141.507    7589.8461    9007.3531    8406.8766    537.19257      700.822   -504.64981   -2637.9409 
14038000    239.57978   -3915.7588   -3505.1272   -3915.7588            0    5185.7514    17.128345    20.174928    20.896541    7221.0739    4936.1288    4990.6186    5630.5066    1109.4169    1320.0732    840.73924   -2959.0056 
14039000    248.50328   -3928.3834   -3502.4572   -3928.3834            0    6280.0279    17.176718    20.231905    20.955556    7282.4272     5263.177     8562.691    5014.2156    809.19232   -653.82877   -1455.3613    -2835.476 
14040000    240.66951   -3924.3433    -3511.844   -3924.3433            0    4940.6016    17.134714     20.18243    20.904311    7229.1324     5450.816    5593.7354    3777.2534   -37.219439   -1317.5502   -264.55288   -2990.9589 
14041000    236.85383   -3931.3322   -3525.3729   -3931.3322            0    5268.4821    17.115803    20.160155    20.881239    7205.2224     6699.507    4589.1145    4516.8247    533.73198   -2530.0686   -128.89614   -2971.7567 
14042000     239.2056   -3919.0157   -3509.0255   -3919.0157            0    7865.9292    17.031701    20.061094    20.778635    7099.5307     7511.891    7987.3424     8098.554    1355.1785   -1138.8515    2415.1242   -2694.5921 
14043000    257.57398   -3931.3378   -3489.8648   -3931.3378            0    7112.2599    17.038129    20.068666    20.786478    7107.5728    6208.5483    8252.3507    6875.8807    1971.3921    700.92802    -350.6057   -2752.6317 
14044000    257.14701   -3910.3263   -3469.5852   -3910.3263            0    6150.0202    17.055223      20.0888    20.807333    7128.9869    4576.6967    6615.9753    7257.3888   -883.78629   -239.47406   -90.335435   -2830.1739 
14045000     240.3339   -3947.0996   -3535.1756   -3947.0996            0    6245.0558    17.011959     20.03784     20.75455    7074.8714    5165.8063    6336.0703    7233.2907    18.456114    294.63834    981.37105   -2890.8123 
14046000    247.34236   -3909.7401   -3485.8038   -3909.7401            0     6678.789    17.046035    20.077977    20.796122    7117.4706    8301.5595     5766.749    5968.0584   -1618.3026     732.7248    310.95554   -2792.5388 
14047000     247.3733   -3951.3763   -3527.3869   -3951.3763            0     6323.609    17.052344    20.085409     20.80382    7125.3769    5910.7296     6632.226    6427.8715    2096.7882    256.47684    196.14175   -2870.2607 
14048000    242.56606    -3915.551    -3499.801    -3915.551            0    7347.1028    17.052919    20.086087    20.804522    7126.0983    9317.4113    5250.9811    7472.9159    1297.6273    67.568112    402.64019   -2736.2399 
14049000    257.41346   -3928.5131   -3487.3153   -3928.5131            0    7408.2849    17.069989    20.106192    20.825346    7147.5185    7335.6894    9499.3527    5389.8125    198.59278    787.10444   -590.04421   -2715.0814 
14050000    245.99531   -3936.9761   -3515.3486   -3936.9761            0    8165.8692    17.036373    20.066597    20.784335    7105.3753    8681.0594    8821.6588    6994.8896    1570.7518   -1525.8516   -676.86292   -2669.1636 
14051000     254.2753   -3917.5801   -3481.7609   -3917.5801            0      6364.51    17.079754    20.117694     20.83726     7159.792    6378.0644    7490.9062    5224.5595   -761.47171    119.98141    1481.3171   -2817.1901 
14052000    258.29918   -3945.0834   -3502.3674   -3945.0834            0    5893.4949    17.054651    20.088126    20.806634    7128.2691    5904.4165     5697.462    6078.6063   -451.53554   -744.53945    1132.2117   -2889.6886 
14053000    251.58967   -3947.7696   -3516.5535   -3947.7696            0    5992.1159    17.105305     20.14779    20.868432     7191.973    7111.2498    4896.9531    5968.1448    449.98128    16.762033    697.28184   -2888.0551 
14054000    251.21354   -3913.1434    -3482.572   -3913.1434            0    3997.9023    17.163649    20.216512    20.939612    7265.8176    4010.9359    4875.5834    3107.1876    1680.6749   -993.93906   -1473.8853   -3058.9363 
14055000    253.15715   -3902.5059   -3468.6032   -3902.5059            0    5040.3782    17.042729    20.074084     20.79209    7113.3313    5098.6631    4447.2032    5575.2682    730.08865    1704.9382   -198.61691   -2945.7112 
14056000    243.27449   -3865.4201   -3448.4559   -3865.4201            0    6224.2615    17.060879    20.095461    20.814232    7136.0808    5954.7474    6183.4966    6534.5406    514.07094    493.32192   -1867.2636    -2800.682 
14057000     246.9218   -3906.5031   -3483.2876   -3906.5031            0    7083.0474    17.024283    20.052357    20.769586    7090.2592    8489.4395    6959.0493    5800.6535     10.66969    1151.3733   -872.70699    -2750.871 
14058000    247.81481   -3929.0706   -3504.3245   -3929.0706            0    6875.7913     17.07049    20.106782    20.825958     7148.148     6916.992    6745.0185    6965.3633    1043.9474   -782.42772   -124.45322   -2787.5342 
14059000    244.54607   -3911.6574   -3492.5138   -3911.6574            0    7841.2304    17.016074    20.042688    20.759571    7080.0076    7304.0896    10054.796    6164.8053    417.16477    1121.0979   -1127.4283   -2682.8703 
14060000    219.49456   -3906.8025   -3530.5963   -3906.8025            0    7098.4358    17.000662    20.024534    20.740768    7060.7867    6476.7868     7932.216    6886.3048    478.87765   -180.08488    769.62384   -2799.6396 
14061000    241.13906   -3922.6166   -3509.3125   -3922.6166            0    5118.3621    17.107507    20.150383    20.871118    7194.7506    6772.0342    4355.6387    4227.4134    200.39892    5.2465717    107.54561   -2972.2527 
14062000    245.30654   -3902.1301   -3481.6831   -3902.1301            0    6839.3926    17.073681    20.110541    20.829851    7152.1581     7166.151     5064.163    8287.8639   -1233.1854    470.85413     1019.871   -2768.2873 
14063000    249.05107   -3898.1507   -3471.2857   -3898.1507            0    6504.9568     17.06006    20.094497    20.813234    7135.0541    6840.7711     5797.711    6876.3883   -798.31974    805.84712    1068.8366   -2794.3965 
14064000    253.52344   -3923.8864   -3489.3559   -3923.8864            0    5616.3365    17.062441    20.097302    20.816139     7138.042    6171.3619    5037.3865    5640.2612   -846.94272    -1236.369   -326.69787   -2904.6895 
14065000    239.92664   -3942.3094   -3531.0833   -3942.3094            0    5730.9206    17.058075    20.092159    20.810811    7132.5631    5377.9869    6127.4268     5687.348   -927.15967    1075.3831    1887.7757   -2934.9466 
14066000    262.50344   -3937.3756   -3487.4537   -3937.3756            0    6409.9087    17.122923    20.168542    20.889926    7214.2188    6416.6383    6401.9287    6411.1589   -1131.8418    311.23077    1064.6616   -2813.0545 
14067000    237.44841   -3943.8505    -3536.872   -3943.8505            0    7954.1881    17.071551    20.108032    20.827252    7149.4806    6622.6854     8526.138    8713.7409   -1812.5416    667.47604     1239.313    -2707.506 
14068000    240.98717   -3939.4267   -3526.3829   -3939.4267            0    5862.4332    17.122147    20.167628     20.88898    7213.2381    5394.0972    4899.9526    7293.2498   -54.806865    1149.9645   -600.40189   -2909.6685 
14069000    242.39255   -3972.4516   -3556.9991   -3972.4516            0    6240.4838    17.119185    20.164139    20.885366    7209.4952    4849.5682    7918.7436    5953.1397    1168.0376   -489.87235   -470.66629   -2900.8553 
14070000    247.47414   -3943.4003   -3519.2381   -3943.4003            0    7193.8372    17.048135    20.080451    20.798685     7120.102    5815.1585    9291.5661    6474.7869     11.48945   -1328.3297    696.13227   -2772.2345 
14071000     249.9765   -3956.9212   -3528.4701   -3956.9212            0    5869.7618    17.115884    20.160251    20.881339    7205.3255    5070.4739    6847.9843     5690.827    420.59256   -636.71501   -1610.6681   -2911.6621 
14072000    254.60343   -3897.8205   -3461.4389   -3897.8205            0      7035.04    17.112032    20.155714    20.876639     7200.462    6865.4013    8350.1272    5889.5916   -904.00978    989.46019   -36.056847   -2722.6798 
14073000    233.16841   -3929.4316   -3529.7889   -3929.4316            0    7476.2655    17.045064    20.076834    20.794939    7116.2554    7117.6859    5373.0691    9938.0415     476.2691    2481.0753    101.47177   -2753.8775 
14074000    252.95001   -3948.0488   -3514.5011   -3948.0488            0    7098.3725    17.042966    20.074363    20.792379     7113.628    7321.8604     6795.201     7178.056    1558.9953    1315.0246   -980.46315   -2778.0807 
14075000    245.44346    -3938.829   -3518.1473    -3938.829            0    5619.8837    17.095777    20.136567    20.856808    7179.9619     5461.049    5147.2753    6251.3269   -2349.9346    505.89505    102.24489   -2929.6759 
14076000    235.15091   -3921.5557    -3518.515   -3921.5557            0    5549.6117    17.110305     20.15368    20.874533    7198.2822     5878.778    5443.4563    5326.6008    175.11706    525.85867   -456.87809   -2935.9192 
14077000    236.36032   -3935.4491   -3530.3356   -3935.4491            0     6984.125    17.080689    20.118796    20.838401    7160.9688    4927.7234    6628.0764    9396.5751   -115.03163   -610.20475   -244.23137   -2800.9458 
14078000    267.66467   -3935.3238   -3476.5557   -3935.3238            0    4799.1895    17.232838    20.298007    21.024022    7354.0405    3974.5659    5413.2148     5009.788   -358.60032     1225.879    1432.9906   -2961.8372 
14079000    237.64023   -3915.6943   -3508.3871   -3915.6943            0    5862.6413    17.158105    20.209982    20.932848     7258.779    7121.5784    5131.4234    5334.9221    2067.1507   -320.42307    624.93907    -2887.757 
14080000    247.61478   -3886.3004   -3461.8972   -3886.3004            0    6354.1682    17.138254      20.1866     20.90863    7233.6142    5884.8587     6754.619    6423.0268   -875.37535   -1204.5305   -911.33827   -2791.5652 
14081000     251.0316   -3928.1707   -3497.9111   -3928.1707            0    4458.2318    17.099037    20.140407    20.860785      7184.07    4315.1992    2283.2275    6776.2688   -446.45132   -755.55867    797.24006   -3030.8119 
14082000    237.03171   -3921.9542     -3515.69   -3921.9542            0    5042.0601    17.159271    20.211354     20.93427    7260.2582    5161.6582    4649.4955    5315.0265    498.64233    510.98427    722.43226   -2981.8194 
14083000    244.74933   -3916.3873   -3496.8953   -3916.3873            0    6246.6591    17.101417     20.14321    20.863689    7187.0702    8190.6477    5558.2871    4991.0425   -97.299365   -1267.0488    414.59163   -2842.1452 
14084000    264.18937   -3901.1071   -3448.2956   -3901.1071            0    6707.3438    17.085851    20.124876    20.844699    7167.4629    7461.7505    7619.5779    5040.7031    474.00866   -103.19547   -257.07827   -2747.1763 
14085000    248.97008   -3916.6149   -3489.8887   -3916.6149            0    5378.8443    17.161077    20.213482    20.936474    7262.5514    5476.4761    3790.7512    6869.3055   -261.10291   -87.298285    700.42923   -2920.1784 
14086000    233.62478    -3890.089   -3489.6642    -3890.089            0    7439.9249    17.210404    20.271583    20.996653    7325.3572    7084.7062    7792.4105     7442.658    386.27928    1177.1751   -268.88552    -2694.836 
14087000    244.19389   -3945.6196   -3527.0796   -3945.6196            0    4958.4373    17.189193    20.246599    20.970775    7298.3057    5218.4551    4272.9159    5383.9408   -866.33257     -1749.98    288.28511   -2999.3119 
14088000    269.35735   -3944.9434   -3483.2741   -3944.9434            0    6721.6908    17.143561    20.192851    20.915105    7240.3358    7282.0281    5308.3296    7574.7146   -344.91959    -205.0484    819.28344   -2773.5115 
14089000     235.0049   -3930.2474    -3527.457   -3930.2474            0     6930.642    17.145779    20.195463     20.91781    7243.1459     6113.728    7338.1732    7340.0248   -2726.4063    -505.1043   -1324.5032   -2795.3466 
14090000    251.78038   -3935.1588   -3503.6158   -3935.1588            0    8026.1572    17.135063    20.182841    20.904737    7229.5742    7265.5846    8434.0337    8378.8532   -964.69469    1690.1849    297.48467   -2657.3705 
14091000    234.90919     -3940.94   -3538.3137     -3940.94            0     6485.096    17.170909    20.225063    20.948469     7275.041    4742.4718    9025.7752     5687.041    -847.1176     -521.823   -226.82694   -2850.2514 
14092000    245.25909   -3930.2778   -3509.9122   -3930.2778            0    6754.2868    17.127273    20.173665    20.895233    7219.7179    6768.5478    6518.5922    6975.7203   -726.28784    214.84456   -1093.3214   -2798.7386 
14093000    235.70831   -3957.8013   -3553.8054   -3957.8013            0    6155.3195    17.141215    20.190087    20.912242    7237.3633    6778.8019    6156.4661    5530.6905   -1611.8135    214.32601    1818.0388   -2904.1143 
14094000    237.38582   -3945.1721   -3538.3009   -3945.1721            0    7365.6063    17.087982    20.127385    20.847298    7170.1446    8563.8587    6415.3359    7117.6243   -1428.9282    888.02385    1253.5063   -2768.0854 
14095000    240.39421   -3951.5819   -3539.5545   -3951.5819            0    7281.9445    17.136643    20.184701    20.906664    7231.5734    7468.4786    5523.5707    8853.7841   -492.14725      1340.82     855.3886   -2771.5636 
14096000    248.82088   -3919.4577   -3492.9873   -3919.4577            0    4985.8784    17.165341    20.218504    20.941676    7267.9658    6158.4857    5186.6328    3612.5168   -1796.2953   -859.13809    259.13249    -2964.505 
14097000    241.47341   -3925.6546   -3511.7775   -3925.6546            0    9098.2026    17.060353    20.094842    20.813591    7135.4213    9935.5467    11383.628    5975.4334    1197.8441   -296.29602    950.41722    -2564.993 
14098000    235.71023   -3966.6579   -3562.6586   -3966.6579            0    7786.4462    17.146996    20.196896    20.919295    7244.6883    9088.8055    7440.7284    6829.8045    363.18078    -163.2084    83.438673   -2739.9711 
14099000    249.91646   -3954.9778   -3526.6296   -3954.9778            0    4889.3549    17.232351    20.297434    21.023428    7353.4172    4735.4433    5133.4856    4799.1358    1629.4342   -121.25182    699.77961   -3002.2851 
14100000    238.00099   -3930.6428   -3522.7172   -3930.6428            0    5341.8928    17.183223    20.239567    20.963492    7290.7041    4100.3103    4866.6526    7058.7157    173.53275    321.97273     994.9549   -2954.7275 
14101000    243.34092   -3976.3836   -3559.3056   -3976.3836            0    7480.9817    17.127551    20.173993    20.895573    7220.0702    7698.8642    8899.8713    5844.2096    82.698806    233.58911   -960.84285   -2771.5783 
14102000    255.42895   -3954.8726   -3517.0761   -3954.8726            0    8171.5387    17.122137    20.167615    20.888967    7213.2249    7172.3584    7084.9222    10257.336    714.58661    76.706496   -29.021337   -2657.4508 
14103000    236.55812   -3902.2822   -3496.8297   -3902.2822            0    5527.2923    17.158938    20.210962    20.933864     7259.836    4049.4011    6010.4707     6522.005    1145.2596    2486.5175    207.16624   -2911.6151 
14104000      243.603    -3926.318   -3508.7908    -3926.318            0    6576.3896    17.108958    20.152092    20.872888    7196.5815    6145.7603    5999.7118    7583.6967      910.248    1339.7081   -456.94094   -2818.5674 
14105000    265.66003   -3924.5966   -3469.2644   -3924.5966            0    6399.2242    17.075104    20.112217    20.831587    7153.9458     6667.586    4449.2787     8080.808    117.31394    1033.2192    2345.3485   -2801.6144 
14106000    235.28683    -3923.102   -3519.8284    -3923.102            0    6437.1553    17.138619     20.18703    20.909076    7234.0763    5884.7536    6678.7826    6747.9296    1458.5979    594.60395    793.67618   -2840.6983 
14107000    241.72314   -3943.6841   -3529.3789   -3943.6841            0    7107.0244    17.113122    20.156997    20.877969    7201.8377    5792.5324    9080.8129    6447.7278   -245.01812   -1000.9802   -265.82342   -2782.9181 
14108000    235.90665   -3899.4318   -3495.0958   -3899.4318            0    5450.6355    17.177414    20.232725    20.956406     7283.313    5779.8593    4015.8132    6556.2339   -1098.8841    223.87193    812.03824   -2916.1313 
14109000    249.88953   -3931.9897   -3503.6876   -3931.9897            0    5871.0219    17.117212    20.161815    20.882959    7207.0031    7022.9179    5281.1908     5308.957    968.80312    255.16594    684.78069   -2886.6036 
14110000    239.99998   -3946.4477   -3535.0959   -3946.4477            0    5616.9678    17.176566    20.231726    20.955371    7282.2342    4641.4009    4640.0785     7569.424    314.48975     341.2522    308.72181   -2938.5519 
14111000    252.15836   -3924.3383   -3492.1475   -3924.3383            0    6414.3123    17.057183    20.091108    20.809723    7131.4441    5040.0256    7262.2224     6940.689   -1828.2579   -252.98349    838.96276   -2825.0282 
14112000    244.40697    -3931.372   -3512.4668    -3931.372            0    5122.3307    17.123417    20.169123    20.890528    7214.8425    4815.4199    4296.0224    6255.5497    1.5460583    2708.3453     698.2826   -2973.4896 
14113000    244.26062    -3926.248   -3507.5936    -3926.248            0    6757.4241    17.008694    20.033995    20.750567    7070.7988     6626.261    6109.4545    7536.5569   -541.38758   -157.13521    1056.3169   -2810.7657 
14114000    265.80364   -3917.1315   -3461.5532   -3917.1315            0     5498.668    17.085675    20.124668    20.844483    7167.2408    5415.3852    5225.7813    5854.8373    667.72524     585.6781   -576.27861   -2886.7947 
14115000    248.11378   -3890.4875   -3465.2289   -3890.4875            0    6959.3957    17.066682    20.102297    20.821312    7143.3657    8244.1751    5478.1584    7155.8535   -313.11134    1496.7372    -486.1643   -2740.2084 
14116000    250.18453   -3947.2398   -3518.4321   -3947.2398            0    6697.6019    17.077616    20.115176    20.834652    7157.1038    6474.1913    6265.2705    7353.3439    30.201385    855.22492   -325.19011    -2819.343 
14117000    249.53309    -3967.271   -3539.5799    -3967.271            0    8035.2293    17.087142    20.126397    20.846274    7169.0879    9206.7517    7633.5447    7265.3917   -1261.8218    1012.5164    358.68753   -2699.4662 
14118000    243.94067   -3956.2109   -3538.1049   -3956.2109            0    5658.0766    17.130845    20.177873    20.899591    7224.2368    7775.0089      3437.76    5761.4607   -123.56234    1277.0367    1156.0867   -2941.9808 
14119000    255.13078   -3944.8824   -3507.5969   -3944.8824            0    6846.5894    17.100847    20.142539    20.862994     7186.352     5493.061    7134.3794    7912.3279    525.25001   -753.24201     803.7402   -2790.0362 
14120000    239.75555   -3929.5447   -3518.6119   -3929.5447            0    6057.5564    17.199256    20.258451    20.983052    7311.1307    4446.7776     8071.218    5654.6734   -827.54227    713.02347   -87.956318   -2872.7229 
14121000     243.3525   -3939.6463   -3522.5485   -3939.6463            0     7948.101    17.093833    20.134278    20.854437     7177.513    7274.5516    8314.1039    8255.6474   -1111.0545   -653.04004    629.14828   -2690.5678 
14122000    254.42764   -3932.4891   -3496.4089   -3932.4891            0    5083.0113    17.132202    20.179471    20.901246    7225.9528    7096.1585    3899.0206    4253.8548    554.95778   -532.73605    172.39252   -2960.7453 
14123000    232.22523     -3930.22   -3532.1939     -3930.22            0    6812.4692    17.048483    20.080861    20.799109    7120.5377    6555.9814    5679.5714    8201.8549    -1580.174    247.46519    335.43182    -2824.748 
14124000    245.77699   -3913.0129   -3491.7596   -3913.0129            0     5414.651    17.109377    20.152586      20.8734    7197.1102    4014.1731    4667.9174    7561.8626   -720.47439    90.260066   -760.83656   -2923.4244 
14125000    251.87189   -3918.1193   -3486.4195   -3918.1193            0    7854.1298    17.109014    20.152159    20.872958    7196.6531     7124.357    8169.1792    8268.8531   -1228.8353    -212.3502   -1256.2972   -2662.0829 
14126000    251.09978   -3951.1321   -3520.7557   -3951.1321            0    5949.0818     17.08572    20.124721    20.844538    7167.2972    6690.5004    5210.0348    5946.7101   -215.88582     289.2643       355.53    -2898.912 
14127000    251.17346   -3943.4982   -3512.9955   -3943.4982            0    6766.6881    17.052021    20.085028    20.803425    7124.9717    8755.8288    5203.5775    6340.6579   -1521.7841   -1508.1307   -595.08122   -2809.8662 
14128000    248.38716     -3941.85   -3516.1229     -3941.85            0    7073.9961    17.074169    20.111116    20.830447    7152.7712    6895.0453     7088.332    7238.6111   -949.97916    443.81857    707.85326   -2778.1931 
14129000    261.79174   -3945.7217   -3497.0196   -3945.7217            0    7471.0166    17.016258    20.042904    20.759795    7080.2362     8751.251    7023.5217     6638.277   -1104.0459   -1578.8176   -410.60406   -2725.5775 
14130000    238.52159   -3943.4724   -3534.6546   -3943.4724            0    5890.4349    17.042912    20.074299    20.792312    7113.5595    8209.9378    4312.5537    5148.8133    313.77884   -437.08767   -425.41249   -2923.5575 
14131000    240.77621   -3955.9431   -3543.2609   -3955.9431            0    4841.4172    17.108596    20.151666    20.872447    7196.1249    6453.2847    4195.9765    3874.9904    421.21333   -1460.3697   -68.776201   -3035.1633 
14132000    234.37611   -3898.3755   -3496.6629   -3898.3755            0    4907.0114    17.132011    20.179246    20.901013    7225.7111    4579.1611    2941.5544    7200.3187    288.14018    110.28432   -164.21376   -2979.5641 
14133000    240.75526   -3933.7848   -3521.1385   -3933.7848            0    6617.3631    17.047915    20.080192    20.798416    7119.8261    8283.2436    6371.6043    5197.2412   -1025.8175   -87.098509   -738.00353   -2834.0222 
14134000    237.70606   -3943.2476   -3535.8276   -3943.2476            0    7757.3024    17.018423    20.045454    20.762436    7082.9389    8886.8869    7935.1008    6449.9194    1473.5295     740.4095    832.01182   -2734.5184 
14135000    238.57013   -3955.8804   -3546.9794   -3955.8804            0    7587.1383    17.064038    20.099183    20.818087    7140.0465    6655.8604    6842.4546    9263.0998   -1133.5499   -1676.3972   -562.28198   -2756.9288 
14136000     241.7699    -3922.269   -3507.8836    -3922.269            0    5154.6182    17.081962    20.120295    20.839954    7162.5697    5358.3087    5130.9247    4974.6211   -321.21891    1175.8688   -685.62466   -2969.4387 
14137000    236.18544   -3907.0947    -3502.281   -3907.0947            0    5741.1182    17.042081     20.07332    20.791299    7112.5192    5356.4446    5279.8327    6587.0773    1247.5066    523.93807   -133.22075   -2906.7617 
14138000    255.82748   -3939.0535    -3500.574   -3939.0535            0    7921.2999    17.126343     20.17257    20.894098    7218.5423    6968.2991    8956.8776    7838.7229    1154.6337    -487.0816   -826.88581   -2666.6589 
14139000    235.25839   -3938.2513   -3535.0265   -3938.2513            0    6890.4459    17.075926    20.113186     20.83259    7154.9797    6174.1786    7335.4481     7161.711   -520.75908    401.03861    328.04249    -2816.022 
14140000    250.46949   -3943.0733   -3513.7771   -3943.0733            0    6381.5239    17.133148    20.180585      20.9024    7227.1499    6428.2309    6900.7945    5815.5462    2522.0106   -800.81853    431.46805   -2841.1609 
14141000    242.91286   -3965.5889   -3549.2446   -3965.5889            0    4400.8024    17.090984    20.130921     20.85096    7173.9241    4792.3579    4571.7502     3838.299    400.87152   -309.92562   -89.661299   -3088.8136 
14142000     236.2704    -3941.929   -3536.9696    -3941.929            0     6544.618    17.139095     20.18759    20.909656    7234.6785    7455.9083    5620.2269    6557.7187    618.21641    229.91399   -1420.2698   -2846.4446 
14143000    232.99238   -3925.2951   -3525.9542   -3925.2951            0     5815.997    17.146013    20.195739    20.918096    7243.4434    5872.8487    6770.0824    4805.0597    1409.6374   -1292.8649   -517.58508   -2911.5628 
14144000    244.93751   -3925.4377   -3505.6232   -3925.4377            0    8309.1798    17.109957    20.153269    20.874108    7197.8427    7902.9912    8275.5495    8748.9988   -330.78571   -1097.2674    1934.5642   -2633.3824 
14145000    241.85558   -3895.5574   -3481.0252   -3895.5574            0    6736.2065     17.15346     20.20451    20.927181    7252.8845     6242.967    5702.0082    8263.6444    875.76218   -678.70143   -338.43264    -2768.497 
14146000    233.64396   -3919.4152   -3518.9575   -3919.4152            0    6822.8753    17.150233    20.200709    20.923244    7248.7927    8136.3898    6232.1068    6100.1292    232.18228   -49.078275   -635.55836    -2797.669 
14147000    237.13632   -3956.2596    -3549.816   -3956.2596            0    5948.9809    17.253008    20.321764    21.048629    7379.8925    6835.8763     3340.453    7670.6133    -359.8159    775.18189    1133.8138   -2909.5382 
14148000    246.90021   -3956.0294   -3532.8509   -3956.0294            0     6362.951    17.161848    20.214391    20.937415    7263.5307    7040.1402    6777.4215    5271.2913   -574.48382   -1435.0226   -672.57107   -2858.8162 
14149000    248.94705   -3902.9018    -3476.215   -3902.9018            0    5899.5616     17.19915    20.258327    20.982923     7310.996     8484.852    3608.9339    5604.8988    -842.2046   -196.20279   -710.78961   -2847.1839 
14150000    239.08625   -3950.7176    -3540.932   -3950.7176            0    5127.5989    17.157221     20.20894     20.93177    7257.6568    4849.0211    5143.8507     5389.925    27.811998   -399.58146    -593.0483   -2998.1988 
14151000    250.10931   -3926.2533   -3497.5745   -3926.2533            0    5666.0996    17.155103    20.206445    20.929185    7254.9689    5208.0861    6394.0084    5396.2044    553.58503   -214.86282    1069.3998   -2898.0656 
14152000    241.65171   -3950.7662   -3536.5834   -3950.7662            0    5639.9497    17.073121    20.109881    20.829168     7151.454     4431.644    5865.0255    6623.1795    376.69131   -982.83255     620.2346   -2948.3557 
14153000    248.08968   -3929.4897   -3504.2725   -3929.4897            0    7651.2512    17.069007    20.105036    20.824149    7146.2857    8337.4536    6650.5756    7965.7244    1338.0203   -84.730737    314.92857   -2706.8495 
14154000    242.42713   -3946.5083   -3530.9965   -3946.5083            0    8141.2644    17.001078    20.025024    20.741275    7061.3047    7940.1023    8478.2078    8005.4831   -39.801525   -690.36478   -764.07547   -2692.5937 
14155000    239.89713   -3926.5146   -3515.3391   -3926.5146            0    6436.2218    17.077416     20.11494    20.834407    7156.8521    7051.6576    6353.0168    5903.9909    708.44074   -195.84051   -552.51877   -2843.5563 
14156000    230.62622   -3961.2396   -3565.9542   -3961.2396            0    5196.9484    17.127378    20.173789    20.895361    7219.8508    5722.3396    4789.9081    5078.5976    1488.1643   -316.02842   -872.83083   -3018.7461 
14157000    246.48605    -3950.263   -3527.7943    -3950.263            0     7266.664    17.000077    20.023846    20.740055    7060.0582    8943.0757    5992.7687    6864.1477   -1177.0247   -348.47589    1498.3481   -2779.5917 
14158000    248.59089   -3958.8097   -3532.7334   -3958.8097            0    6340.8015    17.113618    20.157582    20.878574    7202.4643    6746.1974    5357.0053    6919.2016   -1001.1678    233.81511    515.60661   -2866.6921 
14159000    238.67996    -3921.368   -3512.2787    -3921.368            0    6747.3003    17.066468    20.102045    20.821051    7143.0965    6256.3047    6848.2866    7137.3096    -511.6983   -1604.6159   -1479.7059   -2809.3804 
14160000    255.27631    -3922.146   -3484.6111    -3922.146            0    8066.7993    17.021686    20.049297    20.766417    7087.0141     7079.057    8782.4662    8338.8748   -3221.9542    548.50042   -119.32876   -2650.8523 
14161000    233.43866   -3955.1136   -3555.0078   -3955.1136            0    7275.1768    17.072992    20.109729     20.82901    7151.2914    6872.8424    7961.5423    6991.1458    30.877212    458.08833    868.39299   -2796.2487 
14162000    237.87094   -3931.7535   -3524.0508   -3931.7535            0    5892.3047    17.126214    20.172418    20.893941    7218.3794    6263.6683    5735.9334    5677.3125   -311.12732    262.98266     18.17941   -2903.7522 
14163000    250.85346   -3911.6126   -3481.6583   -3911.6126            0    8450.9154    17.044032    20.075619     20.79368     7114.963    8411.4402    9064.2461      7877.06    1140.8081   -205.97789    702.94833   -2604.7539 
14164000    237.98226   -3906.4803   -3498.5868   -3906.4803            0    6237.8767    17.118081    20.162838    20.884019    7208.1002    6709.3665     4449.791    7554.4725   -12.464796    557.52926   -511.97789   -2842.8441 
14165000    247.19555   -3929.0666   -3505.3818   -3929.0666            0    5196.6933     17.14094    20.189764    20.911907     7237.016    5299.8097    5009.5612    5280.7089   -2323.1927    883.06768    145.68824   -2956.8997 
14166000    239.00842   -3907.2472   -3497.5949   -3907.2472            0    5713.3576    17.111478    20.155061    20.875964    7199.7627    6242.1535    6011.8518    4886.0675    188.12886   -1286.8418    -343.3932   -2897.6858 
14167000    246.71472   -3939.0054   -3516.1448   -3939.0054            0    5397.4583     17.05508    20.088632    20.807158    7128.8076    7529.7705    4209.9774    4452.6272     922.4308    1012.1012   -162.01056   -2954.9908 
14168000    255.79213   -3893.3548   -3454.9359   -3893.3548            0    5663.7397    17.198926    20.258063     20.98265    7310.7105    5053.4122    8417.8205    3519.9862     798.1019    751.81955    780.20094   -2851.0724 
14169000    254.84593   -3891.7313   -3454.9341   -3891.7313            0    7586.8179    17.102169    20.144096    20.864607    7188.0186    8502.2805    8665.6776    5592.4956   -549.30998   -278.72811   -781.30303   -2659.6089 
14170000    249.99045   -3931.2851   -3502.8101   -3931.2851            0    6553.7413    17.066583    20.102181    20.821192    7143.2418    6699.3481    6018.5996    6943.2761   -411.59423    987.34559   -1234.5011   -2820.0619 
14171000    231.23899   -3906.3391   -3510.0034   -3906.3391            0    6725.6587    17.109541     20.15278      20.8736    7197.3178    6232.8856    7335.2411    6608.8494    907.73241   -1099.4461    1652.8287   -2804.0412 
14172000     236.5881   -3907.2509    -3501.747   -3907.2509            0    6113.0335    17.103852    20.146078    20.866659    7190.1402    5056.1972     8240.257    5042.6462    911.97192    492.20807   -277.53097   -2860.7293 
14173000    241.09113   -3911.0527   -3497.8308   -3911.0527            0    4671.8315    17.179346    20.235001    20.958763    7285.7708    4102.4425    5447.0118    4466.0402   -1017.6466   -1323.8111    1155.0768    -3001.423 
14174000    243.73338   -3920.7256   -3502.9749   -3920.7256            0    7907.5604    17.111737    20.155366    20.876279    7200.0889    7002.6536    8264.7862    8455.2415   -178.90345   -119.50844    743.37015   -2672.6343 
14175000    253.75298   -3909.5941   -3474.6702   -3909.5941            0    8167.0207    17.058558    20.092728    20.811401    7133.1692    8125.3372    8197.9137    8177.8112    1292.6355   -1038.1137   -359.75385   -2625.0554 
14176000    244.79567   -3937.6263   -3518.0549   -3937.6263            0    6142.8004    17.113945    20.157967    20.878973    7202.8769    6060.9891    5877.4256    6489.9866   -205.45419    671.21769    2141.9841   -2872.7747 
14177000    257.10171   -3914.7555    -3474.092   -3914.7555            0    5074.1699    17.114795    20.158968     20.88001    7203.9499    3271.2312    7802.2656    4149.0128     1284.211    587.71025   -924.88699   -2940.9884 
14178000    269.15307   -3936.4135   -3475.0943   -3936.4135            0    7922.7647    17.073327    20.110124     20.82942    7151.7133    6400.8132    9272.7395    8094.7413    1014.6142   -109.44828    1658.2624   -2648.7468 
14179000    241.27051   -3900.4961   -3486.9667   -3900.4961            0    5275.9832    17.155283    20.206658    20.929405    7255.1979    4951.0246    6020.4515    4856.4734    427.03921   -663.42854    1151.4339   -2928.7169 
14180000    230.61062   -3884.8968   -3489.6381   -3884.8968            0    5145.2908    17.127094    20.173455    20.895015    7219.4925    3786.4742    6507.9303     5141.468   -246.56095    625.73123   -134.12903   -2947.8961 
14181000    254.59852    -3916.601   -3480.2278    -3916.601            0    9767.3297    17.051269    20.084142    20.802508    7124.0293    9858.0993    8447.7462    10996.144    1440.9349   -1782.5083    48.394438   -2465.4349 
14182000    253.42758   -3886.4012    -3452.035   -3886.4012            0    6002.1162    17.140564     20.18932    20.911448    7236.5392    8639.1877     3929.394    5437.7668    841.77134    692.78924    665.94388   -2818.5867 
14183000    244.55463   -3922.6229   -3503.4647   -3922.6229            0    7600.9402    17.097826     20.13898    20.859308    7182.5433     7327.677    6983.1091    8492.0345   -1633.1973    924.81987    1350.9184    -2707.266 
14184000    237.34267   -3908.3892    -3501.592   -3908.3892            0    7522.2167    17.072082    20.108657      20.8279     7150.148    7738.5624    8360.0359    6468.0518    278.93663    1527.4543    2450.8518   -2717.1935 
14185000    249.47453    -3912.695   -3485.1042    -3912.695            0    5587.8536    17.125447    20.171514    20.893005     7217.409    6609.0738    3578.0814    6576.4055    791.46505    813.92384   -22.050474    -2896.935 
14186000    256.19636   -3910.4864   -3471.3746   -3910.4864            0     7156.392    17.082552     20.12099    20.840674     7163.312    9132.1892    6995.0333    5341.9535    901.19873   -595.86838   -6.5100105   -2723.7495 
14187000    233.74153   -3929.8552   -3529.2302   -3929.8552            0    6017.7339    17.218619    20.281259    21.006675    7335.8514    5570.9868    5602.3616    6879.8534    12.138648    709.94482    572.56646   -2885.4177 
14188000    257.91873   -3911.3184   -3469.2545   -3911.3184            0    7459.0332     17.10732    20.150163     20.87089     7194.515    8280.2886    8283.7993    5813.0118    153.47574   -1939.3638   -156.54838   -2686.6183 
14189000    227.78578   -3936.0248   -3545.6077   -3936.0248            0     7362.916     17.14517    20.194745    20.917067     7242.374    9294.4142    4988.6101    7805.7239    141.24015   -176.02269      1462.35   -2767.9174 
14190000    259.56539   -3919.3199   -3474.4337   -3919.3199            0    7429.9526    17.172802    20.227293    20.950779    7277.4479    8290.7269    7256.7819     6742.349   -940.07303   -230.47872   -173.61189   -2685.8623 
14191000    251.06772    -3931.547   -3501.2256    -3931.547            0    6532.7771    17.189892    20.247422    20.971628    7299.1962    6026.1253    6192.0058    7380.2002   -2021.3226   -637.72205   -486.74414    -2805.803 
14192000    233.96298   -3905.3024   -3504.2979   -3905.3024            0    8759.8786    17.177352    20.232652    20.956329    7283.2334    10924.895    7431.5752    7923.1654    1259.0425   -1117.8301   -781.14583   -2573.8368 
14193000    240.29105   -3919.9273   -3508.0767   -3919.9273            0    7014.8748    17.137836    20.186108     20.90812     7233.085    6050.2824     9065.245    5929.0969     1675.373    233.99275   -1048.5835   -2768.0977 
14194000    240.76169   -3897.5458   -3484.8885   -3897.5458            0    7182.6519    17.188646    20.245955    20.970108    7297.6093    6321.5165    7245.9431    7980.4962    296.59977   -394.78401   -1101.6683   -2720.4522 
14195000    228.85285    -3908.066     -3515.82    -3908.066            0      5575.96    17.202395    20.262149    20.986882    7315.1347    5064.3599    6631.4327    5032.0875    1529.3848    510.57609   -895.33382   -2920.9558 
14196000    254.08573     -3936.01   -3500.5157     -3936.01            0    7189.0295    17.137386    20.185578    20.907571    7232.5153    8182.6236    5281.1665    8103.2983    1157.1341   -1983.5624   -394.16287   -2742.2254 
14197000    241.84691   -3888.3392   -3473.8219   -3888.3392            0    6939.7876     17.14098    20.189811    20.911956    7237.0664    6995.5558    6259.1209     7564.686      -176.29   -906.37722    1256.9204   -2741.3607 
14198000    247.81015   -3903.4444   -3478.7063   -3903.4444            0    6882.6296    17.130824    20.177848    20.899566    7224.2101    6271.9109    7644.2525    6731.7255    623.41937   -529.16311    336.03863   -2753.5683 
14199000    239.19309   -3872.7106   -3462.7418   -3872.7106            0    6735.6233    17.099361    20.140788     20.86118    7184.4779     9881.147    6035.5281    4290.1948    227.38274   -342.65072    988.98567   -2756.9951 
14200000    245.24544   -3908.9026   -3488.5603   -3908.9026            0    5903.7018    17.147806    20.197851    20.920284    7245.7157     5529.202    6039.9533    6141.9501   -306.66652   -326.10655   -1141.2778   -2864.7083 
14201000    245.42686   -3900.8102    -3480.157   -3900.8102            0     6653.262    17.099089    20.140468    20.860848    7184.1351     7590.651    6265.7979    6103.3372   -465.15733   -1090.5404   -2258.0856   -2783.0732 
14202000    249.44583   -3892.3944   -3464.8528   -3892.3944            0    6160.1762     17.09634    20.137231    20.857495    7180.6714     4810.254    7242.8018    6427.4728    956.88608   -167.86573   -906.14747   -2819.7423 
14203000    238.76506   -3920.1054   -3510.8703   -3920.1054            0    6160.5335     17.03636    20.066581    20.784319    7105.3582    6582.2159    7035.9388    4863.4457   -700.06763    563.30755   -368.62223   -2872.4889 
14204000    236.77276   -3925.4584    -3519.638   -3925.4584            0    4008.4511    17.119283    20.164254    20.885485    7209.6182    3978.6835    3174.2647    4872.4051    368.27486     -1491.27    296.44501   -3098.1699 
14205000    230.29633    -3931.497    -3536.777    -3931.497            0    7259.2069     17.06845     20.10438    20.823469    7145.5859     9389.964    5987.0842    6400.5724    -664.7391     87.58982    178.83198   -2780.2875 
14206000    255.47512   -3960.8545   -3522.9789   -3960.8545            0    6016.7847     17.11595    20.160328    20.881419    7205.4086    5556.4557     6650.775    5843.1233   -85.751241   -901.61948    523.90484   -2890.7141 
14207000    250.37282   -3927.8966   -3498.7661   -3927.8966            0    6632.7574    17.088785    20.128331    20.848278    7171.1555    8970.1663    5356.3625    5571.7435    160.86531   -108.86789   -204.35684   -2805.0862 
14208000    247.43731   -3903.2761    -3479.177   -3903.2761            0    5821.0915    17.061424    20.096103    20.814897    7136.7648    5345.9199    7591.3689    4525.9856   -492.78512    1501.7171    608.68544   -2873.3038 
14209000    232.62543   -3903.3741   -3504.6621   -3903.3741            0    6473.4104    17.043394    20.074867    20.792901    7114.1637    7401.4081    5749.3282    6269.4949    711.16113    1155.1196    654.77936   -2833.0278 
14210000    248.66074   -3896.7314   -3470.5354   -3896.7314            0    6393.9701    17.084082    20.122792     20.84254    7165.2362    6824.4146    7151.6751    5205.8208   -1698.1831   -1030.9552    275.57581   -2802.3808 
14211000    240.84095   -3946.8307   -3534.0376   -3946.8307            0    6926.3319    17.062856     20.09779    20.816644    7138.5624     7533.729    7028.8675    6216.3991    804.10395    2108.3384    14.172388   -2812.9468 
14212000    241.55461   -3941.5516   -3527.5353   -3941.5516            0    5392.6369    17.104522    20.146868    20.867477    7190.9858    5212.6034    5528.2113    5437.0961     556.9877    1450.7351   -128.76811   -2961.9925 
14213000    266.60225    -3937.379   -3480.4318    -3937.379            0    6184.7935    17.110882    20.154359    20.875236    7199.0098    7308.7684    3954.6944    7290.9176    -709.1469   -1170.2679   -1051.9929   -2831.0893 
14214000    248.53902   -3919.6494    -3493.662   -3919.6494            0    6346.9565    17.119601    20.164629    20.885873    7210.0206    6734.3164    5758.3652    6548.1877     1608.874    1331.4239   -405.35095   -2826.2747 
14215000    246.17645   -3973.7193   -3551.7813   -3973.7193            0    8040.2118    17.060191    20.094651    20.813393    7135.2178    8055.0004    8249.3733    7816.2616   -229.93943   -840.28733     1479.254   -2715.1182 
14216000    243.39121   -3940.3504   -3523.1862   -3940.3504            0    5653.4777    17.174552    20.229354    20.952913    7279.6726    5013.0582    6069.1163    5878.2586    50.763409    281.01248   -980.96727   -2922.9759 
14217000    240.37482   -3937.5178   -3525.5236   -3937.5178            0    5435.2581    17.179674    20.235386    20.959162     7286.187    5451.8507    5972.0035    4881.9202    -467.3458   -192.30055    497.92376   -2947.9645 
14218000    243.14548   -3899.0985   -3482.3555   -3899.0985            0    5365.5925    17.179467    20.235142    20.958909    7285.9236    4553.1738    6342.2008    5201.4027    278.66756    791.35563    283.68843   -2912.2198 
14219000    251.02125   -3905.7981   -3475.5563   -3905.7981            0    4887.1597    17.190478    20.248113    20.972343    7299.9428     4873.108     5834.557    3953.8142   -372.82265    1000.2247    132.77242   -2955.2586 
14220000    252.68274   -3965.6157   -3532.5262   -3965.6157            0    8026.5161    17.086779    20.125969    20.845831    7168.6306    7366.4722    8282.1518    8430.9243    7.2585946    1321.7002    1212.6423    -2693.377 
14221000    249.12653   -3932.2154    -3505.221   -3932.2154            0    4340.6434    17.108424    20.151464    20.872237     7195.908    3555.4915    4565.5183    4900.9205    308.01307   -147.49726     -182.681   -3049.6925 
14222000    245.65929   -3947.2687   -3526.2171   -3947.2687            0    6636.9172    17.036799    20.067099    20.784855    7105.9086    6706.8523    6771.6521    6432.2473   -410.05548    819.42472    493.57547   -2838.4176 
14223000    247.23996   -3929.8107   -3506.0499   -3929.8107            0    6483.4918    17.089014    20.128601    20.848557    7171.4436    8314.4563    5187.9333    5948.0859   -588.96233   -1660.4706    164.18289   -2827.9535 
14224000    235.89282   -3908.2724   -3503.9602   -3908.2724            0     7022.823    17.059076    20.093338    20.812032    7133.8188    6423.5966    8338.6463    6306.2261   -350.88069    244.09576    507.79662   -2773.3097 
14225000    255.69305   -3960.9101    -3522.661   -3960.9101            0    6581.8452    17.102438    20.144413    20.864935    7188.3578    6205.6638    7098.1996    6441.6723    1123.3117   -506.01304    427.64228   -2832.6544 
14226000    246.36035   -3934.1223   -3511.8691   -3934.1223            0    7789.2736    17.136664    20.184727     20.90669    7231.6009    6374.7871    8919.9913    8073.0425    58.781932   -763.90358    -358.4276   -2690.3696 
14227000    244.90551   -3867.1828   -3447.4231   -3867.1828            0    7278.6929    17.138004    20.186305    20.908324    7233.2968    8530.7928    5850.4748    7454.8112   -2831.3068    269.19533    677.86127   -2679.5923 
14228000    253.14357   -3909.5668   -3475.6874   -3909.5668            0    7881.4521    17.090034    20.129802    20.849801     7172.728     7585.358    10512.386    5546.6126   -242.84358   -265.06225   -890.92241   -2651.2333 
14229000    246.03244   -3917.8877   -3496.1965   -3917.8877            0    7029.5862    17.046195    20.078166    20.796318    7117.6711    6145.4906    7753.8724    7189.3956    886.00871    641.24214    206.99377   -2766.4978 
14230000    251.23167   -3911.0806   -3480.4781   -3911.0806            0    6244.8063    17.060541    20.095064     20.81382    7135.6572    7804.6034    3867.2136     7062.602    628.86571   -499.12078   -2008.6215   -2830.6046 
14231000    255.75584    -3925.933   -3487.5762    -3925.933            0     4704.278    17.132662    20.180012    20.901807     7226.535    4084.2048    4693.3272    5335.3018    82.753036   -1478.2089   -747.54213   -2991.7848 
14232000    254.43929   -3925.5696   -3489.4693   -3925.5696            0    5623.6541    17.080286     20.11832    20.837909    7160.4608    4260.1246    6489.1835    6121.6542   -737.54873   -1366.9384    320.17308   -2902.2025 
14233000    237.08295   -3927.9237   -3521.5716   -3927.9237            0    5130.5677    17.144118    20.193506    20.915784    7241.0414    4169.2269    6629.8168    4592.6595    1088.9683    522.06522    106.34152   -2979.7674 
14234000    245.31612   -3906.4804    -3486.017   -3906.4804            0    6461.4432     17.08864    20.128161    20.848101    7170.9735    4438.9845    7168.1231     7777.222    1446.4604   -1234.3774    710.08405   -2810.2709 
14235000    236.55638   -3935.5705    -3530.121   -3935.5705            0    6326.7274    17.128891    20.175571    20.897207    7221.7644    6152.2101    6807.8549    6020.1174    119.77533   -1190.0587   -186.13048   -2863.7773 
14236000    231.84141   -3897.7633    -3500.395   -3897.7633            0    5617.0806    17.155263    20.206634    20.929381    7255.1721    5421.7971    6346.8736    5082.5713    783.46552    505.07215    726.10388    -2906.056 
14237000     248.2182   -3927.9186   -3502.4811   -3927.9186            0    6009.9717    17.094532      20.1351    20.855289    7178.3928    5042.4485    7393.5387    5593.9279   -697.32847   -368.02657    29.917207   -2873.3002 
14238000    237.46252   -3884.9191   -3477.9165   -3884.9191            0    5638.9471    17.182189    20.238349     20.96223    7289.3878     6595.107    6017.5604    4304.1739     1522.777    220.04942    387.48679   -2878.4499 
14239000    240.83416   -3897.7798   -3484.9983   -3897.7798            0    6886.6733    17.125204    20.171228    20.892709    7217.1022     7538.708    5777.8658    7343.4461   -351.25054      105.039    126.24201   -2760.1482 
14240000    240.17637   -3880.5232   -3468.8692   -3880.5232            0    6815.9153    17.076936    20.114375    20.833822    7156.2492    7037.1424    6259.0944    7151.5093   -58.844453   -1184.3408   -338.21284   -2757.5156 
14241000    239.06828   -3919.0454   -3509.2905   -3919.0454            0    6615.3657    17.074572     20.11159    20.830938    7153.2774    6561.3851    6059.3501     7225.362   -481.38187   -1408.5711   -1281.1564   -2819.1543 
14242000    240.58335   -3917.1252   -3504.7736   -3917.1252            0    4825.5413     17.14971    20.200093    20.922606    7248.1296    5975.1223    5382.4973    3119.0043   -36.284541    718.67552   -1112.1796   -2994.6823 
14243000    257.23531   -3913.6106   -3472.7181   -3913.6106            0    7315.5119    17.080223    20.118246    20.837832    7160.3816    7117.2253    6837.8082    7991.5022   -950.01434   -453.26174   -914.73457   -2708.7825 
14244000    244.44376   -3917.6509   -3498.6827   -3917.6509            0    6953.4362    17.104949     20.14737    20.867997    7191.5235     8407.457    4937.3997    7515.4519   -606.43343    2209.2366   -1619.3613   -2769.3994 
14245000    259.38244   -3896.4429   -3451.8703   -3896.4429            0    6237.5885    17.120441    20.165618    20.886898    7211.0816    6516.3529    7764.8255    4431.5872    703.19677   -70.012182    435.42809   -2795.8866 
14246000    232.39141   -3904.4677   -3506.1568   -3904.4677            0    6552.1095    17.120085    20.165198    20.886463    7210.6318    6879.5336    6463.8202    6312.9748    1920.8856    1385.3967    457.86918   -2817.1391 
14247000    244.74855   -3936.0562   -3516.5656   -3936.0562            0    3894.5137    17.169157       20.223    20.946332     7272.815    3671.8421    4584.1175    3427.5814    541.25183    275.38568   -798.77998    -3103.488 
14248000    250.65512   -3910.1477   -3480.5334   -3910.1477            0    6606.0177    17.107584    20.150475    20.871213    7194.8486    7194.4032    6740.7002    5882.9497    1029.7293    -87.99165    730.21172   -2787.3674 
14249000    239.85333   -3934.3874    -3523.287   -3934.3874            0    6509.3886    17.080683    20.118789    20.838394    7160.9612    6840.3597     6230.425    6457.3812    1243.7509   -110.16174   -697.84268   -2843.4772 
14250000    247.79782   -3894.1163   -3469.3993   -3894.1163            0    6671.1499    17.071827    20.108357    20.827589    7149.8277    8365.4736    5051.5399    6596.4361    1417.6689   -1058.3234   -290.10381   -2773.7792 
Loop time of 499.358 on 64 procs for 250000 steps with 864 atoms

Performance: 86.511 ns/day, 0.277 hours/ns, 500.643 timesteps/s
99.0% CPU use with 64 MPI tasks x 1 OpenMP threads

MPI task timing breakdown:
Section |  min time  |  avg time  |  max time  |%varavg| %total
---------------------------------------------------------------
Pair    | 20.932     | 26.067     | 30.52      |  47.3 |  5.22
Bond    | 0.27062    | 0.28386    | 0.29879    |   1.1 |  0.06
Kspace  | 213.99     | 225.34     | 237.42     |  33.6 | 45.13
Neigh   | 4.8348     | 5.7431     | 7.1438     |  25.0 |  1.15
Comm    | 104.29     | 118.54     | 129.88     |  50.1 | 23.74
Output  | 1.6459     | 1.6567     | 1.6829     |   0.6 |  0.33
Modify  | 113.94     | 116.38     | 118.46     |  13.2 | 23.31
Other   |            | 5.348      |            |       |  1.07

Nlocal:        13.5000 ave          21 max           8 min
Histogram: 2 3 11 16 11 6 14 0 0 1
Nghost:        2223.09 ave        2251 max        2198 min
Histogram: 2 3 8 12 12 8 12 2 2 3
Neighs:        4310.03 ave        7135 max        2354 min
Histogram: 2 7 12 8 15 9 7 3 0 1

Total # of neighbors = 275842
Ave neighs/atom = 319.26157
Ave special neighs/atom = 2.0000000
Neighbor list builds = 12370
Dangerous builds = 0

unfix		3
unfix		2
unfix		1

write_data	data.final.${pid}
write_data	data.final.0
System init for write_data ...
PPPM initialization ...
  extracting TIP4P info from pair style
  using 12-bit tables for long-range coulomb (../kspace.cpp:340)
  G vector (1/distance) = 0.37379188
  grid = 24 24 24
  stencil order = 5
  estimated absolute RMS force accuracy = 0.0032150123
  estimated relative force accuracy = 9.6819141e-06
  using double precision FFTW3
  3d grid and FFT values/proc = 2535 216
Last active /omp style is kspace_style pppm/tip4p/omp
WARNING: Not all mixed pair coeffs generated from mixing. Use write_data with 'pair ij' option to store all pair coeffs. (../write_data.cpp:312)

write_restart   restart.lmp.${pid}
write_restart   restart.lmp.0
System init for write_restart ...
PPPM initialization ...
  extracting TIP4P info from pair style
  using 12-bit tables for long-range coulomb (../kspace.cpp:340)
  G vector (1/distance) = 0.37379188
  grid = 24 24 24
  stencil order = 5
  estimated absolute RMS force accuracy = 0.0032150123
  estimated relative force accuracy = 9.6819141e-06
  using double precision FFTW3
  3d grid and FFT values/proc = 2535 216
Last active /omp style is kspace_style pppm/tip4p/omp
Total wall time: 0:08:23
