LAMMPS (30 Jul 2021)
  using 1 OpenMP thread(s) per MPI task
package omp 0
using multi-threaded neighbor list subroutines
echo both

include		in.partitions
variable        pid world 0
include		in.temp
variable        temperature equal 267.03
variable	tempDamp equal 100.0
include		in.pressure
variable        pressure equal 8875.0
variable        pressureDamp equal 1000.0 # This is 1 ps
include		in.seed
variable        seed world 745823

units		real
atom_style	full
read_restart	restart.lmp.${pid}
read_restart	restart.lmp.0
Reading restart file ...
  restart file = 30 Jul 2021, LAMMPS = 30 Jul 2021
  restoring atom style full from restart
  orthogonal box = (-0.18928747 -0.098350140 -0.060924600) to (24.919288 24.828351 22.870925)
  4 by 4 by 4 MPI processor grid
  restoring pair style lj/cut/tip4p/long/omp from restart
  restoring bond style harmonic/omp from restart
  restoring angle style harmonic/omp from restart
  1920 atoms
  1280 bonds
  640 angles
Finding 1-2 1-3 1-4 neighbors ...
  special bond factors lj:    0        0        0       
  special bond factors coul:  0        0        0       
     2 = max # of 1-2 neighbors
     1 = max # of 1-3 neighbors
     1 = max # of 1-4 neighbors
     2 = max # of special neighbors
  special bonds CPU = 0.848 seconds
  read_restart CPU = 1.312 seconds
include 	in.setup
variable	out_freq equal 1000
variable	out_freq2 equal 10000
variable	out_freq3 equal 1000

timestep	2.0

neigh_modify    delay 7 every 1

include		in.tip4p
# This is TIP4P/Ice

# create groups ###
group ox type 2
640 atoms in group ox
group hy type 1
1280 atoms in group hy

# set charges - beside manually ###
set group ox charge -1.1794
Setting atom values ...
  640 settings made for charge
set group hy charge 0.5897
Setting atom values ...
  1280 settings made for charge

# ### TIP3P Potential Parameters ###
pair_style lj/cut/tip4p/long/omp 2 1 1 1 0.1577 8.5
pair_coeff 1 1*2 0.000 0.000
pair_coeff 2 2 0.21084 3.1668
bond_style  harmonic
bond_coeff  1 450 0.9572
angle_style harmonic
angle_coeff 1 55 104.52
kspace_style pppm/tip4p/omp 1.0e-5
pair_modify tail yes

thermo          ${out_freq}
thermo          1000
thermo_style    custom step temp pe etotal epair emol press lx ly lz vol pxx pyy pzz pxy pxz pyz enthalpy

restart 	${out_freq3} restart.lmp.${pid} restart2.lmp.${pid}
restart 	1000 restart.lmp.${pid} restart2.lmp.${pid}
restart 	1000 restart.lmp.0 restart2.lmp.${pid}
restart 	1000 restart.lmp.0 restart2.lmp.0


include         in.dump
dump            myDump all atom ${out_freq2} dump.water.${pid}
dump            myDump all atom 10000 dump.water.${pid}
dump            myDump all atom 10000 dump.water.0
dump            myDump2 all dcd ${out_freq2} dump.dcd
dump            myDump2 all dcd 10000 dump.dcd
dump_modify     myDump append yes
dump_modify     myDump2 append yes


variable natoms 	equal  "count(all)"                        # NUMBER ATOMS
variable H      	equal  "enthalpy/v_natoms"                 # ENTHALPY-per-atom
variable Vol      	equal  "vol/v_natoms"                 # volume-per-atom
fix AVG all 		ave/time ${out_freq} 1 ${out_freq} v_Vol v_H file vol_enthalpy.dat
fix AVG all 		ave/time 1000 1 ${out_freq} v_Vol v_H file vol_enthalpy.dat
fix AVG all 		ave/time 1000 1 1000 v_Vol v_H file vol_enthalpy.dat




fix 		1 all shake 1e-6 200 0 b 1 a 1
       0 = # of size 2 clusters
       0 = # of size 3 clusters
       0 = # of size 4 clusters
     640 = # of frozen angles
  find clusters CPU = 0.871 seconds
fix             2 all nph aniso ${pressure} ${pressure} ${pressureDamp}
fix             2 all nph aniso 8875 ${pressure} ${pressureDamp}
fix             2 all nph aniso 8875 8875 ${pressureDamp}
fix             2 all nph aniso 8875 8875 1000
fix             3 all temp/csvr ${temperature} ${temperature} ${tempDamp} ${seed}
fix             3 all temp/csvr 267.03 ${temperature} ${tempDamp} ${seed}
fix             3 all temp/csvr 267.03 267.03 ${tempDamp} ${seed}
fix             3 all temp/csvr 267.03 267.03 100 ${seed}
fix             3 all temp/csvr 267.03 267.03 100 745823


run             250000
PPPM initialization ...
  extracting TIP4P info from pair style
  using 12-bit tables for long-range coulomb (../kspace.cpp:340)
  G vector (1/distance) = 0.37428012
  grid = 30 30 30
  stencil order = 5
  estimated absolute RMS force accuracy = 0.0032949732
  estimated relative force accuracy = 9.9227139e-06
  using double precision FFTW3
  3d grid and FFT values/proc = 3600 512
Last active /omp style is kspace_style pppm/tip4p/omp
Neighbor list info ...
  update every 1 steps, delay 7 steps, check yes
  max neighbors/atom: 2000, page size: 100000
  master list distance cutoff = 10.8154
  ghost atom cutoff = 10.8154
  binsize = 5.4077, bins = 5 5 5
  1 neighbor lists, perpetual/occasional/extra = 1 0 0
  (1) pair lj/cut/tip4p/long/omp, perpetual
      attributes: half, newton on, omp
      pair build: half/bin/newton/omp
      stencil: half/bin/3d
      bin: standard
Per MPI rank memory allocation (min/avg/max) = 9.330 | 9.338 | 9.343 Mbytes
Step Temp PotEng TotEng E_pair E_mol Press Lx Ly Lz Volume Pxx Pyy Pzz Pxy Pxz Pyz Enthalpy 
 4500000    279.03427   -9078.4732   -8014.6673   -9078.4732            0    8193.6842    25.108576    24.926701    22.931849    14352.448    8277.0358    8918.3941    7385.6227    102.29884    882.17092   -143.44211   -6299.6003 
 4501000    255.71595   -9038.6297   -8063.7238   -9038.6297            0    9298.7316    24.983446    24.764379    23.201649     14354.85    8367.0966    12030.231    7498.8675    1098.0505   -291.00659   -1358.2698   -6117.0274 
 4502000    268.69814   -9070.9928   -8046.5929   -9070.9928            0    9251.8972    24.995112    24.970653    22.980554    14343.181    8390.4677    10191.928    9173.2961    -641.7704   -1117.2129    1227.7526   -6111.2757 
 4503000    267.92889   -9079.4927   -8058.0256   -9079.4927            0    8399.7513    24.997182     24.96785    22.968012    14334.931    7516.9272    9687.8279    7994.4989   -467.53679    772.19938    -763.5821   -6301.9713 
 4504000    266.45268   -9111.8884   -8096.0493   -9111.8884            0    7706.9782    24.950896    24.930594    23.108877    14374.662    8105.4196     7400.289    7615.2259   -74.444535    730.58561   -197.33845   -6480.3607 
 4505000    266.97693   -9060.1907   -8042.3529   -9060.1907            0    7976.9125    25.012802    25.023834     23.01918    14408.078    7683.4589     8535.175    7712.1037    779.72659    639.14153    471.48131   -6366.1879 
 4506000    267.43256   -9032.6385   -8013.0636   -9032.6385            0    8858.1679    24.996667    24.983919    23.004526    14366.665    9322.1962    8057.0305    9195.2771    205.02061    686.69317   -257.93525   -6157.0731 
 4507000    263.75147   -9091.6437   -8086.1028   -9091.6437            0    8926.8722    24.890002    24.967362    23.046177    14321.763    9189.9073    9536.7993    8053.9101   -348.54131    306.72081     449.3776   -6221.5628 
 4508000    265.22063   -9093.7859    -8082.644   -9093.7859            0    8347.8717    25.086264    24.942764    22.923533     14343.73    6619.8241    9841.6843    8582.1068   -191.40498     320.7135    1145.9644   -6336.3644 
 4509000    263.17661   -9021.3963    -8018.047   -9021.3963            0    9392.2641     25.07308    24.946327     22.97623    14371.201    8016.7623    10285.353     9874.677    501.00196   -59.752332    174.52303   -6049.5296 
 4510000    268.50016   -9060.6359   -8036.9909   -9060.6359            0     8596.223    24.939133    24.902988    23.122746    14360.588     8460.957    9099.0234    8228.6886   -474.10994    747.30483    545.04585   -6236.6456 
 4511000    268.56398   -9091.5912   -8067.7028   -9091.5912            0    8017.6134    24.998565    25.068591    22.954801    14385.287    7623.0986    7670.4579    8759.2837   -231.19825   -655.53109   -244.61292   -6385.6503 
 4512000    269.70634   -9031.6169   -8003.3733   -9031.6169            0    8462.5626    25.100906    24.973682    22.954017    14389.002    8193.2439    7674.3092    9520.1348    23.108554   -691.22693   -820.53869   -6227.5144 
 4513000    268.98987    -9059.093    -8033.581    -9059.093            0    7949.5069     24.98775    24.928785    23.104335     14392.02    6745.5252    8795.0293    8307.9661   -378.90062    -1267.019    1072.9675   -6365.0364 
 4514000    254.76562   -9076.3908   -8105.1081   -9076.3908            0    9347.6574    24.988974    25.063655    22.846355    14309.016    8410.1252    8549.3756    11083.471    463.28656   -879.76533    182.01415   -6154.4172 
 4515000    266.83547   -9081.6702   -8064.3717   -9081.6702            0    8341.5842    24.901525    24.955929    23.173254    14400.802    8327.2911     9829.393    6868.0686   -426.22905   -89.777624    370.20821   -6312.4644 
 4516000    269.11603   -9074.4131     -8048.42   -9074.4131            0    8896.1521    24.974388    25.086052    22.880353    14334.743     8257.461    8185.2752     10245.72   -987.04457   -1355.9269    54.004625   -6188.6126 
 4517000     275.7467   -9094.8896   -8043.6174   -9094.8896            0    9996.5234    24.848249    24.968973    23.010182    14276.328    11041.263    10415.412    8532.8944   -360.21387    123.53522    504.87871   -5962.2852 
 4518000    261.00228   -9089.3707    -8094.311   -9089.3707            0    8823.5548    24.917573     24.93052    23.097838    14348.563     9590.618     8746.951    8133.0955    728.53196   -418.36139    553.84524   -6247.9021 
 4519000    270.55816   -9103.0973   -8071.6062   -9103.0973            0    8609.9621    24.972404     25.06503    22.925717    14349.987    8231.5917    8371.6864    9226.6081    -762.3648   -564.95846    350.60659   -6269.7146 
 4520000    262.36719   -9085.4136   -8085.1502   -9085.4136            0    9465.2062    24.984582    24.947733    22.947816    14303.573    8052.2652    9901.3136     10442.04    1013.7036    291.26599   -173.28781   -6110.6803 
 4521000    261.12525   -9068.3811   -8072.8525   -9068.3811            0    8991.6685    25.046169     24.88907     22.99827    14336.566    8805.3387     9302.049    8867.6179   -18.901543    79.133276    526.97079   -6192.8375 
 4522000    274.02853   -9069.7489   -8025.0271   -9069.7489            0    8916.9726    25.080453    24.873934    23.009922    14354.729     7994.914    10343.432    8412.5721   -626.69551   -536.67408    337.36169   -6158.2679 
 4523000    259.81234   -9097.3332     -8106.81   -9097.3332            0    8371.8562    25.016037    24.953485    22.958582    14331.603    6765.6173    9332.5899    9017.3615    405.18887   -628.09331   -102.85774   -6356.9938 
 4524000    273.31856   -9030.3973   -7988.3823   -9030.3973            0    8092.1428    25.009491    24.911961    23.179445    14441.616    6529.8514    9405.9146    8340.6624   -135.52029    258.10209   -687.39796   -6284.0463 
 4525000    266.84857   -9067.6719   -8050.3234   -9067.6719            0    8794.5717     25.02091    25.048011    22.956049    14387.108     9206.116    8816.1022    8361.4968    293.01733   -977.68255   -595.24783   -6205.0357 
 4526000    268.96142   -9039.4919   -8014.0883   -9039.4919            0    7545.2537    25.019263    25.010873    23.034358    14413.833    6926.9969    8026.0691    7682.6951    7.6171605    91.111653   -2.3950031   -6427.9932 
 4527000    265.44635   -9067.1506    -8055.148   -9067.1506            0    7592.2426    24.931733    25.043725    23.078654     14409.93    8341.6161    7180.6408     7254.471    240.07772    332.93752    327.85944   -6459.6075 
 4528000    261.77946   -9080.6357    -8082.613   -9080.6357            0    6832.5473    24.888839    24.995653    23.205977    14436.735    7983.6925    7012.3599    5501.5894    8.2648772   -227.36131    1046.6469   -6644.0545 
 4529000    261.66261   -9084.0092    -8086.432   -9084.0092            0    7318.6999    25.035272    25.005023    23.043629    14425.486    7280.2335    7025.2386    7650.6276   -567.29939    234.62677    114.66692   -6546.7173 
 4530000    262.57661   -9020.5778   -8019.5161   -9020.5778            0    7108.2191     24.94339    25.142766    23.074222    14470.902    8015.6461    7124.7671     6184.244   -71.131673   -938.56688    517.12466   -6519.3743 
 4531000    272.03282   -9051.2913   -8014.1782   -9051.2913            0    7413.9235    25.001961    25.109716    23.001576    14440.208    7329.3161    7244.7696    7667.6848    170.47802    430.29349    206.33156   -6452.8383 
 4532000    266.52475   -9038.9941   -8022.8802   -9038.9941            0    7941.8792    24.899428    24.978814    23.163269    14406.584    8805.5318    8761.2542    6258.8515    54.794899    248.76529   -822.39312   -6354.2497 
 4533000    268.33415   -9069.5891   -8046.5769   -9069.5891            0    8548.6431    24.981737    25.066374    22.944443    14367.846    8777.6569    8310.0487    8558.2237   -1434.4392   -594.25366    267.13634   -6255.2917 
 4534000    259.09637   -9100.5101   -8112.7166   -9100.5101            0    7679.8607    25.026278    25.119333    22.900287    14396.115    8401.5649    6300.4051    8337.6122    63.687591    393.36634   -523.46899   -6500.3101 
 4535000    260.71286   -9117.1225   -8123.1662   -9117.1225            0    7975.5294    24.923182    24.981843    23.059447    14357.435    7399.9291    7803.8494    8722.8098     632.5559    873.63398   -91.326768   -6453.1824 
 4536000    263.61601   -9079.7179   -8074.6935   -9079.7179            0    8768.5534    24.936459    25.130152    22.911712    14357.784     9473.451    7548.6272    9283.5822   -717.48355    852.35026   -217.64685   -6238.6149 
 4537000    269.82661   -9086.9609   -8058.2588   -9086.9609            0    9243.5617    24.793663    25.073088    23.033176    14318.659    9692.2838    8792.5679    9245.8333    244.89115   -715.32731   -8.2852242    -6127.991 
 4538000     264.3779   -9040.4919   -8032.5628   -9040.4919            0    9498.9231    24.844322    25.098373     22.95605    14314.292    9895.2038    9007.6084     9593.957    -162.7111   -271.39867   -120.25445   -6049.5745 
 4539000    263.39895   -9089.2497   -8085.0528   -9089.2497            0    8252.8529    24.923374    24.988794    23.070976     14368.72    8202.7738    8228.9312    8326.8537    471.63401    480.12684    215.13901   -6355.6423 
 4540000    263.52965   -9063.8159   -8059.1206   -9063.8159            0    11476.853    24.948126    24.886832     22.86546    14196.703    10502.393    12211.686    11716.481   -166.01167   -312.31099   -759.21192    -5682.903 
 4541000    263.21622   -9115.4378   -8111.9375   -9115.4378            0    8279.8417    24.914099    24.897098    23.108259    14333.793    8276.5147    9124.4407    7438.5697   -35.124677   -888.50557    367.02031    -6381.089 
 4542000    264.02211   -9073.0044   -8066.4317   -9073.0044            0    8559.7417    25.059392    25.012266    22.893085    14349.207    8555.9938    7950.4064    9172.8248    767.33593    405.13874   -610.58989   -6275.1476 
 4543000    270.09634   -9065.2753   -8035.5449   -9065.2753            0    9327.3053     25.00113    24.983311    22.930913      14322.9    8873.4554    8918.0649    10190.396    464.43272    72.019477    995.69592   -6087.2125 
 4544000    267.99906   -9080.9928   -8059.2582   -9080.9928            0     9365.271    24.883715    24.905536    23.126099    14332.221    10288.681    9323.6169    8483.5147   -407.11562   -1399.9953   -675.54952   -6101.7223 
 4545000    254.21314   -9098.8783   -8129.7019   -9098.8783            0    8521.7481    24.981104     24.96999    23.038247     14370.75    8596.4998    8343.6211    8625.1235   -59.457275   -137.52934    521.53719   -6343.6914 
 4546000    274.64356   -9061.9489   -8014.8824   -9061.9489            0    8126.1941    25.014901    25.099087    22.887191     14369.75    8456.9582    7965.4478    7956.1765    458.45486    1128.9789    1175.1852   -6311.8916 
 4547000    267.79517   -9092.8677   -8071.9104   -9092.8677            0    9667.5705    24.964078    24.907894    22.958079    14275.394    8997.0418    10870.171    9135.4986   -357.34099    236.60362    32.193455   -6059.1998 
 4548000    266.48173   -9088.0899     -8072.14   -9088.0899            0     8624.545     25.00365    24.845025    23.109845    14356.213    9035.6435    9142.9617    7695.0296    906.32269    823.47761    199.64627   -6266.4135 
 4549000    277.17282   -9091.7861   -8035.0769   -9091.7861            0    8061.3579    25.024725    24.993875    22.969842    14366.828    8268.2727    7358.7961    8557.0048    35.871826   -52.045575   -474.24921   -6346.0172 
 4550000     279.5388   -9088.0425   -8022.3131   -9088.0425            0    8943.0392    24.834946    24.999893    23.088997    14335.289    9061.9581    9583.3115     8183.848     225.2919    581.08712   -346.20101   -6152.6323 
 4551000    265.31655   -9058.6665   -8047.1588   -9058.6665            0    8852.0206    24.990825    25.041883    22.956838    14366.787    7342.9555    9963.9505    9249.1557   -486.31638   -518.21698    439.01003   -6192.4405 
 4552000    271.16144   -9101.7866   -8067.9955   -9101.7866            0    8327.8855    24.995051    25.008121    22.983182     14366.31    8310.4707    8039.5298     8633.656   -839.07528   -730.19256   -472.42511   -6323.1544 
 4553000     268.9274   -9091.5119   -8066.2381   -9091.5119            0    8679.0644    25.065336    24.833404    23.042374    14342.901    8630.6947    8863.0297    8543.4689    164.21557    706.70045   -142.90804   -6250.7818 
 4554000    272.13885   -9066.5861   -8029.0687   -9066.5861            0    8601.2306    25.088759    24.879572    23.020443    14369.305    8428.0336    9022.6855    8352.9726   -1215.7764    885.19895   -283.24829   -6226.5812 
 4555000    273.24478   -9058.8033   -8017.0696   -9058.8033            0    9606.6103    25.094901     24.86304    22.937985    14311.824    8565.5711    10003.728    10250.532   -704.91515   -489.87874    277.38788   -6011.9464 
 4556000    273.16327   -9060.9213   -8019.4983   -9060.9213            0    8734.3938    24.998516    24.829939    23.129981    14357.048    9217.0172    9322.9148    7663.2495    281.47686    -91.64064   -495.07002   -6190.6663 
 4557000     260.5136   -9049.3064   -8056.1097   -9049.3064            0    8425.8387    24.991877    24.938938    23.041068    14360.827    7588.2982    9295.5134    8393.7044   -407.52341    2001.4947   -47.567035   -6291.4196 
 4558000     267.4397   -9093.7575   -8074.1554   -9093.7575            0    8956.1592    24.948133    25.030137    22.956549    14335.336    9156.3745    7381.2307    10330.872   -37.548434   -1334.2721   -173.64776   -6201.7255 
 4559000     265.5528   -9072.1166   -8059.7082   -9072.1166            0    7862.0814    24.884957    25.034497    23.081462    14379.344    9115.3421    6932.5531    7538.3488    752.65163   -424.45531   -135.86017    -6410.967 
 4560000    259.73894   -9091.6984   -8101.4551   -9091.6984            0    8828.9022    24.897473    25.017961    23.024104    14341.346    8787.9262    8656.4019    9042.3786    1208.0864    460.50123    1020.3175   -6254.8564 
 4561000    262.66723   -9083.1395   -8081.7322   -9083.1395            0     8633.071    24.843434     25.12539    22.977243    14342.417    9195.0113    7710.1385    8994.0631    217.14055   -617.26411   -177.06063   -6275.9576 
 4562000    267.15818   -9079.9474   -8061.4186   -9079.9474            0    8902.5538    24.854276    25.032357     23.02028    14322.323    8546.5238    9716.2521    8444.8855   -404.60261   -212.04044   -1014.4463   -6201.8852 
 4563000    264.03833   -9004.7965    -7998.162   -9004.7965            0    10315.899    24.800121    25.045899    23.059477    14323.194     11066.03    9852.3706    10029.296    324.93658    1822.3188   -534.09894   -5843.2833 
 4564000    276.48681   -9098.3694   -8044.2756   -9098.3694            0    8414.3666    24.964797    24.959888    23.046153    14360.485    8560.6572    8223.7021    8458.7407    377.62676      441.232    -91.99006     -6282.03 
 4565000    254.65719    -9084.242   -8113.3727    -9084.242            0    7180.8955     25.09495    24.983182    22.952977    14390.408    4928.5737    8760.8535    7853.2594   -401.57733   -502.64955    1151.6641   -6606.3229 
 4566000     277.3177   -9045.1384   -7987.8768   -9045.1384            0    8510.6144    24.989368    24.992791    23.051424     14396.86    8105.1456    8311.8817    9114.8159    1310.3288    706.83408    254.30082    -6200.959 
 4567000    261.25036   -9095.1702   -8099.1646   -9095.1702            0    9734.4326    24.880845    24.931874    23.043091    14294.231    9824.0085    9971.8049    9407.4844   -570.02108   -612.82131    894.38916   -6069.8597 
 4568000    261.38234   -9083.6982   -8087.1895   -9083.6982            0    9505.7345    25.126882    24.914999    22.804502    14276.445    8432.3462    8029.1339    12055.724    237.00736   -376.67103   -891.50968   -6108.0262 
 4569000    267.30097   -9109.9916   -8090.9184   -9109.9916            0    9700.8835    24.910384    24.853649    23.050544    14270.913    8410.4591    11489.145    9203.0466   -134.50211   -271.71322   -401.76751   -6071.9063 
 4570000    261.89384   -9081.0885   -8082.6297   -9081.0885            0    8951.7719    24.998268    24.845333    23.059385     14321.96    8380.2411    10275.155    8199.9194     538.8359   -796.33284    196.59545   -6212.8633 
 4571000    273.00414   -9099.8725   -8059.0562   -9099.8725            0    7587.6719    25.103087    24.976756    22.934275    14379.645    6665.5007    8209.8104    7887.7048   -178.11253   -305.55951    6.2576038   -6467.8274 
 4572000    276.89342   -9072.6497   -8017.0057   -9072.6497            0    8423.0908    25.016166    24.964692    22.974806    14348.246    8411.5182    9180.9525    7676.8017   -270.43797     430.7301   -948.27429   -6254.4365 
 4573000    253.95922   -9106.6211   -8138.4128   -9106.6211            0    9377.3595    24.929892    24.856853    23.081878    14303.347    8115.4815    9784.0388    10232.558   -529.90074   -1116.3091    960.32058   -6182.2989 
 4574000    274.71465   -9086.7927   -8039.4551   -9086.7927            0    9703.3268    25.030641    24.897839    22.923368    14286.046    9214.9215    9591.3109    10303.748    58.875159   -982.31356    -1079.337   -6017.7929 
 4575000    265.50614   -9028.2988   -8016.0683   -9028.2988            0    9942.4961    24.964102    24.911602    23.050924    14335.272    10179.065    9791.5968    9856.8265   -164.86535   -116.39582     542.3783    -5937.438 
 4576000    263.65033   -9057.5455   -8052.3902   -9057.5455            0    11035.371    24.890984    24.889312    22.976632    14234.471    11244.553     11368.32    10493.241     290.4312   -476.91892   -747.71423   -5761.5005 
 4577000    267.83054   -9123.6709   -8102.5787   -9123.6709            0    8985.1095     24.91776    24.982536    22.979332    14304.837    8618.1542    9220.0662    9117.1082   -131.33523    1043.8974    320.69824   -6228.0927 
 4578000    269.25713   -9028.1374   -8001.6064   -9028.1374            0    9215.1936    24.836351    25.081212    23.001141    14328.004    10150.881    9197.7584    8296.9416   -417.83826   -851.46784    580.65746   -6076.0065 
 4579000    267.16391   -9081.0411   -8062.4904   -9081.0411            0    9941.3782    24.848779    25.042889    22.872234    14233.053    9992.9819    10201.236    9629.9165   -284.29824   -478.33452    400.69075    -5998.914 
 4580000    272.08921   -9107.6395   -8070.3113   -9107.6395            0    9007.2275      24.8107    25.012846    23.092219    14330.712    10086.677    7669.9044    9265.1014    593.50385   -1380.1755    534.86832   -6187.8121 
 4581000    275.27542    -9063.976   -8014.5006    -9063.976            0    9253.0739    24.935301    24.920403    23.078234    14340.762    8710.5754    9732.6953    9315.9509    2.9595878   -309.96028   -237.81365   -6079.2636 
 4582000    259.40068   -9051.9999   -8063.0462   -9051.9999            0    8233.2136      25.0697     25.03688    22.907363    14378.198    7567.4404    7945.1057    9187.0947    75.682159    390.08854    276.77277   -6336.6132 
 4583000    266.33015   -9123.6246   -8108.2526   -9123.6246            0    8472.3485    24.984623     24.96455    22.986747    14337.521    8785.3957    8228.5853    8403.0645   -928.95413   -96.841075    915.91897   -6336.7011 
 4584000    273.68537   -9043.9843   -8000.5709   -9043.9843            0    8611.3436    25.009092    24.797864    23.165734    14366.741    8265.2074    10001.831     7566.993    641.97308    475.49112    356.06769   -6196.2861 
 4585000    269.41466   -9102.5573   -8075.4257   -9102.5573            0    7311.6549    25.162511    24.865784      22.9819    14379.443    6017.5407    8527.7795    7389.6446    15.651962   -445.47808    979.25853   -6542.1027 
 4586000    265.11017   -9053.6807   -8042.9598   -9053.6807            0    9578.4995    25.127563    24.924956    22.887552    14334.552     8024.464    10205.405     10505.63   -560.93365   -645.09123   -76.841919   -6040.5292 
 4587000    273.87575   -9108.8855   -8064.7462   -9108.8855            0     9471.753    24.925075     24.93907    23.020751    14309.887    9301.8206    10078.739    9034.6995    276.20526    459.36805   -753.20108   -6088.0384 
 4588000    275.83137   -9048.0289   -7996.4339   -9048.0289            0    9286.4545    24.936256    25.071599    22.908696    14322.329    10010.681    7470.4826      10378.2    -225.6864    549.41483    1597.1367    -6056.712 
 4589000    258.21973   -9094.3039   -8109.8525   -9094.3039            0    10158.614       24.886    24.925423    22.998875    14266.066    10927.362    9493.1609    10055.319   -327.53886   -4.4899178   -1407.9417   -5996.2925 
 4590000    277.56394   -9090.5207   -8032.3203   -9090.5207            0     10278.36     24.85106    24.975525    22.969389    14256.371    10569.573    10407.441    9858.0668    553.44436    352.31833    602.60128   -5895.2998 
 4591000    260.64271   -9075.2602   -8081.5713   -9075.2602            0     9695.138    24.872198    25.032769     22.93811    14281.726    9359.4424    9985.5921    9740.3796    36.003464    159.02621   -991.38978    -6062.226 
 4592000    270.42246   -9072.8916   -8041.9178   -9072.8916            0    8340.0024     24.76124    25.066869    23.120897    14350.834    8689.0681    8570.7133    7760.2257   -114.92337     997.1635   -792.29466   -6296.4204 
 4593000     272.5504   -9081.5343   -8042.4479   -9081.5343            0    8306.1749    24.869733     25.07051    23.035055    14362.285    9296.2605     7782.137    7840.1271    478.73591   -750.59015    366.26424   -6302.6431 
 4594000    267.51842   -9095.4287   -8075.5265   -9095.4287            0    8216.1456    24.944833     25.12114     22.94303    14377.081    8341.8392    7363.1141    8943.4834   -298.15688   -893.40598    999.94216   -6352.8063 
 4595000    261.43798   -9123.1164   -8126.3956   -9123.1164            0    10160.806    24.815879    24.920051    23.042549    14249.812     11206.52    9445.3589    9830.5399    130.09927   -465.64823    43.704432   -6014.7882 
 4596000    270.04614   -9075.2149   -8045.6759   -9075.2149            0    9984.2955    24.943966     25.03547    22.863138    14277.662    10415.072    8832.3996    10705.415   -839.85395    213.29829     858.0143   -5966.6954 
 4597000    271.24134    -9081.369   -8047.2733    -9081.369            0    8327.6369    24.970966    24.967782    23.031006    14359.133    8385.4482    8861.3993    7736.0632    92.117363    1510.8073    495.04713   -6303.3559 
 4598000    253.15228    -9089.293    -8124.161    -9089.293            0    9542.5725    24.894806    24.906494    23.028531    14278.664    8886.1688    10902.882    8838.6665    548.02399     1293.044    1009.7047   -6137.0189 
 4599000    265.95937   -9057.1916   -8043.2331   -9057.1916            0    8282.6504     25.05217    24.896802    23.038897    14369.796     6867.663    9287.7506    8692.5377    275.79624    1432.5458   -1250.8335   -6307.4486 
 4600000    261.33535   -9095.3747   -8099.0451   -9095.3747            0    7940.0835    25.080973    24.924152    22.986126    14369.133    6959.5744    8815.5488    8045.1273   -1234.2355   -1381.5162    931.49252   -6435.1287 
 4601000    266.13094   -9089.8967   -8075.2842   -9089.8967            0    8939.3056    25.061627    24.761446    23.092071    14330.064    8735.7528    10030.834    8051.3296    814.99127    504.68475    48.380901   -6207.0651 
 4602000    274.38709   -9077.9109   -8031.8222   -9077.9109            0    8694.7896    25.056591    24.931769    22.961747    14344.321    8548.3295    8757.2595    8778.7798    42.787947    1080.4604   -501.07223   -6212.8965 
 4603000    266.37294    -9057.899   -8042.3638    -9057.899            0    8731.1221    24.971575    24.918666    23.097155    14372.397    9131.6092     7765.977    9295.7801    101.98018   -541.90924    483.39554   -6212.2624 
 4604000     278.3693   -9133.7378   -8072.4671   -9133.7378            0    7017.6029    25.049618    25.128215     22.89833    14413.405    6879.0036    6598.7264    7575.0787    73.096838   -1509.0201    601.67375   -6597.3338 
 4605000    262.18673   -9051.3169   -8051.7415   -9051.3169            0    7310.6767    24.911351    25.031195     23.13739    14427.572    8022.7192    7233.0252    6676.2857    -69.56459    422.47853    122.12276   -6513.4923 
 4606000    260.22265   -9081.7553   -8089.6678   -9081.7553            0    9494.8862    24.913368    24.988719    23.009809    14324.828     10598.85    8680.3385    9205.4706   -154.23699     97.34586   -523.20844   -6106.0633 
 4607000    270.86513   -9085.2101   -8052.5487   -9085.2101            0     8418.998    24.964489    25.199296    22.837287    14366.653     9430.274    6988.6112    8838.1087   -369.19793   -63.161405    427.49354   -6288.5759 
 4608000    264.72424   -9066.1944   -8056.9449   -9066.1944            0    9223.7054    24.797115    24.973111    23.129594    14323.258     10689.65    8226.2439    8755.2221     1383.939    1380.8169    1067.7039   -6130.2048 
 4609000    264.17218   -9093.7254   -8086.5806   -9093.7254            0    8022.2526    24.948847    25.143167    22.930554    14384.176    6985.8114    7477.8045     9603.142    623.33857    793.86619   -930.79901   -6403.6848 
 4610000    265.64801   -9092.6347   -8079.8634   -9092.6347            0    8305.7897    24.909931    25.026313     23.03444    14359.757    8539.1227    7931.3771    8446.8692   -291.89122    71.776574    706.36604   -6340.4456 
 4611000    269.58398   -9097.2723   -8069.4952   -9097.2723            0    6846.1802    24.979379    25.053461    23.123822    14471.348    6987.3457    6748.0544    6803.1404   -473.61403   -615.52327    202.02719   -6624.6105 
 4612000    265.87137   -9061.4066   -8047.7836   -9061.4066            0    7476.4488    24.944396    25.019633    23.099769    14416.557    7979.0688    7296.1704    7154.1071     338.6124    1327.3181   -515.36829   -6475.8551 
 4613000     266.5082   -9085.4334   -8069.3826   -9085.4334            0    8637.2198    24.983277     25.07969    22.917169    14359.276    9570.4889     6864.901    9476.2695   -630.26296   -502.64084    1510.1894   -6260.6166 
 4614000    276.61366   -9055.9136   -8001.3361   -9055.9136            0    9314.9247    24.848248    25.048347    23.064909    14355.773     10065.33    9435.2014    8444.2426   -39.834098    887.08124   -420.78606   -6051.1241 
 4615000     272.0062    -9041.696   -8004.6843    -9041.696            0    9926.1442    24.860346    24.952417    23.055221    14301.747     11639.18     9732.157    8407.0959   -695.71099   -709.70284   -749.65398   -5934.3258 
 4616000    265.44729    -9084.459   -8072.4528    -9084.459            0     10728.26    24.934638    24.968676    22.849209    14225.573    11763.313    8731.1731    11690.293    22.705277   -1062.9514    819.39528   -5846.7103 
 4617000    265.00989   -9113.9315    -8103.593   -9113.9315            0    11369.936    24.789162    24.945753     22.97836    14209.458    12352.318    10559.736    11197.754   -1329.9063    293.97968   -1484.4833    -5747.397 
 4618000     268.0103   -9143.2517   -8121.4742   -9143.2517            0    8594.3245     24.90794    24.961514     23.01923    14311.973    9210.8237    8625.6492    7946.5006    132.32296    1546.2355   -205.80153     -6327.62 
 4619000    274.77422    -9101.277   -8053.7124    -9101.277            0    10021.085    24.894063    25.057446    22.855225    14256.669    9716.5109    9398.6006    10948.144    256.99388    513.14149    68.086047   -5970.1394 
 4620000    261.88003   -9081.8749   -8083.4687   -9081.8749            0    8273.8667    24.855414    25.135185    23.035658    14391.422    8623.5421    8209.7871    7988.2709    404.03738    166.31914    212.03582   -6346.9154 
 4621000    263.31408   -9090.4149   -8086.5416   -9090.4149            0    8524.4681    24.905362    24.969205    23.077626    14351.216    8729.7746    8484.9839    8358.6458   -145.11239    242.71079   -329.66153   -6302.3895 
 4622000    260.22333   -9033.4855   -8041.3955   -9033.4855            0      7199.72    24.972532    25.141991    23.052877     14473.96    7690.3037    5742.4898    8166.3665   -511.47926    1288.0595   -38.486663   -6521.6219 
 4623000    262.27195   -9103.1917   -8103.2914   -9103.1917            0    8156.8238    24.897628    25.018279    23.085936    14380.132    8501.1856      6947.67     9021.616     24.38736    -605.4872   -212.17792   -6392.6465 
 4624000    268.45223   -9043.7569   -8020.2945   -9043.7569            0    9203.0286     25.04144    24.994834    22.916925    14343.855    8971.5494    9530.3004    9107.2358   -122.50726    802.38521    195.05004   -6095.1091 
 4625000    262.43416   -9009.9369   -8009.4182   -9009.9369            0    9835.8863    24.901827    24.866635     23.17318    14349.404      8737.73    11569.568    9200.3614    263.09073    867.17915    496.06086   -5951.0491 
 4626000    266.96119   -9071.0981   -8053.3203   -9071.0981            0     9916.709    25.104421    24.835034    22.928905    14295.465    8651.7792    10604.961    10493.387   -546.49464    404.92518      525.695   -5985.8383 
 4627000    270.27744   -9061.4698   -8031.0489   -9061.4698            0    10309.498    25.051959     24.83294    22.935694    14268.611    9869.2346    10974.447    10084.812   -816.46467   -975.02941   -87.936631   -5885.7139 
 4628000    269.55374   -9099.9162   -8072.2544   -9099.9162            0    9282.2757    24.949446    24.912359    22.988795    14288.675    9394.3469    9850.8223    8601.6579   -1000.3452   -307.35309    21.056505   -6137.9612 
 4629000    266.14418    -9050.284    -8035.621    -9050.284            0    8896.7932    25.004937    25.025411     22.92896    14347.999    9185.3976    7573.8733    9931.1088   -968.16563     488.7499   -392.09005   -6173.9595 
 4630000    266.29139   -9117.9921   -8102.7679   -9117.9921            0    8602.0141    24.936472     24.93743    23.055997    14337.408     8405.051    8725.7783    8675.2131    57.622617     321.9931     143.7998   -6304.1179 
 4631000    261.05479    -9084.612    -8089.352    -9084.612            0    10342.499    24.832902    24.973175    23.015013    14272.908    10532.929    10786.069     9708.498   -804.26342     282.1686    738.41075   -5936.5018 
 4632000    258.12561   -9057.2093   -8073.1167   -9057.2093            0    7011.5156    25.121407    25.124473    22.899955    14453.584    5579.4638    6647.0496    8808.0333    477.22357   -267.24713    1474.5164   -6595.1544 
 4633000    266.85385   -9097.1678   -8079.7992   -9097.1678            0    7193.1169    24.938345    24.990956    23.140868    14422.154    6957.3721    7506.2605    7115.7182    150.94169    345.72731    615.03507   -6566.8542 
 4634000     262.0729   -9115.3098   -8116.1684   -9115.3098            0    7847.1678    24.886855    25.067477    23.032619    14368.914     8929.055    6559.6162    8052.8323    160.50157   -735.53764    273.21029   -6471.7482 
 4635000    265.55329   -9143.4708   -8131.0605   -9143.4708            0     8705.371    24.875568    24.988598    22.984952    14287.574    8193.5814    8973.5835    8948.9479   -654.60385    35.856455    419.93257   -6317.1258 
 4636000    268.24719   -9076.6502   -8053.9696   -9076.6502            0    8753.4891    24.970089    25.017838    22.945557    14334.035     9709.958    8076.0696    8474.4396   -413.28637    42.050766   -583.24651   -6224.0772 
 4637000    267.63465   -9109.7991   -8089.4538   -9109.7991            0     8643.477     24.88991    24.888914    23.145702    14338.365    9501.1346    9056.7025    7372.5938    858.46766    250.07157    -78.53231   -6282.0134 
 4638000    273.46103   -9099.7924   -8057.2343   -9099.7924            0    8687.5022    24.988758    24.990962     22.93524    14322.899    7994.7021    8781.6738    9286.1306   -81.460143   -455.64926   -361.03638   -6242.5472 
 4639000    262.75701   -9108.3088   -8106.5593   -9108.3088            0    9748.7815     24.86654    24.874825    23.092954    14284.167    9779.3816    10390.685    9076.2776    1399.7215   -1216.0288   -1442.4719   -6075.6939 
 4640000    270.16296   -9085.1334    -8055.149   -9085.1334            0    9108.6898    24.938343    24.874569    23.045728    14295.969     8610.036    10105.387    8610.6462    194.36751   -497.74286   -1123.2798   -6156.0597 
 4641000    266.65296   -9111.9375   -8095.3348   -9111.9375            0    8240.2574    24.999641    25.072203    22.901511    14354.577    8682.8359    6674.7387    9363.1975    -180.5479    -303.8535   -680.93142   -6370.2634 
 4642000    268.43166   -9129.2656   -8105.8817   -9129.2656            0    7899.9781    24.910342    25.043881      23.0118    14355.949    7302.3472    7828.4923    8569.0948   -13.392452   -741.41238   -195.72724   -6451.8886 
 4643000    259.27939   -9057.7143    -8069.223   -9057.7143            0    9408.6227    24.787147    24.976737    23.184819    14353.769    9172.4326    10339.295    8714.1402    30.182809      1115.85    1660.5257   -6099.6691 
 4644000    260.94485   -9061.2671   -8066.4264   -9061.2671            0    9445.5122    24.866615    25.074375    22.949687     14309.47    9368.3802    8569.1884    10398.968    134.44078   -761.30275    550.79527   -6095.2524 
 4645000    270.42613   -9033.0436   -8002.0559   -9033.0436            0    9626.9642    24.865675    25.034996    23.042651    14344.328    10417.885    8035.2842    10427.724   -1137.2606   -970.91199    659.81065   -5988.1209 
 4646000    266.86301   -9101.3398   -8083.9363   -9101.3398            0    8727.1661    24.874419     25.02583    23.051338    14349.526     9099.496    8996.0355    8085.9668   -30.082193    280.92559    986.35625    -6257.575 
 4647000    262.77129   -9080.3105   -8078.5065   -9080.3105            0    8726.6002    24.889683    25.009868    22.988933    14310.328    9186.9921    9021.4277    7971.3807   -53.916605   -1119.8725   -655.10427   -6257.2523 
 4648000    255.77812   -9082.8446   -8107.7017   -9082.8446            0    9569.9394    24.936841    24.983743    22.937083    14290.161    9194.6937     10072.55    9442.5748    679.09198   -1223.5579   -348.20807   -6113.2561 
 4649000    264.21622   -9062.0045   -8054.6918   -9062.0045            0    8363.7497    24.902501    24.962801    23.094771    14356.545    10012.918    7689.1577    7389.1732    383.80288    381.25832    469.67404   -6303.5277 
 4650000    262.77304    -9090.072   -8088.2614    -9090.072            0    8453.8367    24.949337    24.961037    23.001078    14324.182    8919.5145    8738.9383    7703.0573    154.83806   -1134.9102    199.85082   -6322.2253 
 4651000    279.39732   -9117.5143   -8052.3242   -9117.5143            0    8630.3201    25.081084    24.994258    22.861835    14331.698    7486.9854    9242.6944    9161.2806   -456.81719    871.06589    342.38753   -6248.4742 
 4652000    262.04802   -9095.5565   -8096.5099   -9095.5565            0    8725.2418    24.925415    24.896596    23.100697    14335.322    10396.353    9512.0491     6267.323   -636.78726   -448.50375   -211.91554   -6272.3588 
 4653000    270.21163   -9083.5207   -8053.3507   -9083.5207            0     8490.757    25.009795    24.928415    23.029007     14357.54    7764.7457    9705.9469    8001.5782    -311.0743   -464.84058   -39.680137   -6275.4713 
 4654000      254.462    -9071.849   -8101.7238    -9071.849            0    9268.5014    24.975376    25.092172    22.843611    14315.781    9056.6071    8183.8147    10565.082    -571.1381    34.228357   -654.25758    -6166.637 
 4655000    268.65558   -9099.6721   -8075.4345   -9099.6721            0    8610.7226    24.849432    24.966853    23.107914     14336.43    8142.0291    8740.8544    8949.2842    166.97797   -485.31808   -45.696505   -6275.0864 
 4656000    254.78189   -9124.5935   -8153.2487   -9124.5935            0    8971.4445    24.856684    25.081696    22.931636    14296.678    9067.5718    8324.1193    9522.6425   -243.56595   -562.89727    902.79074   -6282.6812 
 4657000    258.49409   -9066.8895   -8081.3921   -9066.8895            0     9130.378     24.93379    24.944998    23.072496    14350.478    10413.599    7684.4149    9293.1203    207.77424    141.00412   -995.60754   -6170.5227 
 4658000    272.09892   -9105.2275   -8067.8624   -9105.2275            0    7677.9313    24.936015    25.088178    23.029259    14407.085    8288.4975    6997.8259    7747.4704    85.433669   -759.39419    378.28455   -6454.6326 
 4659000    281.25748   -9112.7596   -8040.4778   -9112.7596            0    8408.9896    24.876617    25.099374    22.945282    14326.747    9464.5968    7862.8972    7899.4749    785.90669    869.93893   -185.23119   -6283.4958 
 4660000    265.77955   -9079.9763   -8066.7035   -9079.9763            0     8891.324    24.892425     24.98849    23.040609    14331.814    10200.446    7905.4572    8568.0687    334.44485   -888.31586      101.529   -6208.2851 
 4661000    259.48515   -9105.6361   -8116.3603   -9105.6361            0     9167.391    24.860043    25.063984    22.934625    14290.375     8101.868    9249.6356    10150.669   -423.05348    989.50387    867.36893   -6205.7802 
 4662000     260.6379   -9066.9732   -8073.3026   -9066.9732            0    8716.9736    24.895484    25.026193    23.062863    14369.068    8978.3349    8571.3436    8601.2424    -1637.382    508.46918    446.55115   -6246.5901 
 4663000    267.28444   -9072.9957   -8053.9855   -9072.9957            0    9063.0878    24.911501    24.986615    23.033101    14337.048    9713.7894    9245.0883    8230.3858    622.04009   -358.13305    997.62581   -6158.9741 
 4664000    265.00308    -9105.778   -8095.4654    -9105.778            0    9163.2139    24.903133    24.998413    22.968946     14299.06    8974.2339     9165.204    9350.2037    -324.7799    381.47825   -941.99134   -6184.5952 
 4665000     270.7139   -9104.0558    -8071.971   -9104.0558            0    9132.7595     24.78957    25.001892    23.080237    14304.811    10109.578     8558.026     8730.675   -191.92311   -1104.0924    247.18277   -6166.6856 
 4666000     259.6481    -9016.135    -8026.238    -9016.135            0    9791.1514    25.007214    25.008965    22.919562    14333.998    8131.5169    10664.751    10577.186     45.47923   -73.970609    240.72347   -5979.4306 
 4667000    260.26089   -9129.6568   -8137.4236   -9129.6568            0    6906.2431    25.021184    25.027927    22.987755    14395.584     7742.751    6338.4707    6637.5075    133.20061   -919.72741   -898.15598   -6687.4935 
 4668000    269.14157   -9042.0972   -8016.0067   -9042.0972            0    8840.0351    24.944214     25.01993    23.067026    14396.188    8934.8829    8906.0261    8679.1961    336.49171   -784.07142   -576.23503   -6160.0092 
 4669000    262.90184    -9079.392   -8077.0903    -9079.392            0     6975.701    24.971861    25.084074    22.984814    14397.596    7596.4925    6109.1826    7221.4279    559.48049    350.39434   -394.75944   -6612.3733 
 4670000    263.67451   -9079.8348   -8074.5873   -9079.8348            0    9442.4353    24.916093    25.032396    22.945163    14311.116    9660.7235    8163.7219    10502.861    -352.0535    899.35987    530.22213   -6103.8288 
 4671000    268.39551   -9089.0211    -8065.775   -9089.0211            0    9247.2944     24.93678    24.891015    23.030049    14294.792    9741.4184    8400.0272    9600.4377    670.24516    1219.9887    814.82089   -6137.9464 
 4672000    261.18487    -9074.352   -8078.5962    -9074.352            0    8065.8383    24.883698    25.057422    23.032477     14361.24    9697.8746    7049.6303    7450.0101   -227.65773   -264.30744    246.70063   -6389.2551 
 4673000    263.30866   -9070.2566   -8066.4039   -9070.2566            0    9972.0121    24.914193    25.026401    22.896528    14276.273    9489.1469    9889.0068    10537.883    389.14521   -785.08882   -993.54568   -5990.1831 
 4674000    269.65868   -9114.5403   -8086.4785   -9114.5403            0    9119.5997    24.929103    25.012379    22.941549    14304.886    10048.511    8420.9269    8889.3609   -748.07521    -199.3449   -735.78911   -6183.9286 
 4675000    271.38651    -9108.863   -8074.2138    -9108.863            0    9268.7001    24.888095    24.899754    23.077784    14301.475    8975.2887    10144.996    8685.8152   -400.16005   -826.87903    45.197949   -6141.0194 
 4676000    255.72114   -9060.3935   -8085.4679   -9060.3935            0    10404.428    24.957301    24.914182     22.96738    14280.904    9689.8679     11372.79    10150.628   -663.47868    367.07961    187.59939   -5918.5132 
 4677000    269.26302   -9079.8991   -8053.3456   -9079.8991            0    8095.9379    24.906087    25.038763    23.034717    14364.855    8015.5159    8535.1907    7737.1072   -618.45791   -622.69467   -477.36665   -6357.2735 
 4678000    267.48146   -9102.6881   -8082.9268   -9102.6881            0    7879.8592    24.979943    24.975061    23.077256    14397.337    7575.2418    8204.8637    7859.4721   -987.63894   -396.67146    686.51028   -6428.3897 
 4679000    262.40692   -9085.1344   -8084.7196   -9085.1344            0    6990.1294    25.138864    25.033977    22.914965    14420.977    6120.5709    7520.1113     7329.706   -463.88818   -1009.3488   -313.88732   -6614.5894 
 4680000    261.69717   -9096.4444   -8098.7354   -9096.4444            0    7698.3795     24.93783     24.91932    23.126332    14371.483    6984.6594    8276.6741    7833.8051   -658.46869    571.65232   -61.547772   -6485.2064 
 4681000    268.69486   -9083.3965   -8059.0091   -9083.3965            0    9530.2979    24.889096    24.957771    23.022978     14301.33    10516.408    8458.4558    9616.0294   -620.64368   -152.31473   -763.63034   -6071.2728 
 4682000    271.31533   -9044.0468    -8009.669   -9044.0468            0    9066.5137    24.941418    25.040475    22.958528    14338.633    9362.8564    9038.4454    8798.2394   -371.03829      894.707    -419.1469   -6113.7318 
 4683000    260.56464   -9064.5911   -8071.1999   -9064.5911            0    7444.9195     24.92567    25.095501    23.047901    14416.973     7487.931    7202.4484     7644.379   -584.07333    260.98638    877.75802   -6505.8552 
 4684000    266.68655   -9070.1011   -8053.3703   -9070.1011            0    8682.0885    24.840023    25.048809    23.057945    14346.953    10191.749    7703.8076    8150.7094   -810.35605   -570.63393    999.08845   -6236.7684 
 4685000    270.13425   -9043.7408   -8013.8659   -9043.7408            0    9092.8704    24.826556    24.999884    23.125268    14352.952    9245.0074    9017.6263    9015.9775   -769.86983   -1582.5784    518.95552   -6110.5182 
 4686000    275.73227   -9073.2781   -8022.0609   -9073.2781            0    7998.7426     25.01976    25.086007    22.942827     14399.97    7832.3606    7802.1541    8361.7132    309.28886   -679.86761    1171.4124   -6342.2546 
 4687000    254.25042   -9093.3423   -8124.0238   -9093.3423            0    8016.6046    24.999051    24.961342    22.998009    14350.984    7983.4943    7394.5943    8671.7251    398.83139    329.56027    -1152.174   -6446.1934 
 4688000    270.68164    -9068.335   -8036.3732    -9068.335            0    8724.2983    24.904426    24.937198    23.115747    14355.956    8431.0084    9455.0236    8286.8629    208.63933   -383.73617    34.964668   -6209.7939 
 4689000    258.41754   -9106.3241   -8121.1186   -9106.3241            0    9545.2028    24.853525    25.121862     22.86278    14274.761    10939.393    7267.9714    10428.244   -45.126916   -442.69739     1297.884    -6133.972 
 4690000    270.25639   -9050.4295   -8020.0889   -9050.4295            0    8699.7207    24.861069    25.095161    23.022371    14363.485    9302.3787    7783.7747    9013.0086    51.107404    1004.1942   -335.68371   -6197.7002 
 4691000    271.85294   -9093.7897   -8057.3623   -9093.7897            0    7591.0225    24.894673    25.013027    23.048143    14351.874    7303.1693    8562.1608    6907.7375   -41.787973    66.833788   -272.89188   -6468.5053 
 4692000    269.79055   -9061.8236   -8033.2589   -9061.8236            0    10275.583     24.97745    24.857944     23.02295    14294.675    10000.794    10755.403    10070.551   -474.27484   -175.34628    205.81689   -5891.0756 
 4693000    260.47677   -9053.9352   -8060.8789   -9053.9352            0    10431.916    24.980632    24.926199    22.923042    14273.542    10031.749    10907.257    10356.741   -595.13997    587.32908   -928.82482   -5889.3195 
 4694000    256.68598   -9043.7664   -8065.1624   -9043.7664            0    10986.871    24.853344    24.895866    23.041947    14257.101    11122.748    10380.802    11457.062   -7.7603236    577.42449     749.4383   -5780.7151 
 4695000    268.48627   -9072.9724   -8049.3803   -9072.9724            0    10515.875    25.026019    24.913933    22.897975    14276.809    9488.6928    11054.872    11004.061    580.31646   -1630.4064    -1432.372   -5859.8426 
 4696000    273.65872   -9082.0482   -8038.7364   -9082.0482            0    9036.4468    24.936634    24.998413     22.95711    14310.917    9530.9072    8255.0242     9323.409   -490.06909   -209.26616   -1228.1967   -6152.7391 
 4697000    267.32376   -9083.5776   -8064.4175   -9083.5776            0     8057.437    24.994704    24.990078    23.018186     14377.61    8013.2691    8527.8897    7631.1523    896.24414    88.793541    448.75591   -6374.9124 
 4698000     262.4041   -9052.7497   -8052.3456   -9052.7497            0    7233.2537    25.055101    25.058352    22.998754    14439.527    7954.4146    7225.8011    6519.5454    680.26271   0.64645037    214.08165   -6529.1258 
 4699000    264.90516   -9037.6618   -8027.7226   -9037.6618            0    9033.3441    24.904193    25.004369    23.029219    14340.608      9956.61    8635.7799    8507.6425   -1107.3499    475.46842   -66.434848   -6138.4613 
 4700000    264.22202   -9071.0286   -8063.6938   -9071.0286            0    9165.3877     24.83181    25.056868    23.037161    14333.891    10682.887    7497.1984     9316.078    16.313013   -104.31384    242.89757   -6147.7144 
 4701000    275.44074   -9056.9311   -8006.8254   -9056.9311            0     10534.99    24.886182    25.060096     22.88026    14269.277    9610.6917    10199.862    11794.417   -387.39214    203.97557    874.05748   -5814.4648 
 4702000    271.79666   -9104.1783   -8067.9655   -9104.1783            0    9016.5964    24.778087    24.971633    23.125595    14308.945    9460.4119    9471.3366    8118.0407    330.41027   -1474.9827   -420.67326   -6186.3705 
 4703000    261.37004   -9120.0161   -8123.5543   -9120.0161            0    9242.9082    24.876873    24.971391    23.035484    14309.876    9040.9991    9494.9297    9192.7959   -1146.1967   -602.96268    800.39353   -6194.6069 
 4704000    274.64206   -9088.1563   -8041.0956   -9088.1563            0    8310.7703    25.006243    25.180343    22.825178    14372.233    7473.2823    7509.9624    9949.0662   -1157.5029     175.4792   -172.17263   -6299.1225 
 4705000    263.25369   -9101.4732     -8097.83   -9101.4732            0    9113.9846    24.905022     24.96478    23.052996    14333.163     9695.228    9065.3984    8581.3275    1131.8418    385.96475   -972.01509   -6192.6929 
 4706000    255.24339   -9124.7874   -8151.6832   -9124.7874            0    8585.9844    24.968811    24.942471    23.012351     14331.72    9113.8938    8601.8764    8042.1831    487.65967    1310.4568   -1042.0093   -6357.0971 
 4707000    262.62494   -9065.1274   -8063.8813   -9065.1274            0    9042.0584    25.035169    24.902421    22.976059     14324.11    8487.3379    8453.4319    10185.405   -771.56522     271.7697   -162.58951   -6174.9731 
 4708000    264.56114   -9068.9576   -8060.3299   -9068.9576            0     8941.562    25.060111    24.875007    23.011521    14344.702    7613.6901    10808.795    8402.2008    980.60951   -647.04594    311.66873   -6189.7304 
 4709000    262.96476   -9029.4521   -8026.9105   -9029.4521            0    7871.2152    25.077063     24.97301     23.04555     14432.27    6814.9081    9655.2115     7143.526    609.03461   -332.45054   -107.41057   -6370.1783 
 4710000    272.44254    -9091.816   -8053.1408    -9091.816            0    7835.3612    24.991201    24.988917    23.011231    14370.584    7537.7091    7597.8044      8370.57    264.64932   -424.91677    603.72265    -6411.004 
 4711000     268.9232   -9066.6016   -8041.3438   -9066.6016            0    6864.3523    25.039372    25.004368    23.114121    14471.605    6699.0198    7447.2791    6446.7579    989.31783   -43.928803     626.7056   -6592.5981 
 4712000    265.76314   -9096.7557   -8083.5455   -9096.7557            0    7500.9274    25.115088    25.052947    22.930045    14427.744    6573.3801    7130.7296    8798.6724   -251.39881   -995.08474     -199.087   -6505.2465 
 4713000    266.74727   -9105.0377   -8088.0754   -9105.0377            0    8230.2504    24.898268     25.04897    22.993003    14340.183    7962.6334     8523.369    8204.7488    283.93197   -678.21577     486.2304   -6366.8266 
 4714000    266.58118   -9063.3711   -8047.0421   -9063.3711            0    8796.8781    24.917393    24.985802    23.053808    14352.864    9288.6043    8592.3267    8509.7034   -749.43657    -27.81156    -79.23999   -6205.6638 
 4715000    262.98921   -9093.6062   -8090.9714   -9093.6062            0    8453.4643    25.005752    25.119763    22.831809     14341.54    8175.9718    6600.5268    10583.894    268.06995   -959.35194    496.90874   -6322.8732 
 4716000    267.07588   -9128.4406   -8110.2255   -9128.4406            0    8252.0932    24.861379    24.982018    23.085279    14337.977    8908.8844    7806.7067    8040.6886     279.4093    -532.0083    650.34371   -6384.6742 
 4717000    261.35406   -9039.0465   -8042.6456   -9039.0465            0     8651.976    24.841275    25.044446    23.092118    14366.437    9215.8224     8695.201    8044.9045    327.40616   -992.09782   -327.05333   -6229.8857 
 4718000    264.95271    -9071.914   -8061.7934    -9071.914            0    8374.4148    24.970534    25.169439    22.830652    14348.936    8933.1861    6213.8249    9976.2335   -195.57128   -362.24802    1056.5661   -6309.3256 
 4719000    255.35037   -9081.1708   -8107.6587   -9081.1708            0     8013.425    24.949368    24.973257    23.031553      14350.2    7794.0653    8305.1145    7941.0953   -495.86445      47.6139    595.01255   -6430.5854 
 4720000    265.92341   -9095.9398   -8082.1185   -9095.9398            0    7964.2717    24.997168    24.852458    23.142884     14377.31    8001.8488    9084.0291    6806.9373   -754.42264   -670.91083    158.44503   -6412.1834 
 4721000     267.1984   -9088.6285   -8069.9464   -9088.6285            0    9738.5202    24.998925    24.953298    22.888362    14277.889    8443.7462    10173.094    10598.721    369.55989    343.41904    626.49623   -6042.1102 
 4722000    258.13067   -9069.3401   -8085.2282   -9069.3401            0     10630.48    24.872468    24.920314    23.002605    14257.698    11494.915    10763.206    9633.3177   -968.77487   -115.18426    180.49989   -5874.7911 
 4723000    264.18508    -9072.942    -8065.748    -9072.942            0    9424.8878     24.84958    24.940572    23.117729    14327.507    10065.776    9690.0894    8518.7975   -201.15968   -291.51215     60.63084   -6096.3988 
 4724000    278.56662   -9048.7493   -7986.7263   -9048.7493            0    9283.3166    25.061676    24.993596    22.886643    14335.768    7582.2869    10037.802    10229.861    275.82745   -749.45194    660.17327   -6045.8403 
 4725000    262.24631   -9083.6596   -8083.8571   -9083.6596            0    8255.1036    24.977774    24.930673    23.077967    14370.944    7269.5589    8292.3573    9203.3946    15.313129     334.9626    421.71982   -6353.7073 
 4726000    260.43685    -9062.614   -8069.7099    -9062.614            0    9288.2916    24.908459    24.892238    23.112693      14330.5    7845.3639    11147.231    8872.2796    1831.0855   -678.59878    1095.4958   -6128.4974 
 4727000    271.67285   -9083.8322   -8048.0914   -9083.8322            0    7322.2746    25.086225     25.05337    22.972827    14438.295     7731.292    7037.3121    7198.2198   -1038.0072    708.57273    593.09292   -6506.2567 
 4728000    268.60395   -9059.2806   -8035.2399   -9059.2806            0     8013.009    24.898675    25.078138    23.052013    14393.963    8645.7668    7708.3767    7684.8836   -138.32779   -587.74351    190.22848   -6353.1395 
 4729000    262.53754   -9089.3364   -8088.4236   -9089.3364            0    8500.2469    24.891038      25.0016    23.061239    14351.373    8912.6649    8036.1178    8551.9581   -323.71101   -559.50333    276.49022   -6309.3215 
 4730000    276.59458   -9108.3935   -8053.8888   -9108.3935            0    7761.6523    24.967595      25.1571    22.877111    14369.394    8814.5493    5483.2056     8987.202   -559.00389    -61.75069   -378.41515   -6427.3347 
 4731000    271.32143   -9056.1991   -8021.7981   -9056.1991            0    8471.3041    24.856671    25.126961    22.994487    14361.726    9945.2532    7556.6144    7912.0447    148.88977   -754.73987   -213.36305   -6247.4746 
 4732000    268.24016   -9068.4221   -8045.7683   -9068.4221            0    9347.3376    24.849117    24.998627    23.052324    14319.961    9793.2686    9030.1333    9218.6108    40.833132    726.07201    189.84443   -6093.6522 
 4733000    267.02182   -9049.3486   -8031.3396   -9049.3486            0    7888.9856    24.964253    25.118644    22.904925     14362.95    8214.9143    7007.3327    8444.7098    -392.9848    85.461148    -235.5655   -6378.8426 
 4734000    274.81818   -9094.3483   -8046.6161   -9094.3483            0    8867.8187    24.883751    25.012385    23.065309    14355.894     8679.818     8659.467    9264.1711   -82.805592   -251.09806    -263.0236   -6189.9964 
 4735000    259.36617   -9082.6247   -8093.8026   -9082.6247            0    9694.4163    24.806622    24.992591    23.060621    14297.164     10091.07     9827.784    9164.3953   -308.25886   -951.72573    1142.7139   -6072.4249 
 4736000    273.24355   -9083.6228   -8041.8938   -9083.6228            0     9934.162    24.903048    25.042864    22.918883    14293.216     9227.263    10028.855    10546.368    -642.2682    2.9830489   -473.54346   -5971.0989 
 4737000     263.7966   -9091.2109   -8085.4979   -9091.2109            0    8538.6512    25.002831    24.942212    23.030104    14362.169    8080.8188    9563.1052    7972.0294   -600.83597    419.52295   -460.51078   -6297.0133 
 4738000    272.07218   -9043.9698   -8006.7066   -9043.9698            0    8465.4942    25.026099     24.92892    23.091583     14406.23    7796.8106    9972.4472    7627.2248    518.09298    216.65384    909.98495   -6228.1055 
 4739000    270.86987   -9087.3416   -8054.6622   -9087.3416            0    7548.7484    25.097403    25.046663    22.907871     14400.03    6937.4506    7762.6558    7946.1388    57.828945   -701.56905   -916.45027    -6469.352 
 4740000    274.52871   -9071.7477    -8025.119   -9071.7477            0    8459.5024    24.922618    25.010752     23.06135     14374.91    9023.4704    8319.5061    8035.5307   -175.33496   -105.58722   -689.91245   -6251.6409 
 4741000    262.99059   -9054.1186   -8051.4785   -9054.1186            0    9085.9292    24.909819    24.872316    23.129373    14330.147    9986.4222    9746.5993     7524.766    714.14636   -201.43267   -695.80277   -6152.6057 
 4742000    270.76379   -9055.3416   -8023.0666   -9055.3416            0    9622.6115    25.059519    24.968437    22.851446    14298.082    9161.3852     9931.223    9775.2262    201.22251    332.68897   -356.39485   -6016.5322 
 4743000    269.46015   -9097.4983   -8070.1933   -9097.4983            0    9275.4674    24.920408     24.96964     22.98373    14301.709     9287.124    8817.9054    9721.3727   -172.91423    -313.1527    942.13587   -6135.5556 
 4744000    257.55498    -9066.058   -8084.1409    -9066.058            0     10046.25     24.83318    25.107974    22.943903    14305.772    11164.686    9129.7259    9844.3389    216.95552   -457.47306   -278.24538   -5988.1414 
 4745000    268.38163   -9075.9301    -8052.737   -9075.9301            0    8799.5412     24.94842    25.025872    23.027464    14377.335    8989.4252    8343.3507    9065.8476   -345.49459    32.839856   -1122.6904   -6207.6608 
 4746000    258.28949   -9069.3805   -8084.6632   -9069.3805            0    8759.1542    24.896722    24.962193    23.116996    14366.676    9661.1956    8410.1303    8206.1368    249.04315   -68.751511   -1251.6352   -6249.4169 
 4747000    268.02312   -9033.2763     -8011.45   -9033.2763            0    8029.7542    25.064006    25.012815    22.973691    14402.697    7621.4427    8832.8064    7635.0135    34.028233   -1381.9607    71.655828   -6324.8116 
 4748000    252.79901   -9074.5528   -8110.7677   -9074.5528            0    8228.3845    25.047543    25.004122    22.952864    14375.191    8109.2688    8289.9886     8285.896   -485.94241     166.1689    574.40814   -6385.7081 
 4749000    250.67882   -9089.1851   -8133.4831   -9089.1851            0    8055.7283    24.867379     24.89832    23.215064    14373.745    8264.3846    8029.0824    7873.7178    879.93556    753.58525   -108.02183   -6444.7904 
 4750000    268.90942    -9049.893   -8024.6877    -9049.893            0     9275.875    24.984678    25.014053    22.940409    14337.022    8478.0902     11860.19     7489.345    421.24471   -387.16651    -64.17376   -6085.1879 
Loop time of 581.832 on 64 procs for 250000 steps with 1920 atoms

Performance: 74.248 ns/day, 0.323 hours/ns, 429.677 timesteps/s
99.2% CPU use with 64 MPI tasks x 1 OpenMP threads

MPI task timing breakdown:
Section |  min time  |  avg time  |  max time  |%varavg| %total
---------------------------------------------------------------
Pair    | 61.968     | 64.334     | 66.795     |  12.7 | 11.06
Bond    | 0.26893    | 0.27913    | 0.28947    |   0.8 |  0.05
Kspace  | 243.92     | 254.59     | 272.81     |  40.2 | 43.76
Neigh   | 5.6564     | 6.6764     | 8.4427     |  27.4 |  1.15
Comm    | 101.87     | 121.98     | 135.14     |  65.1 | 20.96
Output  | 1.3572     | 1.3584     | 1.3654     |   0.1 |  0.23
Modify  | 117.04     | 124.94     | 129.63     |  30.6 | 21.47
Other   |            | 7.674      |            |       |  1.32

Nlocal:        30.0000 ave          34 max          26 min
Histogram: 2 1 3 20 0 17 10 8 1 2
Nghost:        2803.31 ave        2824 max        2778 min
Histogram: 2 4 4 8 12 7 10 3 8 6
Neighs:        10591.5 ave       11997 max        8890 min
Histogram: 2 0 3 4 17 14 14 4 4 2

Total # of neighbors = 677854
Ave neighs/atom = 353.04896
Ave special neighs/atom = 2.0000000
Neighbor list builds = 11800
Dangerous builds = 0

unfix		3
unfix		2
unfix		1

write_data	data.final.${pid}
write_data	data.final.0
System init for write_data ...
PPPM initialization ...
  extracting TIP4P info from pair style
  using 12-bit tables for long-range coulomb (../kspace.cpp:340)
  G vector (1/distance) = 0.37432238
  grid = 30 30 30
  stencil order = 5
  estimated absolute RMS force accuracy = 0.0032891953
  estimated relative force accuracy = 9.9053141e-06
  using double precision FFTW3
  3d grid and FFT values/proc = 3600 512
Last active /omp style is kspace_style pppm/tip4p/omp
WARNING: Not all mixed pair coeffs generated from mixing. Use write_data with 'pair ij' option to store all pair coeffs. (../write_data.cpp:312)

write_restart   restart.lmp.${pid}
write_restart   restart.lmp.0
System init for write_restart ...
PPPM initialization ...
  extracting TIP4P info from pair style
  using 12-bit tables for long-range coulomb (../kspace.cpp:340)
  G vector (1/distance) = 0.37432238
  grid = 30 30 30
  stencil order = 5
  estimated absolute RMS force accuracy = 0.0032891953
  estimated relative force accuracy = 9.9053141e-06
  using double precision FFTW3
  3d grid and FFT values/proc = 3600 512
Last active /omp style is kspace_style pppm/tip4p/omp
Total wall time: 0:09:45
