LAMMPS (30 Jul 2021)
  using 1 OpenMP thread(s) per MPI task
package omp 0
using multi-threaded neighbor list subroutines
echo both

include		in.partitions
variable        pid world 0
include		in.temp
variable        temperature equal 245.00
variable	tempDamp equal 100.0
include		in.pressure
variable        pressure equal 4500.0
variable        pressureDamp equal 1000.0 # This is 1 ps
include		in.seed
variable        seed world 745823

units		real
atom_style	full
read_restart    restart.lmp.${pid}
read_restart    restart.lmp.0
Reading restart file ...
  restart file = 30 Jul 2021, LAMMPS = 30 Jul 2021
  restoring atom style full from restart
  triclinic box = (-3.2965480 -0.19445203 -0.050530863) to (14.906547 22.774451 19.280529) with tilt (-0.053064247 -6.7563224 -0.0068836035)
  4 by 4 by 4 MPI processor grid
  restoring pair style lj/cut/tip4p/long/omp from restart
  restoring bond style harmonic/omp from restart
  restoring angle style harmonic/omp from restart
  1008 atoms
  672 bonds
  336 angles
Finding 1-2 1-3 1-4 neighbors ...
  special bond factors lj:    0        0        0       
  special bond factors coul:  0        0        0       
     2 = max # of 1-2 neighbors
     1 = max # of 1-3 neighbors
     1 = max # of 1-4 neighbors
     2 = max # of special neighbors
  special bonds CPU = 1.379 seconds
  read_restart CPU = 1.714 seconds

include 	in.setup
variable	out_freq equal 1000
variable	out_freq2 equal 10000
variable	out_freq3 equal 1000

timestep	2.0

neigh_modify    delay 7 every 1

include		in.tip4p
# This is TIP4P/Ice

# create groups ###
group ox type 2
336 atoms in group ox
group hy type 1
672 atoms in group hy

# set charges - beside manually ###
set group ox charge -1.1794
Setting atom values ...
  336 settings made for charge
set group hy charge 0.5897
Setting atom values ...
  672 settings made for charge

# ### TIP3P Potential Parameters ###
pair_style lj/cut/tip4p/long/omp 2 1 1 1 0.1577 8.5
pair_coeff 1 1*2 0.000 0.000
pair_coeff 2 2 0.21084 3.1668
bond_style  harmonic
bond_coeff  1 450 0.9572
angle_style harmonic
angle_coeff 1 55 104.52
kspace_style pppm/tip4p/omp 1.0e-5
pair_modify tail yes

thermo          ${out_freq}
thermo          1000
thermo_style    custom step temp pe etotal epair emol press lx ly lz vol pxx pyy pzz pxy pxz pyz enthalpy

restart 	${out_freq3} restart.lmp.${pid} restart2.lmp.${pid}
restart 	1000 restart.lmp.${pid} restart2.lmp.${pid}
restart 	1000 restart.lmp.0 restart2.lmp.${pid}
restart 	1000 restart.lmp.0 restart2.lmp.0


include         in.dump
dump            myDump all atom ${out_freq2} dump.water.${pid}
dump            myDump all atom 10000 dump.water.${pid}
dump            myDump all atom 10000 dump.water.0
dump            myDump2 all dcd ${out_freq2} dump.dcd
dump            myDump2 all dcd 10000 dump.dcd
dump_modify     myDump append yes
dump_modify     myDump2 append yes


variable natoms 	equal  "count(all)"                        # NUMBER ATOMS
variable H      	equal  "enthalpy/v_natoms"                 # ENTHALPY-per-atom
variable Vol      	equal  "vol/v_natoms"                 # volume-per-atom
fix AVG all 		ave/time ${out_freq} 1 ${out_freq} v_Vol v_H file vol_enthalpy.dat
fix AVG all 		ave/time 1000 1 ${out_freq} v_Vol v_H file vol_enthalpy.dat
fix AVG all 		ave/time 1000 1 1000 v_Vol v_H file vol_enthalpy.dat



fix 		1 all shake 1e-6 200 0 b 1 a 1
       0 = # of size 2 clusters
       0 = # of size 3 clusters
       0 = # of size 4 clusters
     336 = # of frozen angles
  find clusters CPU = 0.001 seconds
fix             2 all nph tri ${pressure} ${pressure} ${pressureDamp}
fix             2 all nph tri 4500 ${pressure} ${pressureDamp}
fix             2 all nph tri 4500 4500 ${pressureDamp}
fix             2 all nph tri 4500 4500 1000
fix             3 all temp/csvr ${temperature} ${temperature} ${tempDamp} ${seed}
fix             3 all temp/csvr 245 ${temperature} ${tempDamp} ${seed}
fix             3 all temp/csvr 245 245 ${tempDamp} ${seed}
fix             3 all temp/csvr 245 245 100 ${seed}
fix             3 all temp/csvr 245 245 100 745823


run             250000
PPPM initialization ...
  extracting TIP4P info from pair style
  using 12-bit tables for long-range coulomb (../kspace.cpp:340)
  G vector (1/distance) = 0.37837984
  grid = 24 27 32
  stencil order = 5
  estimated absolute RMS force accuracy = 0.0025467747
  estimated relative force accuracy = 7.6695363e-06
  using double precision FFTW3
  3d grid and FFT values/proc = 3825 384
Last active /omp style is kspace_style pppm/tip4p/omp
Neighbor list info ...
  update every 1 steps, delay 7 steps, check yes
  max neighbors/atom: 2000, page size: 100000
  master list distance cutoff = 10.8154
  ghost atom cutoff = 10.8154
  binsize = 5.4077, bins = 5 5 4
  1 neighbor lists, perpetual/occasional/extra = 1 0 0
  (1) pair lj/cut/tip4p/long/omp, perpetual
      attributes: half, newton on, omp
      pair build: half/bin/newton/tri/omp
      stencil: half/bin/3d/tri
      bin: standard
Per MPI rank memory allocation (min/avg/max) = 9.312 | 9.325 | 9.335 Mbytes
Step Temp PotEng TotEng E_pair E_mol Press Lx Ly Lz Volume Pxx Pyy Pzz Pxy Pxz Pyz Enthalpy 
 2250000    249.77602   -4834.5426   -4334.9597   -4834.5426            0    4688.2572    18.203095    22.968903     19.33106    8082.4151    5065.9446    4522.8931    4475.9339   -1677.8237    474.49384   -60.227924   -3782.3373 
 2251000    242.43675   -4848.7235     -4363.82   -4848.7235            0    5406.7892    17.792946    23.209677     19.43697    8026.8571    6685.1187    5353.5386    4181.7103   -256.70078    -282.7699    803.25344   -3730.8825 
 2252000    248.23232   -4860.2849   -4363.7896   -4860.2849            0       3461.5    18.082535    23.235567    19.192273     8063.786    2500.4633    2694.3079    5189.7288   -1362.0315   -1071.5992    355.56285   -3956.7101 
 2253000    246.93681   -4856.2267   -4362.3226   -4856.2267            0     5475.078    17.932263    23.047711    19.459475    8042.5548    5630.0136     4799.538    5995.6823   -70.202824    407.15347    223.09163   -3720.1375 
 2254000    226.73235   -4856.4851   -4402.9924   -4856.4851            0     5063.963    18.311469    22.995192    19.216193    8091.4725    3498.3347    5135.2786    6558.2758    1625.8186    630.41395   -383.24557   -3805.4152 
 2255000    244.53607   -4851.8745   -4362.7721   -4851.8745            0    4361.1259    18.100518    22.925782    19.481846    8084.3533    4480.3753    4118.6465    4484.3559   -460.44143   -11.867844    517.98228   -3848.5867 
 2256000    244.21726   -4831.4957    -4343.031   -4831.4957            0    4096.9598    18.129693    22.810344    19.587991    8100.5067    1176.2728    6199.8454    4914.7612   -138.12287    1747.5286   -1232.3706   -3859.0261 
 2257000    248.90252   -4858.6077   -4360.7719   -4858.6077            0    4841.5711    18.341219     22.89322    19.170918    8049.6681    2774.6032    4286.5906    7463.5195   -805.31723   -327.27813    1497.5891   -3792.3901 
 2258000    247.28882   -4852.7388   -4358.1306   -4852.7388            0    3530.0705    17.949175     23.00821    19.642361    8111.8706    5498.6342    3768.9311    1322.6462    630.46542     1733.243    9.0360868   -3940.5116 
 2259000    258.30042   -4852.8432   -4336.2105   -4852.8432            0    5263.3958    18.095349    22.908108    19.380298    8033.7191    5636.9097     5990.275    4163.0026    1093.1116    356.62346    373.40688   -3719.5323 
 2260000    244.71495   -4829.9627   -4340.5025   -4829.9627            0    3890.6876     18.08898    23.014337    19.559309    8142.6556    4401.6243    4559.8106    2710.6279    1032.4567    714.87022    1737.5008   -3878.4745 
 2261000    247.32743   -4861.5483   -4366.8629   -4861.5483            0    5563.9246     18.01079    22.856851    19.521295    8036.3307    5060.0855    6438.9563    5192.7319   -888.51902    1381.4032   -877.04086   -3714.7618 
 2262000    256.80983   -4828.4914     -4314.84   -4828.4914            0    4572.4911    18.172305    22.912069    19.432606    8091.0591    3565.5162    5353.1637    4798.7934   -1529.9244    1146.8182    -988.6764    -3775.287 
 2263000    246.82409    -4814.821   -4321.1424    -4814.821            0    4609.8802    17.945118    22.893671    19.630084    8064.6201    5031.0226    6456.0094    2342.6087    86.861997    1167.4566   -579.26359   -3778.9549 
 2264000    249.30998    -4864.059   -4365.4082    -4864.059            0    4525.8096    18.149268    23.096647    19.346321    8109.7311    5731.3565      3443.34    4402.7323     140.0638   -901.81739    1866.3599   -3830.1312 
 2265000    243.91734   -4838.9151   -4351.0503   -4838.9151            0    5471.8318      17.8868    23.100161    19.490664     8053.308    6120.7069    5864.1085      4430.68   -350.87514    1771.1523    1371.3677   -3708.3878 
 2266000    254.78751   -4862.0965     -4352.49   -4862.0965            0    3560.6406    18.226402    22.961892    19.340924     8094.422    5309.8409    2542.2619    2829.8191   -525.41318   -384.49755    370.71658   -3932.1605 
 2267000    242.98273   -4843.7315   -4357.7361   -4843.7315            0    5671.0941    18.198129    22.663712    19.477134     8033.094    5947.0163    6769.5566    4296.7095   -515.34006    304.42794   -664.61626   -3693.3422 
 2268000     243.3965   -4869.2178   -4382.3948   -4869.2178            0    2763.0861    18.226048    22.671549    19.710283      8144.54    2423.2011    3387.7275    2478.3296   -1133.8907   -148.37057    1094.5013   -4054.1961 
 2269000    253.67262   -4864.3156    -4356.939   -4864.3156            0    6075.0913    18.125601    22.824315    19.382556    8018.6494     4247.468    6914.7649     7063.041   -33.362444   -600.44444      977.078   -3646.4949 
 2270000    241.06138   -4848.4559   -4366.3034   -4848.4559            0     5533.883    18.100245    22.972472    19.422071    8075.8403    5981.4616    5285.0605     5335.127   -1090.9446   -403.71863    147.17563   -3714.5345 
 2271000    234.57986    -4846.436   -4377.2473    -4846.436            0    5216.6256    18.019479    22.862972    19.522601    8042.8984    4435.5463    5706.9877    5507.3427   -70.613244    -440.5269    1255.8039   -3765.3506 
 2272000    246.71922   -4847.8344   -4354.3654   -4847.8344            0    4738.2376     18.18587    23.015161    19.344293    8096.5683    5511.9089    4618.9449    4083.8591     691.6461   -217.33559   -970.55179   -3794.8737 
 2273000    238.99376   -4866.2537   -4388.2367   -4866.2537            0    4073.3571    18.027604    22.913367    19.539021     8071.044    5434.8529    3350.7037    3434.5146    1264.6226   -439.11556    810.21136   -3908.7704 
 2274000    247.53488   -4807.5506   -4312.4502   -4807.5506            0      5808.62    18.241272    22.883295    19.233484     8028.449    3893.7575    5772.5559    7759.5468    788.36887   -1136.8866   -1283.1798   -3632.3381 
 2275000    248.43215   -4827.8014   -4330.9064   -4827.8014            0    5297.4328    17.964556    22.935516    19.667581    8103.5617    6390.4088    5846.7046    3655.1849    906.10268    490.93281   -918.76899   -3704.8445 
 2276000    253.27523   -4842.5826   -4336.0009   -4842.5826            0    4125.0798    18.291985    22.887102    19.353589    8102.3902    4127.8079    4028.6117    4218.8197    683.51192   -1522.4729   -402.77544   -3848.5606 
 2277000    254.58271   -4833.9367   -4324.7398   -4833.9367            0    4311.8665    18.055595    22.842641    19.648002    8103.5725    6054.4681     4495.414    2385.7173   -2514.1177    223.00682   -9.5783415   -3815.1535 
 2278000    242.32649   -4857.9485   -4373.2656   -4857.9485            0    3617.4845    18.173539    22.832706    19.468249    8078.3705     5069.535     3010.368    2772.5505    97.894971   -964.98649    654.91381   -3947.0725 
 2279000    241.50835   -4845.2059   -4362.1594   -4845.2059            0     3874.929    18.169037    22.887724    19.506581    8111.7709     4243.151    4584.1111    2797.5248    795.73308   -83.379716   -618.59281   -3903.7481 
 2280000    255.66809   -4850.4238   -4339.0561   -4850.4238            0    3963.7073    18.084032    22.968313    19.517568    8106.8116    3872.5674    2633.2604    5385.2942    231.13829    137.17344    620.62414   -3870.4288 
 2281000    248.83699   -4828.2851   -4330.5804   -4828.2851            0    3789.6774    18.044272    23.411328    19.267122      8139.21    2645.5941     4504.059     4219.379    33.367667    187.23939    788.05243    -3880.738 
 2282000    249.22419    -4848.157   -4349.6779    -4848.157            0    4056.2036     17.89572    23.270895     19.38575    8073.1839    4000.2815    3830.0342    4338.2952   -57.621385    292.91477   -1402.2877   -3872.1041 
 2283000    235.74419   -4836.8376   -4365.3201   -4836.8376            0    3941.9328    18.020524    23.347452    19.262645    8104.4368    3419.5219    4313.8149    4092.4617    388.87149    983.33529    2337.6678   -3899.4038 
 2284000    232.73587   -4847.9035    -4382.403   -4847.9035            0    4668.4686    17.957602    23.111756     19.39374    8049.0171    5458.6321    4456.4192    4090.3545   -825.93044    1069.0506   -1450.8619   -3834.3871 
 2285000    230.80469   -4851.5658   -4389.9279   -4851.5658            0    6799.0644    18.084024    22.959717    19.328619    8025.3214    5457.9294    6349.3549    8589.9087   -1546.1426    253.25099    277.32341    -3594.158 
 2286000    233.91002   -4855.7185   -4387.8696   -4855.7185            0    5227.0857    18.017257    23.030775    19.364382    8035.2774    3393.4089    6527.7615    5760.0866    182.62367    1036.2492    -1269.564   -3775.3269 
 2287000    249.64887   -4850.8232   -4351.4946   -4850.8232            0    6269.6649    18.054484    22.923657    19.385025    8022.9732    5456.5863    7544.7167    5807.6916   -773.17758   -413.61031   -601.64205    -3617.901 
 2288000    237.64942   -4834.5616   -4359.2334   -4834.5616            0    3257.3948    18.115363    22.971168     19.52611    8125.4206    2334.7624    4239.4061     3198.016    -2121.969    284.18753   -1005.6107   -3973.2291 
 2289000    238.74075   -4848.3344   -4370.8234   -4848.3344            0    4514.4478    18.125984    22.869384    19.424556     8052.063    5166.9076    4273.7658    4102.6699   -1680.0563   -590.16921   -900.47223    -3840.687 
 2290000    244.65347   -4839.7027   -4350.3656   -4839.7027            0    5089.8501    18.276256    22.863229    19.357191    8088.4838    4303.5007    5388.8234    5577.2261    417.85408   -131.59657    604.16045   -3749.9554 
 2291000    247.81721   -4846.2531    -4350.588   -4846.2531            0    2812.0443    18.064248    22.893889    19.702441    8148.1591    5521.5606    1609.9104    1304.6618   -2036.6813   -1093.5234   -2591.5759   -4016.4256 
 2292000     248.0739   -4859.0413   -4362.8629   -4859.0413            0    3285.0752     18.14755    22.993522    19.393081    8092.2688    2536.8164    3656.8529    3661.5564    1302.2305   -602.75759    1459.5898   -3975.1667 
 2293000    250.68677   -4847.2865    -4345.882   -4847.2865            0    4335.0219    18.075363    23.081163    19.397472     8092.633     2500.554    4153.4113    6351.1003   -1016.8127   -796.76408   -621.99856   -3834.2508 
 2294000    240.72353   -4866.8304   -4385.3536   -4866.8304            0     4886.795    17.892651    22.985779    19.501257    8020.4093    6426.6458    5259.5059    2974.2335    1271.9709   -518.49597    228.89708   -3813.7479 
 2295000    244.09482   -4876.7886   -4388.5688   -4876.7886            0    6066.1853    18.168986    22.780936     19.26212    7972.7166    5737.5917    6478.5295    5982.4346   -131.99205    278.47067   -98.759803   -3683.2298 
 2296000    235.61771   -4848.5692   -4377.3047   -4848.5692            0    4081.3889    18.136778    22.822045    19.522706    8080.8063    5342.7485     3833.464    3067.9541    1760.8426    452.93399    131.60321   -3896.3119 
 2297000    247.03882   -4852.9427   -4358.8345   -4852.9427            0    4776.1301    18.187518    22.852157    19.397042    8061.8767    4832.6453    4556.8363    4938.9087    859.87452   -176.32112    7.9646683   -3797.2848 
 2298000    235.20653     -4847.04   -4376.5979     -4847.04            0    3867.2139    18.251447    22.786308    19.471065    8097.6864    3972.8717    3429.4165    4199.3534   -252.88122   -956.99009   -2234.2407   -3919.8937 
 2299000    245.01489   -4837.4121    -4347.352   -4837.4121            0    4518.6819    18.122028    22.949675    19.409509     8072.311    5229.7838    4402.7699    3923.4919    1099.7973    -210.6871    535.83075    -3815.384 
 2300000    232.72121   -4845.6913   -4380.2201   -4845.6913            0    4039.6691    18.150711    22.895829    19.456028    8085.4501    5524.1725    3111.9518     3482.883   -344.74205    -1608.875   -2559.4399   -3903.8704 
 2301000    247.92181   -4798.3618   -4302.4876   -4798.3618            0    3382.1195    18.267303    22.954746    19.444517    8153.5001    2186.8442    4985.8051    2973.7092    1552.2172    976.16209    569.63037   -3900.3182 
 2302000    239.02374   -4854.6986   -4376.6216   -4854.6986            0    7217.0299    17.788495    22.898754    19.632332    7996.9237    8784.1891    7389.0005       5477.9    598.99411    1555.4505   -1935.6248   -3534.9215 
 2303000    236.18573   -4864.5223   -4392.1216   -4864.5223            0    6777.8657    18.032137    23.047303    19.237527    7994.9646    5530.6741    7536.1756    7266.7474   -2389.0906    87.693716   -31.858905   -3601.8336 
 2304000     256.7659   -4839.7672   -4326.2037   -4839.7672            0    2590.6998    18.144939     23.23953    19.302254    8139.3716    1069.1439    2508.9089    4194.0467    1122.4343    824.55946    1588.8011   -4018.6762 
 2305000    262.39034   -4868.9413   -4344.1282   -4868.9413            0    3972.4986    17.977692    23.172218    19.435294    8096.4127    5016.8823    3136.3837    3764.2299    594.66776    1374.8024   -783.95213    -3875.064 
 2306000    263.54502   -4853.4222   -4326.2996   -4853.4222            0    4063.3735    17.988309     23.28338    19.291728    8079.9281    2490.8367    4476.3038      5222.98   -21.212409   -117.48851   -367.21406    -3847.482 
 2307000    243.34198   -4873.6112   -4386.8972   -4873.6112            0    4719.0191    18.128926    23.005709    19.348812    8069.7859    3581.4193    4922.4472    5653.1909    795.64387   -64.951142    589.95137   -3831.5179 
 2308000    241.83442    -4835.131   -4351.4323    -4835.131            0    4257.4653    18.117683    22.908781    19.575939    8125.0728    5786.0611    3845.1299    3141.2049     150.8151   -963.26411   -565.99362   -3846.9403 
 2309000    240.18324    -4848.787   -4368.3909    -4848.787            0    3781.1318     18.21969    22.907607     19.37245    8085.4697    4053.1434    3548.7103    3741.5416   -1246.5048   -373.83735    479.11991   -3922.5263 
 2310000    245.55716   -4850.9608   -4359.8161   -4850.9608            0    5354.3536    18.142795    22.731678     19.57967    8074.9727    5274.2318    6177.6015    4611.2276    -959.3002    196.66971    764.55658   -3729.2597 
 2311000    248.34137   -4837.6708   -4340.9574   -4837.6708            0    2264.1391    18.361733     22.75473    19.587249    8183.8712    2503.3938    2281.3651    2007.6584    534.57745   -2.6342359   -894.88262   -4070.7248 
 2312000    251.72933   -4809.6045   -4306.1147   -4809.6045            0    5892.9824    18.275064    22.662447    19.550058    8096.8065    6422.4068    6445.4708    4811.0695    209.23573    1472.1045    850.15902     -3610.25 
 2313000    245.57307   -4827.0171   -4335.8406   -4827.0171            0    3709.2978    18.055435    22.998522    19.576059    8128.9257    2531.8991    4807.2253     3788.769    -965.3626   -67.147172    400.65165   -3896.0958 
 2314000    241.06864   -4845.5089   -4363.3419   -4845.5089            0    4356.5964    18.158001    23.094111    19.224423    8061.6249    3265.0594    4754.0622    5050.6676   -866.61422    1667.3657   -1122.6611   -3851.1345 
 2315000    238.36176   -4858.2049    -4381.452   -4858.2049            0    4747.7873    17.877846    23.307772       19.353    8064.2547    5964.0649    2790.6721    5488.6249    516.64908   -1358.9225    63.959669     -3823.07 
 2316000    250.92787   -4821.2234   -4319.3367   -4821.2234            0    4686.1066    18.105769    23.332267    19.151157    8090.3798    3676.6889     4963.529     5418.102    175.14271    104.11382    481.68509   -3766.4235 
 2317000    239.90371   -4850.7058   -4370.8687   -4850.7058            0    3723.2126    18.086746    23.011547    19.488388     8111.145    4482.6621    2778.6614    3908.3143   -996.54368   -539.00431   -285.69603   -3930.4398 
 2318000    246.23287   -4859.5922   -4367.0961   -4859.5922            0      3791.58    18.199411    22.694877    19.601884    8096.2327    1900.6479    5638.1951     3835.897   -293.35148    343.08941    79.482503   -3919.4043 
 2319000    240.20437   -4878.4472   -4398.0088   -4878.4472            0    6029.2663    18.273717    22.453173    19.544241    8019.0596     6595.772    6821.6757    4670.3513    423.47371   -524.63285    -1215.774   -3692.8876 
 2320000    255.61804   -4857.5131   -4346.2455   -4857.5131            0    5836.7077    18.117713    22.703941    19.554572    8043.6458    5458.5228    6486.4388    5565.1614    366.99354    741.05661   -1365.5089   -3661.5511 
 2321000    248.35395   -4850.0857   -4353.3471   -4850.0857            0    4659.0946    18.180676    22.792454    19.484479    8074.0214      3780.31    5158.2673    5038.7064      5.53315    14.212773    1735.1849   -3804.7326 
 2322000    250.82437   -4806.5255   -4304.8458   -4806.5255            0    6675.7028    17.903245    23.121725    19.448012    8050.5806    6681.4999    7119.7222    6225.8862   -1639.8524   -226.08441   -1193.4947   -3521.0551 
 2323000    231.56572   -4863.3923   -4400.2323   -4863.3923            0    3637.5075    18.090221    23.235783    19.254201    8093.3198    3547.4399     3617.582    3747.5004   -1392.1886   -146.84418   -1444.5728   -3970.8872 
 2324000    240.48362   -4879.0492   -4398.0522   -4879.0492            0    3810.3753    17.941661    23.289638    19.340568    8081.5492     5290.717    1923.0022    4217.4066   -568.57544   -275.70098    1229.4597   -3948.9572 
 2325000    246.84968   -4860.3006   -4366.5707   -4860.3006            0    4802.4311    18.000693    23.164318    19.311589    8052.4262    5674.9878    3792.8163    4939.4891   -382.58926   -685.66509    1051.2125   -3802.5906 
 2326000    254.88229   -4865.9699   -4356.1738   -4865.9699            0    2753.8508    18.236548    22.853162    19.573333    8157.4368    2929.9588    3373.3399    1958.2539   -266.44564    418.57584    435.33357   -4028.5541 
 2327000    237.04373   -4884.5393   -4410.4226   -4884.5393            0    5409.7365    18.209953    22.682777    19.416888    8020.1904    2449.0943    6653.9659    7126.1493   -201.78592    139.03589    1355.1025    -3777.666 
 2328000    266.98869   -4848.5207   -4314.5103   -4848.5207            0    5105.5249    18.065555    22.844472    19.563787    8073.9369    7103.5075    4525.3988    3687.6684   -86.121579   -817.39662    165.10428   -3713.3343 
 2329000    228.89348   -4833.7707   -4375.9555   -4833.7707            0    5056.4412      18.2189    22.876299     19.34297    8061.7824    3146.2572     6541.897    5481.1695    190.36375    588.66155    2528.8739   -3781.4554 
 2330000    244.13365   -4824.6389   -4336.3414   -4824.6389            0    4474.0123    18.041706    22.947561    19.550824    8094.2981    5031.8562     4220.283    4169.8978   -1225.9431    321.98711    941.48698   -3808.1976 
 2331000    245.27362    -4844.477   -4353.8994    -4844.477            0    5400.2672    18.097942     23.05862     19.31309    8059.6144     5032.045    5580.1029    5588.6538   -141.12147      1041.16   -1025.1855   -3719.1455 
 2332000    246.25997   -4880.9364   -4388.3861   -4880.9364            0    4095.1631     18.04739     22.92932    19.512669     8074.623    3679.1724    5382.1516    3224.1653   -758.64741    1086.0846    122.43293   -3906.1393 
 2333000    241.92845   -4827.5021   -4343.6153   -4827.5021            0    5014.1145    18.091155    22.909134    19.483966    8075.1824    4900.7927    5383.9863    4757.5643   -538.62307   -814.07596    347.06019   -3753.1118 
 2334000    254.53992    -4830.326   -4321.2147    -4830.326            0    4291.0063    18.164215    22.967093    19.381189     8085.429    3554.4993    4412.5181    4906.0015    696.50798   -349.21182   -492.66237   -3815.2292 
 2335000    250.22888   -4870.2288   -4369.7401   -4870.2288            0    7128.0686    17.979053    22.797939    19.509207    7996.5386     6425.067    8474.3355    6484.8032    1253.0129     1269.235   -2541.7348   -3538.4554 
 2336000    248.91475   -4876.8221   -4378.9618   -4876.8221            0    2426.3592    17.992055    23.068394    19.582086    8127.5018    4372.2403    2608.3809    298.45628    -960.2731   -73.626322    735.79387   -4091.3624 
 2337000    239.72539   -4858.3449   -4378.8645   -4858.3449            0    4122.3243    18.155763    23.105742    19.248433    8074.7637    3693.2655    4498.7517    4174.9558    366.65158    1453.6472   -1055.3125   -3893.4107 
 2338000     245.5458   -4851.7026   -4360.5807   -4851.7026            0    4352.6639    17.936014    23.145333    19.493787    8092.5532    6556.0607    3513.8687    2988.0624     475.9843    458.57958    1271.7943   -3846.8724 
 2339000    237.48088    -4883.775   -4408.7839    -4883.775            0     4745.407    18.122064    22.983719    19.293909    8036.1524    4863.6595    3367.2953    6005.2662    598.56829    55.632797   -1719.3204   -3852.6268 
 2340000     241.6123   -4860.0073   -4376.7528   -4860.0073            0    5513.9844    18.067597    22.926599    19.344667    8013.1135    6541.5071    4690.7576    5309.6884    558.75296    -1257.258   -765.25023   -3732.3718 
 2341000    242.04954   -4862.1966   -4378.0676   -4862.1966            0    3413.0872    18.011174    23.092595    19.504858    8112.5532    4325.1089    1649.7192    4264.4336    16.639876   -451.25521   -721.10322   -3974.2541 
 2342000    242.88446   -4854.6421   -4368.8432   -4854.6421            0    5358.8959      18.2557    22.899052    19.191685    8022.8578    3845.0974    6547.0145     5684.576    836.82693     429.7221    1015.3981   -3741.8248 
 2343000    248.13984   -4833.8102   -4337.4999   -4833.8102            0       5476.7    17.869021     23.04372    19.579168    8062.0887    6378.6816    4319.6565    5731.7618    534.53541    369.53443   -198.66884   -3693.5643 
 2344000    244.52102   -4858.5972    -4369.525   -4858.5972            0    4146.2743    18.179292    22.855965    19.417423    8068.0415    2833.4115    4724.3556     4881.056   -690.90813   -322.07143   -51.755886   -3881.6573 
 2345000    239.86053   -4882.1789   -4402.4283   -4882.1789            0      4464.96    18.085565    22.895723    19.401618     8033.863    4405.0434    3981.5283    5008.3084   -95.573549    -649.8032    728.99512   -3879.2883 
 2346000    255.76016   -4861.8579    -4350.306   -4861.8579            0    4540.4565    17.966917    22.970054    19.579689    8080.5584    4655.5933    4926.8859    4038.8902    487.38903    930.79154    604.29981   -3815.2284 
 2347000    243.92681   -4856.7345   -4368.8508   -4856.7345            0    5648.2853    18.106402    22.810354    19.494368    8051.4357    4550.2471    6476.4483    5918.1605   -173.98026    455.99692    2823.3296   -3705.6182 
 2348000    250.64169   -4870.7348   -4369.4204   -4870.7348            0    4620.5232    18.142211    22.979773    19.367343    8074.3207    6225.0012    4064.6422    3571.9263   -1676.3922   -387.91939    336.33895   -3825.3275 
 2349000    240.21372   -4845.9617   -4365.5046   -4845.9617            0    4984.1525    17.923935    23.074481    19.478974    8056.2209    5000.8209    4527.4665    5424.1702    -970.2789    1229.9529   -702.99632   -3779.9079 
 2350000    244.16589   -4850.0119     -4361.65   -4850.0119            0    5168.3491    17.990947    23.192611    19.279787    8044.6268    4217.6786    4000.8924    7286.4763    -722.3747     -750.074    927.98777   -3755.2857 
 2351000    221.69079   -4854.3866   -4410.9777   -4854.3866            0    3171.8648    18.043472    23.154605    19.482566    8139.6109    3850.0256    3381.2948     2284.274   -217.80374   -27.380127    1090.9891   -4034.4524 
 2352000    243.75383   -4856.4658    -4368.928   -4856.4658            0    2120.0887    18.120794    23.084791    19.456572    8138.9707    1421.4438    2268.7179    2670.1045   -678.73401   -244.74727   -1379.2289   -4117.2766 
 2353000    248.69428   -4842.8162   -4345.3969   -4842.8162            0     4591.374    18.125138    22.839199    19.465758     8058.116    4334.9128     4214.066    5225.1431    697.66727     304.2367    -116.6199   -3805.8216 
 2354000    248.28924   -4847.3643   -4350.7552   -4847.3643            0    4851.2538    18.187275    22.742209    19.494033     8063.099    6735.6166      4155.74    3662.4049    57.905775   -75.405963    784.15988   -3780.2864 
 2355000    263.59904    -4844.589   -4317.3583    -4844.589            0    4451.8292     18.05899    22.850291    19.593946    8085.5041    4550.8677     4843.113     3961.507    234.87547    835.12059    739.26401    -3792.404 
 2356000    236.16521    -4866.569   -4394.2094    -4866.569            0    2829.6944    18.331483    22.926896    19.396144    8151.8887    1434.4195    3577.2193    3477.4443    -1217.679   -488.57517   -757.15398   -4057.7957 
 2357000     253.3589   -4860.6393   -4353.8902   -4860.6393            0     5804.935    17.931672     22.97342    19.467723     8019.764    6003.0783    6249.3958     5162.331   -265.82486    125.98869   -1335.4096   -3674.9448 
 2358000    250.69134   -4839.2553   -4337.8417   -4839.2553            0    5499.4339    17.898639    23.387339    19.245009    8055.9905    6145.2549    5086.1166    5266.9302   -465.66212    1369.4122    895.56871   -3691.7222 
 2359000    243.69915   -4863.0047   -4375.5763   -4863.0047            0    3730.1446    18.033432    23.312353     19.29901    8113.3372    3976.1297    2055.9359    5158.3683   -85.366339    478.31031   -246.71249    -3934.208 
 2360000    256.42031   -4847.6169   -4334.7446   -4847.6169            0    3609.3757    17.956899     23.14826    19.492528    8102.4776    5273.8105    3525.3201    2028.9966    382.60917    28.227382    1161.9031   -3908.2379 
 2361000    241.57041   -4808.4431   -4325.2725   -4808.4431            0    5208.6163    18.349699    22.806541    19.339807    8093.5771    5508.6074    4277.1594    5840.0821   -794.78437   -1032.8969   -1673.8572   -3710.4655 
 2362000    254.25167   -4860.2694   -4351.7347   -4860.2694            0    5664.3078    18.204798     22.71225    19.435504     8036.035    4330.3642    6447.3401    6215.2192    1271.8924    505.65298    -1135.527   -3687.8929 
 2363000     244.6801   -4867.4041   -4378.0137   -4867.4041            0    3587.9593    18.273516    22.630478    19.561632     8089.486    2631.7028    4232.9191     3899.256    120.35483   -962.04275   -746.19884   -3954.7175 
 2364000    251.06617   -4846.5713   -4344.4079   -4846.5713            0    3665.3064    18.374877    22.857142    19.369353    8135.0736    2981.0135    4130.9136    3883.9923   -268.65871    733.03618    474.74538   -3909.5497 
 2365000    251.00362   -4858.3767   -4356.3385   -4858.3767            0    6031.8872    17.944344    22.914402    19.549809    8038.5668    6893.3882    5652.1345     5550.139   -36.250903    -96.40905    785.45312   -3649.1947 
 2366000    242.09381   -4877.6414   -4393.4239   -4877.6414            0    3363.7195    18.192488    22.902014    19.455114    8105.8684    3170.2356    3878.0563    3042.8667   -840.81102   -1024.5714   -1166.4282   -3995.7792 
 2367000    235.54059   -4876.3968   -4405.2865   -4876.3968            0    3879.4541    18.137945    22.858991    19.492835     8082.024    3474.8868    3501.3881    4662.0875    960.94374    303.55685    820.12834   -3948.0229 
 2368000    239.22705   -4866.1903   -4387.7067   -4866.1903            0    6713.4525    18.196596      22.6364    19.395659     7989.177    6540.5154    7391.6327    6208.2095    250.14245    276.63136    86.950303   -3605.4958 
 2369000    234.80064    -4857.185   -4387.5547    -4857.185            0    4307.8697    18.232808    22.846303    19.481752    8115.1677    3621.7033    4518.0699     4783.836   -112.97642    822.86617   -797.53322   -3877.7123 
 2370000    249.62648   -4877.2697   -4377.9859   -4877.2697            0    1848.2065    18.217607    22.852239    19.575376    8149.4854    187.20834    3775.9086    1581.5024    835.77416   -17.548723    421.47717   -4158.3231 
 2371000    240.97191   -4867.4435   -4385.4699   -4867.4435            0    5116.9821    18.079252    23.016184    19.287646    8025.8864    3989.1189    5051.3884    6310.4389   -158.23512    236.30471    61.295127   -3786.5307 
 2372000    238.61125    -4812.849   -4335.5971    -4812.849            0    5185.5147    17.985379    23.079196    19.470404    8081.9329    6454.8181    4586.2615    4515.4644    23.758121   -1013.5374   -904.39943   -3724.3976 
 2373000    247.20274    -4863.266     -4368.83    -4863.266            0     5514.115    18.031645    23.118762    19.317775    8052.9875    5410.2699    4533.7209    6598.3543   -49.040422    161.93873    318.53827   -3721.2272 
 2374000    250.77605   -4849.6858   -4348.1027   -4849.6858            0    6708.1228    18.118551    22.983744    19.265042    8022.5827    5143.2066    6832.4569    8148.7048   -445.11595    1010.8127    578.76937   -3563.2447 
 2375000    256.13173   -4839.9448   -4327.6497   -4839.9448            0    4915.8734    17.947309    23.238907    19.429873     8103.731    4938.3852    5207.7389     4601.496    1042.5192   -130.00763   -1378.9091   -3746.6691 
 2376000    239.35407   -4860.5382   -4381.8005   -4860.5382            0    3199.3118     18.11437    23.162225    19.397398    8138.5489     2650.369    3186.0012    3761.5652    628.79545   -947.44189     1308.598   -4002.0665 
 2377000    242.53122   -4862.0198   -4376.9274   -4862.0198            0     5448.125    17.982859     23.05145    19.415319    8048.2513    5740.0501    4905.9711    5698.3538   -720.22771   -746.46331   -1424.9161   -3737.4511 
 2378000    234.46225   -4851.2274    -4382.274   -4851.2274            0    3843.0662    18.123127    22.939245      19.4597     8089.998    5393.6778    3655.9979    2479.5228    845.40339    325.13268    1886.4576   -3928.8524 
 2379000    262.25418   -4840.3134   -4315.7726   -4840.3134            0    4605.6585    18.217773    22.725969    19.525483    8083.8732    2508.6953    6170.9312    5137.3491    991.77264    121.98578   -877.14682   -3772.7885 
 2380000    229.73316   -4855.7921   -4396.2974   -4855.7921            0    4855.4464    18.307202    22.605776    19.506612    8072.7823    6020.8607    4803.3345    3742.1439   -211.77055    122.07382    325.82952   -3824.6499 
 2381000    233.63872    -4865.712   -4398.4057    -4865.712            0    5236.9495    18.126457    22.735018    19.586584    8071.7355    5225.5138    5278.8637    5206.4711    335.59584    158.73908   -564.37408   -3781.9226 
 2382000     250.2053   -4834.1198   -4333.6783   -4834.1198            0     3085.479    18.053605     23.33474     19.32869    8142.7166    3535.3595    1713.8976    4007.1799   -171.19046   -744.76294   -589.61393   -3967.2679 
 2383000    260.28715   -4864.9407   -4344.3342   -4864.9407            0    4974.2462    18.026217    23.207009    19.300559     8074.091    4645.9174    5073.0803     5203.741   -516.22298    686.90632    511.05296   -3758.6051 
 2384000    230.78352   -4853.6573   -4392.0618   -4853.6573            0    3234.2739    18.014245    23.408281    19.287143    8133.0509    4251.5032    2646.5361    2804.7823   -1005.5567     841.3216     235.3063   -4008.4374 
 2385000     234.2433   -4845.1773   -4376.6617   -4845.1773            0    5958.8537    18.118453    22.935292     19.25371    8000.9179    7702.9715    4999.5449    5174.0448   -384.71867    338.46289    983.41812   -3681.3518 
 2386000    255.03291   -4857.7733   -4347.6759   -4857.7733            0    4079.4905    18.196401    22.822502     19.51184    8103.0213    4783.6794    4097.2314    3357.5605   -1342.6039    -257.8127    -525.6609   -3865.5852 
 2387000    240.68898   -4852.8623   -4371.4547   -4852.8623            0    5181.7269    18.159132    22.689584    19.523167     8043.997    4929.3754    4396.7409    6219.0644     1307.989    -1165.735    1187.9006   -3763.5684 
 2388000    236.56281   -4838.7174   -4365.5626   -4838.7174            0    5762.5128    18.232851    22.695518     19.42314     8037.373     7081.709    4975.7701    5230.0592   -398.30719   -1652.1585   -657.69276    -3690.099 
 2389000    247.92443   -4887.6149   -4391.7354   -4887.6149            0    5006.7078    18.082653    22.763763    19.490328    8022.7885    4858.2785    5762.1955    4399.6496   -692.16437    426.63457     423.7315   -3805.9299 
 2390000     254.2059   -4860.4876   -4352.0444   -4860.4876            0    2904.1707     18.06148    23.281922    19.404619    8159.7579    4756.3367     1873.799    2082.3763    57.141508    663.01114   -620.70811   -4006.4431 
 2391000    237.42382   -4839.7831   -4364.9061   -4839.7831            0    7481.6297    17.966792    23.144526    19.200644    7984.2592    7147.3009    7447.7198    7849.8685   -535.31723     55.19114   -845.50607   -3493.7284 
 2392000      244.398   -4853.7296   -4364.9034   -4853.7296            0    3426.7626    17.968165    23.201072    19.473635    8118.1827     2464.334    3072.6153    4743.3385   -800.87049    638.68053   -742.41153   -3959.1906 
 2393000    245.90003   -4873.5883   -4381.7579   -4873.5883            0     2754.273    17.988201    23.273542    19.379058    8113.0262    3993.4587    2190.8974     2078.463   -2225.7279   -346.41472    1343.0498   -4055.8718 
 2394000    240.15055   -4847.8538    -4367.523   -4847.8538            0    4003.3367     17.95012     23.27575    19.366386    8091.3248    5290.8597    4201.1302    2518.0201   -239.92542    415.87043    924.28754   -3895.1146 
 2395000    247.57932   -4865.3016   -4370.1124   -4865.3016            0    4928.0646    18.139001     22.86176    19.420815    8053.6078    6486.2359    3467.3113    4830.6465    925.71061   -786.76706    182.28955   -3791.2934 
 2396000    240.56047   -4857.1167    -4375.966   -4857.1167            0    5070.2331    18.107454    22.853667    19.518143    8077.0314    4930.3788    5799.0504      4481.27   -504.74053     609.6695   -938.62927   -3778.7168 
 2397000    234.19849   -4866.3942   -4397.9683   -4866.3942            0     3698.578    18.266119      22.7889    19.457909    8099.6419    3232.9833    4358.4363    3504.3145     31.40607    729.57967   -1175.1296   -3961.0738 
 2398000    245.63362    -4867.055   -4375.7574    -4867.055            0    4971.1241    18.032242    22.831543    19.595065     8067.365    4851.9006    5346.1325    4715.3391    326.50763   -836.89345   -735.87538   -3790.8836 
 2399000    251.05774   -4833.4119   -4331.2654   -4833.4119            0    5465.6158    18.204419    23.061048    19.210187    8064.6861    4260.0995    5346.9631    6789.7847    97.761002    141.75792   -31.953065    -3688.426 
 2400000    232.59857   -4844.2081   -4378.9822   -4844.2081            0    5575.3393    17.905349    23.147591    19.404365    8042.4438    6366.6685    6048.9079    4310.4414    166.19948    1057.9345   -518.42945   -3725.0462 
 2401000    257.76893   -4829.0927    -4313.523   -4829.0927            0    3800.4203    18.064309    23.112521    19.431497    8112.8776    3852.9474    3755.8055    3792.5079    421.99073   -815.95194   -1743.3878   -3863.8649 
 2402000    246.13911   -4846.3931   -4354.0844   -4846.3931            0    6110.5498    18.069775    23.051405     19.28936    8034.6689    6077.9646    5700.4558    6553.2292    1812.4727   -592.55895    781.17768   -3638.0661 
 2403000      256.237   -4863.1502   -4350.6446   -4863.1502            0    3354.4036    18.143136    23.067793    19.341396    8094.8017    2196.7055    4491.3355    3375.1699   -673.95409    570.89826    318.11291   -3954.6425 
 2404000      247.302   -4856.9974   -4362.3629   -4856.9974            0    5376.6642    17.922832    23.060713    19.429365    8030.4143    5482.8501    6067.5582    4579.5844   -1402.4519     348.2489    260.48908   -3732.6729 
 2405000    243.75591   -4869.3497   -4381.8077   -4869.3497            0     2927.745    18.171106    23.018087    19.445036    8133.1603    3289.9912     2769.593    2723.6507    128.45929   -500.05146    -897.3441   -4034.5368 
 2406000    238.07334    -4864.481   -4388.3049    -4864.481            0    5298.9947    17.931773    22.710994     19.71684    8029.6514    6108.4911    6336.7122    3451.7809   -1590.5254    594.66813   -1218.5509   -3767.7702 
 2407000    237.30536   -4843.5741   -4368.9341   -4843.5741            0    4548.9006    18.322122    22.699986    19.411543    8073.4917    3225.7642    5205.0204    5215.9173    756.00451   -208.66739    1360.7756   -3833.3301 
 2408000    239.66085   -4877.2734   -4397.9221   -4877.2734            0     4123.004    18.131537    22.961662    19.400203    8076.8909    4874.6951     4306.524    3187.7931    56.220682    47.950155    -15.60769   -3912.2604 
 2409000    246.83183   -4877.8865   -4384.1923   -4877.8865            0    3564.2036    18.085435     22.73216    19.640437    8074.5959    2986.5344    4670.1415    3035.9349   -439.15513    295.42141    81.648893   -3964.4728 
 2410000    242.26101   -4835.9652   -4351.4133   -4835.9652            0    5457.3459    18.303779    22.689368     19.36022     8040.322    3419.5828    5559.2565    7393.1985    133.41072   -9.4417508    1043.5029   -3711.4857 
 2411000    248.53458   -4879.5765   -4382.4767   -4879.5765            0    4228.2318    18.227123    22.794024    19.419577    8068.2415    3403.2102    4725.6697    4555.8156   -757.43215    -668.3272    330.46593   -3884.9532 
 2412000    243.05606   -4844.3987   -4358.2566   -4844.3987            0    3747.3656    17.993947    22.924838     19.63024    8097.6376    4526.7108    3838.2349    2877.1511    -257.1641    570.88833    446.88295   -3915.7087 
 2413000    240.93382    -4850.419   -4368.5216    -4850.419            0    4181.4913    18.244815    23.006069    19.249083    8079.6385    3427.2201    3535.8315    5581.4222    268.62022   -544.58394    1159.9785    -3875.803 
 2414000    244.38331   -4865.1486   -4376.3518   -4865.1486            0    5517.2258    17.967975    22.896078    19.504664    8024.1442    6399.5601    5272.1046    4880.0128    1672.3896   -383.38195    1337.3132   -3730.7044 
 2415000    246.22349   -4859.5253   -4367.0479   -4859.5253            0    4692.1228    18.026113    22.987577    19.447996    8058.7959    4173.7155    6114.1497    3788.5033   -622.64492   -90.047403   -461.85236   -3815.5861 
 2416000    253.43191   -4832.0838   -4325.1887   -4832.0838            0    3204.2728     18.07284    23.103958    19.389316    8096.0892    3916.1289    2734.7615    2961.9279    155.53054   -1586.4999   -346.44204   -3946.8501 
 2417000     235.1266   -4850.4389   -4380.1567   -4850.4389            0    3525.3385    18.103398    22.977053    19.471709    8099.5053    3392.0102    3966.8046    3217.2007   -1049.9765    1140.7515    -122.1978   -3963.7332 
 2418000    250.73862   -4841.6448   -4340.1366   -4841.6448            0    5806.7446    18.051653    23.045029    19.241528    8004.4927    6066.2021    5726.2151    5627.8167   -1769.9802     743.2876     816.1883   -3662.2728 
 2419000     257.0438   -4840.8692   -4326.7499   -4840.8692            0     5590.384    18.037065    23.148815    19.333345    8072.3805    5987.0476     4431.946    6352.1584   -247.81357    679.04265    569.37613   -3668.6085 
 2420000    242.33466   -4840.1722    -4355.473   -4840.1722            0     3559.698    18.115253    23.123777    19.352754    8106.7348    4178.4289    3607.0512     2893.614    403.70082     79.60992    842.91986   -3934.6156 
 2421000    263.40471   -4876.3768   -4349.5348   -4876.3768            0    3215.9025    18.189384    22.639688    19.646495    8090.4653    2504.3154    4371.3925    2771.9997   -701.13167    651.29604   -220.18486   -3970.0868 
 2422000     241.3968   -4863.3051   -4380.4817   -4863.3051            0    5041.9888    18.225424    22.640218    19.570504    8075.3296    3929.9789    5425.2134     5770.774    515.20499   -473.44482    2933.5279   -3786.6847 
 2423000    251.06292   -4889.7242   -4387.5674   -4889.7242            0    4745.5907    18.126111    22.778898    19.475828    8041.4299     3851.432    5564.1226    4821.2173    244.28719    901.56855    9.4549137   -3831.0235 
 2424000    244.03355   -4859.1736   -4371.0763   -4859.1736            0    4243.0172    18.097225    23.053833    19.411209    8098.5586    3618.1505    4696.3755    4414.5257   -1328.9011    548.46464    -406.1786   -3869.9371 
 2425000    243.88745   -4857.5776   -4369.7726   -4857.5776            0    4415.9047    17.865011    23.208963    19.443126    8061.6721    5502.9287    4210.6269    3534.1586    -59.43544   -179.24716    341.69716   -3850.5893 
 2426000      246.564   -4862.6534   -4369.4949   -4862.6534            0    4782.1053    18.011834    23.269441    19.181723    8039.5458    5927.8889    3369.9788    5048.4482   -220.09405   -128.92269   -489.18085   -3808.8001 
 2427000    250.53618   -4837.2127   -4336.1094   -4837.2127            0    4442.1101    17.905594    23.248946    19.434635    8090.3699    6035.4387    3744.9476    3545.9439    108.63814    593.41771    540.70181    -3811.986 
 2428000    249.37014   -4851.9012   -4353.1301   -4851.9012            0     5386.822    18.075102     23.12094    19.267872    8052.3011    4298.2924    5787.2964    6074.8774    723.42067    432.32051   -980.84592    -3720.531 
 2429000    248.12133   -4846.9787   -4350.7054   -4846.9787            0     2967.277     18.24745    22.929484    19.456828    8140.8262    2774.6312    3183.0934    2944.1065    374.14579    435.63053   -784.78224   -3998.4137 
 2430000    249.39094   -4857.2849   -4358.4722   -4857.2849            0    4002.6361    18.148113    22.757604     19.51254    8058.8265    2718.0093    4839.0166    4450.8825   -448.33061    188.79224    294.06526   -3888.0435 
 2431000    242.39739   -4864.2743   -4379.4496   -4864.2743            0    5378.3395     18.24261    22.636007    19.428403    8022.7619    3749.9743    5928.5143    6456.5299   -589.42012    61.118311   -1137.5059   -3750.1637 
 2432000    245.75897   -4845.4481   -4353.8998   -4845.4481            0    3794.6083    18.165646    22.597084    19.799645    8127.5688    3353.3315    5774.0072    2256.4861   -472.95777   -527.73441   -421.70877   -3904.1163 
 2433000    235.98807   -4862.5419   -4390.5366   -4862.5419            0     3955.377     18.16943    22.915445    19.429541    8089.6945    4718.1157    2992.7804    4155.2351    607.88604   -734.34072    67.259084   -3923.8816 
 2434000    228.80254   -4851.3502   -4393.7168   -4851.3502            0    5669.3237    18.163609    23.048504    19.247474    8057.8393    4852.7379    5977.3424    6177.8908    -711.9733     1159.877   -2148.0734   -3727.4844 
 2435000    248.68876   -4836.7657   -4339.3575   -4836.7657            0    4828.3656    17.990385    22.950225     19.53237    8064.5909    6094.8672    3327.0883    5063.1412     475.5984    370.95392     931.4187   -3771.4751 
 2436000    250.94026   -4854.9391   -4353.0276   -4854.9391            0    4413.1674    18.244062    22.893039    19.382137    8095.1826    3040.4191    4404.9121    5794.1711   -1415.4389   -1146.2194   -467.60549   -3832.0093 
 2437000    237.85873   -4851.6312   -4375.8844   -4851.6312            0    3549.9301    18.073745    22.815138    19.580868    8074.2688    4415.0488    4536.5351    1698.2065    368.54547   -725.14433     2563.791   -3957.8626 
 2438000    255.38191   -4864.3043   -4353.5089   -4864.3043            0    5057.6724    18.162415    22.984621    19.419058    8106.6068    5084.6983    5603.9117    4484.4072    500.15463    1370.1679     44.10913   -3755.5578 
 2439000    242.30359   -4883.1497   -4398.5126   -4883.1497            0    5633.9974    17.953099    23.074158    19.348803    8015.2926    6151.4457    5185.5729    5564.9737   -510.64982    259.72305    447.50383   -3739.9275 
 2440000    240.01137   -4799.1538   -4319.1014   -4799.1538            0    4726.7551     18.15807    23.176279    19.244257     8098.686    4567.3983    3079.7015    6533.1656   -166.84149   -762.14405   -902.85183   -3760.8195 
 2441000    247.16888   -4849.5314   -4355.1631   -4849.5314            0    3671.4928    18.067081    23.131184     19.37197    8095.7976    4633.8481    2894.6165    3486.0138    131.50955   -713.14669   -828.37206   -3921.6739 
 2442000    254.75655   -4863.2436    -4353.699   -4863.2436            0    3329.6206    17.914066    23.295801    19.356324      8077.83     3547.783    2458.5327    3982.5463     846.7072      729.321   -693.45075   -3961.4469 
 2443000    240.74353   -4851.6824   -4370.1656   -4851.6824            0    5733.9947    17.946431     23.25933    19.258877     8039.078    4349.6853    6533.2448     6319.054   -699.82088   -695.39028   -674.61458   -3697.9023 
 2444000    244.82585   -4847.1906   -4357.5086   -4847.1906            0     4103.581    18.073121    22.988997    19.462289    8086.2486    4267.2754    4654.0409    3389.4267   -2209.8972   -586.93971   -1212.6973   -3873.5748 
 2445000    241.74657   -4842.5867   -4359.0637   -4842.5867            0    5370.1342    18.350195    22.692372    19.386314    8072.6444    3988.2556    5559.2954    6562.8516    604.88844    879.74605   -1551.9316   -3726.8311 
 2446000    239.31413   -4847.7998    -4369.142   -4847.7998            0    3651.0475    18.124851    22.678781    19.764397    8124.1462    3094.8699    5057.5981    2800.6746    981.51655     1214.821    49.134297   -3936.5573 
 2447000    249.08746   -4861.2891   -4363.0834   -4861.2891            0    4802.3993    18.367466    22.787887    19.310195     8082.393    3861.7444      4516.09    6029.3634    -390.3402   -158.89149  -0.83817659   -3797.0083 
 2448000    251.58603   -4862.7765   -4359.5734   -4862.7765            0    3195.7995    18.082686    22.935673    19.513139    8092.8513    2662.3562    3469.4983    3455.5441    229.76475   -700.08066    992.32248   -3982.3861 
 2449000    250.61631   -4843.7764   -4342.5128   -4843.7764            0    3137.8374    18.188564    23.030526     19.44533    8145.4973    5063.4461    1686.6524    2663.4136    94.326727   -1106.4925   -589.77331   -3969.7574 
 2450000    240.30906   -4847.3758    -4366.728   -4847.3758            0    4450.8887    18.026283    22.944261     19.44245    8041.3922    4584.4437    5409.4786    3358.7438    -1963.492   -126.59116    846.20927    -3844.748 
 2451000     243.8576   -4848.5191   -4360.7737   -4848.5191            0    4794.9803      18.0063    22.969469    19.493924    8062.5923     6146.606    4802.5086    3435.8263   -1077.6731   -169.48728    866.20004   -3796.9577 
 2452000    235.42848   -4834.1037   -4363.2176   -4834.1037            0    4047.1232    18.232516    22.972269    19.346663    8103.2003    3930.3427    3631.1859    4579.8411   -686.32907   -729.08018   -189.65867   -3884.9413 
 2453000    239.22697   -4872.2342   -4393.7507   -4872.2342            0    3855.1981    17.987691      23.0206    19.561809    8100.2995    6703.4297     2766.101    2096.0636    624.97298   -130.02132    1794.1365   -3938.3186 
 2454000     239.3697   -4873.5694   -4394.8004   -4873.5694            0    4363.5542    18.072404    23.088661    19.275369    8042.9872    4119.6479    4124.7742    4846.2404   -901.24829   -282.30251   -1778.2468   -3882.9611 
 2455000    231.37833   -4856.8338   -4394.0485   -4856.8338            0    5390.9861    17.922255     23.35359    19.290273    8073.9245    6318.9571    3959.5713      5894.43    500.54703    -527.1123    12.040751   -3759.2604 
 2456000    249.33622   -4877.0191   -4378.3159   -4877.0191            0    4804.9299    18.008507    23.260081    19.182514    8035.1586     4892.628    3797.1583    5725.0035    -97.20338   -27.865445    239.96662   -3815.2523 
 2457000    241.98067   -4842.9527   -4358.9614   -4842.9527            0      5111.43     17.92941    23.110892    19.492209    8076.8828    6082.4992    5097.7019    4154.0888    957.95074    608.73407    429.58176   -3756.8705 
 2458000    248.37541   -4837.3697   -4340.5882   -4837.3697            0     5906.112    18.059795     23.04038    19.270771    8018.6552    5218.8862    5788.8585    6710.5912    -1058.431    63.829764   -290.93807   -3649.9047 
 2459000    246.99832   -4854.4464   -4360.4193   -4854.4464            0    5636.9125    18.080407    22.796715    19.497426    8036.3297    6106.3635    5102.2159    5702.1581   -173.60636    298.47394   -364.31043    -3699.764 
 2460000    237.13611   -4826.1871   -4351.8856   -4826.1871            0     2895.493     18.37639     22.67176    19.558475    8148.5517    1940.0881    3917.5077    2828.8831   -622.95467    24.265657   -653.86807   -4007.7902 
 2461000    243.42617   -4846.3993   -4359.5169   -4846.3993            0    6387.7473    18.238179    22.687371    19.421515    8036.1633    5538.8335    6313.4803     7310.928    148.19364   -170.08659   -877.47372    -3610.878 
 2462000     246.7695   -4854.4223   -4360.8528   -4854.4223            0    4846.6503    18.037519    22.870018    19.507959    8047.3914    5840.8507    4945.9697    3753.1305   -753.13298   -1260.8962    168.87751   -3792.0356 
 2463000    247.36946   -4855.9645    -4361.195   -4855.9645            0    4621.1802    18.249639    22.899395    19.320296    8074.0616    4129.8306    3553.2252    6180.4849     21.70293   -696.68371   -577.35098   -3817.0422 
 2464000    239.37038   -4844.0174   -4365.2471   -4844.0174            0    5569.8762    18.008915    23.024697    19.429281    8056.3479    5964.5038    5633.2084    5111.9165   -394.48273    341.99584   -1509.1616   -3710.8225 
 2465000    237.32493   -4888.0177   -4413.3385   -4888.0177            0    3865.8456    18.088104    23.038099    19.391501    8080.7395    1854.9913    5795.8459    3946.6996    755.23281    892.43665    1701.7672   -3957.7513 
 2466000    249.77675   -4861.5297   -4361.9454   -4861.5297            0    4710.0438     17.93184    23.084456    19.504723    8073.9171    5927.0605    4538.3286    3664.7422    914.06525   -473.46273     225.6095   -3807.3387 
 2467000    252.16381    -4896.665   -4392.3062    -4896.665            0    6241.3469    18.053111    23.101775    19.169544    7994.8292    4412.6396    5339.1517    8972.2493   -421.43934    -190.1489   -633.40306   -3664.5877 
 2468000    249.72552   -4853.5581   -4354.0762   -4853.5581            0    3758.4513    18.089372     23.00264    19.548452    8134.1759    4040.7918    4186.8971    3047.6651    1469.8418    292.55508    806.92616   -3908.2163 
 2469000    243.34278   -4856.7522   -4370.0366   -4856.7522            0    5603.4971     18.14986    22.881412     19.30814    8018.5628    6007.6242    4687.4207    6115.4465    1293.9423   -708.85507   -462.96495   -3714.7495 
 2470000    234.49537   -4864.8548   -4395.8351   -4864.8548            0    4996.2198    17.993886    22.958007    19.518499    8063.1653    5999.2711    4490.6151     4498.773    651.65295   -709.61522    853.56998   -3808.3146 
 2471000    237.56198   -4851.0508   -4375.8974   -4851.0508            0    4622.5391    18.159867    22.914678    19.529749    8126.8658    3513.7197    6181.9016    4171.9958    352.14749    373.33878    758.66698   -3828.0249 
 2472000    228.39102   -4861.0938   -4404.2836   -4861.0938            0    4644.8011    18.072776    23.008973    19.435059    8081.7977    4914.7183    4944.4836    4075.2015    430.26292   -149.37836   -926.21305   -3856.8254 
 2473000    234.22833   -4854.7872   -4386.3016   -4854.7872            0    5071.0027     18.08001    22.887208    19.442597     8045.365    3871.4954    6351.8521    4989.6607   -188.65836    737.05517    1653.9084   -3791.3036 
 2474000    257.23627   -4876.7273   -4362.2229   -4876.7273            0    3990.6794    18.169228    22.857814    19.449243    8077.4427    3122.5017    4386.5866    4462.9498   -367.01923   -1052.8045   -1165.5162   -3892.1161 
 2475000    240.07862   -4865.6701   -4385.4832   -4865.6701            0    4351.0191    18.068011    22.933776    19.480314    8072.0132    4853.4046    4898.2252    3301.4275   -367.55029   -1043.8833   -417.35084   -3873.2724 
 2476000    243.29813   -4860.6487   -4374.0224   -4860.6487            0    4247.1528    18.122649    22.938163    19.382919    8057.4848     3564.792    4422.7575    4753.9089   -1551.2483   -590.90409   -823.05234   -3874.9388 
 2477000    249.64074   -4810.5365   -4311.2242   -4810.5365            0    5403.6864    17.983393    23.001106    19.500682    8066.2217    5707.3207    6144.3792    4359.3593    797.71933    887.90359    554.79891   -3675.5476 
 2478000    249.98072   -4837.4865   -4337.4942   -4837.4865            0    3869.5635    18.122911    23.170297    19.321285     8113.263    3109.4409    4435.1017    4064.1479    249.26147    1075.4537    168.09569   -3879.6334 
 2479000    251.42185   -4850.6703   -4347.7955   -4850.6703            0    3237.8652    18.016269    23.270075    19.443546    8151.5108    3606.2484    2623.8838    3483.4632    746.27062   -343.34077    556.88129   -3962.8735 
 2480000    246.73165   -4814.2524   -4320.7587   -4814.2524            0     5583.713    17.934851    23.110126    19.399124    8040.4842    6521.7885    5134.0341    5095.3164   -1540.3663    90.328738   -1361.6952   -3666.0001 
 2481000    245.54708   -4822.4768   -4331.3523   -4822.4768            0    5601.5615    18.069734    23.076503    19.285792    8041.9107    5229.4763    4251.8952    7323.3129    386.17259   -1658.4408    3745.7885   -3674.3842 
 2482000      253.744   -4870.5009   -4362.9815   -4870.5009            0    4261.5554    18.004372    23.081984    19.468263    8090.5551    3607.9537    5165.6639    4011.0486   -2018.7919    1511.2672   -488.17594   -3860.1502 
 2483000    241.27627   -4867.0444   -4384.4621   -4867.0444            0    1582.3042    18.190002    22.936555    19.520742    8144.3658     1438.584    1737.2316    1571.0969   -605.06843     51.15227   -378.21453   -4196.5204 
 2484000    254.23321   -4854.2199   -4345.7221   -4854.2199            0    4355.8464     18.11163    22.866291     19.49188    8072.4801    5293.0695    4014.0151    3760.4547   -743.54957   -1273.4045   -1891.2335   -3832.9133 
 2485000     241.3037    -4863.662   -4381.0247    -4863.662            0    3713.6198    18.273883    22.935668    19.321215    8097.9795    2394.3843    4854.5686    3891.9064    -1045.933    665.54179   -389.42548   -3942.4436 
 2486000    241.65155   -4855.4797   -4372.1467   -4855.4797            0    3730.3731    18.019043    22.883831     19.60766    8085.1153     3640.751    3730.1383    3820.2299      151.865   -1356.6908   -777.87212   -3932.2868 
 2487000    236.04275   -4844.5668   -4372.4522   -4844.5668            0    3751.2443    18.090603    22.993107    19.403558    8071.0878    4248.8504    2915.1669    4089.7156   -417.42582   -888.55592    388.44662   -3930.8987 
 2488000    248.06535    -4851.481   -4355.3197    -4851.481            0    4446.4785    18.170846    22.862423    19.522762    8110.3324     5414.324    5227.8871    2697.2242    161.01303   -329.45401    1170.8908   -3829.3863 
 2489000    249.84355   -4855.2888   -4355.5708   -4855.2888            0    4931.9397    18.271579    22.629451    19.491611    8059.3098    5988.2738    5816.5253    2991.0199   -374.19092    867.26213     188.6866   -3775.8866 
 2490000    248.07243   -4856.6285    -4360.453   -4856.6285            0     3822.186    18.227243    22.776912    19.558631    8119.9669    3986.8353    3895.5277    3584.1949   -59.127668     494.7363   -190.05092   -3907.8244 
 2491000    235.20232   -4854.7884   -4384.3547   -4854.7884            0    3899.8826    18.209367    22.867364    19.412712    8083.4575    2802.6803    4496.5054    4400.4622   -906.85308   -100.15824   -1060.2932   -3924.6017 
 2492000    242.05628   -4852.9614   -4368.8189   -4852.9614            0     4921.234    18.052194    22.921821    19.496395    8067.3967    6620.1847    4083.5092     4060.008    449.95181   -323.45241     1548.066   -3789.8126 
 2493000    249.65214   -4836.3951   -4337.0599   -4836.3951            0    4250.0985    18.229087    23.021831    19.335397    8114.4272    3702.9379    4375.3348    4672.0227   -894.17909   -192.36085   -897.94922   -3834.1007 
 2494000    243.54742   -4831.3879   -4344.2629   -4831.3879            0    4087.5108    18.042503    23.009568    19.538261    8111.3126    4162.1864    3901.9166    4198.4295    1216.2602     474.0503    270.64144   -3860.7301 
 2495000    251.88145   -4841.8609   -4338.0668   -4841.8609            0    3313.5942    18.266194    23.199477    19.162156    8120.2733    3418.1926    2006.6162    4515.9737    563.56546    723.81776   -437.12032   -3945.6516 
 2496000    246.92777   -4864.4523   -4370.5663   -4864.4523            0    4185.8023    17.914801    23.124143    19.451399    8058.0224    5646.9406    2975.6956    3934.7707    655.39716    -706.4003   -573.48657   -3878.6592 
 2497000    240.53162   -4848.2963   -4367.2033   -4848.2963            0     4651.186    17.983872    23.181842    19.344166    8064.5687     6282.393     3102.138    4569.0271   -819.80825   -1781.8334   -722.03592   -3820.1612 
 2498000    238.46605   -4814.0333   -4337.0717   -4814.0333            0    4151.6821    18.020718    23.435808    19.151978    8088.4565     3841.771    3269.0704    5344.2049     1252.089   -68.319352   -54.920405   -3847.3317 
 2499000    242.29777   -4861.1375    -4376.512   -4861.1375            0    4765.2212    17.923014    23.028136    19.480453    8040.2373    5788.8375    4707.1793    3799.6469    968.56801    276.58901   -2151.5498   -3817.7488 
 2500000     248.5125   -4828.5823   -4331.5266   -4828.5823            0    4887.5497    18.001594    23.143342    19.364323    8067.5071    6169.6222    3187.0468      5305.98     264.8012   -638.04769   -869.62251   -3756.4755 
Loop time of 520.336 on 64 procs for 250000 steps with 1008 atoms

Performance: 83.023 ns/day, 0.289 hours/ns, 480.459 timesteps/s
99.1% CPU use with 64 MPI tasks x 1 OpenMP threads

MPI task timing breakdown:
Section |  min time  |  avg time  |  max time  |%varavg| %total
---------------------------------------------------------------
Pair    | 28.083     | 31.879     | 36.102     |  32.8 |  6.13
Bond    | 0.27281    | 0.2825     | 0.29503    |   1.0 |  0.05
Kspace  | 236.27     | 244.98     | 255.06     |  31.8 | 47.08
Neigh   | 3.9431     | 4.5954     | 5.4452     |  19.1 |  0.88
Comm    | 101.32     | 112.86     | 123.26     |  52.0 | 21.69
Output  | 0.82039    | 0.8222     | 0.82867    |   0.1 |  0.16
Modify  | 114        | 117.04     | 120.17     |  18.4 | 22.49
Other   |            | 7.877      |            |       |  1.51

Nlocal:        15.7500 ave          20 max          12 min
Histogram: 2 6 8 12 0 15 10 6 4 1
Nghost:        2482.86 ave        2507 max        2454 min
Histogram: 3 3 4 10 8 7 11 8 3 7
Neighs:        5183.78 ave        6557 max        3897 min
Histogram: 2 6 8 9 8 10 10 6 3 2

Total # of neighbors = 331762
Ave neighs/atom = 329.12897
Ave special neighs/atom = 2.0000000
Neighbor list builds = 8564
Dangerous builds = 1

unfix		3
unfix		2
unfix		1

write_data	data.final.${pid}
write_data	data.final.0
System init for write_data ...
PPPM initialization ...
  extracting TIP4P info from pair style
  using 12-bit tables for long-range coulomb (../kspace.cpp:340)
  G vector (1/distance) = 0.38344939
  grid = 24 30 32
  stencil order = 5
  estimated absolute RMS force accuracy = 0.0019285169
  estimated relative force accuracy = 5.8076715e-06
  using double precision FFTW3
  3d grid and FFT values/proc = 4080 384
Last active /omp style is kspace_style pppm/tip4p/omp
WARNING: Not all mixed pair coeffs generated from mixing. Use write_data with 'pair ij' option to store all pair coeffs. (../write_data.cpp:312)

write_restart   restart.lmp.${pid}
write_restart   restart.lmp.0
System init for write_restart ...
PPPM initialization ...
  extracting TIP4P info from pair style
  using 12-bit tables for long-range coulomb (../kspace.cpp:340)
  G vector (1/distance) = 0.38344939
  grid = 24 30 32
  stencil order = 5
  estimated absolute RMS force accuracy = 0.0019285169
  estimated relative force accuracy = 5.8076715e-06
  using double precision FFTW3
  3d grid and FFT values/proc = 4080 384
Last active /omp style is kspace_style pppm/tip4p/omp
Total wall time: 0:08:43
