LAMMPS (30 Jul 2021)
Processor partition = 0
  using 2 OpenMP thread(s) per MPI task
using multi-threaded neighbor list subroutines
variable        pid world 0 1
variable        phase world IceV IceIII

shell cd ${phase}
shell cd IceV
include Restart.lmp
echo both
log log.lammps
#include		in.partitions
include		in.temp
variable        temperature equal 106.47
variable	tempDamp equal 100.0
include		in.pressure
variable        pressure equal 6954.3
variable        pressureDamp equal 1000.0 # This is 1 ps
include		in.seed
variable        seed equal 745823

units		real
atom_style	full
read_restart    restart.lmp.${pid}
read_restart    restart.lmp.0
Reading restart file ...
  restart file = 30 Jul 2021, LAMMPS = 30 Jul 2021
  restoring atom style full from restart
  triclinic box = (-3.1308585 0.025368266 -0.017516683) to (14.740858 22.554631 19.247515) with tilt (-0.20006540 -6.8726744 0.025069379)
  2 by 4 by 4 MPI processor grid
  restoring pair style lj/cut/tip4p/long/omp from restart
  restoring bond style harmonic/omp from restart
  restoring angle style harmonic/omp from restart
  1008 atoms
  672 bonds
  336 angles
Finding 1-2 1-3 1-4 neighbors ...
  special bond factors lj:    0        0        0       
  special bond factors coul:  0        0        0       
     2 = max # of 1-2 neighbors
     1 = max # of 1-3 neighbors
     1 = max # of 1-4 neighbors
     2 = max # of special neighbors
  special bonds CPU = 0.002 seconds
  read_restart CPU = 0.007 seconds

include 	in.setup
variable	out_freq equal 1000
variable	out_freq2 equal 10000
variable	out_freq3 equal 1000

timestep	2.0

neigh_modify    delay 7 every 1

include		in.tip4p
# This is TIP4P/Ice

# create groups ###
group ox type 2
336 atoms in group ox
group hy type 1
672 atoms in group hy

# set charges - beside manually ###
set group ox charge -1.1794
Setting atom values ...
  336 settings made for charge
set group hy charge 0.5897
Setting atom values ...
  672 settings made for charge

# ### TIP3P Potential Parameters ###
pair_style lj/cut/tip4p/long/omp 2 1 1 1 0.1577 8.5
pair_coeff 1 1*2 0.000 0.000
pair_coeff 2 2 0.21084 3.1668
bond_style  harmonic
bond_coeff  1 450 0.9572
angle_style harmonic
angle_coeff 1 55 104.52
kspace_style pppm/tip4p/omp 1.0e-5
pair_modify tail yes

thermo          ${out_freq}
thermo          1000
thermo_style    custom step temp pe etotal epair emol press lx ly lz vol pxx pyy pzz pxy pxz pyz enthalpy

restart 	${out_freq3} restart.lmp.${pid} restart2.lmp.${pid}
restart 	1000 restart.lmp.${pid} restart2.lmp.${pid}
restart 	1000 restart.lmp.0 restart2.lmp.${pid}
restart 	1000 restart.lmp.0 restart2.lmp.0


include         in.dump
dump            myDump all atom ${out_freq2} dump.water.${pid}
dump            myDump all atom 10000 dump.water.${pid}
dump            myDump all atom 10000 dump.water.0
dump            myDump2 all dcd ${out_freq2} dump.dcd
dump            myDump2 all dcd 10000 dump.dcd
dump_modify     myDump append yes
dump_modify     myDump2 append yes


variable natoms 	equal  "count(all)"                        # NUMBER ATOMS
variable H      	equal  "enthalpy/v_natoms"                 # ENTHALPY-per-atom
variable Vol      	equal  "vol/v_natoms"                 # volume-per-atom
fix AVG all 		ave/time ${out_freq} 1 ${out_freq} v_Vol v_H file vol_enthalpy.dat
fix AVG all 		ave/time 1000 1 ${out_freq} v_Vol v_H file vol_enthalpy.dat
fix AVG all 		ave/time 1000 1 1000 v_Vol v_H file vol_enthalpy.dat



fix 		1 all shake 1e-6 200 0 b 1 a 1
Finding SHAKE clusters ...
       0 = # of size 2 clusters
       0 = # of size 3 clusters
       0 = # of size 4 clusters
     336 = # of frozen angles
  find clusters CPU = 0.001 seconds
fix             2 all nph tri ${pressure} ${pressure} ${pressureDamp}
fix             2 all nph tri 6954.3 ${pressure} ${pressureDamp}
fix             2 all nph tri 6954.3 6954.3 ${pressureDamp}
fix             2 all nph tri 6954.3 6954.3 1000
fix             3 all temp/csvr ${temperature} ${temperature} ${tempDamp} ${seed}
fix             3 all temp/csvr 106.47 ${temperature} ${tempDamp} ${seed}
fix             3 all temp/csvr 106.47 106.47 ${tempDamp} ${seed}
fix             3 all temp/csvr 106.47 106.47 100 ${seed}
fix             3 all temp/csvr 106.47 106.47 100 745823


run             250000
PPPM initialization ...
  extracting TIP4P info from pair style
  using 12-bit tables for long-range coulomb (../kspace.cpp:340)
  G vector (1/distance) = 0.38021163
  grid = 24 27 32
  stencil order = 5
  estimated absolute RMS force accuracy = 0.002351428
  estimated relative force accuracy = 7.0812557e-06
  using double precision FFTW3
  3d grid and FFT values/proc = 5355 672
Last active /omp style is kspace_style pppm/tip4p/omp
Neighbor list info ...
  update every 1 steps, delay 7 steps, check yes
  max neighbors/atom: 2000, page size: 100000
  master list distance cutoff = 10.8154
  ghost atom cutoff = 10.8154
  binsize = 5.4077, bins = 5 5 4
  1 neighbor lists, perpetual/occasional/extra = 1 0 0
  (1) pair lj/cut/tip4p/long/omp, perpetual
      attributes: half, newton on, omp
      pair build: half/bin/newton/tri/omp
      stencil: half/bin/3d/tri
      bin: standard
Setting up Verlet run ...
  Unit style    : real
  Current step  : 31000000
  Time step     : 2
Per MPI rank memory allocation (min/avg/max) = 10.31 | 10.33 | 10.34 Mbytes
Step Temp PotEng TotEng E_pair E_mol Press Lx Ly Lz Volume Pxx Pyy Pzz Pxy Pxz Pyz Enthalpy 
31000000    108.75578   -5147.3558   -4929.8308   -5147.3558            0    7964.4505    17.871716    22.529262    19.265031    7756.8064    8363.6491    8862.9621    6666.7404    387.90609    957.74708    1304.6488   -4028.8519 
31001000     103.4551   -5165.1721   -4958.2492   -5165.1721            0    6645.0333    17.835306    22.853943    19.070487    7773.2655    5970.6074    6908.5573    7055.9351   -897.33198   -96.405189   -750.85522   -4204.9343 
31002000    109.02612   -5169.1326   -4951.0669   -5169.1326            0    8958.1802    17.794123    22.679702    19.131523    7720.8206    8440.1669    9361.3685    9073.0053    829.38647   -297.16427    258.19139   -3942.3736 
31003000    102.72227   -5167.6338   -4962.1766   -5167.6338            0    7038.5056    17.813267    22.737651    19.200671    7776.8833    7813.8669    6505.6257    6796.0241   -726.58315   -43.564236   -244.18275   -4163.8843 
31004000    103.25083   -5176.6251   -4970.1107   -5176.6251            0    7195.9735    17.815121    22.732276    19.166945    7762.1957    8447.0974    7441.3504    5699.4727    307.87962    732.34402   -306.69142   -4155.5001 
31005000      109.002   -5171.9139   -4953.8965   -5171.9139            0    8342.2018    17.812361    22.573707    19.231756    7732.9166    8777.1694    8207.0993    8042.3366    210.37485    255.30422    433.54265   -4013.0908 
31006000    112.74855   -5175.4656   -4949.9546   -5175.4656            0    6447.9616    17.690411    22.943995    19.180398    7785.1067    7324.3842    6375.8322    5643.6685   -510.94264    746.99429    -1634.174   -4217.8673 
31007000    105.84963   -5169.4374   -4957.7251   -5169.4374            0    6808.9534    17.895001    22.621257     19.20265    7773.3751     6196.172    6886.2129    7344.4753    189.05063    108.07768    538.92142   -4185.8165 
31008000     110.3642   -5177.9102   -4957.1682   -5177.9102            0    6801.4001    17.849249    22.752353    19.141584    7773.6349    7777.7689    6253.9457    6372.4858    586.97351    19.282402    818.72717   -4186.0901 
31009000    111.04681   -5167.2095   -4945.1021   -5167.2095            0     5904.909    17.816247    22.956734    19.039141    7787.0632     5642.385    4857.3186    7215.0234    172.93728   -643.99472    283.50007   -4274.5033 
31010000    105.60512   -5165.5187   -4954.2955   -5165.5187            0    5895.6396    17.828312    22.622141    19.349705    7804.0178    6403.2674    5901.4203     5382.231   -114.23802   -435.70106    344.24818   -4283.2915 
31011000    104.06377    -5170.077   -4961.9366    -5170.077            0    6472.2899    17.941707     22.73221    19.135426    7804.4723    5997.4557    6670.7028    6748.7111   -83.867238    323.57533   -60.884912   -4225.2591 
31012000    112.44338   -5165.9939   -4941.0933   -5165.9939            0    6552.4046    17.733483    22.654432    19.368959    7781.3242    6894.0887    7207.8455    5555.2796    311.32588    563.65872    884.71423   -4197.5091 
31013000    111.16584   -5164.0924    -4941.747   -5164.0924            0    7563.6528    17.912004    22.818283     19.00477     7767.652      5478.11    7709.1976    9503.6508   -68.568016     350.1535    293.94544   -4084.9119 
31014000    110.82092   -5181.7352   -4960.0797   -5181.7352            0     6611.803    17.767504    22.704046    19.269199    7773.0836    6670.0196    7074.6559    6090.7336   -173.80525    605.37609    51.646239   -4210.5495 
31015000    110.18738   -5176.5522   -4956.1638   -5176.5522            0    7880.3452    17.896527    22.625058    19.129885     7745.881    8352.3868    8180.3304    7108.3183    -41.81345     198.3226   -977.61129   -4065.9549 
31016000    108.08362   -5169.3507   -4953.1701   -5169.3507            0    7033.9468    17.720357    22.828034    19.174484    7756.4798    6263.1896    7609.1525    7229.4984    600.47651    473.73731    868.74391   -4157.4879 
31017000    105.36406   -5165.2229   -4954.4817   -5165.2229            0    7357.2859    17.862934    22.709526    19.155749    7770.6976     6355.815    7384.4131    8331.6295    832.71263    731.50559    -510.8333   -4120.6978 
31018000    106.35715   -5182.0371   -4969.3096   -5182.0371            0    5886.3848    17.882687    22.683672    19.219613    7796.3402    4492.9678    6608.7264      6557.46   -245.49266    208.65467   -224.69765   -4300.0181 
31019000    105.88709   -5169.8997   -4958.1124   -5169.8997            0    6191.1537    17.868241    22.830957    19.074439    7781.3991     6865.408    5550.1696    6157.8836   -487.62347    15.726021    425.87192   -4255.5172 
31020000    106.75559    -5174.117   -4960.5926    -5174.117            0    7052.4279    17.924156    22.685529    19.165858     7793.201    8043.6077    6737.7098    6375.9662    598.33903    440.99018    967.05959   -4159.0429 
31021000    103.08376   -5176.1234   -4969.9432   -5176.1234            0    5958.4314    17.877366    22.726981    19.194171     7798.564    6755.4503    5132.1364    5987.7075    994.14296   -471.02971   -231.41485   -4292.2666 
31022000    106.26412   -5169.7124   -4957.1711   -5169.7124            0    5853.2877    17.887227    22.778577    19.129921    7794.4018    6981.6917    5291.6016    5286.5698   -516.36147   -370.69627    7.9905263   -4291.8082 
31023000    104.01718   -5173.1046   -4965.0574   -5173.1046            0    7960.2814    17.803841    22.677052    19.190095    7747.7825    7356.0164    8228.8172    8296.0107    1064.4633   -27.475422    922.22275   -4065.5977 
31024000    112.83709   -5155.2611    -4929.573   -5155.2611            0    8596.9926    17.782864    22.755435    19.123772    7738.5644    7646.7441    8698.6385    9445.5953   -474.32338   -265.48224   -148.93897   -3959.3248 
31025000    110.38543   -5167.9544   -4947.1699   -5167.9544            0    5534.8796    17.936262     22.69022    19.216489    7820.6828    4429.6441    5834.7449    6340.2498   -8.6181939   -67.125337    277.09216   -4315.8801 
31026000    106.54698   -5159.2733   -4946.1662   -5159.2733            0    6326.2974    17.807772    22.796966    19.125472    7764.2374    6028.0433    6605.8382    6345.0108    586.92053   -245.15238    600.31453   -4229.8178 
31027000    108.85324   -5160.2521   -4942.5322   -5160.2521            0    6931.1425    17.925052     22.52248    19.241741     7768.211    6504.5653    7544.7273    6744.1348   -573.47023    297.83394   -233.01332   -4157.2934 
31028000     106.5836    -5178.897   -4965.7166    -5178.897            0    5928.5595     17.87762    22.806056    19.130447    7799.8278    6255.8495    5966.3894    5563.4396    1368.3704   -866.36481     1187.923   -4291.3282 
31029000     107.3512   -5168.0909   -4953.3753   -5168.0909            0     7424.441    17.758645    22.781622    19.188356    7763.0473    8309.0928    6812.3984    7151.8319    1024.2839    233.77219    1059.2111   -4112.8092 
31030000     110.1756   -5168.6396   -4948.2748   -5168.6396            0    6877.0289    18.004016    22.517947    19.223147     7793.323    5343.1536    8368.9919    6918.9413   -707.80567    230.54743    806.91455    -4166.648 
31031000    107.73094   -5158.0866   -4942.6114   -5158.0866            0    7059.3181    17.672117    23.070986     19.07939    7778.9185    7485.1561    6727.6631    6965.1351    465.10308    392.88419    269.83981   -4141.7491 
31032000    110.89296   -5173.6233   -4951.8237   -5173.6233            0    7142.6311    17.972352    22.643145    19.121378     7781.456    6379.2433    7491.1153    7557.5348   -306.92044   -136.78391   -1017.7948   -4141.2454 
31033000    107.59405   -5172.4818   -4957.2804   -5172.4818            0    6113.0687    17.834674    22.741106      19.2216    7795.9009    6949.4507    6019.2141    5370.5412    -975.7592     427.3805   -576.18412   -4262.2537 
31034000    102.62951   -5170.0851   -4964.8134   -5170.0851            0    7652.3677     17.92269    22.745389    19.048271    7765.1905    7959.2099    6665.7382    8332.1548    653.45578   -587.72366   -679.93429   -4098.2031 
31035000    106.03685   -5178.8908    -4966.804   -5178.8908            0    7616.3632    17.736902    22.729806    19.224841    7750.6164    7620.1812    7027.2416    8201.6667   -346.15575    94.465613   -9.2311843     -4105.89 
31036000    109.28579   -5188.3606   -4969.7755   -5188.3606            0    6077.8506    17.822132    22.804484    19.147469    7782.0012     5776.714    6034.9647     6421.873    78.150024   -88.967023    63.328853   -4279.9851 
31037000    105.42749   -5169.0649   -4958.1969   -5169.0649            0    5381.5726      17.9955    22.588591    19.208401    7808.0802    4518.6374    6437.5825     5188.498    41.961295    15.832722   -572.01207    -4345.382 
31038000     104.6597   -5165.8295   -4956.4972   -5165.8295            0    7370.9034    17.768565    22.785553     19.16936    7761.0333    7293.9156    8017.1499    6801.6448    195.20762    51.659367   -199.05056   -4122.2089 
31039000    104.78989   -5168.2291   -4958.6364   -5168.2291            0    6677.5907    17.857587    22.704751    19.180734    7776.8683    6744.8169    6864.2424    6423.7127    491.04255   -326.10435   -386.15393   -4201.2798 
31040000    106.10862    -5165.149   -4952.9186    -5165.149            0    7504.0192    17.918941    22.642949    19.121992    7758.5124    7305.2296    7097.6548    8109.1731   -101.18434   -502.07928    242.45765   -4103.8393 
31041000    107.17652   -5171.6747   -4957.3084   -5171.6747            0     7181.846     17.80297    22.769964    19.202661    7784.2399    6926.0077    7406.7214    7212.8088    977.14163     294.0907   -711.25194   -4141.9882 
31042000    104.25141    -5163.341   -4954.8253    -5163.341            0    7238.5992    17.849437     22.67607     19.19365    7768.7273    8173.0402    6671.4963    6871.2611   -666.60587   -1372.2301   -757.24464   -4134.6998 
31043000    109.80067   -5170.0583   -4950.4434   -5170.0583            0    5913.4566    17.916553    22.745253    19.160154    7808.0795    5078.6205    6021.0965    6640.6528    878.77497    395.29058   -390.26307   -4277.0614 
31044000    99.648734   -5168.0119   -4968.7021   -5168.0119            0    6871.2189    17.894088     22.70088    19.145415    7777.0887    5891.2694      7221.22    7501.1675    530.62655     60.57615   -283.69582   -4189.3625 
31045000    102.21058    -5177.487   -4973.0533    -5177.487            0    5444.8714    17.874511    22.657212     19.27021    7804.1762    6576.5165    5191.8981    4566.1996    159.47504   -383.12732   -8.1074696   -4353.3403 
31046000    103.55715    -5169.798   -4962.6709    -5169.798            0    8038.2254    17.831137    22.828568    19.044657    7752.3052    8534.1069    7497.4341    8083.1353     286.6255    96.349742    88.782228   -4053.8738 
31047000    107.55674   -5172.4193   -4957.2925   -5172.4193            0    7404.9077    17.921542    22.647404    19.145046    7770.5222     6875.349     7894.421    7444.9532    868.01377    504.36667   -666.64169   -4118.1307 
31048000    106.78788   -5178.1693   -4964.5804   -5178.1693            0    7099.3925    17.901639    22.673329     19.11847    7759.9913    6277.9989    7092.0264    7928.1524   -44.715964   -336.18299   -441.96363   -4161.1314 
31049000     110.1731   -5166.8026   -4946.4428   -5166.8026            0    7159.6974     17.72071     22.91865    19.096244    7755.6482    6154.2508    7406.6235     7918.218    124.97506   -295.94175    1067.2939   -4136.6225 
31050000    105.21115    -5174.896   -4964.4607    -5174.896            0    8228.0578    17.842133    22.685396    19.093576     7728.237     8462.317    7733.3877    8488.4687     -48.6494    239.59054     199.5441   -4037.0894 
31051000    109.70618   -5149.1116   -4929.6857   -5149.1116            0    7336.5481     17.84472    22.674699     19.20065    7769.0367    7521.6512     7547.579    6940.4142   -319.77484    -139.2622    425.70978   -4098.4296 
31052000    102.13089   -5166.8944     -4962.62   -5166.8944            0    7451.1183    17.812754    22.787678    19.109208    7756.6436    6915.8137    7522.1621    7915.3789    299.93122   -109.65281    365.79892   -4119.7294 
31053000    105.35264   -5180.9639   -4970.2456   -5180.9639            0    7628.5466    17.867942    22.616552    19.177393    7749.8001    8084.9055    8010.7089    6790.0252   -1414.2337    30.774883   -484.15239   -4108.0453 
31054000    108.04567   -5158.9694   -4942.8647   -5158.9694            0    6970.7789    17.904626    22.763708    19.092684    7781.7134    6640.0933    6433.5595    7838.6837    751.00713     121.3624     7.322703   -4151.7628 
31055000     107.7739   -5159.5781   -4944.0169   -5159.5781            0    8923.1585    17.780701    22.753662    19.114508    7733.2722    9676.1444    8162.8909      8930.44    695.01997    266.74053    665.49366   -3937.6467 
31056000    109.68679   -5158.1565   -4938.7693   -5158.1565            0    7218.7452    17.988139     22.56975    19.150141    7774.7236    5710.1997    8454.0742    7491.9616   -6.9413422    291.41323   -1145.7551    -4120.262 
31057000    104.45604   -5177.3963   -4968.4713   -5177.3963            0    7431.0117    17.811137    22.775228    19.101956    7748.7601    7639.8948    7368.3161    7284.8241    1110.1808    15.842615    340.81005   -4128.7096 
31058000    103.90252   -5166.0254   -4958.2075   -5166.0254            0    7358.6336    17.869811    22.535019    19.301828    7772.7794    7432.7496     8028.711    6614.4403   -1272.9742    -200.6656   -459.97465   -4124.0475 
31059000    109.27641   -5178.1304   -4959.5641   -5178.1304            0    6158.0273    17.827719    22.867094    19.105403    7788.6638    5671.2076    6865.5529    5937.3214    569.92569    291.07768    314.77565   -4260.0758 
31060000    107.72501    -5174.367   -4958.9037    -5174.367            0    6433.1494    17.864959    22.703135    19.166302    7773.6713    6727.3966    6968.4369    5603.6147   -1098.9898    114.81747    52.140757    -4229.571 
31061000    106.46966   -5161.7687   -4948.8162   -5161.7687            0    6651.1119    17.933324    22.670143    19.128693    7776.7893    6404.3717    6695.3607    6853.6032   -660.71249   -410.34329    624.99343   -4194.4704 
31062000    115.66576    -5164.663   -4933.3172    -5164.663            0    7875.1201    17.806436     22.73359    19.159164    7755.7103    8168.8751    7365.3904    8091.0948   -357.12801   -443.78792   -58.363703   -4042.5696 
31063000    109.70201   -5164.7977   -4945.3802   -5164.7977            0    7162.5763    17.879614    22.700025    19.167645    7779.5275    7518.6104    6784.7188    7184.3998   -1596.7404    -257.5853    433.64811   -4132.7398 
31064000    106.79991   -5174.1351   -4960.5221   -5174.1351            0    7544.1695    17.848291    22.685993    19.180407    7766.2657    6476.0338    7411.1867    8745.2881    253.87934   -664.84438    738.81697   -4106.0467 
31065000    103.62493   -5169.6682   -4962.4055   -5169.6682            0    7488.5853    17.852444     22.60304    19.229059    7759.2999    6300.3958    8044.9337    8120.4264   -279.22581   -32.850052    761.99074   -4114.9865 
31066000    109.92094    -5159.593   -4939.7376    -5159.593            0    7561.2464    17.849856    22.669221    19.187056    7763.8952    7982.3642    7166.1273    7535.2477    26.499691     519.9656     837.3697   -4083.5894 
31067000    104.32274   -5172.8253   -4964.1669   -5172.8253            0    7034.1241    17.799153    22.751791    19.153247    7756.3487    6454.1604    7358.7103    7289.5017   -595.73003    204.02376   -1233.1858   -4168.4781 
31068000    108.46681   -5169.8086   -4952.8616   -5169.8086            0    7730.3039     17.78624    22.732174    19.155281    7744.8612    8952.3798    7548.0092    6690.5227   -195.64439    -287.3284    1133.8046   -4079.7172 
31069000    102.38138    -5177.964   -4973.1886    -5177.964            0    6131.1442    17.901568    22.683499    19.185247    7790.5568    6105.7807    5859.8072    6427.8446    264.68264   -593.08636    38.598978   -4276.5847 
31070000    106.02554   -5163.1056   -4951.0414   -5163.1056            0    6855.7055    17.842969    22.773243    19.136199    7775.8469    6270.4302    7206.2748    7090.4116     762.9516    42.754238   -187.10879   -4173.5856 
31071000    109.09787   -5176.6682    -4958.459   -5176.6682            0    6759.6072    17.924622    22.698227    19.166794    7798.1466    7523.2374    6285.7991    6469.7851    849.16132    307.58505   -187.25537   -4189.7026 
31072000    110.58333   -5158.1025   -4936.9222   -5158.1025            0      7036.29     17.80285     22.97103    19.076822    7801.4623    6312.7271    6854.2115    7941.9313   -976.30983    596.09057    265.21046    -4136.359 
31073000    104.23407   -5185.0053   -4976.5242   -5185.0053            0    6692.3074    17.921575    22.648957    19.173815    7782.7469    7394.5005    6640.4892    6041.9326   -314.02774    114.11244    604.23635   -4216.9247 
31074000    98.811429   -5168.6437   -4971.0086   -5168.6437            0    7513.4413    17.831591    22.649663    19.211979     7759.325    8044.9242    6847.4594    7647.9404   -343.85735   -660.97883    4.5636197   -4120.7741 
31075000    103.85415   -5172.9262   -4965.2051   -5172.9262            0    5909.0584    17.861503    22.874347    19.089581    7799.4338    6646.6473    5251.5618    5828.9661    1463.3255    -163.6756   -805.35598   -4293.0689 
31076000    108.49509    -5169.789   -4952.7855    -5169.789            0    6924.6774    17.916006      22.5067    19.289019    7777.9146    7747.3257    6608.8378    6417.8686   -1246.4044   -546.09867    860.82719   -4167.2992 
31077000    102.41577   -5183.7119   -4978.8677   -5183.7119            0    5744.3689    17.831552    22.797647    19.186784     7799.762    5383.3327    5698.0093    6151.7646    652.18003    389.93831    563.81238    -4325.437 
31078000    114.83493   -5168.2574   -4938.5734   -5168.2574            0    7638.6644    17.911874    22.517078    19.227286    7754.8083    7372.4037    7380.2138    8163.3756    910.81128      296.845    134.78945   -4074.6716 
31079000    108.37931   -5182.7015   -4965.9294   -5182.7015            0    5249.4824    17.802957    22.969009    19.077636     7801.156    5502.2567    4501.4668    5744.7238   -1077.9491   -421.16415   -106.87551   -4368.6861 
31080000    108.59671   -5165.7027   -4948.4958   -5165.7027            0    5744.4554    17.914607    22.661394    19.228667    7806.2613    6143.8042    5687.8797    5401.6821    640.60605    -875.7832    1307.1933   -4294.5108 
31081000    107.42094   -5167.0937   -4952.2386   -5167.0937            0    7053.7242    17.835164    22.784683      19.0965    7760.2173    7735.8286    6773.7669    6651.5772    582.32165    43.196816   -10.164973   -4153.9347 
31082000    103.56544   -5171.4748   -4964.3311   -5171.4748            0    8333.0633    17.802354    22.753823    19.096929    7735.6238     8057.893    8960.0194    7981.2774    643.95609    1340.3242   -189.28581   -4024.2271 
31083000    106.33923    -5168.181   -4955.4894    -5168.181            0    6618.1467    17.934034     22.60377    19.243848    7801.0087    7280.5513    6372.5183    6201.3705   -177.33725    242.81253   -499.61365   -4202.5448 
31084000    113.21888   -5167.0866   -4940.6348   -5167.0866            0    5908.4548    17.861171    22.846306    19.093159    7791.1883     5577.081    5610.5274    6537.7559   -123.70095    114.66074   -154.22399   -4269.2778 
31085000    105.73822   -5173.0818   -4961.5923   -5173.0818            0    7500.8434    17.846691    22.561149    19.268977    7758.4966    7685.0786    8178.8153    6638.6365   -36.094097    513.83403    24.797361    -4112.874 
31086000     105.4473    -5172.625   -4961.7174    -5172.625            0    7905.7441    17.853454    22.611567    19.190483    7747.0939     7310.939    8167.5544     8238.739    411.32418    404.03142   -334.96919   -4068.4994 
31087000    105.27476   -5172.2323   -4961.6697   -5172.2323            0    6495.2242    17.802652    22.681995    19.248323    7772.4665    7163.9138    6795.3081    5526.4508    -895.4878   -54.657958   -863.08935   -4225.4136 
31088000    109.86343   -5175.3514   -4955.6109   -5175.3514            0    7206.6211    17.847049    22.785374    19.071232    7755.3485     6938.921    7508.2509    7172.6913   -539.02374    383.52521   -10.064931   -4140.5147 
31089000    100.17812   -5175.1771   -4974.8085   -5175.1771            0    7330.6541    17.853126    22.620423    19.193166     7751.069    7692.4931    7224.8643     7074.605   -457.51222   -974.26746   -45.825904   -4146.1411 
31090000    103.35451   -5169.8532   -4963.1314   -5169.8532            0    6141.2497    17.850062     22.83541    19.106987    7788.2655     6369.979    5520.4369    6533.3333   -53.895759    -86.32354   -319.89116   -4265.5845 
31091000    105.24225   -5177.6621   -4967.1646   -5177.6621            0    6193.9344    17.907611    22.713187    19.160272    7793.2279    4858.5832    6716.7787    7006.4412     708.2777    222.60801    304.62565   -4263.1854 
31092000    104.90873   -5173.0532   -4963.2228   -5173.0532            0    5642.3621    17.848203    22.763908    19.213342    7806.2819    5067.8603    5612.5527    6246.6735   -1315.2959   -395.61107   -841.52717   -4320.8589 
31093000    114.71445   -5177.8675   -4948.4245   -5177.8675            0    7247.7475    17.837989    22.779969    19.121028    7769.8074    7622.0195    6848.4228    7272.8004     1253.141   -199.11263     205.1671   -4127.1483 
31094000    105.25043   -5168.6019   -4958.0881   -5168.6019            0    6865.4901    17.960805    22.610634    19.169475    7784.8232    6673.3431    7233.9603     6689.167     622.5086    536.34192     133.4753   -4178.6239 
31095000    100.36294    -5174.068   -4973.3298    -5174.068            0    6809.3446    17.695462    22.984376    19.093827    7765.8252    6751.5078    6529.2145    7147.3115      243.894    661.77009   -1300.5723   -4202.1266 
31096000    109.92909    -5172.609   -4952.7372    -5172.609            0    7109.7346    17.946833    22.573708    19.186985    7773.1574    5972.3286    7247.7914    8109.0837   -367.78606   -193.97093   -1272.3824   -4146.7527 
31097000    105.84859   -5171.9896   -4960.2793   -5171.9896            0    6520.7942     17.91079    22.787299    19.067157    7782.0411    5995.5278    6959.8002    6607.0548    -389.0338    890.74673     1076.128   -4220.2142 
31098000      98.4955   -5158.8202   -4961.8171   -5158.8202            0    6057.3317    17.891119    22.678712    19.247846    7809.7659    5700.6141    6750.6135    5720.7674     851.3315   -340.13846    967.82556   -4271.9026 
31099000     109.3963   -5180.7697   -4961.9636   -5180.7697            0    7217.1035    17.922684    22.713471    19.124283    7785.2351    7188.3014    7211.2903    7251.7189     315.9519    624.64544   -342.14215    -4142.536 
31100000    104.91986    -5170.056   -4960.2033    -5170.056            0    6086.4898    17.846735    22.817879    19.134182      7791.91    6669.4762    5952.6882    5637.3051    539.66614   -204.81337    209.11972   -4268.5528 
31101000    103.67017   -5179.8063   -4972.4532   -5179.8063            0    7243.7367    18.002064     22.55852    19.130405    7768.8556    6773.7677     7473.639    7483.8033    151.38359    1.8350648   -907.70779   -4151.7321 
31102000    103.56639   -5161.7535   -4954.6079   -5161.7535            0    7401.7955    17.780913    22.811248    19.132195    7760.1109    7650.5568     6735.713    7819.1167   -216.59724    -713.6968    615.15983   -4116.9226 
31103000     104.8106   -5162.5192   -4952.8851   -5162.5192            0    6026.7262    17.904223    22.718955    19.187576    7804.8389     6381.179    5791.1358    5907.8638    1133.7504    280.43307   -552.55441   -4266.8895 
31104000    105.97246   -5163.5676   -4951.6096   -5163.5676            0    6667.9493    17.906317    22.582107    19.220386    7772.0008    7295.0474    7160.4583    5548.3422   -649.44378    743.26092    195.11823   -4195.8199 
31105000     112.2739   -5164.4379   -4939.8763   -5164.4379            0    6059.8349       17.991    22.660087    19.162757    7812.2276    5115.3217    6287.0595    6777.1236   -267.20088   -12.091015   -844.08846   -4249.4591 
31106000     102.0641    -5173.346   -4969.2052    -5173.346            0    6393.8414    17.660729    23.101051    19.066869    7778.9281    6864.1969    5218.2741    7099.0531    277.47549   -557.07879    344.60045   -4243.8387 
31107000    105.46463   -5168.5325   -4957.5902   -5168.5325            0    5918.2086    17.957048    22.623623    19.188736     7795.491     5242.625    5837.5738    6674.4271    -70.89944   -667.75437    64.566658   -4284.7536 
31108000    105.83723    -5160.132   -4948.4445    -5160.132            0    7922.4095    17.861822     22.75679    19.083106    7756.8578    7763.7686    8526.4923    7476.9677   -412.43753    946.56876    158.68266   -4052.2154 
31109000    107.96601   -5174.4158   -4958.4704   -5174.4158            0    7159.1415    17.808246    22.680447     19.20718    7757.7601    8905.5911    6887.9921    5683.8414    875.02887   -931.52507    428.34972   -4148.4925 
31110000    110.65289   -5165.9023   -4944.5828   -5165.9023            0    8241.1806    17.865043    22.654649    19.129867    7742.3597    8226.0686    8273.6697    8223.8036    14.391153   -321.76147    170.44659   -4014.0351 
31111000    112.10127   -5166.7485   -4942.5321   -5166.7485            0    6495.6745    17.793515    22.861487    19.161444     7794.611     6963.056    5774.8107    6749.1568     257.3045    299.64523    704.88176   -4204.1272 
31112000    106.07139   -5168.4662   -4956.3103   -5168.4662            0     6350.974    17.930559    22.606187    19.234028    7796.3508    7167.4653    6101.3553    5784.1012   -949.06235   -489.92175   -963.98516   -4234.1932 
31113000    108.47181   -5180.5173   -4963.5602   -5180.5173            0    6456.3194    17.776235    22.887362    19.107045    7773.7224    7208.9216    5878.7579    6281.2788   -515.47513   -280.88067    810.22991   -4231.5959 
31114000     111.1892   -5173.9662    -4951.574   -5173.9662            0    6713.1563    17.836151     22.72981    19.205599    7786.1866    8450.9659    6119.5284    5568.9747     1118.724   -278.08364    561.15539   -4189.2713 
31115000    99.271067   -5152.6376   -4954.0833   -5152.6376            0    7876.3682    17.874808    22.576657    19.168298    7735.4321    7379.3082    9064.5991    7185.1973   -590.99437    862.49064    191.00531   -4065.5238 
31116000    103.69202   -5174.9212   -4967.5244   -5174.9212            0    6006.8588     17.89214    22.821022    19.072221    7787.5106    6196.2243    5873.0724    5951.2797    1018.7944    186.28421   -603.89588   -4285.3083 
31117000    102.07446   -5170.8301   -4966.6686   -5170.8301            0    7596.9053    17.780532    22.764447    19.129691    7743.0101    7717.7635     7827.239    7245.7135   -1224.0134    503.71969   -370.11539   -4108.7967 
31118000    106.36194   -5178.6409   -4965.9039   -5178.6409            0    6867.7276    17.855394    22.641802    19.182625    7755.1191     7503.493     6194.341    6905.3488    280.33215   -1133.6821   -701.10518   -4189.1608 
31119000    105.59351   -5180.1107   -4968.9106   -5180.1107            0    6975.7563    17.857851    22.823054    19.056129      7766.72    7194.2613    6262.3843    7470.6232   -985.53182   -464.46612    46.684634   -4178.7692 
31120000    104.67453   -5171.9919   -4962.6299   -5171.9919            0    6160.9159    17.930006    22.605405    19.254791    7804.2562    7348.5115    5283.1242     5851.112   -457.36967   -946.13656   -1006.7597   -4261.4125 
31121000    106.56904   -5174.2749   -4961.1237   -5174.2749            0    8042.1513    17.793293    22.819471    19.037931    7730.0384    7637.2133    8097.4046    8391.8362   -230.43581     340.0242    92.520701   -4054.4943 
31122000    109.71066   -5161.0738    -4941.639   -5161.0738            0    8254.1227    17.826356    22.689943    19.116421    7732.1908    8734.3344      8322.42    7705.6138   -26.343423    170.73744   -554.05812    -4010.854 
31123000    108.21287   -5171.9023   -4955.4632   -5171.9023            0    7857.5604     17.87768    22.640242     19.10606    7733.2734    7729.4298    8158.3419    7684.9095   -193.14296    109.33271   -517.27462    -4069.273 
31124000    104.93216   -5160.5895   -4950.7123   -5160.5895            0    7562.6999    17.679842     22.67909    19.338931    7754.1907    9338.6129    6452.7117    6896.7752    159.88879   -853.81187    71.170209   -4095.4698 
31125000    108.80452   -5166.3255    -4948.703   -5166.3255            0    6653.2486    18.011724    22.620856    19.096723    7780.7803    5711.4164    6839.6383    7408.6911   -523.10432    231.89919   -839.43191   -4193.7276 
31126000    104.54396   -5173.0429   -4963.9421   -5173.0429            0    7881.8422    17.762447    22.724317    19.213794    7755.4457    8275.9875    7914.3942    7455.1449    51.092145     434.3224    612.98872   -4072.4646 
31127000    103.10944    -5171.878   -4965.6464    -5171.878            0    6769.3318    17.864318    22.686436    19.166313    7767.6797     7048.404    7223.8423    6035.7491   -1228.1625    -364.8462   -223.48335   -4198.7918 
31128000    102.20791   -5176.1608   -4971.7323   -5176.1608            0    5557.4428    17.853969    22.639206    19.346805    7819.9728    5786.9588    5961.9857     4923.384    716.16291    472.83864   -859.10585   -4337.9266 
31129000     106.8771   -5152.9364    -4939.169   -5152.9364            0    6385.2663    17.847867    22.998784    19.003993    7800.7443    6786.6883    5428.6119    6940.4987    352.08378   -760.08838    599.08326   -4212.7437 
31130000    105.15778   -5185.7926    -4975.464   -5185.7926            0    6113.5325    17.866347    22.667522    19.252511    7796.9939    5292.0162    6466.4531    6582.1282    496.76922    520.62738     530.5745   -4280.2872 
31131000    103.42296   -5179.8836   -4973.0249   -5179.8836            0    6415.0942    17.788591     22.77411    19.192947    7775.4338    7080.9791    6062.7897    6101.5139    115.10603     437.7825    -156.2702   -4245.5742 
31132000    111.67805   -5174.4875   -4951.1176   -5174.4875            0    5170.0743    17.927352    22.827623    19.114895    7822.5575    4548.7476    5281.6916    5679.7836   -933.29215   -417.23181   -759.82649   -4361.2949 
31133000    108.54203   -5166.8873   -4949.7898   -5166.8873            0    7341.3222    17.881379    22.589986    19.256553    7778.4942    8261.0037    7488.5171    6274.4457    510.73702    33.561522   -555.73383   -4116.9803 
31134000    103.72802    -5173.838   -4966.3691    -5173.838            0    6671.3724    17.920638    22.804622    19.001299    7765.3249    6001.8861    6746.3933    7265.8378   -619.40341   -85.131309    851.75305   -4210.8409 
31135000    102.86781   -5170.3271   -4964.5787   -5170.3271            0    6675.5381    17.786131    22.644198    19.302483    7774.1268    8287.0489    6214.8516    5524.7137    225.05643    5.3659418    -845.0046   -4207.7218 
31136000    108.44137   -5165.5372   -4948.6411   -5165.5372            0    6755.5862    17.985844    22.752143    19.028983    7786.9739    5181.0034    7130.6503    7955.1049      480.974     866.3799    359.71958   -4181.4427 
31137000    101.14985   -5165.2075   -4962.8953   -5165.2075            0    7115.5926    17.904523     22.64066    19.168213    7770.2227    6568.4594    7049.3767    7728.9416     120.4552   -322.71224   -403.95716   -4156.5512 
31138000    102.53769   -5165.5595   -4960.4714   -5165.5595            0     6403.803    17.880975    22.774346     19.12929    7789.9733    6260.5115    6136.1963    6814.7012    851.10733   -1280.6396    12.888828   -4232.9432 
31139000     102.8697   -5178.4789   -4972.7268   -5178.4789            0    6678.8792    17.899335    22.695824    19.152604    7780.5569    6458.4362    6618.2014    6959.9999    503.36995   -85.036703    519.40946   -4214.8647 
31140000    109.46115   -5170.3098   -4951.3739   -5170.3098            0     7606.044    17.888243    22.562097    19.215929    7755.4776    8089.4107    7474.7767    7253.9446    -262.8132   -171.13518    100.40593   -4091.0871 
31141000    105.84922   -5167.1633   -4955.4518   -5167.1633            0    7854.7316    17.772396    22.773073    19.117213    7737.3492     7945.977    7471.9025    8146.3154   -267.39841   -1082.8874   -324.81636   -4069.1137 
31142000    104.16337    -5171.284   -4962.9444    -5171.284            0    5547.4776    17.970019     22.64667    19.244923    7831.9347    5518.9471    5196.5848     5926.901   -172.08239   -166.30081   -844.51417   -4329.3075 
31143000    104.38478   -5173.6993   -4964.9168   -5173.6993            0    7489.5941    17.773925    22.776507    19.175333    7762.7107    7932.3036    7388.8054    7147.6733      452.744    223.94696    942.52132   -4117.0111 
31144000     105.5998   -5170.7469   -4959.5342   -5170.7469            0    5556.6318    17.918315    22.748199    19.150426    7805.8938    5190.7834    5425.2557    6053.8562    531.99023   -676.57603   -443.44821    -4326.962 
31145000    104.23798   -5171.6988     -4963.21   -5171.6988            0    6404.4067    17.933128     22.55641    19.266971    7793.6242    6589.2388    7175.8209    5448.1606   -847.31576    228.47897   -1011.6239   -4235.2722 
31146000    107.68211   -5178.3442   -4962.9667   -5178.3442            0     6421.851     17.74633     22.95339    19.104571    7782.0261    6113.2381    6132.4066    7019.9083     551.6803    1166.0225    1162.6567   -4234.1324 
31147000    102.41839   -5176.0873   -4971.2379   -5176.0873            0    7170.2716    17.976604     22.51967    19.161384     7757.049    6148.1918    7261.7676    8100.8555    1414.2392    102.54504    342.91794   -4160.0751 
31148000    104.15911   -5167.5425   -4959.2114   -5167.5425            0    8424.5106    17.859445    22.602066    19.138451    7725.4339    7861.6974    8665.8517    8745.9829    126.90335    457.75865    1087.0345   -4010.0426 
31149000    107.89089    -5158.957   -4943.1618    -5158.957            0    7883.1691    17.772491    22.855966    19.062851    7743.4723    8088.9862    7769.0436    7791.4775   -794.14675    1097.2942   -148.18481   -4052.9108 
31150000    100.43613    -5161.941   -4961.0563    -5161.941            0    7181.9679    18.052649    22.480276    19.133083     7764.751     4862.375     7846.391    8837.1376   -104.18119   -63.816289   -168.75764   -4147.7636 
31151000    108.80172   -5158.4627   -4940.8458   -5158.4627            0    6427.7058    17.813658     22.88545    19.096739    7785.2361     6803.974    6613.3015    5865.8418   -1168.8359    637.27502   -174.05267   -4211.0461 
31152000    103.57769   -5166.9537   -4959.7855   -5166.9537            0    6058.1916    17.981972    22.649658    19.164331    7805.3543    6231.6311    6670.5544    5272.3893   -51.406409    36.851116   -1034.6711   -4270.1628 
31153000    107.43104   -5167.9032   -4953.0279   -5167.9032            0    6105.7671    17.809676     22.75516    19.244479    7799.0563    6571.5578    5688.7247    6057.0188     1078.417   -451.82402     121.1473   -4258.5504 
31154000    104.69854   -5171.9828   -4962.5728   -5171.9828            0    6726.4337    17.851924    22.733447    19.149059    7771.3731     6942.242    6578.2137    6658.8453   -188.83455   -282.46904   -849.78266   -4200.2156 
31155000    105.05144   -5178.8905   -4968.7747   -5178.8905            0    6330.6568    17.941025    22.668273    19.176916    7799.0995    6112.3079    6374.9194     6504.743   -460.45048    99.195008    -40.20534    -4248.714 
31156000    104.29137   -5178.5544   -4969.9587   -5178.5544            0    7451.7102    17.879793    22.578983    19.228144    7762.5468     7527.422     7634.387    7193.3215    591.06339    256.28333    73.810551   -4126.3597 
31157000     106.0208    -5172.914   -4960.8593    -5172.914            0    7013.7876    17.806156     22.84647    19.125925    7780.5755    7373.8467    7157.1553    6510.3609   -311.17506   -150.45056    1468.8872   -4164.9928 
31158000    104.21882   -5178.0969   -4969.6464   -5178.0969            0    7286.2212    18.009088    22.475211    19.186886    7766.0466    6742.5099    8169.3137    6946.8399    143.22209    744.90034    1004.4438   -4144.4103 
31159000    104.20194    -5174.743   -4966.3263    -5174.743            0    6457.8918    17.800434    22.794229    19.133661    7763.4285    6216.9832    7373.6118    5783.0804    326.19302    331.24346   -374.31094   -4235.1532 
31160000      111.914   -5176.2874   -4952.4455   -5176.2874            0    7298.1708     17.83875    22.737441    19.134755    7761.2006    7239.6858    6914.7883    7740.0382   -383.62851   -157.61948    836.75383   -4126.3718 
31161000    100.87452   -5171.3604   -4969.5988   -5171.3604            0    6573.0859    17.962368    22.613105    19.181583    7791.2695    6082.1626    6472.1583     7164.937   -956.55355   -75.854542   -33.093238   -4222.7144 
31162000    105.21423    -5171.972   -4961.5306    -5171.972            0    6146.3994    17.830453    22.801694    19.173435    7795.2385    6414.0128    6466.2766    5558.9088   -137.67021    1171.3698    875.07779   -4262.7737 
31163000    103.74102   -5164.6224   -4957.1275   -5164.6224            0    8117.9689    17.851157    22.687219    19.069578    7723.0478    7571.2289    7491.0509    9291.6268   -235.15577   -606.91463    146.87601   -4042.7785 
31164000    110.61395   -5184.9043   -4963.6627   -5184.9043            0    6227.6498    17.833515    22.708573    19.194877    7773.4198    6908.2156    5644.8707     6129.863    60.193236   -549.04265   -174.23704   -4257.6505 
31165000    103.87441   -5167.3967   -4959.6351   -5167.3967            0    7551.1656    17.929636    22.697576    19.057639    7755.6828    7529.6434    7463.8833      7659.97    421.02077    676.09539     297.3079   -4105.5327 
31166000    109.34234   -5161.9791   -4943.2809   -5161.9791            0    6109.5449    17.903683     22.67934    19.231688     7808.906    5312.9299    5271.9311    7743.7738   -593.77384   -420.65664    529.06107   -4247.4961 
31167000    104.52509   -5169.0216   -4959.9585   -5169.0216            0    7252.2889    17.735611    22.841649    19.151361    7758.4191    6568.4803    7582.2346    7606.1517    891.34567     50.88475    215.35825   -4139.3722 
31168000    103.63897   -5157.7686   -4950.4779   -5157.7686            0    6140.6358    17.937008    22.703839    19.155449    7800.8448    4874.1857    6745.5802    6802.1415   -679.66544    67.868921    296.77363   -4251.8742 
31169000    111.05102   -5162.7328    -4940.617   -5162.7328            0    7882.8716    17.920524    22.523264    19.241979    7766.6145    6151.7388    8974.9629     8521.913    -151.7839    623.32237    735.38522   -4047.7391 
31170000    104.16894   -5166.9816   -4958.6309   -5166.9816            0    6481.0803    17.792173    22.856888    19.168733    7795.4198    7257.2836    6719.1287    5466.8287   -432.38875   -167.99859   -361.39883   -4221.8085 
31171000    107.41315   -5166.9872   -4952.1477   -5166.9872            0    7720.2065    18.003401     22.45144    19.195182    7758.7362     6729.379     8213.866    8217.3747   -1114.8225    376.69373   -1234.5364   -4078.5815 
31172000    103.98893   -5173.4312   -4965.4405   -5173.4312            0    7631.5878    17.868554    22.851775    18.988328    7753.4694    8107.7224     7096.626    7690.4149    302.67777    56.297958    3.3217487   -4102.4881 
31173000    105.56472   -5180.8012   -4969.6587   -5180.8012            0    8198.9989    17.818839    22.673729    19.142075    7733.7721    8165.8292    8136.0322    8295.1353    63.273002    603.98939    630.23094   -4044.9008 
31174000    105.05567   -5174.7069   -4964.5826   -5174.7069            0     6471.761    17.885768    22.780777    19.118047    7789.6807    5712.4785    7213.4132    6489.3914    1059.9337    1035.0475    37.584342   -4229.3614 
31175000    103.40077   -5164.7632   -4957.9488   -5164.7632            0    7254.7313    17.832227    22.781221    19.063131    7744.2044    8305.3397    6257.9586    7200.8956   -874.05133   -219.34715    974.14609   -4138.5902 
31176000    110.50292   -5183.0236   -4962.0041   -5183.0236            0    6551.6763    17.952844    22.511955    19.222162    7768.7066    5633.7333    7497.1594    6524.1363   -615.35294    678.54355   -930.93477   -4219.7082 
31177000    110.58554   -5170.1785   -4948.9937   -5170.1785            0    5853.4517    17.817907    22.871127      19.1325    7796.7923    6875.4297    5775.1049    4909.8204     438.3391    603.58715    2221.7315   -4283.4082 
31178000    109.31448   -5175.0423   -4956.3998   -5175.0423            0    6253.5781    17.862945    22.677959    19.281933    7811.0174     6532.347    6348.7193     5879.668    11.825978    157.08052    164.84891   -4244.0193 
31179000     104.9488   -5162.1754   -4952.2648   -5162.1754            0    6676.6484    17.958205     22.64575    19.151314    7788.3993    6607.8122    6696.8877    6725.2454    226.51924    475.91614   -208.35893   -4193.8922 
31180000     103.4336   -5157.4222   -4950.5423   -5157.4222            0    8205.7635    17.772622    22.692299    19.198223    7742.6753    7974.1755    8207.8559    8435.2589    98.636486      313.963    579.17114   -4023.9558 
31181000    104.77135   -5171.4506   -4961.8949   -5171.4506            0    7128.5778     17.86478    22.686726    19.147002    7760.1529     7681.549    7014.3683    6689.8161    423.65315   -1089.9096    574.24541   -4155.1262 
31182000    109.98545   -5175.4547   -4955.4702   -5175.4547            0    7279.6331    18.032962    22.622079    19.025894    7761.4823    5456.2829    7474.8348    8907.7815    1002.6011    141.47257    211.98851   -4131.4649 
31183000     108.1092   -5179.8211   -4963.5893   -5179.8211            0    7970.1321    17.753508    22.833953    19.071826    7731.3895    7640.5051    8213.5494    8056.3417   -706.23442   -118.25609   -767.72149    -4064.922 
31184000    100.61686   -5171.8826   -4970.6364   -5171.8826            0    7220.0962    17.876328    22.723983    19.127028    7769.8078    7233.9633    7596.1099    6830.2156    155.32728    544.61313    1567.7552   -4152.4935 
31185000    107.18671   -5159.5331   -4945.1465   -5159.5331            0    7267.8447    17.949363    22.642723    19.141765    7779.6431     5721.155     8239.338    7843.0411   -206.92192    695.18674   -11.424703   -4120.5505 
31186000    107.54035   -5169.5127   -4954.4187   -5169.5127            0     6178.312    17.788624      22.7667    19.245602    7794.2427    5558.1299    6273.8356    6702.9705   -427.74852   -269.75392   -231.05357   -4252.1236 
31187000    101.48441   -5168.6571   -4965.6758   -5168.6571            0    6866.1868    17.845558    22.804836    19.129533    7785.0511    5958.9196    6528.2495    8111.3913   -395.62805   -357.50379   -36.415875   -4186.1096 
31188000    103.92518   -5164.8405   -4956.9773   -5164.8405            0      5653.15    17.938664    22.671946    19.215319    7814.9549     6034.295    5794.2081    5130.9468    688.94875    501.96852    347.84825   -4312.6703 
31189000    104.77101   -5183.1267   -4973.5718   -5183.1267            0    5069.8085    17.937425    22.688997     19.17846    7805.2916    5116.0587    4602.2272    5491.1395   -468.32276   -661.78229    805.55417   -4396.4645 
31190000    109.60859   -5156.4808     -4937.25   -5156.4808            0    7996.6391    17.892716    22.837807    18.960835    7747.9734     7653.424    7770.6003    8565.8929   -11.273461   -452.13981   -53.500307   -4033.6598 
31191000    106.82741   -5171.0552   -4957.3872   -5171.0552            0    6461.0793    17.956955    22.637617    19.197314    7803.7595    6853.2182    5976.1268    6553.8931    -731.6747   -44.111145   -67.103259   -4222.0529 
31192000    106.79542   -5165.1736   -4951.5696   -5165.1736            0    8206.5714    17.830404    22.800895    19.070702    7753.1778    7842.7494    7932.6246    8844.3402   -505.32771    194.86924     565.7797    -4023.635 
31193000     106.0874   -5177.2621   -4965.0742   -5177.2621            0    5401.3879    17.932403    22.616928    19.280384    7819.6582    5940.5396    5999.1287    4264.4953    441.85819   -295.17195    -511.8582   -4349.0908 
31194000    108.94544   -5174.7906   -4956.8862   -5174.7906            0    6258.3166    17.882496    22.643604    19.263358     7800.199    6925.6061    6419.1085    5430.2352    581.12365    384.23633    1241.2307   -4244.9533 
31195000    104.28696   -5161.8576   -4953.2708   -5161.8576            0    7316.9952    17.827706    22.794091    19.089191     7757.205    7305.3192    7210.3063    7435.3601    343.88701    119.25117   -761.47286   -4125.4927 
31196000    103.15775   -5173.2366   -4966.9084   -5173.2366            0    6026.5681     17.90475     22.65683     19.19805    7787.9744    5697.5667     6661.753    5720.3845    77.194146   -537.41897      1276.47   -4282.4131 
31197000    111.04248   -5181.9855   -4959.8868   -5181.9855            0    6048.3678    17.863001    22.858812    19.106892    7801.8596    5354.4116    5827.5673    6963.1247    714.86921   -266.16653   -48.729272   -4271.6907 
31198000    103.31535   -5167.0068   -4960.3633   -5167.0068            0    6655.0845    17.907684    22.554178    19.266196    7781.4836    6333.7964    7494.3147    6137.1425   -1109.1375    -384.2444   -903.76598   -4205.1113 
31199000      107.126   -5163.1806   -4948.9153   -5163.1806            0    7003.0384    17.765107    22.782083    19.201137    7771.2021    8938.7178    6689.1371    5381.2602   -460.53119   -146.83591    126.70464   -4155.2259 
31200000    109.82731   -5181.0336   -4961.3654   -5181.0336            0    6885.2071    17.918054    22.718651    19.077116     7765.798     5777.237    7776.3938    7101.9906    710.17546    341.80926    109.83466   -4181.5731 
31201000    103.72484   -5166.5555    -4959.093   -5166.5555            0    6667.7795    17.860545    22.718073    19.177858    7781.5535    5399.0434    6686.3197    7917.9756   -468.15593    308.47998   -777.43734   -4202.3936 
31202000    103.51761   -5167.3407   -4960.2927   -5167.3407            0    6670.7524    17.917657    22.718964    19.138348    7790.6585    6216.7274    6491.2979    7304.2321     212.8822   -106.68204    -161.2854     -4202.37 
31203000    102.85306   -5169.0496   -4963.3308   -5169.0496            0    8334.5543    17.725951     22.69363    19.207176    7726.3971    8218.1726     8578.039    8207.4514   -435.32882    831.27888    157.02425   -4024.1801 
31204000    98.877762   -5170.6289   -4972.8612   -5170.6289            0    7360.9125    17.932718    22.556728    19.191969    7763.2175    6474.4183    8243.5131    7364.8062   -440.70664    396.48653   -121.99871   -4139.4692 
31205000    104.14557   -5177.8271   -4969.5231   -5177.8271            0      6747.53    17.868698    22.709651     19.12431    7760.4902    6700.0272    6330.9154    7211.6474    667.42948    310.20497   -790.93887   -4205.8458 
31206000    102.39651   -5171.9184   -4967.1127   -5171.9184            0    6300.8952    17.745744    22.767373    19.296115    7796.0931    7602.3669    6567.2558    4733.0629   -434.54821    656.67676   -176.54852   -4250.7134 
31207000     103.0286   -5163.4747   -4957.4048   -5163.4747            0    7322.6609     17.89801    22.684685    19.124889    7764.9098     6732.883    7298.8175    7936.2823     -728.055   -10.959078   -32.267356   -4128.1629 
31208000    107.74563   -5169.6722   -4954.1676   -5169.6722            0    5997.1181    17.920346    22.589763    19.281466    7805.4529    5924.1125    6618.6769    5448.5648    800.89607   -442.66884   -385.98113   -4271.4886 
31209000    106.99117    -5165.013   -4951.0175    -5165.013            0    7839.2603    17.715909    22.916369    19.056549    7736.6602    8103.5975    7749.2674    7664.9158   -305.04088    361.67905    145.76771   -4066.5039 
31210000    108.71212   -5167.6629   -4950.2252   -5167.6629            0    7056.0452     17.79641    22.801891     19.12379    7760.2774    6481.0659     7096.284    7590.7856   -408.04715   -322.26823   -1223.3776   -4151.6525 
31211000     105.1742   -5167.2142   -4956.8528   -5167.2142            0    6592.9799    18.011861    22.508738    19.201062    7784.5763         5171    7463.6479    7144.2918    112.51907    252.02461    1423.4752   -4208.3514 
31212000    104.35697   -5162.4875   -4953.7607   -5162.4875            0    7111.7025    17.743295    22.943824    19.069363     7763.119    7409.4652    6051.2079    7874.4343    260.38998    131.96325     342.6885   -4148.5941 
31213000    104.99568   -5166.3622   -4956.3579   -5166.3622            0    7611.5204    17.867594    22.608567     19.17914    7747.6185    7725.6428    8202.8347    6906.0838      394.474   -385.54133   -527.51501   -4096.3241 
31214000    107.03213    -5174.791   -4960.7135    -5174.791            0    7086.4095    17.956115    22.777625    19.007618    7774.0712    6085.1751    6941.2277    8232.8257   -441.75459   -122.73192    831.00201   -4157.2787 
31215000    100.32708   -5170.5861   -4969.9195   -5170.5861            0    8480.1551    17.705665    22.739594    19.165965    7716.5939    8449.2523    7994.3314    8996.8817    181.20726     218.3238    599.68057   -4015.5747 
31216000    105.91818   -5168.7066   -4956.8572   -5168.7066            0    7576.2311    17.937545    22.608107      19.1174    7752.7542    6448.8323    8040.2653    8239.5958    68.396526   -370.61861    -123.4599   -4100.2433 
31217000    103.97912   -5181.3735   -4973.4024   -5181.3735            0    6791.7668    17.738048    22.926839    19.154483    7789.6945    6677.6235    6451.7463    7245.9307   -92.805421   -375.78243   -733.35505   -4201.8258 
31218000    106.75319   -5165.3206    -4951.801   -5165.3206            0    6612.9184    18.018141    22.507459    19.189773    7782.2697    5757.2997    6203.3581    7878.0974   -898.40024   -505.02386   -418.38052   -4201.2585 
31219000     101.9659   -5163.4786   -4959.5342   -5163.4786            0    7263.2055    17.860994    22.733772    19.135722    7770.0173    7306.2798    6639.4377    7843.8991   -147.08091   -552.50864   -77.599616   -4136.4842 
31220000    108.20368   -5182.8481   -4966.4274   -5182.8481            0     7338.544    17.850266    22.748778    19.043514    7733.0332    7117.1242    6848.8282    8049.6794    892.02312   -385.31364    673.77142   -4138.7984 
31221000    100.89362   -5168.2044   -4966.4047   -5168.2044            0    7239.3363    17.899954    22.592261    19.206184     7766.989    7582.6528    7238.6192     6896.737   -375.26306   -54.631603   -1701.9625   -4146.3792 
31222000    98.707801   -5176.3053   -4978.8775   -5176.3053            0    6911.7837    17.845534    22.837702    19.124564    7794.2351    7215.6448    5790.3236    7729.3825    94.643473   -653.67638    534.72153   -4193.2086 
31223000    105.76659   -5185.5152    -4973.969   -5185.5152            0    6859.6807     17.86308     22.73733    19.138787    7773.3857    5863.3009    7157.2629    7558.4784   -45.484869    327.22769    333.39402   -4196.3085 
31224000     106.2151   -5173.5427   -4961.0993   -5173.5427            0    5670.5253    17.862256    22.600384    19.301759    7792.0012    6480.0779    6012.7235    4518.7745   -543.17762   -371.34465   -1076.8938   -4316.7102 
31225000     105.7268    -5175.464   -4963.9973    -5175.464            0    8022.7024    17.778961    22.709271    19.158212     7735.075    9611.4655     7071.534    7385.1077    1128.1144    325.63457    517.38605   -4058.9713 
31226000    105.22626   -5169.9565    -4959.491   -5169.9565            0    7321.3155    17.797261    22.605164    19.248351    7743.8042    8060.8078    8101.3425    5801.7963    234.03599    972.31228   -61.268906    -4132.655 
31227000    114.08191    -5158.115   -4929.9371    -5158.115            0    6641.0702    17.940632    22.804856    18.988864    7768.9808    6833.1224    6270.9863    6819.1019    441.48931   -1683.2463    680.30357   -4177.4865 
31228000    107.48319    -5162.369   -4947.3893    -5162.369            0    6202.3618     17.80251    22.798854    19.223599    7802.4132    5795.4081    6169.7187    6641.9588   -343.70816   -205.22862   -624.61911   -4241.6214 
31229000    107.01131   -5164.9397   -4950.9039   -5164.9397            0    6555.7821    17.973199    22.623531    19.120391    7774.6804    6263.2147     5990.543    7413.5885    851.86694   -191.81307   -118.24771   -4207.5717 
31230000    118.72196   -5174.1826    -4936.724   -5174.1826            0    8259.3739    17.728031    22.770265    19.139255    7725.9808    8419.7148    7896.4324    8461.9746   -662.59103   -91.492839    650.31136   -4006.0949 
31231000    110.42738   -5165.7948   -4944.9264   -5165.7948            0    6399.4909    17.878641     22.69572    19.141958    7767.2059     5946.407    6087.2877    7164.7779    1246.7476   -485.50321    1061.6352    -4220.013 
31232000    109.03976   -5173.5672   -4955.4742   -5173.5672            0    8095.3569    17.793437    22.723507    19.151411    7743.4764    7912.0695    8202.1152    8171.8862   -538.06249    1381.0529    150.09339   -4041.2602 
31233000    100.51126   -5169.0871   -4968.0521   -5169.0871            0    6793.5695    17.861297     22.74749      19.1465    7779.2167    7659.0468     6508.889    6212.7727    578.49885     47.34301    592.84371   -4197.3088 
31234000    105.38747   -5162.0846   -4951.2966   -5162.0846            0    5519.1483    17.842783    22.819095    19.164762    7803.0509    4747.6715    5219.0408    6590.7327    332.16994   -832.80085    478.68714   -4323.2203 
31235000    102.97516   -5178.1912   -4972.2282   -5178.1912            0    5537.9922     17.90441    22.701934    19.215646    7810.4824    4888.5071    6124.9247    5600.5448   -430.47055     600.5823    194.33637   -4341.4072 
31236000    106.15008   -5177.2872    -4964.974   -5177.2872            0    6456.8673    17.854248     22.69923    19.172077    7770.0148    6755.6961    6291.9847    6322.9211    125.10362   -897.89924   -145.77411   -4233.2966 
31237000    103.22982   -5170.2168   -4963.7445   -5170.2168            0     6626.043    17.887599    22.766584    19.101544    7778.9039    7233.0688    5686.6701    6958.3899   -636.38783    -825.9331   -1044.0509   -4212.0375 
31238000    103.45198   -5157.1634   -4950.2467   -5157.1634            0     7271.661    17.940587     22.44673     19.32664    7782.9829    7651.6896    7477.7595    6685.5339   -1008.3581   -470.17047    400.38185   -4124.8636 
31239000    111.22257   -5176.0438    -4953.585   -5176.0438            0    7221.2281    17.740853    22.889825    19.098372     7755.563    7834.0294    6619.7327    7209.9223    -610.5209   -526.69673    13.646351    -4136.814 
31240000    110.68067   -5173.0835   -4951.7085   -5173.0835            0    6758.7492    17.846345    22.742901    19.122764    7761.5029    6247.8559     6138.517    7889.8748   -557.71324   -799.07912   -402.45138   -4186.6616 
31241000    103.08247   -5171.4393   -4965.2617   -5171.4393            0    6585.3138     17.95382    22.593495    19.179769    7780.0726    5552.6403    7233.6503    6969.6509    1422.2899   -573.95025    1329.3555   -4218.0631 
31242000    104.90111    -5169.382   -4959.5668    -5169.382            0    7544.9914    17.785578    22.786594    19.151668    7761.6488    7770.9343    7130.4737     7733.566   -463.80787   -20.092589    619.93898   -4105.5064 
31243000    109.96856   -5170.5547    -4950.604   -5170.5547            0     4912.288    17.959613    22.663843    19.247758     7834.489    4079.9728    5638.1074    5018.7839    838.89295   -395.38234    1117.1782   -4389.3358 
31244000    108.01468   -5162.6194   -4946.5767   -5162.6194            0    7482.6215     17.77528    22.821957    19.108072    7751.5083    8748.9759    6918.4759    6780.4126   -289.72503   -1021.6734    875.47929   -4100.6828 
31245000    105.43626   -5156.5178   -4945.6323   -5156.5178            0    6809.7335    17.847832    22.634658    19.277078    7787.5461    7430.3151    6700.6488    6298.2365    289.57991    831.32011   -167.65357   -4172.2279 
31246000     109.6531   -5176.1369   -4956.8171   -5176.1369            0    7705.5654    17.910811    22.759169    18.989409     7740.751    7517.0462    7362.0303    8237.6198     116.7745    145.62255   -744.88464   -4086.9288 
31247000    104.16654   -5161.7427   -4953.3967   -5161.7427            0    7991.4298    17.746175    22.749408     19.16468    7737.0683    10152.163    7130.5441    6691.5818   -147.89849   -579.51812    39.344805   -4051.6661 
31248000    110.77576   -5173.8886   -4952.3234   -5173.8886            0    6191.9366    17.951379    22.585998    19.209954    7788.6725    5800.0828    7132.7279    5642.9991    -16.81468    856.43905    431.91611   -4248.9825 
31249000     104.2437    -5172.477   -4963.9768    -5172.477            0    7033.4501    17.759066    22.918694    19.054131    7755.3096    7130.4268    6859.5743    7110.3491   -320.41472     1014.564     15.02328   -4168.4708 
31250000    110.50589   -5167.6151   -4946.5897   -5167.6151            0    6203.2953     17.82054    22.632329    19.296695    7782.7496    7110.7531    6480.1414    5018.9914   -398.81611     234.8431   -533.65145   -4242.4945 
Loop time of 421.101 on 64 procs for 250000 steps with 1008 atoms

Performance: 102.588 ns/day, 0.234 hours/ns, 593.681 timesteps/s
195.7% CPU use with 32 MPI tasks x 2 OpenMP threads

MPI task timing breakdown:
Section |  min time  |  avg time  |  max time  |%varavg| %total
---------------------------------------------------------------
Pair    | 35.193     | 39.861     | 44.467     |  28.9 |  9.47
Bond    | 0.98853    | 1.1958     | 1.6688     |  11.2 |  0.28
Kspace  | 199.45     | 207.75     | 220.18     |  31.3 | 49.33
Neigh   | 1.0879     | 1.2154     | 1.4134     |   8.7 |  0.29
Comm    | 63.791     | 72.343     | 80.218     |  49.3 | 17.18
Output  | 0.5571     | 0.55745    | 0.55917    |   0.0 |  0.13
Modify  | 84.993     | 86.591     | 88.284     |   8.0 | 20.56
Other   |            | 11.59      |            |       |  2.75

Nlocal:        31.5000 ave          35 max          27 min
Histogram: 1 2 2 4 0 7 6 5 2 3
Nghost:        2941.81 ave        2965 max        2915 min
Histogram: 3 0 2 4 5 2 7 4 3 2
Neighs:        10735.3 ave       11951 max        9204 min
Histogram: 1 2 2 3 4 5 5 5 2 3

Total # of neighbors = 343530
Ave neighs/atom = 340.80357
Ave special neighs/atom = 2.0000000
Neighbor list builds = 2821
Dangerous builds = 0

unfix		3
unfix		2
unfix		1

write_data	data.final.${pid}
write_data	data.final.0
System init for write_data ...
PPPM initialization ...
  extracting TIP4P info from pair style
  using 12-bit tables for long-range coulomb (../kspace.cpp:340)
  G vector (1/distance) = 0.38005767
  grid = 24 27 32
  stencil order = 5
  estimated absolute RMS force accuracy = 0.002367437
  estimated relative force accuracy = 7.1294661e-06
  using double precision FFTW3
  3d grid and FFT values/proc = 5355 672
Last active /omp style is kspace_style pppm/tip4p/omp
WARNING: Not all mixed pair coeffs generated from mixing. Use write_data with 'pair ij' option to store all pair coeffs. (../write_data.cpp:312)

write_restart   restart.lmp.${pid}
write_restart   restart.lmp.0
System init for write_restart ...
PPPM initialization ...
  extracting TIP4P info from pair style
  using 12-bit tables for long-range coulomb (../kspace.cpp:340)
  G vector (1/distance) = 0.38005767
  grid = 24 27 32
  stencil order = 5
  estimated absolute RMS force accuracy = 0.002367437
  estimated relative force accuracy = 7.1294661e-06
  using double precision FFTW3
  3d grid and FFT values/proc = 5355 672
Last active /omp style is kspace_style pppm/tip4p/omp
Total wall time: 0:07:01
