LAMMPS (30 Jul 2021)
  using 1 OpenMP thread(s) per MPI task
package omp 0
using multi-threaded neighbor list subroutines
echo both

include		in.partitions
variable        pid world 0
include		in.temp
variable        temperature equal 267.96
variable	tempDamp equal 100.0
include		in.pressure
variable        pressure equal 9000.0
variable        pressureDamp equal 1000.0 # This is 1 ps
include		in.seed
variable        seed world 745823

units		real
atom_style	full
read_restart	restart.lmp.${pid}
read_restart	restart.lmp.0
Reading restart file ...
  restart file = 30 Jul 2021, LAMMPS = 30 Jul 2021
  restoring atom style full from restart
  orthogonal box = (-0.066553628 -0.17079712 -0.12773217) to (24.796555 24.900798 22.937732)
  4 by 4 by 4 MPI processor grid
  restoring pair style lj/cut/tip4p/long/omp from restart
  restoring bond style harmonic/omp from restart
  restoring angle style harmonic/omp from restart
  1920 atoms
  1280 bonds
  640 angles
Finding 1-2 1-3 1-4 neighbors ...
  special bond factors lj:    0        0        0       
  special bond factors coul:  0        0        0       
     2 = max # of 1-2 neighbors
     1 = max # of 1-3 neighbors
     1 = max # of 1-4 neighbors
     2 = max # of special neighbors
  special bonds CPU = 1.594 seconds
  read_restart CPU = 1.864 seconds
include 	in.setup
variable	out_freq equal 1000
variable	out_freq2 equal 10000
variable	out_freq3 equal 1000

timestep	2.0

neigh_modify    delay 7 every 1

include		in.tip4p
# This is TIP4P/Ice

# create groups ###
group ox type 2
640 atoms in group ox
group hy type 1
1280 atoms in group hy

# set charges - beside manually ###
set group ox charge -1.1794
Setting atom values ...
  640 settings made for charge
set group hy charge 0.5897
Setting atom values ...
  1280 settings made for charge

# ### TIP3P Potential Parameters ###
pair_style lj/cut/tip4p/long/omp 2 1 1 1 0.1577 8.5
pair_coeff 1 1*2 0.000 0.000
pair_coeff 2 2 0.21084 3.1668
bond_style  harmonic
bond_coeff  1 450 0.9572
angle_style harmonic
angle_coeff 1 55 104.52
kspace_style pppm/tip4p/omp 1.0e-5
pair_modify tail yes

thermo          ${out_freq}
thermo          1000
thermo_style    custom step temp pe etotal epair emol press lx ly lz vol pxx pyy pzz pxy pxz pyz enthalpy

restart 	${out_freq3} restart.lmp.${pid} restart2.lmp.${pid}
restart 	1000 restart.lmp.${pid} restart2.lmp.${pid}
restart 	1000 restart.lmp.0 restart2.lmp.${pid}
restart 	1000 restart.lmp.0 restart2.lmp.0


include         in.dump
dump            myDump all atom ${out_freq2} dump.water.${pid}
dump            myDump all atom 10000 dump.water.${pid}
dump            myDump all atom 10000 dump.water.0
dump            myDump2 all dcd ${out_freq2} dump.dcd
dump            myDump2 all dcd 10000 dump.dcd
dump_modify     myDump append yes
dump_modify     myDump2 append yes


variable natoms 	equal  "count(all)"                        # NUMBER ATOMS
variable H      	equal  "enthalpy/v_natoms"                 # ENTHALPY-per-atom
variable Vol      	equal  "vol/v_natoms"                 # volume-per-atom
fix AVG all 		ave/time ${out_freq} 1 ${out_freq} v_Vol v_H file vol_enthalpy.dat
fix AVG all 		ave/time 1000 1 ${out_freq} v_Vol v_H file vol_enthalpy.dat
fix AVG all 		ave/time 1000 1 1000 v_Vol v_H file vol_enthalpy.dat




fix 		1 all shake 1e-6 200 0 b 1 a 1
       0 = # of size 2 clusters
       0 = # of size 3 clusters
       0 = # of size 4 clusters
     640 = # of frozen angles
  find clusters CPU = 0.077 seconds
fix             2 all nph aniso ${pressure} ${pressure} ${pressureDamp}
fix             2 all nph aniso 9000 ${pressure} ${pressureDamp}
fix             2 all nph aniso 9000 9000 ${pressureDamp}
fix             2 all nph aniso 9000 9000 1000
fix             3 all temp/csvr ${temperature} ${temperature} ${tempDamp} ${seed}
fix             3 all temp/csvr 267.96 ${temperature} ${tempDamp} ${seed}
fix             3 all temp/csvr 267.96 267.96 ${tempDamp} ${seed}
fix             3 all temp/csvr 267.96 267.96 100 ${seed}
fix             3 all temp/csvr 267.96 267.96 100 745823


run             250000
PPPM initialization ...
  extracting TIP4P info from pair style
  using 12-bit tables for long-range coulomb (../kspace.cpp:340)
  G vector (1/distance) = 0.37429827
  grid = 30 30 30
  stencil order = 5
  estimated absolute RMS force accuracy = 0.0032887838
  estimated relative force accuracy = 9.9040748e-06
  using double precision FFTW3
  3d grid and FFT values/proc = 3600 512
Last active /omp style is kspace_style pppm/tip4p/omp
Neighbor list info ...
  update every 1 steps, delay 7 steps, check yes
  max neighbors/atom: 2000, page size: 100000
  master list distance cutoff = 10.8154
  ghost atom cutoff = 10.8154
  binsize = 5.4077, bins = 5 5 5
  1 neighbor lists, perpetual/occasional/extra = 1 0 0
  (1) pair lj/cut/tip4p/long/omp, perpetual
      attributes: half, newton on, omp
      pair build: half/bin/newton/omp
      stencil: half/bin/3d
      bin: standard
Per MPI rank memory allocation (min/avg/max) = 9.331 | 9.339 | 9.344 Mbytes
Step Temp PotEng TotEng E_pair E_mol Press Lx Ly Lz Volume Pxx Pyy Pzz Pxy Pxz Pyz Enthalpy 
 4250000    273.94864   -9068.1972   -8023.7801   -9068.1972            0    7996.6971    24.863108    25.071595    23.065464    14378.037    9385.3725    7796.8186    6807.9004   -140.89151    154.48102    235.73608   -6346.9613 
 4251000    273.89876   -9106.6001   -8062.3731   -9106.6001            0    7282.9365    24.752424    25.196055    23.073227    14389.928    8139.3287    6794.2581    6915.2226    331.14045    290.90473   -461.49392    -6533.959 
 4252000    265.44207   -9058.1101   -8046.1238   -9058.1101            0    8117.8191    24.909644    24.984379    23.075414     14361.03    7988.1158    7515.1607    8850.1807    39.024362    522.61938    88.569262   -6345.9205 
 4253000    270.52469    -9070.974   -8039.6106    -9070.974            0    9423.5641    24.894507    25.054561    22.943568    14310.384    9346.1782    8178.7726    10745.741   -310.85167   -262.90306    587.96125   -6072.8913 
 4254000    270.52209   -9117.5029   -8086.1493   -9117.5029            0    7777.1258     25.03995    24.964133    23.000039    14377.339    6363.6673    8390.5197    8577.1906   -675.60649    -1117.171    744.63807   -6455.4513 
 4255000    268.22209   -9061.6518   -8039.0669   -9061.6518            0    6469.6161    24.925378    24.892952    23.336684    14479.625    6578.6733    7457.6452    5372.5297   -415.83278    105.37782    20.578359   -6672.8749 
 4256000    279.69098   -9070.1613   -8003.8517   -9070.1613            0    8136.9167    24.963951     25.10695    22.974264    14399.548    7817.3221    7313.6115    9279.8166   -17.773717    -383.1479   -692.22096   -6295.0777 
 4257000    261.07478   -9068.9622   -8073.6261   -9068.9622            0    7714.9766    24.943027    25.092128    23.018379    14406.596     10008.02    5834.3014    7302.6082    186.14367    1225.6738    559.00228   -6452.6677 
 4258000      270.375   -9108.3939   -8077.6011   -9108.3939            0    7472.6563    24.806654    25.028232    23.165034    14382.398    8764.2129    7966.8903    5686.8658   -34.066572   -1643.5467    1321.3952   -6510.1926 
 4259000    270.58577    -9025.021   -7993.4246    -9025.021            0    8287.9216    24.995181    25.157117    22.892657    14395.056      8350.85    7536.3222    8976.5926    638.80655    -42.47646   -852.27342   -6253.4822 
 4260000      271.025    -9061.395   -8028.1241    -9061.395            0    8358.3061    24.799588    25.066477    23.150146    14391.017    10374.691    6733.6986    7966.5289    1030.2021   -639.98641    373.21209   -6273.8977 
 4261000    273.90158   -9108.3187    -8064.081   -9108.3187            0     8377.532    24.896539    25.021959     23.03981    14352.884    8534.4422     8015.116    8583.0377    129.27167    375.20134        659.4   -6310.4784 
 4262000    270.19601   -9029.1142   -7999.0038   -9029.1142            0    8389.9194    24.958023    25.023836    23.031679    14384.331    8888.4448    8092.1891    8189.1244   -70.180191    -216.1865     1082.898   -6238.9605 
 4263000    266.93422   -9039.2416   -8021.5666   -9039.2416            0    8976.8562     24.96733    24.931064    23.069333    14359.786    9025.9881    9103.3308    8801.2498   -847.20821    581.51327    185.13494   -6141.6087 
 4264000    262.41324   -9095.8012   -8095.3622   -9095.8012            0    9252.5472    25.016752    24.894595    22.940492    14286.924     8977.907    10154.443    8625.2917    841.06088    137.09305   -653.10527   -6167.5003 
 4265000    267.16064   -9067.5672    -8049.029   -9067.5672            0    9264.7687    25.114099    24.831714    22.964045    14320.978    7120.0735    10623.761    10050.472    370.94466   -1276.1132   -1393.4822   -6114.0193 
 4266000    271.73688   -9071.8928   -8035.9079   -9071.8928            0    8683.4426    25.008818    24.881813    23.044274    14339.639    7820.8726    9246.3255    8983.1297    537.17475   -337.91855   -783.96124   -6219.9489 
 4267000    266.26777   -9053.5088   -8038.3746   -9053.5088            0    9538.8892    25.089407    24.902066    22.908512    14312.736     9695.341    8803.0286    10118.298    660.54555    469.50725    102.66714   -6047.2595 
 4268000    264.17746   -9086.7099    -8079.545   -9086.7099            0    8641.1432    24.943431    24.822918    23.183622    14354.574    8023.5362    10153.181    7746.7126   -140.35484    812.86336   -1110.7592   -6270.5498 
 4269000    265.74103   -9072.8628   -8059.7369   -9072.8628            0    10224.488    25.050781    25.033675    22.806386    14302.184    8907.7149    9942.1899     11823.56   -1402.3852   -627.95943    -345.7836   -5927.0857 
 4270000    262.94347   -9082.3543   -8079.8939   -9082.3543            0    8877.0418    24.890926    24.994342    23.059122    14345.825    9167.6872    8733.9822    8729.4561   -162.06975   -597.22588    786.54314   -6222.6468 
 4271000    268.21879   -9091.0805   -8068.5081   -9091.0805            0    9053.6289    24.886788     24.95097     23.08716    14335.961    9682.5514    9264.6125    8213.7226   -133.83595    885.08633     -1394.16   -6175.6181 
 4272000    273.37104   -9060.8444   -8018.6294   -9060.8444            0    8899.1912     25.03555    25.024285    22.916982    14357.415    7938.8325    9374.7752    9383.9659   -707.67994    438.19175   -629.38391   -6155.2441 
 4273000    260.63847   -9097.7055   -8104.0328   -9097.7055            0    9034.5137    24.960927    24.898857    23.048714    14324.743    8381.9544    10543.764    8177.8227   -428.99976   -255.56032   -64.046585   -6216.6174 
 4274000    277.65358   -9030.2148   -7971.6727   -9030.2148            0    9394.8919    25.071839    24.855453    22.985545    14323.946     8570.157     9372.859     10241.66    191.17224   -275.21478   -63.580208   -6009.0792 
 4275000    267.89949   -9069.2653   -8047.9102   -9069.2653            0    9011.8294    25.004863    24.884656    23.046213    14340.216    8465.9105    10146.256    8423.3213   -520.14133   -1358.0388   -370.66064   -6163.2002 
 4276000    274.46879   -9061.4435   -8015.0433   -9061.4435            0    8359.6495    24.944947    24.962502    23.050482    14353.265    9889.2049    6805.2851    8384.4584    -43.69967   -345.56555   -345.32205   -6265.1376 
 4277000    266.61731   -9056.4943   -8040.0275   -9056.4943            0    7718.5116    24.983392    25.081353    23.017178    14422.962    8653.7736    7471.2436    7030.5176   -189.02751    968.29544    1085.5247   -6416.4841 
 4278000    272.37546   -9114.0132   -8075.5937   -9114.0132            0    7643.0117    24.976348    25.028301     23.02392     14392.61     6353.235    8531.6533    8044.1469   -31.466314    442.42273    237.61344   -6471.3144 
 4279000    260.64562   -9075.7028   -8082.0028   -9075.7028            0     8478.168    24.900647    25.040325    23.061328    14379.206    9354.1653    7656.3445    8423.9943    579.87756    230.14515    422.52756   -6304.0804 
 4280000    270.54321   -9043.7814   -8012.3473   -9043.7814            0    8072.1788    24.880519    25.114397    23.047008    14401.136    9181.8344    7765.8505    7268.8514   -387.08668    1079.3275    1353.3237   -6316.9815 
 4281000     271.6921   -9041.4963   -8005.6821   -9041.4963            0    8056.6566    24.960634    25.108818    23.053981    14448.668    7020.1111    8606.5132    8543.3454   -1266.8326   -263.89146   -272.18595   -6307.9915 
 4282000    280.76935   -9099.7254   -8029.3046   -9099.7254            0    7577.9288    25.069602    25.037687    22.897291    14372.282    6439.4362    7398.4421     8895.908    30.300079   -146.27192    288.50674   -6440.9329 
 4283000    272.96659   -9071.6833   -8031.0101   -9071.6833            0    8376.3712    24.914427    24.953756    23.093832    14357.632    7921.1615    9093.2098    8114.7422   -148.52428     1395.592    1053.8643   -6277.0705 
 4284000    259.23153   -9084.4555   -8096.1467   -9084.4555            0    7867.0709    25.053981    24.896505    23.057283    14382.132    7243.4327    8147.4957    8210.2843   -355.48839     326.8861    201.19983   -6446.0393 
 4285000    267.64173   -9136.8571   -8116.4847   -9136.8571            0    8546.6815    25.009184    24.935986    22.921446    14294.471    8238.2305    8187.5749    9214.2391   -367.84726    116.34911   -222.64389   -6334.7564 
 4286000    267.65315   -9084.7671   -8064.3512   -9084.7671            0    8768.0006    24.953532    24.879691    23.108149    14346.375    8954.8663    10462.077    6887.0587    -539.9411    118.05154   -437.58769   -6229.8473 
 4287000    266.25997   -9062.8441   -8047.7397   -9062.8441            0      8601.11    25.140552     24.94855    22.851595    14332.984     6781.227    8819.3281    10202.775    274.95125   -538.96071    874.34895   -6249.8335 
 4288000    278.19692   -9086.3644   -8025.7509   -9086.3644            0    9028.1315    24.985074    24.873924    23.075524    14340.903    8605.1347    9312.1575    9167.1023   -92.748718   -771.93995   -466.37244    -6137.541 
 4289000      269.363   -9102.6174   -8075.6828   -9102.6174            0    9006.9292    24.973979    24.751478    23.173993    14324.839    8421.5444    9893.3281    8705.9152   -584.99123    127.30877    226.69492   -6194.0175 
 4290000    268.24365   -9093.9338   -8071.2667   -9093.9338            0    9664.9284    24.985462    24.925612    22.909536    14267.554    8543.7406    10444.857    10006.188   -217.00572   -158.61845    855.56592   -6060.2112 
 4291000    259.97586   -9083.1133   -8091.9667   -9083.1133            0     10608.65    24.817762    25.054812     22.88128    14227.679    11268.818    9508.6161    11048.515   -217.08727   -809.35386    76.522101   -5890.7132 
 4292000    269.24315    -9100.176   -8073.6984    -9100.176            0    8195.0705    24.905712     24.91184    23.142906    14358.949    8873.3323    7975.1316    7736.7476    380.99599   -584.02465   -1549.6013   -6357.5642 
 4293000    272.28643   -9068.4149   -8030.3348   -9068.4149            0    9129.0279    25.004528     25.06471    22.850955    14321.408    9077.1279    8855.6584    9454.2973    -437.5752   -1455.4197    207.37218   -6123.6183 
 4294000     263.8649   -9054.8815   -8048.9082   -9054.8815            0    11013.265    24.756437    24.905986    23.120938    14255.988    11700.637    11168.585    10170.573   -76.121101    164.09656   -885.91459   -5759.1517 
 4295000    259.41261   -9103.0858   -8114.0866   -9103.0858            0    9648.8902    24.981176    24.995085    22.873638    14282.451    9104.7239    9420.8703    10421.076    -485.3703   -1303.5777   -304.32608    -6104.272 
 4296000    269.69241   -9024.9963   -7996.8058   -9024.9963            0    8395.1123     25.04732    24.842775    23.105311    14377.163    8961.8144    9263.3209    6960.2018    845.47704    -790.3478    866.04846   -6236.5508 
 4297000    260.86739   -9060.6624   -8066.1169   -9060.6624            0    9697.0823    24.899771    24.846363    23.101249    14292.021    8757.5483    10698.424     9635.275    171.49914    334.14233   -243.83348   -6044.9108 
 4298000    269.11127   -9091.5566   -8065.5817   -9091.5566            0    7989.3763    25.105654    25.071397    22.781115    14339.205    6190.2752    8320.1806    9457.6732    256.87291   -270.91981    161.96607   -6394.8226 
 4299000    268.66585   -9050.9036   -8026.6268   -9050.9036            0    8664.0175    25.001717    24.947706    23.015565    14355.625    8243.3116     9555.895    8192.8459    159.32552   -93.992336    1277.1301   -6212.7103 
 4300000    276.97205   -9063.8666   -8007.9228   -9063.8666            0    10929.927    24.998921     24.79694    22.987845     14250.09    9525.5717    11678.396    11585.814   -532.90422    634.03033    482.52221   -5736.4331 
 4301000    267.22077   -9052.4187   -8033.6513   -9052.4187            0     9290.458     25.05374    25.038026    22.877095    14350.714    7266.5828    9807.1521    10797.639   -357.25992   -27.227418    1347.7586   -6089.2471 
 4302000    264.73925   -9057.7418   -8048.4351   -9057.7418            0    9046.4231    24.885949    24.889942    23.159214    14345.045    9857.3802    8532.1325    8749.7567   -619.71138    136.06612   -596.45632   -6155.8531 
 4303000    267.66745   -9080.1403   -8059.6699   -9080.1403            0    8915.3693    24.956215    24.957175    23.055949     14360.09    7791.4413    10029.059    8925.6081   -296.36901   -328.73689    543.78178   -6192.5493 
 4304000    261.35222   -9039.3137   -8042.9198   -9039.3137            0    7377.3796    25.104497    25.124489    22.900349    14444.113     5852.446    7533.9111    8745.7815    -26.16905    1366.7957   -194.29779   -6488.8559 
 4305000    271.21905    -9066.983   -8032.9723    -9066.983            0    8475.1338    24.876756     25.04634    23.034196    14351.955     9310.701    8054.7584     8059.942    868.46733    152.98695   -683.66414   -6259.0544 
 4306000    276.69916   -9070.8013   -8015.8979   -9070.8013            0    8843.3165     24.93287    24.975282     23.07836    14371.021    8622.4506    8574.1013    9333.3976    -48.48306    1.3324292    154.65224   -6162.4572 
 4307000    265.53914    -9061.569   -8049.2127    -9061.569            0    9502.5686     24.87049    24.983092    23.047677    14320.484    9088.1033    10343.289    9076.3133    837.27095   -401.33256    1119.7767   -6064.6054 
 4308000    273.10308   -9107.9804   -8066.7869   -9107.9804            0    8774.1823    24.840245    25.053121    23.026091    14329.727    9127.9049    8522.8309    8671.8109    -762.4128    -848.0751    599.36168     -6233.12 
 4309000    263.17988   -9045.9618      -8042.6   -9045.9618            0    9974.7481    24.888707    25.063597    22.912804    14293.019    10219.821    10180.782     9523.641     332.2322   -46.805614   -153.26877   -5963.3735 
 4310000    265.99264    -9118.513   -8104.4278    -9118.513            0    8679.3061    24.803751    25.081037    23.005749    14311.964    9867.7733    8344.7163    7825.4287   -745.80112   -757.81842    240.92455   -6292.8369 
 4311000     262.6101    -9080.589   -8079.3996    -9080.589            0    7725.1132    24.948235    24.965648    23.065868     14366.55    8758.4131    7169.8075    7247.1188    603.25383   -238.93628   -206.10131   -6460.8231 
 4312000     264.4378   -9043.2042   -8035.0467   -9043.2042            0    8730.5371    25.118883     25.07259    22.776705    14344.665    7192.2568    8838.9678    10160.387     306.9474    -493.2933   -20.995224   -6208.5989 
 4313000    275.63928   -9044.0986    -7993.236   -9044.0986            0     9206.815    24.911276    24.945169    23.115019    14364.043    8968.7508     9552.079    9099.6152   -265.91084    11.463087   -54.984009   -6064.5479 
 4314000    269.42871   -9058.0513   -8030.8662   -9058.0513            0    9970.3995    24.798409    24.910584    23.131372     14289.24    11796.877    9662.0995     8452.222    531.58912   -6.1929912    458.85407   -5953.0957 
 4315000     263.9197   -9111.9839   -8105.8016   -9111.9839            0    7969.9492    25.009334     24.98341    22.999242     14370.35    6872.9936    8761.0844    8275.7695   -516.24176   -1683.8589   -37.348855    -6435.485 
 4316000    276.87832    -9033.178   -7977.5916    -9033.178            0    7856.1443    24.943273    25.033824    23.084708     14414.68    8251.0231    7036.0193    8281.3905    -186.4748    123.44542    1284.2598   -6326.0469 
 4317000    264.09456   -9091.6023   -8084.7534   -9091.6023            0    9153.2447    24.927587    24.960356    22.996891    14308.699    8692.7626    10169.068    8597.9033    11.302949     -661.711   -128.27334   -6174.6754 
 4318000    263.96701    -9099.154   -8092.7914    -9099.154            0    9050.7129    24.960998    25.003498    23.005872    14358.247    8162.6103    10113.579    8875.9493   -565.41519    176.22335    249.01551   -6197.5694 
 4319000    280.45121   -9162.4098   -8093.2019   -9162.4098            0    8377.6986     24.93055    24.960636     23.04277    14339.109    7800.6255    9073.4468    8259.0235    319.52262   -182.48051    917.00423   -6341.2475 
 4320000    258.78536    -9069.366   -8082.7582    -9069.366            0    9488.7833    25.017945    24.921798      22.9629    14317.188    9456.1055    9377.2188    9633.0256    646.46806   -576.71877    120.58594    -6101.486 
 4321000     261.9189   -9046.2455   -8047.6912   -9046.2455            0    8374.5104    25.017947    24.946158    23.048882    14384.845    7860.8955    8579.4836     8683.152   -342.07837    877.03552   -263.25706   -6290.8176 
 4322000    271.19818   -9043.2949   -8009.3638   -9043.2949            0    8919.1178    25.015943    24.959295    22.978219    14347.147    7711.5771    10261.119    8784.6577    327.00893    59.664501   -359.17329   -6143.1417 
 4323000    261.09738    -9120.649   -8125.2267    -9120.649            0    9013.6694    24.860871    24.969915    23.019891    14290.146     9838.068    8275.1005    8927.8396   -250.05185    752.83385     6.236178   -6246.7138 
 4324000    277.67392   -9073.0288   -8014.4091   -9073.0288            0    10570.868    24.802997    24.979975     23.01321    14258.484    11366.719    10301.775     10044.11   -127.27629   -153.13801    324.25071   -5816.2461 
 4325000     273.0065   -9039.7439   -7998.9186   -9039.7439            0     10213.54    25.004108    24.952189    22.896712    14285.424    9893.2188    10904.389    9843.0122    1327.7062   -351.11794   -873.39634   -5871.0475 
 4326000    276.37929    -9085.684   -8032.0001    -9085.684            0    10696.254    24.888328    24.898521    22.961796    14229.025     11331.08    10991.399    9766.2836    724.55425   -405.14481    1173.4177   -5812.3592 
 4327000    264.88973    -9093.678   -8083.7976    -9093.678            0    10903.726    24.978857    24.885927    22.881516    14223.654    9383.1158    12084.881    11243.181   -452.40344   -837.83195   -206.43916    -5821.957 
 4328000    271.31811   -9041.8391   -8007.4507   -9041.8391            0    9688.6339     24.95703    24.896553    23.045077    14318.921    9295.9785    11237.412    8532.5115    483.94362   -334.70093    282.45052   -5984.2046 
 4329000    267.78943    -9092.515   -8071.5796    -9092.515            0    7872.9185    25.026279    24.972108    23.048522     14404.38     6845.158    8951.8907    7821.7069   -434.09597    191.92507   -564.10901   -6417.6911 
 4330000     260.9435   -9057.8454   -8063.0098   -9057.8454            0    8211.2819    25.006671    25.080467    22.956925    14398.101    8021.7014    8092.9405    8519.2039   -887.00363   -461.92638    209.27325   -6338.7921 
 4331000    278.83566   -9093.9591   -8030.9104   -9093.9591            0    7943.5033    24.805259    25.142938    23.111009    14413.807    7380.9295    7630.6861    8818.8943   -226.57297   -523.72658    693.16544   -6361.1019 
 4332000    263.69282   -9066.8755   -8061.5582   -9066.8755            0     9152.667    24.850655    24.991529    23.080543    14334.307    10781.205    8558.2013    8118.5948   -100.56996   -1226.2621    1142.0237   -6148.1825 
 4333000    262.69893   -9110.1248   -8108.5967   -9110.1248            0    9099.8001    24.954361    25.114131    22.846709    14318.194     8573.656    9110.8856    9614.8585   -122.91743   -1122.3988    1294.7005   -6208.4112 
 4334000    280.09447   -9078.9918   -8011.1439   -9078.9918            0    8237.9298    24.926248     25.04203    23.053276    14389.943    8723.7828    8202.9943    7787.0123     297.4309   -843.90753    474.45285   -6282.3108 
 4335000     265.6979   -9079.7406    -8066.779   -9079.7406            0    9014.4329     24.95276    25.156003    22.854128    14345.803     9601.623     7066.834    10374.842    50.431891   -119.39692    429.20302   -6180.7899 
 4336000    268.20324   -9063.2135   -8040.7004   -9063.2135            0    8482.8787    24.989936    24.998929    22.977013    14354.236    8616.9465     8035.822    8795.8677     17.96277   -2194.4623    82.468973   -6264.8792 
 4337000    266.98126   -9070.5225   -8052.6681   -9070.5225            0    10062.289    24.952602     24.82986    23.045917     14278.55    10262.799    9912.1359    10011.931    721.89314    108.41806   -1777.5593   -5957.3172 
 4338000    273.11977   -9048.5183   -8007.2612   -9048.5183            0    8681.2156    25.036874    24.930225    23.001484    14356.949    8537.3313    8763.6559    8742.6596    245.21433    490.40106   -1770.1866   -6189.5764 
 4339000     260.6203   -9106.2554    -8112.652   -9106.2554            0    9347.8839    25.046432    24.958743    22.840073    14277.957    8259.4606    10061.487    9722.7046   -414.21799     105.4873   -718.16789   -6166.1481 
 4340000    276.86431    -9086.841    -8031.308    -9086.841            0    10202.086    24.940748    24.812378    23.113289    14303.411    9789.1983    11916.328    8900.7321    -2028.034    549.33769   -42.606802    -5903.147 
 4341000    258.89574   -9080.6464   -8093.6178   -9080.6464            0    9428.5352     24.92853    24.898228    23.031972    14295.398    9599.4513    9735.8972    8950.2571    297.36338    -860.5803   -555.20615   -6127.9218 
 4342000    265.08702    -9044.742   -8034.1094    -9044.742            0    9353.1146    25.125848    24.936301    22.904752    14350.874    8369.9555    9172.3312    10517.057    882.33328    314.81182   -823.35218   -6076.5701 
 4343000    271.93478   -9068.7773   -8032.0379   -9068.7773            0    9332.2225    24.986039    24.799259    23.103826    14315.945    9703.6068     9762.127    8530.9336    -912.1349    714.69504   -426.82319    -6083.625 
 4344000    269.63048   -9098.4077   -8070.4533   -9098.4077            0    8365.0918    25.047294    24.902893    23.022136    14360.059    6873.6492    9856.5651    8365.0612    357.11725   -263.63513    -1094.219   -6318.5795 
 4345000     260.0538   -9109.1066    -8117.663   -9109.1066            0    9489.0074    25.040516    25.046588    22.786858     14291.45    8605.8872    8694.5751     11166.56   -335.49511   -8.2704158    1150.7715   -6139.9058 
 4346000    276.21924   -9105.3286   -8052.2549   -9105.3286            0    7508.0148    24.900693     24.89989    23.143606    14349.604    8051.4389    7010.1295     7462.476   -926.38506   -731.61372    480.32399   -6481.0207 
 4347000    271.71429   -9071.5969   -8035.6981   -9071.5969            0    9048.8046    24.975121    24.926521     23.00362     14320.74    7771.7142    9522.7557    9851.9438   -125.88565   -1584.3169   -294.19396   -6145.8253 
 4348000    265.57364   -9134.0626   -8121.5747   -9134.0626            0    9767.2961    24.872092     24.95235    23.016165    14284.227    11060.456    8998.8076    9242.6251   -114.38799    993.25048   -134.98528   -6086.8438 
 4349000    269.93334   -9068.9505   -8039.8415   -9068.9505            0    7941.9195    24.951804    24.983481    23.057295    14373.524    9226.1019    7278.7275    7320.9291    363.47336    771.66788    1147.7984   -6375.0317 
 4350000    255.69921   -9071.7186   -8096.8766   -9071.7186            0    8941.1103    24.934372    25.069858    22.942953    14341.666    9681.1581      6934.68    10207.493     54.87505    367.38082    1123.9489   -6226.7674 
 4351000    267.28255   -9080.6984   -8061.6954   -9080.6984            0    10146.273    24.831433     24.97641    23.014014    14273.293    11335.427    9276.3566    9827.0339   -226.27479   -314.26539   -981.11175   -5949.6338 
 4352000    278.94857   -9078.5422   -8015.0631   -9078.5422            0     9016.129    24.840472    25.061926    23.060477    14356.301    9140.4426    8228.3394     9679.605    222.08832    216.20317   -1125.6415   -6127.3388 
 4353000    271.77292   -9079.7523     -8043.63   -9079.7523            0    8033.7984     24.95736    25.149037    22.878873    14360.007    7816.1325    7642.3611    8642.9017    1065.6009    1001.0651     773.3427    -6361.144 
 4354000    269.02285    -9088.591   -8062.9532    -9088.591            0      7934.93    24.944704     24.96906     23.10444    14390.503    7845.5716    8476.9714    7482.2471   -190.67325   -1054.1654   -138.43533   -6397.6437 
 4355000    273.95949   -9076.6195   -8032.1609   -9076.6195            0    8270.4028    24.942269    25.025618    23.042284    14382.894    7868.2032     7677.003    9266.0023    1178.0048    1195.7977    1524.8488   -6297.3632 
 4356000      268.649   -9103.4265    -8079.214   -9103.4265            0    9357.6527    24.959097    25.013457    22.919963    14309.238    8808.4696    10114.373    9150.1152   -431.15788   -163.92239    -662.4705   -6126.4071 
 4357000    266.33225   -9052.1581   -8036.7781   -9052.1581            0    9377.3434    24.838384    24.864085    23.192114    14323.072    9450.0562    10526.468    8155.5065   -244.95795    181.52635   -801.08899     -6077.97 
 4358000    265.55233   -9061.0647   -8048.6581   -9061.0647            0    9358.1235    24.930779    24.987413    22.989297    14321.313    10159.291    8028.8286    9886.2505    152.42573    1086.2138   -364.24196   -6094.1049 
 4359000    257.45658   -9051.7811   -8070.2392   -9051.7811            0    8474.6511    25.041207    25.000167    22.936328     14358.93    9054.6889    7094.3327    9274.9316    183.49356   -98.581977    453.69831   -6295.5602 
 4360000    272.60802   -9121.8796   -8082.5735   -9121.8796            0    8139.1879     24.95893    24.909741     23.13053    14380.724    8165.8147     8044.503    8207.2461   -323.67247    179.19207   -291.01589    -6375.557 
 4361000    266.38601   -9073.8259   -8058.2409   -9073.8259            0    8133.2702    24.968021    25.065179    22.989932    14387.742    8091.1595    8835.6973    7472.9539   -161.84225    467.35573    1359.9655   -6351.6331 
 4362000    269.44093   -9065.1584   -8037.9267   -9065.1584            0    9360.2219     24.98221    25.069182    22.899372      14341.5    8706.6199    8910.7265    10463.319   -350.32945    1020.8292    37.697446   -6080.1794 
 4363000    269.23875   -9095.9775   -8069.5166   -9095.9775            0     7755.238     24.89266    25.008763    23.124049    14395.521    8571.5169    7211.0594    7483.1377   -169.61256    -781.7287   -393.86165   -6441.3517 
 4364000    281.73556   -9059.7179   -7985.6134   -9059.7179            0    9809.9836    24.936051    24.986862    23.008818    14336.189     9483.805    9772.6923    10173.454   -592.87967    69.373755   -1011.5392   -5934.5557 
 4365000    283.48897   -9073.7473    -7992.958   -9073.7473            0    10249.506    25.047642    24.902571    22.920354    14296.586    8471.4914    11589.337    10687.689   -839.21301   -624.86826    1275.2321   -5855.9253 
 4366000    264.76424   -9082.9452   -8073.5432   -9082.9452            0    9912.4751    24.966663    24.863146     23.03582     14299.48    9417.1216    9703.4109    10616.893   -933.12607   -824.33787   -478.85452   -6006.3634 
 4367000    267.58861   -9138.7298   -8118.5599   -9138.7298            0    8947.5747    25.015694    24.814981    23.062387    14316.299     6970.671      10472.6    9399.4536    324.77621    139.59679    619.49077   -6250.4089 
 4368000    267.09815   -9134.3858   -8116.0858   -9134.3858            0    8923.6497    25.029344    24.928536    22.924754    14303.783    7950.9607    9130.0134     9689.975   -1191.3498   -108.19518   -596.63791   -6254.5589 
 4369000    262.52899   -9060.1515   -8059.2713   -9060.1515            0    9389.2462    25.053915     24.80129    23.075901    14338.659    8276.1273    10593.967    9297.6445   -204.33426    -176.6179    149.74692   -6095.8425 
 4370000    263.53715    -9075.124   -8070.4002    -9075.124            0    8911.2018    25.043199    24.894094     23.04452    14366.593    7247.5932    10324.109    9161.9031   -49.988669   -318.70513    261.51166   -6203.3072 
 4371000    261.97842   -9064.9782    -8066.197   -9064.9782            0    9786.5524    25.083849    24.886426    22.921286    14308.553    8094.6749    10492.456    10772.526   -889.91149   -985.37549   -25.015671   -6023.9826 
 4372000    271.69552   -9066.0739   -8030.2467   -9066.0739            0    7717.2893    25.073942    24.894883    23.100893    14419.874    7764.8666    8030.2479    7356.7535   -383.07986   -779.80728   -563.16688   -6407.3079 
 4373000      262.977   -9098.2405   -8095.6522   -9098.2405            0    8158.8639    25.045965    24.972547    23.011389    14392.739    8173.1637    8755.1742    7548.2538     876.6171    444.80328    219.37796   -6383.0795 
 4374000    267.11785   -9042.1534   -8023.7783   -9042.1534            0    8992.5643    24.982337    25.100761    22.926731    14376.795    9119.5468    9416.7304    8441.4156   -512.21181    247.00642   -1356.7456   -6138.3001 
 4375000     270.2214   -9035.3438   -8005.1366   -9035.3438            0    9102.4022    24.865589    24.998144    23.112698    14366.705    10380.405     9030.371    7896.4306   -482.14555    613.48607    198.20822    -6097.968 
 4376000    272.36854   -9094.3058   -8055.9127   -9094.3058            0    9692.3466    24.857994    25.068254    22.920856    14283.051    9835.0024    9260.2931    9981.7445   -44.517827    1437.8406    963.14596   -6036.9615 
 4377000    267.74873   -9059.7994   -8039.0191   -9059.7994            0    10274.423    24.852897    25.009796     22.99209    14291.099    10132.587    9883.4424    10807.241    507.88938    316.38804       346.75   -5897.6134 
 4378000    263.36597   -9075.4033   -8071.3321   -9075.4033            0    10282.001    24.847068    24.945028    23.057071    14291.022    11708.913    9554.8802    9582.2086     -695.858   -5.6807235   -129.04893   -5928.3587 
 4379000    269.16711    -9057.054   -8030.8662    -9057.054            0    9268.9569    24.906506    25.079889    22.956344    14339.735    10600.769    8012.1061     9193.996    128.83437    1488.1411    543.31664   -6092.4462 
 4380000    262.20994   -9092.3374   -8092.6735   -9092.3374            0    9188.4934    24.961784    25.034729    22.908349    14315.691    8421.0201    9150.7939    9993.6661    64.952965   -65.840255    385.44411   -6174.3029 
 4381000    271.55881   -9105.9854   -8070.6793   -9105.9854            0    11296.148    24.738023    24.795249     23.12826    14186.538    10952.375    11930.822    11005.249    1079.8538    152.32368     625.4191   -5733.5502 
 4382000    259.01453   -9036.8477   -8049.3661   -9036.8477            0    9453.4255    24.971012    25.064311    22.863311    14309.717    9648.7718     9176.897    9534.6076    -624.4878   -17.971012    438.37153   -6076.5068 
 4383000    264.58443   -9078.8729   -8070.1564   -9078.8729            0    7216.4791    25.134364    24.960667    23.011475     14436.72    5496.6437    7517.8143    8634.9795    615.30589   -576.82263   -1033.5287   -6550.7646 
 4384000    260.45063   -9092.9105   -8099.9539   -9092.9105            0    7764.0753     24.95709    24.972397    23.056019    14369.396    7334.4437    7865.7141     8092.068    135.94197   -1249.5438   -223.28951   -6472.8918 
 4385000     261.7326   -9098.2226   -8100.3785   -9098.2226            0    10128.948    24.794218    25.018015    22.999589    14266.694    10971.824    8926.3953    10488.626    675.55907    293.39304   -147.38573   -5992.8979 
 4386000    271.14218   -9078.2584   -8044.5408   -9078.2584            0    8279.9584    24.771728    25.013262    23.138143    14336.897    9254.7221    7179.6074    8405.5457      904.585    -2056.717    147.88825   -6313.2931 
 4387000    259.04242   -9062.4724   -8074.8846   -9062.4724            0     9695.383     24.90602    24.991534    22.948913    14284.314    11105.838    8946.7834    9033.5277    343.74268    963.19845    770.11881   -6055.1224 
 4388000    276.12525   -9094.0285   -8041.3131   -9094.0285            0    10054.138    24.820249    24.983972    22.985778    14253.674    11174.036    9151.8855    9836.4926   -123.90606   -857.25961     318.9741    -5951.307 
 4389000    268.60274   -9123.3254   -8099.2893   -9123.3254            0    9499.4511    24.808897    25.057405    22.986926    14289.744    10964.684    8252.9527    9280.7165    905.37534    527.01007   -395.78801   -6119.5918 
 4390000    276.43362   -9098.4019   -8044.5109   -9098.4019            0    8927.0252    24.838939    25.074327    22.977886    14311.079    9426.9529    8097.4725    9256.6503   -640.14827    419.78696    659.44196     -6181.33 
 4391000    264.53442    -9093.418   -8084.8922    -9093.418            0    8922.2415    24.798093    25.035212    23.082448    14330.173    10038.866    8183.7458    8544.1125   -927.60155   -270.47765    607.14409   -6220.2251 
 4392000    266.78883   -9112.1016   -8094.9809   -9112.1016            0    9352.2644     24.84093    25.020541    23.004152    14297.851    9573.4509    7744.6975    10738.645   -407.75727   -567.71869   -497.92837   -6144.8514 
 4393000    269.87726   -9073.2398   -8044.3446   -9073.2398            0    9686.0006    24.922964    24.966889    22.981199    14300.025    9974.8856    9119.7612    9963.3551    828.34858   -1138.9006     1815.262   -6024.3175 
 4394000    266.62593   -9079.7962   -8063.2965   -9079.7962            0    8449.8454    24.824055    25.003406    23.096026    14335.378    9910.6998    8349.9226    7088.9139   -332.92511   -853.94676    218.07779   -6296.7145 
 4395000     275.7822   -9039.1415    -7987.734   -9039.1415            0    8618.6729    24.939182    25.072366    22.980291    14369.215    8462.4506    9383.0819    8010.4862   -212.52409   -63.564468   -246.40963   -6181.6026 
 4396000    264.80987   -9094.5353   -8084.9593   -9094.5353            0    8119.0266    24.909782     25.01421     23.10267    14395.239    8943.3519    7460.1635    7953.5644    459.85973   -154.33512    1089.5907   -6380.4525 
 4397000    265.51686   -9079.3062   -8067.0348   -9079.3062            0    9992.0442    24.930922    24.976076    22.959276    14296.204     10678.59    8984.1685    10313.374      37.1077    1082.2105     368.2944   -5983.7389 
 4398000     272.6113   -9127.8711   -8088.5525   -9127.8711            0    9741.1132    24.920809    24.901913    22.970007    14254.631    10118.829    9119.9748    9984.5359   -314.07411   -455.21304   -622.17402   -6063.4805 
 4399000    265.12852   -9053.5378    -8042.747   -9053.5378            0    9584.8952    25.074203    24.889467    22.952272    14324.136    8561.2306     10754.97    9438.4848    157.47017   -66.826911   -951.17353   -6040.4353 
 4400000    267.23411   -9093.0297   -8074.2114   -9093.0297            0    8261.6342     24.93314    24.922716    23.079866    14341.865    9124.3518    8521.5486    7139.0021    321.47122    707.09077    447.58384   -6346.1965 
 4401000    275.90579   -9088.6324   -8036.7537   -9088.6324            0    9290.9444    24.997875    24.979819    22.921618     14313.23    8551.8598    9885.0217    9435.9516   -165.72356    9.2284855     1052.412   -6097.3269 
 4402000    264.91773   -9094.0619   -8084.0747   -9094.0619            0    9334.4906    24.978871    25.016442    22.908291     14314.99    9777.4857    7759.8626    10466.123    882.82197   -1723.5392     100.4046   -6135.3183 
 4403000    267.28243    -9062.887   -8043.8845    -9062.887            0    8607.0935    24.839267    25.002139    23.108463     14351.16    10249.894    8226.2432    7345.1433   -623.91816    305.09746    -451.2398   -6242.4461 
 4404000    262.34119   -9106.4097   -8106.2454   -9106.4097            0    7593.7628    24.910768    25.106855    23.032127    14405.007    7720.9147    7050.1788    8010.1949    232.28208    1685.6056   -217.69622   -6510.9306 
 4405000    263.26157   -9060.4246   -8056.7514   -9060.4246            0    8705.8377    24.971599    25.030853    22.958097    14350.198    8324.6983    10047.343    7745.4717   -373.81587    285.70011   -680.88053   -6234.7683 
 4406000    263.18071   -9158.7652   -8155.4003   -9158.7652            0    9218.1654    24.777024    24.967571    23.110742    14296.816    10354.755    8249.6962    9050.0446   -431.72071    426.05246   -1683.0363   -6233.3723 
 4407000    264.28243   -9073.1352   -8065.5701   -9073.1352            0    8355.7361    24.938896    25.105679    22.946277    14366.846    8702.6297    7802.9594    8561.6192   -863.22274   -603.70866    76.721077   -6314.8285 
 4408000    270.08289   -9092.7321    -8063.053   -9092.7321            0    8922.7107    24.943679    25.033766    22.986695    14353.679    8952.5724    9081.1759    8734.3837   -376.61129    280.39579   -663.18475   -6195.2291 
 4409000    273.91978   -9075.7381    -8031.431   -9075.7381            0    9196.8088    24.886769     24.91342    23.133008    14342.801    9070.5886    10414.669    8105.1689   -274.97714    477.84913    627.34645   -6107.6882 
 4410000    262.82545   -9050.9688   -8048.9584   -9050.9688            0    10494.229     25.03684    24.924256    22.818961    14239.593    10062.152    11495.694    9924.8414    393.01518   -1140.6794    913.36742   -5869.6232 
 4411000    270.04354   -9130.2625   -8100.7334   -9130.2625            0    10490.292    24.920476    24.793552     23.02613    14227.089    8797.0372    14011.954    8661.8851    428.85104   -992.30257    1406.1303   -5924.1289 
 4412000    266.71996   -9090.8014   -8073.9432   -9090.8014            0    8843.7961    24.961948    24.889493    23.078879    14338.682    8287.2055    10430.655     7813.528   -135.30431   -408.01247    577.71428   -6224.5731 
 4413000    266.43979   -9060.3342   -8044.5443   -9060.3342            0    9040.2181    25.073633    24.976121    22.885264    14331.715    7658.1138     10026.88    9435.6605   -656.17882   -437.20481   -98.355997   -6155.0178 
 4414000    263.81595   -9078.7351   -8072.9483   -9078.7351            0    9665.0752    24.955033    24.937436    22.938007    14274.655     8383.015    10687.069    9925.1419   -21.388431    110.40013   -1052.5237   -6060.8614 
 4415000    262.44726   -9039.0475   -8038.4789   -9039.0475            0    10436.286    24.637549    24.989306    23.228415     14301.16    11717.728    9927.9327    9663.1973   -239.45518   -328.51706    62.471118   -5861.8062 
 4416000    258.86906   -9012.3007   -8025.3737   -9012.3007            0    8349.1008    24.995441    25.079877    22.972097    14400.807    8731.3635    8073.4985    8242.4405    564.92953   -505.88519    1494.2116   -6271.8872 
 4417000    255.56239   -9102.9052   -8128.5848   -9102.9052            0    7586.1785     24.91009    25.067982    23.032016    14382.243    8834.2025    6583.8013    7340.5318    105.27358   -573.16743    320.32063   -6537.3819 
 4418000    276.74139   -9055.6781   -8000.6137   -9055.6781            0     9060.991    24.835374    25.145562    22.979008    14350.378    9473.5238    8445.3548    9264.0942   -1117.7703    354.08313    614.51268   -6104.2793 
 4419000    265.68809   -9076.3081    -8063.384   -9076.3081            0    8115.9963     24.90382     25.00082    23.097186    14380.676    8735.7264    8579.8235    7032.4391    -64.27132   -1172.0706    268.15443   -6361.2371 
 4420000    268.14336   -9083.4033   -8061.1185   -9083.4033            0    9639.2954    24.939146    24.799313    23.111933    14294.122    10006.924    10367.239    8543.7237    719.72702    514.35852    649.47226   -6051.6617 
 4421000    271.90411   -9108.4658   -8071.8433   -9108.4658            0    9172.6678     25.00524    24.991469    22.886796    14302.364    8447.1851    8973.8463    10096.972   -637.48461    982.83685   -643.72115   -6158.5597 
 4422000    267.06756   -9073.9726   -8055.7893   -9073.9726            0    9624.9906    25.057996    24.928529    22.867909    14284.645    7995.7003     9917.648    10961.624   -293.22411    639.24844    737.99808   -6050.6449 
 4423000    271.81932   -9085.6108   -8049.3116   -9085.6108            0    10264.604     24.85182     24.83046    23.113243    14262.769    10861.993    10765.073    9166.7474    262.09179    -496.0232    170.37627   -5914.1932 
 4424000    264.24275   -9087.1965   -8079.7826   -9087.1965            0    9377.3524    25.008249    24.932144    22.954223    14312.171    8117.8899    9494.6111    10519.556   -917.99538   -232.57751    945.57181   -6122.4634 
 4425000    264.87681     -9075.07   -8065.2388     -9075.07            0    7984.1633    25.130052    24.906979     22.96364    14373.257    6513.5334    8367.1193    9071.8372     143.5461   -1131.1988   -980.11105   -6391.6048 
 4426000    261.98707   -9080.1429   -8081.3287   -9080.1429            0    10568.462    25.025682    24.737037    23.036889    14261.245    10205.767    11218.341    10281.278    1172.7701   -561.61057   -141.85369   -5883.2405 
 4427000    262.77533   -9050.2981   -8048.4787   -9050.2981            0    8718.2665    25.013105    24.861239    23.061574    14340.997    9367.1669    8153.3226    8634.3101    711.66329    892.70445    72.361767   -6225.0644 
 4428000    262.97199   -9073.0293   -8070.4601   -9073.0293            0    8811.1177     25.08899    24.893811    22.957684    14338.464    7996.1039    9071.4405    9365.8089    755.14016   -897.36741   -749.34408   -6227.9515 
 4429000    271.43733   -9118.7902   -8083.9473   -9118.7902            0    7402.8652     24.97389    24.919286    23.111824    14383.217     7232.829     8823.579    6152.1876    240.74723    15.642303    -71.81008   -6531.0893 
 4430000    264.63379    -9104.932   -8096.0273    -9104.932            0    8258.5451    24.927274    24.905322    23.121104    14354.085    9162.1664    8546.0859    7067.3831    61.416349   -562.77503    221.18331   -6367.1867 
 4431000    260.98471   -9058.4964   -8063.5036   -9058.4964            0    9181.4468    25.048207    24.908773     22.92096    14300.848    8258.6268     10038.98    9246.7336   -654.96892    1133.4214    988.39732   -6148.5918 
 4432000    273.91149    -9066.197   -8021.9214    -9066.197            0    9399.9527    24.959661    24.992839    22.962172    14324.097    9119.8107    9326.4992    9753.5481   -552.49353   -802.11946    55.988837   -6058.2501 
 4433000    265.98622   -9074.7993   -8060.7385   -9074.7993            0    9063.2675    24.838399    24.901328    23.179312    14336.616    9565.5205    9029.7325    8594.5493   -760.43207    283.95529   -448.22138   -6165.7467 
 4434000    275.57648    -9090.008   -8039.3847    -9090.008            0    10235.654    24.956825    24.934274    22.932534    14270.464    9555.6754    10244.052    10907.236   -108.00747    116.28358    824.22498   -5909.1396 
 4435000    279.61373    -9058.755   -7992.7399    -9058.755            0    9626.3378    24.980912     24.95118    22.963735     14313.37    8680.8138    10650.211    9547.9891   -186.80414   -26.123981   -319.18178   -5983.2821 
 4436000    269.84643   -9049.5453   -8020.7677   -9049.5453            0    7028.9712    24.965128    25.105911    23.089202    14471.671    8120.9761    5913.2376    7052.6999   -196.04183    219.62333   -1599.4999   -6537.2718 
 4437000     260.8046   -9115.7298   -8121.4238   -9115.7298            0    8268.2788    24.948211    25.062433    22.964182    14358.651     8711.197    7774.4496    8319.1899   -340.89308   -39.665782    973.10703    -6389.995 
 4438000    265.43087   -9035.3076   -8023.3641   -9035.3076            0    9250.9029    24.958553    24.860615    23.150816    14364.733    7944.4133    10993.504    8814.7916    644.90381    693.95454   -733.28126   -6085.3471 
 4439000    252.55731   -9077.6332   -8114.7696   -9077.6332            0    9352.7166    24.849647    24.995517    23.042719    14312.519    9853.0834    9963.9408    8241.1257    294.35658   -96.222835    205.78163   -6162.5452 
 4440000    275.00684   -9059.4261   -8010.9746   -9059.4261            0    9038.2596    24.963693    25.082094    22.906723    14342.855    9826.8478    7349.5266    9938.4045    614.40127    821.02342   -68.083283   -6120.3892 
 4441000    264.48095   -9053.6692   -8045.3472   -9053.6692            0    8872.3581    24.894282     24.96142    23.060841    14329.929    8466.4169    9457.1784    8693.4789   -348.00518   -1303.8066     267.6314   -6191.1369 
 4442000    270.17206   -9052.2638   -8022.2447   -9052.2638            0    9042.4123    24.994297    25.025511    22.881953    14312.548    8652.2117    9043.2447    9431.7807    87.540981    326.98565    397.78415   -6134.7873 
 4443000    274.79053   -9112.6352   -8065.0083   -9112.6352            0    8069.4737     25.03546    24.992086    22.924998    14343.905    7719.6259    8418.2242    8070.5709    -1198.025   -714.34093   -386.89808   -6376.9459 
 4444000    266.52952   -9088.1988   -8072.0667   -9088.1988            0    8550.3719    25.029421    24.887462    23.027077    14343.999     8409.998    9016.9111    8224.2066    572.88048   -784.64761    856.25366    -6283.393 
 4445000    268.01508   -9073.6713   -8051.8756   -9073.6713            0     8564.335    25.102621    24.890698    22.947536     14338.12     7813.556    9488.7284    8390.7205    120.94033    111.88562    680.66995   -6261.0152 
 4446000    269.77277   -9058.6047   -8030.1079   -9058.6047            0    9338.6965    25.046885    24.992735    22.885634    14326.182     8336.443    9771.1917    9908.4549     803.6407   -475.60668    273.52084   -6078.9491 
 4447000     266.8749   -9081.2356   -8063.7868   -9081.2356            0     7859.557    25.011906    24.974203    23.064736    14407.443     8348.878    7935.8049     7293.988   -1394.7707    821.32241    296.04866   -6412.3541 
 4448000    271.34987    -9071.036   -8036.5266    -9071.036            0    9288.5076    24.922407    24.981766     22.99684    14317.964     10105.53     8894.169    8865.8238    563.43818   -663.00589    75.346318   -6096.9671 
 4449000    267.44059    -9047.804   -8028.1985    -9047.804            0    8977.0694      24.9692    25.128217    22.857903    14341.769    9772.9303    7088.3254    10069.953   -145.35322    774.39888    86.316875   -6150.5548 
 4450000     269.1979   -9082.8031   -8056.4979   -9082.8031            0    9383.2423    24.825977    24.958975    23.063764    14291.022    9285.8293    10304.919    8558.9788    22.413292    1358.7784    191.55318   -6100.8435 
 4451000    270.56457   -9040.2584   -8008.7429   -9040.2584            0    9972.2354    24.918951    24.944873      22.9755    14281.572    9543.2685    10526.498    9846.9394   -414.84813   -289.90808   -96.684667   -5931.7049 
 4452000    270.78046   -9093.2372   -8060.8986   -9093.2372            0    11079.532     24.88185    24.927442      22.9129    14211.517    10554.673    11593.871    11090.053   -364.18896    214.89939   -214.64866   -5764.5504 
 4453000    270.88526   -9140.3532   -8107.6151   -9140.3532            0     9027.289     24.91374    24.997252    22.920882    14274.553    9408.1472    8888.1474    8785.5723   -133.54991   -167.07682    593.29127   -6228.3167 
 4454000    268.36878   -9050.3567   -8027.2125   -9050.3567            0    9525.1687    24.729131    24.985446    23.141974    14298.694    10871.027     9672.446    8032.0337   -156.44851    286.90115    410.01092   -6040.9121 
 4455000    265.40954   -9105.0221   -8093.1599   -9105.0221            0     8048.865    24.903518    25.100649    22.951875    14347.091    9267.4237    6575.5444    8303.6269    414.67828    565.13557    531.00276   -6409.0347 
 4456000    254.15074   -9110.1651   -8141.2265   -9110.1651            0    7649.5315    24.788906    25.246929    22.915123    14341.286    9121.9387    6398.8063    7427.8494    542.09424    25.314234   -534.00299   -6541.3045 
 4457000    264.71593   -9057.8107   -8048.5929   -9057.8107            0    9628.3574    24.848031       25.053    22.982511    14307.021    9955.1419    9323.2866    9606.6436     820.5622   -250.74349   -1536.6918   -6039.6051 
 4458000    266.55796   -9069.4096   -8053.1691   -9069.4096            0    8229.5711    24.911568    25.099312    22.949506    14349.482    9561.5866    7583.9443    7543.1824   -758.01399     464.2381   -888.08173   -6330.9464 
 4459000    269.15883   -9051.0016   -8024.8454   -9051.0016            0    8335.8106    24.863877    24.983609    23.113398    14357.798    9563.0241    7906.0422    7538.3655    430.68981   -671.34679     1164.988   -6279.3787 
 4460000    268.37433   -9057.7676   -8034.6023   -9057.7676            0    9539.4466    25.021146     24.96263    22.952264    14335.837    8729.9633    9550.9495    10337.427    572.58514   -197.41375   -718.42354    -6040.157 
 4461000    273.86535   -9083.2843   -8039.1847   -9083.2843            0    6755.4385     25.03585    25.039828    23.063279    14458.217    7309.4246    6479.0336    6477.8574    371.76225   -1085.3387   -674.04938   -6614.7447 
 4462000    261.29277   -9074.9208   -8078.7536   -9074.9208            0     8189.388     24.94742    24.979192    23.064503    14373.023    8662.3177    7395.3028    8510.5434    185.29612   -691.18569    69.721327   -6362.1285 
 4463000    264.14938   -9083.3855   -8076.3276   -9083.3855            0    7699.9235    24.908076    25.091717    23.028328    14392.392    8788.0899    6908.8936    7402.7871    71.829056   -1171.1038    283.21716    -6460.127 
 4464000    274.03094   -9086.5958   -8041.8649   -9086.5958            0    8435.3864    24.944524    25.094539    22.934594    14356.398    9733.5238    7326.3544    8246.2812   -221.62288   -707.23023    69.914113   -6275.7198 
 4465000    257.52569    -9066.755   -8084.9496    -9066.755            0    8772.8917    24.901451    24.923368    23.150135    14367.622    9620.9806    8033.2277    8664.4667    -667.4067    163.77047   -217.06699   -6246.7039 
 4466000    263.96781   -9113.8668   -8107.5011   -9113.8668            0    7873.1425    24.976069    25.026473    22.966149    14355.288    7450.7795    8658.0645    7510.5836   -512.19859   -646.49964   -762.62796   -6459.2024 
 4467000    272.64554   -9077.4187   -8037.9696   -9077.4187            0    8834.3977    24.936064    24.957753    23.057107    14349.547    9360.5169    8573.0191    8569.6572   -615.97064    764.05032     795.2139   -6189.1649 
 4468000    264.61031   -9073.9272   -8065.1121   -9073.9272            0    9035.5568    24.920111    24.886536    23.126537    14342.505     9148.457    10007.191     7951.022    -512.3314   -48.814926   -647.80915   -6175.1381 
 4469000    263.87105   -9114.0778    -8108.081   -9114.0778            0    8982.0219     25.05971    24.887615    22.953682     14315.67    8803.8594    9332.0812    8810.1252    237.15098   -318.41697    448.07523   -6232.8203 
 4470000    273.28414   -9108.6492   -8066.7655   -9108.6492            0    8167.2806    25.086898    24.915759    22.953936    14347.567     7962.045    8548.7922    7991.0047   -625.11181   -655.75472    235.38617   -6357.8066 
 4471000    264.91506     -9062.93    -8052.953     -9062.93            0    10572.142    24.990818    24.633778    23.193171     14278.14    8998.7377    12966.908    9750.7801    33.440382    95.589599    492.75608   -5851.4945 
 4472000    267.67692   -9103.1524   -8082.6459   -9103.1524            0    9932.4088    24.924628     24.88936    22.965287      14246.7    9916.5951    10157.367    9723.2641    558.73087    223.34028   -1259.7217   -6018.9545 
 4473000    268.01166   -9076.3862   -8054.6036   -9076.3862            0    10713.999    24.921191    24.931706    22.923237    14242.845    10569.231    10752.015     10820.75   -488.08281   -346.68515   -823.76959   -5829.1209 
 4474000    280.63568   -9050.9557   -7981.0445   -9050.9557            0    11091.378    24.930569     24.93362    22.920945    14247.873    10300.312    11498.105    11475.717    406.04102   -737.71665    234.60155   -5676.3602 
 4475000    262.64703   -9081.4622    -8080.132   -9081.4622            0    9729.9641    24.969329    24.975062    22.915916    14290.607    8919.5153    11102.053    9168.3237    446.68517    711.48608    278.78574   -6052.2728 
 4476000     269.9994   -9080.5057   -8051.1449   -9080.5057            0    10109.452    24.860156     24.86683    23.106162    14284.074    10295.065    10113.268    9920.0214   -155.85552    -4.486217   -241.19588   -5945.1584 
 4477000    264.91065   -9048.8193   -8038.8591   -9048.8193            0    8236.9417    25.021934    25.026339    22.982863    14392.039    6495.8837    8504.6763     9710.265   -213.57309    61.603972   -263.79643   -6309.9817 
 4478000    272.85996   -9076.8148   -8036.5482   -9076.8148            0    7668.7287    25.055002     25.05853    22.914686    14386.792    7012.5596    7810.2082    8183.4182   -185.53649   -913.50135   -780.42624   -6427.5216 
 4479000    266.27186   -9093.3695   -8078.2197   -9093.3695            0    7353.2198    24.947506    24.970148    23.159448    14427.014    6862.0285    8041.3271    7156.3039   -751.92814    395.61543   -278.53691   -6531.0787 
 4480000    268.85338   -9067.3569   -8042.3652   -9067.3569            0    7838.6657    24.962928    25.017124    23.065538    14404.444    7499.7256    7845.9697    8170.3018   -999.13037   -220.53653   -438.66816    -6395.665 
 4481000    280.52963   -9097.2556   -8027.7487   -9097.2556            0    7304.3296    25.081952    25.128645    22.895857    14430.697    7050.5504    6580.1312    8282.3071   -906.04622    -123.7077   -676.91054   -6490.5021 
 4482000    278.81581   -9106.5879   -8043.6149   -9106.5879            0    8375.7686    24.870516    24.991427    23.080973    14345.972    8899.4699    9319.9543    6907.8815    534.69643     154.1298    499.92989   -6291.2258 
 4483000    279.47344   -9095.4145   -8029.9343   -9095.4145            0    8429.7825    24.863207    25.081905    23.008268    14348.337    9095.2682    7305.0782     8889.001    298.09041   -780.96092   -352.15369   -6265.9536 
 4484000    274.21224   -9088.8243   -8043.4022   -9088.8243            0    9273.2715    24.997918    25.042053     22.87609    14320.414    8965.7484    8954.4357    9899.6303    223.04356    116.04357   -445.29793   -6106.6929 
 4485000    264.35052   -9106.0379   -8098.2131   -9106.0379            0    8684.0767    24.953625    24.959871    22.976607    14310.733    8884.2179    8320.5051    8847.5071    897.24938    640.98737    358.00009   -6285.7825 
 4486000    272.05651   -9069.8981   -8032.6947   -9069.8981            0    10509.685    24.832567    24.942055    23.024487    14260.797    10770.151    10813.576    9945.3278     655.1835    905.42174   -117.18033   -5846.8999 
 4487000    266.07252   -9081.7132   -8067.3234   -9081.7132            0    10233.302    24.918202    24.952247    22.883887    14228.403    9496.5271     10965.52    10237.858   -60.385004    439.73543    54.420045   -5943.8451 
 4488000    282.13549   -9054.4334   -7978.8042   -9054.4334            0    10444.163    24.916678    25.015663    22.962052    14312.413    10541.157    10043.393     10747.94   -820.15956   -966.10798    569.42918   -5798.7746 
 4489000    267.27186   -9072.6358   -8053.6735   -9072.6358            0    8353.2407    25.009185    24.939636     23.04376    14372.853    8607.5254    8828.2227    7623.9738    868.14271   -2277.8623    220.85512   -6302.7231 
 4490000    267.90871   -9023.4888   -8002.0986   -9023.4888            0    10496.465    24.864888     25.03027    22.957094    14287.918    10782.779    10160.932    10545.685   -1122.1515   -1286.6379   -351.34422   -5814.9016 
 4491000    273.98951   -9073.3439    -8028.771   -9073.3439            0    9943.1342    24.831473    24.938555     23.08005    14292.576    9492.0516    9668.1089    10669.242    831.03321    451.50107     1680.983   -5956.1986 
 4492000    264.39931   -9027.9443   -8019.9336   -9027.9443            0    10092.831    25.038025    25.069065    22.773795    14294.653    9454.5272    9860.3961    10963.569    1562.7225    -512.5328   -21.500181   -5915.8523 
 4493000    268.55255    -9083.039   -8059.1942    -9083.039            0    9104.0298    24.909426    25.000154    23.017185     14333.71    10236.648    8974.8842    8100.5575     -247.989    279.68846     983.1761   -6156.0655 
 4494000    255.38972   -9051.7724   -8078.1103   -9051.7724            0    9497.6242    24.883147    24.973183     23.02876    14310.334    10056.781    9613.5012    8822.5906    117.06769    101.69477    1334.2287   -6095.9415 
 4495000     273.1093   -9086.5695   -8045.3523   -9086.5695            0    7517.0705    25.087936    25.031954    22.943951    14408.803    8151.8169    6850.5877    7548.8068   -964.78956   -208.77382    403.13565   -6465.7331 
 4496000    264.52896    -9076.892    -8068.387    -9076.892            0    8840.8339    25.019091    24.847678    23.053831     14331.79    9167.7071    8746.8393    8607.9555     32.53708   -913.81045   -91.324174   -6220.5248 
 4497000    280.32775   -9064.5421   -7995.8049   -9064.5421            0    9360.8373    25.005042    24.951995     22.93377    14308.968    8817.9576    10235.049    9029.5052   -507.07282    404.99737     304.0162   -6042.3701 
 4498000    263.71488   -9109.7764    -8104.375   -9109.7764            0    8689.5175    24.918302    24.847064    23.123685    14316.952    8983.3104    9753.5068    7331.7352    38.437861   -1453.0522   -607.33183   -6290.0206 
 4499000    258.65337   -9107.6209   -8121.5163   -9107.6209            0     9931.081     25.05617    24.858205    22.875508    14248.042    9150.1075    10456.245     10186.89    38.919927   -71.239722   -197.05511   -6057.9064 
 4500000    279.03427   -9078.4731   -8014.6672   -9078.4731            0    8278.0978    25.108576    24.926701    22.931849    14352.448    8369.9435    9018.7465    7445.6033    102.72898    881.40193   -143.79017   -6281.9312 
Loop time of 545.465 on 64 procs for 250000 steps with 1920 atoms

Performance: 79.199 ns/day, 0.303 hours/ns, 458.325 timesteps/s
99.1% CPU use with 64 MPI tasks x 1 OpenMP threads

MPI task timing breakdown:
Section |  min time  |  avg time  |  max time  |%varavg| %total
---------------------------------------------------------------
Pair    | 62.034     | 64.719     | 66.208     |  12.7 | 11.86
Bond    | 0.26844    | 0.28153    | 0.29894    |   0.9 |  0.05
Kspace  | 235.55     | 242.3      | 252.91     |  27.4 | 44.42
Neigh   | 6.3754     | 6.9383     | 8.3552     |  18.4 |  1.27
Comm    | 93.707     | 107.79     | 115.49     |  47.6 | 19.76
Output  | 1.2802     | 1.2811     | 1.2859     |   0.2 |  0.23
Modify  | 109.22     | 114.35     | 117.62     |  22.0 | 20.96
Other   |            | 7.811      |            |       |  1.43

Nlocal:        30.0000 ave          33 max          26 min
Histogram: 1 3 7 0 12 16 0 14 8 3
Nghost:        2798.89 ave        2830 max        2772 min
Histogram: 3 2 11 12 7 11 10 5 0 3
Neighs:        10579.7 ave       11675 max        8902 min
Histogram: 2 1 3 3 10 12 8 16 4 5

Total # of neighbors = 677102
Ave neighs/atom = 352.65729
Ave special neighs/atom = 2.0000000
Neighbor list builds = 11935
Dangerous builds = 0

unfix		3
unfix		2
unfix		1

write_data	data.final.${pid}
write_data	data.final.0
System init for write_data ...
PPPM initialization ...
  extracting TIP4P info from pair style
  using 12-bit tables for long-range coulomb (../kspace.cpp:340)
  G vector (1/distance) = 0.37428012
  grid = 30 30 30
  stencil order = 5
  estimated absolute RMS force accuracy = 0.0032949732
  estimated relative force accuracy = 9.9227139e-06
  using double precision FFTW3
  3d grid and FFT values/proc = 3600 512
Last active /omp style is kspace_style pppm/tip4p/omp
WARNING: Not all mixed pair coeffs generated from mixing. Use write_data with 'pair ij' option to store all pair coeffs. (../write_data.cpp:312)

write_restart   restart.lmp.${pid}
write_restart   restart.lmp.0
System init for write_restart ...
PPPM initialization ...
  extracting TIP4P info from pair style
  using 12-bit tables for long-range coulomb (../kspace.cpp:340)
  G vector (1/distance) = 0.37428012
  grid = 30 30 30
  stencil order = 5
  estimated absolute RMS force accuracy = 0.0032949732
  estimated relative force accuracy = 9.9227139e-06
  using double precision FFTW3
  3d grid and FFT values/proc = 3600 512
Last active /omp style is kspace_style pppm/tip4p/omp
Total wall time: 0:09:08
