#include		in.partitions
include		in.temp
variable        temperature equal 173.27
variable	tempDamp equal 100.0
include		in.pressure
variable        pressure equal 8324.4
variable        pressureDamp equal 1000.0 # This is 1 ps
include		in.seed
variable        seed equal 745823

units		real
atom_style	full
read_restart    restart.lmp.${pid}
read_restart    restart.lmp.1
Reading restart file ...
  restart file = 30 Jul 2021, LAMMPS = 30 Jul 2021
  restoring atom style full from restart
  triclinic box = (-3.0872369 -0.19266118 0.0093788127) to (14.697236 22.772660 19.220619) with tilt (-0.54768672 -6.4062769 0.23359892)
  2 by 4 by 2 MPI processor grid
  restoring pair style lj/cut/tip4p/long/omp from restart
  restoring bond style harmonic/omp from restart
  restoring angle style harmonic/omp from restart
  1008 atoms
  672 bonds
  336 angles
Finding 1-2 1-3 1-4 neighbors ...
  special bond factors lj:    0        0        0       
  special bond factors coul:  0        0        0       
     2 = max # of 1-2 neighbors
     1 = max # of 1-3 neighbors
     1 = max # of 1-4 neighbors
     2 = max # of special neighbors
  special bonds CPU = 0.001 seconds
  read_restart CPU = 0.005 seconds

include 	in.setup
variable	out_freq equal 1000
variable	out_freq2 equal 10000
variable	out_freq3 equal 1000

timestep	2.0

neigh_modify    delay 7 every 1

include		in.tip4p
# This is TIP4P/Ice

# create groups ###
group ox type 2
336 atoms in group ox
group hy type 1
672 atoms in group hy

# set charges - beside manually ###
set group ox charge -1.1794
Setting atom values ...
  336 settings made for charge
set group hy charge 0.5897
Setting atom values ...
  672 settings made for charge

# ### TIP3P Potential Parameters ###
pair_style lj/cut/tip4p/long/omp 2 1 1 1 0.1577 8.5
pair_coeff 1 1*2 0.000 0.000
pair_coeff 2 2 0.21084 3.1668
bond_style  harmonic
bond_coeff  1 450 0.9572
angle_style harmonic
angle_coeff 1 55 104.52
kspace_style pppm/tip4p/omp 1.0e-5
pair_modify tail yes

thermo          ${out_freq}
thermo          1000
thermo_style    custom step temp pe etotal epair emol press lx ly lz vol pxx pyy pzz pxy pxz pyz enthalpy

restart 	${out_freq3} restart.lmp.${pid} restart2.lmp.${pid}
restart 	1000 restart.lmp.${pid} restart2.lmp.${pid}
restart 	1000 restart.lmp.1 restart2.lmp.${pid}
restart 	1000 restart.lmp.1 restart2.lmp.1


include         in.dump
dump            myDump all atom ${out_freq2} dump.water.${pid}
dump            myDump all atom 10000 dump.water.${pid}
dump            myDump all atom 10000 dump.water.1
dump            myDump2 all dcd ${out_freq2} dump.dcd
dump            myDump2 all dcd 10000 dump.dcd
dump_modify     myDump append yes
dump_modify     myDump2 append yes


variable natoms 	equal  "count(all)"                        # NUMBER ATOMS
variable H      	equal  "enthalpy/v_natoms"                 # ENTHALPY-per-atom
variable Vol      	equal  "vol/v_natoms"                 # volume-per-atom
fix AVG all 		ave/time ${out_freq} 1 ${out_freq} v_Vol v_H file vol_enthalpy.dat
fix AVG all 		ave/time 1000 1 ${out_freq} v_Vol v_H file vol_enthalpy.dat
fix AVG all 		ave/time 1000 1 1000 v_Vol v_H file vol_enthalpy.dat



fix 		1 all shake 1e-6 200 0 b 1 a 1
       0 = # of size 2 clusters
       0 = # of size 3 clusters
       0 = # of size 4 clusters
     336 = # of frozen angles
  find clusters CPU = 0.000 seconds
fix             2 all nph tri ${pressure} ${pressure} ${pressureDamp}
fix             2 all nph tri 8324.4 ${pressure} ${pressureDamp}
fix             2 all nph tri 8324.4 8324.4 ${pressureDamp}
fix             2 all nph tri 8324.4 8324.4 1000
fix             3 all temp/csvr ${temperature} ${temperature} ${tempDamp} ${seed}
fix             3 all temp/csvr 173.27 ${temperature} ${tempDamp} ${seed}
fix             3 all temp/csvr 173.27 173.27 ${tempDamp} ${seed}
fix             3 all temp/csvr 173.27 173.27 100 ${seed}
fix             3 all temp/csvr 173.27 173.27 100 745823


run             250000
PPPM initialization ...
  extracting TIP4P info from pair style
  using 12-bit tables for long-range coulomb (../kspace.cpp:340)
  G vector (1/distance) = 0.38440613
  grid = 24 30 32
  stencil order = 5
  estimated absolute RMS force accuracy = 0.0018544069
  estimated relative force accuracy = 5.5844913e-06
  using double precision FFTW3
  3d grid and FFT values/proc = 8400 1536
Last active /omp style is kspace_style pppm/tip4p/omp
Neighbor list info ...
  update every 1 steps, delay 7 steps, check yes
  max neighbors/atom: 2000, page size: 100000
  master list distance cutoff = 10.8154
  ghost atom cutoff = 10.8154
  binsize = 5.4077, bins = 5 5 4
  1 neighbor lists, perpetual/occasional/extra = 1 0 0
  (1) pair lj/cut/tip4p/long/omp, perpetual
      attributes: half, newton on, omp
      pair build: half/bin/newton/tri/omp
      stencil: half/bin/3d/tri
      bin: standard
Per MPI rank memory allocation (min/avg/max) = 12.51 | 12.52 | 12.52 Mbytes
Step Temp PotEng TotEng E_pair E_mol Press Lx Ly Lz Volume Pxx Pyy Pzz Pxy Pxz Pyz Enthalpy 
18250000    182.56425   -5028.7537   -4663.6027   -5028.7537            0    6811.3255    17.784473    22.965321     19.21124    7846.3726    8417.0825    6488.1394    5528.7546    1762.0692    360.80248    718.84912   -3884.1739 
18251000    173.44733   -5029.7362   -4682.8201   -5029.7362            0    8049.3582    17.755798    22.850929    19.274514    7820.3733    8228.9083     8120.138    7799.0282    271.36449   -752.64446    612.67729   -3764.7737 
18252000    185.03189   -5042.1287   -4672.0421   -5042.1287            0    9879.4338    17.887378    22.551635    19.298651    7784.8757    10010.465    10814.727    8813.1096   -45.256341    634.76024    1123.0917   -3550.3862 
18253000    169.30729   -5023.9881   -4685.3526   -5023.9881            0    8599.6524     17.86735    22.833698    19.125832     7802.912    6673.6566     9532.223    9593.0776    362.25202    1544.0127    330.80843    -3706.734 
18254000      165.893   -5037.9865     -4706.18   -5037.9865            0    7206.4956    17.891577    23.018871    18.990851    7821.2665    6355.4376     5937.135    9326.9142    212.98044   -553.04823   -1277.3894     -3884.17 
18255000    169.53431   -5016.4917   -4677.4021   -5016.4917            0    8682.5604    17.941701    22.749556    19.113086    7801.3069    8485.1074    8980.0962    8582.4774    1125.3057   -674.45321    781.94437   -3689.5519 
18256000    179.54763   -5026.4842   -4667.3668   -5026.4842            0     7599.142    17.944228    22.604351    19.315508    7834.7109    7667.9728     7921.879    7207.5742   -344.13126   -24.354735     733.9646   -3799.0795 
18257000    170.30529   -5020.9242   -4680.2925   -5020.9242            0    7743.4709    17.886681    22.833285    19.142582    7818.0543    8549.8881    6853.0954    7827.4293   -979.34638   -445.87548    1377.7752   -3797.3951 
18258000    168.94263   -5013.3312    -4675.425   -5013.3312            0    8534.0305    17.710069    23.081542    19.109409    7811.4618    8300.8204    7871.4395    9429.8317   -111.53031    1318.2958    161.46493   -3703.2099 
18259000    177.97734    -5015.112   -4659.1353    -5015.112            0    8471.4761     17.90721    22.776747    19.149891    7810.6277    8779.4391    8381.2816    8253.7076     531.2773    256.70236    732.25758   -3694.1495 
18260000     176.0857   -5020.1363   -4667.9431   -5020.1363            0    8388.8173    18.152093    22.487189    19.140103    7812.7901    7298.3579    9134.3027    8733.7914   -85.990135   -423.95508    784.30592   -3712.1085 
18261000    173.07154   -5033.2331   -4687.0687   -5033.2331            0    7299.9382    17.998491     22.73435    19.198354    7855.6593    7938.1639    7011.3064    6950.3442    416.24763    954.04641  -0.93585117   -3850.7386 
18262000    178.45099   -5007.3679   -4650.4439   -5007.3679            0    7265.9253    17.997622    22.611804    19.289268    7849.9354    5517.2642     8887.972    7392.5397   -634.35177    2159.0969   -924.42875   -3818.6171 
18263000    185.20392   -5026.5959   -4656.1652   -5026.5959            0    7300.0562    17.826783    22.874756    19.213718    7835.0335    6600.1458    7531.2841    7768.7386   -29.701155    1191.4093   -991.07019   -3822.0175 
18264000    175.59012   -5029.6806   -4678.4787   -5029.6806            0     9212.237    17.830652    22.791502    19.142374    7779.2182    9681.4514     8837.579    9117.6807   -527.38914    140.63134   -603.89695   -3633.3327 
18265000    178.73891    -5034.528   -4677.0281    -5034.528            0    9753.5983    17.903906    22.667926    19.223936     7801.927    9662.8156    10453.573    9144.4063   -780.85486    605.33451   -417.79237   -3567.2334 
18266000     179.0682   -5034.8279   -4676.6694   -5034.8279            0    8804.5318    17.942115    22.723269    19.153733    7809.0443    8449.0799    8515.1068    9449.4088    63.264335   -496.77263   -77.365762   -3673.9485 
18267000    178.55292   -5040.3974   -4683.2695   -5040.3974            0    7148.5741    17.902336    22.948285      19.1356    7861.4382    6342.7134    7736.0665    7366.9425    1114.0493    188.81126   -542.87976   -3863.6782 
18268000     167.5251   -5022.9793   -4687.9084   -5022.9793            0    10017.835    17.821189    22.818839    19.095621     7765.403    10883.664    9428.3883    9741.4513    462.02743   -151.13593   -1867.7032   -3553.3843 
18269000    180.63029   -5035.2713   -4673.9884   -5035.2713            0    8584.2058    17.966327    22.491093    19.257515    7781.6218    7789.1255    9370.5243    8592.9676   -1541.0425   -229.38385   -240.84178   -3699.7929 
18270000    181.54862   -5048.3978   -4685.2782   -5048.3978            0    6896.4742    17.889547    22.915862    19.131121    7842.8868    7182.8995    5352.5844    8153.9388    617.66092   -367.34575    580.36858   -3896.4563 
18271000    166.67933   -5029.0012    -4695.622   -5029.0012            0    7790.5274    17.892209    22.838923    19.146048    7823.8176    8515.7727    8165.5234    6690.2861    144.47721    538.10881   -272.52391   -3806.7045 
18272000    172.46541   -5024.4976   -4679.5455   -5024.4976            0     7161.948     17.90634    22.789802    19.233836     7848.981    7586.2927    6663.0774    7236.4739   -76.548131   -423.52456   -1867.0085   -3859.7221 
18273000    166.80018   -5037.8244   -4704.2035   -5037.8244            0    7591.4458    17.949313    22.589533    19.325943    7836.0243     6936.924    8960.0293    6877.3841   -526.77279   -304.69941   -496.01577   -3836.6502 
18274000    175.13063   -4995.0179    -4644.735   -4995.0179            0    9135.3329    17.935724    22.848139    19.069179    7814.5096    8479.3043    8425.7425    10500.952   -543.08557   -762.72132   -646.65128   -3603.6121 
18275000    176.17438   -5011.4089   -4659.0383   -5011.4089            0    7881.5974     17.90047    22.869516    19.081343    7811.4263    7659.3696    8062.0928    7923.3296   -502.75469   -1442.9104    -249.7569   -3761.1538 
18276000    168.90357   -5006.0947   -4668.2667   -5006.0947            0    7254.4004    17.846247    22.795329    19.327453    7862.6218    7216.4564    7269.8581    7276.8867    774.21592   -385.29817   -436.24012   -3836.4172 
18277000     180.5268   -5012.3021   -4651.2262   -5012.3021            0    9757.2802    17.934011    22.579279    19.233942    7788.5354    8637.4712    10177.446    10456.923   -872.73518    416.75669   -420.50033   -3542.9182 
18278000    171.61113   -5032.9515    -4689.708   -5032.9515            0    7973.0464    18.035617    22.598394    19.196161    7823.8941    6131.5799    9304.8333    8482.7261    -1378.317   -27.311886    787.78105   -3779.9558 
18279000    174.96686   -5027.8353   -4677.8799   -5027.8353            0    8271.7509    17.790284    22.817672    19.245216    7812.2658    8726.3397     8980.496    7108.4169    543.26762     393.2399   -50.478552   -3735.4472 
18280000     187.1558   -5037.2859   -4662.9512   -5037.2859            0    7884.0133    17.860379    22.807041     19.25571    7843.6671    8127.6608    7761.0587    7763.3205    494.80048    584.74779   -331.42022   -3761.0844 
18281000    184.72377   -5022.2617   -4652.7914   -5022.2617            0    8058.6629     18.02815    22.722487     19.08747    7819.0754    6638.6087    8757.4408    8779.9392    659.32381    355.51024   -344.74672   -3733.8363 
18282000    175.50201   -5016.2033   -4665.1776   -5016.2033            0    7296.5989    18.148932    22.667217    19.016494    7823.1152      6923.22    6766.8502    8199.7265    67.885449   -681.25898   -200.18132   -3832.6932 
18283000    166.95295   -5015.2524   -4681.3259   -5015.2524            0    8414.4222    17.928257    22.771967    19.194332      7836.31    6885.5596    8846.6448    9511.0621    1303.8792    84.520891    1033.1788   -3719.6875 
18284000    168.36055   -5029.7473   -4693.0054   -5029.7473            0    8697.3866     17.73986    22.856275    19.163909    7770.3348    8665.0259    8522.7859     8904.348    585.78293   -123.90716   -139.03579    -3707.397 
18285000    166.98096   -5042.9684   -4708.9858   -5042.9684            0    7396.2671    17.791915    22.902399    19.309072    7868.0133    7195.9249    7007.6577    7985.2188   -453.76857   -352.98442    362.73317   -3860.2871 
18286000    175.61501   -5042.0378   -4690.7861   -5042.0378            0    9961.8479    17.776467    22.473713    19.435952    7764.7255    10055.577    11458.205    8371.7609   -688.28553    1062.9626   -145.01433   -3562.7009 
18287000    170.80039   -5026.0409    -4684.419   -5026.0409            0    6090.0196    17.886996    22.763761    19.353304    7880.1873    6587.5606    6441.8414    5240.6569   -77.462741   -301.28312    605.10835   -3984.5269 
18288000    177.60896   -5037.1603   -4681.9205   -5037.1603            0    7515.8742    17.754178    23.036252    19.141152    7828.5343    7577.2302    6642.3778    8328.0145   -534.31895   -155.69529   -1973.5885   -3823.8245 
18289000    181.04783   -5051.0858   -4688.9678   -5051.0858            0    6849.4677    17.927178    22.742018    19.224604     7837.875    7712.8465    6387.7387     6447.818   -121.68724   -412.58782   -261.46808   -3906.0232 
18290000    176.58606   -5030.4077   -4677.2138   -5030.4077            0    8969.3628    17.973919    22.530619     19.32744    7826.9082    9120.6721    8913.3111    8874.1051    505.37241    -79.68507    1093.1134   -3653.3841 
18291000    171.09932   -5016.2776   -4674.0578   -5016.2776            0    8532.8631    17.815771    22.913005    19.093778    7794.3255    8490.2663    8338.6964    8769.6267    633.84827   -196.40994    1416.6111   -3704.1081 
18292000    174.82352   -5023.7202   -4674.0516   -5023.7202            0    7474.7715    17.840614    23.031006    19.030714    7819.4786    6236.6876    7223.2759    8964.3511    339.19047   -703.04153    1478.1519   -3821.6356 
18293000    181.50407   -5028.9611   -4665.9306   -5028.9611            0    7941.2503    17.905805    22.651318    19.265157    7813.7565    8552.7205    7912.1405    7358.8897    729.59057   -796.42608    18.685146   -3760.9804 
18294000    169.71175   -5038.2898   -4698.8453   -5038.2898            0    8343.7012    17.894386    22.629484    19.276051    7805.6581    9861.1044    6780.5957    8389.4035   -5.0896367   -812.35202    148.55373   -3749.0191 
18295000    167.99585    -5034.117   -4698.1046    -5034.117            0    9795.3683    17.908511    22.792382    19.051783    7776.5112    8593.3572    9416.3309    11376.417   -1021.1414    181.71871   -177.87641   -3587.1879 
18296000    168.93273   -5029.2795   -4691.3932   -5029.2795            0    8037.3359    17.852051    22.928854    19.088257    7813.3405    7699.8035    7845.7738    8566.4303   -1317.1841     349.0652    -519.5874   -3775.5424 
18297000    176.93072   -5027.6538   -4673.7705   -5027.6538            0    9381.1354    17.959614    22.598372     19.22685    7803.3716    10432.322    9606.8669    8104.2171    -1046.937   -964.56185   -1563.2675   -3606.1581 
18298000    172.47139   -5026.2547   -4681.2906   -5026.2547            0    9751.7505    17.959802    22.415461     19.29067    7765.9847    9435.8984    10097.786    9721.5673     589.6531   -1180.4244   -946.09657   -3576.8179 
18299000    180.17284   -5028.5748   -4668.2068   -5028.5748            0    7784.6849    17.929329    22.870734    19.097017    7830.8637     7396.659    7905.1515    8052.2443   -657.89372    402.31015   -156.00136    -3779.156 
18300000    169.18203   -5031.9331   -4693.5482   -5031.9331            0    8745.9012     17.81702     22.92727    19.107092    7805.1635    8594.0643    8528.1583     9115.481    341.81553    360.14982   -439.40282   -3697.9996 
18301000    183.24827   -4997.0654   -4630.5462   -4997.0654            0    9086.8571    17.810827    22.708792    19.260493    7790.1443    8002.8331    10145.906    9111.8321     1344.132   -1193.6054   -581.50999   -3598.1769 
18302000     169.8749   -5030.4346   -4690.6638   -5030.4346            0    8311.8591    17.933801    22.595095    19.270332     7808.646    7902.6183    8254.1671    8778.7918    174.07842   -231.66865   -186.38703   -3744.1002 
18303000    164.57326   -5026.7805   -4697.6136   -5026.7805            0    8396.2129    18.014185     22.43718    19.304866     7802.786    6110.0513    10124.377    8954.2102   -1010.3534    1349.7173   -192.89532   -3742.1613 
18304000    177.47833    -5015.644   -4660.6654    -5015.644            0    7670.5317    17.896403    23.041641    19.053401    7856.9079    7409.9612    7151.4583    8450.1755   -1248.0009    131.87893   -286.09459    -3781.738 
18305000    173.93091   -5009.7899   -4661.9066   -5009.7899            0    9461.9911    17.801474    22.726173    19.235629    7781.9541    9482.7466    9904.8906    8998.3362   -136.52596   -236.48366    7.0928818    -3588.048 
18306000    187.09306   -5025.0028   -4650.7936   -5025.0028            0    7101.3045    18.007484    22.436941    19.425075    7848.3683    7591.7429      7734.37    5977.8004   -463.69041     1029.818   -298.38939   -3837.9754 
18307000    164.46709   -5030.8045     -4701.85   -5030.8045            0    8557.7112     17.84944    22.758452    19.206195     7802.049    9243.7169    8460.4331    7968.9837    71.932134    483.49265    316.67488   -3728.1119 
18308000    172.99405   -5027.6844    -4681.675   -5027.6844            0    8807.1695    17.825244    22.846116    19.182012    7811.6366    10130.697    8483.6824    7807.1295    2020.5111    734.72216    1159.1801   -3678.3207 
18309000    170.71857   -5024.2547   -4682.7965   -5024.2547            0     7963.227    17.832118    22.900026    19.129396    7811.6031    8344.2959    7618.9082    7926.4769   -736.46706     682.4186   -590.86173   -3775.5921 
18310000    175.64495   -5022.8404   -4671.5288   -5022.8404            0    10260.209    17.653879    22.763576    19.273929    7745.5256    11633.957    10411.418    8735.2515    530.84641    1225.8724   -1254.9654     -3512.53 
18311000    172.95515   -5009.0091   -4663.0774   -5009.0091            0    7157.5586      17.9946    22.461943    19.439457     7857.306    6967.3324    8134.5335    6370.8098    1095.3444    49.109586   -260.35857   -3842.8874 
18312000     181.5171   -5004.7471   -4641.6905   -5004.7471            0     7677.087    17.872285    22.750622     19.24106    7823.5233    8406.5479    6670.8579    7953.8553    594.63859   -584.55647    1001.0269   -3765.7497 
18313000    183.82336    -5020.219   -4652.5495    -5020.219            0     8006.246    17.800698    22.790003     19.25161    7809.9537    8091.5091    8954.7878     6972.441    -386.4071   -983.02801   -401.31851   -3740.6368 
18314000    176.37527   -5033.9268   -4681.1545   -5033.9268            0    7355.6401    17.840356    22.913421    19.143064    7825.3708    8025.5113    7513.7608    6527.6483    1041.9414    203.60228   -189.64441    -3841.692 
18315000    171.58515   -5035.4287   -4692.2372   -5035.4287            0    8306.2812     17.88455    22.893499    19.075742    7810.3703     8041.833    7713.3185    9163.6921   -75.690328   -406.50859    -254.1595   -3746.0999 
18316000    181.58415   -5010.9019   -4647.7112   -5010.9019            0    8833.3892    18.008946    22.614227    19.158422    7802.4278    8448.7252     8965.455    9085.9874   -1152.9015   -1295.9512   -328.50252   -3642.5562 
18317000    175.12966   -5039.9988   -4689.7178   -5039.9988            0    8187.2145    17.868278    22.906114    19.121969    7826.4847    9576.0869    6130.8282    8854.7284   -960.08483   -116.43316   -1066.3877   -3755.2189 
18318000    176.22733   -5033.1153   -4680.6389   -5033.1153            0    8145.3409    17.878491    22.735889    19.266232    7831.4032    8091.2748    8419.3636    7925.3842   -162.60918    408.16234    279.17428   -3750.3352 
18319000     169.6676   -5037.4632   -4698.1071   -5037.4632            0    8720.2937    17.779647    22.787036    19.255881    7801.4328    8723.5846    8839.6291    8597.6673   -1060.1125    -199.8198   -758.26139   -3705.9479 
18320000    173.66821   -5016.4652   -4669.1073   -5016.4652            0    9360.5901    17.875714    22.690362    19.198368    7786.9814    9344.2644    9742.3877    8995.1181   -313.12968    -856.4212    1459.8404   -3606.0706 
18321000    171.20975   -5015.1761   -4672.7354   -5015.1761            0    8167.3713    17.904745    22.813667    19.133274    7815.4238    9594.7218    7484.2394    7423.1528    303.76229   -1521.6412    1360.3354    -3741.819 
18322000    187.83916   -5022.5838   -4646.8823   -5022.5838            0    7883.7584    17.905991    22.825785    19.205439    7849.6145     7605.106    7064.4026    8981.7666   -7.7994096   -217.97958    528.24074   -3744.3609 
18323000      170.989   -5048.3263   -4706.3272   -5048.3263            0     6989.397    17.893835    22.683207    19.251356    7813.9242    6865.0928    7506.7644    6596.3339    170.32143    452.64528   -1253.3744    -3909.829 
18324000    169.19059   -5042.6388   -4704.2367   -5042.6388            0    6932.9864    17.809551    22.891657    19.186246    7822.0431    6912.4744    7850.0673    6036.4175   -1205.0466   -402.00731    1875.1418   -3913.3461 
18325000    162.63635   -5016.0696   -4690.7768   -5016.0696            0    6399.4513    17.740525    22.992186    19.298429    7871.7029    7219.4745    5936.1505    6042.7288   -500.47109   -103.43221    212.61374   -3956.1152 
18326000    175.83126    -5028.542   -4676.8578    -5028.542            0     7459.356    17.798885    22.774014    19.320202    7831.4837    8127.9644    6874.4266     7375.677    970.22397   -553.02615    458.81586   -3824.8937 
18327000    160.40063   -5026.8991    -4706.078   -5026.8991            0    8749.3426    17.895883    22.451074    19.397518    7793.5693    6683.4926    10131.321    9433.2143   -40.082044   -107.26188    357.78248   -3711.6171 
18328000    182.62424   -5009.3739   -4644.1029   -5009.3739            0    9209.5664    17.930102    22.773432    19.081311    7791.4708    9076.6468    9422.8153     9129.237    1165.4778    279.59318    1285.6414   -3597.6142 
18329000    175.00716   -5046.7046   -4696.6686   -5046.7046            0    6746.0458    17.974743    22.867655    19.120245    7859.1897    6390.0524    7068.4588    6779.6262    434.94136   -384.50168    1014.2785   -3923.4489 
18330000    178.65898   -5020.8908   -4663.5507   -5020.8908            0     6519.882    17.998151    22.863148    19.114526      7865.52    5998.8033    6772.4358    6788.4069    -443.2107    548.27493   -716.61219   -3915.6515 
18331000    176.62468   -5026.4424   -4673.1712   -5026.4424            0    8418.3891    17.929849    22.607672    19.281183    7815.6691    7771.3558    7712.2068    9771.6048   -424.25164    3.0703873   -227.11108   -3713.6136 
18332000    169.28495   -5033.4091   -4694.8183   -5033.4091            0    8216.5837    17.917016    22.620602    19.298197    7821.4373    8446.6125    8463.7949    7739.3438    1213.3103    837.62965   -740.96326    -3757.572 
18333000    170.38911    -5010.039   -4669.2397    -5010.039            0    8522.6373    17.855115    22.910063    19.116494    7819.8278    8363.3656    7897.0757    9307.4706   -997.32646    1173.4925    465.93513   -3697.2826 
18334000    170.10392   -5000.5663   -4660.3375   -5000.5663            0    7445.7563      17.9594    22.875788    19.185461    7882.0671     6657.267    7189.5788    8490.4229   -1114.8685    450.06143    521.32153   -3804.4339 
18335000    172.33221   -5035.0578   -4690.3721   -5035.0578            0    8653.9978    17.999215    22.666255     19.16731    7819.7793    8125.2578    8805.7025    9031.0331   -530.18103    888.82256    860.15074   -3703.4402 
18336000    171.10201   -5022.9845   -4680.7594   -5022.9845            0    9650.5374    17.993325     22.50052    19.205142    7775.3776      9610.44       9708.1    9633.0722    -203.9318   -337.20957   -1301.0109   -3586.4279 
18337000    167.40421   -5019.1674   -4684.3383   -5019.1674            0    9817.1672    17.745162    23.018075    19.083065    7794.6585    10956.569    9181.6842    9313.2482   -103.82478    140.35828   -373.05235   -3568.3512 
18338000    179.68205   -5037.0768   -4677.6905   -5037.0768            0    8137.8397    17.865005    22.786846    19.163744     7801.313    7791.7502    8396.8012    8224.9676   -751.32898    560.03401   -447.89333   -3751.8148 
18339000    162.82646   -5038.3469   -4712.6738   -5038.3469            0    8476.6316    17.996301     22.48413     19.31633    7815.9892    7088.3134    9549.2908    8792.2906    233.71216    468.17891    1663.8115    -3746.438 
18340000    169.07053   -5025.7923   -4687.6304   -5025.7923            0    7769.2611    17.898008     22.74051    19.237844    7829.9919    8958.9226    7178.9713    7169.8895    211.08513   -161.36042   -223.53876   -3800.4398 
18341000    171.64713   -5036.6398   -4693.3243   -5036.6398            0     8361.497    17.884037    22.842542    19.134166    7816.6294    9414.3904    7687.4931    7982.6074    738.44454   -697.88824    635.64168   -3740.1344 
18342000    176.52356   -5042.5261   -4689.4572   -5042.5261            0    8283.6615    17.955049    22.715133    19.183526    7824.0264    8576.0338    7496.5217     8778.429   -804.07617   -812.93303    397.39553   -3744.2467 
18343000    177.78223   -5009.5822   -4653.9958   -5009.5822            0    10000.303    17.867492    22.569866    19.248294    7762.1997    9390.1403     10473.83     10136.94    562.85166   -218.92752    1080.7393   -3521.9243 
18344000    176.79719   -5029.7079   -4676.0917   -5029.7079            0    8467.7707    17.844383    23.016204    19.023741    7813.2396    8856.0135    7945.4633    8601.8353    244.09684    1228.3728   -1418.5866   -3711.2055 
18345000    171.20755    -5044.489   -4702.0527    -5044.489            0    9753.2414    17.942046    22.798902     19.01707    7779.1027    9020.7341    9359.3461    10879.644    -464.0411   -435.48401   -1786.2242   -3595.5452 
18346000    183.26859   -5039.6435   -4673.0837   -5039.6435            0    8169.5442    18.006099    22.643593    19.181112    7820.5765    6888.2512    9289.6635    8330.7178    601.49061    949.95384   -1139.5214   -3741.3056 
18347000     175.6763    -5035.005   -4683.6307    -5035.005            0    7311.8924    17.940483    22.699917    19.282329    7852.6799    6251.6114    7469.6764    8214.3895   -212.85063    245.27657    807.90011   -3846.2488 
18348000    172.53391   -5024.3112    -4679.222   -5024.3112            0    9809.9068    17.810852    22.737695    19.243276    7793.0977    9629.1026    9511.9372    10288.681   -164.69852    477.60964    1426.8296   -3564.2836 
18349000    176.21479    -5045.014   -4692.5627    -5045.014            0    6316.3106    17.813154    22.965383    19.237667    7869.8584    6544.0919    6202.9489    6201.8911     816.7919    1144.0652     247.3209   -3967.6156 
18350000    171.31645   -5034.4123   -4691.7582   -5034.4123            0    5903.5126    17.883793    22.776836    19.351658    7882.6313    7706.9236    5728.2302    4275.3839   -647.51394    317.92556   -808.32151   -4013.0899 
18351000    167.17875    -5038.301   -4703.9229    -5038.301            0    8776.0473     17.88384    22.652511    19.235733    7792.6625    9047.7598    9606.2909    7674.0911    35.317923    1434.7734    1322.8669   -3706.5428 
18352000    164.92468   -5011.3964   -4681.5267   -5011.3964            0    6768.7454    17.931086    22.819659    19.213386    7861.7575    5177.0973    7509.4139    7619.7251    548.22715   -128.43214    68.849619   -3905.4517 
18353000    176.37485   -5016.1469   -4663.3754   -5016.1469            0    7991.6084    17.905932    22.936609    18.993219    7800.5411    8014.1408    7443.9201    8516.7644   -810.79462   -570.47871   -1631.1671   -3754.2269 
18354000    170.45587   -5012.8129   -4671.8801   -5012.8129            0    8284.1938     17.91194     22.75233    19.218032    7832.0852    7483.1214    8164.2327    9205.2274    241.74471   -384.82716    482.49457   -3725.6352 
18355000    182.39805   -5016.7746    -4651.956   -5016.7746            0    8363.1807    17.968013    22.610909    19.296408    7839.6121    9200.8537    8049.6944    7838.9939   -633.21964    318.88485    573.64939    -3695.771 
18356000    166.77781   -5025.8984   -4692.3222   -5025.8984            0    10502.941    17.846579    22.553101    19.258879    7751.6161    9949.7443    11742.675     9816.404    513.38511    1532.1222    519.48472   -3504.9713 
18357000    181.29903   -5039.9529   -4677.3325   -5039.9529            0    6830.6806    17.878539    23.054302    19.081544    7864.9782    7084.7535     5445.524    7961.7642   -96.677661    342.71772   -85.445098   -3893.8354 
18358000    175.54446   -5017.4225   -4666.3118   -5017.4225            0    8497.7262    17.968337    22.844429    19.028998    7810.9544    7411.4945    9003.7258    9077.9584   -1321.0887    -28.40854   -1253.7196   -3698.2954 
18359000    171.08597   -5030.0705   -4687.8774   -5030.0705            0    7857.7491    18.170222    22.351353    19.251104    7818.4328    5896.7393    9346.0353    8330.4726    349.21882    1032.8894    993.64637   -3791.9068 
18360000    175.10334   -5012.1892   -4661.9609   -5012.1892            0    7707.4951    17.788414    22.910843    19.171357    7813.2395    8166.4208    6236.9265     8719.138    1093.5347   -1562.8452    -558.0212   -3783.7066 
18361000    180.70062     -5013.85   -4652.4264     -5013.85            0    8211.2845    17.724685    22.956399      19.1779    7803.3905    8163.1125    8586.8472    7883.8939    1302.0325    2.9919176    2085.4263   -3717.9457 
18362000    173.02891   -5019.8353   -4673.7561   -5019.8353            0    8395.7148    17.983854    22.480623    19.338069     7818.154    7900.1873     8988.452    8298.5051    392.33436   -140.39495   -489.60206   -3716.4787 
18363000    169.87871   -5027.4967   -4687.7183   -5027.4967            0    8452.9402    18.059307    22.520969    19.195742    7807.1596    7864.5563    10048.228    7446.0364    111.10749    936.03529   -716.35163   -3725.2715 
18364000    176.46488   -5021.9998   -4669.0482   -5021.9998            0    7486.3002    17.854933     22.98641    19.114723    7845.0802    9216.5259    7018.8293    6223.5456    52.382395    -243.3808    1443.1757   -3812.5223 
18365000    169.73295   -5013.5255   -4674.0386   -5013.5255            0    9917.3175    17.859631    22.951655    18.970503    7776.1627    9946.0119    8904.2732    10901.668    482.69087    200.48628   -1109.8587   -3549.3419 
18366000     167.9981   -5037.1105   -4701.0935   -5037.1105            0    8702.8022    18.002343    22.554393     19.23712    7810.8847    8351.2709     9242.803    8514.3327   -408.67669     743.5148   -700.48197   -3709.7248 
18367000    168.13903   -5037.7414   -4701.4426   -5037.7414            0    9474.7967    18.036816    22.422476    19.311201    7810.0305    8250.0922    10510.781    9663.5174   -306.08744    1092.2364    -334.7257    -3622.251 
18368000    168.37644   -5034.9251   -4698.1515   -5034.9251            0    8079.3489    17.868751      22.8642    19.135448    7817.8775    7459.0288    8093.2047    8685.8133   -23.991129    1791.2827    1201.2666   -3776.9786 
18369000    166.14184   -5031.3707   -4699.0665   -5031.3707            0      7941.77    17.821104    22.957182    19.119178    7822.0822    8666.3442    7983.3943    7175.5714   -139.86561    709.79544    54.408462   -3793.0929 
18370000    177.22437   -5036.8831   -4682.4125   -5036.8831            0     8314.446    17.896884    22.719171    19.208323    7810.1494     6979.557    8854.0656    9109.7155    124.86252    776.79143    31.525556    -3735.372 
18371000     170.4089   -5035.2633   -4694.4245   -5035.2633            0    8510.5706    18.027736    22.473046    19.314296     7824.958    7992.1417    9532.4642     8007.106   -228.07939    151.79924    1232.0808   -3723.2068 
18372000    174.53958   -5013.6092   -4664.5084   -5013.6092            0     8272.993    17.877493    22.906451    19.109657    7825.5939    8396.7837    7683.2968    8738.8984  -0.78275018    161.96999    405.11906   -3720.3261 
18373000    177.18912   -5032.2809   -4677.8808   -5032.2809            0    8102.4346    17.829559    22.880751    19.160043      7816.41    8023.1642    8177.0308    8107.1088    192.29945    -392.9194   -397.06261   -3754.2492 
18374000    174.43552   -5020.4977   -4671.6051   -5020.4977            0    9411.8467    17.915429    22.683397    19.185502    7796.6578    9215.0527    9706.6007    9313.8866   -971.14725   -395.00131    377.93299   -3601.4193 
18375000    180.63652   -5017.9524   -4656.6571   -5017.9524            0    9770.7657    17.909935    22.725285    19.147067    7793.0167     7798.444    10047.893     11465.96    272.59201    440.49904    1666.1393   -3546.1787 
18376000    176.46186   -5043.0034   -4690.0579   -5043.0034            0    8691.6434    17.799551    22.754868    19.281717    7809.6051    9858.2616    8347.3795     7869.289    675.82064   -39.801192   -325.09885   -3700.1224 
18377000    167.70687   -5027.2016   -4691.7671   -5027.2016            0    9040.7305    17.830913     22.74644    19.208644    7790.8302    7492.9287    9581.8472    10047.416   -390.02044    507.43853   -390.36437   -3664.5479 
18378000    168.93024   -5031.1133    -4693.232   -5031.1133            0    8394.7188    17.933037    22.672608    19.216372    7813.1601    8886.6198    7985.0556    8312.4811    186.81948    -594.9727    358.97241   -3736.6796 
18379000    176.10821     -4996.16   -4643.9218     -4996.16            0    8952.4237    17.892891    22.630972    19.287596     7810.194    8915.3084    9129.3215    8812.6412   -1200.3186    1012.7053    459.83423   -3624.2079 
18380000    169.53993   -5042.6174   -4703.5166   -5042.6174            0    8288.2555    17.846803    22.741706    19.229742    7804.7131    8246.4137    7891.0018     8727.351    1043.8772    688.41346   -653.43326   -3760.1164 
18381000    161.45708   -5032.8918   -4709.9577   -5032.8918            0    8801.7543     17.86818     22.74988    19.216162    7811.3499    11456.847    7320.7693    7627.6469    70.506301   -889.62612    -1101.391   -3707.2572 
18382000    179.05616   -5014.9584   -4656.8239   -5014.9584            0    8800.5428    17.943961     22.70054    19.165607    7806.8726    8855.7334    9760.0958    7785.7992   -592.28329     1324.161    -1626.259   -3654.8361 
18383000    177.90879   -5015.2676    -4659.428   -5015.2676            0    7713.9755    17.959443    22.805137    19.096322     7821.234    7111.1306     8708.798    7321.9979   -368.91023    834.36245   -417.68975   -3779.5359 
18384000    167.24963     -5029.09     -4694.57     -5029.09            0    9690.5026    17.883311    22.699065    19.167149    7780.6062    9513.7021    9510.2282    10047.577   -1067.8861   -403.49532   -279.71085   -3594.9678 
18385000    171.60126   -5034.7537     -4691.53   -5034.7537            0    8359.6717    17.980854    22.527431    19.295789    7815.9995    7834.0055     9085.295    8159.7147    1215.1234   -582.55615    -1203.329   -3738.6249 
18386000    180.90803   -5027.1596   -4665.3212   -5027.1596            0    7904.7796    17.830115     22.86107    19.218371    7833.7061    8282.0185    7047.1166    8385.2038   -97.006372    54.491308   -2100.4942   -3762.2272 
18387000    165.80973   -5024.9553   -4693.3154   -5024.9553            0    7252.9301    17.955191    22.781242    19.271405    7882.8056    5589.1785    7928.6723    8240.9394    -564.0688      1185.25   -117.03908   -3859.4995 
18388000    174.04982   -5027.0296   -4678.9084   -5027.0296            0    9112.7684     17.97551    22.620393     19.19632    7805.4754    10820.374    8863.5019    7654.4298    1395.2033   -94.808201    1193.9124   -3641.5578 
18389000    165.01031    -5029.803    -4699.762    -5029.803            0    9707.7382    17.884831    22.637259    19.225946    7783.8845     10115.39    10134.325    8873.4991    1591.3371    1482.0888    492.00216   -3597.7398 
18390000    180.23308   -5031.9621   -4671.4737   -5031.9621            0    8110.3865    17.882688    22.866733    19.134159    7824.3147    8155.9484    7844.0417    8331.1693   -995.93614    225.51878     27.08948   -3746.0007 
18391000     171.8767   -5035.3569   -4691.5822   -5035.3569            0    5429.4859    18.015076    22.705465    19.281157    7886.7779    5963.1728    5059.9079    5265.3772   -1246.7301    362.14717    631.46944   -4067.0797 
18392000    173.98431   -5029.7239   -4681.7337   -5029.7239            0    8025.6368    17.762281    22.687902    19.353915    7799.4125    8110.8259    9818.2892    6147.7953   -35.781958     1296.098    1455.5539   -3768.8462 
18393000    175.40595   -5031.2819   -4680.4484   -5031.2819            0    10168.423    17.741775    22.856836    19.127405    7756.5617    10785.982    9044.5524    10674.735    281.11552   -232.48734    -135.3964   -3530.1811 
18394000     176.0744   -5034.9324   -4682.7619   -5034.9324            0    8264.7564    18.020983    22.759653    19.054639    7815.2852    6155.6914    8744.4796    9894.0982   -88.596654   -110.88342    524.98209   -3740.7621 
18395000    170.16354   -5022.5806   -4682.2325   -5022.5806            0    7835.4667    18.143849    22.675701    19.054631    7839.5417    6159.7569    7359.5996    9987.0436    706.24029   -225.68733   -282.99847   -3786.3905 
18396000    169.40884   -5030.6162   -4691.7776   -5030.6162            0    7558.3409    17.899587    22.839408    19.174578    7838.8737    7188.3799    7197.6782    8288.9645    36.187069   -619.41794    852.28432   -3827.6935 
18397000    168.50108    -5037.245   -4700.2221    -5037.245            0    9295.2298    17.760307    22.865115    19.164993    7782.7395    10290.213    8938.9103    8656.5658    632.10238   -108.76176    582.62818   -3645.1831 
18398000    171.05505   -5029.3648   -4687.2335   -5029.3648            0    8577.5868    17.816066    22.701935    19.246902    7784.5859    9134.8503    8208.3134    8389.5967     721.7197   -1272.0917    315.15088   -3713.4184 
18399000    173.96354   -5000.5998   -4652.6512   -5000.5998            0    8359.4253    17.889581    22.603386    19.301837    7804.9892    8776.0373    9127.5675    7174.6711   -834.65578    256.74546   -1186.5307   -3701.1165 
18400000    173.59019   -5038.0756   -4690.8737   -5038.0756            0    7631.8139    17.767304    22.884585    19.223936    7816.4021    7347.2817    7730.3623    7817.7976     363.9677    29.217459   -947.09931   -3820.8911 
18401000    179.71449   -5007.0236   -4647.5725   -5007.0236            0    8129.2187     17.82915    22.821407     19.20378    7813.7547    8167.8946    8139.2898    8080.4716    285.26421    63.648552    758.56245   -3721.2025 
18402000    175.46035   -5029.9483   -4679.0059   -5029.9483            0    8472.0504     17.82251    22.750326    19.254346    7807.0193    9513.9883    7784.1255    8118.0376    292.25689    349.73041   -526.84982   -3714.4006 
18403000    170.27101    -5006.807    -4666.244    -5006.807            0     9936.579    17.789585    22.910652    19.084383    7778.2409    7684.0529    11050.206    11075.479    647.22787     2355.111    1067.6442   -3539.0616 
18404000     169.6352   -5020.2234   -4680.9321   -5020.2234            0    8229.5706    17.755736    22.905613    19.241983      7825.83      7804.26    7839.5568     9044.895   -1001.5801   -109.31769    947.90322   -3741.6772 
18405000    165.71878   -5020.7942   -4689.3362   -5020.7942            0    8405.0971    17.961039     22.60435    19.263438    7820.9097    7835.8384      8974.47    8404.9829   -922.98261    356.52671    479.59142   -3730.6513 
18406000     171.8738    -5053.026   -4709.2571    -5053.026            0    6930.5522    17.965552    22.516261    19.410249    7851.7768    6586.7759    8573.5355    5631.3452    1152.0292    338.74101    793.07416   -3915.6388 
18407000    176.35303   -5036.5923   -4683.8644   -5036.5923            0    8364.8646    17.872318     22.84822    19.110237    7803.6779    7650.0816    8501.2267    8943.2854    1249.1238    162.00343    750.50977   -3731.8706 
18408000    164.92924   -5031.3327   -4701.4538   -5031.3327            0    7417.6416    17.795494    23.012764     19.13262    7835.2573    8176.1648    7082.2258    6994.5342    1180.9709    216.96688    1224.0512   -3853.8459 
18409000    169.92283   -5033.9797   -4694.1131   -5033.9797            0    8399.4959    17.796738    22.983933    19.066824    7799.0754     6656.016    8778.0069    9764.4648   -979.98118    885.71722    660.63364   -3738.7417 
18410000    182.42178   -5033.4921    -4668.626   -5033.4921            0    9957.9019    17.836077    22.720544    19.139109    7756.0355    10579.258    9598.1095     9696.338   -344.06244   -1050.7541    817.77326   -3542.2497 
18411000    164.31297    -5027.813   -4699.1667    -5027.813            0    8172.4156    17.892142    22.591464    19.360387    7825.6556    9191.5562    7381.8866     7943.804    1451.8655   -668.74714    586.49397   -3766.4558 
18412000     171.7328   -5018.8513   -4675.3645   -5018.8513            0    8470.4271    17.831041    22.778779    19.193455    7795.7932    9560.2938    8645.4373    7205.5501    1331.9061    583.69581   -565.10887   -3712.3307 
18413000    176.18202   -5034.1695   -4681.7837   -5034.1695            0    9119.3035    17.699124    22.986712    19.167642     7798.253    11035.719    7836.2118    8485.9802   -971.56267   -83.067133   -308.31551   -3644.6497 
18414000    171.72099   -5035.8144   -4692.3512   -5035.8144            0     7770.989    17.872616    22.809295    19.248056    7846.6967    7659.6765    8281.7167    7371.5738   -877.81198    509.82007   -373.25115   -3803.0701 
18415000     168.9246   -5028.7476   -4690.8775   -5028.7476            0    8797.3252     17.97903     22.64676    19.161123    7801.7727    8186.4061    9202.9127    9002.6569    1884.7592   -401.60249    454.55697   -3689.9104 
18416000    177.28907   -5007.2234   -4652.6234   -5007.2234            0    8513.4697    18.072777    22.630046    19.073526    7800.8391    8767.9205     8258.158    8514.3307    777.78831   -188.77231    1307.4709   -3684.0695 
18417000    172.58805   -5034.2778   -4689.0804   -5034.2778            0    7235.4187    17.978583    22.828879    19.106123    7841.7432    7039.4654    7135.9247     7530.866    113.23418   -63.131355   -526.93021   -3861.6105 
18418000    175.97614   -5014.0511   -4662.0771   -5014.0511            0    9515.0764    17.758727    22.939963     19.10836    7784.4503     11576.07    8736.0178    8233.1412   -607.86374    1093.6308    355.70044   -3581.8474 
18419000    178.29216   -5014.9644   -4658.3581   -5014.9644            0    7949.0455    17.899585     22.88755    19.127439    7836.0845    8647.9319    6974.8185     8224.386   -596.54408    756.66301    -2216.786   -3749.9312 
18420000    172.06592   -5012.8936   -4668.7405   -5012.8936            0    10187.679    17.980401    22.511688    19.211815    7776.3502     9705.113    11001.137    9856.7879   -217.83212     913.2409   -894.08396   -3513.3549 
18421000    177.42286   -5033.0889   -4678.2213   -5033.0889            0    8645.9664    18.023724    22.605053     19.20938    7826.4243    9059.7131    8980.3654    7897.8206    123.92663    507.81324    907.84453   -3691.3675 
18422000    165.94541   -5024.3951   -4692.4838   -5024.3951            0    8593.1377     17.84719    22.873277    19.145572    7815.6767    7724.3041    8299.4832    9755.6259    356.51025     445.0005   -103.73138   -3713.0068 
18423000    164.94814   -5029.9841   -4700.0675   -5029.9841            0     7677.587    17.941487    22.858239    19.045978    7810.9613    6283.8153    8198.3378    8550.6079    651.86774    986.89392   -554.21802   -3825.4762 
18424000    170.27117   -5033.7305   -4693.1672   -5033.7305            0    6990.1644    17.934042    22.751444    19.214516    7840.0094    6855.0553    6991.2198     7124.218    726.88403    1306.2268    79.634177   -3893.9223 
18425000    172.18651   -5032.2769   -4687.8826   -5032.2769            0    7933.7446    17.912303    22.701872    19.217245    7814.5542    6995.1051    8981.2792    7824.8496   -232.68381    505.05059    770.00984   -3783.6955 
18426000    172.13316   -5030.4269   -4686.1393   -5030.4269            0    7963.8457    17.805369    22.943877     19.14232    7820.1009    6434.3836    8154.0568    9303.0966   -570.32338    354.22624    294.04774   -3777.8774 
18427000    175.00008   -5014.9893   -4664.9675   -5014.9893            0    7490.2602    17.779609    22.928681     19.20343    7828.5276     10008.94    6374.8285     6087.012   -326.59856   -5.7007341   -575.31844   -3809.7967 
18428000    172.19348   -5017.9679   -4673.5597   -5017.9679            0    9046.1657    17.891778    22.767106    19.170338    7808.9224    7023.6775    10335.481    9779.3383    440.23069    712.51731   -171.42137    -3643.336 
18429000    173.32591    -5021.467   -4674.7938    -5021.467            0     7544.938     17.95878    22.673672    19.245635    7836.6588    6749.8061    7804.6475    8080.3605   -677.02183   -77.359338   -1.7388677   -3812.4856 
18430000    173.44883   -5028.1507   -4681.2317   -5028.1507            0    7745.4875    17.982768     22.50059    19.357657    7832.5513    7013.6863    9408.8941    6813.8822    307.80311    363.43327   -743.69213   -3796.4667 
18431000    175.67044   -5036.9264   -4685.5638   -5036.9264            0    8635.3908    17.845016    22.716547    19.197192    7782.1029    8271.9762    8531.9896    9102.2067   -882.43121   -939.05067   -311.92773   -3705.4989 
18432000    171.75721   -5023.6407   -4680.1051   -5023.6407            0    7722.4727    17.725186    22.921187    19.308067    7844.5262    8645.5167    6439.8057    8082.0957   -572.45509   -86.630609   -768.04192   -3796.6205 
18433000    169.10331   -5031.4346   -4693.2071   -5031.4346            0    9793.5312    17.824361    22.720673    19.204647    7777.5262    9360.5833    10548.142    9471.8684   -615.18739    562.90034   -1682.0407   -3582.3539 
18434000    171.04394   -5043.9341   -4701.8251   -5043.9341            0    7303.8231    17.850311    22.749276    19.336566    7852.2248    7152.0189     8043.008    6716.4423    1182.2009    719.48988    646.23461   -3865.4157 
18435000    176.82145   -5015.6471   -4661.9824   -5015.6471            0    9144.7939    17.844561    22.778161    19.193426    7801.4804    8273.9269    9024.5582    10135.896   -53.963409    270.66521    107.82052   -3621.5189 
18436000    176.15918   -5021.3195   -4668.9794   -5021.3195            0    8075.9915    17.826505    22.886151    19.164263    7818.6376    7565.4629    8459.7601    8202.7515    968.92465    910.31518   -19.327442   -3748.0999 
18437000    165.98314   -5031.3501   -4699.3633   -5031.3501            0    6954.7415    17.996165    22.587769    19.313613    7850.8523    6858.3729    8022.7889    5983.0628    466.86002    1337.3378    922.08997   -3903.0689 
18438000    178.62827   -5019.3998   -4662.1212   -5019.3998            0    8837.3761    17.950762    22.497782    19.335966    7808.8749    9866.1746    8848.2058    7797.7478    144.78616    728.52744    68.548864   -3655.6817 
18439000    171.85066   -5044.2716   -4700.5491   -5044.2716            0       8165.7    17.812407    22.868204     19.15422    7802.2367    8443.8632     8720.727    7332.5098   -467.88215    210.67908   -1723.1846   -3771.3935 
18440000    182.25151   -5016.2781   -4651.7526   -5016.2781            0    7698.6869    17.784054    22.936475     19.19096    7828.0599    8221.4697    7410.5911         7464    -257.1734    928.19784   -933.09494   -3772.8379 
18441000    183.09848   -5042.4178   -4676.1982   -5042.4178            0    8736.1002    17.934655    22.730624    19.188162    7822.3591    8532.9662    8599.7048    9075.6296   -1232.3559    410.51575   -207.90594   -3679.5744 
18442000    172.04391   -5018.9807   -4674.8716   -5018.9807            0    8327.4184    18.089326    22.460056    19.272733    7830.2661    6878.7864    10026.121     8077.348   -991.36191    313.42258   -427.54366   -3723.9104 
18443000    168.74718   -5025.4648   -4687.9496   -5025.4648            0    6992.5928    17.960027    22.757275    19.164693    7833.0176    6529.6182    6987.9105    7460.2496     -4.17424    513.93129   -1549.4749   -3889.1401 
18444000    173.67193    -5020.344   -4672.9787    -5020.344            0    9673.2628    17.817084    22.909707    19.030224    7767.8364    9137.4811    9505.5673     10376.74   -48.862053   -525.93412   -111.24474   -3577.1341 
18445000    170.84175   -5022.9111   -4681.2065   -5022.9111            0    8559.6913    17.794392    22.980009     19.13431    7824.3118    8354.8358    8620.4765    8703.7615    985.01625    393.27029   -185.74234   -3704.4639 
18446000    163.39283   -5017.6524   -4690.8465   -5017.6524            0     7629.002    18.089008    22.510537    19.295075    7856.8249    7549.8272    7966.4595    7370.7195   -525.90329    170.79089    12.129019    -3816.687 
18447000    175.48194   -5030.5352   -4679.5496   -5030.5352            0    8918.5963    17.912468    22.708031     19.14046    7785.5139    8323.4753    8501.2308    9931.0829    1000.5189    -449.7345    150.29421   -3666.8989 
18448000    172.23872   -5024.8204   -4680.3217   -5024.8204            0    8664.6332    17.821057    22.999903    19.018536    7795.3665    8014.2961    8255.9578    9723.6456   -7.4795149    208.90532    -863.3606   -3695.2619 
18449000    174.77342   -5022.7517   -4673.1833   -5022.7517            0    7603.0111    17.918492    22.734423    19.261904    7846.6555     9483.133    7531.1375    5794.7629   -368.56323    270.25675   -1278.1909   -3803.1295 
18450000    176.88342   -5035.8411   -4682.0524   -5035.8411            0    9245.5187    17.922102    22.463487    19.315957    7776.4673    10060.688    9121.0862    8554.7815   -411.62945   -323.09408    821.14488   -3633.5015 
18451000    174.24019   -5024.7202   -4676.2183   -5024.7202            0     9759.612    17.862337    22.746089    19.177493    7791.7833    10983.721    9030.9143     9264.201    502.76764    877.72666    29.836909   -3567.1832 
18452000    176.22714   -5030.4044   -4677.9284   -5030.4044            0    8025.7365    17.759755    23.093829    19.029461    7804.7571    8460.7746    7827.1346    7789.3004    6.8477316    558.63508    1110.3241   -3764.4039 
18453000    167.69999   -5039.9946   -4704.5739   -5039.9946            0    8386.8255    17.998112    22.630321    19.173333    7809.3573    10146.756    7947.6909    7066.0294    1611.4398    232.19787   -265.73187   -3749.3861 
18454000    172.95634    -5049.672   -4703.7379    -5049.672            0    8336.7408    17.928488    22.615673    19.197653    7783.9731    7253.5435    8862.3648    8894.3142    137.23501   -765.51162    650.31532   -3757.3406 
18455000    169.09032    -5037.529   -4699.3275    -5037.529            0    8739.2346     17.82621    22.893268    19.098455    7794.0834     8720.811    8282.4673    9214.4256   -678.56839    87.798134   -675.16821   -3705.9499 
18456000    171.72682   -5040.2721   -4696.7973   -5040.2721            0    6581.9837    17.891649    22.846367    19.205206    7850.3046    6852.5918    6886.6589    6006.7004   -74.136907   -1063.5259   -1110.0394   -3943.2349 
18457000      166.491   -5011.8175   -4678.8149   -5011.8175            0    8008.7746     17.91536    22.589419    19.302306    7811.5966    8627.2683    8034.6465    7364.4091   -360.40495   -1187.9949    584.34372   -3766.4222 
18458000    186.07864   -5030.1352   -4657.9549   -5030.1352            0      9297.87    17.917977    22.623564    19.175769    7773.2529    9563.3816    9686.3231    8643.9053   -1175.4183   -653.37154   -284.26217   -3603.9026 
18459000    172.98866   -5031.0423   -4685.0436   -5031.0423            0     7103.553    17.924546    22.676181    19.274399    7834.2771    7090.4091    7159.4324    7060.8176   -723.08654    1108.0548   -149.95043   -3873.4279 
18460000    180.29105   -5028.7485   -4668.1441   -5028.7485            0    8112.2844    17.809863    22.815723    19.214695    7807.7935    9379.5922     7922.317    7034.9439     804.0964    5.7841613    -1224.237   -3744.4092 
18461000    171.54267   -5021.0558   -4677.9493   -5021.0558            0    7712.6537    17.801015    22.895583    19.192899    7822.3461    5145.1081    8958.9116    9033.9413    380.87256    943.60214    615.04833   -3798.0829 
18462000    167.51018   -5011.1017   -4676.0606   -5011.1017            0    7469.5778    17.862074    22.828834    19.158664    7812.3347    8277.8675    6593.9468    7536.9191   -320.51223   -1570.8209   -55.501742   -3825.0151 
18463000    173.50166   -5024.2322   -4677.2074   -5024.2322            0    9252.8105    17.909724    22.697589    19.166869    7791.4766    7682.1939    9373.9901    10702.248   -248.31508   -1227.0489    204.36294   -3625.8041 
18464000     162.8061   -5009.9556   -4684.3233   -5009.9556            0    7964.1315    17.857559    22.763702    19.221153    7813.4782    9216.0383    7152.7538    7523.6023    -164.0265   -372.72181   -623.72137   -3776.7981 
18465000     165.8986   -5035.6619   -4703.8442   -5035.6619            0    9035.3361    17.735757     22.72799     19.31297    7785.0218    10167.466    9610.8189    7327.7237   -127.09913   -266.65704    50.877678   -3678.0032 
18466000    172.77367   -5030.6651   -4685.0964   -5030.6651            0    7042.5039    17.781513    22.977401    19.205579    7846.8801    8425.5765      6054.04    6647.8952   -438.09092   -1061.6739    92.588648   -3879.1614 
18467000    166.69748   -5041.7924   -4708.3768   -5041.7924            0    6564.8698    17.839164    22.810291    19.320086    7861.6624    7952.4979    6609.5544     5132.557   -1152.5492    158.56571   -20.658577   -3955.6864 
18468000    184.36214    -5032.367     -4663.62    -5032.367            0    9738.7388    17.947614    22.536754    19.185162    7760.0326    10829.505    10102.431    8284.2809    1600.3896   -1059.2602    116.14525   -3561.4663 
18469000    178.84261   -5040.7531   -4683.0458   -5040.7531            0    8469.3202    17.910775    22.724039    19.155642     7796.445     8225.194     7998.858    9183.9086    1181.8936   -1763.5754    187.51961   -3720.0574 
18470000    169.75735   -5042.7962   -4703.2605   -5042.7962            0    7155.3827     17.86634    22.815143    19.217808    7833.6225    7805.9786     6369.872    7290.2975   -1359.2283   -433.78341    564.73995   -3885.7913 
18471000    168.47529   -5023.5753   -4686.6039   -5023.5753            0    9254.6086    17.804817    22.829797    19.180378     7796.447    9824.2704    9681.0168    8258.5386     452.3283   -38.066245    337.82435   -3634.3254 
18472000    165.01469   -5036.0489   -4705.9991   -5036.0489            0    9645.8527    17.828696    22.731419    19.185615     7775.384    10464.651    10080.149    8392.7578   -367.94564    314.54397   -367.18692    -3612.198 
18473000    168.58154   -5040.7137   -4703.5297   -5040.7137            0    8128.7575    17.890075    22.702445    19.307415    7841.6764     9242.962    8374.7671    6768.5434    783.07949    360.39009    -511.4302   -3773.9022 
18474000    170.84978   -5022.4616   -4680.7409   -5022.4616            0    7969.8741    17.726332    22.705621    19.402201     7809.141     9274.116     7766.554    6868.9522   -1544.1975     -329.074    371.10731   -3773.0654 
18475000    173.91143   -5038.0382   -4690.1938   -5038.0382            0     8826.719     17.91978    22.692882    19.143535    7784.7467    8770.7457    9202.6524    8506.7589   -928.94761    553.69158    -174.4556    -3688.074 
18476000    170.62143   -5024.2704   -4683.0064   -5024.2704            0     9980.479    17.931894    22.716766    19.091387     7776.965    11003.629    9751.3491    9186.4591    218.73306   -451.46353   -758.24819   -3551.0299 
18477000    190.46553   -5026.9648   -4646.0102   -5026.9648            0    6953.0967     17.87379    22.906562    19.227763    7872.3667    8548.5637    5971.3825    6339.3439    739.26101   -1390.5669   -370.00537   -3847.7224 
18478000    180.55305    -5027.586   -4666.4576    -5027.586            0    7506.1545    17.788045    22.878446    19.243735    7831.4846    7842.6036    7835.6714    6840.1885    743.84372    211.48252    68.227708   -3809.1484 
18479000    170.66845    -5008.643    -4667.285    -5008.643            0    9504.7458    17.791643    22.705299    19.290362    7792.6228    9616.1735    9354.9476    9543.1164   -744.26541   -332.88643   -223.92671   -3587.0952 
18480000    176.77876   -5008.3717   -4654.7924   -5008.3717            0     8995.242    17.799376    22.785258    19.270736    7815.5046    9462.0912    8693.2803    8830.3544   -459.53445   -273.65316     265.7871   -3629.5047 
18481000    175.38577   -5018.3004   -4667.5072   -5018.3004            0     8702.596    17.893844    22.793426    19.163355    7816.0043    9942.3492    7828.6367     8336.802    685.31484   -533.04963   -36.208447   -3675.5122 
18482000    177.84194   -5035.3516   -4679.6458   -5035.3516            0    7571.0394    17.858517    22.900755     19.09265    7808.3881    7786.2331    6693.5895    8233.2956    100.18761   -879.69388    538.96399    -3817.476 
18483000    175.04217   -5046.1342   -4696.0283   -5046.1342            0    7224.8192    17.907444    22.755551    19.229179    7835.7702    5893.2343    7541.5734    8239.6498    1470.1383    321.41109    230.55282      -3870.4 
18484000    181.24206   -5031.2545    -4668.748   -5031.2545            0    8042.5116    17.814394    22.695641    19.367889    7830.6137    9062.3021    7912.1235    7153.1093     1383.279   -965.85137   -114.59855   -3750.2814 
18485000    167.91478   -5036.5134   -4700.6631   -5036.5134            0     7767.895    17.805266    22.910104     19.18088    7824.2741    9121.5807    7016.7808    7165.3234   -311.05129   -233.12524   -792.08169   -3814.2762 
18486000    170.09102   -5030.7878   -4690.5847   -5030.7878            0    8582.0588    17.797324    22.939011    19.120951    7806.1861    8309.8251    8789.9802    8646.3711    267.96645    159.16187    2295.8956   -3713.5583 
18487000    169.30739   -5026.4488   -4687.8131   -5026.4488            0    8191.0518    17.917209    22.664876     19.25994    7821.2947    7509.0224    8367.9008    8696.2322    1135.8708   -228.84315    1229.5283   -3753.4962 
18488000     171.3673   -5011.6153   -4668.8595   -5011.6153            0    8082.1171    17.938566    22.689109    19.204398    7816.3835    6784.0046     8515.953    8946.3937    860.22757   -291.42455   -475.71807   -3747.5472 
18489000    178.83603   -5036.3333   -4678.6392   -5036.3333            0    7970.1054    17.905442    22.862614    19.141543    7835.8817    6311.2824    7564.8505    10034.183   -56.023501   -24.929709    1209.6873   -3767.8291 
18490000    174.64524   -5018.0437   -4668.7316   -5018.0437            0    8951.9632    17.848247    22.819638    19.154745    7801.5462    10180.022    7900.0241    8775.8439   -955.74931   -681.67476   -710.01198   -3650.1992 
18491000    166.38065   -5030.2143   -4697.4324   -5030.2143            0    7252.2637    17.894547    22.796405    19.212298    7837.2986    8181.3607    6212.7443    7362.6862   -692.34558   -346.57365   -588.20918   -3868.5062 
18492000    173.37039   -5036.0652    -4689.303   -5036.0652            0    7003.6831    17.815029    22.996099    19.129141    7836.7528    7703.3049    7255.2312    6052.5132   -606.50994   -632.03089   -280.53158    -3888.845 
18493000    175.27279   -5010.0059   -4659.4386   -5010.0059            0    7632.4816    17.828646    22.944539    19.177834    7845.0774    7760.1939    7281.5188    7855.7322    1256.3067   -1015.6437    521.44724    -3786.188 
18494000    178.58637   -5021.6942   -4664.4994   -5021.6942            0    9903.6055    17.832039    22.582145    19.369734     7799.915    11266.544    9876.7451    8567.5276   -327.39019   -578.06629    736.71338    -3537.927 
18495000    176.68266   -5003.9824   -4650.5952   -5003.9824            0     9309.653    17.833659    22.689033    19.218842    7776.4908    8762.9588     10042.31    9123.6904    99.318002    1027.7975    456.11493   -3594.7675 
18496000    168.89376   -5026.1946   -4688.3862   -5026.1946            0    6367.4579    17.958769    22.646933    19.350556    7870.0842    7092.3106    5971.8221    6038.2409   -481.12782   -95.947593   -1165.3987   -3957.5478 
18497000    165.59984   -5011.8915   -4680.6713   -5011.8915            0    8692.8953    17.898876    22.792124    19.131861    7804.9079    8876.8021    8401.0577    8800.8261   -195.54726   -1255.7042   -1068.3381   -3691.1888 
18498000    170.63517   -5003.4045    -4662.113   -5003.4045            0    8532.1273    17.826405    22.895095    19.141003    7812.1562    8628.6297    8916.8665    8050.8858   -788.36404   -306.38863   -597.38834   -3690.0283 
18499000    167.42764   -5025.7929   -4690.9169   -5025.7929            0    7921.2675    17.725813     22.86459    19.265076    7808.0093    6947.3026    8296.5707    8519.9291    -659.7869    559.20185     1936.992   -3788.9079 
18500000    176.71688   -5012.8386    -4659.383   -5012.8386            0    8957.0626    17.784848    22.778553    19.260258    7802.5825    8057.3061    9759.9041    9053.9776    572.41473   -346.27911      1025.36    -3640.135 
Loop time of 735.003 on 64 procs for 250000 steps with 1008 atoms

Performance: 58.775 ns/day, 0.408 hours/ns, 340.135 timesteps/s
358.4% CPU use with 16 MPI tasks x 4 OpenMP threads

MPI task timing breakdown:
Section |  min time  |  avg time  |  max time  |%varavg| %total
---------------------------------------------------------------
Pair    | 41.881     | 45.864     | 52.288     |  48.0 |  6.24
Bond    | 1.5536     | 1.9801     | 2.5554     |  21.6 |  0.27
Kspace  | 346.94     | 358.64     | 368.61     |  29.6 | 48.79
Neigh   | 2.822      | 2.9279     | 3.1293     |   5.4 |  0.40
Comm    | 97.28      | 112.61     | 122.19     |  63.9 | 15.32
Output  | 0.44816    | 0.44852    | 0.44996    |   0.1 |  0.06
Modify  | 142.83     | 157.37     | 168.85     |  58.3 | 21.41
Other   |            | 55.16      |            |       |  7.51

Nlocal:        63.0000 ave          67 max          58 min
Histogram: 1 0 0 4 2 1 4 2 1 1
Nghost:        3450.62 ave        3482 max        3429 min
Histogram: 2 1 3 3 3 2 0 0 0 2
Neighs:        21391.0 ave       22800 max       19668 min
Histogram: 1 0 1 3 2 0 4 3 1 1

Total # of neighbors = 342256
Ave neighs/atom = 339.53968
Ave special neighs/atom = 2.0000000
Neighbor list builds = 4788
Dangerous builds = 0

unfix		3
unfix		2
unfix		1

write_data	data.final.${pid}
write_data	data.final.1
System init for write_data ...
PPPM initialization ...
  extracting TIP4P info from pair style
  using 12-bit tables for long-range coulomb (../kspace.cpp:340)
  G vector (1/distance) = 0.37948
  grid = 24 27 32
  stencil order = 5
  estimated absolute RMS force accuracy = 0.0024405562
  estimated relative force accuracy = 7.3496626e-06
  using double precision FFTW3
  3d grid and FFT values/proc = 7875 1344
Last active /omp style is kspace_style pppm/tip4p/omp
WARNING: Not all mixed pair coeffs generated from mixing. Use write_data with 'pair ij' option to store all pair coeffs. (../write_data.cpp:312)

write_restart   restart.lmp.${pid}
write_restart   restart.lmp.1
System init for write_restart ...
PPPM initialization ...
  extracting TIP4P info from pair style
  using 12-bit tables for long-range coulomb (../kspace.cpp:340)
  G vector (1/distance) = 0.37948
  grid = 24 27 32
  stencil order = 5
  estimated absolute RMS force accuracy = 0.0024405562
  estimated relative force accuracy = 7.3496626e-06
  using double precision FFTW3
  3d grid and FFT values/proc = 7875 1344
Last active /omp style is kspace_style pppm/tip4p/omp
Total wall time: 0:12:15
