#include		in.partitions
include		in.temp
variable        temperature equal 7.60
variable	tempDamp equal 100.0
include		in.pressure
variable        pressure equal 1992.0
variable        pressureDamp equal 1000.0 # This is 1 ps
include		in.seed
variable        seed equal 745823

units		real
atom_style	full
#include		in.box
read_restart	restart.lmp.${pid}
read_restart	restart.lmp.1
Reading restart file ...
  restart file = 30 Jul 2021, LAMMPS = 30 Jul 2021
  restoring atom style full from restart
  orthogonal box = (0.19068065 0.16422947 0.15551765) to (18.016892 23.464948 22.057678)
  2 by 4 by 2 MPI processor grid
  restoring pair style lj/cut/tip4p/long/omp from restart
  restoring bond style harmonic/omp from restart
  restoring angle style harmonic/omp from restart
  864 atoms
  576 bonds
  288 angles
Finding 1-2 1-3 1-4 neighbors ...
  special bond factors lj:    0        0        0       
  special bond factors coul:  0        0        0       
     2 = max # of 1-2 neighbors
     1 = max # of 1-3 neighbors
     1 = max # of 1-4 neighbors
     2 = max # of special neighbors
  special bonds CPU = 0.001 seconds
  read_restart CPU = 0.005 seconds
include 	in.setup
variable	out_freq equal 1000
variable	out_freq2 equal 10000
variable	out_freq3 equal 1000

timestep	2.0

neigh_modify    delay 7 every 1

include		in.tip4p
# This is TIP4P/Ice

# create groups ###
group ox type 2
288 atoms in group ox
group hy type 1
576 atoms in group hy

# set charges - beside manually ###
set group ox charge -1.1794
Setting atom values ...
  288 settings made for charge
set group hy charge 0.5897
Setting atom values ...
  576 settings made for charge

# ### TIP3P Potential Parameters ###
pair_style lj/cut/tip4p/long/omp 2 1 1 1 0.1577 8.5
pair_coeff 1 1*2 0.000 0.000
pair_coeff 2 2 0.21084 3.1668
bond_style  harmonic
bond_coeff  1 450 0.9572
angle_style harmonic
angle_coeff 1 55 104.52
kspace_style pppm/tip4p/omp 1.0e-5
pair_modify tail yes

thermo          ${out_freq}
thermo          1000
thermo_style    custom step temp pe etotal epair emol press lx ly lz vol pxx pyy pzz pxy pxz pyz enthalpy

restart 	${out_freq3} restart.lmp.${pid} restart2.lmp.${pid}
restart 	1000 restart.lmp.${pid} restart2.lmp.${pid}
restart 	1000 restart.lmp.1 restart2.lmp.${pid}
restart 	1000 restart.lmp.1 restart2.lmp.1


include         in.dump
dump            myDump all atom ${out_freq2} dump.water.${pid}
dump            myDump all atom 10000 dump.water.${pid}
dump            myDump all atom 10000 dump.water.1
dump            myDump2 all dcd ${out_freq2} dump.dcd
dump            myDump2 all dcd 10000 dump.dcd
dump_modify     myDump append yes
dump_modify     myDump2 append yes


variable natoms 	equal  "count(all)"                        # NUMBER ATOMS
variable H      	equal  "enthalpy/v_natoms"                 # ENTHALPY-per-atom
variable Vol      	equal  "vol/v_natoms"                 # volume-per-atom
fix AVG all 		ave/time ${out_freq} 1 ${out_freq} v_Vol v_H file vol_enthalpy.dat
fix AVG all 		ave/time 1000 1 ${out_freq} v_Vol v_H file vol_enthalpy.dat
fix AVG all 		ave/time 1000 1 1000 v_Vol v_H file vol_enthalpy.dat


timer           timeout 23:50:00 every 1000
New timer settings: style=normal  mode=nosync  timeout=23:50:00

fix 		1 all shake 1e-6 200 0 b 1 a 1
       0 = # of size 2 clusters
       0 = # of size 3 clusters
       0 = # of size 4 clusters
     288 = # of frozen angles
  find clusters CPU = 0.000 seconds
fix             2 all nph aniso ${pressure} ${pressure} ${pressureDamp}
fix             2 all nph aniso 1992 ${pressure} ${pressureDamp}
fix             2 all nph aniso 1992 1992 ${pressureDamp}
fix             2 all nph aniso 1992 1992 1000
fix             3 all temp/csvr ${temperature} ${temperature} ${tempDamp} ${seed}
fix             3 all temp/csvr 7.6 ${temperature} ${tempDamp} ${seed}
fix             3 all temp/csvr 7.6 7.6 ${tempDamp} ${seed}
fix             3 all temp/csvr 7.6 7.6 100 ${seed}
fix             3 all temp/csvr 7.6 7.6 100 745823


run             250000
PPPM initialization ...
  extracting TIP4P info from pair style
  using 12-bit tables for long-range coulomb (../kspace.cpp:340)
  G vector (1/distance) = 0.37217501
  grid = 24 27 25
  stencil order = 5
  estimated absolute RMS force accuracy = 0.0031090586
  estimated relative force accuracy = 9.3628377e-06
  using double precision FFTW3
  3d grid and FFT values/proc = 6300 1296
Last active /omp style is kspace_style pppm/tip4p/omp
Neighbor list info ...
  update every 1 steps, delay 7 steps, check yes
  max neighbors/atom: 2000, page size: 100000
  master list distance cutoff = 10.8154
  ghost atom cutoff = 10.8154
  binsize = 5.4077, bins = 4 5 5
  1 neighbor lists, perpetual/occasional/extra = 1 0 0
  (1) pair lj/cut/tip4p/long/omp, perpetual
      attributes: half, newton on, omp
      pair build: half/bin/newton/omp
      stencil: half/bin/3d
      bin: standard
Per MPI rank memory allocation (min/avg/max) = 12.26 | 12.29 | 12.31 Mbytes
Step Temp PotEng TotEng E_pair E_mol Press Lx Ly Lz Volume Pxx Pyy Pzz Pxy Pxz Pyz Enthalpy 
46500000    10.616205   -4721.9293   -4703.7334   -4721.9293            0    2026.6325    17.826211    23.300719    21.902161    9097.3588    2194.4056    1790.2336    2095.2583    8.9489318   -202.64141    115.21906   -4434.8487 
46501000    7.5457186   -4726.7429   -4713.8098   -4726.7429            0    1932.9608    17.847017    23.269617    21.913341    9100.4624    2052.5913    1922.9084    1823.3829    15.927457    178.87345    25.955362   -4457.2655 
46502000    7.7919023   -4727.1397   -4713.7847   -4727.1397            0    1929.2001    17.899708     23.26861    21.844079    9098.0882    1896.1054     1954.846     1936.649    195.77166    45.669639   -112.17362   -4457.8063 
46503000    7.5298022   -4727.4622   -4714.5563   -4727.4622            0    1969.6325    17.912727    23.248141    21.849063    9098.7713    1826.3847    1909.4413    2173.0714    -194.5228   -167.18179    86.963568   -4453.1935 
46504000    7.0278064   -4727.3243   -4715.2789   -4727.3243            0    1979.8642    17.912253     23.24061    21.837979     9090.969    1852.5768     2006.254    2080.7618    38.005548    24.188044   -10.789398   -4452.7837 
46505000    7.6687084   -4726.9008   -4713.7569   -4726.9008            0    1964.7238    17.924545    23.212282    21.858551    9094.6785    1860.2784      2061.24    1972.6529    21.502904   -134.05047    63.999193   -4453.1627 
46506000    7.9158612   -4727.1381   -4713.5706   -4727.1381            0    1985.1127    17.844355    23.302167    21.873082     9095.093    2162.9732    1852.5516    1939.8134   -203.78427   -105.80628   -20.172347   -4450.2601 
46507000      7.47227    -4726.188   -4713.3808    -4726.188            0    2002.1031    17.830646    23.277845    21.910195    9094.0236    2125.5128    1897.2809    1983.5156   -171.44307     -37.6869   0.67863882   -4447.8479 
46508000     7.992915   -4727.0949   -4713.3953   -4727.0949            0    1949.7668    17.846087    23.298679    21.876816    9096.1671    2066.9439     1859.967    1922.3894   -96.245223   -66.130569    57.435903   -4454.7427 
46509000    8.3166556   -4727.3036   -4713.0492   -4727.3036            0    2020.3747    17.899726    23.264508    21.841559    9095.4435    1958.0121    2001.6791    2101.4329    83.026871    133.92165   -36.314546   -4445.0511 
46510000    7.7174521   -4726.7285    -4713.501   -4726.7285            0    2011.7581      17.9387    23.250476     21.80158    9093.0753    1691.4287    1960.8786    2382.9671   -253.34657   -128.79583    14.288477   -4446.7154 
46511000    7.7101125    -4727.327   -4714.1121    -4727.327            0    2058.6413    17.929596    23.213543    21.846896    9092.8845    1941.1873    2117.5688    2117.1679   -8.7332171    -27.08262    54.989985   -4441.1149 
46512000    7.7983844   -4725.5328   -4712.1666   -4725.5328            0    2030.4032    17.885985    23.223912    21.889233    9092.4053    1990.1584    2200.3762    1900.6749   -22.311476    127.54447     2.822443   -4442.9282 
46513000    8.0932074   -4726.7145    -4712.843   -4726.7145            0    2005.9168    17.824015    23.326016    21.882537    9097.9547    2165.5217    1848.8765    2003.3523   -31.437349   -147.38493    168.54757   -4446.6893 
46514000    7.3586759   -4727.0041   -4714.3916   -4727.0041            0    1963.2346    17.844471    23.297666    21.887574    9099.4203    2095.3245    1878.7592    1915.6202   -138.70528    26.469447     72.11468   -4453.8592 
46515000    7.8203094   -4727.2664   -4713.8626   -4727.2664            0    1985.6799    17.873456    23.300603    21.843749     9097.098     2023.732    1891.9161    2041.3917   -48.625122   -98.251293    184.88377   -4450.4188 
46516000    7.4003893   -4726.3302   -4713.6462   -4726.3302            0    1935.5798    17.893009    23.218298    21.901731    9098.9691    1899.7732    1988.9889    1917.9773   -99.179205   -19.695301    124.56658   -4456.7964 
46517000    7.2928915   -4726.0834   -4713.5836   -4726.0834            0    2076.2617    17.922341    23.212608    21.855658    9092.4843    2064.3965    2231.3516    1933.0372   -64.190277   -47.941465    137.23241   -4438.2619 
46518000    7.2865626    -4727.415   -4714.9261    -4727.415            0    1947.1356    17.938283    23.231316    21.825306    9095.2579    1776.7868     2050.745     2013.875   -319.19419   -185.90296    49.117675   -4456.6483 
46519000    7.6269407   -4726.3823     -4713.31   -4726.3823            0    2108.6078    17.901925    23.232131    21.849487     9087.199     1944.189    2128.7555     2252.879   -133.79046    21.102624    103.42688   -4433.8615 
46520000    7.4835647   -4726.8907   -4714.0642   -4726.8907            0    2044.8448    17.831751    23.295125    21.891603    9093.6158    2134.4785    1935.7298    2064.3262   -118.81784    40.522238    83.444387   -4442.8747 
46521000    7.7825941   -4727.8159   -4714.4768   -4727.8159            0    2025.8297    17.857162     23.26539    21.883822    9091.7176     2075.927     2007.751     1993.811   -106.43124    -186.7345    149.17876   -4445.8652 
46522000    7.8228574   -4726.1443   -4712.7362   -4726.1443            0     2004.466    17.862044    23.260179    21.894048     9096.415    1959.3909    2022.7453    2031.2616     146.2746    170.84061   -53.494207   -4446.8199 
46523000    7.3284053   -4726.7801   -4714.2195   -4726.7801            0    2065.1464    17.917644    23.212029    21.855099    9089.6422    1936.4327    2073.4768    2185.5298    2.6102725   -152.08826     105.4959   -4440.4573 
46524000    8.0955002   -4726.1331   -4712.2577   -4726.1331            0    1983.1051     17.93214    23.212385    21.850546    9095.2401     1726.839    2123.2433    2099.2332   -211.58143   -96.489201    38.589367   -4449.2093 
46525000    7.5037768   -4726.5608   -4713.6996   -4726.5608            0    1978.8786    17.898761     23.24061    21.865019    9095.3694    2048.8746    1900.0835    1987.6778    18.558843    117.18286    41.842344    -4451.208 
46526000    8.0138068   -4727.2524    -4713.517   -4727.2524            0    1974.0234    17.888054     23.27011    21.850987    9095.6255    1937.7779    2029.8437    1954.4486    132.35486   -102.62443    30.758082   -4451.6621 
46527000    7.6532281   -4726.1792   -4713.0618   -4726.1792            0    1983.5736    17.835125    23.323249    21.861788    9093.9147    2152.4921    1827.5856     1970.643    34.803324   -72.319919    170.17995   -4449.9895 
46528000    7.4849083   -4727.2026   -4714.3737   -4727.2026            0    2018.1237    17.837619    23.329469    21.855985    9095.1975    2189.1543    1815.1933    2050.0235   -205.36577    65.035223    69.124233   -4446.6814 
46529000     7.447974    -4728.109   -4715.3434    -4728.109            0    1945.7558     17.85349    23.275434     21.89657    9099.0701    2042.4599    1906.7754     1888.032   -48.435453   -124.65151    88.620963   -4457.1404 
46530000    7.7671301   -4726.5125   -4713.1999   -4726.5125            0    1952.8095     17.88575    23.232987    21.896376    9098.8068     2025.581    2099.5612    1733.2864   -184.21808    121.16285   -57.846044   -4454.0684 
46531000    7.5654637   -4725.7712   -4712.8043   -4725.7712            0    2116.9073     17.95237    23.206433    21.818462    9089.7998     1948.964    2184.2667    2217.4912   -8.1583449   -51.387526    42.320973   -4432.1756 
46532000    7.7350049   -4726.5373   -4713.2798   -4726.5373            0    1947.3006    17.899739    23.250221    21.867737    9100.7595    1848.3274    2071.1963    1922.3782    -65.75849   -54.123821    100.52278   -4454.8238 
46533000    7.8928274   -4727.0218   -4713.4938   -4727.0218            0    1984.5812    17.847993    23.266601    21.906965    9097.1326    2164.9711    1983.3203    1805.4521    99.686421    81.662425    124.72941   -4450.1948 
46534000    7.2523019   -4726.6571   -4714.2269   -4726.6571            0    2032.3659    17.835783    23.275232    21.910515    9095.7561    2190.8367    1938.4757    1967.7854    55.698031   -186.00866     26.46411    -4444.629 
46535000    7.2628303   -4727.4191   -4714.9708   -4727.4191            0    1995.3503    17.844001    23.304706    21.872592    9095.6996    2175.1365    1801.1203     2009.794   -91.007432     54.35408    148.33072   -4450.2847 
46536000    7.4420088   -4727.6454   -4714.8901   -4727.6454            0    1928.9848    17.870444    23.328789    21.825337    9098.8919    1896.4918    1772.3369    2118.1258   -10.540668   -45.176268    25.805193   -4458.9176 
46537000    7.6759528   -4726.6772   -4713.5209   -4726.6772            0    1957.8469    17.900858    23.235149    21.868548    9095.7658    1931.1103    1921.0416     2021.389   -45.071281    -62.69533    159.87921   -4453.8077 
46538000     7.544407   -4726.5981   -4713.6672   -4726.5981            0    1994.1634    17.944771    23.172653    21.874526    9096.0393    1808.9213    2194.5385    1979.0304   -193.82113    15.573159    24.439787   -4449.1287 
46539000    7.4366419   -4726.6897   -4713.9435   -4726.6897            0    1983.9936    17.912007    23.240686    21.854635     9097.808    1887.5668    2021.2369    2043.1771    104.15271   -127.51134    59.278675   -4450.7029 
46540000    7.4736757   -4726.7095   -4713.8998   -4726.7095            0    2006.1131    17.892055    23.287552    21.829104    9095.3615    1955.8114    1935.1808    2127.3472   -138.87551    50.746261     42.13598   -4447.7959 
46541000    7.5014405   -4726.7094   -4713.8521   -4726.7094            0     2016.026    17.836556    23.304552    21.883447    9096.3569    2161.2511    1905.3424    1981.4845   -63.469208   -34.187334   -11.810648    -4446.404 
46542000    7.4439882   -4726.5266   -4713.7679   -4726.5266            0    2077.4348    17.842047     23.28886    21.883628    9093.1057    2346.9418    1982.0687    1903.2939   -183.14618   -19.423069    146.63645   -4438.2717 
46543000    7.6814414   -4726.4978   -4713.3321   -4726.4978            0    1971.1235    17.850275    23.274896    21.899164    9098.2986    2156.8112    2018.9934     1737.566   -47.741251    69.956655   -24.601304    -4451.785 
46544000     7.913838   -4727.6595   -4714.0955   -4727.6595            0    1846.1193    17.903629    23.255905    21.855977     9100.066    1809.4667    1860.5854    1868.3058    35.528408    40.215552    -51.94773   -4469.0875 
46545000    7.3241092   -4727.9973    -4715.444   -4727.9973            0    1938.6061    17.946821     23.22252    21.826558    9096.6636    1637.9975    2075.8204    2102.0005   -58.260322   -195.51482    97.997165   -4458.2578 
46546000     7.680818   -4726.6192   -4713.4545   -4726.6192            0    2024.5969    17.899054     23.24955    21.854943    9094.8238     1911.195    2141.3523    2021.2433    3.1479357    179.89317  -0.53984053   -4444.9147 
46547000    7.5783926    -4727.371   -4714.3819    -4727.371            0    1938.5641    17.890121    23.259271    21.867007    9099.1058     1913.379    1978.6199    1923.6933   -140.51292   -135.96748    6.5852383   -4457.1323 
46548000    7.5485801    -4726.556    -4713.618    -4726.556            0     2014.382    17.837038    23.306245    21.887081    9098.7743    2280.9199    1830.7656    1931.4604    11.644192   -57.352301    129.63816    -4446.317 
46549000    7.8772591     -4726.42   -4712.9187     -4726.42            0    1911.5332    17.822524    23.310635    21.911525    9103.2384    2015.8831    1977.9524    1740.7641   -271.66746   -1.1366047    26.805923   -4459.1409 
46550000    7.9182022   -4727.7423   -4714.1708   -4727.7423            0    1979.1909    17.854923    23.299668    21.866775    9096.8794    2071.4715      1844.05    2022.0511   -24.715828    -51.06256    6.1729038   -4451.5942 
46551000     7.852528   -4726.7793   -4713.3203   -4726.7793            0    1999.7862    17.936697    23.215562    21.845448    9096.6737    1870.4502    2079.7787    2049.1298     15.65464    49.192937   -9.9894138   -4448.0174 
46552000    7.6034395   -4727.1241   -4714.0921   -4727.1241            0    1877.0125    17.930927    23.215209    21.859062    9099.2764      1643.06    1919.4847     2068.493   -349.04788    22.981161    46.411734   -4465.0057 
46553000    7.7136348   -4727.6652   -4714.4443   -4727.6652            0    1942.0219    17.939067    23.202523    21.860526    9099.0415    1779.3548    2175.8916    1870.8195    184.87884    22.937443   -51.293495   -4456.7376 
46554000    7.6642672   -4726.3444   -4713.2081   -4726.3444            0    2048.6495    17.879246     23.27066    21.855686    9093.3169    2117.8113    1935.2568    2092.8805    -16.07398    129.30802    81.967556   -4441.5229 
46555000    7.4838049   -4726.7162   -4713.8893   -4726.7162            0    2038.0901    17.853605    23.306283    21.860088    9096.0083    2111.6961    1999.9842    2002.5898   -212.32235   -46.877761    79.892378   -4443.5245 
46556000    8.1055201   -4726.4769   -4712.5843   -4726.4769            0    1989.4939    17.868677    23.283041    21.867451    9097.6717    2124.7413     1733.395    2110.3452    90.101777    20.559472   -36.463405   -4448.6179 
46557000    7.8263214    -4727.256   -4713.8419    -4727.256            0    1954.7908    17.872181    23.269414    21.878756    9098.8315    2003.4619     1977.085    1883.8256    80.875855   -116.78642    126.73548   -4454.4468 
46558000    7.3393689   -4726.3927   -4713.8133   -4726.3927            0    2049.1083    17.892725    23.242952    21.866206    9093.7127    2016.6408    2068.4387    2062.2455   -173.60435   -146.35061   -52.847783   -4442.0555 
46559000    7.4979353   -4726.3855   -4713.5343   -4726.3855            0    1980.5196    17.947739    23.201367    21.830788     9090.604    1772.8481    2088.6505    2080.0601    3.3755862    82.090403    53.996668   -4450.9627 
46560000     7.182712   -4727.2852   -4714.9743   -4727.2852            0    2063.0406     17.91269    23.225037    21.852708    9091.2267    1988.0611    1997.0228    2204.0378   -104.62926   -58.742334   -19.758434   -4441.4436 
46561000    7.5905723   -4727.2651   -4714.2551   -4727.2651            0    1911.0097    17.859299    23.291249    21.880855    9101.6784    1949.4607    1874.6285      1908.94    74.717836   -60.793826    50.768543   -4460.5903 
46562000     7.674986   -4726.5124   -4713.3578   -4726.5124            0    2138.7028    17.831421    23.322473    21.859865    9090.9243    2324.3079    1967.8643    2123.9362     64.23751    39.772539    30.664637   -4429.8047 
46563000    7.8011295   -4726.0584   -4712.6875   -4726.0584            0    2013.4791    17.843006    23.319292    21.861991    9096.4742    2151.3367    1819.2712    2069.8295   -65.630081   -113.72815    49.772367   -4445.5739 
46564000    7.5429356   -4726.6956   -4713.7673   -4726.6956            0    2048.5502     17.86044    23.274512    21.877177    9094.1902    2003.5988    2051.5747    2090.4772    187.55263    193.33254    144.29706   -4442.0692 
46565000    7.3351682   -4727.1126   -4714.5404   -4727.1126            0     1929.236    17.934485    23.204207     21.86145     9097.763    1807.7054    2086.5066     1893.496   -102.98939   -35.345766    56.537823   -4458.5663 
46566000    7.8375936   -4726.2074   -4712.7741   -4726.2074            0    1999.6277    17.897311    23.209199    21.884924    9090.6092    1944.5845    2114.6429    1939.6557    -135.5947   -139.80748   -57.135497    -4447.669 
46567000    7.0632766   -4727.2264   -4715.1202   -4727.2264            0    1909.3892    17.962899    23.191954     21.83523    9096.4415    1568.6434    2117.9227    2041.6015    107.81437    6.4190908    116.58702   -4461.8163 
46568000    7.4915181   -4726.9065   -4714.0663   -4726.9065            0    2052.8108    17.910336    23.236606    21.851285    9093.9676    1998.4861    2062.3636    2097.5827   -40.167206   -100.48211    33.191663   -4441.8098 
46569000    7.3415152   -4727.7022   -4715.1191   -4727.7022            0    1906.2188    17.838446    23.319326    21.875742    9099.8831     1995.957    1783.0448    1939.6546   -136.60017    69.234472    43.226106   -4462.1401 
46570000     7.488219   -4726.8574   -4714.0229   -4726.8574            0    1980.3027    17.853428    23.303092    21.866091    9097.1704     2158.841      1732.67    2049.3972   -92.077729    -1.967744    5.6203261   -4451.2904 
46571000    7.5347064   -4727.1229   -4714.2087   -4727.1229            0    1945.8832    17.832648    23.300719    21.903359     9101.142    2131.5997    1860.2445    1845.8055   -30.831943    35.621673     33.23939     -4455.93 
46572000    8.2731293   -4726.5092   -4712.3293   -4726.5092            0    1940.5141    17.902841    23.247809    21.874084    9104.0337    1925.9357    1987.5592    1908.0475    65.829782    -61.50428    56.984488   -4454.6814 
46573000    7.2544762   -4726.9054   -4714.4714   -4726.9054            0    2032.8114    17.905915    23.200884    21.886571    9092.4049    1888.8525    2199.0753    2010.5063   -143.07175    47.518753    155.57072   -4444.9137 
46574000    7.7607262   -4727.3162   -4714.0146   -4727.3162            0    1994.4044    17.950592     23.24504    21.786846     9090.828    1684.6128    2052.2724     2246.328    17.923223    55.519876   -135.45902   -4449.5957 
46575000    7.5632229   -4727.1424   -4714.1793   -4727.1424            0    1945.2372    17.877556    23.276917    21.856352    9095.1801    1961.9659    1896.8544    1976.8911   -29.215547   -93.970216    150.17037   -4456.1555 
46576000     7.752418   -4727.3344    -4714.047   -4727.3344            0    1945.4602     17.85904    23.272485    21.894476    9099.8752    2029.5536    1945.8468    1860.9802   -127.62055   -51.230664    31.708039   -4455.8605 
46577000    7.4998374   -4727.3651   -4714.5106   -4727.3651            0    1951.3536    17.847479    23.302444    21.870351    9095.6575     2092.266    1773.7442    1988.0505   -82.597824    30.242419    82.004248   -4455.6619 
46578000    7.9235452   -4725.8555   -4712.2748   -4725.8555            0     2057.142     17.84077    23.279883    21.891188    9092.0896    2164.5955    1951.0279    2055.8026   -307.78146   -172.28601    74.022108   -4439.5003 
46579000    8.1223694   -4728.3247   -4714.4032   -4728.3247            0     1995.704    17.881304     23.28028    21.851478    9096.3715    1944.4729    1975.0387    2067.6003    93.985293   -60.155427   0.54293313   -4449.6506 
46580000    8.1073479   -4726.5334   -4712.6377   -4726.5334            0    2040.6991    17.935153    23.192316    21.864734    9094.8057    1859.3872    2105.2145    2157.4956   -41.877543    112.39945    62.681762   -4441.9626 
46581000    7.6960644   -4726.7176   -4713.5268   -4726.7176            0    2029.1148    17.908396    23.229169     21.86102    9094.1218    1922.6364    2111.4266    2053.2814   -200.17398   -60.221876    158.51964   -4444.4085 
46582000    7.3828507   -4726.9933   -4714.3393   -4726.9933            0    2047.6869    17.895489    23.217556    21.883852    9092.5111    1945.0716     2180.027    2017.9622   -93.960151    195.10928   -26.989389   -4442.8059 
46583000    7.5275606   -4727.2272   -4714.3252   -4727.2272            0     1943.368    17.876882    23.278106    21.861319    9097.3686    1997.9834    1920.8029    1911.3178    -73.88981   -73.601374    16.036768   -4456.4873 
46584000    8.0836934   -4726.3848   -4712.5296   -4726.3848            0    1987.5354    17.829469    23.291928    21.910272    9098.9573    2215.7592    1900.0649    1846.7821    159.76741   -17.090272    123.80536   -4448.7857 
46585000    7.6159947   -4726.9591   -4713.9055   -4726.9591            0    1987.7815    17.861973    23.264289    21.888898    9095.8463    2122.8526    1953.5403    1886.9516    115.11971    66.297923     47.70754   -4450.2192 
46586000    7.5448819   -4726.7527    -4713.821   -4726.7527            0    1952.6926    17.904274    23.238199     21.86631    9097.7644    1830.5175    1999.1261    2028.4341   -113.30651    -82.38637    114.05304   -4454.7348 
46587000    7.5874479   -4727.2648   -4714.2602   -4727.2648            0    2017.7591    17.936145    23.194344    21.863263    9095.4918     1879.865    2133.0295    2040.3829    330.74769   -7.3847859    -43.27518   -4446.6076 
46588000    7.7460116   -4726.2413   -4712.9649   -4726.2413            0    2060.0918    17.923691     23.22723    21.842866     9093.572    1851.7746    2190.0556    2138.4452    113.05212    17.064182    88.490147   -4439.7547 
46589000    7.6189012   -4728.4897   -4715.4312   -4728.4897            0    1943.4073    17.897405    23.291429    21.820375    9095.9573    2008.8597    1929.4017    1891.9604   -21.362067    -10.65555    67.142105   -4457.6281 
46590000    7.5672234   -4726.2176   -4713.2476   -4726.2176            0    1907.2324     17.84213    23.277006    21.914774     9101.455    2062.8114    1819.0269     1839.859    1.0261562    49.820212   -26.373235   -4460.0904 
46591000    7.4383393   -4727.8071   -4715.0581   -4727.8071            0    1951.4685     17.83164    23.299181    21.899337    9098.3556    2191.9168    1889.8228    1772.6658   -199.82973   -49.156412    153.16507   -4456.1174 
46592000    7.6496748    -4726.596   -4713.4848    -4726.596            0    1955.5503    17.845182    23.305101     21.88399    9101.1963    2143.2644     1857.359    1866.0273    -91.12449     104.2111   -26.001324   -4453.9214 
46593000    7.3478936   -4727.5776   -4714.9835   -4727.5776            0    1955.3445    17.895381    23.260454    21.858447    9098.6812    1923.2826    1921.8371    2020.9137   -102.07434    -170.6736    128.66646   -4455.5192 
46594000    7.5140915   -4726.7992   -4713.9203   -4726.7992            0    1992.3107    17.932485    23.217209    21.857342    9100.1353    1827.7938    2067.9329    2081.2053   -32.140838    5.7534815    128.46596   -4449.5085 
46595000    7.3380215   -4727.1819   -4714.6048   -4727.1819            0    1961.9779    17.913084    23.245931    21.839842    9094.2484     1709.193     2164.624    2012.1167   0.73927616     36.20465    13.287768   -4454.3871 
46596000    7.9156442     -4727.07   -4713.5029     -4727.07            0    1949.9394    17.874062    23.265417    21.876127    9097.1327    2043.5247    2033.4635    1772.8299   -235.96408   -178.46611    232.83251   -4454.7999 
46597000    7.6549031   -4726.9245   -4713.8042   -4726.9245            0    1993.1004    17.860626    23.280101     21.87746    9096.5864    2106.9708    1921.0039    1951.3265   -145.03415    83.711327   -17.415065   -4449.3908 
46598000     7.486605   -4727.6811   -4714.8493   -4727.6811            0     2014.888    17.794452    23.361529    21.876649    9094.2454    2214.2928    1748.5606    2081.8105    79.738587   -89.516174    80.512909   -4447.6142 
46599000     7.594225   -4726.5015   -4713.4853   -4726.5015            0    2019.4355    17.862099     23.26682    21.884836    9095.2119    2110.7457    1961.2548    1986.3059    -127.2394    39.021024    112.01775   -4445.6186 
46600000    7.4659965   -4727.5856   -4714.7891   -4727.5856            0    2032.1889    17.903735    23.232468    21.865018    9094.7092    2023.4402    1992.8524    2080.2742   -58.558832   -29.710006     61.29902   -4445.2457 
46601000    7.5889934   -4727.9323    -4714.925   -4727.9323            0    1993.0301    17.906577    23.241357    21.859901    9097.5039    1902.0764    2039.9914    2037.0227    50.550307    19.942415    204.43141   -4450.4943 
46602000    7.6277877   -4725.9203   -4712.8465   -4725.9203            0    2100.5368    17.928493    23.225499    21.837209    9092.9744    1977.4453    2097.9245    2226.2405    24.025274    55.474424    14.385962   -4434.2908 
46603000    7.8862321   -4727.0838   -4713.5671   -4727.0838            0    1983.3578    17.898219    23.275603    21.835479    9096.4824    1854.6157    1903.1903    2192.2674   -104.06036   -0.2228258    108.94237   -4450.4492 
46604000    7.7110488   -4726.6433   -4713.4269   -4726.6433            0    2092.4384    17.826178    23.303698    21.885652     9091.647    2217.1999    2057.3504    2002.7648   -285.02673   -62.123227    109.86077   -4435.9856 
46605000    7.8638895   -4726.5311   -4713.0527   -4726.5311            0    2014.7193    17.831769    23.299222    21.894493    9096.4247    2196.7123    1918.9096     1928.536    141.43354   -57.156699    111.04702   -4445.7759 
46606000    7.3078334   -4727.4899   -4714.9645   -4727.4899            0    1979.5942    17.874893    23.273468    21.859544    9093.8055    2053.8602    2033.4731    1851.4493   -45.707694   -24.906186    59.274917   -4452.4232 
46607000    7.2469218   -4727.4031   -4714.9821   -4727.4031            0    1922.3338    17.917835    23.259377    21.835981    9100.3128     1789.361    1963.3246    2014.3157     1.788916    26.205761   -40.609781   -4459.8524 
46608000     7.447089   -4726.7265   -4713.9625   -4726.7265            0     2021.453    17.921487    23.204577    21.857962    9089.8634    1921.1101    2081.4154    2061.8334   -18.098966     88.84811    67.225645   -4445.9859 
46609000    7.4820544   -4727.2462   -4714.4222   -4727.2462            0    2004.5658    17.918863     23.25447    21.830827    9096.7675    1911.0035     1990.574    2112.1201    10.844236   -105.18598   -74.978826   -4448.4824 
46610000    7.8583231   -4727.1734   -4713.7045   -4727.1734            0    1977.5033    17.883401    23.209271    21.911271    9094.5073    1941.4989    2048.1477    1942.8633   -212.82764   -14.030598    86.506374   -4451.4203 
46611000    8.0452485   -4727.3486   -4713.5593   -4727.3486            0    2010.5914     17.85061    23.319669     21.84422       9093.1    2081.1639     1927.013    2023.5973    53.167273    68.324199    34.027651   -4446.9276 
46612000    7.6609256   -4727.0753   -4713.9447   -4727.0753            0    1983.3645    17.830524    23.303163    21.897756    9098.6843    2148.9079    1901.3715    1899.8143   -61.098275    -30.71687  -0.97439095   -4450.7622 
46613000    7.6581353    -4727.369   -4714.2432    -4727.369            0    1987.9156    17.866586    23.289204    21.855873    9094.1977    2006.5078    1906.3651    2050.8739   -179.88871    53.729196    192.93737   -4450.5869 
46614000    7.5295768   -4725.1664    -4712.261   -4725.1664            0    2054.8599    17.903318    23.230384    21.857394    9090.5109    1927.7095    2165.3611    2071.5091   -313.57651    111.10309   -64.084481   -4439.8363 
46615000    8.1098366   -4726.8715   -4712.9715   -4726.8715            0    2095.0042    17.920818    23.212972    21.850959    9089.8995    1991.7145    2197.9315    2095.3666   -234.07313    -24.73297     97.39548   -4435.2434 
46616000    7.1936652   -4726.5452   -4714.2156   -4726.5452            0    1980.3776    17.911314    23.274068    21.815128     9094.054    1868.3787    2016.6309    2056.1234   -41.496159    9.2947716     94.41773   -4451.5631 
46617000    7.4736194   -4727.6993   -4714.8898   -4727.6993            0    1988.7981    17.890683    23.231954    21.882841     9095.286    1932.9305    2112.4215    1921.0424   -213.05072   -49.440723   -2.2930553   -4451.0848 
46618000    7.5273032   -4727.7337   -4714.8321   -4727.7337            0    1947.3985    17.832937    23.301874    21.888158    9095.4236    2102.9532    1876.4153    1862.8269   -74.135395    -133.3093    177.44066   -4456.5148 
46619000    7.8120226   -4726.6323   -4713.2427   -4726.6323            0    1985.5109    17.855234    23.270487    21.894262    9097.0659    2142.2969    1933.0166    1881.2192   -102.98805     70.94174  -0.36910707   -4449.8223 
46620000     7.562588   -4727.6165   -4714.6545   -4727.6165            0    1975.4317    17.880258    23.285511    21.850313    9097.3979    2069.8291    1879.2866    1977.1794   -15.349274   -51.387257    121.69646   -4452.5617 
46621000    7.7358296   -4727.6659   -4714.4069   -4727.6659            0    1990.9332    17.919787    23.250471    21.825302    9093.3699    1902.4929    2145.8074    1924.4992    -42.90216    41.735903   -97.355421   -4450.3744 
46622000    7.5177033   -4726.0686   -4713.1836   -4726.0686            0    1997.6545    17.917167     23.21305    21.874962    9098.0613    1918.0284    2166.5781     1908.357     4.195937    6.4313003   -28.935464    -4448.123 
46623000    7.3388699    -4727.715   -4715.1365    -4727.715            0    1957.0708    17.960265    23.211455    21.826484    9099.1092    1653.3981    2088.5717    2129.2426   -128.05435    -87.54137    161.56537   -4455.4309 
46624000    7.6598762   -4726.5312   -4713.4024   -4726.5312            0     1915.453     17.86661    23.281647    21.878006    9100.4647    1942.6148    1963.8729    1839.8712   -37.497238   -16.117743    2.1402243   -4459.1817 
46625000     7.669063   -4725.4707   -4712.3262   -4725.4707            0    2082.9103    17.845273    23.278198    21.893297    9094.6021    2169.9654    2075.7418    2003.0238   -91.284086   -11.092608     126.4748   -4436.0585 
46626000     7.513829   -4726.6342   -4713.7558   -4726.6342            0    1913.4266    17.865832    23.311058    21.859363    9103.8008    2130.1691    1688.0291    1922.0818   -129.00586   -69.586477    47.959612   -4459.7109 
46627000    7.5786088   -4726.9981   -4714.0087   -4726.9981            0    1972.6085    17.867417    23.267062    21.886922    9098.8816     1943.613    1949.2257    2024.9869   -187.58012    35.664895     181.6417   -4452.2477 
46628000    8.1203998   -4727.4565   -4713.5385   -4727.4565            0    1975.0374    17.891988    23.269142    21.850725    9097.1387    1941.2209    2047.6959    1936.1953    213.27745    9.8964281   -66.197044   -4451.5054 
46629000    8.2080201   -4727.5131   -4713.4448   -4727.5131            0    2019.8304     17.93925    23.196994    21.852706    9093.7123     1843.781    2300.1285    1915.5817    34.303064   -8.7364835    193.31484   -4445.5699 
46630000     7.725387   -4727.9279   -4714.6869   -4727.9279            0    1894.8196    17.916425    23.237596    21.855122    9099.0448    1745.1594    1971.2837    1968.0157   -99.742907   -28.609516   -38.089447   -4463.2439 
46631000     7.511986   -4727.9365   -4715.0612   -4727.9365            0     1998.343    17.881437    23.233212    21.892826    9095.2257    2002.7278    2116.4764    1875.8248   -62.067603    -32.81834    30.258578   -4449.9919 
46632000    7.8010987   -4726.1489   -4712.7781   -4726.1489            0    1960.4215    17.844381    23.281066    21.901896    9098.8409    2051.7677     1981.668    1847.8287   -124.26414   -3.9347731    79.539499   -4452.6355 
46633000    7.3022717   -4726.7996   -4714.2838   -4726.7996            0    2019.0686    17.874051    23.269785    21.874313    9098.0806    2178.9258    1936.0124    1942.2675   -1.1031229   -103.85627    114.43485   -4446.3813 
46634000    7.3343979   -4727.0779    -4714.507   -4727.0779            0     2075.148    17.854621    23.297561    21.860157    9093.1505    2171.0211    1959.9326    2094.4902    121.94656    49.585528    55.325841   -4439.3128 
46635000     7.151224   -4727.3657   -4715.1087   -4727.3657            0    1984.8134    17.909544    23.269995    21.830777    9098.0853    1888.0516    2020.5197     2045.869   -113.59778    69.799973   -22.633218   -4451.7513 
46636000    7.4883392   -4726.7517   -4713.9169   -4726.7517            0    2057.9074    17.937863    23.206573    21.847371    9094.5437    1871.7109    2025.7386    2276.2727   -51.728593   -132.37823    136.71293   -4440.9672 
46637000    7.4418988   -4727.4939   -4714.7387   -4727.4939            0    1947.3021     17.94684    23.169207    21.876942    9096.7397    1713.0335    2200.3426    1928.5303    -37.56131    3.9837095    69.685305   -4456.3967 
46638000    7.6174922   -4727.2486   -4714.1925   -4727.2486            0    1876.3196    17.914375    23.243742    21.855776    9100.6823    1826.6318    1843.2986    1959.0285   -108.34201     10.87085    228.95696   -4465.1596 
46639000    7.2352844   -4727.6703   -4715.2693   -4727.6703            0    1948.1395    17.869531    23.292407     21.85856    9098.0657    1937.3315    1852.4357    2054.6514   -141.11171   -137.64696    112.05955   -4456.7785 
46640000    7.3789581   -4726.7365   -4714.0893   -4726.7365            0    2009.6922    17.849582    23.302207    21.870791    9096.8199    2149.6038    1854.5971    2024.8756    58.241743    63.295583    164.22039   -4447.4678 
46641000    7.4858296   -4727.7232   -4714.8927   -4727.7232            0    2053.6746    17.860739    23.248311    21.896289    9092.0397    2183.2466    1994.2568    1983.5205   -103.88704   -99.063394    130.17998   -4442.5794 
46642000     7.448485     -4726.81   -4714.0435     -4726.81            0    1956.8614    17.891837    23.216846    21.898149    9096.3164    1931.9137    2082.1594    1856.5112    111.41126   -10.977583    49.488276   -4454.4454 
46643000     7.267018   -4727.2245   -4714.7691   -4727.2245            0    1910.3985    17.939175    23.252271    21.815925    9100.0018    1606.2267    1944.5071    2180.4616   -253.03828   -125.37529    73.496667   -4461.2321 
46644000    7.2624207   -4726.8642   -4714.4166   -4726.8642            0    2044.7525    17.939393    23.221456    21.830249    9094.0199    1805.2705     2138.507    2190.4799   -174.98354    27.990536    14.487893   -4443.2274 
46645000    7.8205311   -4726.4039   -4712.9998   -4726.4039            0    1962.7161    17.881208    23.254338    21.877557    9097.0308    1940.3937    1997.4357    1950.3188    -6.173567     10.60631    122.91746   -4452.6046 
46646000    7.5880293   -4727.2859   -4714.2803   -4727.2859            0    1998.2738    17.873323    23.243111    21.896051     9096.312    2006.2617    1911.4611    2077.0985    59.039371   -28.349033    132.43614   -4449.1885 
46647000    7.1561514   -4727.2649   -4714.9995   -4727.2649            0     2051.944    17.838323    23.301394    21.887314    9097.6326    2233.5027    1889.0564    2033.2728    -87.21896    44.811802    72.040508   -4442.7483 
46648000    7.2644469   -4727.3361   -4714.8851   -4727.3361            0    2031.9768    17.877832    23.310977    21.824943    9095.5393     1978.727    1948.5576    2168.6456   -67.490051   -29.814079    163.04506   -4445.3452 
46649000     7.927208   -4726.7744   -4713.1875   -4726.7744            0    1985.1517    17.907634    23.224195    21.868754    9095.0043    1901.2573    2109.8006    1944.3972   -174.92744    77.173094   -19.650808   -4449.8743 
46650000    7.4151689   -4727.3334    -4714.624   -4727.3334            0    1954.9288    17.922383    23.219167    21.865776    9099.2852    1793.0148    2054.0684    2017.7032     45.25978   -91.109522    93.004761   -4455.1976 
46651000    7.5850472   -4726.6446   -4713.6441   -4726.6446            0    1874.9627    17.909581    23.221903    21.886147    9102.3296     1745.675      2014.18    1865.0332   -128.27579   -73.998955    140.10369   -4464.7463 
46652000    7.3130026   -4727.5848   -4715.0506   -4727.5848            0    1918.3431    17.895817    23.259489     21.85761    9098.1768     1892.131    2111.4311    1751.4671   -86.328305   -125.34931   -19.478416   -4460.5103 
46653000    7.9315133   -4727.6086   -4714.0142   -4727.6086            0    2006.2124    17.850763    23.319696    21.847677    9094.6278    2160.7735     1894.104    1963.7597   -3.2638492   -55.745693    115.68207   -4447.9186 
46654000    7.5350951   -4727.7958   -4714.8809   -4727.7958            0    2000.3388    17.819221     23.30779     21.89563    9093.8389    2171.0135    1945.7494    1884.2533    20.536557    56.852772    71.382179   -4449.5874 
46655000    7.5795563   -4727.2822   -4714.2911   -4727.2822            0    1968.2199    17.835682    23.272882     21.92096    9099.1216    2053.5342    1872.2306    1978.8949   -221.95059   -170.33892    101.73702   -4453.1057 
46656000    7.2032517   -4727.8706   -4715.5245   -4727.8706            0    1982.9833    17.908651     23.20563     21.88923    9096.7599    1910.5209    2114.9841    1923.4448    69.863429    44.831889    109.90087   -4452.4482 
46657000    7.4939973   -4727.3737   -4714.5292   -4727.3737            0    1969.5383    17.927964    23.268689    21.802985    9095.3385    1725.6306    2020.9172    2162.0671     91.31557    6.4778056    37.896473   -4453.2775 
46658000    7.4987958   -4727.4071   -4714.5545   -4727.4071            0      2010.27    17.930659    23.216899    21.850769    9096.3509    1897.3083     2144.304    1989.1978   -224.70286   -63.896616    74.174092   -4447.8701 
46659000    7.3803408   -4727.3099   -4714.6602   -4727.3099            0    1975.9426    17.892827    23.260735    21.865688     9100.506    1871.5864    2066.0543    1990.1869   -43.558328    23.942962   -18.476256   -4452.4101 
46660000    7.6466573   -4725.9922   -4712.8861   -4725.9922            0    1995.5448    17.861141     23.27597    21.882027    9097.1328    2097.5913    2007.5042     1881.539   -103.73328   -28.133642    90.485993   -4448.1325 
46661000    7.1807981   -4727.2299   -4714.9223   -4727.2299            0     2109.339    17.854503    23.282105    21.871429    9091.7431    2140.8735    2087.9406    2099.2029   -32.702364    11.939085    140.56018   -4435.2371 
46662000     7.328701   -4726.7402    -4714.179   -4726.7402            0    2013.2782    17.830065    23.338188    21.861746    9097.1405    2296.5952    1751.2359    1992.0035    29.747503     -61.0798   -74.473105   -4447.0724 
46663000    7.4828827   -4726.6535   -4713.8281   -4726.6535            0    2046.2505    17.899138    23.227113    21.872643    9093.4486     1902.943    2147.8348    2087.9736   -118.02145    59.472314    217.07863   -4442.4572 
46664000    7.4330273   -4727.1454   -4714.4054   -4727.1454            0    1964.3525    17.900818    23.269005    21.846913    9099.9872    1856.8648    1926.4297    2109.7631    -230.6245   -29.715196   -41.842466   -4453.7084 
46665000    7.4659801   -4726.5819   -4713.7855   -4726.5819            0    1993.9081    17.893427    23.231434    21.883267    9096.6545    1887.9576    2124.9609    1968.8059    158.41634   -28.367644    102.22631   -4449.2629 
46666000    7.7045659   -4726.6288   -4713.4234   -4726.6288            0    1976.8576    17.885921     23.26988    21.862689    9099.3221    1948.2402    1924.3066     2058.026    20.963144   -30.848769    57.041909   -4451.0859 
46667000     7.012317   -4726.7853   -4714.7664   -4726.7853            0    1979.5296    17.843792    23.322632    21.850905    9093.5646    2088.8336    1936.7913     1912.964   -55.766641     15.98742    -36.53845   -4452.2406 
46668000    7.5772248   -4725.8006   -4712.8135   -4725.8006            0    2002.7208    17.838507    23.306772    21.876162    9095.1897    2064.2282     1876.301    2067.6331   -38.389849 -0.091691067    74.479173   -4447.1645 
46669000     7.614951   -4726.0815   -4713.0297   -4726.0815            0    1987.3549    17.827286    23.315627    21.891089    9099.1263    2239.9157    1962.6172    1759.5318   -118.20913   -17.085836   -48.214492   -4449.3049 
46670000     7.525976   -4726.9108   -4714.0115   -4726.9108            0    2024.6115    17.874056    23.266509    21.863032     9092.111    2144.9438    1990.5225    1938.3682    32.989786   -172.41907    238.94034   -4445.5498 
46671000    7.8136972   -4727.3786   -4713.9862   -4727.3786            0    2010.2494    17.938497    23.246869    21.810026    9095.0834    1828.4119    1994.1173     2208.219    56.919144   -16.401199    9.7840741   -4447.3418 
46672000    7.5146279   -4727.0742   -4714.1944   -4727.0742            0    1981.8019    17.929243    23.231943    21.835198    9095.0403    1788.7134    2022.8013     2133.891   -95.877771    23.994549   -38.844935   -4451.3246 
46673000    7.5145975   -4727.3781   -4714.4983   -4727.3781            0    1944.3411    17.909919    23.218613    21.881437    9099.2532    1896.0761    2036.7516    1900.1957   -188.29912   -85.311685    203.63046   -4456.4779 
46674000     7.645738   -4727.5733   -4714.4687   -4727.5733            0    1970.9386    17.834771    23.292402     21.89264    9094.5236    2172.3598     1942.638    1797.8181     22.95475   -85.842059   -3.9145698   -4453.0547 
46675000    8.0991969   -4727.1762   -4713.2945   -4727.1762            0    2009.8895    17.820322    23.308962     21.89863    9096.1041    2129.7424     1948.941    1950.9852   -19.049243   -59.048826    171.99766   -4446.6679 
46676000    7.9337198   -4727.7243   -4714.1262   -4727.7243            0    2056.7398    17.844495    23.284556    21.888637    9094.7539    2147.1193    1968.2903    2054.8097   -127.46118   -56.816709    78.777053    -4441.325 
46677000    7.9571324   -4727.0962   -4713.4579   -4727.0962            0    1986.7504    17.890421    23.274074    21.844659    9095.7445    2052.9618    1978.7632    1928.5261    217.82682     39.57566    95.025496   -4449.9113 
46678000    7.7023137    -4726.655   -4713.4535    -4726.655            0    1998.1407    17.925986    23.235754    21.831765    9093.4497    1908.9344    2081.9578    2003.5298   -60.467903   -93.871932    73.666359   -4448.4628 
46679000    7.5577603    -4727.347   -4714.3932    -4727.347            0    1991.7232    17.927166    23.225462    21.847017    9096.3701    1819.1207    2125.5408    2030.5079    26.846309    47.992437    96.840123   -4450.1688 
46680000    7.6359572   -4727.1752   -4714.0874   -4727.1752            0    2020.8902    17.896972    23.245261    21.864023     9095.866     1930.889    2078.4151    2053.3667   -129.69104    41.979834    43.186377   -4446.0085 
46681000    7.7624345   -4726.9891   -4713.6846   -4726.9891            0     1964.813     17.84139      23.3132    21.879257    9100.4561    2134.7459    1759.7297    1999.9634   -98.786236    19.558653     161.2503    -4452.913 
46682000    7.8926608   -4726.5623   -4713.0346   -4726.5623            0    1966.8851     17.83645    23.296711    21.896464    9098.6514    2094.5938    1980.3415      1825.72    122.31927    54.347598   -61.811818   -4452.0397 
46683000    7.4838125   -4727.3549   -4714.5279   -4727.3549            0    2080.0889    17.861679    23.287417    21.868647    9096.3153    2062.1516    2015.7627    2162.3526    -181.1649   -70.955042    144.12879   -4438.5824 
46684000    7.4482083    -4727.244    -4714.478    -4727.244            0    2047.5227     17.88465    23.279749    21.838106    9092.2986    2026.9412    1985.0776    2130.5493   -248.52874   -42.589673   -21.752148   -4442.9727 
46685000    7.4775029   -4726.6024   -4713.7862   -4726.6024            0    2032.9324    17.928744    23.220974    21.843321    9093.8748    1762.5536    2292.4618    2043.7818   -25.733795     140.6187    34.117063   -4444.1689 
46686000    7.5216669   -4726.4855   -4713.5936   -4726.4855            0    1946.1868    17.936352    23.197557    21.862029    9096.3431    1722.6283    2051.0432    2064.8888   -31.995222    3.4283108    107.28498   -4455.4109 
46687000    7.4309542   -4727.5187   -4714.7823   -4727.5187            0    2013.0934    17.893454    23.245953    21.865526    9094.9739    1960.2315    2029.7767    2049.2719   -157.42097    36.595017    65.016857   -4447.7638 
46688000    7.5264634   -4725.9281    -4713.028   -4725.9281            0    1945.6492    17.880137    23.289132    21.851329    9099.1746    1930.6382    1957.6177    1948.6916   -101.28756   -42.740451    158.11264   -4454.8363 
46689000    7.1958468   -4726.9624    -4714.629   -4726.9624            0    2001.0567    17.832443    23.318906    21.875412    9096.5194    2238.0191    1760.3095    2004.8416   -76.886284   -128.39204    55.200186    -4449.162 
46690000    7.6401663   -4725.5303   -4712.4354   -4725.5303            0    1989.0944    17.832008    23.284736    21.905286    9095.3727    2120.8461    1998.9758    1847.4612   -263.04367    49.456954    5.5884236   -4448.5886 
46691000    7.6850118   -4727.1577   -4713.9859   -4727.1577            0     1993.173    17.878702    23.270696     21.86644    9097.5286    2068.9048    2032.5512     1878.063   -162.63387    33.144862    155.18439   -4449.5354 
46692000     7.661165   -4726.7884   -4713.6574   -4726.7884            0    2028.9673    17.937358    23.193271    21.861537    9094.9675    1973.1877     2102.317    2011.3971   -111.56615   -2.2031171     120.3799   -4444.5336 
46693000    7.6567098   -4727.2137   -4714.0904   -4727.2137            0    1885.7221    17.942053    23.241853    21.817246    9097.9344    1569.8148    2000.7128    2086.6386   -100.20343     15.80595    100.94543   -4463.8852 
46694000    8.1683535   -4727.3064   -4713.3061   -4727.3064            0    1987.6576    17.913165    23.240104    21.860391    9100.5643    1890.7765    2059.7396    2012.4566    -17.99316   -1.7804379    22.472666   -4449.4995 
46695000    7.4404285   -4727.2094   -4714.4567   -4727.2094            0     1992.891    17.861273    23.295316    21.863899     9097.219    2096.4947      1968.48    1913.6982   -40.596819   -15.452142   -39.217259   -4450.0527 
46696000     7.413965   -4726.5046   -4713.7973   -4726.5046            0    2022.4492    17.851518    23.270155    21.893587    9094.7622     2134.311    1949.4573    1983.5793    113.54563    54.013066    156.97411   -4445.5441 
46697000    7.6403788   -4726.7102   -4713.6149   -4726.7102            0    2015.1722    17.848587    23.333354    21.846949    9098.5421    2132.3406    1855.6875    2057.4884   -145.52661   -101.60109    74.176902   -4446.2158 
46698000    7.5832321   -4726.9823   -4713.9849   -4726.9823            0    2054.0088     17.89226    23.238255    21.870586    9093.4595    2116.7777    2035.1397    2010.1091    150.09137    72.641404    95.482823   -4441.5848 
46699000    7.7522971   -4726.3943   -4713.1072   -4726.3943            0    2001.2766    17.915273    23.208526    21.869851    9093.2017    1979.8835    2122.2769    1901.6693   -24.185236    21.334553    87.692289   -4447.7078 
46700000    7.9132914   -4727.8315   -4714.2684   -4727.8315            0    1941.2066    17.940101    23.197013     21.86147    9097.7988    1829.8473    2100.2099    1893.5625     7.373214   -42.103797    21.461892   -4456.7051 
46701000     7.524838   -4727.0849   -4714.1876   -4727.0849            0    2036.1859    17.892867    23.288223    21.823642    9093.7607    1948.8218    2090.5237    2069.2123     133.0148   -30.030816    25.461072   -4444.1421 
46702000    7.4732855   -4726.3516   -4713.5426   -4726.3516            0    1992.2007    17.866426    23.300615    21.853585    9097.6193    2139.3476    1829.4031    2007.8513    -63.34018     6.737711    38.842429   -4449.2185 
46703000     7.050845   -4726.6102   -4714.5253   -4726.6102            0    2001.1676    17.827775    23.285909    21.916176    9098.1926    2175.5816    1899.9267    1927.9946    77.610876    93.708831   -1.9269319   -4448.9948 
46704000    7.5174819   -4727.4786   -4714.5938   -4727.4786            0    1981.2743    17.870515    23.270509    21.870005    9094.7725    2040.8578    1904.0366    1998.9285    85.149057   -10.292951    158.49525   -4451.8017 
46705000    7.0899733   -4726.7904   -4714.6384   -4726.7904            0    2006.8701    17.892544    23.243452    21.868412    9094.7333    1974.8668    1979.0943    2066.6492    -33.36511    68.384803    6.2438924   -4448.4525 
46706000    7.7851203   -4728.6084    -4715.265   -4728.6084            0    2002.8244    17.899886    23.219622     21.87679    9092.6192    1938.1521    2039.3736    2030.9475   -108.29094    13.957204    128.60851   -4449.6774 
46707000    7.4135887   -4726.7447    -4714.038   -4726.7447            0    1997.0365    17.913404    23.242101    21.853366    9098.5427    1875.9204    2078.9382     2036.251   -38.730546   -51.236503    53.085213   -4449.0454 
46708000    7.6752244   -4726.5288   -4713.3737   -4726.5288            0    1983.0944    17.888898    23.256264    21.858964    9093.9613    1883.1378    2130.1192    1936.0263     11.31023    64.565814   -8.8172436   -4450.3637 
46709000    7.5366014   -4726.5978   -4713.6803   -4726.5978            0    1993.3737    17.865476    23.272387    21.878184    9096.3427    2048.5261    2002.8043    1928.7908     12.97883   -191.29519    79.345045   -4449.2377 
46710000    7.9011366   -4726.2862   -4712.7439   -4726.2862            0    1984.5587    17.832417    23.300969    21.899203    9099.3948     2105.381     1882.199    1966.0961   -137.27994   -41.415747    120.94549   -4449.3824 
46711000    7.6363252   -4727.1462   -4714.0578   -4727.1462            0    2131.8683    17.822927    23.286979      21.9004    9089.5887    2288.5376       2091.1    2015.9672   -23.845997    72.262393    50.174843   -4431.4524 
46712000    7.4732645   -4726.4806   -4713.6716   -4726.4806            0    2007.3246    17.886955    23.244218    21.879559    9096.8266    1997.8916     2015.735    2008.3473    16.401106    -158.7792    149.69099   -4447.3641 
46713000    7.8800402    -4727.416   -4713.9099    -4727.416            0    1948.8869    17.944852    23.228005    21.829894    9099.2044    1700.9273    2064.0113    2081.7221   -290.02585    112.07839    41.451641   -4455.2876 
46714000    7.5454161   -4727.1886    -4714.256   -4727.1886            0    1957.1716    17.922648    23.249456     21.83045    9096.5698    1801.4297    2072.6899    1997.3951   -177.96826   -131.88537    28.668964   -4454.6095 
46715000    7.1463385   -4728.2155    -4715.967   -4728.2155            0    1970.6858    17.903119    23.261962    21.850299    9099.8116    1993.9986    1932.0252    1986.0337   -209.43931   -62.945479    209.98001   -4454.4345 
46716000    7.2911615   -4727.0109   -4714.5141   -4727.0109            0    1987.7498    17.840389    23.308446    21.879395    9098.1465    2103.2349    1875.2101    1984.8045   -335.85669    107.10088   -15.603976   -4450.7653 
46717000     7.340284   -4727.1186   -4714.5376   -4727.1186            0    1945.2519    17.844715    23.305863    21.880851    9099.9504    2077.2599    1830.0473    1928.4485    16.608049   -14.759883    146.40713   -4456.3766 
46718000    7.4094242   -4726.5921   -4713.8926   -4726.5921            0    2016.2695    17.839591    23.296895    21.888124    9096.8593    2112.9484     2012.278    1923.5822   -188.06972    13.504928    -11.90333   -4446.3974 
46719000    7.7731459   -4727.2119    -4713.889   -4727.2119            0    2062.4467    17.892316    23.264149    21.848075    9094.2502    2056.1141    2082.7665    2048.4595    9.0208097   -99.762483    42.839935    -4440.346 
46720000    7.4298003   -4727.4822   -4714.7478   -4727.4822            0     1937.201    17.935599    23.202785    21.858833    9096.6811      1738.64    2118.1166    1954.8464   -3.3085396   -93.679661    65.293064   -4457.7475 
46721000    7.3533453   -4726.3538   -4713.7504   -4726.3538            0    2023.4242    17.926334    23.184974    21.890198    9098.0389    2011.5905    2162.2159    1896.4663    47.712204   -10.911004   -19.152799   -4445.2712 
46722000    7.5182896    -4727.549   -4714.6629    -4727.549            0    1908.8841    17.929563    23.211862    21.871293    9102.3629    1642.2107     2132.533    1951.9086   -216.88902   -3.0112914    104.91268   -4461.2612 
46723000    7.3813071    -4727.507   -4714.8556    -4727.507            0    1931.2282     17.86505    23.327552    21.829312    9097.3196    2020.6739    1772.5654    2000.4453    15.692417   -15.158779    8.9157131   -4458.6298 
46724000    7.1434813   -4726.2738   -4714.0301   -4726.2738            0    2048.7092    17.833683    23.339393    21.849078    9094.1838    2166.3489    1940.7297     2039.049   -121.87186    34.083048    90.647768   -4442.3111 
46725000    7.4622258   -4727.1318   -4714.3418   -4727.1318            0    2001.3575    17.835336    23.283133    21.906875    9097.1035    2188.5497    1943.6109    1871.9118    66.959805    -43.69539   -39.026033   -4448.8178 
46726000    7.6461966   -4726.9276   -4713.8223   -4726.9276            0    1982.4885    17.839258    23.266724    21.917993    9097.3064    2108.7071    2119.2603    1719.4981    232.47902    91.978106    92.640693   -4450.7958 
46727000    7.9348251   -4725.7242   -4712.1242   -4725.7242            0    2034.7056    17.901825    23.241957    21.850925    9091.5899    1857.6116    2148.4999    2098.0053   -24.711178   -103.60387    94.032931   -4442.3395 
46728000    7.8295193   -4726.9626   -4713.5431   -4726.9626            0    2076.8213    17.903638    23.285537    21.809688    9092.3682    1926.9664    2099.4731    2204.0244   -71.384868    21.901226    107.86693   -4438.1507 
46729000    7.5222168    -4726.295   -4713.4022    -4726.295            0    1987.6731     17.89501    23.227084    21.878595     9093.814    1926.1181    2053.5539    1983.3473   -175.99902   -49.453541    89.111374   -4449.7891 
46730000    8.1662686   -4726.7807    -4712.784   -4726.7807            0    1915.1365    17.853583    23.261094    21.907844    9098.1936    2099.1222    1861.7364    1784.5509    192.96225   -150.45294    103.17016   -4458.6687 
46731000    8.0111335   -4726.9916   -4713.2608   -4726.9916            0    1997.8248    17.811125    23.325761    21.894512    9096.2513    2147.2059    1838.5562    2007.7121    -10.84287    10.646829   -20.524224   -4448.2304 
46732000    7.7263161   -4727.5258   -4714.2832   -4727.5258            0    1946.9293    17.870564    23.284323    21.866927    9098.9152     2014.572    1846.3202    1979.8957    -99.61724   -11.421056     100.8338   -4455.9289 
46733000    7.5388107   -4727.4488   -4714.5275   -4727.4488            0     2004.743    17.897562    23.256969    21.850547    9095.1385    1976.2653    1979.5813    2058.3825   -23.115803    2.4838903   -50.122535   -4448.6119 
46734000    7.4909002    -4726.003   -4713.1638    -4726.003            0    2027.3543    17.917301    23.211756    21.869476    9095.3404    1885.2188     2052.208    2144.6363   -137.63289    89.061469    85.103157    -4444.243 
46735000    7.2650278   -4726.5813   -4714.1293   -4726.5813            0    2032.2459    17.935136    23.174589    21.882101    9095.0636    1795.1159    2174.6386    2126.9833    20.732163   -12.610325    4.6474323   -4444.5677 
46736000    7.3518157   -4726.9011   -4714.3004   -4726.9011            0    2102.0357    17.910943    23.242819    21.838387    9091.3381    1976.4191    2108.1781    2221.5098   -214.72977   -7.4865135   -3.1229459    -4435.596 
46737000    7.5420209   -4727.2945   -4714.3677   -4727.2945            0    1984.4594    17.898532    23.280251    21.832542    9097.2342    2042.0252    1802.8461     2108.507    64.805697    19.393665    224.37419   -4451.0819 
46738000    7.7435914   -4726.6196   -4713.3473   -4726.6196            0    1992.2102    17.828553    23.336375     21.86811    9098.3101    2100.5927    1877.7678    1998.2702    57.869709   -47.142508     31.79732   -4449.0019 
46739000    7.5972177   -4726.4044   -4713.3831   -4726.4044            0    2072.0644    17.839728    23.260461    21.912253    9092.7152    2234.8183     1950.982    2030.3928   -28.290266   -186.73796    176.34587   -4438.6109 
46740000    7.7182314    -4726.832   -4713.6032    -4726.832            0    2013.5079    17.857846     23.27328    21.881675    9094.2571    1970.0622      2022.92    2047.5415    92.582267    28.643435   -2.1966683   -4446.5508 
46741000    7.3591343   -4727.0972   -4714.4839   -4727.0972            0    2043.6542    17.910755    23.218769    21.858897     9090.365    1929.8997    2098.6644    2102.3986   -62.904965    38.708148   -6.5161715   -4443.5492 
46742000    7.6307749   -4726.8153   -4713.7364   -4726.8153            0    2017.6899    17.937693    23.211917    21.839918    9093.4481    1661.1689    2167.7734    2224.1275    2.4315218     11.21771    168.20591   -4446.1532 
46743000    7.8149357   -4726.8802   -4713.4857   -4726.8802            0    1920.9129    17.904991    23.253652    21.858999    9101.1345    1859.9441    1938.3281    1964.4664   -161.14361    32.423169   -96.527481   -4458.5216 
46744000    7.7235029   -4727.0559   -4713.8181   -4727.0559            0    1873.7525    17.877496    23.279777    21.872152    9102.8426    1902.0797    1849.0091    1870.1688    106.50259    72.198838    193.89858   -4465.0669 
46745000    7.6390333   -4726.2104   -4713.1173   -4726.2104            0    1925.7323     17.84081    23.328585     21.86205    9099.0038    2088.8238    1742.3106    1946.0624   -76.196154   -5.0824029   -79.131216   -4457.5733 
46746000     7.576764   -4727.1613    -4714.175   -4727.1613            0    1978.5573    17.855356    23.278594    21.888158    9097.7604    2176.7677     1824.557    1934.3473   -21.371303    13.183218    181.48469   -4451.6571 
46747000     7.571421   -4727.0974   -4714.1203   -4727.0974            0    2005.8725    17.872662    23.283618    21.858773    9096.3151    2099.7033    1969.6079    1948.3064      20.6775   -51.368151    50.868152   -4448.0204 
46748000    7.9109778   -4726.6618   -4713.1027   -4726.6618            0    2057.2015    17.892637    23.230074    21.877303    9093.2415    2043.8455    2189.6577    1938.1013    -95.67131   -103.64751    27.182712   -4440.2857 
46749000      7.10498   -4726.7943   -4714.6166   -4726.7943            0    2041.0317    17.927105    23.218531    21.839194    9090.3688    1953.0815      2118.93    2051.0838    283.28359    78.348242    190.09635   -4444.0295 
46750000    8.0094679   -4726.4211   -4712.6932   -4726.4211            0    2023.5103    17.912234    23.263382    21.828198    9095.7913    1887.2021    2027.4852    2155.8437    28.732502   -15.609341   -73.398218   -4444.2689 
Loop time of 326.092 on 64 procs for 250000 steps with 864 atoms

Performance: 132.478 ns/day, 0.181 hours/ns, 766.655 timesteps/s
390.6% CPU use with 16 MPI tasks x 4 OpenMP threads

MPI task timing breakdown:
Section |  min time  |  avg time  |  max time  |%varavg| %total
---------------------------------------------------------------
Pair    | 22.55      | 25.997     | 29.604     |  31.4 |  7.97
Bond    | 1.5093     | 1.6804     | 2.2965     |  13.4 |  0.52
Kspace  | 175.52     | 180.08     | 187.23     |  29.2 | 55.22
Neigh   | 0.058517   | 0.066247   | 0.076788   |   2.5 |  0.02
Comm    | 41.881     | 47.293     | 51.244     |  40.6 | 14.50
Output  | 0.43832    | 0.43855    | 0.43981    |   0.1 |  0.13
Modify  | 54.336     | 58.838     | 63.096     |  41.5 | 18.04
Other   |            | 11.7       |            |       |  3.59

Nlocal:        54.0000 ave          61 max          47 min
Histogram: 3 1 3 1 0 0 1 3 1 3
Nghost:        2595.94 ave        2616 max        2581 min
Histogram: 3 2 2 1 2 0 2 2 0 2
Neighs:        13378.4 ave       15091 max       11789 min
Histogram: 4 2 1 1 0 0 2 1 2 3

Total # of neighbors = 214054
Ave neighs/atom = 247.74769
Ave special neighs/atom = 2.0000000
Neighbor list builds = 250
Dangerous builds = 0

unfix		3
unfix		2
unfix		1

write_data	data.final.${pid} nocoeff
write_data	data.final.1 nocoeff
System init for write_data ...
PPPM initialization ...
  extracting TIP4P info from pair style
  using 12-bit tables for long-range coulomb (../kspace.cpp:340)
  G vector (1/distance) = 0.37227757
  grid = 24 27 25
  stencil order = 5
  estimated absolute RMS force accuracy = 0.0030921102
  estimated relative force accuracy = 9.311798e-06
  using double precision FFTW3
  3d grid and FFT values/proc = 6300 1296
Last active /omp style is kspace_style pppm/tip4p/omp

write_restart   restart.lmp.${pid}
write_restart   restart.lmp.1
System init for write_restart ...
PPPM initialization ...
  extracting TIP4P info from pair style
  using 12-bit tables for long-range coulomb (../kspace.cpp:340)
  G vector (1/distance) = 0.37227757
  grid = 24 27 25
  stencil order = 5
  estimated absolute RMS force accuracy = 0.0030921102
  estimated relative force accuracy = 9.311798e-06
  using double precision FFTW3
  3d grid and FFT values/proc = 6300 1296
Last active /omp style is kspace_style pppm/tip4p/omp
Total wall time: 0:05:26
