LAMMPS (30 Jul 2021)
  using 1 OpenMP thread(s) per MPI task
package omp 0
using multi-threaded neighbor list subroutines
echo both

include		in.partitions
variable        pid world 0
include		in.temp
variable        temperature equal 249.05
variable	tempDamp equal 100.0
include		in.pressure
variable        pressure equal 7500.0
variable        pressureDamp equal 1000.0 # This is 1 ps
include		in.seed
variable        seed world 745823

units		real
atom_style	full
box tilt large
read_restart	restart.lmp.${pid}
read_restart	restart.lmp.0
Reading restart file ...
  restart file = 30 Jul 2021, LAMMPS = 30 Jul 2021
  restoring atom style full from restart
  triclinic box = (-10.700857 -9.1376795 0.035510576) to (12.680857 12.127678 21.824488) with tilt (-9.3707641 2.1968386 2.5482916)
  4 by 4 by 4 MPI processor grid
  restoring pair style lj/cut/tip4p/long/omp from restart
  restoring bond style harmonic/omp from restart
  restoring angle style harmonic/omp from restart
  1296 atoms
  864 bonds
  432 angles
Finding 1-2 1-3 1-4 neighbors ...
  special bond factors lj:    0        0        0       
  special bond factors coul:  0        0        0       
     2 = max # of 1-2 neighbors
     1 = max # of 1-3 neighbors
     1 = max # of 1-4 neighbors
     2 = max # of special neighbors
  special bonds CPU = 0.827 seconds
  read_restart CPU = 1.111 seconds
include 	in.setup
variable	out_freq equal 1000
variable	out_freq2 equal 10000
variable	out_freq3 equal 1000

timestep	2.0

neigh_modify    delay 7 every 1

include		in.tip4p
# This is TIP4P/Ice

# create groups ###
group ox type 2
432 atoms in group ox
group hy type 1
864 atoms in group hy

# set charges - beside manually ###
set group ox charge -1.1794
Setting atom values ...
  432 settings made for charge
set group hy charge 0.5897
Setting atom values ...
  864 settings made for charge

# ### TIP3P Potential Parameters ###
pair_style lj/cut/tip4p/long/omp 2 1 1 1 0.1577 8.5
pair_coeff 1 1*2 0.000 0.000
pair_coeff 2 2 0.21084 3.1668
bond_style  harmonic
bond_coeff  1 450 0.9572
angle_style harmonic
angle_coeff 1 55 104.52
kspace_style pppm/tip4p/omp 1.0e-5
pair_modify tail yes

thermo          ${out_freq}
thermo          1000
thermo_style    custom step temp pe etotal epair emol press lx ly lz vol pxx pyy pzz pxy pxz pyz enthalpy

restart 	${out_freq3} restart.lmp.${pid} restart2.lmp.${pid}
restart 	1000 restart.lmp.${pid} restart2.lmp.${pid}
restart 	1000 restart.lmp.0 restart2.lmp.${pid}
restart 	1000 restart.lmp.0 restart2.lmp.0


include         in.dump
dump            myDump all atom ${out_freq2} dump.water.${pid}
dump            myDump all atom 10000 dump.water.${pid}
dump            myDump all atom 10000 dump.water.0
dump            myDump2 all dcd ${out_freq2} dump.dcd
dump            myDump2 all dcd 10000 dump.dcd
dump_modify     myDump append yes
dump_modify     myDump2 append yes


variable natoms 	equal  "count(all)"                        # NUMBER ATOMS
variable H      	equal  "enthalpy/v_natoms"                 # ENTHALPY-per-atom
variable Vol      	equal  "vol/v_natoms"                 # volume-per-atom
fix AVG all 		ave/time ${out_freq} 1 ${out_freq} v_Vol v_H file vol_enthalpy.dat
fix AVG all 		ave/time 1000 1 ${out_freq} v_Vol v_H file vol_enthalpy.dat
fix AVG all 		ave/time 1000 1 1000 v_Vol v_H file vol_enthalpy.dat


timer           timeout 10:00:00 every 1000
New timer settings: style=normal  mode=nosync  timeout=10:00:00

fix 		1 all shake 1e-6 200 0 b 1 a 1
       0 = # of size 2 clusters
       0 = # of size 3 clusters
       0 = # of size 4 clusters
     432 = # of frozen angles
  find clusters CPU = 0.031 seconds
fix             2 all nph tri ${pressure} ${pressure} ${pressureDamp}
fix             2 all nph tri 7500 ${pressure} ${pressureDamp}
fix             2 all nph tri 7500 7500 ${pressureDamp}
fix             2 all nph tri 7500 7500 1000
fix             3 all temp/csvr ${temperature} ${temperature} ${tempDamp} ${seed}
fix             3 all temp/csvr 249.05 ${temperature} ${tempDamp} ${seed}
fix             3 all temp/csvr 249.05 249.05 ${tempDamp} ${seed}
fix             3 all temp/csvr 249.05 249.05 100 ${seed}
fix             3 all temp/csvr 249.05 249.05 100 745823


run             250000
PPPM initialization ...
  extracting TIP4P info from pair style
  using 12-bit tables for long-range coulomb (../kspace.cpp:340)
  G vector (1/distance) = 0.36820962
  grid = 30 40 32
  stencil order = 5
  estimated absolute RMS force accuracy = 0.004309648
  estimated relative force accuracy = 1.2978377e-05
  using double precision FFTW3
  3d grid and FFT values/proc = 5168 640
Last active /omp style is kspace_style pppm/tip4p/omp
Neighbor list info ...
  update every 1 steps, delay 7 steps, check yes
  max neighbors/atom: 2000, page size: 100000
  master list distance cutoff = 10.8154
  ghost atom cutoff = 10.8154
  binsize = 5.4077, bins = 7 5 5
  1 neighbor lists, perpetual/occasional/extra = 1 0 0
  (1) pair lj/cut/tip4p/long/omp, perpetual
      attributes: half, newton on, omp
      pair build: half/bin/newton/tri/omp
      stencil: half/bin/3d/tri
      bin: standard
Per MPI rank memory allocation (min/avg/max) = 9.436 | 9.441 | 9.446 Mbytes
Step Temp PotEng TotEng E_pair E_mol Press Lx Ly Lz Volume Pxx Pyy Pzz Pxy Pxz Pyz Enthalpy 
26250000     264.6248   -6329.0031   -5648.2719   -6329.0031            0    6850.4024    23.381713    21.265357    21.788978    10833.926    6711.1872    7702.6401    6137.3798    351.79451   -568.07537   -143.34144   -4565.8967 
26251000     255.2396   -6357.9893    -5701.401   -6357.9893            0    6791.7601    23.214568    21.538974    21.595717    10798.247    8939.0367    5825.7229    5610.5206   -326.09752   -1113.2291    195.69144   -4631.8254 
26252000    255.04032   -6343.9983   -5687.9226   -6343.9983            0     8129.992    23.209243    21.490381    21.611413    10779.243    8729.6933    6640.2259    9020.0569   -273.43986   -697.66017   -651.52913   -4409.8537 
26253000    247.08478   -6327.8455   -5692.2349   -6327.8455            0    7246.1591    23.571343    21.099667    21.699012    10791.949    7211.0629    7063.5517    7463.8625    72.203744   -90.378488    564.69165   -4551.7655 
26254000     242.5908    -6359.388    -5735.338    -6359.388            0    5668.6639    23.236352    21.559054    21.627898    10834.577    6194.4233     4800.938    6010.6304   -1011.4165    1492.0231    628.70694   -4839.6256 
26255000    245.55452    -6340.482    -5708.808    -6340.482            0    7930.9262    23.339308    21.416543    21.583141    10788.275    7225.6419    7262.2286    9304.9081    1070.6338   -390.64719     921.1992   -4460.9884 
26256000    252.21473   -6324.2171   -5675.4101   -6324.2171            0    7864.5323    23.577911     21.19475    21.594004    10791.127     7887.849    8193.0668    7512.6809     369.1192   -681.79544   -1234.9606   -4437.7096 
26257000    249.06777   -6350.0324   -5709.3208   -6350.0324            0    7138.6373    23.109081    21.543759     21.66625    10786.683    7002.0379    7981.6774    6432.1966    546.86313    1245.0485    91.941684   -4586.3224 
26258000     250.7848   -6323.0128   -5677.8841   -6323.0128            0     8952.415    23.275695    21.319331    21.588771    10712.828    8459.2937    9366.4269    9031.5244   -696.94583    1063.4594   -866.95242   -4279.1981 
26259000    260.38367   -6308.2165   -5638.3954   -6308.2165            0    9493.3094    23.340909    21.297557    21.539857    10707.557     11170.29    8194.6667     9114.971   -1438.3043    1406.8328    466.43753   -4155.9322 
26260000    249.87712   -6317.3788   -5674.5851   -6317.3788            0    8174.3978    23.223187    21.345251    21.671899    10742.863      9414.62    8923.7566     6184.817   -1777.0875    1059.8661   -229.27633   -4393.8725 
26261000    255.17325   -6345.1398   -5688.7222   -6345.1398            0    7316.1735    23.218977    21.522881    21.584735     10786.74    8476.7394    5573.0511    7898.7299   -1041.9266    271.94088   -1076.3042   -4537.7891 
26262000    261.07058    -6317.269   -5645.6808    -6317.269            0    7708.3615    23.444274    21.245485    21.652925    10784.996    6889.1841    8095.0397    8140.8606   -1192.5931    195.57119    383.68926   -4433.2473 
26263000    255.18948   -6322.2331   -5665.7737   -6322.2331            0    7069.8471    23.106649    21.566891    21.704507    10816.193    8944.5136     5419.324    6845.7038     695.7113   -342.75354    1128.1796   -4550.5542 
26264000    243.42255   -6349.6906   -5723.5009   -6349.6906            0    7829.3108    23.162464    21.417442    21.734313    10781.974    8756.5217    6530.0464    8201.3641   -150.95563    2.0557985      506.969   -4492.3885 
26265000    251.76863   -6328.2757   -5680.6162   -6328.2757            0    7835.6277    23.458657    21.281323    21.560461    10763.656    7147.7329     8529.867    7829.2832   -1208.3997    1023.0583   -298.80254   -4450.6038 
26266000     246.9989   -6327.4678   -5692.0782   -6327.4678            0    8108.8384    23.134534    21.551491    21.590559    10764.701    7124.7684    9533.0776    7668.6693    401.05284   -103.80612   -419.13713   -4419.0545 
26267000    263.77657   -6368.2541    -5689.705   -6368.2541            0    7783.5283    23.248321    21.398776    21.594556    10742.981    7156.2642    8433.9497     7760.371    410.80561    1041.6564   -569.83154   -4470.2179 
26268000    250.36033   -6368.7584   -5724.7217   -6368.7584            0    7521.3442    23.470812    21.141214    21.686819    10761.031    7245.0076    8885.8001     6433.225   -125.59057    364.08613   -401.44696   -4544.3325 
26269000    251.17789   -6345.1084   -5698.9686   -6345.1084            0    7906.1948    23.206505    21.413232    21.643924    10755.434    8878.0407     6880.787    7959.7567    1143.9117   -152.34256   -446.89391   -4458.8267 
26270000    245.82401   -6334.4429   -5702.0756   -6334.4429            0     9257.135    23.215003    21.465135    21.511352     10719.39    9261.5947    7896.7259    10613.084    1230.4793    92.161359    472.47561   -4254.8956 
26271000    243.10575   -6344.9406   -5719.5658   -6344.9406            0    7871.8966    23.351253    21.294692    21.592588    10737.082    7280.4595    10397.569    5937.6613   -426.96184    318.85871   -1410.3035   -4486.9109 
26272000    249.97505   -6332.5889   -5689.5433   -6332.5889            0    7397.0141    23.324335    21.374585     21.65901    10798.056      7732.27    7592.5713     6866.201     1185.825   -360.51396   -261.10515   -4524.6721 
26273000    244.95623   -6341.5368   -5711.4018   -6341.5368            0    7552.9525    23.334763    21.485888    21.545856    10802.405      6515.97     6273.736    9869.1515    1239.1275    600.49178    1637.7561   -4521.4946 
26274000    265.62857   -6311.0793    -5627.766   -6311.0793            0      7105.03    23.347963    21.414779    21.665769      10832.7    7382.0857    7311.5997    6621.4047   -1108.3203   -627.40318    806.58247   -4505.2863 
26275000    256.25542   -6315.5691   -5656.3676   -6315.5691            0    7462.5235    23.276777    21.427246    21.690794     10818.44    6188.0541    7467.7876    8731.7288     256.3933   -605.82335    1151.5883   -4478.9616 
26276000    249.06646   -6293.7799   -5653.0716   -6293.7799            0    8272.4918    23.169856    21.629109    21.511455    10780.322    8925.0027    6883.8921    9008.5805    449.39002   -1373.8265    223.09312   -4352.4709 
26277000    249.56549   -6310.6212   -5668.6292   -6310.6212            0    7952.2626    23.415997    21.456367    21.435858    10769.851    7368.7226     8480.648    8007.4173    255.30279    52.207378   -327.32528   -4419.5893 
26278000    248.73766   -6370.7953   -5730.9328   -6370.7953            0    6375.7774     23.34817    21.371972    21.722033    10839.217    4917.2755    7702.0614    6507.9953   -497.32738    219.32657   -86.993893   -4723.0572 
26279000    243.20196   -6347.8611   -5722.2389   -6347.8611            0    6752.8047    23.338247    21.386145    21.645113    10803.404     7044.944    6707.5431    6505.9269    1157.4181   -501.50822    116.05302   -4658.2902 
26280000    256.04528   -6310.1865   -5651.5256   -6310.1865            0    8354.8591    23.277704    21.484015    21.513103    10758.671    7556.5048    8752.0861    8755.9863    1069.6947    258.29122     172.6627   -4340.6132 
26281000    251.47974    -6324.393   -5677.4767    -6324.393            0    6076.3183     23.46311    21.318042    21.781857    10895.014    5993.3959    6174.8011    6060.7579    212.67598    124.66016    963.81355   -4711.9947 
26282000     265.3159   -6363.9993   -5681.4903   -6363.9993            0    7308.4711    23.318472    21.478136    21.574013    10805.071    6209.9852    7635.1179    8080.3104   -295.58417    1563.7963    369.91428   -4529.8151 
26283000    243.26145   -6329.4479   -5703.6726   -6329.4479            0    7078.6794    23.219908    21.493613    21.661185    10810.658    5721.2072    8773.5382    6741.2926   -208.57736    244.30429   -729.51803   -4587.6313 
26284000    255.95227   -6360.0258   -5701.6042   -6360.0258            0    7669.5503    23.359051    21.260067    21.675999    10764.626    7505.1657    7861.6934    7641.7919   -1310.5317   -85.010881     -168.235   -4497.5536 
26285000    242.70438   -6342.9947   -5718.6524   -6342.9947            0    8027.1554    23.118783    21.500676    21.603845    10738.611    8068.8459     6795.944    9216.6761    479.88687    206.54324    740.58673   -4461.5065 
26286000    244.45122   -6351.1943   -5722.3584   -6351.1943            0    8289.7765    23.294125     21.38217    21.620625    10768.778    8734.6266    8704.4479     7430.255   -2528.7842    1641.9872    108.20603   -4420.4359 
26287000     256.7542   -6337.4442   -5676.9596   -6337.4442            0    9529.5953    23.231892     21.16898    21.758587    10700.774    9253.0395    9786.0228    9549.7237   -840.90236    181.34179   -401.67869   -4189.7728 
26288000    248.39943   -6321.2421   -5682.2497   -6321.2421            0    9032.3073      23.1913    21.481369    21.510517    10716.128    8506.3474    9220.2587    9370.3159   -537.07471    980.48403    24.235417   -4270.6469 
26289000    253.81859   -6345.7526   -5692.8197   -6345.7526            0    7594.4314    23.335406    21.503513       21.528    10802.604    6776.0883    7320.4358    8686.7699   -188.63212    255.63918   -598.04908   -4496.3558 
26290000    247.21716   -6342.4588   -5706.5077   -6342.4588            0    7255.4661    23.472604    21.239426    21.724048    10830.408    7627.2678    7938.8745     6200.256   -372.56903   -402.17836   -296.69892   -4560.5041 
26291000    243.57188   -6346.8232   -5720.2494   -6346.8232            0    7356.3217    23.115408     21.48944     21.77588    10816.889    8917.4448    7683.7784    5467.7419   -250.42377   -977.72622    153.05562   -4559.7659 
26292000    247.99965   -6338.2724   -5700.3084   -6338.2724            0    8710.5831      23.3406    21.395724    21.507994    10740.856    7725.6719    8040.6792    10365.398   -132.33135    1228.7109    1442.3098   -4335.8446 
26293000    252.36111   -6324.8481   -5675.6645   -6324.8481            0    8929.9215    23.288166    21.368805    21.575399    10736.788    8527.4098    9256.9775    9005.3771   -314.52607    -439.9827   -257.41056   -4277.3724 
26294000    240.79499   -6294.3358   -5674.9054   -6294.3358            0    10010.226    23.018244    21.553245    21.571975    10702.242    10789.421    9195.2216    10046.036     -776.364   -44.669975    144.97561    -4112.497 
26295000    237.37788   -6365.3377   -5754.6976   -6365.3377            0    7435.1339    23.363804    21.520093    21.421463    10770.524    8568.8886    7193.0983    6543.4147   -709.70125   -1769.5249   -240.29107   -4586.8087 
26296000    254.28516   -6338.8407   -5684.7077   -6338.8407            0    7558.8321    23.391503    21.318318    21.653837    10798.065     6681.714      8138.83    7855.9523   -151.92234   -1238.3754     508.0324   -4494.3526 
26297000    246.77683   -6350.1162   -5715.2978   -6350.1162            0    7063.4211    23.131258    21.584035    21.595619    10781.956    8103.0966    5474.7475    7612.4191    1263.8011    -182.9175    225.62655   -4604.6189 
26298000     248.0269   -6311.6276   -5673.5935   -6311.6276            0     7130.305    23.381227    21.390003    21.628196    10816.791    6514.3186    7609.2729    7267.3235    1178.2531   -969.30353    -230.4781    -4548.775 
26299000    248.90335   -6314.5523   -5674.2636   -6314.5523            0    6235.0124    23.523784    21.238667    21.711946    10847.588    4874.9191    7004.1624    6825.9556    420.03536    -1160.886     598.6641   -4687.8787 
26300000    250.89806   -6332.0019    -5686.582   -6332.0019            0    8205.1344     23.25069    21.526064    21.468118    10744.703    9570.9347    6551.3142    8493.1542     244.5021     11.40421   -590.66947   -4400.8335 
26301000    258.25905   -6327.2835   -5662.9279   -6327.2835            0    6455.8787    23.470203    21.491648    21.507936     10848.89    5609.9593    6660.2088     7097.468    1397.5508    501.61246   -569.62681   -4641.4792 
26302000    239.65446   -6338.9425    -5722.446   -6338.9425            0    6797.0408    23.401143    21.373408    21.626436    10816.726     6080.895     7285.926    7024.3014    444.18777   -220.66965    205.74115    -4650.207 
26303000    240.32808   -6328.3038   -5710.0745   -6328.3038            0    8189.2838    23.131273    21.469399    21.646105     10749.77    9834.2079    6851.0278    7882.6155    2182.7865   -1346.8224   -723.66539   -4426.2047 
26304000    247.36618   -6310.5542   -5674.2198   -6310.5542            0    8045.1251    23.423896    21.466136    21.435002    10777.959    6467.9709    8744.9066    8922.4977    1279.0245    816.94863   -466.79925    -4409.643 
26305000    254.30379   -6339.1629   -5684.9819   -6339.1629            0    7140.8988    23.533764    21.096334    21.719282    10783.105    7204.3626    7552.6402    6665.6936    118.87862    142.63289   -362.00805   -4562.0003 
26306000    266.97744   -6345.9757   -5659.1925   -6345.9757            0    6912.7586    23.213993    21.536261    21.545757    10771.642    6024.6023    7093.5176    7620.1559    415.42641   -648.20084    752.23157   -4573.2441 
26307000    249.92747   -6339.4646   -5696.5414   -6339.4646            0    7314.0113    23.266012    21.489888    21.575558    10787.434    6860.0247    6907.7202     8174.289    1019.5406    222.13097    26.335517   -4545.8744 
26308000    240.88025   -6308.3212   -5688.6714   -6308.3212            0    9943.1299     23.26808    21.193278    21.678648    10690.324    10415.636    10710.519    8703.2346    484.01719   -553.53466    925.41657   -4138.4637 
26309000    253.37592   -6333.9972   -5682.2031   -6333.9972            0    7153.0317    23.238701     21.51151    21.589216    10792.439    7195.4951    6622.4728    7641.1271    363.86044   -811.00654   -22.284661   -4556.3398 
26310000    243.71505   -6359.6234   -5732.6813   -6359.6234            0    5772.2364    23.371527    21.536283    21.588499    10866.265    4763.0107    6544.4961    6009.2025   -95.718442    672.24335   -581.93882   -4817.9358 
26311000    243.87417   -6330.0412   -5702.6897   -6330.0412            0    6064.0708     23.32274    21.347479    21.914614    10910.885    6052.6837    7471.3939    4668.1347   -660.59288    873.28893   -1201.3877   -4737.7501 
26312000    250.25054   -6326.9774   -5683.2231   -6326.9774            0    6323.2267    23.129941     21.48946    21.849346    10860.216    7186.5745    7007.0543    4776.0513    627.83169    1301.0059     -705.624   -4681.7182 
26313000     258.1406   -6307.4303   -5643.3793   -6307.4303            0    6868.4754    23.446868    21.324229    21.640577    10819.994    4945.8641    7579.7736    8079.7885    66.886608    426.14567    -312.0575   -4559.5441 
26314000    252.84701   -6346.2042   -5695.7707   -6346.2042            0    7492.8563    23.378592     21.42936    21.520404     10781.47    7280.6365    7927.4931    7270.4394   -1304.4421    793.51699   -264.16284   -4517.6189 
26315000    240.39275   -6365.6052   -5747.2095   -6365.6052            0    6742.6262     23.19652    21.298652    21.841051    10790.672     6919.191    7193.9977    6114.6899    601.76873    588.32953   -344.18432   -4686.1165 
26316000    260.72427   -6333.7539   -5663.0566   -6333.7539            0    7615.5517    23.316358    21.298755    21.772521    10812.438    7656.3233    8625.9795    6564.3523   -1258.1406   -25.988332   -1229.6924    -4462.173 
26317000    241.37955   -6352.5749   -5731.6407   -6352.5749            0    7663.6385    23.400724    21.467423     21.43629    10768.589    6689.3904    7748.4113    8553.1137   -387.51993   -733.92283   -1171.8172   -4528.0752 
26318000    238.14518   -6331.3923   -5718.7783   -6331.3923            0    6703.3162    23.247164    21.497454    21.609002    10799.203    5942.0397    7032.0233    7135.8858    1279.4329   -132.67503    -371.4234   -4663.0375 
26319000    244.62965   -6374.7924   -5745.4975   -6374.7924            0    5459.8836    23.354996    21.290582    21.770305    10825.098    4737.7092     6677.719    4964.2226    271.40452   -669.53378    300.49637   -4883.5295 
26320000    247.17903   -6340.4886   -5704.6356   -6340.4886            0       7287.9    23.318402    21.379168    21.703905    10820.005    5978.4298    8395.4512     7489.819    351.05849    64.767378    1104.4005   -4554.6147 
26321000    253.02507   -6344.0652   -5693.1737   -6344.0652            0    6892.5648    23.288801    21.511874    21.603031    10822.811    6234.0858    6273.8449    8169.7637    1795.1614   -157.66434    583.25668    -4605.254 
26322000    259.38256   -6304.0396   -5636.7938   -6304.0396            0    6789.7951    23.558904    21.333723    21.553763    10832.902    6664.5297    6279.3914    7425.4642    516.77231   -1522.7578   -201.03662    -4564.096 
26323000    240.30664    -6344.954   -5726.7798    -6344.954            0    7708.7879    23.317644    21.394714    21.653015    10802.133    7635.3013    8099.6424    7391.4199    172.33971   -1675.3931    141.21816   -4512.3525 
26324000    250.11231   -6347.3272   -5703.9285   -6347.3272            0       6858.5    23.253807    21.559542    21.531572    10794.669    7525.0918    7091.3254    5959.0827    643.21849   -437.35246   -70.223699   -4624.2006 
26325000    246.66073   -6326.3181   -5691.7984   -6326.3181            0    8119.6799    23.426726    21.258457     21.61017    10762.212    7012.2148    9050.0806    8296.7443    -1148.182    478.22014    780.86306   -4417.3674 
26326000    256.26618    -6340.513   -5681.2839    -6340.513            0    8909.4061    23.055092    21.428122    21.655105    10698.214    10133.667    8528.3583    8066.1933    652.26346   -54.739135    1780.0655   -4291.2163 
26327000    249.39191   -6353.8134    -5712.268   -6353.8134            0    8366.7211     23.23553    21.443323    21.568447    10746.414    7475.5546    9184.8782    8439.7305    1655.4549    292.61101    792.06577   -4400.9901 
26328000    259.03924   -6318.9172   -5652.5545   -6318.9172            0    7837.4879    23.450688    21.317379    21.539707    10767.855    7085.2517    8052.0815    8375.1303    893.18158    -58.53582   -248.96276   -4421.7701 
26329000    254.86562   -6373.1047   -5717.4784   -6373.1047            0    8316.1749    22.988126    21.445113    21.753765    10724.235     9398.975    7721.3611    7828.1888    305.00269   -259.81911   -703.38058   -4416.8123 
26330000    262.91518   -6332.6436   -5656.3103   -6332.6436            0     7501.379    23.246241     21.29611    21.729717    10757.394    9202.6068    6954.9494    6346.5808   -568.96239    -4.477279    -1023.323   -4479.4522 
26331000    248.53332   -6353.2819    -5713.945   -6353.2819            0     7935.298    23.413231    21.295444    21.601804    10770.555    7244.5682    7748.1696    8813.1561   -734.81391   -59.202844   -409.74776   -4467.4883 
26332000    253.40246   -6361.8171   -5709.9547   -6361.8171            0    6990.9009    23.125511     21.51994    21.729524    10813.907    7339.4776    6056.5225    7576.7025    193.36766   -88.752174    238.52981   -4607.4216 
26333000     249.3555   -6336.5359   -5695.0841   -6336.5359            0    7596.0386     23.29646    21.337476    21.644616    10759.272    7487.0415    7855.6526    7445.4216    1150.3366    562.88593   -122.05187   -4503.1673 
26334000    262.20097    -6318.914    -5644.418    -6318.914            0    6987.3005    23.411577    21.395758    21.609265    10824.264    7244.2298    6535.8138    7181.8579   -494.21422    1018.4052    774.32155   -4541.3972 
26335000     248.7955   -6356.6047   -5716.5934   -6356.6047            0    6241.4402    23.168852    21.505639    21.755763    10840.048    7790.2071    5005.5788    5928.5348   -979.12782   -67.146689   -268.04055    -4729.878 
26336000    241.55236   -6335.2576   -5713.8788   -6335.2576            0    6725.0494    23.424671    21.225382     21.72605     10802.14    6723.3538    7353.3162    6098.4784    -345.1083    278.61959    46.099572   -4654.4271 
26337000    249.08798   -6372.2683   -5731.5046   -6372.2683            0    8105.9708    23.237623    21.515224    21.485628    10742.012    7461.0479    8210.5594    8646.3051    416.13986    258.20978    1275.1895   -4461.6133 
26338000    253.50652   -6335.4237   -5683.2936   -6335.4237            0    7809.9716    23.125168     21.44326    21.750024     10785.38    7685.2207     7466.834    8277.8601    120.28057    631.29814    1753.4945   -4454.8343 
26339000    241.53267   -6366.3177   -5744.9897   -6366.3177            0    7671.9648    23.304414    21.256969    21.678436     10739.09    7839.9202    8540.3345    6635.6397    1114.0927   -249.39949    -878.8349   -4543.4172 
26340000    250.30775   -6359.5818   -5715.6804   -6359.5818            0    7425.1812    23.161113    21.477559    21.677172    10783.182    6322.2233    7400.6186    8552.7017     23.22871    285.24126    1083.7049   -4547.9841 
26341000      248.506   -6373.0791   -5733.8125   -6373.0791            0     6608.932    23.357287    21.323239    21.716763    10816.099    7434.0172    6706.2568    5686.5221    1060.8485    -1206.333    -823.4789   -4691.3083 
26342000    252.20854     -6345.27    -5696.479     -6345.27            0    7192.0245    23.405438    21.343866    21.613458    10797.274    6310.0109    8556.0255    6710.0369    1004.5176   -958.91957   -145.83068   -4563.9713 
26343000    252.05182   -6350.9621   -5702.5742   -6350.9621            0    6850.5809     23.29729    21.426193    21.658902    10811.523    7096.3809    6270.7678     7184.594    1098.5515   -67.661643    579.57278    -4622.409 
26344000    250.66121   -6332.4114   -5687.6007   -6332.4114            0    8338.4299    23.135818    21.403927    21.801441    10796.016    9722.1792    8186.0968    7107.0137    1478.5188    58.872066    421.46312   -4374.7248 
26345000    237.52141   -6352.0033   -5740.9939   -6352.0033            0    8580.6475    23.419069    21.222257    21.590169    10730.433    8906.6621    7751.1886    9084.0919    1364.8166   -557.45686      776.953   -4398.1881 
26346000    263.66652   -6338.0848   -5659.8187   -6338.0848            0    8056.6412    23.358436    21.491762    21.419827    10753.052    7973.5306    8168.0999     8028.293     1270.826   -577.99087   -373.16145   -4396.3583 
26347000    251.30519   -6345.2702   -5698.8029   -6345.2702            0    8647.5374    23.401868     21.30927    21.521508    10732.275    9279.0688    8187.0684     8476.475   -565.49931   -507.40091   -278.61378    -4345.297 
26348000     236.2725   -6354.2018   -5746.4051   -6354.2018            0    7374.0643    23.225284     21.46827    21.740922    10840.169    9034.1879    6175.8638    6912.1414   -595.98633   -1594.0407    682.47147   -4580.6191 
26349000    250.88799   -6343.9003   -5698.5062   -6343.9003            0     6284.384    23.396695     21.56231     21.51679    10854.937    6049.9206    5437.1837    7366.0477    -701.4591   -160.90276    -210.3186   -4703.6372 
26350000    241.16383   -6355.0567   -5734.6775   -6355.0567            0    6808.7368    23.214646    21.388291    21.852881    10850.428    8128.3066    6942.6698    5355.2339   -2116.7991   -1223.1939    577.77899   -4657.2469 
26351000    244.00634   -6356.0791   -5728.3877   -6356.0791            0    8085.0113    23.159051    21.555955    21.572079    10769.115    8889.6558    7155.0461    8210.3319   -110.40947    -1328.637     687.7318   -4458.5841 
26352000    244.33279    -6337.597   -5709.0658    -6337.597            0    5328.8442    23.414485    21.425147    21.678905    10875.413    6057.5561    4530.4826    5398.4938    -259.6892   -125.35243   -31.696566   -4863.8752 
26353000    246.62884   -6307.5888   -5673.1511   -6307.5888            0    6038.9908    23.406466    21.379118    21.756074    10886.948    5549.1686    5847.7314    6720.0723   -43.780345    1258.8108   -38.555144   -4714.3106 
26354000    242.05142   -6321.5918   -5698.9293   -6321.5918            0    5132.9125    23.342766    21.530935    21.706366    10909.437    6154.1409     4160.135    5084.4615   -512.27925    1027.9545   -197.49555   -4882.2678 
26355000    244.02054   -6317.4789   -5689.7509   -6317.4789            0    6256.3348    23.549586    21.394411    21.573228    10869.229    5130.1478    6013.5299    7625.3267   -1021.5544    1034.6967   -1017.5024   -4698.0183 
26356000     248.8125   -6354.0247   -5713.9696   -6354.0247            0    8238.3258    23.242438    21.251581    21.816366    10775.944    9029.6641    8491.6925    7193.6207    105.56182   -498.14281   -360.61521   -4419.2665 
26357000    252.76051   -6364.5453   -5714.3343   -6364.5453            0    6999.5684    23.100219    21.497601    21.731102     10791.65    6848.0497    7473.0048    6677.6508    56.808055    1078.3126     417.3749   -4612.7062 
26358000    256.57111   -6361.0594   -5701.0458   -6361.0594            0    7022.0902    23.356737    21.506413    21.411645     10755.49    6117.8617    7561.3422    7387.0667   -591.84994    621.51747   -422.42808   -4599.5763 
26359000    237.02513   -6326.1842   -5716.4515   -6326.1842            0    6707.5896    23.448632     21.35493    21.629055    10830.617    6046.9493    7977.2955     6098.524   -1185.2393    306.05052   -386.88791   -4656.9647 
26360000    242.20635   -6334.5614   -5711.5003   -6334.5614            0    6066.2754    23.076691    21.478785     21.85557    10832.916    7461.7496    7200.2946     3536.782   -527.63274    115.79947    -837.4114   -4753.1078 
26361000    246.79063   -6332.4912   -5697.6374   -6332.4912            0    6680.1236    23.353598    21.506159    21.568376    10832.634    5812.8019    7358.4975    6869.0715    1284.6139   -155.25041   -264.14608   -4642.2923 
26362000    246.94411   -6335.4044   -5700.1557   -6335.4044            0    7841.7598    23.508454    21.276127      21.6011    10804.197    7222.9388    8064.5876    8237.7531   -400.02449    1111.7385   -654.86104   -4464.5443 
26363000    251.24052   -6335.5328   -5689.2319   -6335.5328            0    9102.7429    22.969805    21.485646    21.765291    10741.631    11556.763    8166.9095    7584.5562    411.86475    -738.3026    6.4245889   -4263.2357 
26364000    251.66866   -6327.4838   -5680.0815   -6327.4838            0    7694.5511      23.3874    21.391931     21.54076    10776.878    6625.8772    8437.4399    8020.3362    784.36396     214.4366   -662.32773   -4470.7311 
26365000    259.12227   -6350.2657   -5683.6895   -6350.2657            0    7466.9384    23.519136    21.283752    21.546945    10785.872    7016.7618    7466.7733    7917.2802    251.12716    200.23881   -297.83263   -4509.1335 
26366000    244.90459   -6362.8961    -5732.894   -6362.8961            0    6736.0792    23.082748    21.527143    21.679801    10772.815    7725.1459    6726.1853    5756.9063   -518.35435   -579.16357   -763.23526   -4674.5855 
26367000    242.79583   -6392.9836   -5768.4061   -6392.9836            0    7482.0737    23.326598    21.259197    21.778075     10799.85    6436.7683    9469.1305    6540.3223   -103.28433    792.86115   -1731.7747    -4589.944 
26368000    247.72186   -6362.6005   -5725.3511   -6362.6005            0    7945.6277     23.35034    21.262218    21.593282    10720.633    7367.9035    8177.5675    8291.4122    341.04976    1653.2616    1079.0265   -4483.0567 
26369000    237.82087   -6318.8056   -5707.0259   -6318.8056            0    9135.9361    23.251346    21.562954    21.412316    10735.443    7601.8918     8557.794    11248.122   -853.53385     721.0693    230.37084   -4276.6541 
26370000    249.19455   -6343.9731   -5702.9353   -6343.9731            0    7324.6808    23.365184    21.296799    21.696279    10796.147    7230.0458    8252.7839    6491.2125   -713.53614     313.2717   -91.973003    -4549.659 
26371000     249.1854   -6351.3313   -5710.3171   -6351.3313            0    6858.1387    23.253081    21.304347    21.906871    10852.483     7798.979    7407.6151     5367.822   -633.81714     437.0066   -1352.5146   -4624.8635 
26372000     248.4951   -6301.3066   -5662.0681   -6301.3066            0    6558.3368    23.128249    21.591973    21.753944    10863.583    6551.6887    6451.4751    6671.8466   -341.48937   -58.176223   -470.92519   -4623.0031 
26373000    242.70219   -6341.7194   -5717.3828   -6341.7194            0    7027.7624    23.499175    21.355239    21.527474    10803.143    6503.8505     6856.044    7723.3927   -80.179031    355.07072   -73.683062   -4610.1395 
26374000    253.71113   -6336.7861   -5684.1297   -6336.7861            0    8601.1347    23.185459     21.34926    21.736252     10759.28    9908.8108    9116.2849    6778.3083   -566.80136    1149.2821   -100.32332   -4334.4994 
26375000    250.62095   -6312.0896   -5667.3825   -6312.0896            0    9126.4712    23.132359    21.398881    21.724444    10753.743    8185.9615    9055.5532    10137.899    559.03392    1479.2869    1018.3161   -4236.0569 
26376000    248.37844   -6338.5136   -5699.5752   -6338.5136            0    8747.8244    23.357738    21.313882    21.545745    10726.421    8872.7121     7739.234    9631.5271    407.23772    387.29335   -158.16646   -4331.1194 
26377000    255.12726   -6357.6749   -5701.3756   -6357.6749            0    7149.3414    23.370288    21.364688    21.605026    10787.366    6023.5218    8179.0027    7245.4998   -822.23218    -19.33785   -1258.8009   -4576.6221 
26378000    245.79684   -6334.9176   -5702.6202   -6334.9176            0    5658.3615    23.119952     21.65064    21.679615    10851.986     5393.185     5249.923    6331.9767    180.90696    42.136807    67.380118   -4807.0991 
26379000    260.44803   -6328.2694   -5658.2827   -6328.2694            0    5305.8318    23.276552    21.467316    21.742857    10864.582    5561.5695    5105.9423    5249.9837   -205.41769    358.64907    1113.3025   -4817.5801 
26380000    226.87294   -6333.8252   -5750.2084   -6333.8252            0    6655.0968    23.407939    21.431273    21.553378    10812.509    5672.2814    8046.6734    6246.3355     673.6088     1146.933   -971.20895   -4700.7705 
26381000    237.89119   -6352.5662   -5740.6056   -6352.5662            0    7469.1621    23.342762    21.376734    21.650614    10803.483    7769.7446    6950.9675    7686.7742    411.42878   -1947.4264   -733.74933   -4563.7815 
26382000    252.60813    -6311.257    -5661.438    -6311.257            0    5828.2585    23.320414    21.656777    21.498335    10857.627    5605.5135    5653.1447    6226.1172    -1048.687   -474.33844   -587.56542   -4738.5487 
26383000    242.43475   -6313.9414   -5690.2928   -6313.9414            0    6185.6872    23.358059    21.505574    21.645737     10873.27    6703.6152    5687.8368    6165.6098   -1692.3208    28.271526    683.60388   -4709.3944 
26384000    242.44849    -6367.125    -5743.441    -6367.125            0    6863.0609    23.388409    21.224414    21.771647     10807.56    7717.3728    6303.1157    6568.6944   -831.73303   -891.55118    198.65455   -4661.7047 
26385000    241.96477   -6359.4821   -5737.0425   -6359.4821            0    7520.5821    23.176018    21.520743     21.54627    10746.528    7078.6513    7587.9433    7895.1515    1044.0534    155.88379    310.24594   -4558.3635 
26386000    252.47015   -6331.6506   -5682.1866   -6331.6506            0    7204.3289    23.397201    21.445652    21.517213    10796.654     6598.633    7394.9691    7619.3845    2063.4964   -602.42539    653.35185   -4547.8065 
26387000    250.02487   -6353.3736   -5710.1998   -6353.3736            0    7317.1645    23.343469    21.354061    21.617172    10775.682     6417.512    7137.6954    8396.2862    -1335.669    1384.5665    -1448.685   -4560.2908 
26388000    249.56112   -6370.8497   -5728.8689   -6370.8497            0    6921.7872    23.191874    21.557816    21.554608    10776.574    8697.0135    5251.5696    6816.7784   -825.96854   -437.05863   -1144.0111   -4641.0043 
26389000    243.76501   -6333.7395   -5706.6688   -6333.7395            0    8581.9108    23.356832    21.351721    21.476904    10710.716     8571.612    8677.7724    8496.3479    1191.0362   -1044.0816    376.87347   -4366.1332 
26390000    249.42797    -6342.966   -5701.3278    -6342.966            0    6921.6438    23.294704    21.242841    21.846062     10810.43    8087.6938     6737.532    5939.7057    950.44036    7.1114272    351.24109   -4610.0681 
26391000    249.27158   -6373.0372   -5731.8012   -6373.0372            0    6090.2084    23.231591    21.502008    21.697036    10838.231    4992.0534    6664.7373    6613.8343    1450.1782   -281.35496   -162.42803   -4769.1556 
26392000    251.47617   -6347.6117   -5700.7046   -6347.6117            0    8682.8888    23.544204    21.190974    21.517879      10735.8    8000.6383    8672.5657    9375.4623   -833.56683    455.47933    797.70768   -4341.2192 
26393000    258.55652   -6368.1545   -5703.0336   -6368.1545            0    7288.9054    23.184026    21.448956    21.720928    10801.235    7594.5232    6485.8567    7786.3364    108.67655     613.5411    931.81292   -4554.8493 
26394000    249.32013   -6348.1053   -5706.7444   -6348.1053            0    7411.6626    23.198734    21.449904    21.719007    10807.609    7258.8632    7487.4744    7488.6502    298.80024    490.56326    998.52165   -4538.5338 
26395000    245.15646   -6281.9554   -5651.3054   -6281.9554            0    7647.1513    23.417037    21.250944    21.696567    10796.952    8005.7497    7388.6635    7547.0407   -988.52059    -165.7047    389.36663    -4447.166 
26396000    233.98005   -6320.1614    -5718.262   -6320.1614            0    6907.6608    23.284057    21.530593    21.583453    10820.207     6281.094    6538.3027    7903.5856   -1471.4461    2146.8902   -206.40502    -4628.222 
26397000     237.0786   -6341.9715   -5732.1012   -6341.9715            0    7473.7959    23.311799    21.347936    21.702699    10800.539    8161.2235    6865.1706    7394.9935    -1251.378   -233.08381     474.0492   -4554.8679 
26398000    243.81113   -6359.8243    -5732.635   -6359.8243            0    6935.1212    23.283191    21.322341    21.745162    10795.432    7132.7194    6309.2578    7363.3865   -623.72352   -493.70038    210.57433   -4640.7674 
26399000     248.0898   -6303.0565   -5664.8606   -6303.0565            0    6367.7168    23.351322    21.594374    21.492095    10837.543    5220.4718    6530.6148    7352.0637    1024.2162    300.90723   -247.47659   -4658.4146 
26400000    253.68104   -6375.0406   -5722.4616   -6375.0406            0    6626.4218    23.303212    21.511465    21.500205    10777.757    6342.0021    6374.1417    7163.1216   -213.04088    435.56002    441.18171   -4680.9038 
26401000    263.92592   -6358.0835   -5679.1501   -6358.0835            0     7133.502    23.220443    21.284886    21.901044     10824.47    7566.5002    7074.1644    6759.8414    833.13218   -868.20812    301.55269   -4553.0285 
26402000    244.26759   -6360.9903   -5732.6268   -6360.9903            0    7341.8357    23.175742    21.477537    21.714046    10808.337    8206.4458    7285.3596    6533.7016     859.0386    372.70817    511.70854   -4575.3441 
26403000    246.53251   -6301.7105   -5667.5207   -6301.7105            0    6860.5726    23.482582    21.364628    21.608851    10841.088    5960.2688    6386.8943    8234.5546    1125.1858   -330.22793    723.08008    -4582.822 
26404000    243.69782   -6326.9299   -5700.0321   -6326.9299            0    8085.3032    23.199218    21.401805    21.723688    10785.922    8737.4875    7724.8045    7793.6175    418.73532   -499.79577    961.09804   -4428.2008 
26405000    240.52863   -6352.9615   -5734.2162   -6352.9615            0    6333.8036    23.291642    21.534108    21.554552    10811.003    5995.2186    5510.2799    7495.9124    621.85264   -599.88453   -42.745783   -4735.5819 
26406000    238.35054   -6367.8837   -5754.7414   -6367.8837            0    6789.1504     23.48883    21.331339    21.495925    10770.494    7419.4971    6054.9477    6893.0065     553.4266   -1002.8258   -1003.6014   -4688.3247 
26407000     244.1889   -6345.8625   -5717.7014   -6345.8625            0    7887.8803     23.29212    21.478465    21.585416     10798.73    7944.1967    7606.8768    8112.5674    648.24667    271.48323   -2438.7418   -4475.4518 
26408000    248.41822   -6368.5716   -5729.5309   -6368.5716            0    6866.6267    23.337645    21.405646     21.65564    10818.235    6670.6456    7385.3122    6543.9221   -551.56743   -134.87714   -83.907421   -4646.1636 
26409000    255.55446   -6356.0118   -5698.6135   -6356.0118            0    7726.7912    23.403409    21.294996    21.624369    10777.056    6525.7737    9080.2555    7574.3443    651.78983    247.12288    29.727751   -4484.1759 
26410000    250.70417   -6352.1636   -5707.2424   -6352.1636            0    8469.9231    23.224683    21.418815     21.58057    10735.151    7530.4675     7642.088    10237.214    576.30039    1551.8913     1478.382   -4381.1814 
26411000    239.13668   -6345.8928   -5730.7283   -6345.8928            0    7394.5805    23.208002    21.361741    21.725702    10770.806    6065.1181    8825.0911    7293.5321    61.852519     156.0995    1232.1735    -4569.179 
26412000      241.989   -6324.4715   -5701.9695   -6324.4715            0    5382.7647    23.450402      21.5215    21.575174    10888.728    5229.6136    4431.2027    6487.4776   -421.79193    1194.9416     362.7907   -4847.1815 
26413000    250.26779   -6350.2131   -5706.4145   -6350.2131            0    6434.0603     23.20657    21.398089    21.787596    10819.203    6544.3483    6956.8725    5800.9602   -332.45598    219.28305    863.61896   -4691.2035 
26414000    240.67776    -6338.326   -5719.1971    -6338.326            0    8848.3275    23.254334    21.403045    21.558814    10730.114    9155.0043     8461.409    8928.5691   -405.84364    -1589.482    933.73169   -4334.5427 
26415000    253.92626   -6351.3797   -5698.1699   -6351.3797            0    7776.9633    23.210059    21.524575     21.52863    10755.416    8727.1224    7095.9048    7507.8627   -271.63935   -826.33161   -569.85272    -4478.301 
26416000    256.85021   -6329.9422   -5669.2106   -6329.9422            0    8026.8503    23.299237     21.38362    21.629049    10776.069    7728.7742     7900.764    8451.0126    823.50697    631.84075    22.763088   -4407.7276 
26417000    251.11079   -6358.8605   -5712.8933   -6358.8605            0    8046.9834     23.35653    21.289738    21.620452    10750.865    6752.9188     9219.441    8168.5905   -37.926649   -205.30411    47.682367    -4451.204 
26418000     259.6683   -6339.3273   -5671.3464   -6339.3273            0    7370.0519    23.166968    21.548049    21.611765    10788.657    8380.3263    6338.4827    7391.3466   -1450.1887     472.8704    1006.8609   -4511.7314 
26419000    260.62265   -6318.3573   -5647.9214   -6318.3573            0    7943.7487     23.22402    21.450602    21.673595    10797.117    6856.7843    8362.2333    8612.2284   -143.56098    805.14973    935.37481     -4397.06 
26420000    250.38994   -6347.4852   -5703.3723   -6347.4852            0    8108.1056    23.275492    21.263541    21.725777    10752.508    9047.2411    8266.3449    7010.7307    347.48535    1211.9114    416.17534   -4431.9054 
26421000    245.96259   -6329.9901   -5697.2663   -6329.9901            0    7955.3689    23.321833    21.510154    21.468199    10769.655    8981.1222    6710.7673    8174.2173    199.71452   -164.07916   -1249.4218   -4447.7613 
26422000    243.80668   -6319.3825   -5692.2047   -6319.3825            0    8104.9224    23.433443    21.349527    21.539059    10775.839    7690.2869    8260.6612    8363.8191    316.61628    1395.5371    3.1898267   -4418.4792 
26423000    240.33388   -6330.0762    -5711.832   -6330.0762            0    9012.5833     23.14933    21.303414    21.766285    10734.256    8850.4852    9789.2788    8397.9859   -975.55727    59.242328    8.0461601    -4300.929 
26424000    247.10323   -6356.4262   -5720.7682   -6356.4262            0    7368.1635    23.171404    21.514565     21.58761    10761.913     8076.857    6748.0483    7279.5852   -44.480173    802.25249    191.98808   -4564.3241 
26425000    244.10247   -6309.7204   -5681.7817   -6309.7204            0    9234.2619    23.711935    21.218003    21.289813    10711.329    8250.0748    9288.0951    10164.616   -1608.7549   -351.12078   -908.90056    -4239.263 
26426000    242.11937   -6345.5837   -5722.7464   -6345.5837            0    8745.8717    23.219121    21.398823     21.55719    10710.946    8971.2536    9220.9415    8045.4201    469.82143   -377.71156   -152.81888   -4356.5698 
26427000    262.99528   -6340.7574   -5664.2181   -6340.7574            0    7351.1551    23.217885    21.329464    21.788987    10790.452    6687.3497    8745.1988    6620.9169   -173.41938   -396.18082   -417.34378   -4507.3839 
26428000      262.352   -6362.2064   -5687.3219   -6362.2064            0    7721.5615    23.417248    21.423699    21.437443    10754.824    7470.5839    7093.9709    8600.1298    109.49169   -927.71946    544.88867   -4476.2099 
26429000    242.48246    -6319.036   -5695.2646    -6319.036            0    8768.0865    23.365346    21.511263    21.351796      10731.8    9381.9326    7133.8249    9788.5021    1042.4831    -2124.414    935.97893   -4322.9513 
26430000     260.8941    -6359.749   -5688.6149    -6359.749            0    8417.3903    23.145006    21.294872    21.831381    10760.032    9889.4522    8657.6486    6705.0699    38.596283   -1728.6549    550.63037   -4367.7241 
26431000    246.36979   -6338.0252    -5704.254   -6338.0252            0    8658.9057    23.157171    21.368539    21.643308    10709.864     8955.134    8680.7365    8340.8466   -284.18625   -257.09404    -109.7582   -4351.7988 
26432000     244.6607   -6303.9294   -5674.5547   -6303.9294            0    8189.6345    23.442785    21.461484    21.401544     10767.48     8390.883    7164.3281    9013.6923   -826.76469   -491.45213    340.28003   -4388.5147 
26433000    244.23309   -6355.8701   -5727.5953   -6355.8701            0    8416.5685    23.358617    21.357507    21.579842     10765.79    8953.9237    7723.9875    8571.7943   -262.62905   -35.245509    74.066642   -4406.1267 
26434000    247.48826   -6362.5541   -5725.9056   -6362.5541            0    6818.7933    23.278615    21.486077     21.60855    10807.865    7887.7489    6575.9974    5992.6338   -345.87749    858.34264   -326.60534   -4651.1164 
26435000    251.26021    -6329.955   -5683.6034    -6329.955            0    6841.4021     23.10033    21.446323    21.924222    10861.635    8300.5601     6102.608    6121.0383    44.854332    896.33227   -1009.5514   -4599.8856 
26436000    249.66814   -6324.9786   -5682.7226   -6324.9786            0    5943.5628    23.582759    21.339816    21.611244    10875.896    4754.5398    6544.8943    6531.2542    175.98475    1303.1056   -81.854737   -4739.9915 
26437000    238.81478   -6354.3804    -5740.044   -6354.3804            0    7275.4862    23.274701    21.441926    21.616724    10787.922    6562.4041    6725.0393    8539.0153   -871.41391    959.20245   -330.35917   -4595.3861 
26438000     258.1516   -6335.6029   -5671.5236   -6335.6029            0     7534.603    23.289242    21.291036     21.73529    10777.489    8593.2554    6763.2382    7247.3153   -40.491851    35.801977    657.72604   -4487.2451 
26439000    250.19129   -6394.1994   -5750.5976   -6394.1994            0    7203.7173    23.351638    21.291921    21.681391    10780.014    6971.3258     7056.958     7582.868    1594.0396     122.8446    574.13724   -4618.0619 
26440000    255.55448   -6303.7849   -5646.3865   -6303.7849            0    7581.2468    23.136366    21.511929    21.701572    10801.043    7768.1527     8086.036    6889.5517    -1134.455   -95.127333    145.84574   -4452.1724 
26441000    250.37482   -6314.0057   -5669.9317   -6314.0057            0    8500.1136    23.362099    21.413829    21.494943    10753.318    7339.3241    8120.4043    10040.613    1130.7229   -1798.6346    1033.4017   -4336.8919 
26442000    253.11436    -6337.556   -5686.4347    -6337.556            0    7836.5565    23.318212    21.397143    21.620613    10787.456    8381.3554    7206.0238    7922.2903    1220.8527    -1103.724    547.98381   -4453.5564 
26443000     252.1017   -6354.1699   -5705.6537   -6354.1699            0    8370.0103    23.080679    21.453098    21.666409    10728.167    8765.7249    8233.9579     8110.348    289.66764   -1364.4319    37.056858   -4396.0876 
26444000    252.67758   -6330.2501   -5680.2524   -6330.2501            0    7941.0454     23.44488     21.44883     21.33563    10728.947    6122.4849    8169.0223    9531.6291    354.61764    16.512808    752.19909   -4437.7116 
26445000    254.44876   -6328.1053   -5673.5514   -6328.1053            0    7524.3064    23.363368    21.440283    21.537471     10788.49    8016.8626    7822.4218     6733.635    1219.6936   -385.09352   -477.23104    -4489.684 
26446000    250.11605   -6352.0365   -5708.6282   -6352.0365            0    7111.1855    23.264899    21.457832    21.631253    10798.631    6974.5079    5483.5885      8875.46   -816.18646    701.24772   -35.376233   -4588.7093 
26447000    243.98635   -6317.4825   -5689.8424   -6317.4825            0    6483.1865    23.454799    21.311584    21.648179    10821.035    7201.4045    6492.3519    5755.8031    1219.3157   -134.20006   -258.22301   -4666.7068 
26448000     258.9101   -6347.0411   -5681.0107   -6347.0411            0    7261.6883     23.29311      21.4683    21.590038    10796.389     7001.691    7425.2307    7358.1432    816.64172    617.70729   -644.70211   -4537.6269 
26449000    254.93588   -6325.5467   -5669.7397   -6325.5467            0    9089.2798    23.163374    21.285689    21.735627    10716.716    9971.0785    9575.4672    7721.2938    1014.0439   -51.426696   -557.07135   -4249.1552 
26450000    242.01085   -6322.4037   -5699.8455   -6322.4037            0    9659.0292    23.332235    21.218447    21.578785    10683.091    9645.4758    8712.3952    10619.217    -752.4919   -348.76708    1344.4201   -4194.9502 
26451000    257.98854   -6347.3195   -5683.6597   -6347.3195            0    7556.8841    23.136738    21.520654    21.647523    10778.686    8801.8198    7045.9948    6822.8377   -1948.1287    549.91143    700.60048   -4495.7472 
26452000    257.81995   -6356.7803   -5693.5541   -6356.7803            0    8066.2938    23.185882    21.328851    21.666098    10714.496    8172.7606    8826.1048     7200.016    360.37918   -528.81173    516.53111   -4433.1156 
26453000    236.25755   -6361.7421    -5753.984   -6361.7421            0    7734.1808    23.326967    21.316007    21.627729    10754.124    7776.6785    8050.3677    7375.4961   -571.07079   -805.08822   -160.65403   -4540.9715 
26454000    245.09889    -6338.952     -5708.45    -6338.952            0    7957.3357    23.210683    21.575622    21.506406    10770.084     8456.682    6973.9627    8441.3625   -1555.4711    734.01067   -570.23322   -4458.5863 
26455000    242.38716   -6340.1124   -5716.5862   -6340.1124            0    8306.5653    23.311712    21.231063    21.693962    10737.045    8293.1413     9587.958    7038.5965   -474.62967     616.7736    477.93526   -4415.8712 
26456000    238.84379    -6356.795   -5742.3839    -6356.795            0    7163.3732    23.142744    21.329643     21.83598    10778.818    8904.5028    6363.2738    6222.3429   -1326.3124    323.88335     742.9898    -4616.316 
26457000    247.22431   -6364.0029   -5728.0334   -6364.0029            0    7851.4174    23.118349    21.595346    21.549401    10758.511    7907.0494    7804.7748     7842.428   -997.89591   -1113.5527    979.45973   -4496.1315 
26458000     245.0383   -6336.7945   -5706.4484   -6336.7945            0    5635.3437    23.399537    21.414988    21.675726    10861.724     5546.942     5487.553    5871.5361   -214.14509    -541.5105    950.96389   -4813.7699 
26459000    256.56727   -6343.3817    -5683.378   -6343.3817            0    7249.7073    23.337926    21.373319    21.669711    10809.046    7122.2182    7694.5137    6932.3899    140.03409   -212.41389   -89.996147   -4540.5425 
26460000    244.02502   -6342.1782   -5714.4387   -6342.1782            0    5562.0082    23.339525    21.549025    21.632046    10879.708    6280.1346    4118.1636    6287.7266   -43.124102   -876.52003   -487.77182   -4831.9183 
26461000    246.47542   -6326.4627   -5692.4197   -6326.4627            0    6499.2587    23.427955    21.396149    21.596025    10825.397    6115.7254    6485.2788     6896.772    534.75731     -152.743   -519.05204   -4666.3342 
26462000    237.92198   -6331.8113   -5719.7715   -6331.8113            0    8734.3013     23.31932    21.355777    21.545072    10729.493    8822.7125      9573.54    7806.6513    1101.0288   -1345.6895   -476.06794   -4353.0398 
26463000    250.52824   -6346.9241   -5702.4555   -6346.9241            0    8401.3796    23.304202    21.350679    21.556569    10725.698    8188.2235    7774.9501    9240.9653    1380.5564    714.06437    534.53671   -4388.2839 
26464000    250.42286   -6342.4009   -5698.2034   -6342.4009            0    8130.9854    23.251883    21.322253    21.656271    10736.801    8716.2094    7998.4821    7678.2646   -492.22779    716.44009   -342.34878   -4425.0111 
26465000    247.66274     -6373.53   -5736.4327     -6373.53            0    8324.4124    23.306568    21.239877    21.624507     10704.75    8420.7901    7618.6824    8933.7647   -671.98124    393.22998    160.82491   -4436.8438 
26466000    239.39338   -6315.9794   -5700.1545   -6315.9794            0     9849.036     23.35875    21.354392    21.447811    10698.423    8943.6119     10180.07    10423.426    2041.5698   -16.056465   -445.25472   -4163.4534 
26467000    242.52286    -6328.643   -5704.7677    -6328.643            0    7618.1716    23.324313    21.390166    21.576078    10764.542    8145.7649    7200.3142    7508.4358    597.73209   -788.78938   -676.72731   -4508.7925 
26468000    250.39403   -6326.1812   -5682.0578   -6326.1812            0    7290.3283     23.27092    21.353052    21.730238    10797.868    8174.8214    7310.2455     6385.918    781.17676   -1091.7006   -15.794788   -4534.0073 
26469000    238.11554   -6327.9158   -5715.3781   -6327.9158            0    6854.4479    23.352665    21.333908    21.729468    10825.699    7680.0088    6689.1397    6194.1951    740.71616   -860.77196    713.32553   -4633.1861 
26470000    233.06573   -6349.1314    -5749.584   -6349.1314            0    6180.6601    23.285813    21.443666    21.634478    10802.813    5882.5579    6778.9038    5880.5184     1362.917    826.85541   -113.51422   -4775.8337 
26471000     243.0583   -6341.2704   -5716.0177   -6341.2704            0    6539.4867    23.434542    21.475065    21.492651    10816.355    6434.3432    5961.4231    7222.6938    206.59572   -379.49329   -245.23954   -4684.4434 
26472000    240.75104   -6337.3861   -5718.0687   -6337.3861            0    7334.9846    23.292629    21.366646    21.705759    10802.639     9601.232    6650.3747     5753.347   -1639.4298   -612.05028   -853.77025   -4562.4756 
26473000    247.03474   -6356.5085   -5721.0267   -6356.5085            0    7644.0527    23.344429    21.395859    21.589123    10783.208    7677.7157     6733.816    8520.6265     350.8342   -346.66368    599.87891   -4518.9074 
26474000    255.50288   -6321.3582   -5664.0926   -6321.3582            0    7240.3011    23.172988    21.420975     21.71866    10780.882    6971.1701    7776.2164    6973.5167    624.28931    1615.0954    1026.8697   -4525.7138 
26475000    244.66067   -6347.3273   -5717.9527   -6347.3273            0    6877.3512    23.234601    21.408463    21.707552    10797.708    7360.2837    6280.4808    6991.2891   -923.07882    427.94215    540.58671   -4634.9522 
26476000    246.29311     -6337.37    -5703.796     -6337.37            0    7213.8209    23.486211    21.272571     21.61801    10800.619     6402.466    7662.6356    7576.3611   -1109.7237   -198.40836    16.389185   -4567.5041 
26477000    259.94541   -6315.3418   -5646.6481   -6315.3418            0    8546.9427    23.086425    21.586312    21.636914    10782.773    9212.1516    7531.2494     8897.427   -1967.9976    -281.5502   -1452.7684   -4302.5928 
26478000    254.86504   -6310.9574   -5655.3327   -6310.9574            0    7841.9833    23.316984    21.370555    21.604547    10765.478    6661.0914    9248.8442    7616.0143    29.881231    1009.0542    107.57433   -4424.1141 
26479000     253.8818   -6338.0376   -5684.9422   -6338.0376            0    7494.6979    23.485988    21.235138    21.608338    10776.687    6483.7554    8284.8137    7715.5246   -449.93109    1294.1824    1194.9307   -4507.0235 
26480000    255.26488   -6324.7141   -5668.0608   -6324.7141            0     6617.146    23.060763    21.647339    21.731012    10848.212    9384.2158    4465.2062     6002.016   -417.85321    1308.0906   -136.87876   -4621.1618 
26481000    255.55867   -6330.6553   -5673.2462   -6330.6553            0     7877.823    23.336812    21.409755    21.591522    10787.889     8514.899    7794.1275    7324.4425    160.70648   -559.32779    402.02167   -4433.8259 
26482000    245.74495   -6320.3928   -5688.2289   -6320.3928            0    7688.4545    23.490965    21.303753    21.506035    10762.603    6794.1012    8211.9799    8059.2824    334.52985   -394.10956   -165.27177   -4481.4373 
26483000    243.56076   -6339.7908   -5713.2456   -6339.7908            0    8901.8482    23.106458    21.412577    21.680955     10727.06    10345.085    9064.5485    7295.9108   -703.01648   -1156.2265   -944.96642   -4320.6122 
26484000    248.83658   -6337.6205   -5697.5036   -6337.6205            0    8736.0431    23.199321    21.399683    21.647616    10747.134    9010.2838    8431.3581    8766.4876    817.16199    169.74074    1136.6825   -4328.2518 
26485000    248.65977    -6337.848   -5698.1859    -6337.848            0      8920.69    23.277797    21.321465    21.543974    10692.635    9176.2682    8236.7542    9349.0478    85.995191   -326.84209    119.53265   -4307.0836 
26486000    251.22683   -6348.6866   -5702.4209   -6348.6866            0    8368.8169    23.272286    21.427314    21.544774    10743.573    8411.4083    7271.1722    9423.8703   -327.51238   -719.99194    175.14399   -4391.1612 
26487000    240.62061   -6328.3531   -5709.3712   -6328.3531            0    7377.8977    23.279992     21.43756    21.668851    10814.191    8051.8045    6853.1411    7228.7474    345.75458   -746.92745    684.08757   -4545.7743 
26488000    247.07532   -6301.0296   -5665.4434   -6301.0296            0    8590.1146    23.179819    21.488626    21.633248    10775.574    9497.5355     7640.191    8632.6174    427.46645   -612.06545    769.39608   -4315.5009 
26489000    246.79467   -6344.2049   -5709.3406   -6344.2049            0    6850.5964    23.267847     21.38684     21.68842    10792.716    6415.8679    7866.9042    6269.0172    2129.6523   -106.17453    281.94921    -4631.052 
26490000    244.29051   -6309.9983   -5681.5759   -6309.9983            0    7908.5817    23.179738    21.333668    21.783222    10771.996    8552.5312    9371.7423    5801.4717    850.73515   -7.0830719    751.96487   -4439.1495 
26491000    245.23673   -6337.6026   -5706.7461   -6337.6026            0    8348.0829    23.353401    21.305304    21.589799    10742.033    8319.4889    8489.8543    8234.9055    615.09567   -140.45986    450.22026   -4398.9226 
26492000    250.92151    -6352.018   -5706.5377    -6352.018            0    6695.7255    23.464672    21.379431    21.512846    10792.163    4991.2658    6371.5076    8724.4031    115.62096    400.34919    1098.8622   -4652.6798 
26493000    245.69372   -6308.9672   -5676.9351   -6308.9672            0    8419.1233    23.144517    21.341584    21.845319    10790.291    8682.7898    9204.0286    7370.5515    206.84025   -32.855798   -544.04795    -4352.057 
26494000    251.11787   -6349.0957   -5703.1103   -6349.0957            0    6693.1067    23.296372    21.373819    21.687658    10798.989    7984.2339    5521.9128    6573.1734    979.75766   -759.40632   -193.84728   -4648.9984 
26495000    263.44703   -6330.1869   -5652.4854   -6330.1869            0    6958.7899    23.488277    21.337483    21.543993    10797.434    6012.1691    6572.7096    8291.4909    -170.9327    1126.8352    351.77682   -4556.6883 
26496000    243.04271   -6345.8809   -5720.6683   -6345.8809            0    6419.9799    23.086534    21.571638    21.752607     10833.11    8723.0348    5270.4711    5266.4338   -2.5757706   -635.08993    886.87787    -4706.377 
26497000    252.27166   -6347.3871   -5698.4337   -6347.3871            0     6544.897    23.613335    21.240715    21.551937    10809.678    6097.7871    6852.9606    6683.9434   -1487.5712     1410.957   -680.29346   -4666.6433 
26498000    244.67731   -6317.9955    -5688.578   -6317.9955            0    7735.0004    23.237525    21.408411    21.711746    10801.127    8038.2042    8451.1027    6715.6942   -514.70908   -348.84307   -663.29828   -4470.1348 
26499000    246.70017    -6343.787   -5709.1658    -6343.787            0    7880.2665    22.994379    21.617001    21.643179    10758.165    9186.3814    7255.4075    7199.0106    780.69501    503.00275    -633.0178   -4472.7773 
26500000    246.59064   -6279.0024    -5644.663   -6279.0024            0    6555.3332      23.5657     21.13175    21.781731    10846.964    6630.0553    6748.8856    6287.0585   -508.25332   -788.49987    812.92789   -4607.6628 
Loop time of 617.485 on 64 procs for 250000 steps with 1296 atoms

Performance: 69.961 ns/day, 0.343 hours/ns, 404.868 timesteps/s
99.3% CPU use with 64 MPI tasks x 1 OpenMP threads

MPI task timing breakdown:
Section |  min time  |  avg time  |  max time  |%varavg| %total
---------------------------------------------------------------
Pair    | 29.652     | 38.948     | 47.575     |  95.4 |  6.31
Bond    | 0.2693     | 0.27585    | 0.28396    |   0.7 |  0.04
Kspace  | 314.31     | 331.31     | 351.16     |  46.0 | 53.66
Neigh   | 4.2802     | 5.0441     | 6.0098     |  21.6 |  0.82
Comm    | 97.858     | 110.71     | 123.46     |  60.6 | 17.93
Output  | 1.3541     | 1.3545     | 1.3588     |   0.0 |  0.22
Modify  | 119.76     | 122.95     | 125.78     |  14.3 | 19.91
Other   |            | 6.888      |            |       |  1.12

Nlocal:        20.2500 ave          26 max          14 min
Histogram: 4 8 4 6 4 11 5 10 7 5
Nghost:        2571.31 ave        2599 max        2545 min
Histogram: 5 4 8 5 7 11 11 9 2 2
Neighs:        6431.88 ave        8278 max        4433 min
Histogram: 4 8 4 7 6 8 5 10 7 5

Total # of neighbors = 411640
Ave neighs/atom = 317.62346
Ave special neighs/atom = 2.0000000
Neighbor list builds = 8800
Dangerous builds = 0

unfix		3
unfix		2
unfix		1

write_data	data.final.${pid}
write_data	data.final.0
System init for write_data ...
PPPM initialization ...
  extracting TIP4P info from pair style
  using 12-bit tables for long-range coulomb (../kspace.cpp:340)
  G vector (1/distance) = 0.37022702
  grid = 27 36 32
  stencil order = 5
  estimated absolute RMS force accuracy = 0.003873711
  estimated relative force accuracy = 1.1665566e-05
  using double precision FFTW3
  3d grid and FFT values/proc = 4590 540
Last active /omp style is kspace_style pppm/tip4p/omp
WARNING: Not all mixed pair coeffs generated from mixing. Use write_data with 'pair ij' option to store all pair coeffs. (../write_data.cpp:312)

write_restart   restart.lmp.${pid}
write_restart   restart.lmp.0
System init for write_restart ...
PPPM initialization ...
  extracting TIP4P info from pair style
  using 12-bit tables for long-range coulomb (../kspace.cpp:340)
  G vector (1/distance) = 0.37022702
  grid = 27 36 32
  stencil order = 5
  estimated absolute RMS force accuracy = 0.003873711
  estimated relative force accuracy = 1.1665566e-05
  using double precision FFTW3
  3d grid and FFT values/proc = 4590 540
Last active /omp style is kspace_style pppm/tip4p/omp
Total wall time: 0:10:20
