#include		in.partitions
include		in.temp
variable        temperature equal 230.77
variable	tempDamp equal 100.0
include		in.pressure
variable        pressure equal 8387.9
variable        pressureDamp equal 1000.0 # This is 1 ps
include		in.seed
variable        seed equal 745823

units		real
atom_style	full
read_restart	restart.lmp.${pid}
read_restart	restart.lmp.0
Reading restart file ...
  restart file = 30 Jul 2021, LAMMPS = 30 Jul 2021
  restoring atom style full from restart
  orthogonal box = (-0.14295183 -0.082365537 -0.058375102) to (24.872953 24.812367 22.868375)
  4 by 4 by 2 MPI processor grid
  restoring pair style lj/cut/tip4p/long/omp from restart
  restoring bond style harmonic/omp from restart
  restoring angle style harmonic/omp from restart
  1920 atoms
  1280 bonds
  640 angles
Finding 1-2 1-3 1-4 neighbors ...
  special bond factors lj:    0        0        0       
  special bond factors coul:  0        0        0       
     2 = max # of 1-2 neighbors
     1 = max # of 1-3 neighbors
     1 = max # of 1-4 neighbors
     2 = max # of special neighbors
  special bonds CPU = 0.003 seconds
  read_restart CPU = 0.009 seconds
include 	in.setup
variable	out_freq equal 1000
variable	out_freq2 equal 10000
variable	out_freq3 equal 1000

timestep	2.0

neigh_modify    delay 7 every 1

include		in.tip4p
# This is TIP4P/Ice

# create groups ###
group ox type 2
640 atoms in group ox
group hy type 1
1280 atoms in group hy

# set charges - beside manually ###
set group ox charge -1.1794
Setting atom values ...
  640 settings made for charge
set group hy charge 0.5897
Setting atom values ...
  1280 settings made for charge

# ### TIP3P Potential Parameters ###
pair_style lj/cut/tip4p/long/omp 2 1 1 1 0.1577 8.5
pair_coeff 1 1*2 0.000 0.000
pair_coeff 2 2 0.21084 3.1668
bond_style  harmonic
bond_coeff  1 450 0.9572
angle_style harmonic
angle_coeff 1 55 104.52
kspace_style pppm/tip4p/omp 1.0e-5
pair_modify tail yes

thermo          ${out_freq}
thermo          1000
thermo_style    custom step temp pe etotal epair emol press lx ly lz vol pxx pyy pzz pxy pxz pyz enthalpy

restart 	${out_freq3} restart.lmp.${pid} restart2.lmp.${pid}
restart 	1000 restart.lmp.${pid} restart2.lmp.${pid}
restart 	1000 restart.lmp.0 restart2.lmp.${pid}
restart 	1000 restart.lmp.0 restart2.lmp.0


include         in.dump
dump            myDump all atom ${out_freq2} dump.water.${pid}
dump            myDump all atom 10000 dump.water.${pid}
dump            myDump all atom 10000 dump.water.0
dump            myDump2 all dcd ${out_freq2} dump.dcd
dump            myDump2 all dcd 10000 dump.dcd
dump_modify     myDump append yes
dump_modify     myDump2 append yes


variable natoms 	equal  "count(all)"                        # NUMBER ATOMS
variable H      	equal  "enthalpy/v_natoms"                 # ENTHALPY-per-atom
variable Vol      	equal  "vol/v_natoms"                 # volume-per-atom
fix AVG all 		ave/time ${out_freq} 1 ${out_freq} v_Vol v_H file vol_enthalpy.dat
fix AVG all 		ave/time 1000 1 ${out_freq} v_Vol v_H file vol_enthalpy.dat
fix AVG all 		ave/time 1000 1 1000 v_Vol v_H file vol_enthalpy.dat




fix 		1 all shake 1e-6 200 0 b 1 a 1
       0 = # of size 2 clusters
       0 = # of size 3 clusters
       0 = # of size 4 clusters
     640 = # of frozen angles
  find clusters CPU = 0.007 seconds
fix             2 all nph aniso ${pressure} ${pressure} ${pressureDamp}
fix             2 all nph aniso 8387.9 ${pressure} ${pressureDamp}
fix             2 all nph aniso 8387.9 8387.9 ${pressureDamp}
fix             2 all nph aniso 8387.9 8387.9 1000
fix             3 all temp/csvr ${temperature} ${temperature} ${tempDamp} ${seed}
fix             3 all temp/csvr 230.77 ${temperature} ${tempDamp} ${seed}
fix             3 all temp/csvr 230.77 230.77 ${tempDamp} ${seed}
fix             3 all temp/csvr 230.77 230.77 100 ${seed}
fix             3 all temp/csvr 230.77 230.77 100 745823


run             250000
PPPM initialization ...
  extracting TIP4P info from pair style
  using 12-bit tables for long-range coulomb (../kspace.cpp:340)
  G vector (1/distance) = 0.3744447
  grid = 30 30 30
  stencil order = 5
  estimated absolute RMS force accuracy = 0.0032741914
  estimated relative force accuracy = 9.8601303e-06
  using double precision FFTW3
  3d grid and FFT values/proc = 5400 960
Last active /omp style is kspace_style pppm/tip4p/omp
Neighbor list info ...
  update every 1 steps, delay 7 steps, check yes
  max neighbors/atom: 2000, page size: 100000
  master list distance cutoff = 10.8154
  ghost atom cutoff = 10.8154
  binsize = 5.4077, bins = 5 5 5
  1 neighbor lists, perpetual/occasional/extra = 1 0 0
  (1) pair lj/cut/tip4p/long/omp, perpetual
      attributes: half, newton on, omp
      pair build: half/bin/newton/omp
      stencil: half/bin/3d
      bin: standard
Per MPI rank memory allocation (min/avg/max) = 10.54 | 10.55 | 10.56 Mbytes
Step Temp PotEng TotEng E_pair E_mol Press Lx Ly Lz Volume Pxx Pyy Pzz Pxy Pxz Pyz Enthalpy 
 6500000    234.63817   -9204.7898   -8310.2421   -9204.7898            0    8725.4336    25.015905    24.894732     22.92675     14277.96     7594.782    9451.2753    9130.2435   -674.83531    37.348693   -50.475028   -6493.3503 
 6501000    227.19436   -9231.8669   -8365.6984   -9231.8669            0    6533.7261    24.936709    24.949322    23.092576    14367.138    7643.3408    5506.1179    6451.7196   -350.73805    590.46389   -107.01283    -6996.687 
 6502000    232.77547   -9238.6566   -8351.2103   -9238.6566            0    8195.2587    24.772242    25.029345    23.026098     14276.94    9287.1687    7421.1631    7877.4442   -107.59041    536.22538   -599.14072   -6644.8384 
 6503000     236.1039   -9253.4027    -8353.267   -9253.4027            0    9261.0892    24.868464    24.897745    22.951512    14210.857    9503.4785    8949.4007    9330.3884   -470.14371    1095.1354    371.96119   -6433.8991 
 6504000    226.07409   -9253.6878   -8391.7903   -9253.6878            0     8604.238    24.885173    24.946701    22.919264    14228.347    8425.9897    9056.8927    8329.8315   -321.02686   -823.31082    785.99591   -6606.3605 
 6505000    230.67135   -9226.2591   -8346.8348   -9226.2591            0    7500.9591     25.04143    24.939578    22.936947    14324.644    5307.7881    8606.0887    8589.0004   -255.75303   -770.45934    1276.4968   -6779.8076 
 6506000    240.70731    -9234.129    -8316.443    -9234.129            0    7972.4475    24.943088    24.882898    23.010144    14281.391    7160.8692    8607.0166    8149.4567   -35.134206   -375.96161   -52.199475   -6655.9461 
 6507000     230.6043   -9255.8009   -8376.6321   -9255.8009            0     8526.758    24.989052    24.923647    22.881029    14250.724    8418.9003    8428.9383    8732.4353   -125.10943   -57.628674   -176.28867   -6604.4974 
 6508000    233.26762   -9264.6981   -8375.3755   -9264.6981            0    8483.8225    24.928494    24.979051    22.879494    14246.835    7735.9657    7700.4547    10015.047     54.92069   -226.38166   -190.23936   -6612.6452 
 6509000    237.95981   -9210.7498   -8303.5385   -9210.7498            0    9242.8891    24.829686    24.969044    22.916741    14207.772    9265.7267     8807.749    9655.1918   -259.56283     1974.138    531.56914   -6388.3584 
 6510000    229.86162   -9224.1678   -8347.8304   -9224.1678            0    8422.0512    24.829421    24.945423    23.019177    14257.627    8600.5239    9065.0345    7600.5952   -437.62645    176.27523    466.29181   -6596.6092 
 6511000    230.28269   -9236.5294   -8358.5868   -9236.5294            0    8248.9378    24.871246    24.896733    23.062663    14280.695    8159.6529    8532.2839    8054.8767   -65.101242   -284.01685   -182.84242   -6640.5863 
 6512000    231.29669   -9197.9338   -8316.1254   -9197.9338            0    9006.0393    24.998119    24.903619    22.955682    14290.914    8847.3635    8812.8712    9357.8833   -255.94872    -618.2573    79.762467   -6439.1018 
 6513000    233.04029   -9218.1007   -8329.6449   -9218.1007            0     8915.717    24.948749    24.861676    22.994371    14262.666    8860.3893    8649.3571    9237.4047    83.155716    475.85911    12.158278   -6475.1191 
 6514000      224.816   -9250.4844   -8393.3833   -9250.4844            0     9728.345    24.798586     24.95419    22.940682     14196.35    10925.605    8386.1525    9873.2772    343.46864   -497.47548   -1156.3637   -6379.2344 
 6515000    231.42245   -9238.4637   -8356.1758   -9238.4637            0    8190.5158     24.74131    25.070277    22.990829    14260.556    8038.6064    8771.5498    7761.3912    108.17608    2.8298927   -285.56286   -6652.7485 
 6516000    229.69817   -9213.9529   -8338.2388   -9213.9529            0    9135.1827    24.866434    24.859017    23.029416    14235.751    9241.1439    9885.1549    8279.2492   -32.856049    -361.1731   -743.33106   -6441.6485 
 6517000     230.9346   -9221.6996   -8341.2716   -9221.6996            0    9296.7984    24.909802    24.765196    23.052876     14221.23    9620.8281    9873.6721    8395.8951   -852.71507   -147.97688    245.16828   -6413.0965 
 6518000    225.84981   -9251.6193   -8390.5768   -9251.6193            0    8401.0836    25.018768    24.797225    22.966907    14248.578    7772.6659    9014.1584    8416.4265    306.61372   -226.67447   -200.19183   -6644.8242 
 6519000    228.74216   -9239.6682   -8367.5988   -9239.6682            0    8352.6224    24.974746    24.867231    22.945311    14250.249    7700.9092    9566.3198     7790.638   -311.19065   -475.55792    606.69545   -6631.7128 
 6520000    231.34047   -9266.7559   -8384.7805   -9266.7559            0    6677.9249    24.971637    25.091005    22.867503    14327.942    6715.8279     6264.007    7053.9399   -1034.0085   -243.95019    761.76556   -6989.3724 
 6521000    231.32594   -9252.3144   -8370.3944   -9252.3144            0     8796.146    24.884597    24.999094    22.887389     14238.07    8767.3973    8101.1371    9519.9036   -445.92407   -169.41467   -729.16933   -6543.8954 
 6522000    239.49817   -9241.1829   -8328.1067   -9241.1829            0    9024.0806    24.814239      24.9481    23.008318    14243.716    9884.0272    9494.0289    7694.1856   -961.90839   -975.57253   -194.89169   -6453.5344 
 6523000    227.61405   -9270.5677   -8402.7991   -9270.5677            0    8816.2721    24.775461    24.910566    22.991625    14189.758    9315.8517    9050.1858    8082.7789   -1050.8404   -728.19284    271.01253   -6578.3327 
 6524000    236.65712   -9204.2132   -8301.9684   -9204.2132            0    7854.9296    24.923366    24.921936    23.048282    14316.176    7975.7528    8081.9416    7507.0945    531.52873    324.82505    1643.5554   -6661.9632 
 6525000    235.36505   -9243.6087   -8346.2898   -9243.6087            0    8108.9469    24.963055    24.938858    22.914176    14265.222    7319.9957    8550.1567    8456.6882   -91.059825    864.98725    207.71838    -6659.275 
 6526000    236.04006    -9219.255   -8319.3627    -9219.255            0    9048.0236    24.940919    24.977732     22.82161    14217.124    9218.2748    8649.2863    9276.5096   -670.65562   -722.61691    609.60344   -6443.3259 
 6527000    231.97243   -9242.4244   -8358.0397   -9242.4244            0    7326.0267    24.797303    25.028205    23.009041    14280.147    8719.6085    7219.4187    6039.0528   -1014.7277   -539.24704    -789.2852   -6832.3119 
 6528000     233.4695   -9260.8139   -8370.7217   -9260.8139            0    7691.4003    24.743167    24.948902    23.109843    14266.049    9580.2309    6796.1093    6697.8605   -514.96157    282.44321    335.67267   -6770.4821 
 6529000     229.7325   -9255.7581    -8379.913   -9255.7581            0    7550.9813    24.958254    24.919109    22.969777    14285.765    7188.3302    7248.6905    8215.9231    63.854534    180.55085    322.70979   -6806.7172 
 6530000    237.02381   -9232.9177   -8329.2749   -9232.9177            0    8105.1182    25.035358    24.886744    22.910398     14274.29    7388.8648    9420.3752    7506.1146    -653.3128   -222.46431    206.50646   -6641.9847 
 6531000     237.0203   -9217.5646   -8313.9351   -9217.5646            0    8661.6529     24.99726    24.964101    22.837629     14251.46    8112.6544    8288.3743      9583.93   -610.18435    -1094.764    299.88572   -6513.6719 
 6532000    236.55438   -9228.7935   -8326.9403   -9228.7935            0    8602.9615    24.913469    24.955687    22.954011     14271.26    8001.0871    8213.0126    9594.7846    436.24641    910.51043    619.89291   -6536.3914 
 6533000    234.93103   -9237.0612   -8341.3969   -9237.0612            0    7087.1767    25.049644    24.890549    22.985742    14331.596    6279.8265     8723.781    6257.9228   -563.29356    281.52991   -734.69254   -6860.0946 
 6534000    220.51762   -9222.3595   -8381.6458   -9222.3595            0    9551.6465    24.953473    24.842704    22.881213    14184.332     8463.799    9840.7579    10350.383   -249.66117   -557.99048    -489.1135   -6405.7546 
 6535000     220.2633    -9252.433   -8412.6889    -9252.433            0    8179.8579    24.889902    24.937264    22.934057     14234.85    8071.9668    8390.3806    8077.2264   -125.96437    618.31725   -53.611013   -6714.5448 
 6536000    232.31593   -9257.7371   -8372.0428   -9257.7371            0    6843.8283    24.826809    25.049223    23.018615    14315.099    8110.6115    5808.9004     6611.973   -242.20359   -611.96465    762.13703   -6943.2497 
 6537000    231.35604   -9234.5643   -8352.5296   -9234.5643            0    8747.7981    24.813469    24.952863    22.976547    14226.322    9255.9038     8137.983    8849.5075    242.25815    -836.7191   -100.87386   -6537.5686 
 6538000    237.01158   -9245.5961   -8341.9999   -9245.5961            0    8266.0309    24.780467     24.95683    23.072871     14269.23    8895.4872     7914.651    7987.9545    1052.0542    755.09591   -1114.4955   -6621.8217 
 6539000    232.93424   -9269.2795   -8381.2279   -9269.2795            0    7248.2182    24.893628    25.049368    22.930175    14298.561     8134.417    6351.4633    7258.7743   -192.28349   -480.75963   -812.77013   -6869.7581 
 6540000    232.74906   -9260.1757   -8372.8301   -9260.1757            0    9858.3658    24.936294    24.846282    22.863724    14165.773    10515.674     9137.229    9922.1941    663.02854   -260.55938    819.02752   -6336.1581 
 6541000    230.87675   -9284.4731   -8404.2656   -9284.4731            0    8474.7208    24.958024    24.887982    22.862393    14201.086    7196.7328    8686.8709    9540.5587    32.741119    945.41961    360.21663   -6649.0808 
 6542000    231.49158   -9237.6351   -8355.0836   -9237.6351            0     8595.373    25.026308    24.858524    22.886367        14238    7554.1767    8967.1201    9264.8221   -176.15874    646.61856    187.02741   -6570.2835 
 6543000     238.2541   -9248.4104   -8340.0771   -9248.4104            0    6902.2245    24.863432    24.945167    23.056082      14299.9    6691.1153    7815.0283    6200.5299   -135.12524    381.79654    673.25138   -6900.6225 
 6544000    230.23436   -9236.3049   -8358.5465   -9236.3049            0    8657.9222    24.773715    24.935119    23.076054    14254.898     8561.229    9311.5806    8100.9569   -274.29831   -494.41685    619.63401   -6558.6244 
 6545000     226.0543   -9280.2457   -8418.4236   -9280.2457            0    8485.9205    24.857836    24.976807    22.913266    14226.145    8373.5218    8990.3075    8093.9323   -324.26791   -236.20645   -788.04026   -6657.8179 
 6546000    238.01643   -9227.8386   -8320.4115   -9227.8386            0    7894.4549    24.942177    25.041028    22.849043    14271.003    7852.8881    7107.2037    8723.2728    682.66515   -42.161992   -152.93547   -6677.3548 
 6547000    232.00085    -9268.088    -8383.595    -9268.088            0    8319.4419    24.919743    24.963286    22.862649    14222.366    9230.1255    7597.6046    8130.5956   -348.59376    619.50807     -537.512   -6657.9878 
 6548000    231.71288   -9255.8831    -8372.488   -9255.8831            0    7298.0922    25.038595    24.882266    22.956341    14302.191    6605.9955    8196.9167    7091.3643    1216.8759     443.4525    141.90961   -6850.2316 
 6549000    232.11373   -9215.9666   -8331.0432   -9215.9666            0    8804.9806    24.945897    24.843855    23.003052    14256.193    8294.4095    8780.1084    9340.4239    80.441296   -35.378157    555.60633   -6500.3825 
 6550000    236.54077   -9240.8412   -8339.0399   -9240.8412            0    7851.8963    24.911942    24.943109    23.005808    14295.378    7976.3235    7581.6554    7997.7101    97.269951   -593.27201   -673.55761   -6702.0496 
 6551000    232.00658   -9234.4156   -8349.9007   -9234.4156            0    8146.5042    24.890211    25.063762    22.874261    14269.932    7984.4901    6823.0221    9632.0004    327.65352    214.94013    102.10811   -6654.5128 
 6552000    225.68998   -9225.3196   -8364.8865   -9225.3196            0    8647.2363    24.908685    24.903582    22.938296     14228.98    8145.5424    9870.4098    7925.7568    514.81826    532.62092   -320.33688   -6570.4545 
 6553000    228.12865   -9231.4844    -8361.754   -9231.4844            0    8090.8642    25.053889    24.796583    22.985929    14280.027    6777.9148    8344.8695    9149.8084   -832.89434    189.31406    325.97358   -6676.7542 
 6554000    229.48982   -9217.9769   -8343.0571   -9217.9769            0    7293.6523    25.072747    24.930721    22.903037    14316.269    6601.4235    7714.9168    7564.6166    582.05441     426.6705   -688.21394   -6820.2293 
 6555000    233.98295   -9216.5837   -8324.5339   -9216.5837            0    8542.0516    24.888384    24.970624    22.922122    14245.605    8970.1288    8548.5955    8107.4307    -930.1476    329.26071    311.08909   -6549.8583 
 6556000    227.84731   -9200.1688    -8331.511   -9200.1688            0    8519.0952    24.810545    25.035138    22.981662    14274.724    10002.717    7446.6705    8107.8977   -528.06778    438.72645   -750.97931    -6557.987 
 6557000    225.21775   -9209.2708    -8350.638   -9209.2708            0    8950.4899    24.807922    24.969826    23.007877    14252.217    9883.0159    7753.3495    9215.1044   -335.61748    310.94251    795.65178   -6490.2431 
 6558000    223.72014   -9219.0647   -8366.1415   -9219.0647            0    9034.7507    24.792328     24.95256    22.961787    14204.898    10179.013    7759.8711     9165.368   -222.44814   -7.0494536   -76.939957   -6494.4677 
 6559000    231.03917   -9248.7841   -8367.9574   -9248.7841            0    7580.8962    24.978728    24.876756    22.982319    14280.977    7391.7302    8445.7339    6905.2244    335.53964    1477.3743   -215.19742   -6789.0584 
 6560000    228.65627   -9274.5918   -8402.8498   -9274.5918            0    6983.4296    25.103074    24.913001    22.942796    14348.262    5186.3618    7560.1534    8203.7736   -264.41955   -239.33116    252.96556   -6941.5345 
 6561000    228.62715   -9245.1356   -8373.5047   -9245.1356            0      7792.52    24.987272    24.976378    22.860911    14267.302    7823.5076    7248.3305    8305.7219    13.733403   -22.220798     -279.942   -6752.0842 
 6562000    234.44335   -9248.0391   -8354.2341   -9248.0391            0    9763.7663    24.920653    24.907653    22.868981    14195.119    9547.5125    9482.9903    10260.796   -1290.6294    165.25081    844.65737    -6332.927 
 6563000     237.3195   -9226.2098   -8321.4396   -9226.2098            0    7667.0742    24.863268    24.956797    23.020682    14284.506    9182.4374    7267.5412    6551.2441   -279.96324   -627.44127    649.40177   -6724.1974 
 6564000    234.90731    -9236.177   -8340.6032    -9236.177            0    9840.0007    24.861012    24.836448    22.979157    14188.693    9507.7016    10793.185    9219.1159    6.8751981   -445.90521   -733.38006   -6304.4361 
 6565000    232.03254   -9293.6095   -8408.9956   -9293.6095            0    7334.3961    24.911781    24.931262    22.993814    14281.048    7029.3479    8071.0115    6902.8288   -442.25199   -418.18065    989.95991   -6881.4284 
 6566000    236.24714   -9194.2855   -8293.6036   -9194.2855            0    9284.1314    24.927987    24.888153    22.969329    14250.437    8957.2204    9325.4677    9569.7061    392.72055    -632.0497   -70.072866   -6364.1011 
 6567000    222.80968   -9236.7775   -8387.3253   -9236.7775            0    9155.0478    24.974977     24.80558    22.936476    14209.578    8333.5896    9442.0006    9689.5534   -32.346624   -708.55977   -20.479221   -6490.1054 
 6568000    227.59373   -9253.9026   -8386.2115   -9253.9026            0    8890.5702     24.97457    24.840044    22.913391    14214.767    8002.1592    9619.4756    9050.0756    830.76036   -971.68483    550.38431    -6543.127 
 6569000    228.59253   -9269.0104   -8397.5114   -9269.0104            0    7601.1925    25.002847    24.945285    22.861718    14258.925    7193.5552    6795.7643    8814.2581   -44.947615   -340.37914   -259.27542   -6816.8297 
 6570000    225.49241   -9236.2714   -8376.5915   -9236.2714            0    8812.4192    24.909419    24.931653    22.910984    14228.477    8957.9197    8761.3589     8717.979   -802.83625   -190.20962   -53.138675   -6547.9464 
 6571000    238.16929   -9269.1103   -8361.1003   -9269.1103            0    7885.8796     24.78002    24.850872    23.176907    14272.458    8785.6329    7722.3581    7149.6477   -80.702986    482.69211    -340.1784   -6719.6612 
 6572000    230.66574   -9214.9889   -8335.5859   -9214.9889            0    8243.5168    24.835568    24.924475    23.034252    14258.513    8813.3473    8188.1908    7729.0122    13.862182   -156.56458   -629.04606   -6621.3813 
 6573000    213.03991   -9235.2155   -8423.0102   -9235.2155            0    8955.7204    24.819032    25.032359    22.870496    14208.957    10215.437    6905.0568    9746.6674    776.92873   -353.60959   -485.46842   -6567.1784 
 6574000     235.9511   -9240.5061   -8340.9529   -9240.5061            0    7647.1457    24.924586    25.110136    22.822037    14283.394    7110.3338    7459.8658    8371.2375    547.94837   -14.383234    296.91351   -6747.9863 
 6575000    230.70413   -9195.9299   -8316.3806   -9195.9299            0    9650.8986    24.961445    24.919066    22.856159    14216.894    8609.5929    10180.411    10162.692   -171.51059   -61.741679    456.63565   -6315.3746 
 6576000    229.80451   -9239.8774   -8363.7578   -9239.8774            0    7725.0421    24.889501     25.00598    22.963496    14292.167    7182.9041    7939.0402    8053.1821   -420.82536   -943.20756    13.906737   -6753.5764 
 6577000    227.12203   -9257.1102   -8391.2175   -9257.1102            0    9073.2423    24.791638    24.874532    23.034697    14205.046    9420.4258    9131.4084    8667.8926    615.89311    418.33656    163.52166     -6511.55 
 6578000    235.55046   -9220.1768    -8322.151   -9220.1768            0    8661.0673    24.826734     24.96733    22.996298    14254.423    9391.7639    8618.2285    7973.2095    509.33872   -1032.0848    1929.2396   -6521.6352 
 6579000    224.78011   -9222.6168   -8365.6525   -9222.6168            0    8390.7142    24.979425    25.050535     22.73891    14228.826    7936.0458    7217.2416    10018.855    40.515344    238.75418    1062.8967   -6624.4716 
 6580000    224.87262   -9215.8984   -8358.5814   -9215.8984            0    8726.0642    24.901741    24.931781    22.958072    14253.399    9406.6464    7796.2891    8975.2572   -827.36869   -640.05801     246.1167    -6544.684 
 6581000    237.97215   -9245.4844    -8338.226   -9245.4844            0    7042.4814    24.964484     24.84361    23.067864    14306.872    6685.3227    8290.3574    6151.7641   -952.62546    304.39839    375.23637   -6868.8049 
 6582000    226.39647   -9219.4788   -8356.3522   -9219.4788            0     9713.309    24.863404    24.799065    23.064836    14221.528    10768.041    9853.4286    8518.4576   -1105.2948   -1639.3296    854.94955   -6341.7498 
 6583000    229.07309   -9288.9222   -8415.5911   -9288.9222            0    8262.2077    24.858893    24.805319    23.101739     14245.29    7854.8613    8720.9302    8210.8317   -835.26178    360.90018   -13.253951   -6699.0932 
 6584000    227.39305   -9186.9449   -8320.0189   -9186.9449            0    7888.1205    24.961788    24.939503    22.957226    14291.667    8024.2899    7556.2728    8083.7987   -642.94531    284.23127   -246.87754   -6675.9033 
 6585000    230.16235   -9245.3249    -8367.841   -9245.3249            0    8524.8535    25.022965    24.946995    22.791129    14227.312     8123.187    7932.4135    9518.9601    281.02161     958.6428    118.25141   -6599.0128 
 6586000    230.92176   -9229.2617   -8348.8827   -9229.2617            0    8170.6371    24.982486     24.92813    22.876243    14246.561    6887.3076    9019.6854    8604.9181    558.00887    508.29077    224.94459   -6651.2573 
 6587000    227.56869   -9235.1137   -8367.5181   -9235.1137            0    7557.7336    24.959887    24.925603    22.952553    14279.706    7872.2497    6774.5759    8026.3751   -16.844923   -155.45577    352.49893   -6793.5832 
 6588000    236.03314   -9220.4866   -8320.6207   -9220.4866            0    8495.4236    24.901096    24.887087    23.052427    14285.951    10133.483    7996.9265    7355.8618   -770.76854     69.93984    349.36604   -6550.6336 
 6589000    220.09417   -9248.7339   -8409.6345   -9248.7339            0    9181.4952    24.796492    24.908409    23.011876    14213.081    10054.171    8216.5935    9273.7211    390.26591   -723.54996   -750.43464   -6506.4646 
 6590000    236.21108   -9252.5008   -8351.9564   -9252.5008            0    8088.2282    24.883578     24.89242    23.046678    14275.399    8165.9555    8406.8527    7691.8765    161.85702   -147.17368    759.51394   -6668.0515 
 6591000    223.04103   -9243.0614   -8392.7273   -9243.0614            0    9311.9995    24.876324    24.894624    22.924494    14196.834    10673.098    7665.5644    9597.3361    259.83123   -4.1326246    617.37402   -6464.7125 
 6592000    228.83024   -9220.6576   -8348.2524   -9220.6576            0    8441.4706    24.844013    25.022949    22.947193    14265.592    9920.5149    7298.7519    8105.1449    829.28259   -748.95324    548.68563   -6592.0126 
 6593000    237.66632   -9256.2344   -8350.1419   -9256.2344            0    8229.6556    24.859353    25.026986    22.915714    14257.118      8880.87    7221.7494    8586.3473    -978.6902    509.19512   -534.19455   -6638.9871 
 6594000    231.14751   -9242.6524   -8361.4127   -9242.6524            0    8273.5555    24.888742    25.030177    22.886593    14257.652    8022.8688    8335.8262    8461.9715   -229.71972    160.11765   -224.71381   -6641.0656 
 6595000    226.18108   -9288.2308   -8425.9254   -9288.2308            0    8932.4547    24.803745    24.942622    22.962557    14206.255    9467.4611    8425.6655    8904.2374   -167.90455    605.73196    795.07521   -6575.2668 
 6596000     226.6827   -9221.7024   -8357.4846   -9221.7024            0    7455.1653    24.937825    24.963147    22.994556    14314.722     7052.265    7810.1484    7503.0824   -382.63134    10.922118     586.4883   -6801.1029 
 6597000    234.27249   -9230.8631   -8337.7095   -9230.8631            0    8674.7611    24.970158    24.830471    22.988812    14253.541     7025.096    10119.284     8879.903    395.43696   -108.71347    1352.9764   -6534.4585 
 6598000    227.28987   -9287.8732   -8421.3406   -9287.8732            0    7752.4564    24.980178    24.864678    22.939046    14247.994    6736.8261    8722.1446    7798.3986     324.2454   -51.261317    305.89256   -6810.4392 
 6599000    232.82432   -9226.6031   -8338.9706   -9226.6031            0    8296.9991    25.018738    25.014175    22.824329    14283.992    6560.4666    8242.1925    10088.338    13.359166   -420.01897   -136.01815   -6610.5616 
 6600000    229.90825   -9270.8222   -8394.3071   -9270.8222            0    8504.3691    24.921677    24.949615    22.857369    14212.398     8090.664    7958.7297    9463.7134    508.43112   -320.53599    197.47439    -6631.579 
 6601000    226.12436   -9236.4029   -8374.3137   -9236.4029            0    8460.6352    24.848435    24.957563    22.946632      14230.5    8206.6726    8734.1819     8441.051   -73.433545   -631.89368   -234.60976   -6618.4168 
 6602000     232.9027   -9210.6476   -8322.7163   -9210.6476            0    8903.1734    24.856175     24.98744    22.944128    14250.419    9617.1564    7999.8539    9092.5098    206.80316     105.8801   -997.40677   -6472.3899 
 6603000    232.90924   -9241.1969   -8353.2407   -9241.1969            0    9166.5243    24.823051    24.938922    22.992884    14233.978    9903.8052    9127.2524    8468.5152   -200.17697    -297.8595   -111.46478   -6450.3805 
 6604000    230.39802   -9244.4752   -8366.0928   -9244.4752            0    6715.1291     24.95386    25.035305    22.994459    14365.271    6133.3451     7030.766    6981.2761    475.45234   -654.19613    682.70495   -6959.2549 
 6605000    238.01908    -9252.033   -8344.5957    -9252.033            0    7822.1035    24.886475    24.983535    22.941449    14263.895    7650.9321    7692.1621    8123.2163   -651.81658    1515.8295   -611.51722   -6717.4082 
 6606000    222.34951   -9240.3292   -8392.6314   -9240.3292            0    7294.5966    24.994757    24.899136    22.997407    14312.387    7271.7866     8122.971    6489.0321    187.98362    -154.5192   -399.25832   -6870.0195 
 6607000    231.86607   -9239.9602    -8355.981   -9239.9602            0    8144.6718    25.019789    24.801143    22.995924    14269.416    7788.2179     8942.238    7703.5594    372.56373   -662.40866   -636.67552   -6661.0357 
 6608000    244.81278   -9295.1891   -8361.8511   -9295.1891            0    8603.3501    24.927975    24.868886    22.936047    14218.766    7198.0356    9627.0291    8984.9856    112.00643   -1422.8171    668.28691   -6577.8079 
 6609000    229.30385   -9246.7988    -8372.588   -9246.7988            0     8388.715    24.899947    25.029008    22.845396     14237.73    9123.6927    7252.0882     8790.364   -1075.1511   -473.62725    242.58796   -6630.7327 
 6610000    229.25677   -9248.0704    -8374.039   -9248.0704            0     7941.182    24.875459    25.032022    22.915546    14269.121    7794.8836    7831.8438    8196.8187    -224.1414   -464.52222     670.1873   -6721.4751 
 6611000    234.87093   -9244.8678   -8349.4326   -9244.8678            0    9161.2612    24.813421    24.975824     22.90485    14194.952    10603.229    8841.7661     8038.788    373.93761   -227.67823   -28.037465   -6452.8792 
 6612000    231.63631    -9227.765   -8344.6618    -9227.765            0    7644.4633    24.867049    24.958474    23.056921     14310.13    6708.2989    8871.8971     7353.194   -401.24332    -168.4494    65.144621   -6749.2733 
 6613000     231.0857   -9238.6817   -8357.6776   -9238.6817            0    8468.3162    24.948413    24.822609    22.975435    14228.335    7153.8792     9402.524    8848.5452    -1059.106    657.93082    482.48971    -6600.454 
 6614000     238.1253   -9210.0341   -8302.1919   -9210.0341            0    8455.1792    25.080418    24.756841    22.975139    14265.538    6865.9463    9467.4037    9032.1875   -299.91588   -908.43857    828.95133   -6543.1068 
 6615000    231.66725   -9188.6892    -8305.468   -9188.6892            0    9227.6615    24.985215     24.85372    22.916497    14230.584    8809.1668     8748.886    10124.932   -96.964073   -174.93163   -240.39544   -6390.3733 
 6616000    234.06081   -9274.4652   -8382.1186   -9274.4652            0    8772.2505    24.912669    24.908158     22.87113    14192.193    9034.9219    7993.7118    9288.1178    -735.4464   -902.76538    188.34182   -6566.4507 
 6617000    221.40924   -9250.8766   -8406.7636   -9250.8766            0    8771.1674    24.970234    25.011122    22.790375    14233.354    8287.4647    8869.3513    9156.6862   -17.103746    538.98898    1014.5532   -6586.0546 
 6618000    219.25506   -9242.7621   -8406.8619   -9242.7621            0    8875.4852    24.861119    25.058871    22.809486    14210.118    9398.2804    7650.8858    9577.2895   -591.45802   -2166.7435   -55.861397   -6567.5064 
 6619000     231.7477   -9247.8702   -8364.3423   -9247.8702            0    8963.0883    24.834898    24.984097    22.972843    14254.132     9811.498    7762.9526    9314.8142   -647.58956   -501.47004    426.20745   -6501.0786 
 6620000    234.03231    -9263.393   -8371.1552    -9263.393            0    9396.9021    24.848172    24.896843    22.953622    14200.053    9080.8146    9160.7149    9949.1769    197.44151    306.01931    975.01729   -6425.1206 
 6621000    227.53378   -9246.2746   -8378.8121   -9246.2746            0    7867.5357    24.989341    24.859286    22.960059    14263.183    8700.8422    8022.1402    6879.6249   -173.95835    42.655241    590.34851   -6742.2553 
 6622000    232.94587   -9213.9264   -8325.8306   -9213.9264            0    8245.3717    25.042136     24.80942    22.976448    14274.827    6933.4252    9383.6397    8419.0501   -701.56957   -332.46123   -173.14255   -6609.2784 
 6623000    226.81914   -9249.5873   -8384.8493   -9249.5873            0    8189.6252    24.966923    24.877522    22.941498    14249.313    8151.9347    8379.7051    8037.2358    934.14841    550.78814    674.08748   -6682.9501 
 6624000    244.96718   -9255.7194   -8321.7927   -9255.7194            0    8855.5506     24.78444    24.941467    22.988575    14210.624    9565.7687    8464.9503    8535.9328     222.7746   -629.47896    1253.8659   -6486.5031 
 6625000    231.20627    -9207.727   -8326.2633    -9207.727            0    8336.7015    24.823116       25.027    22.991428    14283.381    9129.4058    8369.9254    7510.7733    -21.43461    130.15015    969.23547   -6589.6578 
 6626000    227.03832   -9232.7913   -8367.2177   -9232.7913            0    7991.1433    24.889006    25.015366     22.91947    14269.836    10297.876    6682.3699    6993.1844     594.6371   -141.76699   -147.83939   -6704.1735 
 6627000    228.38519   -9206.6879   -8335.9794   -9206.6879            0    10504.389    24.874974    24.806532     22.96323    14169.733    8656.4778    12642.108    10214.581   -346.46111   -1831.2868    414.76733   -6165.2367 
 6628000    227.52983   -9241.8101   -8374.3627   -9241.8101            0    8837.7073    24.880594      24.8196    23.051757    14235.068    8024.8947     10834.18    7654.0468    511.10266   -147.35354    123.30545   -6539.6204 
 6629000    238.82867   -9251.0829   -8340.5591   -9251.0829            0    8979.7959    24.971171    24.828547    22.892516    14193.312    8344.3037    9474.2902    9120.7937    421.52232   -1127.0625   -31.906833   -6481.7872 
 6630000    224.04328   -9254.3047   -8400.1496   -9254.3047            0    8406.4673    24.908722    24.937828    22.937247    14247.916    8961.2605    8304.9841    7953.1574   -501.18995   -955.43637    387.08924   -6653.3593 
 6631000    234.13955   -9281.5906   -8388.9439   -9281.5906            0    8876.6641    24.705319    25.032501    22.981012    14212.283    9676.3019    8023.8408    8929.8495    336.33136    38.845435    904.04718   -6549.0638 
 6632000    235.88725   -9262.2998   -8362.9901   -9262.2998            0    7654.9079    24.836597    25.009746    22.974421    14270.722     7870.421    7474.3874    7619.9152    102.99126     220.3049    -216.4109   -6769.8212 
 6633000    229.52622   -9229.9211   -8354.8625   -9229.9211            0    10095.581    24.771897    24.979744    22.882325    14159.483    11532.719    8116.0359    10637.988    100.29386    263.58142    825.51826   -6270.1095 
 6634000    227.18089   -9268.6028   -8402.4856   -9268.6028            0     8443.582    24.963009    24.960703    22.868598    14249.292    7473.9856    8804.9135     9051.847   -98.969589    1355.4034    759.28155   -6647.8137 
 6635000    231.63994   -9296.6174   -8413.5003   -9296.6174            0    8885.7618    24.940659    24.880826     22.89819    14209.339     8182.583    7955.3194    10519.383   -90.805924    545.00146    635.33662    -6572.116 
 6636000    231.98355    -9232.171   -8347.7439    -9232.171            0    9138.2204    24.950627    24.785202    23.058377    14259.447    8429.1238    10396.305    8589.2323    244.15207     53.81064   -1246.8097    -6447.365 
 6637000    227.64799   -9248.1675   -8380.2696   -9248.1675            0    9021.1376    24.892912    24.874217    22.928243    14196.978    8900.8201    9270.3757     8892.217   -1279.7535     83.50884   -150.71026   -6512.4578 
 6638000    228.66967    -9230.812    -8359.019    -9230.812            0    6900.4625    25.083973     24.92227    22.945709    14344.499    6118.7755    6902.8514    7679.7605   -164.01551   -860.12069   -156.79889   -6915.4435 
 6639000    231.65858   -9283.5149   -8400.3267   -9283.5149            0    7891.2761    24.953841    24.954849    22.919029    14272.122    6861.9936    8624.4282    8187.4065    169.57325    23.426267   -221.11721   -6757.8029 
 6640000    229.49312   -9219.3032   -8344.3707   -9219.3032            0    9331.0578    24.875725    25.019408     22.82776    14207.448    8631.5244    10089.935    9271.7137    45.610998   -1063.0731    441.76699   -6410.9657 
 6641000     230.1157   -9270.6076   -8393.3016   -9270.6076            0    8033.3238    24.844082    24.903289    23.008806    14235.533    7363.8486    8344.5921    8391.5308   -16.501342    515.06918     16.22259    -6725.498 
 6642000    227.43775   -9266.4765   -8399.3801   -9266.4765            0     7821.809    24.785235    24.922205     23.10878    14274.356    8881.3945    7026.3642    7557.6684   -236.36585    35.156057    98.879379   -6771.0606 
 6643000    225.79926   -9217.4884   -8356.6386   -9217.4884            0    8493.3238    24.858052     25.00278    22.955641    14267.399    9478.8325    7698.6047    8302.5343    469.36487   -544.61396    516.99957    -6589.387 
 6644000    235.34692   -9267.1959   -8369.9461   -9267.1959            0    8791.1412    24.989455    24.886313    22.867303     14221.07    8014.9923    8895.2985    9463.1327   -793.98279   -896.54576    125.70116   -6546.6659 
 6645000    234.90812   -9205.3962   -8309.8193   -9205.3962            0    8816.6274     24.98863    24.833571    22.997213     14271.08    7002.4161    10129.668    9317.7982   -283.35473    139.47612    284.21796    -6474.823 
 6646000    224.57914   -9229.3619   -8373.1638   -9229.3619            0    7501.1368    24.986962    24.930232    22.961317    14303.311    7330.5047    7180.7405    7992.1651   -752.19232   -53.220954   -640.33768   -6808.4333 
 6647000    231.77434   -9245.2643   -8361.6347   -9245.2643            0    9043.5925    24.948281    24.918903    22.836384    14197.009    8741.2545    8050.6651    10338.858   -985.44964    508.02242    615.24931   -6489.1696 
 6648000    230.63993    -9283.295   -8403.9904    -9283.295            0    8854.0945     24.87007    24.962816    22.901303    14217.747    8110.8245    9022.6158    9428.8433   -36.918192    231.88181   -251.80592   -6568.0827 
 6649000    224.48212   -9212.9605   -8357.1322   -9212.9605            0     9122.963    24.726605    24.956759    23.025756      14209.1    9651.0879    8490.9137    9226.8873   -338.59985   -339.85827    380.58188   -6466.6248 
 6650000    225.97687   -9251.6216   -8390.0947   -9251.6216            0    7213.2031    24.848225    24.960053     23.05752    14300.574    8326.3124    7156.5735    6156.7233    449.27057   -238.91964     848.6333   -6885.7148 
 6651000    236.03335   -9242.0227   -8342.1559   -9242.0227            0    9234.4328    24.974165    24.836355     22.90854    14209.417    8585.2336    9909.4658     9208.599    613.67853     722.9588    465.82414   -6428.5066 
 6652000    221.98778   -9230.6254   -8384.3067   -9230.6254            0    8793.0383    25.049932    24.788911    22.938383    14243.831     7209.099    10246.328    8923.6876    315.21732   -44.597254    909.06502   -6557.7142 
 6653000    228.90239   -9228.2663    -8355.586   -9228.2663            0    7791.8238    25.009645    24.954572    22.911828    14299.386    6545.7129    8083.2387    8746.5198   -566.05525    74.099906   -751.41129   -6730.6644 
 6654000    227.98573   -9265.7456     -8396.56   -9265.7456            0    7974.5479    24.911955    25.046365    22.824057     14241.16    8369.6119    6713.1318    8840.8999   -312.72899    -395.1891   -837.30531   -6740.3046 
 6655000    228.42323   -9236.0974   -8365.2439   -9236.0974            0    8404.2813    24.852285    25.042338    22.944311    14279.606    9335.8567    7828.2668    8048.7203  -0.65383533    -538.6845   -1037.1251   -6615.0237 
 6656000    222.24962    -9292.159   -8444.8421    -9292.159            0    8715.0219     24.88445    24.864274    22.979993    14218.499    10299.022    8485.8594    7360.1838    83.854538   -261.39351    331.08932   -6637.6759 
 6657000    239.28884   -9281.0013   -8368.7231   -9281.0013            0    8404.0038    24.980538    24.704145    23.039778    14218.373    7865.9904    9523.3253    7822.6956    635.08713    276.75869     454.0984   -6626.0656 
 6658000    236.76912   -9265.1837   -8362.5118   -9265.1837            0    8638.6002    24.940154    24.901082    22.918946    14233.509    7937.7472    8946.1569    9031.8964    816.68192    458.17827   -244.41074   -6569.3014 
 6659000    237.52201   -9237.9263   -8332.3841   -9237.9263            0    9561.4246    24.792038    24.895852     22.99497     14192.93    10061.844    9041.2366    9581.1931   -412.49392    263.19071    1195.5705   -6353.2713 
 6660000    228.75818   -9239.5937   -8367.4632   -9239.5937            0    9631.6924    24.712312    25.006344    22.956297    14186.178    10651.735    8636.7949    9606.5474    268.92738    -113.3785    1206.7612   -6374.7541 
 6661000    223.73607   -9270.5726   -8417.5886   -9270.5726            0    7943.2444    24.957849    24.922954    22.896033    14241.866    7954.9521    8392.8673    7481.9136   -112.90123    187.75135    454.48729   -6767.7528 
 6662000    228.77847   -9252.1986   -8379.9907   -9252.1986            0    6890.3937     25.07204    24.951773    22.905022    14329.195    6540.6132     7241.428      6889.14    212.64394     800.3451   -214.09709   -6940.0596 
 6663000    242.57832   -9272.7191   -8347.8999   -9272.7191            0    7840.2485    24.926601    24.879243    23.009761    14269.617    7599.0872    8046.7264     7874.932     630.1992   -487.75721    -270.6907   -6716.2836 
 6664000    227.47445    -9247.933   -8380.6967    -9247.933            0    8840.3365    24.797291    24.922061    23.027836    14231.194    9819.5371    8504.4723    8197.0001    208.15704    840.23692   -370.47147   -6545.9081 
 6665000    228.45681   -9234.9844   -8364.0029   -9234.9844            0    9174.0957    24.855096    24.911239    22.964644    14219.047    9443.4086    9128.4825    8950.3961   -31.426389    1636.2981   -139.38227   -6461.5686 
 6666000    233.37987   -9225.1914   -8335.4408   -9225.1914            0    7260.5605     24.95593    24.988919    22.936323    14303.589    7542.0124    6753.5263    7486.1427   -570.49166    -140.7125   -1433.3563   -6820.8649 
 6667000    216.42058   -9238.6554   -8413.5615   -9238.6554            0    8088.2391    24.954936    24.867343    22.968231    14253.234    8518.0896    8209.4414    7537.1863   -848.81513   -444.57883   -176.41373    -6732.269 
 6668000    234.44484   -9208.1066   -8314.2959   -9208.1066            0     9217.593    24.943554    24.808081    23.016547    14242.679    9187.5973    9767.8437    8697.3381   -625.49406   -106.61567    1215.2808   -6399.6648 
 6669000    224.45563   -9221.0032    -8365.276   -9221.0032            0    7593.0021    24.972331     24.88649    23.040222    14318.891    6780.2546    8107.1084    7891.6433   -103.35925   -40.850875    441.45628   -6779.6571 
 6670000    227.14379   -9234.2068   -8368.2311   -9234.2068            0    9605.6532    24.866516    24.885513    22.916393    14181.031    9489.1225    9560.5683    9767.2687   -258.15757    856.75115    907.56168   -6381.6303 
 6671000    233.44144   -9280.7759   -8390.7907   -9280.7759            0    6470.9244    24.839462    25.012179    23.058554    14326.027    8158.1298    5575.1567    5679.4868   -728.56833    835.26912    854.40038   -7038.8178 
 6672000    232.48387   -9261.8649   -8375.5303   -9261.8649            0    8471.2877    24.899879    24.907357    22.973256    14247.787    8167.7239    8455.0133    8791.1259    468.95494   -514.55599    -1695.139   -6615.2869 
 6673000    226.05207   -9234.9308   -8373.1172   -9234.9308            0    8259.5808    24.991939    24.907806    22.916801    14265.579    8179.1047    8326.7174    8272.9203    228.10121   -267.35394    41.558725    -6654.721 
 6674000    222.88892   -9233.2236   -8383.4694   -9233.2236            0    9079.5419    25.009977    24.916781    22.817831    14219.345    8587.0551    9093.7142    9557.8564    1393.7649    -716.9879    1379.3076   -6500.6034 
 6675000    220.21198    -9213.816   -8374.2675    -9213.816            0    8014.6217    24.937205    24.976595    22.929754    14281.717    8907.1702    7467.5457    7669.1492   -216.43858   -51.179606    388.32852   -6704.9485 
 6676000    225.94539   -9244.1701   -8382.7632   -9244.1701            0    8796.9926    24.822958    25.106722    22.817007    14220.086    9679.4074    7773.3258    8938.2448    165.30192    938.15726   -204.15939   -6558.3956 
 6677000    230.46439   -9234.6883    -8356.053   -9234.6883            0    7690.4167    24.815722    25.047707    22.957778    14270.025    8846.2884    7005.8499    7219.1117    -494.1959    690.86977   -27.845852   -6755.5721 
 6678000    228.50308   -9243.9054   -8372.7474   -9243.9054            0    7449.5745    24.819579    25.112115    22.974782    14319.541    7836.5184    6757.5339    7754.6714   -560.47171   -494.85965    656.79358   -6817.0094 
 6679000    230.93902   -9258.3404   -8377.8955   -9258.3404            0    7531.2553    24.940968    24.984955    22.927364    14287.163    6878.9009    7141.1252    8573.7397   -11.012554   -479.78002    2043.9797   -6808.6559 
 6680000    225.07404   -9252.4013   -8394.3164   -9252.4013            0     8429.702     24.96573    24.911817    22.961714    14280.847    8556.7562    8263.1486    8469.2011    609.47175   -197.47572     305.3627   -6638.6496 
 6681000    235.80787   -9254.8227   -8355.8156   -9254.8227            0    10525.433    24.871567    24.784042    22.937529    14139.106      9979.68    11687.921    9908.6982    668.63515    874.46433    1387.0065   -6185.4254 
 6682000    227.46314   -9205.3494   -8338.1561   -9205.3494            0    7709.4962    24.988021    24.913955    23.010238    14325.034    5816.9369    9103.3121    8208.2395    187.23264    542.40037    77.405994   -6727.5196 
 6683000    232.63453   -9238.1671   -8351.2582   -9238.1671            0    9447.4812    24.958834    24.806974     22.90822    14183.696    8506.2316    10238.292    9597.9206   -419.97256   -343.72476   -637.87018   -6397.0027 
 6684000    230.61218   -9234.8957   -8355.6969   -9234.8957            0     9182.757    24.902761    24.891958    22.900388    14195.458    9823.9357    9205.1673    8519.1679   -410.77556    709.50307   -288.05109   -6454.6258 
 6685000    235.54371   -9221.3219   -8323.3219   -9221.3219            0     7939.929    24.901761    25.039895    22.907441    14283.648    8613.0813    7178.4005    8028.3051    1014.7774   -287.48609   -596.75086   -6669.3366 
 6686000    235.41475   -9228.9794    -8331.471   -9228.9794            0    6913.2083    24.868993    25.088109    22.962074    14326.405    7193.5225    6343.5942    7202.5081   -468.74587   -407.06577    647.01494   -6887.0534 
 6687000    223.46375   -9261.5219   -8409.5762   -9261.5219            0    8359.0319    24.874328    24.925293    23.001092    14260.675    8743.8862     7658.017    8675.1925    -120.6587    201.61394     501.2046   -6671.0872 
 6688000    240.89476   -9255.6258   -8337.2251   -9255.6258            0    8119.1745    24.867639    25.001215    22.932455    14257.593    8630.4418    6285.7213    9441.3603    1403.1515   -413.82241   -313.57764   -6648.9859 
 6689000    230.17797   -9288.5092   -8410.9658   -9288.5092            0    7751.9578    24.861009    24.922004    22.998713    14249.684    8234.6484    8000.4751    7020.7498    387.65348   -470.47894   -239.03284    -6799.977 
 6690000    230.50652   -9196.4255   -8317.6295   -9196.4255            0    9319.7517    24.873885    24.815264    23.072211    14241.369    8569.9556    10899.145    8490.1541    806.50186   -764.75304   -776.29753   -6381.9566 
 6691000    232.53585   -9247.2898   -8360.7571   -9247.2898            0    7125.6154    24.922911     24.92106     23.04178    14311.373     7047.903    7245.5599    7083.3834   -479.76371   -762.43546    458.98165   -6873.5222 
 6692000    231.12167    -9212.987   -8331.8458    -9212.987            0    9101.7947    24.914143    24.936179    22.888835    14219.999    10429.702    8765.9103    8109.7717   -245.57019    1035.6378    705.53396   -6444.2783 
 6693000    227.24449   -9238.7653   -8372.4057   -9238.7653            0    7785.5348    25.055053    24.944326    22.858555    14286.172    7024.6439    7520.3796    8811.5809    547.06364   -442.95208   -457.14952   -6750.2961 
 6694000    230.03147   -9252.0051   -8375.0202   -9252.0051            0    7665.8173    25.028294    24.917561    22.890749    14275.679    6993.5641     7045.225     8958.663   -1055.3574    198.27007    290.91972   -6779.0267 
 6695000    226.91383   -9224.6658   -8359.5668   -9224.6658            0    9430.4849    24.858251    24.860661     22.97087    14195.826    9563.0631     8964.602    9763.7897    724.59431   -1211.3483    1271.8835   -6407.1587 
 6696000    236.37726   -9248.0404   -8346.8625   -9248.0404            0    8194.9954    24.836949      24.8545    23.102865    14261.629    8392.3474     9239.708    6952.9309   -67.657701    329.52402   -309.19804   -6642.3754 
 6697000    228.74279    -9239.329   -8367.2571    -9239.329            0    7767.1747    24.901035    24.923067    23.021784    14287.553    8480.2954    7552.3381    7268.8907   -851.39121    21.261946    384.98188   -6748.8163 
 6698000    238.74441   -9253.4823   -8343.2797   -9253.4823            0    9049.4595    24.851955    24.943369     22.94674    14224.489    9410.8801    9156.7263    8580.7721    242.95016   -919.24893   -513.71512   -6465.9731 
 6699000    237.05189   -9244.3102   -8340.5603   -9244.3102            0    8325.6389     24.91878    25.079435    22.827667    14266.126    8000.1241    7288.1812    9688.6112    170.71973    713.90469    635.10405   -6608.3544 
 6700000    232.13306    -9256.867   -8371.8699    -9256.867            0    6701.3076    24.775774    25.131608    23.002351    14322.529     8223.442    4221.8995    7658.5811    23.062374     965.9744    37.900143   -6972.1048 
 6701000    241.55262   -9248.1678    -8327.259   -9248.1678            0    8949.5026    24.895526    24.940584    22.935247      14240.7      7884.93    9497.0991    9466.4786    -218.4705    596.78918    388.64713   -6468.5725 
 6702000    231.28916   -9258.3705   -8376.5908   -9258.3705            0    8003.7887    24.920807    24.909857    22.980082    14265.432     7728.944    8085.1716    8197.2506    257.80448    574.11905   -85.141486   -6711.4291 
 6703000    223.55044   -9269.3722   -8417.0959   -9269.3722            0    7315.1595     25.00654    24.869488    23.006009    14307.434    5719.9642    7643.0857    8582.4286   -778.38744    1046.4089    1176.3478   -6890.7203 
 6704000    235.92607   -9237.8077   -8338.3499   -9237.8077            0    9306.4577    24.965542     24.85019    22.911071    14213.993    8888.5393    9623.1279     9407.706   -180.63915   -563.10114   -179.66809   -6409.1537 
 6705000    226.89563   -9262.4014   -8397.3718   -9262.4014            0    7575.4724    25.034987    25.020849    22.783408     14271.45     7027.399    6399.6666    9299.3516   -286.65207   -586.11305    56.444318   -6820.6549 
 6706000    220.15243   -9274.4825    -8435.161   -9274.4825            0    8589.2803    24.921566     24.97309    22.845612     14218.39    9374.6637    7209.9395    9183.2377    124.32944   -89.075575    254.85141   -6654.0824 
 6707000    229.28072   -9236.8583   -8362.7357   -9236.8583            0    8613.8243    24.875472    24.899713     22.97908    14233.061    8720.8332    8070.7762    9049.8634    177.16807   -1078.9873    -323.5251   -6574.7246 
 6708000    229.70542   -9242.6395   -8366.8977   -9242.6395            0    8001.3516    24.864812    24.927004    23.022384    14269.395    8499.3429    8937.3507    6567.3611    443.69917    484.55699    908.78968   -6701.7805 
 6709000    227.34561   -9195.9497   -8329.2045   -9195.9497            0    8322.7526    24.778924     24.92634    23.123165    14281.974    9365.9388     8117.294     7485.025   -234.66889   -265.20562    1086.3978   -6595.6756 
 6710000    230.51127   -9235.3824   -8356.5684   -9235.3824            0    8294.8856    24.836472    24.910683    23.041625    14255.703    9283.1072    7903.6006    7697.9489   -882.54523    111.95215   -744.73889   -6632.0218 
 6711000    235.65406   -9235.1621   -8336.7414   -9235.1621            0    8051.4004     24.95664    24.924578    22.942166    14270.801    8422.0158    7825.3839    7906.8016   -201.92185   -1456.5608   -31.349102   -6661.0437 
 6712000    224.59158   -9232.5128   -8376.2672   -9232.5128            0    7716.8237     24.90618    24.889584    23.048198     14287.68    8210.4717    8215.4127    6724.5867   -8.7608626    278.14708   -385.80937   -6768.3037 
 6713000    218.38369   -9205.7935   -8373.2153   -9205.7935            0    9142.6024    24.755368     24.98238    23.029519     14242.56     11247.16    8470.5119    7710.1359    293.78143   -644.97118    69.551082   -6474.1767 
 6714000    236.94523   -9249.9413   -8346.5981   -9249.9413            0    8872.6123    24.847455    24.982875    22.866774    14194.799    10377.227    7691.5992    8549.0107    201.57878    169.03571    -405.1251   -6509.8202 
 6715000    223.82352   -9234.9234   -8381.6061   -9234.9234            0    8057.2471    24.925318    24.982062    22.887688    14251.839    7904.8998    7693.5061    8573.3353    281.58106    330.80761    1000.6024   -6706.9197 
 6716000    226.56659    -9258.766   -8394.9908    -9258.766            0    6847.6222    24.961575    25.034123    22.904362    14312.733    6263.3376    6651.9804    7627.5485    138.37552    737.48486    542.70758   -6965.6419 
 6717000    235.25711   -9235.6017   -8338.6943   -9235.6017            0     7800.018    24.883084    24.943366     22.97572    14260.291    7870.2624    7553.1338    7976.6578    12.102687   -274.38004   -170.76291   -6716.5112 
 6718000    228.19829   -9224.5842   -8354.5882   -9224.5842            0    9804.1547    24.854885    24.800789     23.04424    14204.947    10293.485    10083.717    9035.2621   -160.72391    -158.4045    1067.1421   -6323.5145 
 6719000    231.23248   -9279.7901   -8398.2264   -9279.7901            0    7948.3202    24.881245    24.824307    23.080981    14256.191    8636.4051    7808.4522    7400.1033   -164.77705   -826.91435    265.77114   -6745.6758 
 6720000    225.05662   -9236.2291   -8378.2106   -9236.2291            0    8015.7139     24.85347    24.918961    23.064952    14284.647    8150.4984    9104.7302    6791.9131   -126.40044    659.32676    382.68075   -6708.3216 
 6721000    227.42753   -9235.5209   -8368.4635   -9235.5209            0      8653.37    24.831951    25.010286    22.927469    14239.201    8170.1499    8210.7785    9579.1815     383.2343   -187.19627    777.67679   -6571.4689 
 6722000    232.74289   -9279.7214   -8392.3994   -9279.7214            0    8537.2757    24.836405    25.020582    22.881358    14218.964    8613.8694    7399.5148    9598.4428   -243.46271    383.71291    -58.48725   -6622.0331 
 6723000    231.36452   -9250.5966   -8368.5296   -9250.5966            0    8714.9148    24.971057    24.882966    22.908848    14234.504    8259.2559    9038.5681    8846.9206    854.90498   -397.14277   -856.32833   -6559.3513 
 6724000    240.38423   -9215.8163    -8299.362   -9215.8163            0    8853.5573    25.001104    24.786382     22.94281    14217.359    8636.6629    9867.3972    8056.6117   -233.48287    792.94053   -56.854314   -6463.6159 
 6725000    228.79665   -9259.2829   -8387.0057   -9259.2829            0    7976.1742    24.912329    24.917757    22.983261    14267.074    8969.4324    7810.4665    7148.6237    90.875218   -133.27832   -24.453492    -6727.398 
 6726000    229.79205   -9240.9559   -8364.8838   -9240.9559            0    8717.5359    24.901231    24.872093    22.993612    14240.995    7617.2766    10035.978    8499.3531   -412.38145    -520.1478    865.50384   -6554.3361 
 6727000    232.72434   -9233.7925   -8346.5412   -9233.7925            0    7501.9246    24.874495    25.017521    22.970022    14294.204    8528.5441    6713.0463    7264.1833   -145.85321   -747.57115   -218.54043   -6782.6427 
 6728000    230.20475   -9202.5303   -8324.8848   -9202.5303            0    8894.1594    24.787757    25.021289    22.969864    14246.407    10073.309    7231.8459     9377.323   -531.46135    107.95527    690.50692   -6476.9521 
 6729000     227.6998   -9245.1999   -8377.1044   -9245.1999            0    9253.2969    24.782909    24.963378    22.982552    14218.503    9644.7774    8689.0201    9426.0931   -621.11513   -380.91061   -21.653032   -6458.3196 
 6730000    233.96435   -9250.7542   -8358.7754   -9250.7542            0    8204.4255    24.878434    25.039287    22.887299    14257.374    8011.8311    8054.2566    8547.1888   -505.74398    957.56126   -463.14368   -6652.8359 
 6731000    228.53029   -9198.2921   -8327.0304   -9198.2921            0    8905.7266    24.955472    24.926403    22.935898    14267.279    8967.9848    8383.5989    9365.5962    302.50599   -533.22094    799.65163   -6473.9836 
 6732000    233.21122   -9239.7782   -8350.6707   -9239.7782            0     8335.399    24.949969    24.858533    22.989722    14258.677    7414.4318    8384.3136    9207.4516   -310.48054     264.2585   -984.18964   -6617.3396 
 6733000    242.42437   -9255.7115   -8331.4792   -9255.7115            0    7939.1731    25.001753    24.863982     22.94929    14266.268    6439.3355    8762.8359    8615.3478    6.9538714   -398.45086    739.21455   -6679.6637 
 6734000    234.61886   -9237.3654   -8342.8913   -9237.3654            0    8463.6038    24.959418    24.958336    22.909901    14271.621    8439.6647    8541.5231    8409.6237    180.65987   -113.86746    753.79174   -6581.3027 
 6735000    223.35616   -9243.2559   -8391.7203   -9243.2559            0    7809.9752    24.946377    24.926965    22.949222    14270.686    7819.3168     7576.965    8033.6439   -349.65907   -1074.1728    841.36134   -6766.2823 
 6736000    236.33012   -9249.8447   -8348.8465   -9249.8447            0    8693.2083    24.897994    24.888187    22.970278    14233.898    8761.5467    8456.6989    8861.3792    403.47784    541.49066    931.39355   -6544.2512 
 6737000    227.85774   -9252.2419   -8383.5442   -9252.2419            0    7703.9316     24.89169    25.027354    22.981147    14316.638    7437.1051    7532.6897    8142.0001   -193.60263    75.969371   -209.35481   -6775.0136 
 6738000    237.34253    -9203.386   -8298.5281    -9203.386            0    8554.2992    24.799879    25.134968    22.896386    14272.329    10057.767    7386.0538     8219.077   -666.42159   -896.33873    -222.2985    -6517.974 
 6739000    243.48261   -9282.9014   -8354.6346   -9282.9014            0    8365.5578    24.881755     24.99968     22.87599    14229.687    8217.0967    7634.0947    9245.4822     169.4843   -182.56582    623.76525   -6618.5689 
 6740000    234.11007   -9218.2611   -8325.7267   -9218.2611            0    8172.6514    24.987969    25.062576    22.775673    14263.558    9089.8184    6526.0338     8902.102    130.02023   -3.6402271    426.20211   -6625.6569 
 6741000    234.04973    -9227.975   -8335.6707    -9227.975            0    8744.5629    24.888888    24.915307     22.93624     14223.09    9326.1812    8655.9628    8251.5448     72.53625    161.72598   -129.06533   -6521.7932 
 6742000    227.51486   -9195.4198   -8328.0294   -9195.4198            0    9980.4136    24.874607    24.837349    22.979945    14197.453    9801.3834    10639.721     9500.137    743.88481    491.75721   -565.75142   -6261.5319 
 6743000    226.46301   -9234.2787   -8370.8984   -9234.2787            0      8457.13    24.921866    24.885325    23.002575    14265.938    7502.0523    9046.6263    8822.7115    636.58425   -1648.4296   -80.888792   -6611.3581 
 6744000       232.42   -9268.0987   -8382.0077   -9268.0987            0    7813.3555    24.849545    24.836267    23.098761    14255.861    8680.3865     8282.462     6477.218    39.293683    -1204.168   -293.99769   -6757.5555 
 6745000    232.05999   -9233.3519   -8348.6334   -9233.3519            0    9347.8849    24.906341    24.927299    22.899668    14217.209     8800.166    9333.1435    9910.3453     729.7909   -632.77652    196.78779    -6410.411 
 6746000    225.61665    -9233.597   -8373.4435    -9233.597            0    9185.2407    24.934999     24.90184    22.864657    14197.291    7899.4184    9364.9125    10291.391    184.21019   -104.02846    664.26837   -6471.6125 
 6747000    236.67581   -9234.8548   -8332.5386   -9234.8548            0    8267.7796    24.970696     24.96804     22.89084    14271.737    7116.0842    9448.5179    8238.7367   -493.47345    -153.3801   -505.80927   -6611.6942 
 6748000     226.7621   -9265.2824   -8400.7618   -9265.2824            0    7545.8824    24.905239    25.019962    22.916847    14280.132    7579.1497    7564.7044    7493.7932   -543.21752   -964.33948    363.95169   -6829.2482 
 6749000    225.84292     -9271.13   -8410.1138     -9271.13            0    9586.4256    24.793151    24.856058    22.943307    14139.042    10592.224    9784.5192    8382.5331   -412.51039   -269.73153    -250.8578     -6433.36 
 6750000       242.02   -9254.0875   -8331.3969   -9254.0875            0    10166.636    24.869831    24.853447    22.921245    14167.645    9392.8051    11315.207    9791.8967   -140.95315   -346.75511    281.30308   -6230.7607 
Loop time of 524.481 on 64 procs for 250000 steps with 1920 atoms

Performance: 82.367 ns/day, 0.291 hours/ns, 476.662 timesteps/s
194.2% CPU use with 32 MPI tasks x 2 OpenMP threads

MPI task timing breakdown:
Section |  min time  |  avg time  |  max time  |%varavg| %total
---------------------------------------------------------------
Pair    | 72.114     | 74.338     | 76.161     |  10.6 | 14.17
Bond    | 0.82765    | 0.95485    | 1.3568     |   9.0 |  0.18
Kspace  | 241.29     | 245.33     | 250.3      |  14.3 | 46.78
Neigh   | 3.6804     | 3.8545     | 4.0905     |   5.7 |  0.73
Comm    | 80.786     | 85.775     | 90.247     |  21.9 | 16.35
Output  | 0.69185    | 0.69222    | 0.694      |   0.0 |  0.13
Modify  | 88.024     | 93.88      | 97.81      |  29.3 | 17.90
Other   |            | 19.66      |            |       |  3.75

Nlocal:        60.0000 ave          64 max          56 min
Histogram: 2 0 5 6 0 5 8 3 2 1
Nghost:        3431.94 ave        3473 max        3399 min
Histogram: 2 4 3 4 7 1 8 2 0 1
Neighs:        21452.9 ave       22627 max       19876 min
Histogram: 1 2 0 4 7 3 2 7 3 3

Total # of neighbors = 686493
Ave neighs/atom = 357.54844
Ave special neighs/atom = 2.0000000
Neighbor list builds = 7598
Dangerous builds = 0

unfix		3
unfix		2
unfix		1

write_data	data.final.${pid}
write_data	data.final.0
System init for write_data ...
PPPM initialization ...
  extracting TIP4P info from pair style
  using 12-bit tables for long-range coulomb (../kspace.cpp:340)
  G vector (1/distance) = 0.37468894
  grid = 30 30 30
  stencil order = 5
  estimated absolute RMS force accuracy = 0.0032436167
  estimated relative force accuracy = 9.7680552e-06
  using double precision FFTW3
  3d grid and FFT values/proc = 5400 960
Last active /omp style is kspace_style pppm/tip4p/omp
WARNING: Not all mixed pair coeffs generated from mixing. Use write_data with 'pair ij' option to store all pair coeffs. (../write_data.cpp:312)

write_restart   restart.lmp.${pid}
write_restart   restart.lmp.0
System init for write_restart ...
PPPM initialization ...
  extracting TIP4P info from pair style
  using 12-bit tables for long-range coulomb (../kspace.cpp:340)
  G vector (1/distance) = 0.37468894
  grid = 30 30 30
  stencil order = 5
  estimated absolute RMS force accuracy = 0.0032436167
  estimated relative force accuracy = 9.7680552e-06
  using double precision FFTW3
  3d grid and FFT values/proc = 5400 960
Last active /omp style is kspace_style pppm/tip4p/omp
Total wall time: 0:08:44
