LAMMPS (30 Jul 2021)
  using 1 OpenMP thread(s) per MPI task
package omp 0
using multi-threaded neighbor list subroutines
echo both

include		in.partitions
variable        pid world 0
include		in.temp
variable        temperature equal 265.29
variable	tempDamp equal 100.0
include		in.pressure
variable        pressure equal 9125.0
variable        pressureDamp equal 1000.0 # This is 1 ps
include		in.seed
variable        seed world 745823

units		real
atom_style	full
read_restart	restart.lmp.${pid}
read_restart	restart.lmp.0
Reading restart file ...
  restart file = 30 Jul 2021, LAMMPS = 30 Jul 2021
  restoring atom style full from restart
  orthogonal box = (0.64855424 1.8554425 0.79123466) to (17.559018 21.773735 21.421961)
  4 by 4 by 4 MPI processor grid
  restoring pair style lj/cut/tip4p/long/omp from restart
  restoring bond style harmonic/omp from restart
  restoring angle style harmonic/omp from restart
  864 atoms
  576 bonds
  288 angles
Finding 1-2 1-3 1-4 neighbors ...
  special bond factors lj:    0        0        0       
  special bond factors coul:  0        0        0       
     2 = max # of 1-2 neighbors
     1 = max # of 1-3 neighbors
     1 = max # of 1-4 neighbors
     2 = max # of special neighbors
  special bonds CPU = 0.091 seconds
  read_restart CPU = 0.281 seconds
include 	in.setup
variable	out_freq equal 1000
variable	out_freq2 equal 10000
variable	out_freq3 equal 1000

timestep	2.0

neigh_modify    delay 7 every 1

include		in.tip4p
# This is TIP4P/Ice

# create groups ###
group ox type 2
288 atoms in group ox
group hy type 1
576 atoms in group hy

# set charges - beside manually ###
set group ox charge -1.1794
Setting atom values ...
  288 settings made for charge
set group hy charge 0.5897
Setting atom values ...
  576 settings made for charge

# ### TIP3P Potential Parameters ###
pair_style lj/cut/tip4p/long/omp 2 1 1 1 0.1577 8.5
pair_coeff 1 1*2 0.000 0.000
pair_coeff 2 2 0.21084 3.1668
bond_style  harmonic
bond_coeff  1 450 0.9572
angle_style harmonic
angle_coeff 1 55 104.52
kspace_style pppm/tip4p/omp 1.0e-5
pair_modify tail yes

thermo          ${out_freq}
thermo          1000
thermo_style    custom step temp pe etotal epair emol press lx ly lz vol pxx pyy pzz pxy pxz pyz enthalpy

restart 	${out_freq3} restart.lmp.${pid} restart2.lmp.${pid}
restart 	1000 restart.lmp.${pid} restart2.lmp.${pid}
restart 	1000 restart.lmp.0 restart2.lmp.${pid}
restart 	1000 restart.lmp.0 restart2.lmp.0


include         in.dump
dump            myDump all atom ${out_freq2} dump.water.${pid}
dump            myDump all atom 10000 dump.water.${pid}
dump            myDump all atom 10000 dump.water.0
dump            myDump2 all dcd ${out_freq2} dump.dcd
dump            myDump2 all dcd 10000 dump.dcd
dump_modify     myDump append yes
dump_modify     myDump2 append yes


variable natoms 	equal  "count(all)"                        # NUMBER ATOMS
variable H      	equal  "enthalpy/v_natoms"                 # ENTHALPY-per-atom
variable Vol      	equal  "vol/v_natoms"                 # volume-per-atom
fix AVG all 		ave/time ${out_freq} 1 ${out_freq} v_Vol v_H file vol_enthalpy.dat
fix AVG all 		ave/time 1000 1 ${out_freq} v_Vol v_H file vol_enthalpy.dat
fix AVG all 		ave/time 1000 1 1000 v_Vol v_H file vol_enthalpy.dat


timer           timeout 23:50:00 every 1000
New timer settings: style=normal  mode=nosync  timeout=23:50:00

fix 		1 all shake 1e-6 200 0 b 1 a 1
       0 = # of size 2 clusters
       0 = # of size 3 clusters
       0 = # of size 4 clusters
     288 = # of frozen angles
  find clusters CPU = 0.168 seconds
fix             2 all nph iso ${pressure} ${pressure} ${pressureDamp}
fix             2 all nph iso 9125 ${pressure} ${pressureDamp}
fix             2 all nph iso 9125 9125 ${pressureDamp}
fix             2 all nph iso 9125 9125 1000
fix             3 all temp/csvr ${temperature} ${temperature} ${tempDamp} ${seed}
fix             3 all temp/csvr 265.29 ${temperature} ${tempDamp} ${seed}
fix             3 all temp/csvr 265.29 265.29 ${tempDamp} ${seed}
fix             3 all temp/csvr 265.29 265.29 100 ${seed}
fix             3 all temp/csvr 265.29 265.29 100 745823

run             250000
PPPM initialization ...
  extracting TIP4P info from pair style
  using 12-bit tables for long-range coulomb (../kspace.cpp:340)
  G vector (1/distance) = 0.37457543
  grid = 24 24 24
  stencil order = 5
  estimated absolute RMS force accuracy = 0.0031253797
  estimated relative force accuracy = 9.4119882e-06
  using double precision FFTW3
  3d grid and FFT values/proc = 2535 216
Last active /omp style is kspace_style pppm/tip4p/omp
Neighbor list info ...
  update every 1 steps, delay 7 steps, check yes
  max neighbors/atom: 2000, page size: 100000
  master list distance cutoff = 10.8154
  ghost atom cutoff = 10.8154
  binsize = 5.4077, bins = 4 4 4
  1 neighbor lists, perpetual/occasional/extra = 1 0 0
  (1) pair lj/cut/tip4p/long/omp, perpetual
      attributes: half, newton on, omp
      pair build: half/bin/newton/omp
      stencil: half/bin/3d
      bin: standard
Per MPI rank memory allocation (min/avg/max) = 9.237 | 9.240 | 9.242 Mbytes
Step Temp PotEng TotEng E_pair E_mol Press Lx Ly Lz Volume Pxx Pyy Pzz Pxy Pxz Pyz Enthalpy 
 8750000    272.17714    -3828.316   -3361.8137    -3828.316            0    10130.579    16.910464    19.918293    20.630726    6948.9975    8930.8529    11048.866    10412.018   -608.44812   -2251.7217   -63.524292   -2335.1403 
 8751000    269.46265   -3856.6184   -3394.7686   -3856.6184            0    8715.0961    16.901703    19.907973    20.620038    6938.2023    10731.954    6453.2714    8960.0624    980.94325   -91.362054    964.47997    -2512.918 
 8752000     265.4956   -3850.6018   -3395.5514   -3850.6018            0    9847.7191    16.927653     19.93854    20.651697    6970.2099    9834.1834    9483.5437     10225.43    118.17958   -291.57583    858.81112   -2394.4977 
 8753000    266.23301   -3850.8547   -3394.5405   -3850.8547            0    9357.3422    16.956339    19.972328    20.686694    7005.7054    10720.345    7888.7336    9462.9482   -2680.3373    1695.6209   -386.06617   -2438.4912 
 8754000    258.63181   -3872.2395   -3428.9535   -3872.2395            0    11464.477    16.863564    19.863051    20.573509    6891.3405    13606.775    11148.003     9638.653     195.6636    291.17662    1308.2446   -2276.7376 
 8755000    261.92976   -3843.6559   -3394.7173   -3843.6559            0    9194.7074    17.063972    20.099105    20.818006    7139.9631    9978.4913    7616.0451    9989.5859      2891.82   -100.93202   -67.020364   -2437.2812 
 8756000    260.30214    -3846.324   -3400.1751    -3846.324            0    8241.5727    17.001289    20.025273    20.741533    7061.5683    7372.9189     8504.133     8847.666    -1347.004   -1748.3512   -1144.2534   -2551.4107 
 8757000    267.99104   -3870.9982   -3411.6707   -3870.9982            0    7648.4661    17.000249    20.024048    20.740265    7060.2726    8148.2157    7389.3106     7407.872    872.82237    770.68714    30.075903   -2624.1323 
 8758000    271.48787   -3849.0738   -3383.7529   -3849.0738            0    9400.2669    16.917433    19.926501    20.639228     6957.592    8709.2708    10879.564    8611.9658    407.79527    291.02418   -2246.1684   -2429.9139 
 8759000    282.55219   -3842.7485   -3358.4637   -3842.7485            0    8854.9089    16.869374    19.869894    20.580597    6898.4652    8890.9507    9174.8262    8498.9499    168.16149    1334.7422    -33.07206   -2467.5975 
 8760000    273.83661    -3860.705   -3391.3584    -3860.705            0    8325.0125    16.898388    19.904069    20.615994    6934.1212    9732.9005     7263.688    7978.4491   -213.96903   -949.62825   -1183.8308   -2549.4745 
 8761000    257.15756   -3836.2303    -3395.471   -3836.2303            0    10622.038    16.892055    19.896609    20.608268    6926.3279    9590.8605    11298.602    10976.652   -300.15289   -89.090171   -203.09527    -2322.503 
 8762000    280.35679    -3839.669    -3359.147    -3839.669            0    9606.5313    16.927023    19.937798    20.650929    6969.4319    10463.472    8577.8827    9778.2395    -436.8603     467.7683   -286.76727   -2382.7198 
 8763000    280.07021   -3821.6724   -3341.6416   -3821.6724            0    11951.823      16.8436    19.839536    20.549153    6866.8942    15226.424    10111.324     10517.72   -1203.7115    135.37898   -204.80394   -2144.7071 
 8764000    252.70777   -3874.7689   -3441.6364   -3874.7689            0    8497.0122    16.964143     19.98152    20.696215    7015.3832    8764.3221    6513.0636    10213.651    387.55752    916.50492   -77.051174   -2572.2887 
 8765000    262.16467   -3858.0137   -3408.6724   -3858.0137            0    7283.8145    16.977876    19.997695    20.712969    7032.4336    6671.2835    7257.0827    7923.0773   -520.47341   -433.89559    -1098.131   -2661.6383 
 8766000    263.62915   -3849.0596   -3397.2083   -3849.0596            0     10450.79    16.969934    19.988341     20.70328    7022.5696    11680.394    8670.1482    11001.829   -1484.5689   -371.37274    817.67909     -2326.87 
 8767000      276.873    -3851.975   -3377.4242    -3851.975            0    11310.863    16.954858    19.970584    20.684888    7003.8701    14478.764    8551.9571    10901.869    372.40917   -594.28552    2010.9046   -2222.0844 
 8768000     258.4314   -3853.8407   -3410.8981   -3853.8407            0    10377.773    16.895655    19.900849    20.612659    6930.7568    8580.2064    11676.082    10877.032    2790.8527   -203.99409    1999.3225   -2361.9338 
 8769000    264.78068   -3862.1159   -3408.2908   -3862.1159            0    9977.2356    16.974915    19.994208    20.709357    7028.7554    10702.196    10712.415    8517.0966    916.21416    840.82767    203.23464   -2385.5525 
 8770000    257.24609   -3851.5814   -3410.6704   -3851.5814            0    10835.138    16.897438     19.90295    20.614835    6932.9514    11619.607    11630.592    9255.2149     2268.473   -341.06989    204.79938   -2315.1298 
 8771000    260.69125   -3850.8114   -3403.9955   -3850.8114            0    9968.9302    16.922919    19.932963    20.645921    6964.3627    9598.2263     9445.277    10863.287    1710.6293    1644.8986   -457.06951   -2391.4704 
 8772000    272.07302   -3842.5108    -3376.187   -3842.5108            0    10339.402    16.931589    19.943175    20.656499    6975.0723    11494.282    8100.1852    11423.738   -929.70087    -1089.144   -10.342579   -2324.4188 
 8773000    258.34515   -3855.1489   -3412.3541   -3855.1489            0    10788.706    16.919007    19.928356    20.641149     6959.535    10307.403    10253.397    11805.318      247.606     158.5614   -641.00408   -2317.3255 
 8774000    275.16245   -3801.5579   -3329.9389   -3801.5579            0    7534.1739    17.018506    20.045552    20.762538    7083.0433    5483.6596     8116.334    9002.5281   -625.93367    595.73067    270.04787   -2551.6669 
 8775000    267.89856   -3822.3029    -3363.134   -3822.3029            0    9840.6611    16.903866    19.910522    20.622677    6940.8671    9869.7074      10378.7    9273.5759     850.0407   -338.67688    806.80164   -2367.0089 
 8776000     280.5198    -3812.801   -3331.9996    -3812.801            0    9479.5984    16.940359    19.953506    20.667199    6985.9172    9131.4677    9294.5061    10012.822   -917.05585   -711.91802    -530.6193    -2366.195 
 8777000    257.19444   -3805.0223   -3364.1998   -3805.0223            0    9247.7492     16.93159    19.943176      20.6565    6975.0739    9528.1841    10116.729    8098.3343   -1368.9623    156.58116    1043.4419    -2423.479 
 8778000      265.377   -3876.5602   -3421.7131   -3876.5602            0    9255.0697    16.902616    19.909049    20.621152    6939.3276     7278.713     9404.505    11081.991    1203.8107   -1943.4528    984.01898   -2485.0725 
 8779000    254.80779    -3883.866   -3447.1341    -3883.866            0    8387.5152    16.960009     19.97665    20.691171    7010.2547    10398.179    7280.0507    7484.3161    448.04341   -967.30743    496.62926   -2589.6166 
 8780000    262.85921   -3818.4757    -3367.944   -3818.4757            0    8577.8462    16.898672    19.904404     20.61634    6934.4708    6814.2257    10954.501    7964.8117    1772.3179    1939.6306    296.91434    -2500.448 
 8781000    279.58992   -3832.0163   -3352.8087   -3832.0163            0    8872.1008    16.847393    19.844004    20.553781    6871.5347    8126.6901    9720.0166    8769.5957    348.77086   -536.49534   -640.38366   -2463.6975 
 8782000    268.86128   -3857.6817   -3396.8627   -3857.6817            0    8478.1877    16.902239    19.908604    20.620692    6938.8624    9141.2157    9316.5874    6976.7599    1387.9986    131.72113    865.60555   -2538.9024 
 8783000    281.46882   -3869.4507   -3387.0228   -3869.4507            0    8572.2789    16.926541    19.937229     20.65034    6968.8357    9336.2662    7528.2743    8852.2962    -270.7532    844.07147   -1750.8867   -2515.7936 
 8784000     269.6537   -3905.9665   -3443.7893   -3905.9665            0    8674.7632    16.885796    19.889237    20.600632    6918.6315    7452.8268    9514.9743    9056.4886    911.29371    76.492521    748.61664   -2568.4957 
 8785000    248.31221   -3884.5849   -3458.9863   -3884.5849            0    7983.3127    16.903489    19.910077    20.622217     6940.402    7684.4757    8583.7228    7681.7397    606.04623   -404.03415   -188.42283   -2650.9262 
 8786000    253.04164   -3890.2095   -3456.5048   -3890.2095            0    8911.3669     16.94667    19.960939    20.674898    6993.7275     8461.109    9195.8819    9077.1098   -26.839384   -799.78272   -713.79933   -2547.5779 
 8787000    261.73899   -3862.5837    -3413.972   -3862.5837            0    9586.2601    16.872638    19.873739    20.584579    6902.4701    9482.2171    8992.6762    10283.887    942.63871   -482.52351   -1714.5494   -2448.9669 
 8788000    272.92224   -3898.9473   -3431.1679   -3898.9473            0    6784.2838    16.963921    19.981258    20.695944    7015.1069    5488.1803    6789.2008    8075.4702   -1051.7724   -110.74599    -1310.195   -2737.0805 
 8789000    256.50113   -3840.5414   -3400.9073   -3840.5414            0    7634.7867    16.894425    19.899401    20.611158    6929.2431    7412.6352    7110.0687    8381.6561    549.59422   -556.50728    273.00803    -2629.367 
 8790000    257.19612   -3857.3468   -3416.5215   -3857.3468            0    7000.4162    16.894901    19.899962     20.61174    6929.8297    5050.8839    8268.7439    7681.6208   -222.84064    349.00272   -946.49125   -2709.0282 
 8791000    253.55205   -3844.8525   -3410.2729   -3844.8525            0    7968.4812    16.947981    19.962483    20.676497    6995.3506    8351.3754    7106.4306    8447.6376    1800.6572   -482.04588   -943.67201   -2597.3284 
 8792000    259.40327   -3860.2142   -3415.6059   -3860.2142            0    9272.4243    17.056831    20.090694    20.809295    7131.0038    8684.8145    12271.057    6861.4016    659.24406   -224.70039    293.67414   -2451.2888 
 8793000     269.8641   -3855.6205   -3393.0827   -3855.6205            0    8798.1941    16.993049    20.015567     20.73148    7051.3055    6881.5533    9050.4093     10462.62     556.3119    1249.4116    1871.8345   -2488.3111 
 8794000    270.74145   -3886.3595   -3422.3179   -3886.3595            0    10134.997    16.884463    19.887667    20.599005    6916.9928    9390.4408    11654.534    9360.0158   -1288.4867   -320.55352   -660.15067   -2399.9273 
 8795000    251.51255   -3917.7023   -3486.6184   -3917.7023            0    7585.1943    16.920818    19.930489    20.643359    6961.7701    6942.5968    6683.2196    9129.7666     1243.273    1304.5703   -702.36127   -2716.4915 
 8796000    281.19708   -3880.3196   -3398.3575   -3880.3196            0    9312.0186    16.894993    19.900071    20.611853    6929.9432    8387.0882    8531.6848    11017.283    750.96558     1673.438   -416.12309   -2457.2279 
 8797000    271.49234   -3887.9096    -3422.581   -3887.9096            0    10032.747    16.861786    19.860957     20.57134     6889.161    8380.5696    10486.224    11231.447   -684.23744    929.36935    739.63604   -2414.5774 
 8798000    274.83122   -3878.7095   -3407.6582   -3878.7095            0    10692.648    16.910834    19.918729    20.631178    6949.4542    10631.266    9590.5875    11856.091   -1160.0737    435.44251   -319.63957   -2323.9512 
 8799000    274.92453    -3862.102   -3390.8908    -3862.102            0    10504.237    16.918387    19.927625    20.640392    6958.7691    9478.2472    11968.897    10065.567   -350.71005    368.85918   -613.50483   -2324.8524 
 8800000    264.07049   -3839.0658    -3386.458   -3839.0658            0    9017.4436    16.880436    19.882924    20.594093    6912.0452     6844.098    9395.0644    10813.168   -476.27178   -37.182111    132.68406   -2477.4538 
 8801000    269.71346   -3827.7813   -3365.5017   -3827.7813            0    7674.4166    17.016305    20.042959    20.759852    7080.2952    6434.5414    6949.8275    9638.8809    48.638064    649.83202   -1377.4081   -2573.0503 
 8802000     256.6813   -3830.9807   -3391.0377   -3830.9807            0    9707.4781    16.917617    19.926718    20.639453    6957.8191    10999.005    10994.182    7129.2476     626.3401    930.27487       149.37   -2405.9941 
 8803000    258.59356   -3866.4164   -3423.1958   -3866.4164            0    10659.521    16.922223    19.932143    20.645073     6963.504    9452.0751    9995.7541    12530.734   -75.829974    332.68557   -1662.9462   -2340.6622 
 8804000    271.91003   -3856.6206   -3390.5761   -3856.6206            0    8316.5468    16.975613     19.99503    20.710209    7029.6225    7955.9333    7837.9864    9155.7208    -1675.388    490.81075    557.05685   -2537.9651 
 8805000    269.91106   -3850.3397   -3387.7214   -3850.3397            0    10903.212    16.920689    19.930337    20.643201    6961.6106    11923.721    11005.107    9780.8103   -409.79425     276.9854   -816.64784   -2280.7405 
 8806000    275.88375   -3830.7878   -3357.9324   -3830.7878            0    7712.0179    16.946373    19.960589    20.674536    6993.3602    9603.0495     8539.398    4993.6061    1759.2554    896.25759   -1029.6006   -2571.3761 
 8807000    254.31285   -3824.9608   -3389.0772   -3824.9608            0    10417.839    16.919032    19.928385     20.64118    6959.5659    9309.8433    10426.435    11517.239    1007.2975    138.78598    1066.8577    -2331.686 
 8808000    271.38021   -3838.5361   -3373.3997   -3838.5361            0    8621.8999    16.946636    19.960899    20.674857    6993.6857     8197.365    7345.0559    10323.279    -863.3597    458.98912   -599.67379   -2494.0027 
 8809000    276.15723   -3849.4579   -3376.1339   -3849.4579            0    9575.1944    16.955478    19.971314    20.685644    7004.6382    8750.4125    10110.486    9864.6852    244.15848   -162.25919    55.953024   -2397.9754 
 8810000    259.45381   -3875.8359    -3431.141   -3875.8359            0    8467.0884    16.941784    19.955184    20.668937      6987.68    7717.1743      9527.43    8156.6611   -1142.5237    189.95408    116.31255   -2568.2757 
 8811000    265.08885   -3858.1857   -3403.8325   -3858.1857            0    7629.3872    17.010973    20.036679    20.753347    7073.6412    6748.6151    9359.0275     6780.519   -486.61116   -1270.9477   -215.75619   -2616.7712 
 8812000    265.55676   -3821.8245   -3366.6693   -3821.8245            0    8669.4861    16.972838    19.991761    20.706822    7026.1751    7418.1325    9220.2317    9370.0941   -751.18606   -660.89455    284.57079   -2478.3109 
 8813000    283.66692   -3838.9105   -3352.7151   -3838.9105            0    9105.6952    16.942669    19.956227    20.670017    6988.7757    9728.4382    8621.1526    8967.4948   -89.184673   -397.95205    11.493559   -2424.6251 
 8814000     256.3614   -3842.1901   -3402.7954   -3842.1901            0    9431.0774    16.990948    20.013093    20.728917    7048.6905    9460.9958    10274.638    8557.5987    -752.6592   -658.15847    905.28745   -2433.3003 
 8815000    266.99733   -3885.7701   -3428.1458   -3885.7701            0    10426.389    16.863427    19.862889    20.573341    6891.1718    9836.5072    10810.358    10632.301    218.28332    443.60708    1003.2804   -2380.2867 
 8816000    272.11785   -3849.6047    -3383.204   -3849.6047            0    7710.2829    16.959359    19.975885    20.690379    7009.4494    7025.4188    9548.0897    6557.3401   -54.315312   -846.02002    -544.8819   -2595.0155 
 8817000    258.32369   -3910.7477   -3467.9897   -3910.7477            0    9114.9565    16.940717    19.953927    20.667635    6986.3599    8676.1964    9762.8654    8905.8076   -32.239099   -939.65619    725.51777   -2539.2769 
 8818000    266.92449   -3888.3325   -3430.8331   -3888.3325            0    8961.2346    16.922891     19.93293    20.645887    6964.3285    8573.0047    9563.2351     8747.464    582.64658   -1456.9218    501.83599   -2520.6621 
 8819000    250.38315   -3903.4825   -3474.3344   -3903.4825            0    8477.5877    16.932829    19.944635    20.658011    6976.6048    8106.0939    7278.9486     10047.72   -953.08082   -1229.9745    920.93713   -2611.7684 
 8820000    249.72644   -3846.0317   -3418.0091   -3846.0317            0     7595.894    17.000053    20.023817    20.740025     7060.028    7740.7487    8178.6286    6868.3047   -1424.1843   -1662.3186    359.37598   -2635.9111 
 8821000    270.10793   -3871.2382   -3408.2825   -3871.2382            0    10201.805    16.876692    19.878515    20.589525    6907.4476    10513.592    9596.0429     10495.78   -962.37752    2336.5931    929.06112   -2380.5726 
 8822000    281.16968   -3840.4091   -3358.4939   -3840.4091            0    8860.2714    16.952373    19.967656    20.681856    7000.7909    10586.286    9650.2839    6344.2447   -91.698235    897.31232   -2407.0858   -2453.8659 
 8823000    253.43905   -3854.8431   -3420.4573   -3854.8431            0    10383.796    16.858227    19.856764    20.566997    6884.7988    11893.776    10077.111    9180.5009   -955.86221   -486.34184   -978.32103   -2377.8439 
 8824000    271.94443   -3865.0508   -3398.9474   -3865.0508            0    9987.7198      16.9347     19.94684    20.660295    6978.9189    10098.963    10668.774    9195.4217    101.56815    1535.3307   -233.44501   -2382.3935 
 8825000    271.49134   -3866.5563   -3401.2294   -3866.5563            0    11389.573    16.897729    19.903293     20.61519      6933.31    10356.231    12474.523    11337.964    -1483.743   -1533.7939    200.82989   -2249.5703 
 8826000    259.51628     -3875.37    -3430.568     -3875.37            0    7214.3792    17.025987    20.054363    20.771664    7092.3873    9572.0555    4461.5558    7609.5265   -1445.2766   -299.38568    460.67843   -2684.3472 
 8827000     273.3901   -3878.8685   -3410.2872   -3878.8685            0    10263.441    16.876229    19.877969     20.58896    6906.8785    9991.0299    9939.8215    10859.471    1073.8442    438.15954   -144.54636   -2376.4535 
 8828000    281.17931   -3863.1925   -3381.2607   -3863.1925            0    9706.2265    16.952019    19.967239    20.681423    7000.3515     8234.225    9865.3721    11019.083    886.50752    1040.6663    609.83969   -2390.3235 
 8829000    262.87664   -3866.4738   -3415.9122   -3866.4738            0    12003.164     16.90394    19.910608    20.622767    6940.9576    14226.527    9910.7506    11872.214    1303.0002    444.09201    -996.7575    -2200.871 
 8830000    265.58629   -3852.2871   -3397.0813   -3852.2871            0    8449.6727    16.988196    20.009851     20.72556    7045.2662    8703.6423     8637.485    8007.8909    836.77848   -115.07854    965.64475   -2528.8945 
 8831000    276.43308   -3889.0348    -3415.238   -3889.0348            0    10452.579    16.932436    19.944172    20.657532     6976.119    11602.228    10152.901     9602.608    1819.3784     159.0652     238.5681   -2351.7974 
 8832000    262.13085   -3894.6556   -3445.3723   -3894.6556            0    10492.762    16.873121    19.874307    20.585168    6903.0627    10955.074    10003.015    10520.197    -271.9045   -1349.6205    48.802337    -2389.023 
 8833000    260.65119   -3891.0752    -3444.328   -3891.0752            0    9783.0664    16.894701    19.899727    20.611496    6929.5837    8551.9857    8254.4173    12542.796    300.49879   -51.473686   -532.13031   -2455.6428 
 8834000    295.07933   -3881.1029    -3375.347   -3881.1029            0    9826.8052    16.935474    19.947751    20.661238    6979.8747    11354.052    9039.3623    9087.0012   -1041.0462   -727.48107    1017.8647   -2375.0341 
 8835000    261.80987   -3876.5592    -3427.826   -3876.5592            0    8523.8266     16.97856    19.998501    20.713804    7033.2844    6500.0202    10204.433    8867.0267    299.68127   -77.027777   -2527.8737   -2553.5095 
 8836000    262.90257   -3888.7268   -3438.1208   -3888.7268            0    6488.3137    16.994204    20.016928    20.732889    7052.7434    6768.9041    5323.8085    7372.2284   -423.59819   -1552.9753   -280.77956   -2770.7521 
 8837000    260.17844   -3882.6724   -3436.7355   -3882.6724            0    10347.896    16.892065    19.896621    20.608279    6926.3399    10854.044    12327.418    7862.2273    -222.3863   -129.09812   -1094.0127   -2391.4576 
 8838000    280.21335   -3847.7924   -3367.5163   -3847.7924            0    9489.7939    16.911331    19.919314    20.631784    6950.0662    8894.7099    8766.8432    10807.828    686.78551   -284.03319   -249.39928   -2405.6347 
 8839000    251.24039   -3859.2091   -3428.5917   -3859.2091            0    10482.815    16.915282    19.923968    20.636605    6954.9394    10719.118    9037.8714    11691.456   -33.344266   -823.17333   -904.29347   -2365.3128 
 8840000    261.27851   -3846.7168   -3398.8944   -3846.7168            0    7418.9488    16.933708    19.945672    20.659084    6977.6922    8393.1093    5730.4239    8133.3133    1846.4343    713.83423   -152.19067   -2643.9238 
 8841000     249.0942   -3857.3122   -3430.3733   -3857.3122            0    8919.2747    16.934778    19.946931    20.660389    6979.0143    7740.8375    10273.221    8743.7653   -218.43191   -1321.1566   -276.41585   -2522.5537 
 8842000    261.72481   -3814.1342   -3365.5469   -3814.1342            0    11310.083    16.839877    19.835151    20.544611    6862.3416    12548.427    10892.456    10489.367    170.40791    497.40376   -68.727215   -2233.6313 
 8843000    271.70246   -3861.2383   -3395.5496   -3861.2383            0    11369.968    16.826723    19.819657    20.528563    6846.2733    10735.517    11813.321    11561.066   -78.632512    721.55809    563.03565   -2260.3052 
 8844000    259.78409   -3844.6378   -3399.3768   -3844.6378            0    9966.1415    16.863953    19.863509    20.573983    6891.8168    10832.184    9799.2754    9266.9653    -1889.186    910.67482    125.98037   -2397.6791 
 8845000     266.1442   -3903.8585   -3447.6965   -3903.8585            0    7407.8918    16.911683    19.919728    20.632213    6950.5002    8419.4121    7278.0835    6526.1798    123.92951    461.47337   -818.29705   -2696.7887 
 8846000    268.12055   -3851.1485    -3391.599   -3851.1485            0    9247.2301     16.88844    19.892352    20.603858    6921.8825    9902.0564    8658.3484    9181.2855     1415.087    734.74295    361.34462   -2458.1045 
 8847000     272.1388    -3869.933   -3403.4964    -3869.933            0    6748.5879    16.961583    19.978504    20.693091    7012.2069     5510.988    7899.1762    6835.5994    937.19129   -256.01897   -1896.2381   -2713.3463 
 8848000    249.81161   -3876.1482   -3447.9797   -3876.1482            0    6139.7212    16.910021    19.917771    20.630186    6948.4514    6279.3523    5522.7249    6617.0865    876.79209   -2130.7905    21.543097   -2825.8046 
 8849000    270.38596   -3870.2702   -3406.8379   -3870.2702            0    6157.6239    16.944098    19.957909     20.67176    6990.5434    5248.6683    7407.9287    5816.2745    448.04769   -196.97555   -1020.6704   -2779.0687 
 8850000    273.34584   -3896.3315   -3427.8261   -3896.3315            0    7886.4295    16.910829    19.918723    20.631172    6949.4475     7990.166    7927.5583    7741.5643    132.40398   -660.15358   -337.34226    -2628.532 
 8851000    254.29855   -3878.4307   -3442.5717   -3878.4307            0    9379.6752    16.903358    19.909923    20.622058    6940.2414    10065.578     10280.82    7792.6284    321.77792    641.20029   -1106.7058   -2493.1957 
 8852000    270.04396   -3864.0366   -3401.1905   -3864.0366            0    8467.6039    16.959086    19.975563    20.690045    7009.1108    7185.5375    9815.8838    8401.3905   -589.52361   -2270.4599   -1841.4068   -2535.6262 
 8853000    266.18409   -3861.7423   -3405.5119   -3861.7423            0    9586.2071     16.96766    19.985662    20.700505    7019.7467     9376.123    11282.559     8099.939   -1318.0508    -1696.857    924.09449   -2424.1162 
 8854000    263.58886   -3870.5705   -3418.7882   -3870.5705            0    9634.5754    16.938219    19.950985    20.664588    6983.2698     9534.624    9504.9015    9864.2008   -1526.6443    700.67286    180.52369   -2437.5662 
 8855000    265.53079   -3849.4192   -3394.3085   -3849.4192            0    9269.5843     16.98781    20.009396    20.725088    7044.7853    10754.591    8294.7797    8759.3827    311.03688   -551.71254     1690.835   -2441.9424 
 8856000    250.09953    -3877.462      -3448.8    -3877.462            0    9226.6534    16.890854    19.895195    20.606803     6924.851    8751.6543    11119.672    7808.6341    346.61881    150.37322   -346.57435   -2516.9832 
 8857000        262.3   -3896.5356   -3446.9624   -3896.5356            0    7755.2865    16.944633    19.958539    20.672412    6991.2054    7293.3316    8082.7104    7889.8175   -397.26565   -1400.8975   -96.021951   -2656.2368 
 8858000    258.18161   -3855.8751   -3413.3606   -3855.8751            0    9272.1243    16.897533    19.903062     20.61495    6933.0683    8834.2092    8926.8873    10055.276   -808.99827     324.7247    280.25991   -2475.8405 
 8859000    261.29589   -3868.5239   -3420.6717   -3868.5239            0    6819.3665    17.001867    20.025953    20.742238    7062.2878    5724.9658    6136.4426    8596.6912    467.14041   -699.62225    1078.8932   -2718.3027 
 8860000     279.1658   -3869.4373   -3390.9567   -3869.4373            0    9454.0081    16.875959    19.877651    20.588631    6906.5475     8242.067    10737.425    9382.5321   -215.64358    781.13092   -496.73253   -2438.7025 
 8861000    263.82446    -3855.774   -3403.5879    -3855.774            0    8825.1636    16.930889    19.942351    20.655645     6974.208    7257.1093    10873.275    8345.1069    1190.9326   -2504.5083     600.4788   -2505.9658 
 8862000    265.57822   -3845.4516   -3390.2596   -3845.4516            0    9196.5893    16.946681    19.960952    20.674912    6993.7417    9026.3201    7874.1307    10689.317    420.75717    395.50865    504.85728   -2452.2392 
 8863000    259.09772   -3842.1238   -3398.0392   -3842.1238            0    8400.4348    16.883904    19.887008    20.598323    6916.3057    8895.3874    8060.9543    8244.9627    861.42914   -573.27802    793.42233   -2550.7107 
 8864000    283.21648   -3836.8052   -3351.3818   -3836.8052            0    9267.2783    16.940022    19.953108    20.666787    6985.4997    8842.8834    9742.1732    9216.7783    1575.7387    804.22791    164.98055   -2407.2654 
 8865000    271.76566   -3831.3715   -3365.5744   -3831.3715            0    10520.685    16.889827    19.893985    20.605549    6923.5871      10794.8    10512.443    10254.812    972.19437   -269.35301   -845.74833   -2303.2649 
 8866000     267.1037   -3870.3761   -3412.5695   -3870.3761            0    11624.553    16.879933    19.882331    20.593479    6911.4273    13888.432    9707.3938    11277.834    565.36395   -861.47995   -1091.9239   -2240.8601 
 8867000    248.20936   -3896.1116   -3470.6893   -3896.1116            0    8873.2598    16.977369    19.997099    20.712351    7031.8045    10109.831    8447.8053    8062.1429    1435.5139    2895.2356    936.65515   -2560.7218 
 8868000    267.90028   -3885.1467   -3425.9748   -3885.1467            0    7192.3105    16.954822    19.970541    20.684843    7003.8249    6350.1493    8622.2624    6604.5199   -444.32896   -220.15228   -974.95869   -2691.3263 
 8869000    268.83487   -3853.0432   -3392.2695   -3853.0432            0    8144.1139    16.942481    19.956004    20.669787    6988.5421    8379.4957    8869.8287    7183.0174   -613.75235   -1675.7908    395.79907   -2562.2155 
 8870000    258.97436   -3870.5744   -3426.7012   -3870.5744            0      8221.76    16.995763    20.018764    20.734791    7054.6846    7595.6531    9701.8368      7367.79   -982.82049   -1650.4065    487.14951   -2580.8027 
 8871000    269.28862    -3883.864   -3422.3125    -3883.864            0    7544.7733    16.980973    20.001343    20.716748    7036.2834    6911.0627    7615.6241    8107.6331    1643.1632   -995.25664    181.82399   -2648.0907 
 8872000    282.90467   -3842.7655   -3357.8765   -3842.7655            0    7153.6862    17.015959    20.042552     20.75943    7079.8633    7267.6196    6159.6154    8033.8235     553.7934    778.64184   -134.96083   -2619.2402 
 8873000    258.20545   -3868.6609   -3426.1056   -3868.6609            0    8111.6873     16.98552    20.006699    20.722295    7041.9374    6128.2632    6733.4255    11473.373    1518.6573    1117.4564    1155.2936   -2593.0399 
 8874000    266.09168   -3850.2739   -3394.2018   -3850.2739            0    8165.1124    17.033431    20.063132    20.780746    7101.6944    9386.9404    7197.4106    7910.9862    291.19315    336.07411    556.27418   -2548.5336 
 8875000    286.14518   -3813.5852   -3323.1422   -3813.5852            0    9252.8998    16.929354    19.940542    20.653772    6972.3106    10210.628    8292.1574    9255.9141    612.47271    396.14257   -971.83609   -2382.2703 
 8876000    265.35898   -3824.1626   -3369.3464   -3824.1626            0    9039.0725    17.018411     20.04544    20.762422    7082.9245    9232.6668     7745.122    10139.429   -144.17636    1338.2176   -70.923171   -2435.6356 
 8877000    264.79863   -3819.1707   -3365.3149   -3819.1707            0    11616.357    16.852466    19.849979    20.559969    6877.7437    11067.477    11545.356    12236.239    1185.4327   -694.69348     731.7794   -2200.1381 
 8878000    268.83406   -3850.1988   -3389.4264   -3850.1988            0    9820.1651    17.019141      20.0463    20.763313    7083.8363    7422.3205    10124.854    11913.321    666.29784    978.96331   -1099.2368   -2374.9004 
 8879000    280.68573   -3842.2398   -3361.1541   -3842.2398            0    7399.8158    16.979192    19.999245    20.714575    7034.0693    7133.2598    6050.4012    9015.7863    127.64543    35.565611   -882.66878   -2602.0463 
 8880000    254.57064   -3876.1967   -3439.8714   -3876.1967            0    9046.7553    16.896553    19.901907    20.613755    6931.8619    7829.5282    6467.3733    12843.364    377.20803    448.23756   -508.25926   -2525.2978 
 8881000    259.83482   -3878.1664   -3432.8184   -3878.1664            0    10363.057    16.852907    19.850499    20.560508    6878.2839    9826.2688     9510.821    11752.082    848.24289   -401.15029   -53.324547    -2393.272 
 8882000    267.41204   -3817.8218   -3359.4868   -3817.8218            0    8791.3803     16.92828    19.939278    20.652462    6970.9838    8882.2537    10997.047    6494.8403   -639.06418    48.895885   -2094.5456   -2465.7142 
 8883000    255.32651   -3865.7885   -3428.1676   -3865.7885            0    7450.4998    16.889711    19.893848    20.605408    6923.4446    6547.2796     8390.802    7413.4177   -832.11791    1312.6043     1272.637   -2675.8807 
 8884000    242.17577   -3866.5738   -3451.4928   -3866.5738            0     8238.715     16.95102    19.966062    20.680205    6999.1143    8302.7895    7523.0756    8890.2798   -69.601665    1005.1023    73.265791   -2610.5268 
 8885000    254.94455   -3872.4525   -3435.4862   -3872.4525            0    7650.6692    16.915974    19.924783    20.637449     6955.793    8137.6421    6238.8058    8575.5598    361.99485   -12.372059    727.11433   -2659.3786 
 8886000    259.98254   -3845.9515   -3400.3503   -3845.9515            0    8068.5388    16.914519    19.923069    20.635674    6953.9981    6609.3284    8544.6922     9051.596   -628.17987   -804.64949   -1150.2845   -2582.0639 
 8887000    263.63357   -3902.0928   -3450.2338   -3902.0928            0    8649.8161    16.966369    19.984142    20.698931    7018.1451    9098.5859    7010.0356    9840.8268    419.62052   -1164.8492     75.34736    -2564.904 
 8888000    269.00628   -3861.3547   -3400.2871   -3861.3547            0    8813.9691    16.932481    19.944226    20.657587    6976.1747    10006.221    9188.6799    7247.0067    82.032052     11.42595    608.40622   -2503.5508 
 8889000    252.59573   -3899.8656   -3466.9252   -3899.8656            0    8048.7944    16.890406    19.894667    20.606256    6924.2998    7442.8974    9992.2033    6711.2826   -536.81386   -318.39441    917.63784   -2654.1273 
 8890000     257.4396   -3843.2432   -3402.0005   -3843.2432            0    9619.7246    16.930381    19.941753    20.655026    6973.5802    8484.9803    9013.1591    11361.034   -1302.7072    389.42996    1343.7562   -2423.6503 
 8891000    260.11781   -3873.5662   -3427.7331   -3873.5662            0     9091.657    16.938722    19.951577    20.665201    6983.8919    8488.5944    8638.4734    10147.903    1304.5651    46.938234   -380.90849   -2501.7215 
 8892000    257.27467    -3858.684    -3417.724    -3858.684            0    9121.1065    16.899884     19.90583    20.617818    6935.9623    6854.2133     10364.62    10144.486    318.83281   -318.61573    1315.6544   -2495.0886 
 8893000    267.28262   -3880.9421   -3422.8288   -3880.9421            0     9923.202    16.911313    19.919293    20.631763    6950.0449    8595.5293    9562.9479    11611.129    762.00505    705.62874   -791.24906   -2417.0203 
 8894000    255.67365   -3861.6408   -3423.4249   -3861.6408            0    8421.7854    16.925653    19.936184    20.649257    6967.7394     12019.81    6862.6381    6382.9083    298.97727   -702.93486    743.79935   -2567.6256 
 8895000    277.59274   -3878.1982   -3402.4137   -3878.1982            0    7431.4563    16.942367     19.95587    20.669648    6988.4014    9166.2987     6653.874    6474.1963   -765.06791    426.94466   -310.92074   -2645.0096 
 8896000    263.49984   -3863.2696   -3411.6399   -3863.2696            0    8854.7963    16.936679     19.94917    20.662709    6981.3649    10286.858    6266.6236    10010.907    1251.8939   -1326.0815   -1329.0929   -2510.0796 
 8897000    244.36608   -3853.0336   -3434.1985   -3853.0336            0     10901.06    16.881304    19.883946    20.595151    6913.1111    11334.179    9957.2198    11411.781    840.91627   -20.061162   -205.89744   -2335.1467 
 8898000    248.93554   -3860.5502   -3433.8832   -3860.5502            0    10372.397    16.872737    19.873856      20.5847    6902.5924    10191.767    8769.2113    12156.213   -772.86001     110.1736    876.05292   -2389.7227 
 8899000    278.02031   -3852.8092   -3376.2919   -3852.8092            0    7813.7146    16.980148    20.000371    20.715741    7035.2574    5890.8558    9481.2429     8069.045    1668.5057    331.38726   -198.92425   -2574.5891 
 8900000    257.64463   -3869.6817   -3428.0876   -3869.6817            0    7800.0914    16.942949    19.956556    20.670359     6989.122    6720.1004    7897.7817    8782.3922    888.91195    23.990876    926.38452   -2633.0307 
 8901000    263.45967   -3833.1602   -3381.5993   -3833.1602            0    7143.1066    16.995084    20.017964    20.733963    7053.8392    8050.1479    7853.4784    5525.6934    317.61293   -564.63731      319.541   -2646.7665 
 8902000     253.5385   -3875.6586   -3441.1023   -3875.6586            0    7856.1861    16.937372    19.949987    20.663554    6982.2224    9721.8675    7265.4583    6581.2326    19.887158    758.25734    558.44625   -2641.1183 
 8903000    268.58989   -3839.8415   -3379.4877   -3839.8415            0    9926.0579    16.944547    19.958439    20.672308       6991.1    8842.7941    10559.606    10375.773    1270.4321   -703.56331   -2616.9878   -2367.4464 
 8904000    253.32347   -3850.6229   -3416.4352   -3850.6229            0    10146.768    16.914119    19.922598    20.635186    6953.5043    8575.9684    10236.216    11628.119   -553.40506   -151.80514    402.21621   -2387.4542 
 8905000    266.51204   -3858.5888   -3401.7963   -3858.5888            0    7599.3119    17.017888    20.044824    20.761783    7082.2712    7323.4077    7716.7884    7757.7397    30.376247   -1905.5895   -1260.7326   -2616.8811 
 8906000    252.50309   -3895.5094   -3462.7277   -3895.5094            0    7540.3708    17.010804     20.03648    20.753141    7073.4307    6395.6152    8048.1398    8177.3574   -503.54756   -1613.5744   -114.59647   -2684.8726 
 8907000    251.72766   -3862.1519   -3430.6993   -3862.1519            0    10380.584    16.946946    19.961264    20.675235    6994.0697    11262.736    9740.9454     10138.07    541.04466    1121.6058    632.97894   -2371.8659 
 8908000    268.39968   -3888.7233   -3428.6955   -3888.7233            0     11176.57    16.921378    19.931148    20.644041    6962.4604    9539.7451    11996.976    11992.988    437.46927    96.939555    2328.5403   -2293.8227 
 8909000    255.80052   -3859.5274    -3421.094   -3859.5274            0    9059.9538    17.027346    20.055964    20.773322    7094.0858    7241.3368    9454.5537    10483.971    462.59685    461.42916   -41.213265   -2483.7516 
 8910000    277.52369   -3841.5536   -3365.8875   -3841.5536            0    11159.527    16.895589    19.900772    20.612579    6930.6758    10434.743    10593.373    12450.464   -893.20883    177.33227    440.67583   -2237.9183 
 8911000    253.01731    -3853.438    -3419.775    -3853.438            0    8200.6484    16.895745    19.900956     20.61277    6930.8685    6586.7921    8648.3844    9366.7688   -354.27021   -1732.6813   -1176.4806   -2590.8567 
 8912000    269.38289   -3893.0329   -3431.3199   -3893.0329            0    9571.2208    16.926159     19.93678    20.649875    6968.3646    9687.2457    8585.7525    10440.664   -38.078791    1422.2941    210.26565   -2458.6307 
 8913000     263.3535   -3861.3847   -3410.0059   -3861.3847            0    8422.7023    16.935305    19.947552    20.661033    6979.6664    8183.0698    7877.9832    9207.0538   -231.17748   -685.96682    1235.3887   -2552.6482 
 8914000    255.20634   -3874.0117   -3436.5968   -3874.0117            0    8725.4934    16.926159    19.936779    20.649874     6968.364    9641.1414    7565.7657    8969.5729   -323.50059   -2012.8082    1020.5736    -2549.856 
 8915000      259.282   -3871.6295    -3427.229   -3871.6295            0    10667.554    16.906456    19.913571    20.625836    6944.0572    13812.838    10338.616    7851.2075   -146.70671   -144.15393   -1008.9804    -2346.905 
 8916000    269.63931   -3892.8448   -3430.6922   -3892.8448            0    8619.9256    16.999878    20.023611    20.739812    7059.8103    9861.6944    8185.6233     7812.459   -1823.1273    730.81879    1517.6822   -2543.1839 
 8917000    262.06242   -3928.5695   -3479.4034   -3928.5695            0    7830.5439     16.96896    19.987193    20.702091    7021.3599    9196.3161    7336.1322    6959.1835   -365.23545   -474.43537    180.64867    -2677.561 
 8918000     279.1018   -3857.5431   -3379.1722   -3857.5431            0    9335.9485    16.962229    19.979265     20.69388    7013.0082    13019.059    6204.7312    8784.0549   -978.97411    496.99924    9.4359773   -2424.3144 
 8919000    269.33278   -3843.6363   -3382.0092   -3843.6363            0    9560.8153    16.988596    20.010322    20.726048    7045.7638    9521.1039    9937.1976    9224.1444    -65.48611   -2044.8155   -556.49563   -2399.5853 
 8920000    273.78368   -3842.2756   -3373.0198   -3842.2756            0    6693.5826    17.000227    20.024022    20.740237    7060.2449    6918.8272    7368.8342    5793.0863    1676.1024   -219.61592   -290.33484   -2683.8055 
 8921000    263.32721   -3836.1189   -3384.7851   -3836.1189            0    8756.4319    16.942685    19.956245    20.670036    6988.7952    8247.7181    8237.5667    9784.0108    1219.5218   -848.75605   -1288.7866    -2492.291 
 8922000    269.04649   -3832.9275   -3371.7911   -3832.9275            0    8113.6673    16.973731    19.992813    20.707912     7027.284    8743.1795    7227.0345    8370.7879    289.22658   -1899.0951    130.20157   -2540.2559 
 8923000     254.8762    -3832.801   -3395.9519    -3832.801            0     9734.242    16.964479    19.981915    20.696624    7015.7992    11013.655    8070.3817    10118.689    1129.3724    1230.4563    2838.6755   -2399.9615 
 8924000    256.21267   -3854.0758   -3414.9361   -3854.0758            0    8714.2934    17.008696    20.033998     20.75057    7070.8019    6849.2066    9863.8656    9429.8079   -582.71626   -443.70791   -2441.4463   -2516.3147 
 8925000    271.23029   -3848.6261   -3383.7467   -3848.6261            0    9088.7118    16.950433    19.965371    20.679488    6998.3869    8719.4884    8896.4749     9650.172    348.75126   -139.78102   -225.71538   -2456.1137 
 8926000    265.96443   -3876.6416   -3420.7877   -3876.6416            0    10596.244    16.904534    19.911308    20.623491    6941.6892    11363.755    10357.391    10067.585    504.12652   -2134.2126    29.957583   -2348.0513 
 8927000    267.27422   -3830.0234   -3371.9245   -3830.0234            0    9640.5531    16.951524    19.966656    20.680819    6999.7384    10763.071    9670.9298     8487.659    800.47559   -865.89869   -447.08061   -2387.7782 
 8928000    256.12748    -3835.448   -3396.4543    -3835.448            0    9621.8322    16.951699    19.966862    20.681033    6999.9552    8447.7897    12060.337    8357.3701    1513.1965   -1067.5721   -738.13101   -2414.1887 
 8929000    266.53196   -3886.9599   -3430.1332   -3886.9599            0    8239.2758    16.953817    19.969357    20.683617      7002.58    7331.1526    11472.337    5914.3377    1144.9356    1683.1834    1433.0397   -2588.6935 
 8930000    257.22199   -3848.7044   -3407.8347   -3848.7044            0    9114.0033    16.919683    19.929152    20.641974    6960.3691     9138.578    9989.8975    8213.5344    306.79889   -556.88398   -675.30964   -2482.6736 
 8931000    263.74516   -3834.1463   -3382.0961   -3834.1463            0     12362.07    16.842467    19.838201     20.54777    6865.5083    12742.887    12101.876    12241.446   -52.554253    263.34249    770.43745   -2144.3266 
 8932000    275.40385   -3838.3185   -3366.2858   -3838.3185            0    9090.8086    16.924326    19.934621    20.647638    6966.1006    8289.2611    10567.571    8415.5934    1585.6234    -377.3936    809.86232   -2442.7193 
 8933000     254.8778   -3866.0875   -3429.2356   -3866.0875            0    10765.386    16.888181    19.892046    20.603541    6921.5635    11404.413    10328.451    10563.293    671.51783    1376.8094   -803.92223   -2342.5356 
 8934000    266.30184   -3885.3897   -3428.9574   -3885.3897            0    9563.9738    16.907699    19.915036    20.627353    6945.5896    9126.1132    9348.4772    10217.331   -876.66187   -1099.8108    1086.2487   -2460.1814 
 8935000    263.67203   -3842.1342   -3390.2094   -3842.1342            0    9657.9311    16.948653    19.963275    20.677317     6996.183    8902.7039    9368.5518    10702.538   -595.39923    1050.6211    -1172.894   -2404.7899 
 8936000    280.06528   -3882.6923     -3402.67   -3882.6923            0     9002.546    16.957775    19.974019    20.688445    7007.4849    7894.7754    10607.291    8505.5715   -1526.0373    1030.4555    767.73722    -2482.637 
 8937000    280.74965   -3917.0987   -3435.9034   -3917.0987            0    8015.0503    16.893498    19.898309    20.610028    6928.1029    8234.2431    6973.3817    8837.5261   -1078.6749   -311.44709   -1372.5137   -2626.0685 
 8938000    280.16201   -3880.8517   -3400.6636   -3880.8517            0    8821.6283    16.926949     19.93771    20.650838    6969.3396    8618.6196    8089.4676    9756.7976   -281.99829    62.533882    706.73068   -2504.0273 
 8939000    255.17337   -3919.4362   -3482.0777   -3919.4362            0    8724.0795      16.9489    19.963566    20.677619    6996.4891    9975.2628    8635.6828    7561.2928   -454.92127    1299.7555   -396.21651   -2591.9022 
 8940000    272.48173   -3844.1429   -3377.1186   -3844.1429            0    8859.7032    16.954749    19.970455    20.684754    7003.7349    8113.7329    10670.245    7795.1315   -467.63707   -1357.2256    253.50827   -2472.1682 
 8941000    270.37016   -3895.7854   -3432.3802   -3895.7854            0    8315.5508    16.918781    19.928089    20.640873    6959.2554    9589.1879    8463.8447    6893.6199   -1049.9317   -416.59153    18.474082    -2588.405 
 8942000    255.15238   -3850.0595    -3412.737   -3850.0595            0    9321.1612    16.934762    19.946913     20.66037    6978.9949    8947.9368     9966.823    9048.7239   -413.80744    1.9943236   -245.85996   -2464.0154 
 8943000    268.64129   -3867.3051   -3406.8631   -3867.3051            0    10061.949    16.904007    19.910687    20.622849    6941.0402    8225.3115    10693.686    11266.851    1906.3555   -2661.9733    49.479523   -2388.3126 
 8944000    293.09887   -3907.7188   -3405.3573   -3907.7188            0    9397.3644    16.880066    19.882488    20.593641     6911.591    10383.255    9018.7522    8790.0858    1290.0316   -2112.8317   -1578.5958   -2458.1174 
 8945000    260.09246   -3868.3506    -3422.561   -3868.3506            0    9848.6908    16.906811     19.91399    20.626269    6944.4947    10847.912    8474.9436    10223.216   -724.88815    447.25682    229.00754    -2425.102 
 8946000    261.96274    -3838.393   -3389.3979    -3838.393            0    8647.2248    16.948791    19.963437    20.677486    6996.3539    9443.7547    7452.1638    9045.7557   -854.82764   -840.28257   -2060.4368   -2507.0814 
 8947000    268.19086   -3846.5715   -3386.9015   -3846.5715            0    10659.551    16.877604    19.879588    20.590638    6908.5672    9699.1069    13872.944    8406.6012    114.59536   -656.52802   -1871.0368   -2312.9053 
 8948000    270.10077    -3843.461   -3380.5175    -3843.461            0    8465.0475    16.930389    19.941762    20.655035      6973.59    8292.4488    9930.5416    7172.1521    -1239.283    311.05843   -773.43668   -2519.5997 
 8949000    273.36359   -3810.6518    -3342.116   -3810.6518            0    9173.6457    16.928023    19.938976    20.652149    6970.6671    8348.8526    9037.8953    10134.189    1060.1033    1609.9334    667.61281   -2409.5229 
 8950000    277.83372   -3856.1493   -3379.9518   -3856.1493            0    10164.941    16.901693    19.907961    20.620026      6938.19    12131.421    10215.835    8147.5668   -245.81047    368.23994   -552.30095   -2351.3981 
 8951000    269.10659   -3823.8599   -3362.6204   -3823.8599            0    12480.065    16.888262    19.892141     20.60364    6921.6627    14110.369     12146.22    11183.606    338.45755    395.84301   -1041.8594   -2102.8159 
 8952000    265.76757   -3824.8781   -3369.3616   -3824.8781            0    10132.974    16.949352    19.964098     20.67817    6997.0482    10124.833    11347.847     8926.243   -505.70524    2355.0263    1097.3326   -2335.3446 
 8953000      265.045   -3884.0398   -3429.7618   -3884.0398            0    8874.2594    17.033285    20.062959    20.780567    7101.5115    8081.9882    8087.7271    10453.063   -865.42284   -662.44177   -662.17743   -2510.6701 
 8954000    244.66263   -3832.5433   -3413.1999   -3832.5433            0    9721.1967    16.972806    19.991724    20.706784    7026.1361    11185.344    7524.4702    10453.776    -470.6566   -2177.8754   -669.53692   -2417.0787 
 8955000    269.50727   -3899.1598   -3437.2336   -3899.1598            0    8330.2607    17.033433    20.063135    20.780749    7101.6977    8488.1241    7445.0471    9057.6109   -750.90637   -2015.8635   -1432.4518   -2574.4604 
 8956000    266.37322   -3875.0461   -3418.4915   -3875.0461            0    8131.3062    16.937514    19.950154    20.663728     6982.398    7120.3671    7540.6298    9732.9217    402.79995    1739.7278    681.75857   -2590.4715 
 8957000     262.7434   -3849.0218   -3398.6886   -3849.0218            0    9767.3212    16.913965    19.922416    20.634998    6953.3143    11401.221    9894.2206    8006.5222   -81.456593    1082.3221    364.75086   -2408.2143 
 8958000     272.0576   -3872.0815    -3405.784   -3872.0815            0    8008.4205    16.997157    20.020406    20.736492    7056.4202    8178.5327    8284.8058    7561.9231   -624.21432   -10.750751    972.02107   -2581.6323 
 8959000    264.43281   -3865.7494   -3412.5206   -3865.7494            0    10755.766    16.919294    19.928693    20.641499    6959.8884    10887.476    10765.164    10614.657   -880.90985    1802.7377    505.71607   -2320.7799 
 8960000    272.28038   -3855.4028   -3388.7236   -3855.4028            0    10100.006    17.016561    20.043261    20.760164    7080.6145    9440.9956    11492.828    9366.1954    549.92723    507.01563    454.29479   -2345.7616 
 8961000    265.43255   -3877.2094   -3422.2671   -3877.2094            0    10832.941    16.942395    19.955904    20.669683    6988.4363    12607.112     10028.41    9863.3007   -1447.1959    -385.2818    406.96473   -2318.1826 
 8962000    269.84292   -3886.1615     -3423.66   -3886.1615            0    8407.7878    16.977776    19.997578    20.712847    7032.3098    8667.4509    7253.2591    9302.6533   -543.32856   -1374.0607    55.077427   -2561.3655 
 8963000    266.41359    -3854.807   -3398.1833    -3854.807            0    7826.7241    16.981569    20.002045    20.717475    7037.0242    7406.9665    8230.8499    7842.3559    207.53713   -171.25196   -1051.8277   -2594.9439 
 8964000    253.33893   -3868.8888   -3434.6746   -3868.8888            0     7611.886    17.001479    20.025497    20.741765    7061.8049    6521.2783    8531.3937    7782.9861    726.19635   -1016.6595    51.316878   -2650.7327 
 8965000    248.09315   -3887.7539   -3462.5307   -3887.7539            0    9230.0548    16.959975    19.976611     20.69113    7010.2136    8703.0709    10583.502    8403.5911     666.8072   -736.35612    -82.98472   -2518.8797 
 8966000    256.99032   -3887.6165   -3447.1439   -3887.6165            0    6644.1099    17.054817    20.088321    20.806837    7128.4773    7704.0853    7321.5261    4906.7183    251.85037   -1413.1898   -70.851015    -2756.412 
 8967000    252.51908    -3901.863    -3469.054    -3901.863            0    8828.0218    17.001678    20.025731    20.742007    7062.0527    9548.0625    8941.4543    7994.5487    41.729974    2140.8886   -265.68155   -2559.8313 
 8968000    252.44014   -3860.9509   -3428.2772   -3860.9509            0    7334.7968    17.015171    20.041624    20.758469    7078.8795    6585.5738    8398.4965    7020.3202   -751.18309    327.80909    657.70532    -2671.046 
 8969000    269.83622   -3873.2868   -3410.7967   -3873.2868            0    10086.356    16.946903    19.961213    20.675182    6994.0156    11606.797     8844.587    9807.6843    1042.4333    139.94122    915.93587   -2381.9829 
 8970000    263.08815   -3909.7232   -3458.7991   -3909.7232            0    9741.7269    16.891918    19.896449    20.608101    6926.1598    9637.4483    9554.4887    10033.244    311.21562   -20.459142   -2441.8531   -2474.7782 
 8971000    268.51531   -3909.1544   -3448.9283   -3909.1544            0    8447.8262    16.997015    20.020239    20.736319     7056.244    6129.7387    9477.3599    9736.3799   -405.08404    106.01559   -1254.5073   -2579.5787 
 8972000    264.78282   -3894.1091   -3440.2804   -3894.1091            0    9113.8041     16.95598    19.971905    20.686256    7005.2604     8752.058    10627.708    7961.6462    1940.1917   -328.73347    377.28071   -2509.1728 
 8973000    255.37237   -3861.3784   -3423.6788   -3861.3784            0    9371.4778    16.916845    19.925808    20.638511    6956.8664    8456.3389    9498.2787    10159.816    462.09527     322.2083    1025.3637   -2472.8603 
 8974000    270.80303   -3863.1923   -3399.0452   -3863.1923            0    9266.0943    16.977738    19.997533    20.712801    7032.2624    10214.542    9017.2569     8566.484    213.80174   -702.67839   -153.01045   -2448.7299 
 8975000    259.36234   -3877.2812    -3432.743   -3877.2812            0    8850.7098    16.929133    19.940282    20.653502    6972.0376    9220.8665    8518.7569    8812.5059    698.19211    1230.8625    567.92337   -2532.8027 
 8976000    268.30223   -3866.2727   -3406.4118   -3866.2727            0    7607.0453    16.936272    19.948691    20.662212    6980.8614     9252.684    6230.1661    7338.2857    826.38673    527.89513   -208.80358   -2631.9484 
 8977000    268.88399   -3802.6085   -3341.7506   -3802.6085            0    9875.3355    16.957798    19.974046    20.688474    7007.5138    10571.817    9851.9902    9202.1989    41.919072    119.01871   -1075.8644   -2332.5169 
 8978000    268.44942   -3831.2819   -3371.1688   -3831.2819            0    8777.9202    16.920064      19.9296    20.642438    6960.8389    10202.203    10517.062     5614.495    802.26029   -716.41658   -102.39326   -2480.0634 
 8979000    264.32698   -3843.5655   -3390.5181   -3843.5655            0    8061.8456    16.905847    19.912855    20.625094    6943.3078    7083.1953    8459.2189    8643.1228   -201.18113   -890.72087   -213.22502   -2574.1674 
 8980000    269.18389   -3830.8382   -3369.4662   -3830.8382            0    8853.5684    16.885734    19.889164    20.600556    6918.5548    10062.464    7826.2051    8672.0358   -1516.7969      239.278   -1186.5513   -2476.1409 
 8981000    266.62024   -3831.7402   -3374.7623   -3831.7402            0    9536.5865    16.914544    19.923098    20.635704    6954.0281    9234.4898    9350.9103    10024.359   -1245.2269   -681.88722   -232.10295   -2407.5868 
 8982000    266.01395    -3836.944   -3381.0052    -3836.944            0    7763.5231    16.952833    19.968198    20.682416    7001.3603    7038.3299    6448.7446    9803.4948    1074.5036    -433.5151   -1100.8394   -2588.2901 
 8983000     278.7225   -3880.5867   -3402.8658   -3880.5867            0     9943.399    16.953414    19.968883    20.683126     7002.081    9830.1877    12097.542    7902.4672    648.17967    1709.7297   -644.65649   -2387.4641 
 8984000    270.78942   -3832.4826   -3368.3589   -3832.4826            0    8937.4111    16.973861    19.992967    20.708071    7027.4465    8517.3186    9440.0303    8854.8844   -431.98676   -170.50952   -754.18993   -2452.3806 
 8985000    252.61342    -3826.078   -3393.1073    -3826.078            0    11534.334    16.874143    19.875512    20.586416    6904.3182    9212.4194    13546.983      11843.6   -833.66122    248.48475    339.72733   -2231.6875 
 8986000     273.5699   -3889.2654   -3420.3759   -3889.2654            0    8850.5976    16.962607     19.97971    20.694341    7013.4771    10384.509     7622.162    8545.1217   -91.589106   -883.94653   -499.57503   -2515.0981 
 8987000    262.27713   -3862.5944   -3413.0604   -3862.5944            0    7662.1658    16.957042    19.973155    20.687551    7006.5765    7466.4076    7247.4237     8272.666    625.97593    587.95026    242.64512   -2630.1117 
 8988000    270.22509   -3844.8672   -3381.7106   -3844.8672            0    8701.6943     16.88821    19.892081    20.603577    6921.5995    11416.099    5756.9757     8932.008    784.89756    1139.6005    622.50016   -2503.3231 
 8989000    249.10003   -3813.7811   -3386.8322   -3813.7811            0    6777.9903    16.954814    19.970532    20.684834    7003.8154    6813.8649    5786.4366    7733.6695   -511.91258    894.27258   -512.82245   -2694.5048 
 8990000    267.85094   -3857.1959   -3398.1085   -3857.1959            0    10519.839    16.961663    19.978599     20.69319    7012.3069     11094.18    11841.805    8623.5317   -36.912609   -345.76158    859.86491    -2322.273 
 8991000    246.61871    -3851.727    -3429.031    -3851.727            0    9209.7128    16.977483    19.997232     20.71249    7031.9455    9375.9774    8739.9796    9513.1815   -58.250473    222.99714   -2364.7721   -2484.5408 
 8992000    272.47598   -3855.8138   -3388.7993   -3855.8138            0    7900.0749    16.984779    20.005826    20.721391    7041.0157    8394.1081    9535.8601    5770.2566    237.53156   -1142.4486    772.57583   -2577.5723 
 8993000    274.26245   -3832.1353   -3362.0589   -3832.1353            0    8654.6976    17.021382     20.04894    20.766046    7086.6347    10619.468    7776.1722    7568.4527   -51.883484    670.22502    104.72896   -2467.5847 
 8994000    280.62017   -3866.4172   -3385.4438   -3866.4172            0    10710.416    16.907608    19.914928    20.627242    6945.4769    11589.589     10497.22    10044.438    334.45335   -56.611212    9.5357339   -2300.5574 
 8995000    269.52416    -3822.277   -3360.3219    -3822.277            0    8665.5173     16.94967    19.964472    20.678558    6997.4422     7515.364    7352.6175     11128.57   -1102.4469   -1087.0401   -440.07854   -2476.0013 
 8996000    267.49455   -3832.2968   -3373.8203   -3832.2968            0     10188.42    16.866581    19.866605     20.57719    6895.0397    11397.873    9401.0648     9766.322    231.68778    85.936599    1889.5641   -2349.3025 
 8997000    263.52949   -3870.2627   -3418.5821   -3870.2627            0    8181.5824    17.001638    20.025684    20.741959    7062.0032    9507.2035    7637.8618     7399.682    1338.2656    269.54385    843.33966    -2575.944 
 8998000    280.08207   -3856.0124   -3375.9613   -3856.0124            0    6274.8395     17.05613    20.089868    20.808439    7130.1242    6497.6016    6046.2583    6280.6587   -777.65348   -80.734547   -646.93529   -2723.4687 
 8999000    248.88351   -3850.9851   -3424.4073   -3850.9851            0    7315.6024     16.91684    19.925803    20.638505    6956.8605    9087.5925    6978.0679    5881.1467   -1122.2186   -638.91016    1209.3367    -2682.176 
 9000000     271.0831   -3813.2526   -3348.6255   -3813.2526            0    8860.1674    16.931973    19.943627    20.656967    6975.5472     8325.793    9884.0336    8370.6755   -1294.7461    210.71844   -78.021582     -2447.27 
Loop time of 569.374 on 64 procs for 250000 steps with 864 atoms

Performance: 75.873 ns/day, 0.316 hours/ns, 439.079 timesteps/s
99.1% CPU use with 64 MPI tasks x 1 OpenMP threads

MPI task timing breakdown:
Section |  min time  |  avg time  |  max time  |%varavg| %total
---------------------------------------------------------------
Pair    | 22.015     | 27.063     | 32.001     |  48.0 |  4.75
Bond    | 0.2884     | 0.29762    | 0.31362    |   1.0 |  0.05
Kspace  | 241.98     | 252.25     | 269.43     |  43.8 | 44.30
Neigh   | 6.0409     | 7.2017     | 9.5496     |  36.3 |  1.26
Comm    | 121.03     | 140.44     | 154.47     |  69.6 | 24.66
Output  | 1.235      | 1.238      | 1.2495     |   0.4 |  0.22
Modify  | 131.83     | 135.76     | 137.76     |  11.7 | 23.84
Other   |            | 5.127      |            |       |  0.90

Nlocal:        13.5000 ave          18 max           7 min
Histogram: 1 0 5 5 11 8 13 10 4 7
Nghost:        2257.50 ave        2300 max        2211 min
Histogram: 1 6 6 5 12 10 8 8 5 3
Neighs:        4420.42 ave        6352 max        2373 min
Histogram: 2 3 5 6 16 10 10 5 5 2

Total # of neighbors = 282907
Ave neighs/atom = 327.43866
Ave special neighs/atom = 2.0000000
Neighbor list builds = 14403
Dangerous builds = 1

unfix		3
unfix		2
unfix		1

write_data	data.final.${pid}
write_data	data.final.0
System init for write_data ...
PPPM initialization ...
  extracting TIP4P info from pair style
  using 12-bit tables for long-range coulomb (../kspace.cpp:340)
  G vector (1/distance) = 0.37447073
  grid = 24 24 24
  stencil order = 5
  estimated absolute RMS force accuracy = 0.0031372235
  estimated relative force accuracy = 9.4476553e-06
  using double precision FFTW3
  3d grid and FFT values/proc = 2535 216
Last active /omp style is kspace_style pppm/tip4p/omp
WARNING: Not all mixed pair coeffs generated from mixing. Use write_data with 'pair ij' option to store all pair coeffs. (../write_data.cpp:312)

write_restart   restart.lmp.${pid}
write_restart   restart.lmp.0
System init for write_restart ...
PPPM initialization ...
  extracting TIP4P info from pair style
  using 12-bit tables for long-range coulomb (../kspace.cpp:340)
  G vector (1/distance) = 0.37447073
  grid = 24 24 24
  stencil order = 5
  estimated absolute RMS force accuracy = 0.0031372235
  estimated relative force accuracy = 9.4476553e-06
  using double precision FFTW3
  3d grid and FFT values/proc = 2535 216
Last active /omp style is kspace_style pppm/tip4p/omp
Total wall time: 0:09:31
