LAMMPS (30 Jul 2021)
Processor partition = 1
  using 2 OpenMP thread(s) per MPI task
using multi-threaded neighbor list subroutines
variable        pid world 0 1
variable        phase world IceIh IceIII

shell cd ${phase}
shell cd IceIII
include Restart.lmp
echo both
log log.lammps
#include		in.partitions
include		in.temp
variable        temperature equal 65.22
variable	tempDamp equal 100.0
include		in.pressure
variable        pressure equal 2107.5
variable        pressureDamp equal 1000.0 # This is 1 ps
include		in.seed
variable        seed equal 745823

units		real
atom_style	full

read_restart	restart.lmp.${pid}
read_restart	restart.lmp.1
Reading restart file ...
  restart file = 30 Jul 2021, LAMMPS = 30 Jul 2021
  restoring atom style full from restart
  orthogonal box = (0.088885135 0.019894684 -0.045057355) to (19.911116 19.980106 20.745055)
  2 by 4 by 4 MPI processor grid
  restoring pair style lj/cut/tip4p/long/omp from restart
  restoring bond style harmonic/omp from restart
  restoring angle style harmonic/omp from restart
  972 atoms
  648 bonds
  324 angles
Finding 1-2 1-3 1-4 neighbors ...
  special bond factors lj:    0        0        0       
  special bond factors coul:  0        0        0       
     2 = max # of 1-2 neighbors
     1 = max # of 1-3 neighbors
     1 = max # of 1-4 neighbors
     2 = max # of special neighbors
  special bonds CPU = 0.002 seconds
  read_restart CPU = 0.009 seconds
include 	in.setup
variable	out_freq equal 1000
variable	out_freq2 equal 10000
variable	out_freq3 equal 1000

timestep	2.0

neigh_modify    delay 7 every 1

include		in.tip4p
# This is TIP4P/Ice

# create groups ###
group ox type 2
324 atoms in group ox
group hy type 1
648 atoms in group hy

# set charges - beside manually ###
set group ox charge -1.1794
Setting atom values ...
  324 settings made for charge
set group hy charge 0.5897
Setting atom values ...
  648 settings made for charge

# ### TIP3P Potential Parameters ###
pair_style lj/cut/tip4p/long/omp 2 1 1 1 0.1577 8.5
pair_coeff 1 1*2 0.000 0.000
pair_coeff 2 2 0.21084 3.1668
bond_style  harmonic
bond_coeff  1 450 0.9572
angle_style harmonic
angle_coeff 1 55 104.52
kspace_style pppm/tip4p/omp 1.0e-5
pair_modify tail yes

thermo          ${out_freq}
thermo          1000
thermo_style    custom step temp pe etotal epair emol press lx ly lz vol pxx pyy pzz pxy pxz pyz enthalpy

restart 	${out_freq3} restart.lmp.${pid} restart2.lmp.${pid}
restart 	1000 restart.lmp.${pid} restart2.lmp.${pid}
restart 	1000 restart.lmp.1 restart2.lmp.${pid}
restart 	1000 restart.lmp.1 restart2.lmp.1


include         in.dump
dump            myDump all atom ${out_freq2} dump.water.${pid}
dump            myDump all atom 10000 dump.water.${pid}
dump            myDump all atom 10000 dump.water.1
dump            myDump2 all dcd ${out_freq2} dump.dcd
dump            myDump2 all dcd 10000 dump.dcd
dump_modify     myDump append yes
dump_modify     myDump2 append yes


variable natoms 	equal  "count(all)"                        # NUMBER ATOMS
variable H      	equal  "enthalpy/v_natoms"                 # ENTHALPY-per-atom
variable Vol      	equal  "vol/v_natoms"                 # volume-per-atom
fix AVG all 		ave/time ${out_freq} 1 ${out_freq} v_Vol v_H file vol_enthalpy.dat
fix AVG all 		ave/time 1000 1 ${out_freq} v_Vol v_H file vol_enthalpy.dat
fix AVG all 		ave/time 1000 1 1000 v_Vol v_H file vol_enthalpy.dat


timer           timeout 02:55:00 every 1000
New timer settings: style=normal  mode=nosync  timeout=02:55:00

fix 		1 all shake 1e-6 200 0 b 1 a 1
Finding SHAKE clusters ...
       0 = # of size 2 clusters
       0 = # of size 3 clusters
       0 = # of size 4 clusters
     324 = # of frozen angles
  find clusters CPU = 0.002 seconds
fix             2 all nph aniso ${pressure} ${pressure} ${pressureDamp}
fix             2 all nph aniso 2107.5 ${pressure} ${pressureDamp}
fix             2 all nph aniso 2107.5 2107.5 ${pressureDamp}
fix             2 all nph aniso 2107.5 2107.5 1000
fix             3 all temp/csvr ${temperature} ${temperature} ${tempDamp} ${seed}
fix             3 all temp/csvr 65.22 ${temperature} ${tempDamp} ${seed}
fix             3 all temp/csvr 65.22 65.22 ${tempDamp} ${seed}
fix             3 all temp/csvr 65.22 65.22 100 ${seed}
fix             3 all temp/csvr 65.22 65.22 100 745823


run             250000
PPPM initialization ...
  extracting TIP4P info from pair style
  using 12-bit tables for long-range coulomb (../kspace.cpp:340)
  G vector (1/distance) = 0.3727131
  grid = 24 24 25
  stencil order = 5
  estimated absolute RMS force accuracy = 0.0033703118
  estimated relative force accuracy = 1.0149594e-05
  using double precision FFTW3
  3d grid and FFT values/proc = 3458 576
Last active /omp style is kspace_style pppm/tip4p/omp
Neighbor list info ...
  update every 1 steps, delay 7 steps, check yes
  max neighbors/atom: 2000, page size: 100000
  master list distance cutoff = 10.8154
  ghost atom cutoff = 10.8154
  binsize = 5.4077, bins = 4 4 4
  1 neighbor lists, perpetual/occasional/extra = 1 0 0
  (1) pair lj/cut/tip4p/long/omp, perpetual
      attributes: half, newton on, omp
      pair build: half/bin/newton/omp
      stencil: half/bin/3d
      bin: standard
Setting up Verlet run ...
  Unit style    : real
  Current step  : 37750000
  Time step     : 2
  Walltime left : 2:54:59.93
Per MPI rank memory allocation (min/avg/max) = 10.19 | 10.20 | 10.21 Mbytes
Step Temp PotEng TotEng E_pair E_mol Press Lx Ly Lz Volume Pxx Pyy Pzz Pxy Pxz Pyz Enthalpy 
37750000    66.839352   -5114.3757   -4985.4704   -5114.3757            0    2503.2658    19.822231    19.960212    20.790113    8225.7312    3633.4771    1226.6832    2649.6372    106.51096    942.62924    -94.76652    -4685.169 
37751000    63.798021   -5123.2357   -5000.1958   -5123.2357            0    2425.8473    19.890547    19.841479    20.836848     8223.426    2201.7791    3158.6547    1917.1083   -187.25631    33.688044    -167.0227   -4709.2634 
37752000     67.69291   -5126.8624   -4996.3109   -5126.8624            0    2170.8893     19.93539    19.960547    20.630702    8209.3958     2838.856    1220.7711    2453.0408     237.2224    558.27898    6.1936441   -4736.3999 
37753000    64.617782   -5124.0243   -4999.4035   -5124.0243            0    2353.9258    19.845408    19.928041    20.771278    8214.6271    3097.4868    1801.0188    2163.2718   -312.86132     358.5784   -301.73016   -4717.3987 
37754000    59.857428   -5119.5961    -5004.156   -5119.5961            0    2802.5721    19.927255    19.864808     20.66803    8181.4625    3015.7141    3443.8962     1948.106   -395.80863    776.02462    29.006634   -4669.7581 
37755000    64.950189   -5120.4408   -4995.1789   -5120.4408            0    2417.2261    19.954515    19.945931    20.553464    8180.5129    2899.5236    2024.0199    2328.1346    65.013939   -258.35313   -836.44395   -4706.7932 
37756000    67.435302    -5122.988   -4992.9333    -5122.988            0    1750.1845     19.88719     19.88117    20.803036    8225.1168    2077.4913    1983.3341     1189.728   -101.93983    574.76045    247.34512   -4782.9901 
37757000     67.78456   -5125.9557   -4995.2275   -5125.9557            0    2270.5354     19.88448    19.860618    20.874333    8243.6512    2713.7193    2339.8931    1757.9939   -74.509806    1083.7614     689.8815   -4722.2519 
37758000    65.905129   -5123.1768   -4996.0732   -5123.1768            0    1808.3652    20.036141     19.95907    20.582409    8230.9615    1695.5381    1296.4171    2433.1403   -19.116827    1361.2411    291.82226   -4778.9968 
37759000    69.130532   -5122.4284   -4989.1043   -5122.4284            0    2102.1752    19.975742    19.895726     20.62205    8195.8599    1870.0054    2043.2966    2393.2236   -325.82739   -119.65176   -514.01181   -4737.8351 
37760000    66.202402   -5120.5648   -4992.8879   -5120.5648            0    2261.7392    19.953083    19.846169    20.775449     8226.917    2397.6701    2201.4413     2186.106    -229.4809    429.66634    88.492961   -4721.5218 
37761000    63.836287   -5124.3191   -5001.2054   -5124.3191            0    1566.9484    19.906108    19.882977    20.821933    8241.1687    2254.5289    1412.4111    1033.9052   -126.13999   -134.85408   -427.59314   -4812.8755 
37762000    68.271479   -5116.6389   -4984.9716   -5116.6389            0    2110.3661    19.947489    20.036716    20.544406     8211.233    1954.8628    1450.1828    2926.0526    48.213272    498.41266    -233.6674   -4732.2502 
37763000    69.767424   -5123.6161   -4989.0638   -5123.6161            0    1992.0174    19.989205    19.888207    20.709909    8233.2126    1379.4988    2543.0463     2053.507    471.54396    703.94736   -675.92461   -4749.8763 
37764000    67.702806   -5130.7365   -5000.1659   -5130.7365            0    2814.7426    19.982398    19.841333    20.633522    8180.7256    2343.2748     2865.877    3235.0761    28.279275    3.4758399    653.38478   -4664.3461 
37765000     64.25583   -5122.7534   -4998.8306   -5122.7534            0    3100.5831    19.967919    19.782013    20.726562    8187.1085    2437.8599     3556.576    3307.3134   -463.36104    543.13422    200.09421   -4628.6192 
37766000    66.812663    -5125.821   -4996.9671    -5125.821            0    2659.8569    19.946506    19.852733    20.730704    8209.2069    2996.5722    2512.4302    2470.5682   -460.83338    219.07669    287.57914   -4678.5215 
37767000    66.051055   -5126.0635   -4998.6785   -5126.0635            0    2001.8143     19.88016    19.880717    20.827939    8231.8645    2290.6446    2015.4838    1699.3144   -406.69753    98.031046    264.51608   -4758.3541 
37768000    62.551834    -5123.371   -5002.7345    -5123.371            0    1997.1187    19.924244    19.938279    20.701652    8223.8378    2485.4129    1827.5511    1678.3921   -44.052793    374.49517   -449.02165   -4763.2076 
37769000    62.205703   -5119.3469    -4999.378   -5119.3469            0    1676.1715    19.881193    20.027379    20.775986    8272.3364    2192.2504    1250.6632    1585.6007   -175.82893    648.75064    24.581615   -4797.1587 
37770000    66.065568   -5125.9973   -4998.5842   -5125.9973            0    2302.8349    19.849234    19.981474    20.679651       8201.9     2652.958    2190.1661    2065.3807   -74.218252   -141.90607    349.74596   -4723.1277 
37771000    63.220959   -5126.8742   -5004.9472   -5126.8742            0    1313.7365    19.887849    19.964215    20.812235    8263.4001    1947.7817    621.50378     1371.924   -443.97151    352.58872    375.94962   -4846.6246 
37772000    66.048333   -5122.4111   -4995.0313   -5122.4111            0     2848.326    19.935245    19.981808    20.595731    8204.1493    3431.8947    2069.2386    3043.8446   -231.83419     133.8937    83.800397   -4654.2317 
37773000    62.580101   -5126.7365   -5006.0455   -5126.7365            0    1932.9777     19.82541    20.035877    20.713469    8227.7934    2763.7784     786.6345    2248.5203   -329.29793    883.08771   -405.77814   -4774.0999 
37774000    68.458838   -5117.7193   -4985.6906   -5117.7193            0    2333.7499    19.842048      19.9747    20.758117    8227.2508    3405.8958    1119.5499    2475.8041   -242.11446   -44.144366     -697.359   -4705.6733 
37775000    66.627349   -5118.5301   -4990.0337   -5118.5301            0    1622.4385    19.891937     19.95705    20.752144    8238.2773    1798.6573     1708.172    1360.4862   -80.245039    -123.0747    -42.27805   -4795.1029 
37776000    65.561495   -5115.9993   -4989.5584   -5115.9993            0    1967.2265    19.907977    19.895134    20.687423    8193.7064    1353.5162    2483.5514     2064.612    201.28164    181.38012    252.57684   -4754.4812 
37777000    67.835563    -5119.151   -4988.3245    -5119.151            0    2616.0571    19.887585    19.876603    20.687558    8177.7426    3827.7749    1824.4725    2195.9237    53.013572   -702.75583    150.62573   -4676.3231 
37778000    64.370697   -5126.4241   -5002.2798   -5126.4241            0    2596.2058    19.846385    19.970497    20.697013    8203.0991    2224.8156    2779.2704    2784.5315   -225.77144    61.566701   -252.68373   -4691.6858 
37779000    68.396683   -5124.5646   -4992.6558   -5124.5646            0    3324.3691    19.750325    19.842865    20.866324    8177.5755    4418.2924    2928.0024    2626.8125   -3.4810596    606.72779   -351.30303   -4596.1864 
37780000    64.462382   -5117.4637   -4993.1426   -5117.4637            0    1762.0009    19.856476    19.991497    20.704104    8218.7154    2096.7339     1342.649    1846.6198   -80.496231    471.10733    292.73529   -4781.9464 
37781000    66.125471   -5118.6443   -4991.1157   -5118.6443            0    1931.5188    19.902374    19.929298     20.84548    8268.1584    2115.9452    1972.8782    1705.7332   -77.917928    310.47138   -269.23774   -4758.2081 
37782000    64.844564    -5116.577   -4991.5189    -5116.577            0    1198.1867    19.904392    19.997098    20.716572    8245.8186    1258.5205     1255.153    1080.8867   -182.86819    148.96001    126.02225   -4847.4287 
37783000    62.907833   -5116.7045   -4995.3814   -5116.7045            0    2296.7284    19.920646    19.848275    20.787887    8219.3323    2840.0577     1567.455    2482.6725   -147.12891   -243.58564    47.891947   -4720.0714 
37784000    63.519659   -5123.3897   -5000.8867   -5123.3897            0     3198.037    19.879419    19.887382     20.67492    8173.8216    2958.9697    2942.4338    3692.7075    -144.9424     111.4767    305.26795    -4619.659 
37785000    62.016275   -5129.6776    -5010.074   -5129.6776            0    1656.4945    19.880055    19.961064    20.722634    8223.3017    2361.9865    1432.3838    1175.1132   -202.98651    358.80883   -76.848002   -4811.4132 
37786000    63.466142   -5124.7678    -5002.368   -5124.7678            0    2668.6459    19.794816    19.956565    20.811919    8221.4686    3377.1313    2550.2869    2078.5195    346.48218    521.80719    437.30729   -4682.3928 
37787000    63.572133   -5120.1082    -4997.504   -5120.1082            0    2327.6355    19.940592    19.952458    20.594045    8193.6253    2357.6663     1929.821    2695.4192    -51.35601   -707.85002    954.22252   -4719.3618 
37788000    69.372388   -5127.0838   -4993.2933   -5127.0838            0    2515.8563    19.983419    19.863099    20.682303    8209.4809    2585.1941    2459.2498    2503.1249    119.24735    323.03009    561.66504   -4692.0777 
37789000    64.538975   -5126.6765   -5002.2077   -5126.6765            0    2157.5837    19.953402    19.882022    20.668086     8199.319    2241.4579    2683.5283     1547.765   -274.79642   -92.134592   -490.47656   -4744.2067 
37790000    64.516259   -5122.7389   -4998.3139   -5122.7389            0    2334.4451    19.882613    19.854783    20.719398    8179.2925    1573.2626    3061.9574    2368.1152   -404.44727   -883.49087    172.37415   -4719.8459 
37791000    66.266162   -5124.9855   -4997.1856   -5124.9855            0    1722.8735    19.891128    19.959041    20.749368    8237.6619    1924.5463     1274.514    1969.5604   -424.18428    -260.2014   -444.29108   -4790.2033 
37792000    64.698431   -5125.1715   -5000.3951   -5125.1715            0    1698.2149    19.966022    19.954848    20.614204    8213.0892    1210.5637    2152.4078    1731.6731    186.18583    533.02863   -115.77282   -4796.9838 
37793000    68.771495   -5124.7113   -4992.0797   -5124.7113            0    2372.2534    19.868641    19.883136    20.748882    8196.8644    2081.4606    2992.7379    2042.5616     33.11783    631.71005   -100.80098   -4708.4938 
37794000    66.671789     -5133.59   -5005.0078     -5133.59            0    2294.9642    19.837202    19.963399      20.7168    8204.2253     2754.974    2479.1668    1650.7519   -214.27282    421.12417    28.906388   -4730.4149 
37795000    60.990848   -5122.4996   -5004.8736   -5122.4996            0    2227.2239    19.918984    19.891524    20.700823    8202.0585    2708.3752    1790.8506     2182.446   -162.75175   -12.215925   -645.36332   -4738.4562 
37796000    62.860826   -5123.7817   -5002.5493   -5123.7817            0      1845.24     19.91979    19.972542    20.723824    8244.9495    2442.6323    866.13116    2226.9566   -286.87598   -2.0964663    87.019866     -4780.67 
37797000    65.020094   -5122.8252   -4997.4285   -5122.8252            0    2313.1101    19.892147    19.795637    20.805254     8192.645    1683.7311    2878.8495    2376.7497    65.804449     576.4521    -133.7302    -4721.055 
37798000    64.841391   -5131.0898   -5006.0377   -5131.0898            0    1637.7205    20.071794    19.869392     20.59806    8214.8019    207.05599    2749.0944    1957.0112   -275.32468   -60.733635    -187.6415   -4809.8315 
37799000    66.248798   -5124.0965   -4996.3302   -5124.0965            0    1553.8069    19.909099    19.899168    20.792097    8237.2987    1707.2249    1114.8532    1839.3426   -41.077888    412.78956    -379.2678   -4809.6674 
37800000     64.67248   -5128.4409   -5003.7146   -5128.4409            0    2412.9174    19.901934    19.919439    20.634484     8180.239    2707.9345    2124.4144    2406.4033   -243.21466   -357.01492   -449.21803   -4715.8526 
37801000    69.380274   -5115.9806   -4982.1749   -5115.9806            0    1586.7531    20.042575    19.913943    20.694967    8259.9139     1317.538    1555.4692     1887.252    229.08459    40.164009   -161.38086   -4791.0309 
37802000     63.46794   -5126.1756   -5003.7723   -5126.1756            0    2551.6296    19.923238    19.859503    20.685849    8184.6789    1770.3487    2754.2728    3130.2672    50.942451    377.52447   -424.28599   -4699.1967 
37803000    60.212311    -5122.407   -5006.2825    -5122.407            0    2042.4543    19.908247    19.851144    20.804336    8221.9041    3015.5809    1355.4266    1756.3554   -72.332483    727.32215   -60.404361   -4761.3758 
37804000    69.264816   -5125.0699   -4991.4868   -5125.0699            0    1979.6526    19.934875    19.931608    20.725263     8234.854    1570.1753    2666.5469    1702.2356   -462.42898    83.782134    639.19128   -4753.7367 
37805000    66.054174   -5123.9525   -4996.5614   -5123.9525            0    2967.7542    20.001055    19.814274    20.675156    8193.6961    2810.9022    3065.3783    3026.9821   -237.11495     53.47791    208.99269   -4641.9247 
37806000    70.466043   -5122.7933   -4986.8936   -5122.7933            0    2521.9319    20.025802    19.807704    20.788518    8246.0804    2333.9832    3057.9424    2173.8702    27.663326    581.16005   -136.09336   -4683.6045 
37807000     63.94646   -5127.7255   -5004.3994   -5127.7255            0    2307.9292      19.9647    19.767496     20.77308    8198.1403      3021.48    1691.5714    2210.7362    54.602233    -140.9148    25.407408     -4728.46 
37808000     63.54483   -5118.8433   -4996.2918   -5118.8433            0    2954.7242    19.987338    19.814463    20.697979    8197.1942    3017.0977    3085.6261    2761.4489    -200.0081    477.05136   -159.51021   -4643.0614 
37809000    64.175823   -5122.3447   -4998.5762   -5122.3447            0    2816.8291    19.980523    19.846535    20.709893     8212.387     2084.698    3060.0113    3305.7779    -112.9551    635.04976   -418.80446   -4661.2067 
37810000    66.242491   -5126.6102    -4998.856   -5126.6102            0    2003.2958    19.944938    19.903042    20.723887    8226.6566    2849.4803    1342.5858    1817.8213    79.937949   -1121.4711     187.9476   -4758.5059 
37811000    66.333999   -5122.7237    -4994.793   -5122.7237            0     2175.723    19.836241    19.924969    20.810611     8225.113    2919.8688    1588.1507    2019.1493      86.4266    387.62777   -220.13471   -4733.8045 
37812000    66.122622   -5113.3147   -4985.7917   -5113.3147            0    2066.3972    20.022931    19.900326    20.689518    8244.0045    673.07029    2765.1389    2760.9824   -13.037296    678.09137    94.608146    -4737.348 
37813000    63.139217   -5115.0768   -4993.3075   -5115.0768            0    1813.9287    20.001894    19.906834    20.744786    8260.0427    659.45919    2780.8076    2001.5191   -257.78765    537.65253   -443.54391   -4774.7939 
37814000     65.38339   -5124.4739   -4998.3766   -5124.4739            0    2415.5788    20.031647    19.933123    20.617448    8232.4089    1757.4247    2516.4364    2972.8751    107.67078    8.4300095   -445.17238   -4708.3592 
37815000    63.217964     -5123.09   -5001.1688     -5123.09            0    2153.9805     19.97004    19.950168    20.658693      8230.54    2610.6821    1088.0354    2763.2241    61.451501    448.79101   -154.91448   -4742.6179 
37816000    63.417472   -5112.0009    -4989.695   -5112.0009            0    1929.1397    20.040822    19.968577    20.669025    8271.4687    1606.6159     1840.041    2340.7623    119.36544    314.42326    96.489273   -4756.9811 
37817000    66.883838   -5130.7618   -5001.7707   -5130.7618            0    1960.7634    19.915681    19.901294    20.806775    8246.7199     2508.373    1653.3188    1720.5984   -275.54443     526.5406    386.29157   -4765.9498 
37818000    63.322606   -5119.0458   -4996.9228   -5119.0458            0    1798.9199    20.004337    19.934696    20.661994    8239.5977    1439.1879    1847.6249    2109.9468   -235.91409    55.679978    334.19574   -4780.7536 
37819000    62.866236   -5129.8965   -5008.6537   -5129.8965            0    1753.5791    19.998094    19.948457    20.736032    8272.2484    1033.3421    2911.2634    1316.1317   -136.89936   -758.64794    -891.8225    -4797.098 
37820000    63.333389   -5117.1087    -4994.965   -5117.1087            0    1621.0103    19.930249    19.927114    20.752554    8241.9257    2023.4501     1170.045    1669.5358   -434.26933       935.24   -326.44864   -4800.1195 
37821000    65.933522   -5123.3344   -4996.1761   -5123.3344            0    2183.3186    20.048393    19.846777    20.680781    8228.8002    1648.6296     3054.865    1846.4611    403.01084   -14.217985   -753.14828    -4734.159 
37822000    68.816222   -5114.7455   -4982.0276   -5114.7455            0    1878.5116    19.953864    19.952753    20.641515    8218.0996    1859.5117    1664.2169    2111.8062    226.98421    1078.1779   -42.618081   -4756.8832 
37823000    63.073952   -5128.1314    -5006.488   -5128.1314            0    1640.1404    19.911033    19.855503    20.815904    8229.4339     1510.805    2321.6502    1087.9661   -186.19637    814.24744    195.35407   -4809.6418 
37824000    62.258711   -5123.4739   -5003.4027   -5123.4739            0    1297.3827    19.989415     19.99809    20.606485    8237.4447    619.50012    1563.7427    1708.9053   -272.18239    644.75724   -538.43953   -4847.5421 
37825000    63.966247   -5123.8382   -5000.4739   -5123.8382            0    2340.8825    19.998429    19.881229    20.610165    8194.4643    2554.1531    2044.9906    2423.5039    2.3118233    574.27679     564.7425   -4720.7201 
37826000    65.401986   -5123.8627   -4997.7294   -5123.8627            0    1895.1922    20.018709     19.83889    20.744696    8238.7345    1437.3827    2774.6622    1473.5318    -227.3876   -7.9602697   -336.23676   -4770.0155 
37827000    62.285313   -5130.0272   -5009.9047   -5130.0272            0    1272.1946    19.986276    19.846048    20.781734    8243.0453    1624.3582    1312.9791    879.24636    144.10559   -873.77758   -195.58115   -4856.9661 
37828000    66.860976   -5117.2112   -4988.2642   -5117.2112            0    1789.6176    19.941951    19.914918    20.706205    8223.3102    1632.1007     1759.567    1977.1851    175.72376   -627.04755    23.176477   -4773.6379 
37829000     64.77404    -5128.218   -5003.2959    -5128.218            0     1593.737    19.863775     19.98305    20.758138    8239.7106     1730.342    1343.0937    1707.7752    82.474082   -48.570915    -258.8276   -4811.7801 
37830000     65.49225   -5115.8716   -4989.5643   -5115.8716            0     2166.643    19.902096    19.891793    20.692227    8191.8123     2172.447    2200.8329     2126.649    80.393889     290.5419    534.21103   -4730.7172 
37831000    66.123065   -5121.6306   -4994.1067   -5121.6306            0    1893.5592    19.936305    19.983285    20.620793    8215.1766    1179.6346    1580.1934    2920.8497    127.56393    972.75176   -1038.6061   -4767.2395 
37832000    62.489439   -5124.0096   -5003.4934   -5124.0096            0    2333.0725    19.954415    19.892136    20.686552    8211.2359    2533.2807    2206.9438    2258.9929    76.215469    82.894274    580.90374   -4724.1023 
37833000    67.294806   -5125.4946    -4995.711   -5125.4946            0    2530.0688    19.985043    19.855194    20.735421    8227.9582    2226.0452    2546.5074    2817.6539   -40.909138    218.34552    -156.1547    -4692.112 
37834000    65.939592   -5116.3718   -4989.2017   -5116.3718            0    2433.0626    19.984116    19.897061    20.724132    8240.4364    2274.8476    2694.9291     2329.411   -7.2284594    550.29321   -245.84973   -4696.8004 
37835000     65.42262   -5128.6971   -5002.5241   -5128.6971            0    2057.8976    19.967093    19.937855     20.66663    8227.4064    2367.8784    1850.1216    1955.6928   -291.65354    244.83007   -55.233029   -4755.6005 
37836000    65.261647   -5126.7186    -5000.856   -5126.7186            0    2044.4312    19.914732    19.958363     20.63337    8201.0519    2769.3679    738.02864    2625.8971    233.72306   -283.82182    449.34512    -4756.334 
37837000    64.149944   -5124.8417   -5001.1231   -5124.8417            0    2453.8731    19.888037    19.938877    20.708177    8211.7266    2759.2561    2133.7564    2468.6067    141.85111    13.262601    27.656158   -4707.2482 
37838000    67.192687   -5127.2537   -4997.6669   -5127.2537            0    1843.8799    19.893449    19.966758    20.665893    8208.6514    2320.9637    1456.7629    1753.9131   -108.81898   -194.03183    717.27385   -4776.9273 
37839000    64.330987   -5135.0898    -5011.022   -5135.0898            0    1767.4048    19.876644    19.915953    20.754558    8215.9469    2577.1889     1668.785    1056.2406    362.02367   -24.506766     133.3387   -4799.2496 
37840000     65.69946   -5126.7646   -5000.0576   -5126.7646            0    2037.5241    20.014839    19.953059    20.578193    8218.0507    1826.4472    2246.1396    2039.9854   -41.642034    276.91458    54.386065   -4755.8566 
37841000    66.249729   -5130.7668   -5002.9986   -5130.7668            0     1032.572    19.999379    19.884209    20.688307    8227.1568    749.58595    1690.4493    657.68083   -105.47411    442.30757   -254.54212   -4879.1058 
37842000    64.996126    -5126.368   -5001.0175    -5126.368            0    1796.2691    20.079408    19.883128    20.639421    8240.1122    818.82394    2781.5225    1788.4608   -122.11608   -947.28624    119.67673   -4785.1535 
37843000    63.822474   -5115.0072   -4991.9202   -5115.0072            0    2383.3217    19.991207    19.846195    20.787612    8247.4726     1359.398    3385.0533    2405.5137    172.88196    676.14882   -1064.5494    -4705.252 
37844000     61.85666   -5117.3724   -4998.0766   -5117.3724            0    1745.1235    19.949964    19.925684    20.736554    8243.1263    1984.2578    1349.9729    1901.1398   -323.48481    569.50119   -37.813741   -4788.2822 
37845000    62.518907   -5128.3303   -5007.7574   -5128.3303            0    2130.2908    19.833108    19.956123    20.746611    8211.3417     2574.975    1701.0583     2114.839    27.451382   -127.20451   -122.11153   -4752.6465 
37846000    67.219615   -5126.1146   -4996.4759   -5126.1146            0    1864.4856    19.863955    20.007866    20.747528    8245.8013    1878.1478    1304.7418    2410.5673    170.65272    183.11132   -180.00743   -4772.2593 
37847000    65.404878   -5124.6087   -4998.4699   -5124.6087            0    2062.1749    19.895054    19.971862    20.642782    8202.2295    1006.8001    2574.9511    2604.7735   -42.201519   -340.98969   -940.77005   -4751.7903 
37848000     65.53635   -5125.1523   -4998.7599   -5125.1523            0    1845.9053    19.982676     19.89737    20.614007    8196.1847    1402.8805    1986.1417    2148.6937    210.21914    304.28892   -493.83319   -4778.1134 
37849000    66.686815    -5130.499   -5001.8878    -5130.499            0    1851.8901    20.018026    19.976743    20.596849    8236.5758    1511.9674    1741.7343    2301.9686   -76.844519   -315.14958    119.55118   -4779.4351 
37850000    64.026639   -5122.8738   -4999.3931   -5122.8738            0    2036.2975    19.932509    19.832222    20.726809    8193.4311    1270.3927    2718.2967    2120.2031    21.211336   -399.95707   -638.90722   -4756.0702 
37851000    61.970307    -5128.131   -5008.6161    -5128.131            0    1265.5905    19.930002    19.906788    20.724551    8222.3068    1957.6424    1193.9968    645.13243   -37.436488    337.52435   -255.45711   -4856.8542 
37852000    66.525928   -5125.1885   -4996.8877   -5125.1885            0    1950.4388    19.862819    19.930286    20.752756    8215.4281    1981.1462    1521.9257    2348.2444   -207.17524    119.64805   -374.68284   -4763.1986 
37853000    64.256862    -5117.545   -4993.6202    -5117.545            0    1955.8384    19.992309    19.878115    20.713276    8231.6507    1324.4142    2091.7653    2451.3356   -77.066873    257.68123   -149.06538   -4758.8215 
37854000    61.899904   -5113.6014   -4994.2223   -5113.6014            0    2178.3367    19.882108    19.937127    20.687412    8200.3268    2304.0843     2461.236    1769.6898    393.69387   -49.993578   -582.26216   -4733.7077 
37855000    69.712381   -5120.1786   -4985.7324   -5120.1786            0    2203.6773    19.923861    19.869571    20.688683    8190.2061    2337.1974      2609.95    1663.8845   -215.10541    505.53872   0.61439053   -4722.5125 
37856000    64.400248   -5129.4216   -5005.2203   -5129.4216            0    1442.0837    19.948413    19.899906    20.720106    8225.2925    923.65652    2304.1696    1098.4251   -351.85732    161.03373    136.74226   -4832.2316 
37857000    65.885867   -5123.2926   -4996.2261   -5123.2926            0    1572.0326    19.879783    20.059293    20.619799    8222.6479    1925.6764    1402.1879    1388.2334   -173.61475    474.39489     -732.726   -4807.7097 
37858000    65.998916   -5121.5736   -4994.2891   -5121.5736            0    1414.7063    19.930165    19.920331    20.782297    8250.8937    1353.9887    1475.8992    1414.2309   -31.357982   -85.215027   -46.551419   -4824.0563 
37859000    64.186799   -5120.6299   -4996.8402   -5120.6299            0    2308.0157    19.949612    19.865436    20.724871    8213.4269    2014.2896    3154.5963    1755.1613   -10.315893   -224.52681   -233.80669   -4720.3759 
37860000    66.703817   -5121.4101   -4992.7662   -5121.4101            0    1589.4798    19.967241    19.867755    20.775522    8241.7378    1727.0692    1732.7342    1308.6361   -160.67243   -504.90738   -862.62027    -4801.715 
37861000    66.821178   -5119.1052    -4990.235   -5119.1052            0     2303.028     19.95015    19.897687     20.72047    8225.2358    2648.4359    2256.1491    2004.4988   -118.82697   -607.12011   -407.33687   -4713.9715 
37862000    67.484999   -5124.9387   -4994.7882   -5124.9387            0    1768.6464    19.914858    19.911989    20.781859    8240.9304    1441.6589    2544.5298    1319.7505   -259.61426    777.98551    34.394365   -4782.2225 
37863000    63.831889   -5126.7076   -5003.6025   -5126.7076            0    2119.4259    20.040416    19.982371     20.49491    8207.2899    1315.0362    1949.4985    3093.7428   -133.02115    223.68891   -317.67044    -4749.918 
37864000    64.058443   -5119.0926   -4995.5505   -5119.0926            0     1558.694    19.955525    19.876288    20.803953    8251.7165    1131.5505    2644.7868    899.74463    65.354167   -107.84599   -6.8239845   -4807.9728 
37865000    66.450994   -5126.9684    -4998.812   -5126.9684            0    1739.4008    19.920085    20.056689    20.596581    8228.9714     2064.627     1035.926    2117.6495   -474.93867    423.74882    121.13388   -4790.0646 
37866000    65.804157   -5133.3766   -5006.4678   -5133.3766            0    1279.4905    19.952185    19.865492    20.878811    8275.5247    1483.6984    1024.0259    1330.7473   -215.80791    93.710532    478.21237    -4852.046 
37867000    64.675266   -5131.1862   -5006.4545   -5131.1862            0    1804.7762    19.947474    19.959016    20.653064    8222.6449    1304.8154    2689.4112    1420.1019   -224.31904    372.43502   -388.60251   -4790.0279 
37868000    65.444555   -5128.4924   -5002.2771   -5128.4924            0     1826.328    20.007151    19.800957    20.773979    8229.8348    1432.1402    2959.8074    1087.0364   -274.73829    -204.6698   -629.03789   -4783.0744 
37869000    64.377525   -5127.8359   -5003.6784   -5127.8359            0    1886.2455    20.034678    19.955321    20.598027    8235.0589    1880.9729    1200.7517    2577.0119    62.980367   -192.31333    622.60067   -4777.1406 
37870000    67.735676   -5125.4528   -4994.8188   -5125.4528            0    1927.2573     19.86459    20.004657    20.636639    8200.6766    1197.6684     1776.753    2807.3505    164.84388    185.35245    434.86396   -4764.3218 
37871000    61.640537   -5126.2848   -5007.4059   -5126.2848            0    1426.9856    19.943587    20.045858    20.584543    8229.4186    1914.3962    491.73876    1874.8218    221.75301    -9.065532    459.60388   -4836.1425 
37872000    65.555736   -5119.3003   -4992.8706   -5119.3003            0    1341.2664    20.011614    19.877757    20.759959    8258.0211    766.16739    1259.3222    1998.3096    -261.7016   -527.56586    54.540154   -4831.3355 
37873000     65.36252   -5123.3392   -4997.2821   -5123.3392            0    2068.5906    19.974502    19.854143    20.640282    8185.4532    1674.9529    2276.4877    2254.3311    42.940866    167.83472    -295.8347   -4750.3411 
37874000    66.185349   -5123.3913   -4995.7472   -5123.3913            0    2077.5481     19.94941    19.822638    20.747018     8204.407    1393.4514     2646.379    2192.8139    76.495014    327.09783   -392.53182   -4747.1627 
37875000    68.296805   -5123.0377   -4991.3216   -5123.0377            0    2103.9947    20.006424    19.933457    20.595297    8213.3463    1410.0267    1863.0358    3038.9217    95.815465    244.22547    757.93421   -4739.2983 
37876000    62.690045   -5129.5233   -5008.6202   -5129.5233            0    1895.0599    19.922565    19.959516    20.677572    8222.3281    905.13002     2658.706    2121.3436   -118.63479    115.32661  0.025669575   -4781.3756 
37877000     64.21203   -5123.8857   -5000.0474   -5123.8857            0    915.04472    19.970132    19.885512    20.758258    8243.4428      566.478    1388.4724    790.18374   -605.62012   -123.07046   -109.10634   -4890.0387 
37878000    61.664328   -5121.7834   -5002.8586   -5121.7834            0    1897.7281    19.973058     19.84962     20.79099     8242.746    1765.2383    3318.7437    609.20234    266.61852    91.306077   -530.87616   -4774.7289 
37879000    66.053179   -5117.3979   -4990.0088   -5117.3979            0    1566.8937    20.029773    19.895138     20.76993    8276.7154    1680.8908    1816.3496    1203.4405   -19.262756    406.91907    122.41128   -4800.8731 
37880000    63.792261    -5132.276   -5009.2472    -5132.276            0    2188.2592    19.919398    19.941625     20.63023    8194.8465     2630.291    1334.1381    2600.3486   -190.81428    805.63369   -915.73874   -4747.7209 
37881000    64.822245   -5134.0705   -5009.0554   -5134.0705            0    1401.6682    20.002056    19.871603    20.687433    8222.6945    1661.5735    1021.3508    1522.0802    54.716019    107.33204   -232.64279   -4840.9679 
37882000    67.572594   -5119.9932   -4989.6737   -5119.9932            0    1479.1926    19.912885    19.989093    20.663554    8224.9314    2109.8183    502.58427    1825.1752    -21.48984    511.90906   -811.56297   -4812.2413 
37883000    66.944442   -5119.4715   -4990.3635   -5119.4715            0    2087.3128    19.935777    19.927936     20.80106    8263.8221    2536.7431    1601.0547    2124.1407   -27.203987    419.61694    522.55599   -4738.8019 
37884000    60.779063    -5121.783   -5004.5655    -5121.783            0    1933.9157    19.888095    19.903451    20.755761    8215.9964    2003.4212    1873.2746    1925.0514   -90.491917    555.86898    90.305737   -4772.8401 
37885000    67.351489   -5130.6393   -5000.7463   -5130.6393            0    2198.8829    19.991554    19.971531    20.541401    8201.3998    1638.3518    2210.2004    2748.0966    3.9834758   -411.98041    233.66181   -4737.7401 
37886000    67.168715   -5125.3437   -4995.8032   -5125.3437            0    2088.4067    19.871366    19.897551    20.806755    8226.8146    3353.0991     2097.845      814.276   -184.62686    90.393788     354.1149   -4745.2369 
37887000    65.158245   -5126.8524   -5001.1893   -5126.8524            0    2551.2396     19.84107    20.026328    20.696166    8223.4928     3433.277    1726.9234    2493.5186   -194.94059    568.95037   -980.54898    -4695.216 
37888000    64.299249   -5125.7013   -5001.6948   -5125.7013            0    2507.9044    19.841196    19.928192    20.770477    8212.6293    2681.8012    3064.1826    1777.7293    28.760029    1117.2543    121.16139   -4701.3162 
37889000    60.017869   -5125.2887   -5009.5392   -5125.2887            0    1520.3416    19.887576    19.961502    20.725029    8227.5441    935.69977    2166.8105    1458.5146   -346.91085    307.90573    345.32293   -4827.1129 
37890000    67.662539    -5124.573   -4994.0801    -5124.573            0     2152.143    19.858845    19.907234    20.742078    8200.0627    2289.4294    2966.3134    1200.6862    252.98933    322.76377    530.65285   -4736.7064 
37891000       64.422   -5124.8263    -5000.583   -5124.8263            0    2052.3559    19.895796    19.918722     20.72834    8214.6172    3225.9495    1010.2991    1920.8191   -440.21079    566.67437   -902.84841   -4754.7072 
37892000    62.578163   -5119.2862    -4998.599   -5119.2862            0    1745.6152    19.897776    19.991603    20.692225    8231.1275    1966.2004    1522.6233    1748.0219   -44.637843    404.26864    -544.1953   -4789.0509 
37893000    62.578514   -5120.7283   -5000.0403   -5120.7283            0    3070.0246    19.940366    19.827261    20.715008    8189.9445    3112.0423    3325.5184    2772.5132   -164.80446    398.16756    -77.82459   -4633.3506 
37894000      65.3236   -5125.4304   -4999.4483   -5125.4304            0    2500.0145    19.949481    19.881472    20.674151    8199.8859    2928.7701    1923.1028    2648.1705   -26.989058   -394.42699     204.0427   -4700.4793 
37895000    62.160389   -5118.9662   -4999.0846   -5118.9662            0    1566.5629    20.070051     19.89256    20.608796    8227.9527    919.38034    1930.1636    1850.1447    34.323116   -235.92123    16.399149    -4811.103 
37896000    64.067523   -5129.4062   -5005.8466   -5129.4062            0     1911.135    19.966094    19.962433    20.678529    8241.8784    1529.0545    2030.1259    2174.2245    84.175842    77.768124   -448.04834   -4776.1294 
37897000     66.02954   -5134.2453   -5006.9018   -5134.2453            0    1745.7571    20.033896    19.902651    20.625966    8224.1429    575.04822    2568.5897    2093.6334   -170.82251    302.70123   -69.537516   -4797.5145 
37898000    64.223741   -5129.3696   -5005.5087   -5129.3696            0    1163.6125    19.915275    19.862977    20.907206    8270.4029    1425.6847    1037.8656    1027.2873    324.85331    996.90294   -254.62793   -4865.1592 
37899000    67.563301   -5125.3683   -4995.0668   -5125.3683            0    2106.0053     19.90678    19.949314    20.721216    8228.9462    705.42338     3483.021    2129.5714   -104.11332    595.42048   -111.55222   -4742.3236 
37900000    65.117044   -5125.8993   -5000.3156   -5125.8993            0    2207.2111    19.879923    20.028986    20.590438    8198.5913    2441.6064    1661.7168    2518.3103   -79.739978    14.618086   -287.35964   -4736.4037 
37901000    66.845839    -5116.338   -4987.4202    -5116.338            0    2990.4069    19.830062    19.852168    20.783998    8182.0305    3561.7226    2780.4475    2629.0505    51.832577   -386.97979   -269.83426   -4630.5854 
37902000    64.258279   -5120.0927   -4996.1652   -5120.0927            0     2800.199    19.892152    19.935873    20.754312    8230.4843     3145.147    2848.9698    2406.4803   -178.09658    87.484124   -516.93588   -4660.0484 
37903000    61.684017   -5121.1261   -5002.1633   -5121.1261            0    2908.1809    19.948223    19.860969    20.717934    8208.2598    2545.9324    3288.7076    2889.9028   -235.79084    178.20535    398.16421   -4654.0277 
37904000    64.560149   -5120.4336    -4995.924   -5120.4336            0    2472.6012    19.928965    19.924271    20.627964    8190.7478    2291.4373    2211.9396    2914.4268    33.582967    874.52867    1082.1922   -4700.5627 
37905000    65.198856   -5125.3668   -4999.6254   -5125.3668            0    1446.9465    19.898333      19.9346    20.727291    8221.7974    2235.8795    912.35877     1192.601   -91.844768    501.27087    835.85471   -4826.1271 
37906000    63.510709   -5126.9612   -5004.4755   -5126.9612            0    2050.2326    19.873718     19.86592    20.785885     8206.469    2057.3758    2953.9145    1139.4076    49.195074    -454.7193   -154.93221   -4759.0976 
37907000    66.682917   -5125.0427   -4996.4391   -5125.0427            0    2423.2994    19.912724    19.893135    20.693075    8197.0754    2041.9382    2748.5987    2479.3613    -24.93812   -922.48018     111.0814   -4706.7435 
37908000     62.13244    -5127.469   -5007.6414    -5127.469            0    2761.2618      19.9067    19.833811    20.795359    8210.5423    2504.2147    3013.1429    2766.4279    292.72945   -449.60716   -328.60744   -4677.0014 
37909000    63.564974   -5125.3324    -5002.742   -5125.3324            0     2118.626    19.938213    19.941236     20.63883    8205.8463    2377.2044    2157.9035    1820.7701    75.089455    422.95072   -217.92325   -4749.1979 
37910000    62.306785   -5116.1564   -4995.9925   -5116.1564            0    1559.6502    19.930826    19.856478     20.73672    8206.6816    1784.3636    2254.3391    640.24796   -137.57304    19.058411    48.931115   -4809.3241 
37911000    63.483737   -5126.8529   -5004.4191   -5126.8529            0     1324.834    20.038281    19.887072    20.696437    8247.5864    1102.7341    1668.1478    1203.6199   -90.070485    -589.1331    167.32466   -4845.0647 
37912000    64.439674     -5123.76   -4999.4826     -5123.76            0    1715.5838    20.004284    19.896012    20.704372    8240.4535    1662.8349    1677.4676    1806.4488   -65.528376    594.66319    257.69019   -4793.3062 
37913000    65.490581   -5124.5146   -4998.2105   -5124.5146            0    2219.7507    19.925876    19.857727    20.781626    8222.9278    2416.7935    1900.9376    2341.5209   -290.84853   -11.343395   -207.53546   -4732.0114 
37914000    66.729374   -5129.8078   -5001.1146   -5129.8078            0    2727.1513    19.866957    19.944646    20.627864    8173.5728    3322.5659    2349.7793    2509.1088     81.72393    324.18974    223.38032   -4676.0295 
37915000    64.174156   -5123.0024   -4999.2372   -5123.0024            0    2734.2894     19.97089    19.824808    20.700875    8195.8708     2386.425    3369.2592     2447.184   -55.738412   -543.24994    226.77511    -4672.412 
37916000    65.634339   -5121.1811   -4994.5998   -5121.1811            0    2209.5804    19.984214    19.909697    20.603095    8197.5522    3202.3398    1543.0028    1883.3986    38.712984    593.50792   -848.76276   -4730.4381 
37917000    64.190136   -5123.5369   -4999.7409   -5123.5369            0    2148.2347    19.935334    19.787131    20.853997    8226.1314    2108.4547    2774.4765    1561.7728   -42.366413    -625.0613    273.44941   -4742.0178 
37918000    68.030061   -5121.2483   -4990.0466   -5121.2483            0    2300.2267    20.007135    19.900689    20.626807    8212.6824     1991.128    2039.2469    2870.3052   -41.158106    303.97646    570.43316   -4714.5403 
37919000    67.564788   -5120.8855   -4990.5811   -5120.8855            0     2003.926    19.897351    19.919216    20.808316      8247.16    3384.7491    693.23817    1933.7907   -205.72453   -373.85582   -15.354817   -4749.5562 
37920000    64.719325   -5120.7903   -4995.9736   -5120.7903            0    2616.7817    20.072398    19.813974     20.65893    8216.3453    1959.1427    3066.2681    2824.9343   -13.550668    159.90917    623.09198   -4682.4126 
37921000     66.18026   -5122.4532    -4994.819   -5122.4532            0    2464.5431    19.901768    19.958969    20.629852    8194.5645    3828.1752     1302.928    2262.5262   -335.22889   -120.75512    -285.0582   -4700.2831 
37922000    63.461192   -5128.1632    -5005.773   -5128.1632            0    1925.9204    19.907445    19.924234    20.772348    8239.1565    3509.6442    57.633707    2210.4833     16.11444   -146.51548    17.488051   -4774.3551 
37923000    63.402743   -5127.2595   -5004.9819   -5127.2595            0    2516.8931     19.90331    19.901412     20.71475     8205.195    2105.4163     3379.295     2065.968   -223.95672   -91.792147   -545.45329   -4703.7996 
37924000    64.338057    -5122.438   -4998.3566    -5122.438            0    2080.7585    19.988847    19.839213    20.696874     8207.614    2829.4396     1674.711    1738.1249    106.24093    586.82358   -896.45786   -4749.2906 
37925000    63.764365   -5123.4273   -5000.4524   -5123.4273            0    1902.3527    19.972634    19.933968    20.664036    8227.0523    1529.7659    2219.8261     1957.466    -27.11131    504.27111    -36.75041   -4772.2022 
37926000    65.221463   -5131.2741    -5005.489   -5131.2741            0    2123.1491    19.952176    19.888275    20.748779    8233.4138    1979.1579    1990.1901    2400.0993   -283.36929    141.67609   -161.66748     -4750.55 
37927000    62.713657   -5120.4268   -4999.4782   -5120.4268            0    1756.1487    20.025916     19.85751    20.743637    8249.0147    1352.1096    2014.7924     1901.544   -559.84482   -248.27302    94.368363   -4788.2076 
37928000    65.830833   -5124.5877   -4997.6274   -5124.5877            0    2583.5439    19.890505    19.796748    20.735079    8164.7959    2579.8783    3282.6104    1888.1431   -388.01891    437.04512     118.8292   -4689.9914 
37929000    66.025242    -5121.447   -4994.1118    -5121.447            0     1074.379     19.91867    19.951735    20.791363     8262.738     1767.434    712.91189    742.79126   -214.02474    191.46877   -345.94511   -4864.6453 
37930000    67.989673   -5125.1306   -4994.0068   -5125.1306            0    2229.4311    19.954994    19.946869    20.605922    8201.9741    2709.2797    1349.4777     2629.536    277.41009    272.84234   -519.42442   -4727.3281 
37931000    64.616625    -5127.753   -5003.1344    -5127.753            0    2117.4974    20.060314    19.950571    20.557963    8227.5992    1092.1257    2085.0621    3175.3043    465.22783    -195.5873   -403.42709   -4749.0536 
37932000    61.753076   -5118.7833   -4999.6873   -5118.7833            0      1785.55      19.9498    19.809482    20.872045    8248.5325    1966.5868    1856.7993    1533.2639    84.895926    520.18274   -819.91657   -4784.8921 
37933000    63.855782   -5129.3988   -5006.2476   -5129.3988            0    1993.6133    20.030559    19.880083    20.708493    8246.3119    1770.8557    2119.3099    2090.6744   -220.94984   -128.53864    187.49144   -4766.4876 
37934000    60.465167   -5122.2455   -5005.6334   -5122.2455            0    1460.7227    19.928841    19.916052    20.708289    8219.1995    1151.4099       2190.1    1040.6583    -184.4704    427.40019    206.13356   -4830.5386 
37935000    66.812213   -5119.3315   -4990.4786   -5119.3315            0     3060.986    19.965297    19.847798    20.631297     8175.506    3541.1578    2885.1283     2756.672   -69.693078    727.53409   -505.98643    -4625.513 
37936000    67.190581   -5119.7721   -4990.1894   -5119.7721            0    2612.0097     19.83982    19.930245    20.720033    8192.9595    2886.5448    2445.0618    2504.4226   -170.82522   -170.34064    719.98299   -4678.0911 
37937000    63.554591   -5127.0471   -5004.4767   -5127.0471            0    1331.1932     20.07668    19.881982    20.656569    8245.3625    1819.9649    725.00025    1448.6145   -154.76827    405.48184    269.93638   -4844.4005 
37938000    65.370868   -5120.5801   -4994.5069   -5120.5801            0    2294.6996    19.929414    19.895632    20.690447    8203.9335    1411.9233    2914.1384    2558.0371   -54.265816    297.24369   -112.26849   -4719.9553 
37939000    64.312744   -5130.1772   -5006.1446   -5130.1772            0    2339.9926    19.904217    19.928779    20.656096    8193.5861    2562.3546    1855.4114    2602.2119    80.484057   -29.399659    142.36556   -4726.5271 
37940000    68.540124     -5120.05   -4987.8646     -5120.05            0    2169.3817    19.890927    19.903556    20.730892    8207.3636    2607.5379    1970.9537    1929.6535   -160.92708    179.95201    -200.8008   -4728.1983 
37941000    63.577224   -5119.7949   -4997.1809   -5119.7949            0    2046.6096    19.906764    20.000298    20.647211    8220.5056    1493.9201    2353.9836    2291.9251    190.66671   -443.75963   -454.76225   -4751.8177 
37942000    65.616583    -5121.365   -4994.8179    -5121.365            0    2450.0471    19.911554    19.906221    20.654707    8186.7778    1904.4122     2576.623    2869.1063   -68.838924    94.201301   -826.58578   -4702.2927 
37943000    64.331922   -5123.1132   -4999.0437   -5123.1132            0    1815.1083    19.903004    20.070202    20.622602    8237.8491    1049.6861     1867.419    2528.2198   -192.61369    258.07959    339.43942   -4780.9755 
37944000     65.15971   -5119.9254   -4994.2594   -5119.9254            0    1408.2442    19.947771    19.978453    20.698835    8249.0159    1033.0411    1288.2513    1903.4402     247.3954   -75.086155     430.2291   -4824.8428 
37945000    64.487641   -5121.9649   -4997.5951   -5121.9649            0    1761.6489    19.807545    20.029681    20.775983    8242.6386    2628.8378    652.91536    2003.1937   -271.40142    263.97629    276.12721   -4785.8265 
37946000     62.55028   -5120.3437   -4999.7103   -5120.3437            0    1961.9533    19.903826    20.032233    20.572664    8202.6935    3054.3819    1254.8478    1576.6301   -123.65715    156.00577   -224.04479    -4765.006 
37947000     64.33331   -5122.1383   -4998.0661   -5122.1383            0    1957.6989    19.912677    19.895386    20.851436    8260.7218    2287.2095    2057.6881    1528.1991   -72.963387    18.864162   -394.52443    -4762.214 
37948000    66.595329   -5125.3803   -4996.9456   -5125.3803            0    1950.7585    19.947957     19.95582     20.59552    8198.6201    1876.2061    2089.4989    1886.5704    205.10398    469.17647   -438.02682   -4763.6964 
37949000    68.758727   -5124.4583   -4991.8513   -5124.4583            0    1393.2256    19.927111    19.899373    20.780432    8240.2101    1628.2284    1190.8206    1360.6279    17.371106     295.9176   -392.38281   -4824.4204 
37950000     64.65958   -5125.6299   -5000.9285   -5125.6299            0    1993.5325    19.925705    19.973486     20.60872    8201.9778    3144.6484    368.79543    2467.1538     -262.909   -546.42763   -303.77872   -4762.4672 
37951000    61.409258   -5117.3523   -4998.9194   -5117.3523            0    1607.7142    19.796419    19.962255     20.82094    8228.0435    2833.5273    761.37596    1228.2395   -262.90644    693.30784   -483.42387   -4805.9976 
37952000    67.303093   -5128.4983   -4998.6986   -5128.4983            0    1610.2584    19.945868    19.945326    20.655849    8217.4514    2054.2462    1088.8513    1687.6777    160.61907    543.73092   -95.867639   -4805.7203 
37953000    66.388023   -5134.7661   -5006.7312   -5134.7661            0    1687.4985    19.942579    19.830904    20.896588    8264.1696    1597.1005      2078.17     1387.225   -435.48118   -326.50822    214.69186   -4803.3464 
37954000    65.532166   -5130.9873    -5004.603   -5130.9873            0    2189.1338    20.024177    19.905174    20.596692    8209.5269    2340.7544    1873.6329    2353.0141    -344.6565    -679.2939    383.46125   -4742.5035 
37955000    60.718114   -5124.3419   -5007.2419   -5124.3419            0    1736.8479    19.995556    19.921602    20.618002    8213.0472    1563.8999    2042.5281    1604.1157   -55.046454    278.39817    312.16305   -4799.2043 
37956000    64.456096   -5129.1195   -5004.8105   -5129.1195            0    1948.0785    19.982673    19.848758     20.67541    8200.5135     2658.706    593.55182    2591.9776   -175.34245    181.22229   -94.193453   -4771.8279 
37957000    62.775353   -5118.6467   -4997.5791   -5118.6467            0    2746.2262    19.838404    19.886684    20.787703    8201.1657    2471.7488    2702.1022    3064.8277   -227.59454    306.52368   -81.424909   -4669.1151 
37958000    65.331007   -5122.2054   -4996.2091   -5122.2054            0    1772.2008    19.880456    19.990188    20.708573    8229.8778     2146.883    922.53785    2247.1817    -221.9625    345.67981    72.953697   -4783.5019 
37959000    63.393736   -5123.8484   -5001.5882   -5123.8484            0    1877.8728    19.999267    19.921043    20.673811    8236.5755    1649.9192    2245.5636    1738.1355   -40.953492    46.663399   -172.53939   -4776.0144 
37960000    64.772727   -5115.8221   -4990.9025   -5115.8221            0    1949.5596    20.007469    19.909716    20.632465    8218.7987    1980.8804    2002.3531    1865.4453   -260.50317    812.96244    1075.5285   -4757.2229 
37961000    67.432812   -5127.4565   -4997.4067   -5127.4565            0    1988.2266    19.951544    19.847221    20.755608     8218.862    2074.4254    1846.2341    2044.0202   -99.959982    753.05746    426.51066   -4759.0905 
37962000     68.40312   -5131.0992    -4999.178   -5131.0992            0    1687.2633    19.998107    19.945597    20.673301     8246.046     1088.196    2083.1614    1890.4326   -418.94412   -303.81481    19.267714   -4796.2676 
37963000    68.279093   -5123.2545   -4991.5725   -5123.2545            0    2238.9923    20.045446     19.85998    20.596699    8199.5901    1050.1686    3213.0923    2453.7159   -185.69621    436.20383   -271.76808   -4723.8279 
37964000    65.181447   -5122.6595   -4996.9516   -5122.6595            0     2325.628    19.904732    19.900236    20.727996    8210.5429    2449.1753    2891.7207     1635.988   -206.62579   -167.72821   -760.47268   -4718.4755 
37965000    60.749173   -5126.5708   -5009.4109   -5126.5708            0    2110.8894    19.888489    19.979253     20.64903    8205.0396    2787.1414    1520.5579     2024.969   -166.53385   -467.01695    114.68823   -4756.8174 
37966000    64.084843   -5123.7771   -5000.1841   -5123.7771            0    2243.5624    19.987653    19.887832    20.594068    8186.3702     2379.921    2274.7364    2076.0298    37.823817    549.12739   -198.02565   -4732.3256 
37967000    62.462801   -5129.7144   -5009.2497   -5129.7144            0    1654.2524    19.934986    19.887911    20.775515    8236.7692     1905.056    2072.9062    984.79487   -229.50348    187.65898    27.585583   -4810.5329 
37968000    67.828383   -5124.3661   -4993.5533   -5124.3661            0    2741.6796    19.935917    19.887408     20.63434    8180.9736    2370.9868    2923.4927    2930.5592    63.377817    888.97879   -178.98695   -4666.4405 
37969000    65.325552   -5123.5781   -4997.5923   -5123.5781            0     1920.213    19.941095    20.000429    20.672229    8244.7145    2609.9567    1033.7141    2116.9681     63.25708     525.8048    804.28345   -4766.7045 
37970000    64.260132   -5127.7543   -5003.8233   -5127.7543            0    2693.9802    20.097146    19.829673    20.535832    8183.9361    2162.8187    2578.4398    3340.6821    21.918426   -275.00789   -295.43347   -4682.2851 
37971000    63.483103   -5123.6651   -5001.2326   -5123.6651            0    2268.2546    20.044042    19.872975    20.633879    8219.1907    2491.9315    1788.3222    2524.5101    69.070628    666.68685    552.29482   -4729.3404 
37972000    63.899271   -5127.6135   -5004.3784   -5127.6135            0    1880.5624    19.951126    19.888441     20.75622    8236.0014    1795.7729    1587.3445    2258.5699   -80.387632    756.48517    52.122896   -4778.4972 
37973000    65.239785   -5127.9559   -5002.1355   -5127.9559            0    2054.7596    19.902752    19.950566    20.714617     8225.177    1566.3211    2696.7279    1901.2298   -343.26147   -85.066576   -252.61668   -4755.6552 
37974000    64.068039   -5121.7341   -4998.1735   -5121.7341            0    2754.7563    19.895589    19.872245    20.799245    8223.3982    3118.5035    2990.8228    2154.9426   -232.31501   -509.50777    1066.6181   -4667.7961 
37975000    64.972635    -5128.024   -5002.7188    -5128.024            0    1882.6917    20.044894    19.896107    20.578492    8207.0189     1522.034    1617.9928    2508.0483   -187.70869    103.81763    76.025584   -4777.3776 
37976000    62.101119   -5119.7419   -4999.9747   -5119.7419            0    1653.7424    20.041491    19.826838    20.744459    8243.0057    1207.0161    2108.5053    1645.7058   -240.69014    81.605302    331.64768   -4801.1687 
37977000    64.964577   -5107.8775   -4982.5879   -5107.8775            0    2046.4319    19.932085    19.860909    20.798884    8233.6402    1879.8859    1934.4878     2324.922   -254.16667    117.83829    114.76617    -4736.854 
37978000    68.275047   -5124.1956   -4992.5215   -5124.1956            0    1378.5194    19.926911    19.852909    20.827412    8239.4733    1889.9544    1683.1177    562.48607   -630.21665   -271.57211    -69.24519   -4826.8727 
37979000    67.673082   -5125.7849   -4995.2717   -5125.7849            0    1832.2608     19.96934     19.96438    20.656075    8235.0708    1859.6989     1675.482    1961.6016   -356.86792    345.50801   -369.43462    -4775.217 
37980000     69.21461   -5121.5157   -4988.0295   -5121.5157            0    2864.4334    19.934055    19.896551    20.657186    8193.0312    3923.9026    1712.0417    2957.3557   -318.38159    87.921519   -35.729773   -4645.7671 
37981000    67.444251   -5123.2866   -4993.2147   -5123.2866            0    2037.8677    19.942796    19.891954    20.726683    8222.2996    1905.3955    2260.6715     1947.536   -345.97622   0.25847721    1008.4619   -4748.8463 
37982000    64.923897   -5121.3446   -4996.1334   -5121.3446            0    2673.0662    19.933253    19.904935    20.672655    8202.2912    2596.6547    2991.2967    2431.2471    477.46847   -456.57145   -25.952549   -4676.3758 
37983000    65.157342   -5128.9719   -5003.3104   -5128.9719            0    1859.3877    19.915853    19.901317    20.817815    8251.1762    2314.4076    1475.3754    1788.3801    230.80917    825.32273    -235.0812   -4779.5611 
37984000    68.516563   -5125.9953   -4993.8554   -5125.9953            0    2473.5373    20.008138    19.918828    20.576717    8200.6171    1761.5977    2400.2477    3258.7664    84.074642     600.5819   -587.71148   -4698.0263 
37985000    63.776888   -5130.4287   -5007.4296   -5130.4287            0    1700.5973    19.952252    19.970765    20.659157    8231.8835    1674.1388    1577.0284    1850.6247    64.801541   -38.638454   -40.863925   -4803.2668 
37986000    62.632392   -5128.0022   -5007.2104   -5128.0022            0    1990.2164    20.037289    19.927992    20.682147     8258.442    1241.1118    2521.1374       2208.4   -368.33441   -387.54682    119.68354   -4767.5069 
37987000    64.863927   -5123.1836   -4998.0881   -5123.1836            0    2382.3487     19.93717    19.937799    20.672791    8217.5021    2770.5509     2253.732    2122.7631   -11.317208     579.3189    183.15057   -4712.5783 
37988000    65.985728   -5124.3047   -4997.0457   -5124.3047            0    1657.9643    19.903147    19.895036    20.907454    8278.8046    2677.0959    1149.8497    1146.9474    347.87509   -512.53594    113.86065   -4796.8666 
37989000    61.899817   -5117.1511   -4997.7721   -5117.1511            0    2549.3795    19.998719    19.909203    20.573101    8191.3561    1551.0456    3074.9884    3022.1046   -273.73847    359.30321   -74.887588   -4693.2168 
37990000    66.258953   -5124.0117   -4996.2258   -5124.0117            0    1486.5999    20.022697    19.831482    20.740075    8235.4637    2039.2469    713.06893    1707.4839   -101.28621    235.77912   -80.839139   -4817.6765 
37991000    61.968312   -5122.1026   -5002.5915   -5122.1026            0    2391.4257    20.087041    19.799364    20.683825     8226.177    1786.0953    2944.2968     2443.885   -383.00723   -690.05366   -88.309018   -4715.6913 
37992000    63.804104   -5122.8565   -4999.8049   -5122.8565            0    1468.1392    20.043474     19.90503     20.65305    8239.8636    475.48815    2412.0486    1516.8809    92.784581   -795.58541   -658.79642   -4823.3787 
37993000    66.455743   -5121.8682   -4993.7027   -5121.8682            0     2129.309    19.883393    19.984085    20.666991    8212.0577    3243.0068    854.49466    2290.4257    249.09724    318.36315    6.7452681   -4738.6872 
37994000     64.28805   -5115.7959    -4991.811   -5115.7959            0    3059.8323    19.936323    19.786986    20.711611    8170.3111    2970.6471    3478.3429    2730.5069   -40.244042   -163.72395    204.21871   -4627.2148 
37995000    66.844438   -5115.2696   -4986.3545   -5115.2696            0    1773.2841    19.966574     19.95962    20.586457    8204.2224    1824.1047    1090.6421    2405.1055   -159.34401   -3.5320358    -121.2453   -4774.1807 
37996000    68.701052   -5126.9669   -4994.4712   -5126.9669            0    1680.0755    19.910184    19.891246     20.76667    8224.3981    1682.4072    1928.3062    1429.5129   -170.56205     22.89594    279.85481   -4792.9555 
37997000    60.286504   -5114.0945   -4997.8269   -5114.0945            0    2677.1869    19.994447    19.920477    20.605006    8206.9519    1617.9698    3349.0722    3064.5187    312.83775   -542.27165    372.20489   -4677.3945 
37998000    66.969155   -5122.5647    -4993.409   -5122.5647            0    1050.3434    20.005517    19.873393     20.85533    8291.6098    1067.0512    780.24018    1303.7388   -298.81332    900.03292    642.48957   -4866.3967 
37999000    60.973302   -5121.5604   -5003.9683   -5121.5604            0    1540.8418    20.046138    19.824802    20.712575    8231.3989    777.24066    2090.0765    1755.2082    70.366411   -17.640215   -378.81365   -4818.9956 
38000000    63.882864     -5110.17   -4986.9666     -5110.17            0    1985.7143    20.009424    19.913631    20.689959    8244.1271    1738.0944    2303.0463    1916.0023   -245.34526    209.77167   -477.53352   -4748.2199 
Loop time of 343.35 on 64 procs for 250000 steps with 972 atoms

Performance: 125.819 ns/day, 0.191 hours/ns, 728.120 timesteps/s
196.6% CPU use with 32 MPI tasks x 2 OpenMP threads

MPI task timing breakdown:
Section |  min time  |  avg time  |  max time  |%varavg| %total
---------------------------------------------------------------
Pair    | 26.303     | 34.681     | 44.784     |  79.5 | 10.10
Bond    | 1.0732     | 1.2772     | 2.1468     |  17.7 |  0.37
Kspace  | 151.04     | 162.46     | 173.74     |  41.8 | 47.32
Neigh   | 0.087344   | 0.093155   | 0.10314    |   1.6 |  0.03
Comm    | 58.356     | 62.554     | 65.525     |  25.2 | 18.22
Output  | 0.61175    | 0.6121     | 0.61368    |   0.0 |  0.18
Modify  | 66.745     | 68.792     | 71.879     |  15.9 | 20.04
Other   |            | 12.88      |            |       |  3.75

Nlocal:        30.3750 ave          35 max          26 min
Histogram: 2 3 6 0 6 4 2 5 2 2
Nghost:        2638.41 ave        2656 max        2617 min
Histogram: 3 1 2 6 0 4 6 5 4 1
Neighs:        9564.81 ave       11489 max        6952 min
Histogram: 1 0 3 6 5 1 3 6 4 3

Total # of neighbors = 306074
Ave neighs/atom = 314.89095
Ave special neighs/atom = 2.0000000
Neighbor list builds = 297
Dangerous builds = 0

unfix		3
unfix		2
unfix		1

write_data	data.final.${pid}
write_data	data.final.1
System init for write_data ...
PPPM initialization ...
  extracting TIP4P info from pair style
  using 12-bit tables for long-range coulomb (../kspace.cpp:340)
  G vector (1/distance) = 0.37263824
  grid = 24 24 25
  stencil order = 5
  estimated absolute RMS force accuracy = 0.0033801796
  estimated relative force accuracy = 1.017931e-05
  using double precision FFTW3
  3d grid and FFT values/proc = 3458 576
Last active /omp style is kspace_style pppm/tip4p/omp
WARNING: Not all mixed pair coeffs generated from mixing. Use write_data with 'pair ij' option to store all pair coeffs. (../write_data.cpp:312)

write_restart   restart.lmp.${pid}
write_restart   restart.lmp.1
System init for write_restart ...
PPPM initialization ...
  extracting TIP4P info from pair style
  using 12-bit tables for long-range coulomb (../kspace.cpp:340)
  G vector (1/distance) = 0.37263824
  grid = 24 24 25
  stencil order = 5
  estimated absolute RMS force accuracy = 0.0033801796
  estimated relative force accuracy = 1.017931e-05
  using double precision FFTW3
  3d grid and FFT values/proc = 3458 576
Last active /omp style is kspace_style pppm/tip4p/omp
Total wall time: 0:05:43
