LAMMPS (30 Jul 2021)
  using 1 OpenMP thread(s) per MPI task
package omp 0
using multi-threaded neighbor list subroutines
echo both

include		in.partitions
variable        pid world 0
include		in.temp
variable        temperature equal 259.86
variable	tempDamp equal 100.0
include		in.pressure
variable        pressure equal 2750.0
variable        pressureDamp equal 1000.0 # This is 1 ps
include		in.seed
variable        seed world 745823

units		real
atom_style	full

read_restart	restart.lmp.${pid}
read_restart	restart.lmp.0
Reading restart file ...
  restart file = 30 Jul 2021, LAMMPS = 30 Jul 2021
  restoring atom style full from restart
  orthogonal box = (0.038700227 -0.10917063 -0.11746774) to (19.961301 20.109172 20.817466)
  4 by 4 by 4 MPI processor grid
  restoring pair style lj/cut/tip4p/long/omp from restart
  restoring bond style harmonic/omp from restart
  restoring angle style harmonic/omp from restart
  972 atoms
  648 bonds
  324 angles
Finding 1-2 1-3 1-4 neighbors ...
  special bond factors lj:    0        0        0       
  special bond factors coul:  0        0        0       
     2 = max # of 1-2 neighbors
     1 = max # of 1-3 neighbors
     1 = max # of 1-4 neighbors
     2 = max # of special neighbors
  special bonds CPU = 1.539 seconds
  read_restart CPU = 1.824 seconds
include 	in.setup
variable	out_freq equal 1000
variable	out_freq2 equal 10000
variable	out_freq3 equal 1000

timestep	2.0

neigh_modify    delay 7 every 1

include		in.tip4p
# This is TIP4P/Ice

# create groups ###
group ox type 2
324 atoms in group ox
group hy type 1
648 atoms in group hy

# set charges - beside manually ###
set group ox charge -1.1794
Setting atom values ...
  324 settings made for charge
set group hy charge 0.5897
Setting atom values ...
  648 settings made for charge

# ### TIP3P Potential Parameters ###
pair_style lj/cut/tip4p/long/omp 2 1 1 1 0.1577 8.5
pair_coeff 1 1*2 0.000 0.000
pair_coeff 2 2 0.21084 3.1668
bond_style  harmonic
bond_coeff  1 450 0.9572
angle_style harmonic
angle_coeff 1 55 104.52
kspace_style pppm/tip4p/omp 1.0e-5
pair_modify tail yes

thermo          ${out_freq}
thermo          1000
thermo_style    custom step temp pe etotal epair emol press lx ly lz vol pxx pyy pzz pxy pxz pyz enthalpy

restart 	${out_freq3} restart.lmp.${pid} restart2.lmp.${pid}
restart 	1000 restart.lmp.${pid} restart2.lmp.${pid}
restart 	1000 restart.lmp.0 restart2.lmp.${pid}
restart 	1000 restart.lmp.0 restart2.lmp.0


include         in.dump
dump            myDump all atom ${out_freq2} dump.water.${pid}
dump            myDump all atom 10000 dump.water.${pid}
dump            myDump all atom 10000 dump.water.0
dump            myDump2 all dcd ${out_freq2} dump.dcd
dump            myDump2 all dcd 10000 dump.dcd
dump_modify     myDump append yes
dump_modify     myDump2 append yes


variable natoms 	equal  "count(all)"                        # NUMBER ATOMS
variable H      	equal  "enthalpy/v_natoms"                 # ENTHALPY-per-atom
variable Vol      	equal  "vol/v_natoms"                 # volume-per-atom
fix AVG all 		ave/time ${out_freq} 1 ${out_freq} v_Vol v_H file vol_enthalpy.dat
fix AVG all 		ave/time 1000 1 ${out_freq} v_Vol v_H file vol_enthalpy.dat
fix AVG all 		ave/time 1000 1 1000 v_Vol v_H file vol_enthalpy.dat


timer           timeout 02:55:00 every 1000
New timer settings: style=normal  mode=nosync  timeout=02:55:00

fix 		1 all shake 1e-6 200 0 b 1 a 1
       0 = # of size 2 clusters
       0 = # of size 3 clusters
       0 = # of size 4 clusters
     324 = # of frozen angles
  find clusters CPU = 0.007 seconds
fix             2 all nph aniso ${pressure} ${pressure} ${pressureDamp}
fix             2 all nph aniso 2750 ${pressure} ${pressureDamp}
fix             2 all nph aniso 2750 2750 ${pressureDamp}
fix             2 all nph aniso 2750 2750 1000
fix             3 all temp/csvr ${temperature} ${temperature} ${tempDamp} ${seed}
fix             3 all temp/csvr 259.86 ${temperature} ${tempDamp} ${seed}
fix             3 all temp/csvr 259.86 259.86 ${tempDamp} ${seed}
fix             3 all temp/csvr 259.86 259.86 100 ${seed}
fix             3 all temp/csvr 259.86 259.86 100 745823


run             250000
PPPM initialization ...
  extracting TIP4P info from pair style
  using 12-bit tables for long-range coulomb (../kspace.cpp:340)
  G vector (1/distance) = 0.37201672
  grid = 24 24 25
  stencil order = 5
  estimated absolute RMS force accuracy = 0.0034560441
  estimated relative force accuracy = 1.0407774e-05
  using double precision FFTW3
  3d grid and FFT values/proc = 2366 288
Last active /omp style is kspace_style pppm/tip4p/omp
Neighbor list info ...
  update every 1 steps, delay 7 steps, check yes
  max neighbors/atom: 2000, page size: 100000
  master list distance cutoff = 10.8154
  ghost atom cutoff = 10.8154
  binsize = 5.4077, bins = 4 4 4
  1 neighbor lists, perpetual/occasional/extra = 1 0 0
  (1) pair lj/cut/tip4p/long/omp, perpetual
      attributes: half, newton on, omp
      pair build: half/bin/newton/omp
      stencil: half/bin/3d
      bin: standard
Per MPI rank memory allocation (min/avg/max) = 9.227 | 9.230 | 9.237 Mbytes
Step Temp PotEng TotEng E_pair E_mol Press Lx Ly Lz Volume Pxx Pyy Pzz Pxy Pxz Pyz Enthalpy 
 5250000      262.542   -4656.6566   -4150.3223   -4656.6566            0    3484.4082    19.922601    20.218342    20.934933    8432.6322    3913.1132    2629.8218    3910.2896   -859.13128    784.18254   -210.97262   -3721.8053 
 5251000    267.99188   -4714.3338   -4197.4889   -4714.3338            0    3756.7124    19.986123    19.941621    21.043603    8387.0475    3799.6535    4758.0864    2712.3973   -692.39433    565.88511   -732.67457    -3737.981 
 5252000    268.77325   -4710.3375   -4191.9856   -4710.3375            0    2607.4142     20.20198    20.190456    20.821268    8492.7285    3755.9115     2183.201    1883.1299   -344.70259     592.9411     110.5282   -3869.0372 
 5253000    264.75548    -4711.646   -4201.0428    -4711.646            0     2509.559    20.187354    20.271929    20.681624    8463.6777    2352.7134    901.12057    4274.8431   -443.47901   -753.94112    686.33942   -3891.2778 
 5254000    248.69079   -4712.8028   -4233.1817   -4712.8028            0      1999.14    20.173607    20.035821    20.982658    8481.0807    1807.5564    3068.6128    1121.2509   -73.321874   -136.57977   -801.96912   -3985.9123 
 5255000    258.38248   -4694.2793   -4195.9669   -4694.2793            0    1235.3393    20.151211     19.96469    21.099309    8488.5196    1567.3247    605.87824    1532.8149    264.85118   -65.107761   -334.22961   -4043.0364 
 5256000    259.48229   -4676.4176   -4175.9841   -4676.4176            0    4282.7903    20.077626    20.351796      20.6798    8450.0917    5822.6204    2572.7132    4453.0374   -163.66158    596.67429   -995.84317   -3648.1905 
 5257000    252.99226   -4677.4721   -4189.5553   -4677.4721            0     1178.868    20.352693    20.149894    20.664686     8474.683   -546.14113     2015.283    2067.4621   -290.09164     302.9553   -175.27199   -4043.8536 
 5258000    261.57007   -4693.7021   -4189.2422   -4693.7021            0    3167.1749     19.98145      20.2521    20.931618    8470.3208    3539.5356     3141.557    2820.4322    128.10272    316.92501    1222.3704   -3797.9981 
 5259000    264.72352   -4672.1297   -4161.5881   -4672.1297            0    1805.0478    20.017554    20.111529    21.231183    8547.3267    3569.3765    956.16379    889.60314   -916.94821   -461.13465    656.92923   -3936.5817 
 5260000    266.80326   -4692.9209   -4178.3683   -4692.9209            0    1652.4153    20.073378    20.259003    20.888268    8494.5616    2150.7127   -44.776919    2851.3103   -734.34878    456.26194   -71.928224   -3973.6597 
 5261000    251.00618   -4679.9412   -4195.8547   -4679.9412            0    1424.2744    20.133314    20.294836    21.000199    8580.7301    1484.6998    2022.2055    765.91799    26.973283   -375.94279     301.1965   -4017.6194 
 5262000    269.15813   -4669.6437   -4150.5496   -4669.6437            0    3068.0778    20.248224    19.921977    20.786894    8385.1142    1625.2465    4142.4882    3436.4986   -752.17622   -1625.2028    813.26602   -3775.3596 
 5263000     269.5413   -4674.2448   -4154.4118   -4674.2448            0    2886.4037     20.04183    20.232235    20.949042    8494.6482    3719.4891    2075.2314    2864.4905   -221.65663    208.08393    1282.0379   -3796.8275 
 5264000    267.93871   -4721.0582   -4204.3159   -4721.0582            0    3060.4118    19.990075     20.11061    21.013091    8447.5275    2141.6978    4888.2135    2151.3242   -103.04268    254.13784   -586.48388   -3827.2776 
 5265000    255.53185   -4693.9472   -4201.1326   -4693.9472            0     3027.868    20.252874    20.092797    20.664697    8409.2273    2210.5763    3561.9557    3311.0719   -299.62569    1505.5867   -439.26437    -3829.795 
 5266000    261.93751   -4699.4722   -4194.3037   -4699.4722            0    1385.6692    20.357173    20.238512    20.798171    8568.8234    2270.1558    947.85319    938.99863   -467.38062   -745.77698   -466.76678   -4021.1401 
 5267000    267.60597   -4707.0317   -4190.9311   -4707.0317            0    4460.0071    19.982679    20.054656    20.981399    8408.2063    3877.4268    4654.7345    4847.8599   -38.498549    1011.3216    1090.1989   -3644.0225 
 5268000    243.50503   -4692.3663   -4222.7464   -4692.3663            0    4710.1429    20.081285    20.085699    20.835012    8403.7318    4108.5176    4752.6531    5269.2578    419.35358    390.82813    256.48499   -3645.4722 
 5269000    258.76642   -4704.2183   -4205.1655   -4704.2183            0    2331.2849     20.16787    20.116918    20.954096    8501.3991     2395.577    2579.8711    2018.4066   -476.62613     426.2074   -1728.3152    -3916.123 
 5270000    256.62997   -4698.7383   -4203.8058   -4698.7383            0    1977.3473    19.920045     20.27347    21.029855    8492.8743    3433.2337    913.77698    1585.0312   -168.01247    362.15398   -1255.0747   -3958.8918 
 5271000    252.97066   -4713.6509   -4225.7757   -4713.6509            0     2743.175    20.324048    19.896803     20.80031    8411.3039    1038.5828    3419.6632     3771.279    -328.0846   -140.41229    1060.6549   -3889.2698 
 5272000    268.18738   -4705.8452   -4188.6233   -4705.8452            0    3246.9509    20.102452    20.193381    20.812195    8448.4288    3669.1076    2792.5517    3279.1934   -433.92456   -171.84057    231.17521    -3788.561 
 5273000    253.64075   -4705.4614   -4216.2939   -4705.4614            0    1972.9159     20.27121    20.133727    20.859629    8513.5451    2716.9432     562.9999    2638.8047    19.209261    504.64697   -118.24669   -3971.3341 
 5274000    262.84014   -4649.9566   -4143.0473   -4649.9566            0      3360.69    20.137372    20.163265    20.802929    8446.7209    2244.5561    4904.6843    2932.8295   -363.84735    1256.4223    768.21728   -3729.0548 
 5275000    280.46565   -4697.9873   -4157.0857   -4697.9873            0    1765.6519    20.051147    20.152891    20.937383     8460.557    1168.8323     2012.867    2115.2564    234.08435    877.53693   -514.49304   -3939.2245 
 5276000    274.02631   -4694.5925   -4166.1097   -4694.5925            0    2129.0936    19.939608    20.331825    20.901769    8473.7571    3434.5052    1712.2041    1240.5714    -172.3691    157.99328    448.74794   -3902.9941 
 5277000    278.48436   -4694.6794   -4157.5989   -4694.6794            0     3896.262     19.97443    20.444582    20.565813    8398.4382    4603.6528    1940.3228    5144.8104   -24.663323    303.80502   -288.59579   -3680.3745 
 5278000    248.89606   -4690.5758   -4210.5588   -4690.5758            0    1864.5693    20.330352    20.131173    20.846263      8531.83    1389.1823    2229.8479    1974.6776    91.301829   -1137.8161   -183.47268   -3978.5542 
 5279000    269.72617    -4704.863   -4184.6734    -4704.863            0    2769.5256    20.107802    20.108232    20.923676    8460.1187    2740.6712    3136.5749    2431.3307    -196.3691   -451.29461   -573.96959   -3842.9633 
 5280000    268.02397   -4690.0154   -4173.1086   -4690.0154            0     2361.995    20.078581    20.064757    21.079563    8492.3628     3157.917    2373.4392     1554.629    278.86236     1430.417   -11.118036   -3880.5699 
 5281000    264.84089   -4677.6668   -4166.8989   -4677.6668            0      1257.71    20.264508    20.125762    20.854216    8505.1555    561.35014    1750.6049    1461.1749    417.65397    408.97171    85.430557   -4010.8939 
 5282000    265.19909   -4691.6096   -4180.1508   -4691.6096            0    3511.3152    20.052009     20.23205    20.686256    8392.2746    3362.0605    3422.7146    3749.1703   -29.597531    604.85086    1413.9101   -3750.3914 
 5283000    257.92932   -4681.5618   -4184.1234   -4681.5618            0    2425.7387    20.167564    20.076519    21.034656    8516.8161    2722.1833    2442.4379    2112.5947    155.06798    1140.1023   -538.98451   -3882.8247 
 5284000    256.69347   -4710.6509    -4215.596   -4710.6509            0    4827.0805    19.932814    20.055914    21.029816    8407.1064    7463.1608    3124.2309    3893.8498   -121.57713   -389.60769    1369.3031   -3623.7524 
 5285000    251.70829   -4730.4095   -4244.9689   -4730.4095            0    4412.3411    20.138741    20.258997    20.636237    8419.3925    4015.0726    3160.5119    6061.4387    943.67359   -817.72017   -789.16997   -3703.1855 
 5286000    253.82969   -4713.8771   -4224.3452   -4713.8771            0    2886.3864    20.278641    20.139683    20.551985    8393.5419    2706.7353     2208.839     3743.585   -587.31406    434.76429   -313.48033   -3871.0192 
 5287000    265.72948   -4722.4485   -4209.9669   -4722.4485            0    2545.8895    20.063213    20.199752    20.848963    8449.4995    2694.9229    1558.1375     3384.608   -353.35836   -398.00163    -1401.473   -3896.2438 
 5288000    256.82716   -4666.6885   -4171.3757   -4666.6885            0    3865.7643    20.051122    20.044527    20.967981    8427.3514    4464.0125    4627.2867    2505.9937    345.99444   -1715.0849    1493.6295   -3696.2568 
 5289000    252.00365   -4710.3535   -4224.3433   -4710.3535            0    2875.3283    20.253439    20.102525    20.725106    8438.1286     2188.884    3028.8023    3408.2987    775.64345    1704.9398   -131.62265   -3870.5012 
 5290000    257.48341   -4693.0378   -4196.4594   -4693.0378            0    2041.2934    20.067325    20.338314    20.813686    8494.8051    2006.1808    647.28462    3470.4148    -32.31073    621.74952    1678.1023   -3943.5676 
 5291000    259.79245    -4695.023   -4193.9914    -4695.023            0    3041.4091    20.142112     20.23779     20.77504    8468.5674     3040.556    2891.8323    3191.8391    557.97676   -95.796481   -88.842237   -3818.3611 
 5292000    261.17744   -4708.0864   -4204.3837   -4708.0864            0    2610.9045    20.227733    19.914855    21.071224     8488.171    1643.5974    3873.1753    2315.9409    207.58844   -286.40938    -1098.993   -3881.1765 
 5293000    262.82849   -4685.5537   -4178.6668   -4685.5537            0    2617.9116    20.125624    19.970772    20.980265    8432.4772    3691.0414    1238.3841    2924.3095   -113.46199   -790.66574     92.76748   -3856.7186 
 5294000    257.65593   -4713.4128   -4216.5016   -4713.4128            0    3837.3281    20.166747    19.941812    20.835676    8379.3064     3464.678    4324.4164    3722.8899   -752.98403    238.56518   -890.53409   -3747.5664 
 5295000    256.44302   -4719.2002   -4224.6283   -4719.2002            0    2990.6893     20.28994    20.278857    20.536179    8449.7507    1997.0174    2899.7048    4075.3458    0.6125763    -121.3445   -1035.5145   -3856.0828 
 5296000    250.53189   -4695.2797   -4212.1079   -4695.2797            0    4460.4884     20.08391    20.011914    20.874609    8389.8705    4944.0966    4081.0042    4356.3643    210.65599   -121.01064   -270.28571    -3666.333 
 5297000    264.25015   -4704.4537   -4194.8251   -4704.4537            0    2476.4541    20.151385    20.170082    20.928994    8506.6962    3230.1698     2353.535    1845.6575    533.31812    464.66492   -178.75178   -3887.5926 
 5298000    256.27377   -4717.2094   -4222.9638   -4717.2094            0    3214.8112    19.902283    20.178825    20.889353    8389.2617    4243.0527    2773.5331    2627.8477    151.24007    517.99456   -255.77237   -3829.6356 
 5299000    257.01088   -4678.2454   -4182.5783   -4678.2454            0    1874.5914    20.333637    20.080116    20.861649    8517.8486    950.48308    1165.3891    3507.9021    159.30139   -1099.6555    470.72754   -3949.7089 
 5300000    246.98704   -4705.4602    -4229.125   -4705.4602            0    2808.1554    20.159737    20.107378    20.823664    8441.0687    2378.3978    3210.8377    2835.2307    161.27944    353.84467   -846.89776   -3883.4289 
 5301000    269.55065   -4648.5035   -4128.6524   -4648.5035            0    3595.6424    20.143235    20.192033    20.841593    8476.9611    3124.7854    3226.8841    4435.2576   -316.77248   -304.05646   -174.89043   -3684.1311 
 5302000    263.02689   -4730.5363   -4223.2668   -4730.5363            0    3662.2758    20.124688    20.307609    20.547041    8397.2529    3121.8814    3372.2436    4492.7025    2.7876745    1282.7008    221.26269   -3774.7651 
 5303000    250.43119   -4717.0798   -4234.1022   -4717.0798            0    2998.4611    20.040472    20.157343    20.982924     8476.318    2601.4975    3974.0693    2419.8166     27.05241   -228.73176    581.35645   -3863.4372 
 5304000    274.26051   -4702.1432   -4173.2087   -4702.1432            0    2601.5048    20.031271    20.177949    20.971878     8476.623    1469.9296     4229.118    2105.4667   -564.94513     57.47511    946.83988   -3851.6033 
 5305000    258.45903   -4693.2434   -4194.7834   -4693.2434            0    2240.7612    20.114636    20.157257    20.826298     8444.145    1657.7078    2671.4035    2393.1724   -801.33899    75.881218    563.60973   -3918.8355 
 5306000    273.28981   -4671.9118   -4144.8494   -4671.9118            0    4059.4363    19.804934    20.171082    20.999308    8388.9492    6642.4961    2942.7073    2593.1054   -546.99868    704.11236   -2125.1304   -3648.2009 
 5307000    248.50196   -4714.6092   -4235.3523   -4714.6092            0     2836.129    19.903691    20.224111      20.8633    8398.1969    4589.2082    1526.9469    2392.2318   -136.64363   -231.34443   -1065.3904   -3887.9858 
 5308000    256.33427   -4684.3543   -4189.9921   -4684.3543            0    2803.8564    20.084225    20.218037     20.70315    8406.7958    3600.6609    573.01972    4237.8887    64.445936     56.08278   -22.924428   -3846.2268 
 5309000    279.54022   -4750.1935   -4211.0767   -4750.1935            0    2331.3895    20.205825    20.021796    20.867255    8441.9924    2928.8442    2121.9141    1943.4102   -425.90358    101.21668    505.76831   -3924.0412 
 5310000    270.88906   -4728.1617   -4205.7294   -4728.1617            0    2455.7082    20.074181    20.298127    20.842664    8492.7243    1824.1283    2209.1822     3333.814    498.53786    307.82346    377.09971   -3901.5711 
 5311000     264.1028   -4692.3873   -4183.0428   -4692.3873            0    2963.0561    19.981262    20.186409    20.914746    8435.9614    3804.5362     2628.116     2456.516    68.761326   -257.96504    441.99174   -3818.4985 
 5312000    263.11039   -4664.3251   -4156.8946   -4664.3251            0    2208.8331    20.303849    20.088882    20.987855    8560.5605    2770.2119    1551.9683     2304.319   -290.39326    -1078.271   -462.67644   -3881.1284 
 5313000    271.20427   -4691.7852    -4168.745   -4691.7852            0    2355.2973    20.107233    20.305958    20.743409    8469.4641    1485.0176    1787.9708    3792.9035    387.45072   -654.56608   -1418.0958   -3877.8223 
 5314000    254.93329   -4683.8456   -4192.1853   -4683.8456            0    3163.6719    20.259787    19.888594     21.01218    8466.6202    1669.9167    6310.1941    1510.9051   -361.99593   -1015.7965    260.60281   -3801.5447 
 5315000    262.75891   -4715.4741   -4208.7214   -4715.4741            0    3423.3523    20.008515    20.177458    21.033815    8491.7919    4031.3845    3010.9307    3227.7418   -384.46529   -330.01343   -118.29604   -3784.7595 
 5316000    274.50718   -4680.5259   -4151.1157   -4680.5259            0     3181.954    20.250117    20.131441    20.842568    8496.7656    2265.3287    4499.9453    2780.5879     483.1533    701.10016    625.57592   -3756.8188 
 5317000    248.43606   -4704.6836   -4225.5538   -4704.6836            0    2125.3373    20.308551    19.916082    20.991568    8490.3916    489.33801     3628.456    2258.2177   -203.88186   -244.47723   -398.02256   -3962.3868 
 5318000    265.94619   -4714.9952   -4202.0956   -4714.9952            0    3390.6702    20.182662    20.043048    20.792802    8411.1474    3179.4771    3750.3364    3242.1969   -228.37175   -206.61984     361.7809   -3786.1691 
 5319000    250.90485   -4722.5084   -4238.6173   -4722.5084            0     3406.239    20.106241    20.202188    20.800607         8449    1501.8544     4126.464    4590.3985    123.29217      183.206   -158.80667   -3818.9005 
 5320000    268.25678   -4707.2884   -4189.9327   -4707.2884            0    3548.6549    20.076476    20.021881    20.879929    8393.0803    5145.2432    3151.7891    2348.9324    244.43427     2690.513   -390.99565   -3755.5614 
 5321000    261.52642   -4690.7868   -4186.4111   -4690.7868            0    2705.3631    20.197954    20.062654    20.888712     8464.619    2464.0997     3418.913    2233.0767   -247.01209   -864.24259    1211.6885     -3852.44 
 5322000    279.47618   -4673.9061   -4134.9128   -4673.9061            0    3870.6389     20.30866    20.194424    20.629757     8460.711    3549.9799    3476.3995    4585.5371   -773.86673    86.818305    702.93698   -3657.3116 
 5323000    248.57043   -4712.2111   -4232.8221   -4712.2111            0    3083.1717    20.097955    20.214382    20.841472    8467.2178     3355.466    2453.7877    3440.2614   -536.35164   -245.40411   -1814.0664   -3852.0946 
 5324000    251.00633   -4715.5628    -4231.476   -4715.5628            0    1897.8305    20.161913    19.992675    21.044654    8482.9016    1910.3155    1698.2056    2084.9703   -161.03683   -569.31532   -1029.1397    -3996.687 
 5325000    254.05869   -4696.6106    -4206.637   -4696.6106            0    1548.7793     20.26374    19.902638    21.160223    8533.9575   -406.40012    4734.3101    318.42803   -350.96973   -345.63773   -767.24205   -4013.8775 
 5326000    264.89318    -4720.501   -4209.6322    -4720.501            0    2382.7356    20.196479     20.12687    20.962741    8521.1845    3533.8186    1820.3118    1794.0764    571.14709   -16.768704    638.29262   -3913.5231 
 5327000    241.31817   -4708.2483    -4242.846   -4708.2483            0     4380.453    20.031029    20.355505    20.567956    8386.4135    5389.9872    2359.8715    5391.5003    412.84894    205.15382    389.83857   -3707.0848 
 5328000    269.66946   -4676.6925   -4156.6123   -4676.6925            0    2251.0538    20.232707    20.187964    20.826452    8506.7135    722.75902    4480.0212    1550.3812    70.828774   -522.87079     626.4165   -3877.3428 
 5329000    254.93906   -4716.9284    -4225.257   -4716.9284            0    3483.5783    20.065034    20.147888    20.972744    8478.6102    2211.4137    5420.3001     2819.021   -129.55174    1911.0161    578.39471   -3794.5062 
 5330000    278.94022    -4711.041   -4173.0813    -4711.041            0    2622.8028    19.954275    20.112903    20.859511    8371.7227    2838.9653    3626.6436    1402.7995    8.6710664   -564.00256    -215.1579   -3852.8555 
 5331000     281.7559   -4736.1517   -4192.7617   -4736.1517            0    3084.3795    20.194379    20.055648    20.801733    8424.9381    3158.9672    1459.0387    4635.1326    77.541954    917.88431    1209.0183   -3813.7868 
 5332000    260.54613   -4732.8448   -4230.3596   -4732.8448            0     2104.094    20.120486     20.18274    20.788106    8441.7701    2531.8178    1615.8549    2164.6093    -1233.619   -161.13542   -138.93243    -3971.315 
 5333000    260.38537   -4684.7172   -4182.5421   -4684.7172            0     3617.328    20.142253    20.126096    20.805213    8434.1195    3889.1569     2716.173    4246.6539    -925.1996    386.16938   -402.34204      -3737.6 
 5334000    267.47828   -4666.4746   -4150.6203   -4666.4746            0    2600.9054    20.293939    19.770999    21.192614     8503.143    1745.8546    2540.7637    3516.0978    41.914226   -962.51615     210.7527    -3828.083 
 5335000    250.75698   -4703.9801   -4220.3742   -4703.9801            0    3792.2276     20.09538    20.090675    20.983291    8471.5791    6068.5847    1469.0122    3839.0859   -131.00745    757.45806    409.50066   -3751.8472 
 5336000    247.49383   -4690.1669   -4212.8543   -4690.1669            0    1952.0653      20.2504    20.236645    20.699506     8482.661     1240.512    2284.2291     2331.455   -304.97739     264.1736     511.6035   -3971.3625 
 5337000    255.74327   -4702.1165   -4208.8941   -4702.1165            0    1717.4561    20.099798    20.258617    20.775588    8459.6974    2888.9257    1083.3264    1180.1163   -274.78628     -1.80333   -1869.3897   -3997.0012 
 5338000    264.63767   -4706.9017   -4196.5257   -4706.9017            0    2698.1394     20.28972    19.867758    20.925207    8435.1862    3372.9936    2781.5305    1939.8941    773.11107   -421.13342   -45.844672   -3864.6046 
 5339000    260.34912   -4745.4392    -4243.334   -4745.4392            0    3045.0649    20.045055     20.10903     20.92387    8434.1317    2901.4908    3685.7124    2547.9916    53.833023    291.83963    1553.8451   -3868.7814 
 5340000    261.00627   -4711.8644   -4208.4919   -4711.8644            0    2879.9605    20.193447    20.070848    20.836083    8444.8566    1353.6301    2914.0294    4372.2221    239.25663     1061.677   -11.968702   -3853.7972 
 5341000     257.0647   -4709.7085   -4213.9376   -4709.7085            0    1876.3339    20.308753    20.192938    20.722286    8498.0727    1478.7991    2233.3181    1916.8845   -101.49562    157.10252   -360.95897   -3981.3929 
 5342000    266.36309   -4723.1432   -4209.4395   -4723.1432            0    2705.7482    20.197817    20.052166     20.70736    8386.6876    2414.4041    2378.3744    3324.4662   -499.93232     186.0191     425.8196   -3878.4961 
 5343000    260.78297    -4681.243   -4178.3011    -4681.243            0    2708.3477    19.959153    20.198525    21.021712    8474.8078    2697.1094    3639.8012    1788.1326   -480.14694    364.42344    -1146.644   -3843.5591 
 5344000    261.64042    -4700.326   -4195.7304    -4700.326            0    2236.1539    20.248095    19.984351    20.934939     8471.219    1594.4083    1970.2576    3143.7956    235.34688    67.675413   -1465.6558   -3919.4669 
 5345000    247.26258   -4716.1177    -4239.251   -4716.1177            0    1161.8842    20.263952    20.086227    20.998045    8546.7575    751.44209    2252.5769    481.63367    1009.5285    380.39762    612.89781   -4094.4272 
 5346000    262.12295   -4695.6269   -4190.1007   -4695.6269            0    3580.2755     20.12562    20.106698    20.834455    8430.8652    4129.4481    1765.8332    4845.5453    449.76667   -124.63033   -607.38913   -3749.8861 
 5347000    276.21861   -4731.6716   -4198.9608   -4731.6716            0    1198.4319    20.146279    20.191178     20.72219    8429.3124    1016.7232    607.38633    1971.1863    668.43355   -268.08284     1449.134   -4051.6341 
 5348000    265.21567   -4719.0074   -4207.5166   -4719.0074            0    3827.4141    20.121796    20.188738    21.015588     8537.239    4639.0128    2836.4237    4006.8059   -378.50658    472.41816    822.08722   -3730.9773 
 5349000    254.84449   -4699.6408   -4208.1517   -4699.6408            0    3307.0751     20.07022    20.064176    20.891135     8412.702    2553.3131    3612.5499    3755.3622   -739.75208    1088.3873     169.7698   -3802.4046 
 5350000    254.53646   -4688.7394   -4197.8444   -4688.7394            0    3659.4211    20.047568    20.059771    20.950533    8425.2489    4784.1432    4025.7438    2168.3762   -256.64229    1124.7602    988.25608   -3748.1982 
 5351000     247.8633   -4711.4847   -4233.4595   -4711.4847            0    1546.6018    20.426281    19.848953    20.875622    8463.8182    1960.3338    1114.2212    1565.2505   -118.04274    -1130.452   -1481.2104    -4042.553 
 5352000    256.24566   -4692.3335   -4198.1422   -4692.3335            0    1376.3967    20.189122    20.155915    20.971495    8533.9352    1893.3467    594.45117    1641.3923   -235.26846    881.69959    777.53915   -4026.8377 
 5353000    262.35138    -4692.852   -4186.8853    -4692.852            0    3765.1723    20.120647    20.036463    20.835427    8399.7315    2891.1552    5697.7352    2706.6264    174.88808     797.2053     154.2759   -3725.6461 
 5354000    265.33679   -4696.0901   -4184.3658   -4696.0901            0    1448.5801    20.490733    19.921734    20.840246    8507.2165   -364.27618    3413.1028    1296.9136   -147.96748   -1832.3391    493.02805   -4004.6419 
 5355000    275.29188   -4673.4615   -4142.5379   -4673.4615            0    4375.9617    19.979267     20.30551    20.711758    8402.5369    5522.2173    3158.5713    4447.0967   -259.21209    2106.6682   -240.07327   -3606.2972 
 5356000    251.22587   -4712.5709   -4228.0607   -4712.5709            0     2205.162    20.221738    20.059988    20.739293    8412.8495    134.68826    3892.2487    2588.5489    50.290344   -651.34339    1637.0762   -3957.5033 
 5357000    256.51818   -4694.1912   -4199.4743   -4694.1912            0    4452.4133    20.060428    19.995276    20.880951    8375.6376    4921.0614     4848.689    3587.4896   -160.92612    131.34655    650.39204   -3655.6117 
 5358000    277.01216   -4701.5463   -4167.3051   -4701.5463            0    3208.4655    20.258562    20.186252    20.735017    8479.4695    3067.7449    3160.9007    3396.7507    237.68674   -161.49788   -1076.1607   -3770.5322 
 5359000    258.05242   -4703.6315   -4205.9557   -4703.6315            0    1974.4977    20.101862    19.993311    21.186032    8514.7252    3311.1168    2011.5757    600.80045    538.68667   -1569.1766    75.786668   -3960.7654 
 5360000    263.97724    -4679.169   -4170.0667    -4679.169            0     4040.012    19.997553    20.014487     21.07114    8433.5291    5728.0983    2973.9367    3418.0009   -590.10709     25.51785   -531.23939   -3673.1679 
 5361000     274.7325   -4691.9828   -4162.1381   -4691.9828            0      4575.44    20.058811    19.954103    20.867407    8352.2961     4482.003    4702.6683    4541.6487   -16.049975   -658.81397   -508.27083   -3604.8053 
 5362000    268.35985   -4696.8515    -4179.297   -4696.8515            0    2265.9518    20.140117    20.005691     20.99778    8460.3616     1017.787    3488.3777    2291.6908    169.71167    825.65119    718.23707    -3899.711 
 5363000    250.59114   -4708.9243   -4225.6382   -4708.9243            0    3610.4939    20.080943    20.232992    20.644025    8387.6167    5014.3077    3248.3435    2568.8303    474.55683    635.55089    688.70714   -3783.9853 
 5364000    266.78959   -4699.5328   -4185.0066   -4699.5328            0    3486.9036    20.164396    20.028525    20.816394    8406.9736     2908.968    4687.4553    2864.2877   -69.595887   -704.06436   -341.67044   -3757.4875 
 5365000    250.64612   -4676.3805   -4192.9884   -4676.3805            0    2706.7994    19.978103    20.131681     20.95275    8427.0452    4805.2844    1197.1915    2117.9223    60.624088   -349.49369    548.61089   -3860.3233 
 5366000    248.24018   -4705.6283   -4226.8762   -4705.6283            0    2870.5313    20.161276    20.066839    20.965055    8481.8968    2578.6298     3427.828     2605.136   -104.68972    681.57727    1426.9241   -3871.7922 
 5367000     246.6174   -4708.9751   -4233.3527   -4708.9751            0    3288.0424    20.376079    20.106784    20.648532    8459.6506    1600.6762     3886.584    4376.8671   -92.727593    485.68624   -289.94286   -3827.6894 
 5368000    254.78228    -4708.414    -4217.045    -4708.414            0     4054.959    20.000579     20.08826    20.928503    8408.5872    3611.9266    5656.7439    2896.2065   -308.56756    154.13977   -46.402865   -3719.7828 
 5369000    257.27607   -4727.6722   -4231.4937   -4727.6722            0    2298.2017    20.223402    20.015282    20.933741    8473.4989    1411.1941    3034.3036    2449.1073     544.9823    901.55828    360.99868   -3947.4882 
 5370000    269.22912   -4716.7051   -4197.4741   -4716.7051            0    2651.9372    20.170198    20.134297    20.832039    8460.1567    2553.0228    2260.6948    3142.0941   -591.92011   -1174.7781    409.21222   -3870.2709 
 5371000    251.30313   -4722.9088   -4238.2495   -4722.9088            0    1591.8117    19.961853    20.324227    21.017348     8526.932     2878.488    299.47864    1597.4683   -512.69125   -416.47152    467.54951   -4040.2973 
 5372000     272.4115   -4702.1028   -4176.7343   -4702.1028            0    2368.1502    20.112503    20.128888    20.788658    8416.1286    1527.2139    1551.4723    4025.7645    466.93196   -1548.3687   -173.38835   -3886.0661 
 5373000    255.71718   -4680.8981    -4187.726   -4680.8981            0    4021.6376    20.324522    20.217988    20.482849    8416.8314     3980.888    3798.4595    4285.5651   -91.844684    1828.8678   -244.83948   -3694.0666 
 5374000    251.61221   -4672.6755   -4187.4202   -4672.6755            0    3280.0009    20.147496    20.147349    20.979997    8516.1716    2654.3825    2798.4103    4387.2098   -816.46343     1048.097   -577.83213   -3780.0453 
 5375000    269.70206   -4688.4888   -4168.3457   -4688.4888            0    2390.7937    20.153683    20.168921    21.040654    8552.5641    2450.3127    1674.4831    3047.5852   -197.23944   -98.168964    48.810547   -3870.1411 
 5376000    250.32022   -4711.0525   -4228.2889   -4711.0525            0    2317.9553    20.408452    19.961081    20.853873    8495.3416    786.44287    4299.8746    1867.5485    303.03645    804.45832    -693.9411   -3941.1039 
 5377000    272.47249   -4735.7737   -4210.2876   -4735.7737            0    2469.0268    20.164937    20.187057    20.803895    8468.6565    2645.6869    1068.9263    3692.4672   -213.40689     807.2978   -226.34213   -3905.3464 
 5378000    263.18245   -4715.1579   -4207.5884   -4715.1579            0    2174.5861    19.989348    20.282298    20.811009    8437.4054    3450.9174    1549.6735    1523.1675     592.0069    958.39243    255.17703   -3940.0036 
 5379000     266.0871   -4674.8535   -4161.6822   -4674.8535            0   -18.151876    20.244344    20.160431    20.935415    8544.4695    221.16271    441.00458   -716.62291   -455.69267    1235.8399    618.47802   -4163.9441 
 5380000     250.0849   -4723.9376   -4241.6279   -4723.9376            0    2047.5678    20.304304     19.74944    21.095863    8459.4124    504.71998    3289.7428    2348.2406     380.8791    293.21508   -578.21699   -3989.0157 
 5381000     245.6285   -4717.2511   -4243.5359   -4717.2511            0    2078.4337    20.284639    20.151465    20.755559      8484.15    1381.1555    1049.9491    3804.1965   -88.562064   -1108.6359    251.09319   -3986.3658 
 5382000    261.67891   -4668.2909   -4163.6212   -4668.2909            0    2954.4273    20.190668     20.15374    20.815561    8470.2154    4279.4723    930.32273     3653.487   -397.02791   -657.89513    1456.3516   -3798.6625 
 5383000    269.70744   -4683.8994   -4163.7459   -4683.8994            0    3061.6829    20.027809    20.074331    21.119537    8491.0016    4039.1965    2661.7233     2484.129   -871.23172   -13.060481    417.71387   -3784.6099 
 5384000    259.70957   -4719.6624   -4218.7906   -4719.6624            0    2026.3836    20.053737    20.130178    21.036016    8491.9304    2466.2351    1740.7746    1872.1409   -238.34874    692.78243    737.32165    -3967.831 
 5385000    256.79616   -4699.2485   -4203.9955   -4699.2485            0    2938.3154     20.14812    20.128247    20.838035    8450.7886    3750.0732    2837.5495    2227.3233    -840.1319   -143.51308     215.8786   -3841.8596 
 5386000    267.04331   -4707.9616   -4192.9461   -4707.9616            0    3310.4213    20.228833    20.161086    20.797076    8481.7806    2754.0341    3243.9009    3933.3287    13.466655    38.410471    844.31021   -3783.4534 
 5387000    263.80003   -4727.9971   -4219.2365   -4727.9971            0    2176.6875    20.065364    19.946515    21.091405     8441.499    1260.3604    2464.0598    2805.6424   -574.49025    379.25932    208.38966   -3951.2632 
 5388000     253.2003   -4703.9685   -4215.6505   -4703.9685            0    1862.4699    20.250856    20.057923    20.897073    8488.1848    2511.0457    386.87028    2689.4939   -507.59969   -276.04728    666.58543   -3985.0926 
 5389000     252.6448   -4740.3467      -4253.1   -4740.3467            0    2206.9483    20.242121     20.16388    20.705681     8451.225    693.89315    3417.7978    2509.1539    -409.9046    1103.0598   -1415.1734   -3981.0882 
 5390000    269.58807   -4712.2707   -4192.3475   -4712.2707            0    2468.4786    20.225735    20.143981     20.91558    8521.5684     3751.714    1938.9761    1714.7456   -5.7223402    120.06134   -915.60215   -3885.5691 
 5391000    256.55228   -4706.6119   -4211.8292   -4706.6119            0    3615.2792    19.895355    20.161941    21.059584    8447.6093    4907.9911    3097.8867      2839.96   -812.42815    1122.3309    548.40207   -3766.4279 
 5392000    254.94709    -4692.509   -4200.8221    -4692.509            0    3273.1612    20.316237    20.214598    20.619462    8468.0947    4147.9647    2298.4969    3373.0221   -240.22655   -331.43826   -553.60133   -3796.5916 
 5393000    244.45387    -4678.958   -4207.5081    -4678.958            0    3384.6043    20.077632    20.137144    20.772432    8398.4222    3686.3924    3691.3756    2776.0449   -283.93347    1595.3238    185.01363   -3792.9538 
 5394000     250.5437   -4677.1609   -4193.9663   -4677.1609            0     1354.609    20.162244     20.08354    21.017793    8510.7189    2021.8284     458.4687    1583.5298    106.60844   -582.44167    673.63577   -4025.8321 
 5395000    263.14865   -4712.5733    -4205.069   -4712.5733            0    3409.6128    20.255484    19.928152    20.817779    8403.1874    2612.0023    3765.4646    3851.3715    724.17507   -808.19888    112.56899   -3787.2145 
 5396000    252.19977   -4703.0081   -4216.6196   -4703.0081            0     1668.088    20.109429    20.226846    20.771224    8448.7018    1224.3948    1228.5747    2551.2946    1482.6941   -1758.2155    1236.3413   -4011.0851 
 5397000    246.81162   -4702.7641   -4226.7671   -4702.7641            0    3523.0093    19.894145    20.258967    20.990705    8459.9854    3911.7857    2493.0726    4164.1695   -683.57248   -280.37485    690.21209   -3792.0975 
 5398000     261.3117   -4724.7701   -4220.8085   -4724.7701            0    3201.8433     19.95778     20.07936    20.918571    8382.8961    4636.2283    3218.9494    1750.3521   -222.19832   -1054.3057    112.51674   -3829.3641 
 5399000    269.77942   -4697.6852   -4177.3929   -4697.6852            0    2149.4637    20.115365    20.123236    20.934189    8473.8716    1590.4499    2968.6328    1889.3084    316.22641   -550.76375   -702.53305   -3911.7563 
 5400000    247.03129   -4685.5176    -4209.097   -4685.5176            0    2858.6794    20.144235    20.246256    20.597381    8400.5458    3547.6476    2511.6609    2516.7297    1013.1561     -348.054    561.05857   -3858.8706 
 5401000    263.78704   -4673.9187   -4165.1832   -4673.9187            0    2125.5999    20.146767    20.157851    21.020268    8536.6575    1159.8899    2709.0394    2507.8704   -505.54232    280.72567    261.98463   -3900.5494 
 5402000    261.56534     -4684.81   -4180.3592     -4684.81            0    3808.4464    20.109009    20.004552    21.080729    8480.1808    3164.9725    3816.7977     4443.569    593.66895   -1233.5333    350.80882   -3709.3506 
 5403000    248.52717    -4687.904   -4208.5985    -4687.904            0    3781.7535    19.975447    20.273955     20.80878    8427.1673    3263.0931    3445.6684    4636.4992   -332.88684   -820.96655   -921.95184   -3743.8149 
 5404000    251.35434   -4690.9054   -4206.1474   -4690.9054            0    3748.6159    20.168673    20.208886    20.757134     8460.326    4201.6555    2645.7486    4398.4435    739.54684      1920.36    952.06006   -3743.6238 
 5405000    247.37909   -4684.0897   -4206.9984   -4684.0897            0    3066.1826    20.226035    19.842157     21.05446    8449.7477    3125.2565    4000.2939    2072.9975   -86.882852   -668.47711    744.82397   -3829.1499 
 5406000    249.06915   -4707.3553   -4227.0045   -4707.3553            0    1282.8496     20.20426     19.99203    21.137349    8537.8865    325.03447    2635.1656    888.34874   -703.51854    1108.5135     391.9568   -4067.2687 
 5407000    269.12713   -4716.9901   -4197.9558   -4716.9901            0    3506.9846    20.202005    19.938621     20.79802    8377.4447    2565.2208    3805.0084    4150.7246   -313.25891     170.7661     1199.736    -3769.485 
 5408000    244.29284    -4700.647   -4229.5077    -4700.647            0    3191.6663    19.891746    20.080138    21.080884    8420.3166    6141.1698    2097.9601     1335.869     11.52731   -306.31536    995.09169   -3837.5657 
 5409000    256.26022    -4719.287   -4225.0676    -4719.287            0    2091.0202     20.30181     20.15464    20.726316    8480.7041    345.28832    3838.7595    2089.0126  -0.60508103    653.12734   -423.59327   -3966.4452 
 5410000    261.74622   -4695.6254   -4190.8258   -4695.6254            0    2227.4453     20.08487    19.907099    21.058859    8419.9951    1233.1222    3161.1759    2288.0377   -469.06403    1.7673858    808.07666   -3917.3023 
 5411000    256.89456   -4714.2477   -4218.8049   -4714.2477            0     2670.756    20.019742    20.219672    20.867516    8447.0166     3031.644    2687.5554    2293.0687     787.4035    652.42371   -1570.4051   -3889.7916 
 5412000    254.66272   -4685.6908   -4194.5523   -4685.6908            0    2877.7401      20.2938    19.983288    20.796757     8433.851    1133.4327    3088.0433    4411.7442   -161.61859   -394.06571    914.64744   -3840.5929 
 5413000    254.47309   -4685.1101   -4194.3373   -4685.1101            0    1976.3157    20.036313    20.283277    20.850365    8473.6322    3451.5391   -151.02958    2628.4376   -547.97105    736.63286   -301.28041   -3950.1057 
 5414000    252.23795    -4702.928   -4216.4659    -4702.928            0    1876.8039    20.349182    20.003872    20.889962     8503.519    1313.2557     1952.075    2365.0809    -619.6491   -1325.8741   -847.13083   -3983.7138 
 5415000    269.90985   -4722.0912   -4201.5473   -4722.0912            0    4087.5576    20.097194    19.994113    20.939135    8413.8798     4282.486     3888.934     4091.253   -452.56599   -81.938199   -886.07255   -3699.9721 
 5416000    263.94431   -4689.4325   -4180.3937   -4689.4325            0    2863.1516    19.918149    20.147211    21.185818    8501.7655     2511.287    4080.0796    1998.0882   -328.21696   -81.155783   -1101.9835   -3825.3928 
 5417000    273.96546   -4728.8906   -4200.5252   -4728.8906            0    3563.1195    20.025992    20.254059    20.713139    8401.4066    4700.6901    2560.5453    3428.1232    332.28372    1101.4746   -741.99234   -3763.9508 
 5418000    268.20412   -4679.5218   -4162.2676   -4679.5218            0    3836.0457    20.122564    20.125196    20.817034    8430.2856    3902.3083    3837.2194    3768.6095    4.9923656   -461.04297   -290.52795   -3690.6371 
 5419000    274.66049   -4695.8978    -4166.192   -4695.8978            0    2408.1096    20.132338    20.110073    20.988171    8497.3293    820.46625     4063.259    2340.6036   -378.88465    855.98186   -180.76734   -3867.7674 
 5420000    260.50737   -4688.0962   -4185.6858   -4688.0962            0    2910.6345    20.008964     20.13098     21.15051    8519.4269    4585.6896    1307.1762    2839.0377   -375.49679    -172.0797    1228.2684   -3824.0479 
 5421000    260.76302   -4692.8081   -4189.9047   -4692.8081            0    2426.2581    20.177875    20.203226    20.872951    8509.0291    2318.1718    2927.4471    2033.1553   -316.48651   -722.71856   -824.84576   -3888.8171 
 5422000    261.88665   -4712.4119   -4207.3415   -4712.4119            0    4542.0907     20.17439    20.158436    20.664524    8403.9342      3781.17    3865.5942     5979.508   -913.38707   -1114.3981   -1317.5693   -3650.6503 
 5423000    250.13412   -4712.0688   -4229.6641   -4712.0688            0    4290.5394    20.163218    19.911036    20.984119     8424.506    2960.8968    5826.3592    4084.3622    298.03807   -442.52143   -1416.9567   -3702.5165 
 5424000    260.52181   -4701.0777   -4198.6395   -4701.0777            0     4732.929    20.141067    19.928757    21.058869    8452.7442     4644.859    5114.7918    4439.1362   -170.35285   -259.94805   -308.28229   -3615.1895 
 5425000    254.70555   -4696.3733   -4205.1522   -4696.3733            0    4077.2073    20.061897    20.185075    20.638988    8357.7766    2233.1444     5875.502    4122.9755   -142.64722    727.10236   -287.15004   -3708.1831 
 5426000    245.92142   -4704.6887   -4230.4086   -4704.6887            0    3676.1023    20.091087    20.140221    20.630772    8348.0134    4796.0456    2278.8723    3953.3889   -855.82744    724.68803   -451.61387   -3782.8534 
 5427000    261.65579   -4697.7207   -4193.0955   -4697.7207            0    719.10885    20.154757    20.104475    20.984812    8503.0625    300.64343     752.1522    1104.5309   -246.88522    -836.9556   -374.38453     -4103.92 
 5428000    253.83163   -4689.2052   -4199.6696   -4689.2052            0    1269.0699    20.024465    20.171386    21.049307    8502.2616    1525.0071   -19.579645    2301.7822    555.12815   -453.88725   -244.31605    -4042.309 
 5429000    268.26282   -4686.6049   -4169.2375   -4686.6049            0     2408.077    20.336639    20.086878    20.761385    8481.0173     809.8656    4482.5652    1931.8001   -294.98043   -11.936577    -247.5372   -3871.3899 
 5430000    266.44196   -4698.5409   -4184.6852   -4698.5409            0    1522.7264     20.15824    20.152446    20.920249    8498.5969    521.72785    1022.8756    3023.5757   -398.51532    193.31321   -23.987321   -3995.9534 
 5431000    256.27488   -4703.6031   -4209.3554   -4703.6031            0    3457.9603    20.145874    19.925624    21.177356    8500.9953    1701.9773     6078.566    2593.3377   -331.05007    393.77683    725.99684   -3780.6434 
 5432000    267.57568   -4715.7315   -4199.6893   -4715.7315            0    1601.7767    20.163809    20.215725    20.867067    8505.9594    1884.7764    2482.9474    437.60652    318.16538    902.60031    209.89713   -4000.9877 
 5433000    248.19554   -4710.2516   -4231.5857   -4710.2516            0    2837.6418     20.09121    20.255228    20.766464    8450.9547    3068.4806    2678.9316    2765.5133    291.48464    1722.4471   -683.65085   -3881.8506 
 5434000    252.79401   -4716.4294   -4228.8949   -4716.4294            0    2986.2089    20.211224    19.928574    20.974724    8448.2178    2343.1227    3775.5129    2839.9912    145.32567   -303.90512    343.70212   -3860.9683 
 5435000    263.15533   -4676.2299   -4168.7128   -4676.2299            0    2120.5388    20.115641    20.316845    20.864397    8526.9949    3969.6286    606.15801    1785.8299    292.56566   -741.46326   -749.94865   -3905.0079 
 5436000    254.03638   -4663.9902   -4174.0597   -4663.9902            0    2281.1997     20.39116    20.199679    20.673762    8515.4168    397.23124    3805.5559    2640.8119   -811.28127   -112.66203   -1213.6139   -3890.7607 
 5437000    253.13709   -4697.0961   -4208.8999   -4697.0961            0    2151.4259    20.183847     20.01616    20.899553    8443.4846    1608.4195    2894.8608    1950.9974    74.953356    1472.4522   -1099.6942   -3943.9743 
 5438000    267.56732   -4689.5279   -4173.5018   -4689.5279            0    1782.4867    20.223843    19.821842    21.192076    8495.3487    1303.8367    2995.4677    1048.1557   -220.13977   -77.063604    473.88433    -3952.659 
 5439000    252.73637   -4719.4388   -4232.0155   -4719.4388            0    2070.1688    20.178633    20.156244    20.750324    8439.6846    265.89504    2934.0708    3010.5406    76.017917   -224.96158   -939.89533   -3977.2105 
 5440000    275.21925   -4687.8267   -4157.0432   -4687.8267            0    1689.4316    20.085182    20.361863    20.848012    8526.2474    2047.5238    808.61816    2212.1528    103.26661     1775.942    499.02098   -3946.9682 
 5441000    259.04349   -4691.6657   -4192.0785   -4691.6657            0     1905.877    20.134332     20.28137     20.52959    8383.2957     1110.217    1492.2719    3115.1422    313.93092   -868.22402   -323.82869   -3959.0626 
 5442000    264.85655   -4696.2196   -4185.4215   -4696.2196            0    3788.2541    20.118485    20.141109    20.685885    8382.0985    2931.2321    3440.7464    4992.7837    233.10695    160.13368    198.59645    -3722.329 
 5443000    267.64693   -4717.3419   -4201.1623   -4717.3419            0    900.65582    20.053661    20.309479    21.053713    8574.7438    1742.3307   -50.828604    1010.4654     616.0027    514.22496   -473.90318   -4088.5318 
 5444000     253.1523   -4660.6904   -4172.4649   -4660.6904            0    2721.1162    20.133942     20.07573    20.850981    8428.0412    4053.8685    1765.1533    2344.3268    109.15821     -806.769    1157.6541   -3838.0007 
 5445000     267.5863   -4717.0502   -4200.9875   -4717.0502            0    3035.0126    20.003268    20.469816    20.664954    8461.5386    3607.1594    1442.9293    4054.9492    768.90241   -1168.2461   -524.03153   -3826.4583 
 5446000    255.42074    -4703.264   -4210.6636    -4703.264            0     2306.904    20.072487    20.238493    20.946747     8509.341    3420.6071    1596.4623    1903.6425    326.38154    589.28232    547.45227   -3924.3768 
 5447000    265.84369   -4711.0601   -4198.3582   -4711.0601            0    3477.0885    20.126476    19.957632    20.912639    8400.1216    3663.6885    3223.3167    3544.2604   -75.285577   -855.30688   -719.70392     -3772.39 
 5448000     262.3436    -4694.936   -4188.9843    -4694.936            0    1705.8084    20.095573    20.227846    21.061183    8561.1634   -299.80431    3166.5529    2250.6766   -138.62325    734.40364   -179.20043   -3976.0043 
 5449000    258.06841    -4669.801   -4172.0943    -4669.801            0    3409.5299     20.18661     20.21864    20.586264    8402.1966     4424.605    2616.4737     3187.511    38.562604   -73.930439    302.88709   -3754.2994 
 5450000    254.73809   -4697.9511   -4206.6673   -4697.9511            0    4146.8852    20.080023    20.202884    20.593019    8354.0601    6672.8617    2135.4095    3632.3846    -386.4897    94.746109    -2038.367   -3701.4299 
 5451000    259.44456   -4709.5798   -4209.2191   -4709.5798            0    3799.2353    20.035904    20.121115    20.981567    8458.6084    5176.9622    1945.3676    4275.3762    -560.9692    598.85319    1070.5054    -3740.545 
 5452000    249.94509   -4680.2616   -4198.2215   -4680.2616            0    2617.8129    20.090029    19.912224    21.371082    8549.2272    2111.7122    4052.8938    1688.8329    915.53892    652.38012   -511.12876   -3871.8281 
 5453000     255.0942    -4720.492   -4228.5213    -4720.492            0    3798.9865    20.065312     20.00861    20.896134    8389.3587    3332.2415    4200.3066    3864.4114    406.87464   -1102.2554   -1000.5552   -3763.7146 
 5454000     242.7382   -4689.9755   -4221.8345   -4689.9755            0    3246.8762    20.152822    20.204508    20.612043    8392.7677    3921.1444    1627.3604    4192.1236   -116.75977     260.6251    192.00986   -3824.4171 
 5455000    253.64247   -4720.7074   -4231.5365   -4720.7074            0    2331.9566    20.213805    20.102767    20.756488    8434.4699    1722.7569    1838.1968    3434.9162   -251.98882    10.073698    630.08595    -3944.687 
 5456000    245.75865   -4707.6447   -4233.6785   -4707.6447            0    2786.4818    20.029647    20.061446    20.969849    8426.1823     3353.069    2243.4614     2762.915   -33.574935   -1872.5034    596.54014   -3891.2555 
 5457000    260.63784   -4699.6821   -4197.0201   -4699.6821            0    1663.7872    20.230827    20.154508    20.888904    8517.2911    2472.7669    1234.1891    1284.4056   -802.88416   -243.78183    182.80273   -3990.3512 
 5458000    255.71247   -4680.3438   -4187.1808   -4680.3438            0    2035.6057    20.149833     20.10494    20.954049    8488.7195    1397.0367    2826.9254    1882.8551   -353.35834    810.32748   -337.25176   -3935.1743 
 5459000    260.02336   -4711.4078   -4209.9309   -4711.4078            0    2245.4309     20.10423    20.043763    20.944711    8439.9733    3749.0244    1337.3824    1649.8859    162.35635   -966.65443    120.59384   -3933.5445 
 5460000    267.73003   -4683.8141   -4167.4742   -4683.8141            0    1476.4187    20.070991    20.230372    20.940694    8502.8351    2907.7096    625.11904    896.42751   -117.75127   -786.09448   -738.19506   -3984.3907 
 5461000    266.55208     -4707.69   -4193.6219     -4707.69            0    3151.4361    20.250414    20.001689    20.720329    8392.6131    2129.6743     3525.955     3798.679   -947.97365   -554.88688    553.24012   -3807.8935 
 5462000     265.7851   -4708.5006   -4195.9117   -4708.5006            0    2505.8244    19.893398    20.264884     20.88149    8418.1098    2232.9445    2323.0478     2961.481    353.07911   -732.64336    -595.9781   -3888.2729 
 5463000    265.85049   -4678.2509   -4165.5359   -4678.2509            0    2764.1523    20.257102    20.124212    20.685157     8432.474    1677.7152    3952.8874    2661.8543   -851.19552    803.74879   -241.74728   -3825.6032 
 5464000    264.77585    -4714.955   -4204.3125    -4714.955            0    1664.1542    20.414456    19.999757    20.893624    8530.5358    7.2932195    2153.8984    2831.2709    -257.3634    32.135412   -564.16017   -3997.2766 
 5465000    251.60263   -4735.5236   -4250.2868   -4735.5236            0    1710.5548    20.099094    20.117084    20.981318    8483.4846    3327.0199    153.54593    1651.0987    318.69195    889.44489    1103.6711   -4038.6519 
 5466000    260.91585   -4723.8704   -4220.6722   -4723.8704            0    3287.4195     20.03617    20.295343    20.688447    8412.7696    2323.1796    3835.2845    3703.7944    124.64607   -517.36588   -988.86783   -3817.3334 
 5467000     252.0142   -4721.8078   -4235.7773   -4721.8078            0    2263.1309    20.186363    20.113672    20.853143    8466.8326    957.83162    3352.0024    2479.5586   -819.05326   -353.02438   -119.57993   -3956.3257 
 5468000    270.05425   -4700.3486   -4179.5262   -4700.3486            0    2505.5623    20.115868    20.043343     21.15347    8528.8519    2798.5028    2939.2766    1778.9074    543.10597   -109.08707   -415.85131    -3867.873 
 5469000    262.69979   -4692.9033   -4186.2646   -4692.9033            0    3124.6175    20.178557    20.289086    20.623349    8443.2911    2722.1045    2771.8579    3879.8901   -665.91728    576.45327   -69.590915   -3801.5094 
 5470000    248.46722   -4701.8886   -4222.6987   -4701.8886            0    3471.6733    20.307574    19.966643    20.705686    8395.6191    1901.8411    4308.6836    4204.4953   -682.31938    1002.1416   -265.16295   -3797.6218 
 5471000    265.52381   -4724.8978   -4212.8128   -4724.8978            0    1437.3856    19.969019    20.186879    21.014968    8471.3894    2522.3641    1275.4601    514.33266   -508.00883    34.473817    319.20811   -4035.2288 
 5472000    258.49777   -4714.4132   -4215.8785   -4714.4132            0    2365.5137    20.129328    19.965784    21.096812    8478.7627    2460.2982    3756.0194    880.22364   -599.64901    261.43395    348.40321   -3923.3732 
 5473000    256.46473   -4715.1274   -4220.5136   -4715.1274            0    2207.4763    20.240664    20.131215    20.900506    8516.3115    2411.4825    1782.7548    2428.1915    -144.5908   -1139.4324    399.25175   -3946.3414 
 5474000    253.20763   -4691.0195   -4202.6873   -4691.0195            0    2294.3278    20.260005    20.195916    20.635313     8443.338    2238.5101    830.11815    3814.3552   -277.92104   -20.241583   -475.26864   -3920.1697 
 5475000    250.49407   -4704.1228   -4221.0239   -4704.1228            0    2882.2693    19.913845    20.087577    20.984725    8394.3284    3813.3664    2756.1416    2077.2998   -264.47124   -920.28276    590.77477   -3868.1688 
 5476000    267.62029   -4715.0072    -4198.879   -4715.0072            0    3178.0534    20.064013    20.086173    21.020303    8471.3764    1304.9945    5680.4812    2548.6844   -915.58367    21.445325   -1643.6049   -3806.2421 
 5477000    271.48565   -4666.7323   -4143.1494   -4666.7323            0    2118.7146    20.362737    20.134024     20.83438    8541.7592    1253.1216    2273.4075    2829.6148   -280.52555    348.58284   -168.10163   -3879.2152 
 5478000    264.73809   -4677.9034   -4167.3338   -4677.9034            0    3315.1631    20.125882    20.101933    20.783583    8408.3962    3630.4455    3535.7643    2779.2794   -168.09798    594.10883   -1963.3655   -3760.8025 
 5479000    261.77278   -4695.9494   -4191.0985   -4695.9494            0    2200.7893    20.112123    20.261804    20.952229    8538.1989    4063.9676    1959.8783    578.52195   -958.66577   -420.72411    709.77528   -3917.0543 
 5480000    258.56205   -4659.7589   -4161.1003   -4659.7589            0      4175.24    20.313916    19.922216    20.744133    8395.1138    4843.3506     3806.452    3875.9173   -310.48511    1094.2425    1256.1313   -3649.9084 
 5481000    269.54298   -4697.3959   -4177.5596   -4697.3959            0    3262.4151     20.11639    20.106587    21.081658     8526.939    6088.0523     1048.058     2651.135    -873.0095    -1088.587    323.57675   -3771.8566 
 5482000    255.96566   -4690.6247   -4196.9734   -4690.6247            0     1259.003    20.200078    20.181421    21.032542    8574.2584    1161.7572    2059.9617    555.28997    261.48888    52.912742   -8.5860468   -4039.5391 
 5483000    261.31083   -4722.3355   -4218.3756   -4722.3355            0    2696.1668    20.112381       20.195    20.919382    8496.8155     2789.692     3337.495    1961.3133    148.05196    1251.4725    87.218078   -3884.2738 
 5484000    262.35546   -4690.8795   -4184.9049   -4690.8795            0    3185.2127    20.055482     20.18309     20.86954     8447.606    3265.0958    3244.9578    3045.5845   -8.0794106   -545.53361    968.24492   -3792.4878 
 5485000      253.753   -4712.6691   -4223.2851   -4712.6691            0    2461.7748    20.247387    20.071403    20.878738    8484.9827    3818.2556    853.42562    2713.6433   -328.46899   -1068.5023    915.39046   -3918.6533 
 5486000    248.92061   -4689.2806   -4209.2163   -4689.2806            0    4141.9297    20.311683    19.974535    20.661873    8382.8611    3534.6521    3033.6279     5857.509   -574.73001    1022.8042    670.02464   -3702.8429 
 5487000    256.99176     -4703.48   -4207.8498     -4703.48            0    3098.4455    20.030301     20.19162     20.94999    8473.1027     3835.054    2839.0662    2621.2163   -133.88394    -347.6787   -302.34173   -3824.9702 
 5488000    254.32618   -4678.3268   -4187.8374   -4678.3268            0    2022.2052    20.177379    20.105514    20.767495    8424.8859    3647.0829    313.60997    2105.9228   -516.13467    391.17429    371.17481   -3939.3724 
 5489000    256.70267   -4700.7233   -4205.6506   -4700.7233            0     4073.413    20.048967    20.196374    20.744214    8399.6728    3399.8972    5591.9051    3228.4366    231.20646   -954.80272   -387.79606    -3706.655 
 5490000    260.37685   -4688.3842   -4186.2255   -4688.3842            0     3394.112    19.878982    20.182227    20.980023    8417.2303    3978.4414    1639.8627    4564.0318    683.79447   -655.32607   -1415.5528   -3769.5756 
 5491000    260.05025    -4723.957   -4222.4283    -4723.957            0    2845.0583    20.230737    19.944088    20.862674    8417.7465    2379.3607    3944.6212    2211.1931   -282.64698   -627.30271   -43.661951    -3873.157 
 5492000     266.5751    -4712.136   -4198.0235    -4712.136            0    1154.0947      19.9659    20.348883    20.945268    8509.7222    3046.1425   -260.23141    676.37302     62.08161    714.61429    24.627161   -4054.7939 
 5493000    265.95248   -4696.7849   -4183.8732   -4696.7849            0     2440.434    20.251909    20.106897    20.869605    8498.1668    2556.7203    2162.0015    2602.5803   -219.55799    338.19808    394.51908    -3881.413 
 5494000    254.81349   -4678.4994   -4187.0702   -4678.4994            0    4131.6755    19.974804    20.100377    20.956358    8414.0005     4956.992    3059.7393    4378.2951     581.0575    1944.8529    101.60449   -3680.0741 
 5495000    275.68425   -4679.6009   -4147.9206   -4679.6009            0    2814.2395    19.949894      20.3331    20.923003    8487.2737     2512.378    2617.6662    3312.6744    256.61488   -781.91686    35.988993   -3799.5792 
 5496000    263.27865   -4683.0267   -4175.2716   -4683.0267            0    2139.6301    19.982876     20.25785     20.88755    8455.4912    3168.2477    1314.5121    1936.1305   -538.28404   -608.67374   -315.93962   -3911.4239 
 5497000    256.69151   -4699.6813   -4204.6301   -4699.6813            0    2745.3221    19.967766    20.181714    20.980011    8454.6032    4136.8596    1498.2151    2600.8916   -262.40084   -1485.3768   -938.89774   -3866.1272 
 5498000    262.36308   -4678.4834   -4172.4941   -4678.4834            0    1388.9006    19.976392    20.458385    20.733506    8473.4676    2094.4646    442.34982    1629.8875    61.803335   -325.39332    500.74208   -4000.8582 
 5499000    251.32545   -4708.2836   -4223.5813   -4708.2836            0    3674.4462    20.119375    20.076065    20.889301    8437.5625    2526.2717    5873.9051    2623.1616   -507.80827    386.95439    998.07266   -3771.4289 
 5500000    270.11993   -4683.8613   -4162.9123   -4683.8613            0    1979.1614    20.104386    20.155557    20.960855    8493.6552    753.87645    3039.4549     2144.153    309.85212    461.06155    -367.9836   -3917.7511 
Loop time of 462.927 on 64 procs for 250000 steps with 972 atoms

Performance: 93.319 ns/day, 0.257 hours/ns, 540.042 timesteps/s
99.0% CPU use with 64 MPI tasks x 1 OpenMP threads

MPI task timing breakdown:
Section |  min time  |  avg time  |  max time  |%varavg| %total
---------------------------------------------------------------
Pair    | 19.98      | 27.664     | 35.373     |  76.3 |  5.98
Bond    | 0.25803    | 0.27818    | 0.2988     |   1.2 |  0.06
Kspace  | 193.97     | 210.39     | 221.95     |  41.0 | 45.45
Neigh   | 3.063      | 3.7547     | 4.3704     |  18.4 |  0.81
Comm    | 88.82      | 100.22     | 112.38     |  55.8 | 21.65
Output  | 1.1702     | 1.1716     | 1.1768     |   0.1 |  0.25
Modify  | 108.91     | 111.76     | 115.22     |  12.8 | 24.14
Other   |            | 7.691      |            |       |  1.66

Nlocal:        15.1875 ave          20 max          10 min
Histogram: 2 3 4 9 7 6 7 18 6 2
Nghost:        2186.22 ave        2213 max        2155 min
Histogram: 3 0 6 9 5 15 12 6 6 2
Neighs:        4638.58 ave        6445 max        3011 min
Histogram: 6 6 2 13 6 10 7 7 5 2

Total # of neighbors = 296869
Ave neighs/atom = 305.42078
Ave special neighs/atom = 2.0000000
Neighbor list builds = 8097
Dangerous builds = 0

unfix		3
unfix		2
unfix		1

write_data	data.final.${pid}
write_data	data.final.0
System init for write_data ...
PPPM initialization ...
  extracting TIP4P info from pair style
  using 12-bit tables for long-range coulomb (../kspace.cpp:340)
  G vector (1/distance) = 0.37182486
  grid = 24 24 25
  stencil order = 5
  estimated absolute RMS force accuracy = 0.0034793529
  estimated relative force accuracy = 1.0477968e-05
  using double precision FFTW3
  3d grid and FFT values/proc = 2366 288
Last active /omp style is kspace_style pppm/tip4p/omp
WARNING: Not all mixed pair coeffs generated from mixing. Use write_data with 'pair ij' option to store all pair coeffs. (../write_data.cpp:312)

write_restart   restart.lmp.${pid}
write_restart   restart.lmp.0
System init for write_restart ...
PPPM initialization ...
  extracting TIP4P info from pair style
  using 12-bit tables for long-range coulomb (../kspace.cpp:340)
  G vector (1/distance) = 0.37182486
  grid = 24 24 25
  stencil order = 5
  estimated absolute RMS force accuracy = 0.0034793529
  estimated relative force accuracy = 1.0477968e-05
  using double precision FFTW3
  3d grid and FFT values/proc = 2366 288
Last active /omp style is kspace_style pppm/tip4p/omp
Total wall time: 0:07:45
