#include		in.partitions
include		in.temp
variable        temperature equal 282.35
variable	tempDamp equal 100.0
include		in.pressure
variable        pressure equal 11250.0
variable        pressureDamp equal 1000.0 # This is 1 ps
include		in.seed
variable        seed equal 745823

units		real
atom_style	full
read_restart	restart.lmp.${pid}
read_restart	restart.lmp.1
Reading restart file ...
  restart file = 30 Jul 2021, LAMMPS = 30 Jul 2021
  restoring atom style full from restart
  orthogonal box = (0.70687581 1.9241376 0.86238683) to (17.500697 21.705040 21.350809)
  2 by 4 by 4 MPI processor grid
  restoring pair style lj/cut/tip4p/long/omp from restart
  restoring bond style harmonic/omp from restart
  restoring angle style harmonic/omp from restart
  864 atoms
  576 bonds
  288 angles
Finding 1-2 1-3 1-4 neighbors ...
  special bond factors lj:    0        0        0       
  special bond factors coul:  0        0        0       
     2 = max # of 1-2 neighbors
     1 = max # of 1-3 neighbors
     1 = max # of 1-4 neighbors
     2 = max # of special neighbors
  special bonds CPU = 0.002 seconds
  read_restart CPU = 0.006 seconds
include 	in.setup
variable	out_freq equal 1000
variable	out_freq2 equal 10000
variable	out_freq3 equal 1000

timestep	2.0

neigh_modify    delay 7 every 1

include		in.tip4p
# This is TIP4P/Ice

# create groups ###
group ox type 2
288 atoms in group ox
group hy type 1
576 atoms in group hy

# set charges - beside manually ###
set group ox charge -1.1794
Setting atom values ...
  288 settings made for charge
set group hy charge 0.5897
Setting atom values ...
  576 settings made for charge

# ### TIP3P Potential Parameters ###
pair_style lj/cut/tip4p/long/omp 2 1 1 1 0.1577 8.5
pair_coeff 1 1*2 0.000 0.000
pair_coeff 2 2 0.21084 3.1668
bond_style  harmonic
bond_coeff  1 450 0.9572
angle_style harmonic
angle_coeff 1 55 104.52
kspace_style pppm/tip4p/omp 1.0e-5
pair_modify tail yes

thermo          ${out_freq}
thermo          1000
thermo_style    custom step temp pe etotal epair emol press lx ly lz vol pxx pyy pzz pxy pxz pyz enthalpy

restart 	${out_freq3} restart.lmp.${pid} restart2.lmp.${pid}
restart 	1000 restart.lmp.${pid} restart2.lmp.${pid}
restart 	1000 restart.lmp.1 restart2.lmp.${pid}
restart 	1000 restart.lmp.1 restart2.lmp.1


include         in.dump
dump            myDump all atom ${out_freq2} dump.water.${pid}
dump            myDump all atom 10000 dump.water.${pid}
dump            myDump all atom 10000 dump.water.1
dump            myDump2 all dcd ${out_freq2} dump.dcd
dump            myDump2 all dcd 10000 dump.dcd
dump_modify     myDump append yes
dump_modify     myDump2 append yes


variable natoms 	equal  "count(all)"                        # NUMBER ATOMS
variable H      	equal  "enthalpy/v_natoms"                 # ENTHALPY-per-atom
variable Vol      	equal  "vol/v_natoms"                 # volume-per-atom
fix AVG all 		ave/time ${out_freq} 1 ${out_freq} v_Vol v_H file vol_enthalpy.dat
fix AVG all 		ave/time 1000 1 ${out_freq} v_Vol v_H file vol_enthalpy.dat
fix AVG all 		ave/time 1000 1 1000 v_Vol v_H file vol_enthalpy.dat


timer           timeout 23:50:00 every 1000
New timer settings: style=normal  mode=nosync  timeout=23:50:00

fix 		1 all shake 1e-6 200 0 b 1 a 1
       0 = # of size 2 clusters
       0 = # of size 3 clusters
       0 = # of size 4 clusters
     288 = # of frozen angles
  find clusters CPU = 0.001 seconds
fix             2 all nph iso ${pressure} ${pressure} ${pressureDamp}
fix             2 all nph iso 11250 ${pressure} ${pressureDamp}
fix             2 all nph iso 11250 11250 ${pressureDamp}
fix             2 all nph iso 11250 11250 1000
fix             3 all temp/csvr ${temperature} ${temperature} ${tempDamp} ${seed}
fix             3 all temp/csvr 282.35 ${temperature} ${tempDamp} ${seed}
fix             3 all temp/csvr 282.35 282.35 ${tempDamp} ${seed}
fix             3 all temp/csvr 282.35 282.35 100 ${seed}
fix             3 all temp/csvr 282.35 282.35 100 745823

run             250000
PPPM initialization ...
  extracting TIP4P info from pair style
  using 12-bit tables for long-range coulomb (../kspace.cpp:340)
  G vector (1/distance) = 0.3751446
  grid = 24 24 24
  stencil order = 5
  estimated absolute RMS force accuracy = 0.0030617053
  estimated relative force accuracy = 9.2202345e-06
  using double precision FFTW3
  3d grid and FFT values/proc = 3549 432
Last active /omp style is kspace_style pppm/tip4p/omp
Neighbor list info ...
  update every 1 steps, delay 7 steps, check yes
  max neighbors/atom: 2000, page size: 100000
  master list distance cutoff = 10.8154
  ghost atom cutoff = 10.8154
  binsize = 5.4077, bins = 4 4 4
  1 neighbor lists, perpetual/occasional/extra = 1 0 0
  (1) pair lj/cut/tip4p/long/omp, perpetual
      attributes: half, newton on, omp
      pair build: half/bin/newton/omp
      stencil: half/bin/3d
      bin: standard
Per MPI rank memory allocation (min/avg/max) = 10.20 | 10.20 | 10.20 Mbytes
Step Temp PotEng TotEng E_pair E_mol Press Lx Ly Lz Volume Pxx Pyy Pzz Pxy Pxz Pyz Enthalpy 
 5250000    292.40754   -3802.2664   -3301.0899   -3802.2664            0     12438.75    16.793821    19.780903    20.488422     6806.191    12888.434    12944.594    11483.223    465.28454    155.79536    319.93748   -2066.4032 
 5251000    268.85455   -3810.6535    -3349.846   -3810.6535            0     9393.498    16.829377    19.822783    20.531801    6849.5133    8513.6038    8419.6549    11247.235   -1738.1756    1163.6997   -499.10115   -2411.5002 
 5252000     287.4674   -3855.9283    -3363.219   -3855.9283            0    11223.072    16.812771    19.803223    20.511541    6829.2571    11840.447    10708.137    11120.632    427.24811    1167.7883   -1375.0744   -2245.4267 
 5253000    281.25226   -3814.1144   -3332.0577   -3814.1144            0    10876.514    16.797125    19.784795    20.492454    6810.2095    10138.661    12449.136    10041.745    731.27352    736.81873   -677.77068   -2251.8032 
 5254000    274.25867   -3846.9365   -3376.8665   -3846.9365            0    9773.5411    16.794662    19.781893    20.489448    6807.2139    8017.8566    10338.001    10964.765   -96.704639     729.9094    -340.0297   -2406.5862 
 5255000    281.19911   -3796.9245   -3314.9588   -3796.9245            0    12440.904    16.794962    19.782247    20.489815    6807.5788    12579.835    14782.635    9960.2424    16.323564   -589.54372    704.14499   -2079.8065 
 5256000    285.76515   -3807.3764   -3317.5847   -3807.3764            0    8238.8759     16.85882    19.857463    20.567721    6885.5261    9231.4181    7572.6578    7912.5518   -32.211345   -121.67449    1640.0209   -2490.2505 
 5257000    281.81302   -3776.3549    -3293.337   -3776.3549            0    15185.991    16.677801    19.644247    20.346879    6666.1023     16994.04    14525.562    14038.371    772.38976    440.99586    644.23875   -1816.9814 
 5258000    278.82104   -3791.5932   -3313.7035   -3791.5932            0      11360.7    16.848883    19.845758    20.555598    6873.3571    13189.679    12499.876    8392.5455    320.86321    101.56914    2102.1009   -2174.8971 
 5259000    286.91589   -3760.5201   -3268.7561   -3760.5201            0     13064.88    16.729795    19.705488    20.410311    6728.6422    13720.555    13284.692    12189.394   -514.11357   -922.56378   -172.63201   -1986.6949 
 5260000     293.9631   -3815.7626   -3311.9199   -3815.7626            0    9650.8775    16.813625     19.80423    20.512583    6830.2983    11122.862    9993.1097    7836.6605   -1182.5518   -152.81146    694.03567    -2350.568 
 5261000     276.5746   -3776.1405   -3302.1011   -3776.1405            0    11528.446    16.844147    19.840181     20.54982    6867.5635    10572.751     11123.67    12888.916    1286.1246   -1262.6591    1517.3982   -2147.4539 
 5262000    293.66354   -3772.2616   -3268.9324   -3772.2616            0    9409.7748    16.975144    19.994478    20.709636    7029.0398    9577.2633    8090.3083    10561.753    1060.6864    366.30982    -520.0834   -2304.3238 
 5263000    291.23187   -3742.1636   -3243.0022   -3742.1636            0    9281.3653    16.926763    19.937491    20.650612    6969.1106    11359.951    10348.075    6136.0695    1184.6615   -1220.3675   -898.97894    -2299.669 
 5264000    282.84503   -3803.5427    -3318.756   -3803.5427            0    12701.171    16.844077    19.840097    20.549734    6867.4772     14802.25    13542.967    9758.2969   -97.153287   -242.18717   -664.28075   -2046.6688 
 5265000    291.59086   -3803.9861   -3304.2093   -3803.9861            0    11426.155    16.824359    19.816873    20.525679    6843.3883    12182.057    11444.403    10652.004   -1225.2896    576.44319   -1593.9972   -2163.8357 
 5266000    283.31559   -3781.0326   -3295.4394   -3781.0326            0    10501.581    16.831811     19.82565    20.534771    6852.4859    12369.313    10020.048     9115.381    629.23792   -886.28709   -1908.3388   -2245.9484 
 5267000    286.04448   -3783.5285   -3293.2581   -3783.5285            0      10429.8    16.832475    19.826432     20.53558     6853.296    10596.798    11038.728    9653.8744    207.92671   -734.70291    -942.4687   -2250.8174 
 5268000    267.76417   -3804.3387   -3345.4001   -3804.3387            0    10074.461    16.920519    19.930136    20.642993    6961.4001    11565.394    8894.2424    9763.7475   -575.03445   -1931.8912    790.78391   -2322.5916 
 5269000    297.97458   -3809.2591   -3298.5409   -3809.2591            0    11066.976    16.920117    19.929663    20.642503    6960.9047    11743.002    10189.037    11268.887    1676.2844   -2055.7652   -322.97911   -2175.0475 
 5270000    271.14856   -3802.8855   -3338.1462   -3802.8855            0    9340.2934    16.858687    19.857307    20.567559    6885.3632    8285.4262    9154.3455    10581.109    1609.8473    238.18395   -1570.2001   -2400.2316 
 5271000    270.42152   -3795.0775   -3331.5843   -3795.0775            0    11526.557    16.835487     19.82998    20.539255    6856.9765    12691.591    11230.028    10658.051    2106.6854    803.68585      1457.76   -2178.9059 
 5272000    298.47885   -3794.3611   -3282.7786   -3794.3611            0    14171.976    16.740534    19.718137    20.423412    6741.6078    15900.309    12894.617        13721    813.04057   -17.909079    35.735413   -1889.3979 
 5273000    282.99171   -3818.2535   -3333.2154   -3818.2535            0    10143.866    16.793406    19.780414    20.487916    6805.6869    11743.871    9604.4339     9083.294   -783.29116   -1491.3253   -906.91765   -2326.3965 
 5274000    295.00157   -3745.1512   -3239.5286   -3745.1512            0    11990.882    16.792164    19.778952    20.486401    6804.1773    11063.025    13177.053    11732.567     1325.016   -967.85167   -148.17359     -2049.65 
 5275000    275.82842   -3764.5796   -3291.8192   -3764.5796            0    8678.1533    16.896018    19.901277    20.613102    6931.2036    7181.1963    9636.5806    9216.6831   -301.24727   -1751.2156    1462.2857   -2414.5924 
 5276000    289.79367   -3741.2547   -3244.5583   -3741.2547            0    11217.769    16.823125    19.815419    20.524173    6841.8824    10901.297     10912.01    11840.001     2006.873    758.32428    686.89899   -2125.2287 
 5277000    274.68127    -3753.112   -3282.3178    -3753.112            0    12294.017     16.85974    19.858546    20.568843    6886.6526    11520.219    10744.332      14617.5     404.8368   -255.00653    96.119479   -2047.5711 
 5278000    273.26348   -3785.4973    -3317.133   -3785.4973            0    10907.105     16.87405    19.875402    20.586302    6904.2039    10366.324    9923.2362    12431.756    263.21545   -798.48579   -39.100635   -2218.8886 
 5279000    268.90319   -3796.0073   -3335.1164   -3796.0073            0    11620.338    16.854274    19.852109    20.562175    6879.9578    11089.199    12875.028    10896.787   -1353.8361     22.99776    824.69183   -2169.1651 
 5280000    285.81632   -3734.8315   -3244.9521   -3734.8315            0    12125.369    16.812465    19.802863    20.511168    6828.8842    13196.325    10903.011     12276.77     2527.638    945.47469    -959.0659   -2037.3591 
 5281000    272.87236   -3746.0778   -3278.3839   -3746.0778            0    11414.869    16.873942    19.875275     20.58617    6904.0707    11095.073    11652.119    11497.414    68.409238    542.23787     2157.118   -2129.0346 
 5282000    273.21093   -3773.6435   -3305.3693   -3773.6435            0    8440.9275    16.963787      19.9811    20.695781     7014.941     7915.084    8851.5974    8556.1013   -1101.2784    414.30211   -799.46231   -2441.8142 
 5283000    279.09041    -3777.741   -3299.3896    -3777.741            0    10598.471    16.845399    19.841655    20.551348    6869.0946    9703.0506    12901.857    9190.5056    149.48474   -1187.7908     -697.112   -2237.6485 
 5284000    282.71078   -3831.4973   -3346.9407   -3831.4973            0    10829.229    16.811681     19.80194    20.510212    6827.9298    11549.792    7604.0521    13333.844    851.60585   -1356.6541    1037.7231   -2268.5838 
 5285000     266.0758    -3815.509   -3359.4642    -3815.509            0    12136.222     16.81995     19.81168      20.5203    6838.0097    11988.771    12913.896        11506   -119.16846    711.82805    1381.8679    -2149.175 
 5286000    278.18175   -3814.8108   -3338.0168   -3814.8108            0    9285.6146    16.872809     19.87394    20.584788    6902.6804    7847.4248    10045.437    9963.9815   -793.50959   -538.00215    -255.5784   -2403.2478 
 5287000    280.93973   -3782.2721   -3300.7511   -3782.2721            0    14180.787    16.764014    19.745794    20.452058    6770.0148    15445.527    12193.246    14903.587   -476.14377    1892.4325   -830.40345   -1900.6292 
 5288000    283.98194   -3764.0274   -3277.2921   -3764.0274            0    10780.035    16.810031    19.799996    20.508198    6825.9186    12731.488    10242.351    9366.2676   -122.09046   -702.70296    650.86989   -2204.1501 
 5289000    282.68976   -3781.0942   -3296.5736   -3781.0942            0    11624.825    16.869215    19.869707    20.580403    6898.2705    11886.643    9849.4509    13138.382   -425.30655   -165.85635    1830.1297   -2127.0674 
 5290000     281.0311   -3780.8514   -3299.1737   -3780.8514            0    9685.5487    16.849662    19.846677    20.556549    6874.3114    10355.883    9735.1603     8965.603    -1823.048   -2969.2274   -106.97457   -2328.1512 
 5291000     270.2854   -3749.2158   -3285.9559   -3749.2158            0     12316.15    16.815375     19.80629    20.514718    6832.4305    10861.321    12959.769    13127.362   -485.14339   -854.16111   -895.15453   -2058.7255 
 5292000    291.79648   -3785.5503   -3285.4212   -3785.5503            0    9991.8837    16.831714    19.825536    20.534652    6852.3672    10417.519    9608.7378     9949.394   -271.85727    765.47221   -37.100965   -2286.8848 
 5293000    289.89298   -3776.4137   -3279.5471   -3776.4137            0    10624.661    16.902854     19.90933    20.621443    6939.6206    11546.239    8616.0721    11711.671    1979.2919   -310.99823    820.96315   -2204.2544 
 5294000      279.885   -3768.9595   -3289.2462   -3768.9595            0    10310.664    16.877155    19.879059    20.590089    6908.0152    10431.093    11089.395    9411.5035    58.978793    424.30388    154.84734   -2250.4848 
 5295000    284.42974   -3830.8291   -3343.3262   -3830.8291            0    10336.396    16.832619    19.826602    20.535756    6853.4729    10303.192    10125.283    10580.713   -479.01811   -197.92426    333.15195   -2310.1945 
 5296000    277.19003   -3762.6638   -3287.5696   -3762.6638            0    10663.734    16.889966    19.894149    20.605719    6923.7587    11884.509    9956.7077    10149.986    1114.5862    327.74824    -2123.452   -2210.7892 
 5297000    280.17247   -3792.7801   -3312.5741   -3792.7801            0    9334.4402     16.90266    19.909101    20.621206    6939.3815    10096.277    8786.6058    9120.4376   -294.73202    1504.3283    228.55238   -2367.8937 
 5298000    283.06265   -3765.4425   -3280.2828   -3765.4425            0    11374.944    16.837449    19.832291    20.541649    6859.3741    12581.157     11628.95    9914.7252     1077.719    531.78318   -572.22208   -2142.3683 
 5299000    278.97377   -3740.4449   -3262.2934   -3740.4449            0    13300.317    16.829945    19.823453    20.532494    6850.2071    11517.394    13264.221    15119.337    911.42979    929.39303    1526.2115   -1933.5485 
 5300000     286.7903   -3772.9301   -3281.3814   -3772.9301            0    11880.186    16.771677     19.75482    20.461407    6779.3035    12366.982    10994.866    12278.711     397.2288   -524.39952    1538.8189    -2106.797 
 5301000    293.04572    -3779.811   -3277.5407    -3779.811            0    10858.496    16.859524    19.858293     20.56858    6886.3887    10536.904    11743.882    10294.702   -1442.4518    21.238129   -865.59217    -2187.012 
 5302000     274.0349   -3779.7413   -3310.0548   -3779.7413            0    12129.991    16.802037     19.79058    20.498446    6816.1857    11344.251    12995.388    12050.334    387.55509    1472.5965    1478.7285   -2104.2479 
 5303000    279.33038   -3800.5722   -3321.8095   -3800.5722            0    10551.887    16.819591    19.811256    20.519861     6837.571    12230.618    8982.3323     10442.71    597.08387    2061.9866     856.8655   -2269.5863 
 5304000    290.00784   -3770.6692   -3273.6057   -3770.6692            0    11239.401    16.863785    19.863311    20.573778    6891.6112    12788.177    12626.168    8303.8573    1087.2811    1311.1533   -2701.3065   -2143.9663 
 5305000    284.66088   -3795.2447   -3307.3457   -3795.2447            0    10287.769    16.834935     19.82933    20.538581    6856.3018    10933.259    10160.495    9769.5538   -472.54414    657.98792    121.22189   -2278.6498 
 5306000    292.70052   -3750.6904   -3249.0117   -3750.6904            0     10671.48    16.835608    19.830123    20.539403    6857.1241     11257.63    11471.114    9285.6959   -1490.3424    953.33989    1856.5553   -2181.8197 
 5307000    278.57436   -3758.1803   -3280.7134   -3758.1803            0    12257.112    16.804923     19.79398    20.501967    6819.6988    10751.841    13789.594    12229.902    2015.2362   -1643.8299    49.524568   -2061.6417 
 5308000    272.30249    -3743.883   -3277.1658    -3743.883            0    11823.708    16.866599    19.866626    20.577212    6895.0621    12250.346    10954.186    12266.591   -871.81611     293.1151   -404.74455   -2088.2044 
 5309000    276.31876    -3786.767   -3313.1661    -3786.767            0    10393.981    16.954469    19.970125    20.684412    7003.3875    9336.6788    11648.924    10196.341   -1209.4843    983.37332    848.07455   -2251.5537 
 5310000     277.7519   -3824.9242   -3348.8669   -3824.9242            0    10494.587    16.847681    19.844342    20.554131    6871.8862    10396.773     11592.01    9494.9794    682.27236    610.27395    1386.7056   -2297.1055 
 5311000    270.24597   -3801.4506   -3338.2583   -3801.4506            0    10208.345    16.912584     19.92079    20.633313    6951.6112    9990.2081    11210.914    9423.9125    766.55384    491.72927      312.229   -2303.3146 
 5312000    290.22549    -3783.663   -3286.2264    -3783.663            0    11151.595     16.90936    19.916992    20.629379    6947.6364    10665.443    9588.9831    13200.359    1897.4846    1320.0905    124.08204   -2156.3005 
 5313000    290.66102   -3766.4134   -3268.2303   -3766.4134            0    9908.1696    16.911696    19.919744     20.63223    6950.5164    12851.064    8491.3755    8382.0693    729.76332   -236.06526     2391.602   -2263.8773 
 5314000     283.5357    -3763.062   -3277.0915    -3763.062            0    13036.028    16.830207    19.823761    20.532813    6850.5265    15724.393    11661.616    11722.074   -464.16446    -441.4649    1741.8934   -1974.6893 
 5315000    278.81358    -3803.449   -3325.5721    -3803.449            0    11522.394    16.850478    19.847638    20.557544    6875.3101     11197.48    11738.279    11631.421   -533.00749    1520.4445    736.02035   -2170.2292 
 5316000     289.4124   -3757.5409   -3261.4979   -3757.5409            0    11391.931    16.853976    19.851758    20.561812    6879.5928    11746.468    10111.567    12317.757   -1389.5505   -860.25565    1126.3861    -2118.525 
 5317000    268.22507   -3819.3383   -3359.6097   -3819.3383            0    12037.145     16.83334    19.827451    20.536635    6854.3531    11391.295    14048.101    10672.038    1825.8215   -452.43615    606.12186   -2156.3321 
 5318000     286.9713   -3815.0327   -3323.1737   -3815.0327            0    10613.391    16.885321    19.888677    20.600052    6918.0473      10823.8    10690.245    10326.128    360.96009    437.31229    693.83638   -2252.3609 
 5319000    267.64317   -3801.3427   -3342.6115   -3801.3427            0    12443.494    16.819289      19.8109    20.519493    6837.2028    14358.342    12518.403    10453.737    511.11732    275.93642    390.46455    -2101.826 
 5320000    286.70259   -3767.8874    -3276.489   -3767.8874            0    11618.263    16.852026    19.849461    20.559432    6877.2048    11666.532    11127.985    12060.274    560.37416    700.71755    730.33803   -2111.2123 
 5321000    289.90688   -3810.9973   -3314.1068   -3810.9973            0    9829.5949    16.897384    19.902887     20.61477    6932.8858    10610.719    10030.586    8847.4797   -942.99496   -1143.7816   -442.69768    -2320.246 
 5322000    301.59988   -3775.4094   -3258.4776   -3775.4094            0    11536.828    16.909115    19.916704    20.629081    6947.3347    12241.607    10945.565    11423.312     924.5144   -1250.3039    1974.0698   -2089.5691 
 5323000    273.37044   -3813.0952   -3344.5476   -3813.0952            0    9698.6218    16.894118    19.899039    20.610785     6928.866    10020.946    10448.945    8625.9738   -42.042629   -900.04021     393.9724    -2364.498 
 5324000    282.28062   -3802.8926   -3319.0733   -3802.8926            0    10119.228    16.890301    19.894544    20.606128    6924.1709    10353.357    10642.882    9361.4467   -2470.6166   -1143.6859    232.52132   -2297.2141 
 5325000     274.3065    -3759.403   -3289.2511    -3759.403            0    13101.962     16.84352    19.839441    20.549055    6866.7958    12039.423    13593.343     13673.12   -1116.6525   -285.21745    2461.0989   -1977.1528 
 5326000    266.28852    -3779.762   -3323.3526    -3779.762            0    9730.4983    16.891037    19.895411    20.607026     6925.076     10163.21    9113.2495    9915.0356   -465.48676    49.555495   -1837.1821   -2340.6197 
 5327000    275.47666   -3823.3826    -3351.225   -3823.3826            0    12788.535    16.834312    19.828596    20.537821    6855.5403    13514.176    13646.798    11204.631    1469.0446   -303.36492     1020.284   -2072.6141 
 5328000    292.46065   -3780.3601   -3279.0926   -3780.3601            0    9901.7255    16.909589    19.917262    20.629659    6947.9189    11533.065    9090.9481    9081.1629   -165.28567    1356.5305   -1459.1442   -2275.7678 
 5329000    283.14256   -3785.5992   -3300.3025   -3785.5992            0    13448.833    16.763111     19.74473    20.450956    6768.9207    13623.415    13046.883    13676.201    178.18153   -18.635796    340.18392   -1972.6638 
 5330000    297.03624   -3757.4256   -3248.3157   -3757.4256            0    12369.751    16.791038    19.777625    20.485027    6802.8084    10139.496     15007.07    11962.685   -28.451097   -816.43426   -37.035591   -2021.0882 
 5331000    278.12495   -3803.7296    -3327.033   -3803.7296            0    9224.7578    16.860831    19.859832    20.570174    6887.9902    9847.4623    8198.6573    9628.1538   -179.42559    266.21297   -1682.4803   -2400.3667 
 5332000    281.27658   -3809.5436   -3327.4452   -3809.5436            0    9377.3723    16.870255    19.870931    20.581671    6899.5457    8531.6408    10368.601    9231.8753    233.32151   -1264.0074    538.45896   -2383.8678 
 5333000    267.01119   -3780.6748   -3323.0267   -3780.6748            0    11194.992    16.840596    19.835997    20.545487    6863.2201    9358.9115    12265.555    11960.509   -226.84988   -403.28938   -581.28523   -2202.4861 
 5334000    286.36963   -3729.4916   -3238.6638   -3729.4916            0    11716.642    16.895689     19.90089    20.612701    6930.7991    10282.138    10539.275    14328.513   -667.11423    477.03782    405.06416   -2054.3621 
 5335000    288.33199   -3810.9718   -3316.7806   -3810.9718            0    12465.524    16.889226    19.893278    20.604816    6922.8487    14436.469    12734.588    10225.515   -187.21498   -1446.4565   -465.21799   -2058.2283 
 5336000    290.66805   -3811.0351     -3312.84   -3811.0351            0    11102.121    16.857551    19.855969    20.566173    6883.9712     10456.29    12257.748    10592.326    1216.4302   -944.84931   -433.72095   -2198.2352 
 5337000    275.48622   -3824.2783   -3352.1043   -3824.2783            0    11756.936     16.84727    19.843858     20.55363    6871.3833    10450.625    12787.424     12032.76   -217.88141    128.94892    1241.5362   -2173.9173 
 5338000    287.08761   -3782.6206   -3290.5622   -3782.6206            0    12886.844    16.852686    19.850238    20.560237    6878.0124    13509.079    11364.413    13787.041    1400.9628    642.31478    911.15555   -1997.8989 
 5339000      275.065   -3818.3361   -3346.8841   -3818.3361            0    11426.839    16.814831     19.80565    20.514054    6831.7679    10081.037    14925.285    9274.1966   -1228.1112    1130.2275   -819.59168   -2208.3786 
 5340000     276.8442   -3799.3052   -3324.8037   -3799.3052            0    11148.902    16.910669    19.918534    20.630976      6949.25    9746.5153    12805.007    10895.184    1237.1476    1603.5761   -1306.7332   -2194.8883 
 5341000    266.43987   -3781.9268    -3325.258   -3781.9268            0    12978.084    16.813265    19.803805    20.512144     6829.859    12259.477    12667.327    14007.448    409.98789      266.999   -75.886044   -2032.5566 
 5342000    295.37866   -3809.2058   -3302.9369   -3809.2058            0    9272.7435    16.890152    19.894368    20.605946    6923.9873    9161.0368    8999.1488    9658.0449   -222.16467    1186.5046    781.82722   -2366.5822 
 5343000    287.40158   -3807.5883   -3314.9918   -3807.5883            0    12257.374    16.804598    19.793597     20.50157    6819.3029    12114.062    12089.711     12568.35    1036.1187   -801.78207    1684.6959   -2095.9648 
 5344000    274.08396   -3789.9326   -3320.1621   -3789.9326            0     12692.98    16.809433    19.799291    20.507468      6825.19    14570.948    10752.733    12755.258   -1338.1664     733.1762    60.747649   -2056.7233 
 5345000    277.44145   -3803.1403   -3327.6152   -3803.1403            0    11286.751    16.804118    19.793031    20.500984    6818.7181    11019.652    10859.974    11980.627    194.06028   -197.23672   -595.73496   -2205.2154 
 5346000     290.2101   -3788.5139   -3291.1037   -3788.5139            0     10338.56    16.811225    19.801402    20.509655    6827.3731    10953.974     12161.28    7900.4271   -1111.6769   -883.90583   -228.88394   -2261.6909 
 5347000    289.66507   -3791.2832   -3294.8072   -3791.2832            0    10492.735    16.806946    19.796363    20.504435     6822.162    9717.1679    10113.525    11647.512   -556.64163   -734.64347    13.492775   -2250.8406 
 5348000    261.13863   -3791.8055   -3344.2228   -3791.8055            0    10645.421    16.862853    19.862213    20.572641    6890.4685    9700.7767    12862.105    9373.3799    1104.7586    1393.8953   -244.46756   -2274.4601 
 5349000    287.09704   -3796.5949   -3304.5204   -3796.5949            0     10577.36    16.845041    19.841234    20.550911     6868.657    10387.719    11463.559    9880.8025    145.97065    705.74795    1075.4303   -2244.9618 
 5350000    275.06866   -3801.8933    -3330.435   -3801.8933            0      10489.7    16.825152    19.817806    20.526646    6844.3552    12295.015    9801.3217    9372.7622   -1037.3947    1400.0727   -209.13128   -2283.3753 
 5351000    273.38809   -3807.9781   -3339.4003   -3807.9781            0    13973.857    16.784882    19.770373    20.477516    6795.3281    12282.745    15967.617     13671.21   -572.92532   -881.04652   -315.35302   -1954.5507 
 5352000     285.5328   -3790.3824   -3300.9889   -3790.3824            0    9156.9428    16.901374    19.907586    20.619637    6937.7975    7572.5046    9134.5811    10763.743   -1080.3221     105.6741    1266.8161   -2374.4834 
 5353000    286.59138   -3804.9242   -3313.7164   -3804.9242            0    10009.908    16.862976    19.862358    20.572791     6890.619    9791.7588    7871.0748     12366.89    178.74834   -694.04879    378.38937   -2307.7946 
 5354000    272.01888   -3802.1807   -3335.9497   -3802.1807            0    11238.332     16.85729    19.855661    20.565855    6883.6518    12911.957     12287.76    8515.2791    512.56215    319.80376    501.46237   -2207.7223 
 5355000    299.44128   -3806.7741    -3293.542   -3806.7741            0    12954.758    16.789878    19.776258    20.483612    6801.3981     13659.98    14675.119    10529.175   -786.19144     558.9911   -1190.3269   -2008.5412 
 5356000    280.51714   -3836.9584   -3356.1616   -3836.9584            0     11543.95    16.818924    19.810471    20.519048    6836.7583     11383.02    10723.015    12525.815   -93.123107   -1490.6773    43.952836   -2205.1478 
 5357000    266.05762   -3812.2222   -3356.2085   -3812.2222            0    9790.3907     16.86118    19.860243      20.5706    6888.4176    10505.793    8336.7989     10528.58     872.7496    539.04899   -1527.2494   -2372.6609 
 5358000    282.88124   -3804.4727    -3319.624   -3804.4727            0    11717.354    16.866599    19.866626    20.577211    6895.0615     12807.79    11808.177    10536.096   -1454.8145   -244.78328   -776.83145   -2141.3573 
 5359000    279.04584   -3848.9296   -3370.6545   -3848.9296            0    10273.992    16.883256    19.886246    20.597533    6915.5103    11337.032    9307.1896    10177.753    297.70689   -2402.5274   -1503.9802   -2334.4647 
 5360000    275.50589   -3826.6863   -3354.4786   -3826.6863            0    13741.938    16.762665    19.744205    20.450412    6768.3807    14689.538    13183.899    13352.378   -1319.5159   -445.21339   -897.70958   -1998.0134 
 5361000    282.07953   -3823.6068   -3340.1322   -3823.6068            0    10612.398    16.865058    19.864811    20.575331    6893.1717    10519.798    10986.574    10330.822   -1375.1134   -331.36398   -1412.5366   -2273.2695 
 5362000    281.71119   -3835.2631   -3352.4197   -3835.2631            0    9666.9654     16.87565    19.877287    20.588254    6906.1681     9607.018    9619.9249    9773.9533   -326.05855    1110.3823    314.64445    -2378.769 
 5363000    281.93061   -3826.1869   -3342.9675   -3826.1869            0    12200.688    16.887984    19.891814    20.603301    6921.3213    12288.461    10757.483     13556.12   -878.27817   -518.67688   -90.483329   -2111.4255 
 5364000    298.47418   -3798.6359   -3287.0614   -3798.6359            0    12674.521    16.855204    19.853204    20.563309    6881.0962    13065.624    13495.712    11462.228   -608.22598   -246.50213    474.41768   -2015.1259 
 5365000     282.6961   -3815.2641   -3330.7326   -3815.2641            0    11592.235    16.872757    19.873879    20.584724    6902.6167    10295.768    12060.739    12420.199   -161.42475     364.4978   -269.33105   -2163.7703 
 5366000     272.4881   -3833.9311   -3366.8959   -3833.9311            0    10544.121     16.87307    19.874248    20.585106    6903.0009    10929.478    9868.4159     10834.47     2849.134   -1344.9556    1307.1428   -2305.3856 
 5367000    273.04546    -3826.833   -3358.8424    -3826.833            0    12840.327    16.810513    19.800564    20.508787    6826.5065    13674.897    12921.761    11924.322    757.16219    1386.9092   -249.08902   -2080.4904 
 5368000    285.54664   -3844.1539   -3354.7367   -3844.1539            0    13251.611    16.804767    19.793796    20.501776    6819.5083     10780.97    14044.891    14928.971    1485.0016    1222.5122   -560.34386   -2036.7907 
 5369000    285.67946   -3776.8529   -3287.2081   -3776.8529            0    10686.239    16.786099    19.771807    20.479002    6796.8068    10702.446    9882.9615    11473.309    28.783692   -836.16105   -1464.1944   -2227.9405 
 5370000    287.73362   -3794.3322   -3301.1666   -3794.3322            0    12461.555    16.831703    19.825523    20.534639     6852.354     12014.45    13287.866    12082.349    1690.8174    2661.9134    868.51312   -2055.8267 
 5371000    284.27201   -3805.7869   -3318.5544   -3805.7869            0    11857.188    16.849267    19.846211    20.556066    6873.8274    13714.207    8366.8659    13490.491    305.22508     145.8404   -772.30273   -2129.8983 
 5372000    294.25395   -3776.7254   -3272.3842   -3776.7254            0    8610.5406    16.909619    19.917297    20.629695    6947.9554    9511.1067     7895.483    8425.0322    1091.5398   -838.41786    462.74447   -2399.8884 
 5373000    275.92123   -3797.4829   -3324.5634   -3797.4829            0    10828.033    16.829016    19.822358     20.53136    6849.0722     9802.954    10372.277    12308.868    -985.4355   -549.12637   -80.267535    -2242.987 
 5374000    282.85496   -3792.2074   -3307.4037   -3792.2074            0    9450.6439    16.866297     19.86627    20.576843     6894.691    7419.4144    9246.1293    11686.388   -460.07331   -460.09845    119.90114   -2357.1226 
 5375000    285.24911   -3760.7539   -3271.8467   -3760.7539            0    12791.956     16.83984    19.835107    20.544565    6862.2962     14238.44    10953.742    13183.685   -1320.8095   -2237.1949    1409.9874   -1991.6335 
 5376000    297.76291   -3808.1563   -3297.8009   -3808.1563            0    10160.064    16.854372    19.852224    20.562295    6880.0776    11840.312    8620.2787      10019.6   -689.27802    214.79142   -964.58167   -2278.3515 
 5377000    276.13028   -3776.8851   -3303.6072   -3776.8851            0     12161.22    16.834118    19.828367    20.537584    6855.3033    14065.271    11194.751    11223.637    1834.5047    635.98603   -1207.6857    -2087.758 
 5378000    296.26455   -3810.9561   -3303.1688   -3810.9561            0    11325.081    16.789797    19.776163    20.483513       6801.3    10196.478    10806.426    12972.339   -225.74955    237.39568    2242.6388   -2179.8342 
 5379000    291.61633   -3775.2651   -3275.4447   -3775.2651            0    11137.568     16.83021    19.823765    20.532817    6850.5306    11357.159    11670.996    10384.548   -461.79861   -295.30791   -1311.2135    -2162.713 
 5380000    271.92412   -3787.2492   -3321.1806   -3787.2492            0    11209.486    16.839578    19.834799    20.544246    6861.9762    13666.046    10482.653    9479.7579    216.13714    1759.5193    1284.6049   -2199.3926 
 5381000    281.49548   -3827.7112   -3345.2376   -3827.7112            0     10264.16    16.858178    19.856707    20.566938    6884.7395    10216.919    10081.037    10494.525    68.566388    1838.7723    234.56461   -2314.6454 
 5382000    288.50974   -3734.9237   -3240.4279   -3734.9237            0     11714.39     16.80849    19.798181    20.506318    6824.0419    12919.488    11511.771     10711.91   -1232.6239    391.26739   -192.87269   -2074.5925 
 5383000    281.52023   -3785.1019   -3302.5859   -3785.1019            0    11286.044    16.784287    19.769673    20.476791    6794.6057    12568.835    12232.099    9057.1977   -428.73826    1556.3627   -1238.5252   -2184.2252 
 5384000    284.09694   -3829.1365   -3342.2041   -3829.1365            0    10395.443    16.842242    19.837937    20.547496    6865.2337    10460.591    9522.1151    11203.624    298.45333    1116.0224    411.83297   -2301.3874 
 5385000    256.01061   -3835.5221   -3396.7287   -3835.5221            0    9056.4953    16.881724    19.884441    20.595664    6913.6272    8791.8615    10594.739    7782.8858   -1453.9612    85.301187    1975.2144   -2483.5789 
 5386000    280.50417    -3793.794   -3313.0195    -3793.794            0    10185.478    16.840212    19.835545    20.545019    6862.7507    10343.418     11584.81    8628.2061     977.7351    1015.3564    -786.0269   -2293.5939 
 5387000    277.95167   -3805.9582   -3329.5585   -3805.9582            0    11390.509    16.815531    19.806475    20.514909    6832.6216     10124.33     14368.99    9678.2059    836.33559    512.16702    600.26294   -2194.5311 
 5388000    277.63477   -3777.1474   -3301.2909   -3777.1474            0    11778.257    16.815156    19.806032    20.514451    6832.1639    13231.554    12536.299    9566.9161   -2439.3131    406.68178    873.14923   -2127.7042 
 5389000      270.382   -3841.5751   -3378.1496   -3841.5751            0    11522.231    16.826859    19.819817    20.528729    6846.4392    11044.861    10772.978    12748.855    702.35467    54.768687   -283.62232   -2227.6745 
 5390000    272.99281   -3813.7115   -3345.8112   -3813.7115            0    9467.6528    16.939771    19.952813    20.666481    6985.1894    8655.6135    9592.0266    10155.318    342.53273     1034.148    1046.9123   -2381.3241 
 5391000    271.95311   -3802.9802   -3336.8619   -3802.9802            0    11416.062    16.854351    19.852199    20.562269    6880.0518    12149.645    10697.665    11400.876    533.15362    928.09778    582.67633   -2191.3914 
 5392000    259.48966   -3797.4956   -3352.7392   -3797.4956            0    10990.728    16.935704    19.948022    20.661519    6980.1597    8770.2515     13229.23    10972.702    944.42746    125.69637    863.20913   -2233.8999 
 5393000    274.10047    -3803.782   -3333.9832    -3803.782            0    12005.481    16.837082    19.831859    20.541201    6858.9254    9620.2666    13343.111    13053.064    974.07349    1100.8452    182.47648   -2133.0703 
 5394000    272.69684   -3758.9742   -3291.5812   -3758.9742            0    12003.779    16.815625    19.806585    20.515023     6832.736    13275.066    10919.368    11816.902    664.63562   -833.70621   -184.90074   -2095.4232 
 5395000    306.28429    -3778.293   -3253.3322    -3778.293            0    8483.5397    16.945253     19.95927    20.673169    6991.9733    6600.3176    9084.3092    9765.9922    921.13394    969.11565    442.46692   -2388.2592 
 5396000    273.44223   -3817.0759   -3348.4053   -3817.0759            0    10102.315    16.926142    19.936759    20.649853    6968.3428    10550.165    11198.457    8558.3234   -86.054805   -1422.0775    1157.9335   -2321.7461 
 5397000    279.08752   -3843.4072   -3365.0608   -3843.4072            0    11081.054    16.872339    19.873387    20.584214    6902.1034    13365.986     9580.225    10296.952    238.25619    688.87832   -449.95004   -2249.6407 
 5398000     281.3989   -3827.3796   -3345.0715   -3827.3796            0    10140.947    16.839426     19.83462    20.544061    6861.7908    9663.1227     11435.18     9324.538    1594.7571    148.61103    49.920643   -2330.2449 
 5399000    290.59907   -3768.8714   -3270.7945   -3768.8714            0    12389.229    16.812141    19.802482    20.510773    6828.4903     11327.56    13359.567    12480.561   -414.65207     1339.349    1029.3231   -2036.9942 
 5400000    271.98652   -3788.9686   -3322.7931   -3788.9686            0    8568.6531    16.913301    19.921635    20.634188    6952.4959    6863.5497     9479.223    9363.1865   -1343.5458    1192.6993    422.02802   -2453.9743 
 5401000    276.66872   -3762.9028   -3288.7021   -3762.9028            0    11380.562    16.883538    19.886578    20.597877    6915.8565    10905.458    12008.265    11227.965   -1481.8237   -383.12632    1273.9255   -2140.8509 
 5402000     273.6495   -3814.7156   -3345.6897   -3814.7156            0     11743.97    16.848414    19.845206    20.555026    6872.7834    9362.0416    13005.351    12864.519   -271.39445    38.259229    413.91376   -2168.5622 
 5403000    287.35792   -3793.3008   -3300.7791   -3793.3008            0    10417.259    16.860225    19.859118    20.569435    6887.2476    9610.3251    9338.6544    12302.798   -486.72051   -1484.9103    1633.2558   -2254.4337 
 5404000     268.8965   -3803.9238   -3343.0444   -3803.9238            0    10116.523     16.90241    19.908807    20.620901    6939.0736    8838.3566    9775.0792    11736.133   -883.87423    1268.5815    1639.1954   -2319.2597 
 5405000    286.43961   -3807.2946   -3316.3469   -3807.2946            0    12588.573    16.806322    19.795627    20.503674    6821.4018    12785.772    11349.459    13630.487   -1119.4908   -1243.0632   -1919.0194    -2063.996 
 5406000    266.81825    -3801.887   -3344.5696    -3801.887            0    12337.629    16.825321    19.818006    20.526852    6844.5622    12472.444    12095.601    12444.841    692.45881    791.83555    462.00026   -2113.0162 
 5407000     280.8138   -3816.7707   -3335.4655   -3816.7707            0    10149.345    16.909411    19.917052    20.629441     6947.699    10153.756    7299.8931    12994.384   -761.33259    63.165839    213.73557   -2307.0825 
 5408000    272.07334   -3778.6414    -3312.317   -3778.6414            0    14030.686    16.805705    19.794901    20.502921    6820.6506    13856.429    14560.267     13675.36    -176.3047    797.64455    552.81338    -1916.654 
 5409000    281.49507   -3812.0406   -3329.5677   -3812.0406            0    11288.924    16.868723    19.869127    20.579802    6897.6663    9828.3759    12822.679    11215.717    -616.9837     1065.924   -2280.7153    -2193.954 
 5410000    285.39115   -3731.0948   -3241.9441   -3731.0948            0    12120.938    16.829156    19.822523    20.531531    6849.2431    11063.904    15090.577    10208.332   -1147.0809   -101.17428    -812.3244   -2031.1936 
 5411000    279.22019   -3798.5295   -3319.9557   -3798.5295            0    13350.976    16.778571    19.762941    20.469818    6787.6669     12713.24    11335.167    16004.523   -403.74146   -2454.1636    -93.10152   -1998.3271 
 5412000    282.50414   -3801.7945    -3317.592   -3801.7945            0    11278.418    16.835733     19.83027    20.539555    6857.2768    11061.835    10787.081    11986.339     89.35758    53.864232   -362.91352   -2189.6786 
 5413000    284.65507   -3785.9702   -3298.0812   -3785.9702            0    13696.138    16.763085      19.7447    20.450925    6768.8901    14712.489    11458.656     14917.27    1111.9491   -43.241957     745.7336   -1946.0351 
 5414000    281.18285    -3817.711   -3335.7732    -3817.711            0    10912.371    16.863972    19.863532    20.574007    6891.8408    11515.156    10571.711    10650.246      22.2151    1065.3203   -1491.7285   -2238.9661 
 5415000    282.29976   -3799.7579   -3315.9058   -3799.7579            0    10966.106    16.850453    19.847607    20.557513    6875.2786    12711.082    10338.624    9848.6099    1963.8878    364.56589   -37.781309   -2216.3466 
 5416000    270.86306   -3764.8788   -3300.6288   -3764.8788            0    11320.565     16.89069    19.895001    20.606602    6924.6485    11631.155    11945.842    10384.698    321.75042   -1016.5364    -1119.914   -2157.3775 
 5417000     267.9063   -3818.7071   -3359.5248   -3818.7071            0    9513.9457    16.872119    19.873127    20.583945    6901.8331    7709.3466    10929.174    9903.3165   -1150.1889    246.87245    70.888065   -2401.8876 
 5418000    291.44683   -3774.8623   -3275.3324   -3774.8623            0    10922.158    16.865513    19.865347    20.575887      6893.73    10805.274    10703.531    11257.669   -1603.2025     186.8923    794.86695   -2177.2407 
 5419000    289.50774   -3775.5059   -3279.2996   -3775.5059            0    10971.648    16.883812      19.8869    20.598211    6916.1927    10092.159    11854.029    10968.756    228.42866    1247.1468   -240.02217    -2172.638 
 5420000    284.16532   -3797.1673   -3310.1177   -3797.1673            0    14280.716    16.808276     19.79793    20.506058    6823.7819    14634.187    15028.895    13179.065   -502.13819    255.05992   -384.81627   -1888.9314 
 5421000    280.77152   -3814.5137   -3333.2809   -3814.5137            0    8642.8566    16.887069    19.890736    20.602184    6920.1961    8030.8315    10786.414    7111.3242    2234.5592     824.6897    98.958129   -2461.0096 
 5422000    281.63998    -3801.382   -3318.6607    -3801.382            0    11235.778    16.893084    19.897822    20.609523    6927.5939    10192.855    12132.186    11382.293    740.22837    -567.0592   -582.07525   -2183.4892 
 5423000    271.15989   -3765.4186   -3300.6598   -3765.4186            0    11495.492    16.817103    19.808326    20.516826    6834.5375    12684.931    10721.576    11079.969   -197.19481    1593.0197    432.59942   -2154.8499 
 5424000    273.97662    -3787.886   -3318.2995    -3787.886            0    12257.462    16.826356    19.819225    20.528115    6845.8253    10878.408    12697.326    13196.651    695.39873    1388.7174    512.75879   -2094.5226 
 5425000    286.95894   -3779.0177   -3287.1799   -3779.0177            0    12607.989    16.879701    19.882058    20.593196    6911.1423    13405.059    12787.097    11631.809    1027.5855    -905.3802    906.72124   -2016.3965 
 5426000    289.65808   -3814.4468   -3317.9828   -3814.4468            0    10812.424    16.846239    19.842644    20.552372     6870.122    10736.117    10113.284    11587.871    61.437683    1187.2262   -628.39815   -2234.6462 
 5427000    281.84507   -3763.2882   -3280.2154   -3763.2882            0    11577.737    16.871407    19.872289    20.583077    6900.9595    12577.271    10907.881     11248.06    -940.7852    862.71091     543.5365   -2114.9923 
 5428000    276.68468    -3769.238     -3295.01    -3769.238            0    11742.412    16.850198    19.847308    20.557202     6874.967    10645.378    13549.488    11032.369    828.71409    549.91326   -881.82097   -2117.6648 
 5429000    296.12738   -3792.8717   -3285.3195   -3792.8717            0     10431.54     16.81801    19.809394    20.517933    6835.6436    9259.7133    10163.683    11871.223   -444.10243    1367.9313   -1429.3562   -2245.3905 
 5430000    277.07373   -3771.7219    -3296.827   -3771.7219            0    10645.799    16.846895    19.843417    20.553173     6870.925    10983.955    11373.987    9579.4538   -1363.1236    506.45324   -297.79868   -2230.0605 
 5431000    298.98286   -3783.8553   -3271.4089   -3783.8553            0    12857.176    16.807427    19.796929    20.505022    6822.7479    13511.912     13427.73    11631.888   -29.733979   -550.06217   -1939.4795   -1992.0841 
 5432000    293.78324    -3807.972   -3304.4376    -3807.972            0    11917.508    16.855733    19.853826    20.563954    6881.7435    10946.838    11974.728    12830.958   -495.08401    786.37152   -4.8038191   -2108.3587 
 5433000    279.81407   -3840.7425   -3361.1508   -3840.7425            0    10801.602    16.809523    19.799397    20.507578    6825.2998    11203.488    9730.5927    11470.726     2947.344   -71.724516   -2059.8561   -2285.9593 
 5434000    280.45104    -3831.765   -3351.0815    -3831.765            0    11296.426    16.793227    19.780203    20.487698    6805.4693    10397.635    12674.656    10816.988   -838.60972   -567.82277    1714.8217   -2229.9023 
 5435000    272.90156   -3765.8058   -3298.0619   -3765.8058            0    11622.541    16.811692    19.801953    20.510225    6827.9428    9790.1632    12200.989    12876.471    605.43491    586.59358   -855.96952   -2140.7062 
 5436000    294.51631   -3770.8071   -3266.0162   -3770.8071            0    10286.398    16.840578    19.835976    20.545466    6863.1986    10289.135     10519.88    10050.179   -233.40296    1319.6444    60.640889   -2236.4227 
 5437000    275.41793   -3776.0162   -3303.9593   -3776.0162            0    10123.112     16.89341    19.898205    20.609921    6927.9948    10127.223    9073.0525     11169.06   -409.55262     1980.782   -1334.2943   -2281.1434 
 5438000     291.9516    -3750.373    -3249.978    -3750.373            0    15057.691    16.791023    19.777607    20.485009    6802.7899    15853.837    15357.233    13962.003    649.17966    -865.6899    697.32428   -1756.0787 
 5439000    267.44884   -3780.9865   -3322.5883   -3780.9865            0    12055.066    16.800203    19.788419    20.496208    6813.9532    13005.301    11919.988    11239.908    1288.7776   -12.179704   -460.04248    -2124.622 
 5440000    288.62945   -3744.8597   -3250.1587   -3744.8597            0    11564.961    16.842981    19.838807    20.548398    6866.1371    11753.701     11264.72    11676.462    668.01187    1185.0501    167.67034   -2092.0948 
 5441000    286.34771   -3780.4638   -3289.6736   -3780.4638            0    10974.643    16.900264    19.906279    20.618283    6936.4308    10477.987    13061.067    9384.8748    -242.1298   -501.42009    868.70186   -2179.4707 
 5442000    303.43741   -3800.7689   -3280.6876   -3800.7689            0    12784.772    16.851716    19.849096    20.559055    6876.8257    11232.852    12922.561    14198.902    53.944208    1156.3846    1243.6159   -1998.4843 
 5443000    289.73167   -3781.4508   -3284.8607   -3781.4508            0    9815.7823    16.864081    19.863659    20.574139    6891.9736    11203.833    8574.5074    9669.0068   -2598.7644    278.38552    841.25808   -2298.2532 
 5444000    291.70912   -3793.8014    -3293.822   -3793.8014            0    9981.7469    16.905638    19.912609    20.624839    6943.0502    7348.3986    9806.8344    12790.008    724.51043    1045.4399     622.4566   -2283.0976 
 5445000    269.31777   -3784.7052   -3323.1037   -3784.7052            0    11824.904    16.892263    19.896854    20.608521    6926.5837    12106.436    10389.193    12979.082    1986.8062   -965.08848   -899.03092    -2128.586 
 5446000    280.69507   -3774.9373   -3293.8356   -3774.9373            0    9768.9647    16.822775    19.815007    20.523746    6841.4555    10200.423    9928.3368    9178.1347   -654.68727    36.752767   -34.364914   -2319.1312 
 5447000    282.62638    -3766.965   -3282.5531    -3766.965            0    12454.759    16.781813    19.766759    20.473773    6791.6021    13489.163    13109.306    10765.806   -856.58413    43.101035   -1119.4673   -2048.9273 
 5448000     285.3346   -3774.4599   -3285.4062   -3774.4599            0    10763.028    16.840637    19.836046    20.545538    6863.2713     11277.07    10529.215    10482.798   -564.52153   -1299.8629    665.91324   -2208.0942 
 5449000    281.75265   -3778.2184    -3295.304   -3778.2184            0    11401.737    16.865109     19.86487    20.575393    6893.2339    12347.162    11253.478    10604.572    1314.5623    974.92706    986.81831   -2149.0789 
 5450000    286.72906   -3798.9688    -3307.525   -3798.9688            0    10159.563    16.835883    19.830447    20.539738    6857.4602    8025.7965    12052.938    10399.956   -655.89169   -1086.8857   -548.69846    -2291.477 
 5451000    284.50945   -3788.9026   -3301.2631   -3788.9026            0    11390.907    16.806414    19.795736    20.503786    6821.5143    9959.3413    11876.147    12337.234   -746.57273   -616.86918   -322.14043   -2168.0411 
 5452000    284.94516   -3785.0797   -3296.6934   -3785.0797            0    10062.867    16.912218    19.920359    20.632867    6951.1605    9158.2735    9932.2962    11098.031   -1065.5235   -783.31007   -1539.6649   -2276.5648 
 5453000    276.77972   -3838.0029   -3363.6119   -3838.0029            0     9915.936    16.875405    19.876998    20.587955    6905.8668    10804.448    10033.286    8910.0739    983.05957   -1187.5431    961.38479   -2364.9286 
 5454000    275.71127   -3807.0158   -3334.4562   -3807.0158            0    12406.503    16.821183    19.813132    20.521804    6839.5134    14393.362    12846.837    9979.3094    1603.4768   -678.40839    938.68276   -2096.9412 
 5455000    274.91294   -3817.5863   -3346.3949   -3817.5863            0    11133.442    16.832735    19.826738    20.535897    6853.6141     12947.03    10103.121    10350.176    -786.2048    8.7725885   -405.34119   -2233.5747 
 5456000    287.80326   -3818.9853   -3325.7004   -3818.9853            0     9216.294    16.868172    19.868478     20.57913    6896.9904    9198.4318    10265.848     8184.602   -2534.0869   -1283.0002   -1420.7496   -2398.6745 
 5457000    276.26647    -3796.834   -3323.3227    -3796.834            0    10909.799    16.797441    19.785166    20.492838     6810.593    11582.958    11886.798    9259.6424   -1140.4962    -1044.478   -1433.3334   -2239.7013 
 5458000    280.64975   -3756.6296   -3275.6055   -3756.6296            0    12370.166    16.791697    19.778401    20.485831    6803.6089    14345.307    12131.011    10634.181    565.92612   -659.60871    2904.6867   -2048.1924 
 5459000     294.4564   -3820.8853   -3316.1971   -3820.8853            0    10786.808    16.840874    19.836325    20.545827    6863.5604    8728.2459    10617.204    13014.974   -438.44632   -417.36728    1459.3196   -2236.4594 
 5460000    293.01158   -3776.6074   -3274.3956   -3776.6074            0    11128.699     16.80596    19.795201    20.503232    6820.9606    11466.708    10038.882    11880.508   -927.68533   -22.570872    709.87167   -2167.3491 
 5461000    283.18546   -3799.4731    -3314.103   -3799.4731            0    13711.583    16.831649     19.82546    20.534573    6852.2881    11129.983    14508.635    15496.131   -380.32923   -23.619397   -588.76501   -1943.8552 
 5462000     280.6952   -3780.0901   -3298.9881   -3780.0901            0    9190.9805    16.940239    19.953364    20.667052    6985.7684     10458.25    7732.1894    9382.5023   -138.65255   -1441.1984   -1397.9334   -2362.6085 
 5463000    286.68266   -3755.9269   -3264.5626   -3755.9269            0    13113.325    16.843115    19.838965    20.548561    6866.3013    14033.394    13764.145    11542.437   -106.46532   -356.06753   -401.82349   -1951.4209 
 5464000    281.64837      -3801.7   -3318.9643      -3801.7            0    10575.816    16.840463    19.835841    20.545325    6863.0576    8928.6792    10996.257    11802.511   -389.86764   -448.99971    340.04438    -2260.424 
 5465000    268.74238   -3845.3401   -3384.7249   -3845.3401            0    10345.952    16.880319    19.882786    20.593949    6911.9011     11042.77    10067.369    9927.7167     269.8727    1038.6699     1357.755    -2341.822 
 5466000    275.19287   -3764.2833   -3292.6121   -3764.2833            0    10259.947    16.903015    19.909519    20.621639    6939.8187    10038.773    11351.945    9389.1224    986.25951   -1754.6428   -1859.9787   -2254.2015 
 5467000    287.30443   -3830.4846   -3338.0546   -3830.4846            0    10578.283    16.952058    19.967285    20.681471    7000.4004    8496.9857    10485.081    12752.782   -1990.2828   -133.72859   -490.27849    -2258.079 
 5468000    281.42709   -3773.8319   -3291.4755   -3773.8319            0    10548.555    16.860371     19.85929    20.569613    6887.4266    10261.918    9073.2781     12310.47   -685.96175     1562.658    1357.9392   -2231.9147 
 5469000    287.67914   -3786.0865   -3293.0143   -3786.0865            0    9760.8466    16.853049    19.850666    20.560681    6878.4576    11287.064    8476.0932    9519.3824   -527.36283   -633.92413   -1019.6093   -2313.8526 
 5470000    277.39842   -3845.2568   -3369.8054   -3845.2568            0    11698.392    16.855071    19.853048    20.563148    6880.9339     9761.919    12742.414    12590.844    282.16238   -12.555642    1894.6813   -2195.8558 
 5471000    287.02806   -3852.4724   -3360.5161   -3852.4724            0      12758.6    16.905601    19.912565    20.624794    6943.0046    11741.803    11593.971    14940.025    348.35092    461.54453     1208.216   -2068.6237 
 5472000    283.36026   -3836.6975   -3351.0277   -3836.6975            0    11635.915    16.795216    19.782546    20.490124    6807.8877    11074.213    11991.657    11841.874    -748.4441    631.76443   -498.88764   -2195.7436 
 5473000    282.22884   -3834.4471   -3350.7165   -3834.4471            0    11732.746    16.815615    19.806574    20.515011    6832.7241    11069.061    12954.969    11174.207    245.92873    414.57354    369.74979   -2181.5687 
 5474000    271.20689   -3812.6293     -3347.79   -3812.6293            0    11564.803    16.810616    19.800685    20.508912    6826.6312    12557.566    9075.5627    13061.279   -1805.8664    2542.6993    -673.7759    -2196.405 
 5475000    276.52388   -3838.1583   -3364.2058   -3838.1583            0    13981.274    16.807517    19.797035    20.505132    6822.8571    13086.765    13118.393    15738.663    552.16658   -372.04445   -263.99313   -1973.0079 
 5476000     283.3325   -3809.1308   -3323.5086   -3809.1308            0    10012.664    16.865635     19.86549    20.576035    6893.8789    10341.558    10429.136    9267.2994    125.51976    859.89044    -795.1894   -2316.8338 
 5477000    287.66961   -3752.3728   -3259.3169   -3752.3728            0    11471.724    16.822727     19.81495    20.523688    6841.3967    10916.442    12838.241    10660.488    410.58191    816.65247   -293.26947   -2114.7285 
 5478000    291.22423   -3795.2273   -3296.0789   -3795.2273            0    8484.6139    16.893237    19.898002    20.609709    6927.7818    6056.1851    10507.565    8890.0917    2084.3559    232.83594    628.81609   -2438.8394 
 5479000    292.87682   -3803.5449    -3301.564   -3803.5449            0    10226.567      16.8537    19.851432    20.561475    6879.2544    9940.0566      11619.5     9120.144    689.05391   -158.95566   -1628.3856   -2275.5646 
 5480000    296.22432   -3773.5095   -3265.7912   -3773.5095            0    12634.579    16.828772    19.822071    20.531063    6848.7747    13978.135    11445.987    12479.613   -277.92661    -251.8912    730.71963   -2003.8198 
 5481000     288.4575   -3779.9304   -3285.5241   -3779.9304            0    11141.333    16.841339    19.836873    20.546394     6864.129    11678.142    11176.612    10569.244    1349.0586   -69.838454   -274.43554   -2170.2067 
 5482000    279.37599   -3792.9993   -3314.1584   -3792.9993            0     9774.494    16.866523    19.866537    20.577119    6894.9689    10508.001    10777.891    8037.5895    454.13628    696.49889    438.03468   -2331.2739 
 5483000    280.65204   -3798.3132   -3317.2852   -3798.3132            0    10820.262    16.902069    19.908405    20.620485    6938.6538    11114.275    9223.8081    12122.704    383.28092    346.28286    721.12354   -2222.3488 
 5484000    285.57295   -3749.5806   -3260.1184   -3749.5806            0    12167.692    16.839052    19.834179    20.543605    6861.3336    10126.045    10010.381    16366.649   -1569.7559   -1870.3896    1744.5111   -2042.5521 
 5485000    271.61147    -3797.625   -3332.0922    -3797.625            0    9879.0686    16.836164    19.830778    20.540081    6857.8039    10219.009    10635.438    8782.7598   -2019.4698    242.90312   -423.10406   -2344.0467 
 5486000    277.32499   -3788.1598   -3312.8343   -3788.1598            0    11993.429    16.792267    19.779072    20.486526    6804.3016    10744.514    13385.818    11849.955    2242.8965    182.77127   -319.80315   -2122.6812 
 5487000    275.14955   -3783.3196   -3311.7227   -3783.3196            0    12633.826    16.815773     19.80676    20.515204    6832.9166    12101.281    14510.572    11289.625    360.72189   -755.44364    503.50625   -2052.7483 
 5488000    280.41269   -3795.0184   -3314.4006   -3795.0184            0    10018.442    16.912258    19.920406    20.632915    6951.2094     10127.38    10486.241     9441.706    1745.0517    1582.2137   -987.61809   -2298.7685 
 5489000    280.10258   -3802.5454   -3322.4592   -3802.5454            0    11225.925    16.826043    19.818856    20.527733    6845.4426    11238.495    11183.524    11255.758    59.151089   -1726.1268    245.29738   -2201.7328 
 5490000    278.49511   -3796.8207   -3319.4896   -3796.8207            0    10821.668    16.838186    19.833159    20.542548    6860.2745    10511.851    12540.483    9412.6698    855.28852   -152.58855   -731.31451    -2236.781 
 5491000    272.08002   -3824.2879    -3357.952   -3824.2879            0    9576.3615    16.872904    19.874052    20.584903    6902.7966    9538.0622    10653.935    8537.0878    1541.6235   -602.28534    118.88351   -2393.8977 
 5492000    286.73851   -3803.0559   -3311.5959   -3803.0559            0    11962.091    16.815787    19.806776    20.515221    6832.9333    11305.661      11818.3    12762.313     -69.0078   -1291.4306   -497.92068   -2119.5577 
 5493000    294.26142   -3772.4063   -3268.0523   -3772.4063            0    12050.767    16.802607    19.791251    20.499141    6816.8789    10355.041    12912.864    12884.395    1398.7714    511.46999    478.37305    -2069.999 
 5494000    284.05824   -3764.5365   -3277.6704   -3764.5365            0    11497.851    16.858814    19.857457    20.567714     6885.519     11672.31    9845.3817    12975.861   -296.23823    695.06084    339.55911   -2123.0765 
 5495000    286.47302   -3715.8972   -3224.8922   -3715.8972            0     14071.28    16.753734    19.733686    20.439517    6757.5686    13452.394    13760.642    15000.803    -1098.674   -726.53088    963.54858   -1838.1366 
 5496000    280.11475   -3771.1775   -3291.0704   -3771.1775            0    10615.061     16.83804    19.832987    20.542369    6860.0959    10844.028     10277.08    10724.076   -452.72631    155.25327    746.87532   -2229.0604 
 5497000        279.6   -3804.9024   -3325.6776   -3804.9024            0    10922.655    16.907431     19.91472    20.627026    6945.2591    10212.646    11220.463    11334.855   -847.19758    251.15981      557.806   -2219.3276 
 5498000    283.24145   -3740.5053   -3255.0391   -3740.5053            0    11366.763    16.844663    19.840788    20.550449    6868.1938    10315.325    12224.963        11560     2852.869    132.39495   -1443.2643   -2116.4809 
 5499000    275.31238   -3824.5096   -3352.6336   -3824.5096            0    8754.8459    16.885628    19.889039    20.600426    6918.4246    10890.408     9268.981    6105.1482   -12.256489   -1439.3885   -980.11222   -2469.2861 
 5500000      294.631   -3773.1102   -3268.1227   -3773.1102            0    13355.149    16.822602    19.814803    20.523535    6841.2442    12060.706    13033.729    14971.012    2554.2398    384.04557    420.10946   -1935.6457 
Loop time of 316.75 on 64 procs for 250000 steps with 864 atoms

Performance: 136.385 ns/day, 0.176 hours/ns, 789.266 timesteps/s
194.7% CPU use with 32 MPI tasks x 2 OpenMP threads

MPI task timing breakdown:
Section |  min time  |  avg time  |  max time  |%varavg| %total
---------------------------------------------------------------
Pair    | 26.965     | 33.51      | 38.502     |  56.7 | 10.58
Bond    | 0.78655    | 1.075      | 1.681      |  15.7 |  0.34
Kspace  | 130.96     | 141.7      | 150.64     |  34.9 | 44.73
Neigh   | 3.4566     | 4.2807     | 4.764      |  18.2 |  1.35
Comm    | 61.749     | 67.735     | 76.107     |  40.6 | 21.38
Output  | 0.49695    | 0.49727    | 0.49859    |   0.0 |  0.16
Modify  | 59.5       | 62.443     | 64.85      |  19.1 | 19.71
Other   |            | 5.513      |            |       |  1.74

Nlocal:        27.0000 ave          35 max          22 min
Histogram: 4 3 5 8 0 5 5 1 0 1
Nghost:        2665.50 ave        2703 max        2622 min
Histogram: 3 1 3 4 1 5 4 5 4 2
Neighs:        9009.50 ave       12385 max        6705 min
Histogram: 3 2 4 9 5 3 3 1 1 1

Total # of neighbors = 288304
Ave neighs/atom = 333.68519
Ave special neighs/atom = 2.0000000
Neighbor list builds = 16036
Dangerous builds = 0

unfix		3
unfix		2
unfix		1

write_data	data.final.${pid}
write_data	data.final.1
System init for write_data ...
PPPM initialization ...
  extracting TIP4P info from pair style
  using 12-bit tables for long-range coulomb (../kspace.cpp:340)
  G vector (1/distance) = 0.37500395
  grid = 24 24 24
  stencil order = 5
  estimated absolute RMS force accuracy = 0.0030773298
  estimated relative force accuracy = 9.2672873e-06
  using double precision FFTW3
  3d grid and FFT values/proc = 3549 432
Last active /omp style is kspace_style pppm/tip4p/omp
WARNING: Not all mixed pair coeffs generated from mixing. Use write_data with 'pair ij' option to store all pair coeffs. (../write_data.cpp:312)

write_restart   restart.lmp.${pid}
write_restart   restart.lmp.1
System init for write_restart ...
PPPM initialization ...
  extracting TIP4P info from pair style
  using 12-bit tables for long-range coulomb (../kspace.cpp:340)
  G vector (1/distance) = 0.37500395
  grid = 24 24 24
  stencil order = 5
  estimated absolute RMS force accuracy = 0.0030773298
  estimated relative force accuracy = 9.2672873e-06
  using double precision FFTW3
  3d grid and FFT values/proc = 3549 432
Last active /omp style is kspace_style pppm/tip4p/omp
Total wall time: 0:05:16
