#include		in.partitions
include		in.temp
variable        temperature equal 248.27
variable	tempDamp equal 100.0
include		in.pressure
variable        pressure equal 8366.5
variable        pressureDamp equal 1000.0 # This is 1 ps
include		in.seed
variable        seed equal 745823

units		real
atom_style	full
read_restart	restart.lmp.${pid}
read_restart	restart.lmp.0
Reading restart file ...
  restart file = 30 Jul 2021, LAMMPS = 30 Jul 2021
  restoring atom style full from restart
  orthogonal box = (-0.051862508 -0.14325483 -0.083892962) to (24.781864 24.873256 22.893893)
  4 by 4 by 2 MPI processor grid
  restoring pair style lj/cut/tip4p/long/omp from restart
  restoring bond style harmonic/omp from restart
  restoring angle style harmonic/omp from restart
  1920 atoms
  1280 bonds
  640 angles
Finding 1-2 1-3 1-4 neighbors ...
  special bond factors lj:    0        0        0       
  special bond factors coul:  0        0        0       
     2 = max # of 1-2 neighbors
     1 = max # of 1-3 neighbors
     1 = max # of 1-4 neighbors
     2 = max # of special neighbors
  special bonds CPU = 0.002 seconds
  read_restart CPU = 0.009 seconds
include 	in.setup
variable	out_freq equal 1000
variable	out_freq2 equal 10000
variable	out_freq3 equal 1000

timestep	2.0

neigh_modify    delay 7 every 1

include		in.tip4p
# This is TIP4P/Ice

# create groups ###
group ox type 2
640 atoms in group ox
group hy type 1
1280 atoms in group hy

# set charges - beside manually ###
set group ox charge -1.1794
Setting atom values ...
  640 settings made for charge
set group hy charge 0.5897
Setting atom values ...
  1280 settings made for charge

# ### TIP3P Potential Parameters ###
pair_style lj/cut/tip4p/long/omp 2 1 1 1 0.1577 8.5
pair_coeff 1 1*2 0.000 0.000
pair_coeff 2 2 0.21084 3.1668
bond_style  harmonic
bond_coeff  1 450 0.9572
angle_style harmonic
angle_coeff 1 55 104.52
kspace_style pppm/tip4p/omp 1.0e-5
pair_modify tail yes

thermo          ${out_freq}
thermo          1000
thermo_style    custom step temp pe etotal epair emol press lx ly lz vol pxx pyy pzz pxy pxz pyz enthalpy

restart 	${out_freq3} restart.lmp.${pid} restart2.lmp.${pid}
restart 	1000 restart.lmp.${pid} restart2.lmp.${pid}
restart 	1000 restart.lmp.0 restart2.lmp.${pid}
restart 	1000 restart.lmp.0 restart2.lmp.0


include         in.dump
dump            myDump all atom ${out_freq2} dump.water.${pid}
dump            myDump all atom 10000 dump.water.${pid}
dump            myDump all atom 10000 dump.water.0
dump            myDump2 all dcd ${out_freq2} dump.dcd
dump            myDump2 all dcd 10000 dump.dcd
dump_modify     myDump append yes
dump_modify     myDump2 append yes


variable natoms 	equal  "count(all)"                        # NUMBER ATOMS
variable H      	equal  "enthalpy/v_natoms"                 # ENTHALPY-per-atom
variable Vol      	equal  "vol/v_natoms"                 # volume-per-atom
fix AVG all 		ave/time ${out_freq} 1 ${out_freq} v_Vol v_H file vol_enthalpy.dat
fix AVG all 		ave/time 1000 1 ${out_freq} v_Vol v_H file vol_enthalpy.dat
fix AVG all 		ave/time 1000 1 1000 v_Vol v_H file vol_enthalpy.dat




fix 		1 all shake 1e-6 200 0 b 1 a 1
       0 = # of size 2 clusters
       0 = # of size 3 clusters
       0 = # of size 4 clusters
     640 = # of frozen angles
  find clusters CPU = 0.001 seconds
fix             2 all nph aniso ${pressure} ${pressure} ${pressureDamp}
fix             2 all nph aniso 8366.5 ${pressure} ${pressureDamp}
fix             2 all nph aniso 8366.5 8366.5 ${pressureDamp}
fix             2 all nph aniso 8366.5 8366.5 1000
fix             3 all temp/csvr ${temperature} ${temperature} ${tempDamp} ${seed}
fix             3 all temp/csvr 248.27 ${temperature} ${tempDamp} ${seed}
fix             3 all temp/csvr 248.27 248.27 ${tempDamp} ${seed}
fix             3 all temp/csvr 248.27 248.27 100 ${seed}
fix             3 all temp/csvr 248.27 248.27 100 745823


run             250000
PPPM initialization ...
  extracting TIP4P info from pair style
  using 12-bit tables for long-range coulomb (../kspace.cpp:340)
  G vector (1/distance) = 0.37447844
  grid = 30 30 30
  stencil order = 5
  estimated absolute RMS force accuracy = 0.0032685317
  estimated relative force accuracy = 9.8430861e-06
  using double precision FFTW3
  3d grid and FFT values/proc = 5400 960
Last active /omp style is kspace_style pppm/tip4p/omp
Neighbor list info ...
  update every 1 steps, delay 7 steps, check yes
  max neighbors/atom: 2000, page size: 100000
  master list distance cutoff = 10.8154
  ghost atom cutoff = 10.8154
  binsize = 5.4077, bins = 5 5 5
  1 neighbor lists, perpetual/occasional/extra = 1 0 0
  (1) pair lj/cut/tip4p/long/omp, perpetual
      attributes: half, newton on, omp
      pair build: half/bin/newton/omp
      stencil: half/bin/3d
      bin: standard
Per MPI rank memory allocation (min/avg/max) = 10.54 | 10.55 | 10.55 Mbytes
Step Temp PotEng TotEng E_pair E_mol Press Lx Ly Lz Volume Pxx Pyy Pzz Pxy Pxz Pyz Enthalpy 
 3250000    253.53514   -9147.8541   -8181.2625   -9147.8541            0    8930.5074    24.833726    25.016511    22.977786    14275.022    9769.6963    8180.2633    8841.5626    17.444562   -20.000627    413.14797   -6322.0509 
 3251000    242.93324   -9150.6375   -8224.4652   -9150.6375            0    7822.0491    24.834553    25.119265    23.020603    14360.844    8421.8972    6827.3899      8216.86    444.32049    795.53666   -68.215722   -6586.2295 
 3252000    247.08585   -9151.7976   -8209.7937   -9151.7976            0    7715.2963    24.949046    25.038076    22.941663    14331.109    8175.1285    6328.9239    8641.8365   -308.78755   -669.63755    766.27279   -6597.2619 
 3253000    245.03695   -9138.3374   -8204.1448   -9138.3374            0    8821.8379    24.874296    24.981463    23.012878    14300.117    8469.0229     9970.954    8025.5368   -398.77943    812.26949   -160.27779    -6364.328 
 3254000    238.53417   -9162.1448   -8252.7437   -9162.1448            0    7811.3466    24.950969    24.982951    22.989851    14330.697    7318.9134    6900.8966    9214.2299   -181.54735    253.97624   -519.97122   -6620.1839 
 3255000    248.36348   -9150.7689   -8203.8941   -9150.7689            0    6534.6334     25.02562    24.996174    23.048662     14417.97    6639.5887    6573.7448    6390.5666   -861.55562   -563.79832   -1707.8439   -6829.8482 
 3256000    253.24604   -9132.8367   -8167.3473   -9132.8367            0    8616.9844     25.03534    24.913878    23.001446    14346.633    8154.8037    8982.4071    8713.7423    1412.9237   -164.86314    262.43762   -6364.4077 
 3257000    248.36432   -9178.1698   -8231.2917   -9178.1698            0    9089.1753    24.989577    24.940571    22.903962    14274.994    8458.9065    8196.0416    10612.578    208.12726    269.85402    603.84983   -6339.0514 
 3258000    245.11168   -9172.8982   -8238.4207   -9172.8982            0    7442.4806    25.038794    24.968103    22.974273    14362.854    8352.0418    7385.3158    6590.0843    -428.3956    214.26419  -0.72400344   -6679.4629 
 3259000    249.42703   -9116.7705   -8165.8409   -9116.7705            0    8058.5644    24.887907    24.944811    23.140754    14366.338    8801.1238    7574.4757    7800.0937   -200.03602   -772.16788    712.53889   -6477.4242 
 3260000    245.59877   -9134.9812   -8198.6467   -9134.9812            0    8211.4006     24.93486     24.98968    22.996965    14329.734    9405.2754    7267.3597    7961.5666    402.01266   -1791.5557    1023.9006   -6482.5914 
 3261000    246.00713   -9161.3554    -8223.464   -9161.3554            0    7403.5274    25.036909    24.980526    22.955368    14357.094    5969.6684    7688.0179     8552.896   -286.77424   -985.81892   -81.498175   -6673.2876 
 3262000    253.60035   -9136.9252    -8170.085   -9136.9252            0    7321.1287    24.986193    25.045258    22.965052      14371.2     7007.643    7550.7619     7404.981    259.29957   -104.34699   -483.79111   -6635.6554 
 3263000    243.97535   -9118.3768   -8188.2315   -9118.3768            0    7923.6357    24.959637    24.966978    23.036093    14355.326    8073.3845    7449.6257     8247.897    321.59033    831.16333    505.82957   -6529.3573 
 3264000    239.31065    -9164.353   -8251.9917    -9164.353            0    8573.9666    24.849262    25.038193    22.954208    14281.663    9076.6094    8230.7601    8414.5303   -274.45038   -976.78715     322.4592   -6466.1767 
 3265000    249.49412   -9150.9942   -8199.8088   -9150.9942            0    8360.6666    24.885121    25.085563    22.913912    14304.176    8645.2394      7507.96    8928.8003    181.89319    150.88653     1038.755   -6455.6757 
 3266000    252.33063   -9157.6937   -8195.6943   -9157.6937            0    9358.4784    24.844368    24.974078    22.984767    14261.248    9693.8925    8796.4434    9585.0991    -596.9026    75.051518    22.303371   -6249.2649 
 3267000    247.13928   -9142.2888   -8200.0811   -9142.2888            0     8469.815    24.889102    25.018688    22.938262    14283.487    9579.4066    7038.4028    8791.6356    -503.2926    390.04135    393.55276   -6435.7338 
 3268000    249.84602   -9197.1422   -8244.6152   -9197.1422            0    7878.5255    24.855372    24.948688    23.070369    14306.141    7537.8756    8555.1224    7542.5784   -752.23668    558.46621    528.03294   -6600.8365 
 3269000    240.63769   -9134.6374   -8217.2168   -9134.6374            0    9237.6388    24.928753    24.967254    22.933382    14273.795    9534.1818    9541.0731    8637.6614    86.452152   -966.99764    1264.1402   -6294.2299 
 3270000    245.22964   -9178.6422    -8243.715   -9178.6422            0    7165.0624    25.079808    25.059337    22.818362    14340.961     6815.246    6595.4639    8084.4772    247.35484   -609.29425    1177.2445   -6745.1551 
 3271000    249.68531   -9181.8622   -8229.9479   -9181.8622            0    7813.6848    24.995481    24.856789     23.09597    14349.697    7638.2607    8749.9788     7052.815   -667.42632    699.26422   -131.09051   -6594.7342 
 3272000    250.13505   -9133.7105   -8180.0816   -9133.7105            0    8907.2688     24.95546    24.904836    23.033338    14315.487    8229.9664    9802.4108    8689.4292  -0.97651266   -768.20572    376.92386   -6320.4514 
 3273000    244.09097   -9180.1078   -8249.5218   -9180.1078            0    9554.5839    24.870385    24.901299    22.958086    14218.055    9894.2367    9117.1632     9652.352   -17.484704    356.30217    121.90958   -6268.3239 
 3274000    256.41259   -9132.7417     -8155.18   -9132.7417            0    7446.0426     24.95516    24.984915    23.092733    14398.378    7553.6141    6964.8046     7819.709    726.13368     166.0869    119.09701   -6591.6185 
 3275000    251.20613   -9159.3429   -8201.6306   -9159.3429            0     6632.534    25.050835    24.975099    23.032232    14410.049    5493.9631    7195.2793    7208.3597   -156.75414    66.221385    554.89974   -6807.7653 
 3276000    257.65715   -9158.9463   -8176.6397   -9158.9463            0    8107.8217    24.986352    24.959438    22.987668    14336.151    8321.9717    7767.7736    8233.7198   -499.95675   -337.94528    281.99813   -6481.4721 
 3277000    255.43634   -9165.0769   -8191.2371   -9165.0769            0    8145.9744    24.948578    24.947609    23.036247     14337.93    8272.6439    7999.7598    8165.5194    118.91031   -707.29556    158.47269   -6487.8812 
 3278000    237.03272   -9133.4033   -8229.7264   -9133.4033            0    8755.5877    24.942826    24.999815    22.968842     14322.59    9413.9188    7844.5167    9008.3276   -906.74441    355.16832    142.67018   -6400.8568 
 3279000    247.44881   -9176.4129   -8233.0252   -9176.4129            0    7600.1984    24.867031    24.962767    23.101503    14340.256    7719.0721    8104.9452     6976.578    20.234379   -227.69326    884.96052   -6643.5355 
 3280000    254.57416   -9147.9783   -8177.4255   -9147.9783            0     8496.869    24.871816    25.005329    22.979787    14291.772    8882.2903     8575.699    8032.6178    128.63955   -693.06391     1020.961    -6406.416 
 3281000    253.67618   -9124.2738   -8157.1445   -9124.2738            0    9047.8118    25.018761    24.988818    22.900059    14316.871    8372.2325    8282.6843    10488.519   -949.15434    327.61859   -115.99515   -6267.9897 
 3282000    250.83935   -9137.0846   -8180.7706   -9137.0846            0    8140.8536    25.077792    25.008574    22.844277    14327.012     7213.179    8631.5506    8577.8314   -344.75581   -1164.3265   -40.711274   -6479.7818 
 3283000    253.80073   -9161.0834   -8193.4793   -9161.0834            0    7816.0655    24.986928    24.949708    22.991426    14333.235     6879.517    8538.8702    8029.8095    120.84353   -1310.1936    281.56944   -6559.6438 
 3284000    243.51768   -9183.1723   -8254.7719   -9183.1723            0    6807.9908    24.897342    24.952248    23.193425    14408.791    7287.5501    7036.8808    6099.5416    315.39828    681.74619   -442.68064   -6824.1581 
 3285000    239.78464   -9189.5822   -8275.4138   -9189.5822            0    7591.7703    24.896226    25.007261    23.021376    14332.795     8456.229    6210.8596    8108.2223    138.62226    622.18966   -192.86334   -6688.5127 
 3286000    244.40357   -9157.2298   -8225.4519   -9157.2298            0    7635.1666    24.888772    25.082131    22.972515    14340.901    8089.2432    6535.4204    8280.8363   -1186.4957   -337.75354   -110.29546   -6628.5772 
 3287000    245.92193   -9158.0955    -8220.529   -9158.0955            0    7453.8698    25.049174    24.985546    22.975988    14379.919    6073.5834    7326.3986    8961.6274   -132.49763   -268.47162   -386.54094   -6657.3304 
 3288000    255.32862   -9167.0654   -8193.6362   -9167.0654            0    6795.5864     25.04554    24.852355       23.104    14380.869    6909.2772     6852.038    6625.4441    -50.44244    175.00918     845.3076   -6768.3964 
 3289000    249.04623   -9184.4182   -8234.9404   -9184.4182            0    7859.5463    25.052455     24.87966    22.980549    14323.697    5973.0332    9289.3602    8316.2456    97.550098    515.40244    278.52617   -6593.1092 
 3290000    247.97844   -9170.1828    -8224.776   -9170.1828            0    10082.328    24.977158    24.876991    22.918155    14240.345    8967.1386    10260.967    11018.878   -297.09302   -616.44967    641.05416   -6130.8698 
 3291000    241.25708   -9178.9468   -8259.1648   -9178.9468            0    9575.9185    24.820148    24.799497    23.127368    14235.523    9841.3997    10420.206    8466.1492    -229.0526    228.43263     518.0735   -6271.1035 
 3292000    248.49313   -9172.0502    -8224.681   -9172.0502            0    8388.2767    24.993217    24.940619    22.911859    14282.023    7963.5932    8744.8626    8456.3744    454.71403   -174.36218    508.86739   -6477.4981 
 3293000    247.83593    -9147.786   -8202.9224    -9147.786            0    7394.6755    25.078423    24.911644    23.035696     14391.43    6741.0264    8447.9555    6995.0444    631.23763   -596.69718    1346.2757   -6650.8965 
 3294000    248.47479   -9167.2003    -8219.901   -9167.2003            0    8106.5802    24.931145    24.853451    23.086564    14305.011    7373.7621    8794.9864    8150.9921   -574.09197    393.25509    -774.5718   -6528.6745 
 3295000    242.97651   -9198.4688   -8272.1315   -9198.4688            0    7771.0257    25.042632    24.865607    22.947626    14289.492    7183.3984    8699.1983    7430.4805    556.41654     1006.127   -273.97013   -6652.6685 
 3296000      258.599   -9147.0876   -8161.1903   -9147.0876            0    8304.9019    24.995778     24.97789    22.906028    14301.191    8556.4169    8183.2238    8175.0651   -47.414331    727.29451    758.04736   -6429.0519 
 3297000    255.94412   -9207.8406   -8232.0649   -9207.8406            0    8603.7545    24.895746    24.887985    22.977822    14237.172    8213.8863    9081.2915    8516.0858    -415.1237   -30.888573    637.26959   -6445.6282 
 3298000    244.07687   -9163.2456   -8232.7132   -9163.2456            0    7466.9234    24.964619    24.881721    23.117948    14360.007     7825.081    8445.5519    6130.1372   -416.76017   -490.40838    130.84432   -6668.9456 
 3299000    246.93514   -9131.4912   -8190.0619   -9131.4912            0    8453.2575    24.959585    24.972026    23.025004    14351.287    7720.2103    8519.6843    9119.8779    606.67731    713.28521    66.490235   -6420.8053 
 3300000    256.27814   -9145.9627   -8168.9135   -9145.9627            0    9556.7712    25.051387    24.960463    22.808512    14262.031    8488.8417    9542.9345    10638.537   -366.77255    906.05988   -135.35258    -6181.133 
 3301000    248.00666   -9149.4937   -8203.9792   -9149.4937            0    7917.3348    24.927151    24.927033    23.036906     14314.21    8211.3628    7845.1496     7695.492   -301.89976   -183.07202    54.367125   -6551.1717 
 3302000    248.24343    -9159.091   -8212.6738    -9159.091            0    8293.3139    24.936264     24.87823    23.046035    14297.071    7826.6167    9277.8652    7775.4597    -186.0312   -120.33927   -103.51183   -6483.4505 
 3303000    242.53567   -9147.4456    -8222.789   -9147.4456            0     8174.391    25.020473    24.954974    22.970721    14342.579    7792.7479    8290.9719    8439.4531   -321.58082   -224.14536    379.60391   -6512.9369 
 3304000     250.8447    -9146.672   -8190.3376    -9146.672            0    7437.0822    24.979915     25.08923    22.931506     14371.79     8554.907    5377.5546    8378.7849    415.97027   -740.89443    -1030.397   -6631.5414 
 3305000    254.70616    -9161.532    -8190.476    -9161.532            0    8213.9326    24.937503    24.896072    23.061091    14317.383     8096.364    8645.0218    7900.4122    941.55293   -795.98681   -702.53724   -6475.3711 
 3306000    247.45254   -9123.5135   -8180.1115   -9123.5135            0    8542.5508    24.916947    24.963462    23.038953    14330.534    8263.2073    7864.4508    9499.9942    437.86966     383.7034   -267.77836   -6394.7514 
 3307000    259.23065   -9204.5443   -8216.2388   -9204.5443            0     7337.094    24.971714    25.078482    22.883649    14330.947    7533.7194    6741.7675     7735.795   -458.14533   -270.89114    216.84246   -6682.7703 
 3308000    250.31918   -9181.0133   -8226.6824   -9181.0133            0    7949.1368    24.935431    25.053828    22.927075    14323.186    8020.6217    7502.1799    8324.6088    312.20526   -523.64331    316.14847   -6566.1953 
 3309000    248.32623   -9157.5945   -8210.8617   -9157.5945            0    9039.3893    24.805604    24.884364    23.135623    14280.965    9053.7413    9029.6629    9034.7639    -406.1333   -723.93285   -125.28742    -6328.199 
 3310000    249.10971   -9212.6259    -8262.906   -9212.6259            0    8057.7298    24.860732    25.002165    22.972203    14278.881    9429.7886    7161.1176    7582.2832    17.878609    140.25964   -136.23956   -6584.9416 
 3311000    253.19795   -9189.9939   -8224.6879   -9189.9939            0    9701.5573    24.737519    24.996349    23.030687    14240.971    11224.696    9319.0038     8560.972    1054.1663    532.26346    765.71833   -6209.7718 
 3312000    245.08203   -9147.2093   -8212.8449   -9147.2093            0    8547.8356    24.832285    25.048776    22.952245    14276.717     8421.344    8065.3423    9156.8207   -189.29127   -1039.1679    350.10984   -6433.0892 
 3313000     252.3527   -9122.5588   -8160.4752   -9122.5588            0    9569.6789    24.821653    25.068314    22.902665    14250.885    10541.775    9252.8809    8914.3808   -551.57452    886.95879    292.48184   -6171.5655 
 3314000      252.242   -9161.9426    -8200.281   -9161.9426            0    9932.8084    24.848173    24.990458    22.920224    14232.709    9412.8532    9803.8866    10581.685    636.54533   -1131.1534    228.76017   -6138.5334 
 3315000    240.98583   -9186.2497   -8267.5018   -9186.2497            0    9013.0878     24.78287    25.033596    22.998762    14268.532    11456.957    6912.4065    8669.9003    332.90853    251.46795   -175.65812   -6391.9512 
 3316000    257.84642   -9134.2967   -8151.2686   -9134.2967            0    8662.6692    24.924563    25.006914    22.974486    14319.685    7049.1153    9368.2195    9570.6727    358.73763   -6.3745041    770.66271   -6342.1748 
 3317000    248.18517   -9205.9319   -8259.7369   -9205.9319            0    8695.4252      24.8966    25.087478    22.847407    14270.329    8776.6612    7586.0475    9723.5668   -216.32131    295.27808    662.95013   -6450.0615 
 3318000    241.63577   -9169.6088   -8248.3831   -9169.6088            0     8832.175    24.915503    24.976691    22.948567     14281.05    9690.6403    7390.4503    9415.4345   -237.73907   -1351.5783   -258.60589   -6408.8666 
 3319000    247.03113   -9188.8203   -8247.0249   -9188.8203            0    8310.6819    24.948644    24.865788    23.056647    14303.599     8018.987    9571.6947     7341.364   -788.06255   -159.50194    163.30425   -6513.3891 
 3320000    245.02458   -9176.9404    -8242.795   -9176.9404            0    8915.3208    24.962238    24.845885    23.030942    14283.995     8328.012    10043.729    8374.2217   -1079.1736   -342.86588    104.75229   -6385.5784 
 3321000    250.80099    -9168.438   -8212.2702    -9168.438            0    8594.5979    24.981723    24.981977    22.907425     14296.36    7642.4202    7925.5899    10215.783   -513.51293     574.5202   -302.94389    -6420.316 
 3322000    250.77073   -9113.7841   -8157.7317   -9113.7841            0    9974.7751    24.756954    24.945799    23.051049    14235.913    11229.839     9475.383    9219.1035    79.295552    247.36413   -407.52227   -6086.8069 
 3323000    239.85735   -9201.8057   -8287.3601   -9201.8057            0    9385.5531    24.866049    24.926287     22.98413    14245.984     9153.193    10035.321    8968.1454   -270.82574   -1497.5851   -456.51522   -6337.3889 
 3324000    257.17172   -9174.5308   -8194.0749   -9174.5308            0    8711.4488    25.033675    25.055576    22.791095     14295.33    7482.8961    8331.3928    10320.057     421.3623   -102.24459    856.01127   -6377.8883 
 3325000     256.4095   -9161.9585   -8184.4086   -9161.9585            0    8840.8421    24.891006    24.944304    23.059462    14317.362    10012.476    7546.5242    8963.5258    324.59148   -572.85529    198.79683   -6338.4051 
 3326000    254.15483   -9183.2332   -8214.2791   -9183.2332            0     8927.735    24.906872    24.996085    22.907977    14261.917    9701.1356    8125.1401    8956.9293   -487.27991   -746.43098   -939.43943    -6357.351 
 3327000    248.95662   -9201.7741   -8252.6379   -9201.7741            0    8332.5942    24.780873    24.964173    23.108424    14295.657    10456.112    7240.3561    7301.3147    276.24828    787.05545    36.202159   -6515.3963 
 3328000    252.57143   -9139.3338   -8176.4164   -9139.3338            0    7547.0338    24.899764    24.964562    23.044411    14324.676    7321.0625    7350.3023    7969.7365   -778.38643   -524.43018   -285.88377   -6599.7602 
 3329000      247.798   -9169.0727   -8224.3537   -9169.0727            0     8326.047    24.896032    25.137811    22.794042    14265.235    7343.2156    8407.0201    9227.9052   -117.85863   -12.216759  -0.88991196   -6492.1711 
 3330000     243.3704   -9148.2894   -8220.4504   -9148.2894            0    8083.6399    25.011471    25.068548    22.899819    14358.215    7531.7747    6960.1329     9759.012   -711.42499   -1127.8923    642.15504   -6527.7375 
 3331000    257.67756   -9160.8384   -8178.4541   -9160.8384            0    9202.6399     24.77018    24.965708    23.057861    14259.098    10650.274    8538.0073    8419.6387   -984.71251    743.86672   -835.53943   -6264.7253 
 3332000    249.28386    -9171.369   -8220.9852    -9171.369            0    8464.5109    24.787514    25.067205    23.002589    14292.744    10315.518    6628.4011    8449.6135    122.15054   -202.50902    797.21738   -6456.6002 
 3333000    241.27699   -9177.4924   -8257.6345   -9177.4924            0    9053.7846    24.799015     25.05306    22.939774     14252.28    10311.568    7302.6956    9547.0904    770.21554   -65.466165     140.1308    -6375.761 
 3334000    260.88208    -9165.336   -8170.7345    -9165.336            0    8601.3301    24.883535    25.036274    22.974954     14313.19    8297.6818    8965.6162    8540.6922    -627.1524   -114.35727     466.6197   -6375.2654 
 3335000    242.84803   -9155.5859   -8229.7385   -9155.5859            0    7770.8127    24.794327    24.983695     23.16753    14351.217    8792.6839    7660.3363    6859.4178    686.86542   -522.78106   -966.53491   -6603.3246 
 3336000    248.09987   -9150.4728    -8204.603   -9150.4728            0    8131.3617    24.891041    25.004638    23.040906    14340.463    7564.8607    7592.2298    9236.9945    255.33275    1461.6199    1467.2145   -6504.0023 
 3337000    256.60544    -9193.096    -8214.799    -9193.096            0    9466.9096    24.781758    25.078636    22.926469    14248.633    10416.639    8620.3173     9363.772    1110.4241   -272.00269    262.18209   -6247.5591 
 3338000    259.69084   -9164.6781   -8174.6181   -9164.6781            0    8433.2147    24.891204    24.960991    23.007353    14294.678    7950.7058    8568.0962    8780.8421   -172.72979  -0.67310989    683.74681   -6416.5187 
 3339000    238.00639     -9170.98   -8263.5911     -9170.98            0    9645.5021    24.908523    24.865974    23.001363    14246.462    9965.6143    9520.0481    9450.8439   -1076.8339   -752.22817   -22.422722   -6259.5447 
 3340000    246.50519   -9141.5484   -8201.7581   -9141.5484            0    8124.5858    24.947579    24.997977    22.974396     14327.73    8702.7117     7456.309    8214.7367   -35.563039    866.23392    1105.4877   -6504.0833 
 3341000    241.74853   -9171.0097   -8249.3541   -9171.0097            0    8282.3014    25.086597    24.926312    22.842293    14283.659    7091.8458    8818.4227    8936.6357    213.50132   -29.456758    922.96642   -6524.0471 
 3342000    255.25094   -9184.6965   -8211.5635   -9184.6965            0    7408.0468    25.039574     24.86931    23.038783     14346.64    7331.2699    7366.9682    7525.9022    195.62273    173.24095    2041.1305   -6661.5703 
 3343000    248.92244   -9145.5078   -8196.5019   -9145.5078            0    8947.7148    25.082459     24.81213    22.967929    14294.073    7811.8852    10200.367    8830.8919   -846.48739   -727.38928   -387.21303   -6331.2219 
 3344000    243.46722   -9150.9909   -8222.7829   -9150.9909            0    8213.5102    25.019253    24.997158    22.893455    14317.801    9101.5057     7388.032     8150.993   -23.115944   -1791.4915   -53.654694   -6507.7162 
 3345000    233.99924   -9162.3721   -8270.2603   -9162.3721            0    9644.0506    24.820154    24.932515    23.037808    14256.461    10491.825    9428.0074    9012.3195     -916.741   0.49923556   -221.41798   -6265.1093 
 3346000    248.35864   -9162.2337   -8215.3773   -9162.2337            0    8986.1509    24.818121    24.977258    23.078756    14306.258    9826.5056     9064.187      8067.76    398.84144   -387.88694    1199.1014   -6340.4879 
 3347000    246.95599   -9155.8503   -8214.3415   -9155.8503            0    7002.8907    24.995269    25.063469    22.976618    14394.119    6236.1677    6776.5624    7995.9421    302.33915   -674.26086    -846.2964   -6744.2704 
 3348000    236.75096   -9184.7907   -8282.1881   -9184.7907            0    7057.5022    25.000155      24.9775     23.01765    14373.173    6452.1212    7870.1754      6850.21   -566.08863   -520.88469   -1098.6736   -6802.8087 
 3349000    252.23397   -9148.4765   -8186.8456   -9148.4765            0    7345.2964    24.951134     24.98759    23.068323    14382.378    7413.6349    7458.4576    7163.7967    228.39449   -1162.4375    105.72751   -6646.1533 
 3350000    245.88646   -9179.4678   -8242.0364   -9179.4678            0    9072.0068    24.898906    24.937025    22.995135    14277.786    9506.1614    9341.8018    8368.0571    157.89042   -389.02185   -1033.2612   -6353.0009 
 3351000    252.22198   -9179.5059   -8217.9207   -9179.5059            0     9973.597    24.932981    24.819992    22.949837    14202.195     10296.29    10556.502    9067.9985   -255.82083    338.15703    -85.49803    -6152.145 
 3352000    257.42189   -9163.9471   -8182.5374   -9163.9471            0     7819.788    25.004606    24.879813    23.007139     14312.97    7440.3889    9342.0036    6676.9716    264.26068    469.57719    481.59219    -6550.235 
 3353000    251.72072   -9161.9775   -8202.3033   -9161.9775            0    8529.9471    25.122981    24.904788    22.859916     14303.05    6824.1553    8805.9953    9959.6907   -118.14682   -261.29455    643.58781   -6422.9963 
 3354000    253.57207   -9189.7166   -8222.9842   -9189.7166            0    7543.0575    25.089512    24.901984    22.966443    14348.943    6097.2898    8650.9308    7880.9519    140.46992   -663.30757    906.00831   -6644.4893 
 3355000    250.22813   -9155.2657   -8201.2819   -9155.2657            0     7657.191    25.010146    24.875348    23.083374        14361    6182.1746    9018.0706    7771.3277    27.873054   -189.03962   -688.42066   -6597.5564 
 3356000    248.81781   -9178.5298   -8229.9228   -9178.5298            0    10091.842    25.057275    24.805399    22.913064    14241.745    9657.9954    10799.048    9818.4821    395.14271   -603.16089    525.43819   -6133.8347 
 3357000    253.46275    -9183.081   -8216.7654    -9183.081            0    8722.2129    24.986201    24.802387     23.03461    14274.949    8973.6851    9502.2875    7690.6662    707.42781   -879.78331   -898.52065   -6400.9272 
 3358000    254.52045   -9185.7312   -8215.3832   -9185.7312            0    8500.1899    24.959374    24.805443    23.050074    14270.954    7662.3289     9995.038    7843.2027   -216.91771    909.27285    379.29155   -6446.2622 
 3359000    246.20811   -9167.5993   -8228.9417   -9167.5993            0    7894.3611    24.952193    24.922401    22.987059    14294.929    8427.6385    6880.9712    8374.4735   -150.49867    623.76323    390.79966   -6583.1499 
 3360000    251.08723   -9198.6032   -8241.3441   -9198.6032            0    8211.1893    24.938449    25.027404    22.941219    14318.639     8544.411    8121.4152    7967.7417   -428.75759    230.23788    250.54117   -6526.6617 
 3361000    252.64583    -9170.074   -8206.8729    -9170.074            0    8502.3153    24.903617    24.981734    22.991105    14303.583    8186.8903    8439.5662    8880.4893   -212.39042   -1743.3807   -995.46353   -6433.2636 
 3362000    250.36391   -9156.3427   -8201.8412   -9156.3427            0    8660.0339    24.787758    24.914183     23.14921    14296.182    9674.3514    8468.1359    7837.6143    445.99039   -475.42895   -583.36027   -6396.2661 
 3363000    244.14563   -9152.0529   -8221.2584   -9152.0529            0    7471.0631    24.939632    25.052431    22.946269    14336.793       7277.6    7138.2869    7997.3024    244.38899     100.3433   -547.30965   -6659.1531 
 3364000    257.71293   -9146.3305   -8163.8112   -9146.3305            0    7428.8979    25.027432    25.063497     22.91515      14374.1    7467.8336    6975.6239    7843.2361   -64.019668    720.81683   -838.57163   -6606.4802 
 3365000    254.14398    -9136.885   -8167.9723    -9136.885            0    7388.0955    24.923993    24.961675    23.109876    14377.685    7336.3198    7349.8266    7478.1401   -32.855331    326.00322    873.72639   -6618.8084 
 3366000     243.2612   -9157.8795   -8230.4569   -9157.8795            0    8843.9949    24.857154    24.856608    23.133842    14293.581    8079.8721     10182.08    8270.0323   -127.65044    237.54663     59.45576   -6386.8623 
 3367000    241.23714   -9185.2778   -8265.5718   -9185.2778            0    8813.5468    24.883714    25.013125    22.939763    14278.155      10016.5    8023.0874    8401.0529    1181.2673    -262.4252    841.59146   -6430.3071 
 3368000    240.09479   -9192.7824   -8277.4316   -9192.7824            0    8016.4794    24.909692    24.974469    23.001687    14309.495    7107.5275    7834.7532    9107.1574   -255.77883   -422.78133   -1036.4207    -6604.478 
 3369000    251.19474   -9175.4155   -8217.7466   -9175.4155            0    8722.2111    24.941724    25.128588    22.790457    14283.926    8979.6283    7702.0887    9484.9163    648.20954   -412.07768     610.9887   -6400.7669 
 3370000    241.51284   -9156.0176   -8235.2605   -9156.0176            0    9126.8137    24.830912    24.986507    23.054135    14303.656    9309.1092     9735.964    8335.3679   -742.61859   -1046.0701    310.31265   -6331.3693 
 3371000    250.02032   -9187.3039   -8234.1124   -9187.3039            0    8199.0106    24.885271    24.983548    22.972299    14282.392    7471.5572    9069.6228    8055.8517    658.89958   -304.47499   -648.19867   -6526.3074 
 3372000    246.56278   -9134.0403   -8194.0306   -9134.0403            0    7510.3009    24.992999    24.974111    22.999429    14355.736    7305.8162     8157.188    7067.8986   -304.96787   -363.16597    192.78733   -6621.6463 
 3373000     239.4283    -9162.424   -8249.6142    -9162.424            0    7293.0719    24.952395    24.971936    23.038886    14355.751    8215.1346    7126.2629    6537.8183    1429.4157    208.69078    1447.6079   -6722.7082 
 3374000    254.45786   -9155.5354    -8185.426   -9155.5354            0    7708.2034    24.892822    25.044835      22.9624    14315.601    7621.5121    7329.8352    8173.2629   -75.119265   -936.92779     633.7928   -6576.1199 
 3375000    250.01228   -9121.1988   -8168.0379   -9121.1988            0    9185.6852    24.851918    24.991731    23.012335    14292.788    9480.3018    9505.3674    8571.3866   -883.05739   -155.12312    -732.1075   -6253.3218 
 3376000    243.05923   -9152.6278   -8225.9752   -9152.6278            0    8362.6351    24.839804    25.022243    23.030182    14314.354    9501.0542    8029.4505    7557.4007   -214.65326   -505.10052   -692.00708     -6480.19 
 3377000    251.35544   -9157.3821   -8199.1006   -9157.3821            0    9307.6651    24.847267    25.068872    22.898227    14263.144    11199.419    7237.2357    9486.3401    248.15956    58.135488    485.28716   -6262.9822 
 3378000     242.8291   -9154.0204   -8228.2451   -9154.0204            0    8211.3298    24.925659    24.968102    22.996055    14311.512    7929.1884    8710.5188    7994.2823    655.57634   -112.57757   -447.24664   -6514.3869 
 3379000    247.38432   -9142.4792   -8199.3373   -9142.4792            0    7765.3094    24.803164    24.976699    23.140561    14335.604    8708.6281    7430.3883    7156.9118   -388.12709    486.07493   -140.66529   -6575.8434 
 3380000     243.6861   -9185.5194   -8256.4769   -9185.5194            0    9129.1698    24.903636    25.041372    22.892838    14276.459    8453.6209    8794.2553    10139.633   -596.68175   -1105.6756    357.56113   -6355.7151 
 3381000       244.12   -9180.5824   -8249.8856   -9180.5824            0    9943.5363    25.012619    24.907975    22.804258    14207.365    9070.7654    9675.5442    11084.299   -187.53184    -625.3916    19.643827   -6189.5864 
 3382000    242.12418   -9144.4492   -8221.3614   -9144.4492            0    7475.0955    24.928083    24.910619    23.152528    14377.117    8200.3077    6863.5071    7361.4717    8.7503586    164.58213    84.623301    -6654.017 
 3383000    240.59349   -9147.7834   -8230.5313   -9147.7834            0     7698.439    24.921142    25.024948    23.006461    14347.986    8717.0699    7712.3117    6665.9354    935.11237   -510.98069    331.48051   -6619.6278 
 3384000    234.68638   -9148.2419   -8253.5103   -9148.2419            0    8337.6555    24.993533    24.907106    23.032264    14337.967    8898.8926    8121.2699     7992.804    140.35182    828.22177    283.31471   -6510.0688 
 3385000    248.45997   -9213.0175   -8265.7747   -9213.0175            0    8688.9676    25.039937    24.774352    22.983333    14257.669    7884.3029    9235.0596    8947.5402    49.224221   -1135.7485   -902.26634   -6459.0474 
 3386000    247.71068   -9157.4023   -8213.0163   -9157.4023            0    7203.7743    25.121697    24.922758     22.95671    14373.242    4611.4817    8813.4958    8186.3454   -423.97594   -506.45305    218.02778   -6702.9684 
 3387000    244.36824   -9174.7362    -8243.093   -9174.7362            0    7205.7204    25.059114    24.849283    23.037731    14345.618    6892.1031    7395.7555    7329.3028    15.847485     494.3544   -443.02704     -6735.54 
 3388000      247.405   -9153.7082   -8210.4876   -9153.7082            0    7277.1502    25.123649    24.927718    22.987008    14396.194    5620.1972    8429.3726    7781.8808    1109.0433    63.253409    364.25918   -6682.6228 
 3389000    244.63817   -9186.3436   -8253.6713   -9186.3436            0    9252.7427     24.94136    24.929358    22.893006    14234.232    8522.3182    10318.511    8917.3991   -392.79403   -648.56458    -234.8534   -6332.8789 
 3390000    257.77655    -9197.478   -8214.7163    -9197.478            0    8760.2846    24.911404    24.864922     23.01894    14258.394    8101.4114     9101.363    9078.0794   -405.00072    1220.0996    693.96772   -6393.0672 
 3391000    243.92691   -9184.2819   -8254.3213   -9184.2819            0    8158.5906    24.953072    24.924603    22.992996    14300.389    7980.1085    8203.3656    8292.2976    142.24976   -105.76329    229.94155   -6552.7942 
 3392000     242.4952    -9182.778   -8258.2757    -9182.778            0    8101.7415    24.944703     24.97682    22.986013    14321.191    7004.0042    8276.8837    9024.3365    425.65793   -134.81137    719.87228    -6566.147 
 3393000    238.21028   -9123.0122    -8214.846   -9123.0122            0    7883.0402    24.943134    24.997195    23.027618    14357.914    8368.5323    8004.9832    7275.6051   -534.93906   -75.974106   -519.31937   -6564.1733 
 3394000    242.02176   -9135.4196   -8212.7223   -9135.4196            0     10408.16    24.763045    24.950896    22.979616    14198.189    11761.957    9928.7538    9533.7705   -887.22087   -211.35416    157.41613   -6057.5458 
 3395000      258.651    -9151.818   -8165.7225    -9151.818            0    9097.4571    24.887275    24.993062     23.00796    14311.163    8975.2582    8362.3392    9954.7738   -1236.0544    915.22222     292.2353   -6266.9591 
 3396000    245.40281   -9170.9692   -8235.3818   -9170.9692            0     7662.433     25.01445      24.9654    22.951616    14333.187    7658.5413    7690.6765    7638.0812   -128.28307   -439.51882   -924.64579   -6633.6664 
 3397000    248.00051   -9174.0907   -8228.5996   -9174.0907            0     7410.576    24.941929    24.906639     23.08707    14342.142    8264.4582    7162.5376    6804.7322    -769.3369   -281.68578   -570.84314   -6678.5634 
 3398000    247.46407   -9206.5192   -8263.0733   -9206.5192            0    9430.7544    24.859247    24.949476    22.955202    14237.394    10482.607    8596.9367    9212.7196    74.862654   -1006.6783   -533.98472   -6304.8923 
 3399000    251.55556   -9167.8103   -8208.7658   -9167.8103            0    8774.7476    24.894753    24.974711    22.942464     14264.23    8481.1093    9074.0843    8769.0492   -180.48358    898.80508   -100.81245   -6383.3623 
 3400000    248.04172   -9182.6927   -8237.0445   -9182.6927            0     8152.294      24.7401    25.046472    23.082654    14303.217    10038.348    7408.1347    7010.3995    57.632987   -635.27952   -197.98703   -6536.4943 
 3401000    251.25884   -9166.1777   -8208.2644   -9166.1777            0    8216.4697    24.824677     25.10105    22.948714    14299.928    9374.3257    6958.0037    8317.0796    1188.9156   -560.85856    -664.7754   -6494.7215 
 3402000    245.68968   -9176.2546   -8239.5735   -9176.2546            0    7776.2516    24.944692    25.014774    22.963963    14329.187     7732.947    7858.3868    7737.4212   -272.25416    317.72243   -803.12642   -6614.5197 
 3403000    251.52731   -9159.9111   -8200.9743   -9159.9111            0    7287.6395    24.932267    24.851185    23.166132    14353.652    7591.1474    8904.5081     5367.263   -439.13283   -70.877363   -877.09385   -6675.4288 
 3404000    251.66448   -9206.4815   -8247.0218   -9206.4815            0    7523.5264    24.934834    24.985977    22.964917     14307.63    7254.8107    7368.6757    7947.0926    408.48298    148.86144    283.74381   -6677.1469 
 3405000    247.59873   -9160.3118   -8216.3525   -9160.3118            0    9637.0239     24.93252    24.965532    22.878953    14241.087    10301.752    9111.9187    9497.4013    321.46853    608.27349   -49.143811   -6214.8231 
 3406000    239.17613   -9215.3619   -8303.5134   -9215.3619            0    9954.0761    24.855324    24.957124    22.885895    14196.519     10771.46    9663.3006    9427.4678   0.45262278    466.22344      162.152   -6242.6048 
 3407000    245.85657   -9164.2373   -8226.9199   -9164.2373            0    8808.4991    24.893702    24.916463     23.00217    14267.395    8548.2074    10364.811     7512.479    266.37621   -516.31828   -163.94734   -6394.0886 
 3408000    246.21986   -9153.4785   -8214.7761   -9153.4785            0    8753.4171    24.917675    24.879237    23.065498    14299.057    9536.1653    9602.1793    7121.9066    305.51152   -82.119785   -161.72351   -6389.3641 
 3409000    250.11779   -9150.4146   -8196.8515   -9150.4146            0    7558.9748    25.009217     24.99623     22.95193    14348.082    7268.8496    8533.0454    6875.0292     255.0491    573.93092    776.98561   -6615.1205 
 3410000    239.22748   -9132.2535   -8220.2092   -9132.2535            0    8835.8892     25.09605    24.983114    22.784265    14285.221    8396.8978    9324.7048     8786.065    219.12927   -272.76902    -777.2683   -6379.3816 
 3411000    246.77726   -9206.8329   -8266.0055   -9206.8329            0    9499.7197    24.924979    24.859616    22.955692     14223.93     10102.99    9625.6751    8770.4937    -457.3822    819.40668    496.37258     -6295.37 
 3412000    249.75323   -9177.3209   -8225.1477   -9177.3209            0    9411.7643    25.015677    24.746714    23.023956    14253.113    8390.2799    10824.064    9020.9492   -649.54603   -379.81781     843.2812   -6268.7521 
 3413000    254.43411    -9178.291   -8208.2722    -9178.291            0    8113.7833     24.97673    24.888869    23.028446    14315.462    8745.7583    8830.7978    6764.7937    -383.2937    412.13233    895.87838   -6514.3063 
 3414000    244.49441   -9185.1308   -8253.0067   -9185.1308            0    6458.6851    25.031213     24.96137    23.015018    14380.091    5443.1235    7211.1359     6721.796    417.77452    173.65554    406.29151   -6898.4984 
 3415000    249.47873   -9171.9724   -8220.8457   -9171.9724            0    7938.9523    25.056235     24.98702    22.864522    14315.035    6809.0684    8532.4767    8475.3117   -390.72711    529.19204    82.707061   -6563.4299 
 3416000     245.3591   -9128.0114   -8192.5906   -9128.0114            0    7843.5496    25.025769    24.948498    22.989237    14353.453    7889.8728    8306.9274    7333.8485   -671.48728   -551.10692     83.02149   -6550.6973 
 3417000    238.88846    -9194.398   -8283.6463    -9194.398            0    6806.1393     24.93036     24.95577    23.120182    14384.368    6324.0584    7236.9756    6857.3838    95.583155   -267.02496    347.48515   -6855.8459 
 3418000    249.58595   -9124.5979   -8173.0624   -9124.5979            0     6986.268    24.993257     24.99663    23.035101    14391.114    5893.0307    7988.8142    7076.9591   -383.52658   -297.47983    433.84608    -6706.787 
 3419000    246.37354   -9159.9567   -8220.6684   -9159.9567            0    8160.5261    25.054081    24.967218    22.910805    14331.411    6176.4167    8000.6465    10304.515   -17.592267   -565.64415   -587.16462   -6515.0455 
 3420000     249.4088   -9181.0257   -8230.1656   -9181.0257            0    8439.3104    24.975745    24.846625     23.05325    14305.993    9355.8575    8373.6591    7588.4146    210.62286   -741.39324    -357.1791   -6469.4027 
 3421000    248.94359   -9181.1809   -8232.0944   -9181.1809            0    8379.8564    24.944567    24.781061    23.114867    14288.521    8103.4889    9983.5781    7052.5024    133.58183   -1028.7109    649.15654   -6485.8713 
 3422000     241.3342   -9146.1756   -8226.0995   -9146.1756            0    8831.0778    25.018177    24.871135    22.951508    14281.127    8043.5423    10077.109    8372.5824    116.95911   -499.79417   -962.18001   -6386.8016 
 3423000    241.54359   -9141.9975   -8221.1232   -9141.9975            0    9363.1869    25.043894     24.83718    22.895722     14241.59    8086.1541    10436.488    9566.9188   -715.95763    285.94032    1022.7925   -6276.3988 
 3424000    245.03978   -9171.0552   -8236.8519   -9171.0552            0    8806.9042    24.971737    24.783186      23.0639    14273.768     8217.442    10841.465    7361.8055    279.40243    209.95174   -87.545518   -6403.5339 
 3425000    244.35097   -9164.4883   -8232.9109   -9164.4883            0    8623.2025    24.996593    24.996194    22.915257    14317.904    8630.0785    7861.8508    9377.6781   -102.32694   -976.57285    564.88618   -6432.2833 
 3426000    242.93995   -9178.8034   -8252.6055   -9178.8034            0    7918.0302    24.981179    25.012647    22.914317    14317.906    7086.8676    8044.0561     8623.167    203.89543   -134.79621    526.42607    -6599.226 
 3427000    245.65021    -9147.865   -8211.3344    -9147.865            0    7348.5032    24.947172    24.917406    23.091241     14353.95    7210.7494     8610.737    6224.0232    105.54283    51.492054    1472.3719   -6673.0161 
 3428000    243.56367   -9155.1603   -8226.5845   -9155.1603            0    6552.9257    24.972097    25.073618    22.991507    14395.921    6694.3716    6525.3818    6439.0237    220.37082    377.40117    827.14539   -6850.7994 
 3429000    247.53837    -9180.111   -8236.3818    -9180.111            0    7412.0584    24.913128    25.019929    23.010955    14343.297     8534.323    7240.7045    6461.1478    1292.2319    -569.3226    184.14225   -6685.9106 
 3430000    244.94258   -9179.7873   -8245.9545   -9179.7873            0    7771.8099    24.868021    24.980679    23.059357    14324.935    9083.5829    6399.9416    7831.9051    186.90169    -1259.954   -355.10717   -6622.3108 
 3431000    246.73131   -9158.2051   -8217.5528   -9158.2051            0     9053.343    24.905038    24.953216    22.963681    14271.028    8507.5475     9496.547    9155.9346   -145.36791   -417.02996    949.94341   -6333.2959 
 3432000    251.08844   -9142.8665   -8185.6028   -9142.8665            0    8737.3992     24.90867    24.938658    22.995359    14284.459    9026.8737    9491.8733    7693.4507     90.42581    123.74564    1063.9899   -6365.3912 
 3433000    240.97815   -9151.3188   -8232.6002   -9151.3188            0    7554.4925    24.997474    24.930815    22.992327    14328.988    7365.3484     8097.781    7200.3483    498.44175   -1199.1336   -393.04713   -6653.9107 
 3434000    256.28627   -9175.2351    -8198.155   -9175.2351            0    9257.7225    25.020186     24.78008    22.963385    14237.349    8611.0623    10858.675    8303.4301    95.950615   -73.613518   -533.14674    -6275.908 
 3435000    251.61899   -9116.9232   -8157.6369   -9116.9232            0    10048.921    24.855882    24.927701    22.988348     14243.58    10517.866    9032.2198    10596.678   -1050.3625    217.55602   -63.149256   -6070.1944 
 3436000    250.22543   -9140.5825   -8186.6091   -9140.5825            0     7906.549    24.911932     25.09553    22.906467    14320.622    8590.7324    7459.2576    7669.6568   -761.68905   -767.82999    92.257335   -6535.3137 
 3437000    249.00681   -9228.3036    -8278.976   -9228.3036            0    7634.8615    24.954141    24.993329    22.980688    14332.757    7402.4357    7914.4064    7587.7422    -835.3612     761.5046    18.912729   -6683.0719 
 3438000    246.84872   -9129.6228   -8188.5229   -9129.6228            0    7326.8769    24.890559    24.871724    23.229581    14380.762    7209.5828    8715.8035    6055.2445     57.32696    737.85412     1062.101   -6651.8668 
 3439000    237.44623    -9175.723   -8270.4697    -9175.723            0    8430.3416    24.935081     25.00616    22.909079    14284.512    8671.5045    8091.1275    8528.3927   -40.231138    1038.4627   -841.41235   -6514.2191 
 3440000    249.92359   -9113.9989   -8161.1761   -9113.9989            0    9316.4744    25.006771     24.96177     22.85251    14264.839    8350.5195    9842.3329    9756.5709   -268.60977   -792.85397    -457.9836    -6222.995 
 3441000    248.34774   -9154.6222   -8207.8074   -9154.6222            0    8031.9268    24.977591    24.951956    22.976427    14319.823    6903.7247    8438.7489    8753.3067    1042.9852   -648.71577   -377.88153   -6530.4204 
 3442000    248.16585   -9143.2184    -8197.097   -9143.2184            0    7510.1329    24.911948    24.933849    23.082489    14337.706    7495.9119    7375.1998     7659.287   -446.00935   -552.08008    985.92782   -6626.7227 
 3443000    248.37116    -9164.677   -8217.7729    -9164.677            0    7559.5388    24.858622     25.08581     22.99914    14342.233    8278.0939    7550.3701    6850.1525    746.99008   -1111.7956   -401.64046   -6636.5686 
 3444000    238.20903   -9135.9937   -8227.8322   -9135.9937            0    8660.1708    24.974651    25.032643    22.878017    14302.914    8154.6833     7503.622    10322.207    103.83535   -989.92652   -949.94447   -6421.3784 
 3445000    249.99766   -9163.7317   -8210.6266   -9163.7317            0    8786.1086     24.89446    24.943019    22.970301    14263.248    9097.9519    8298.7139    8961.6598    570.05823   -275.52047    505.32741   -6382.9857 
 3446000     257.1689   -9171.3045   -8190.8593   -9171.3045            0     9411.784    24.848366    24.861368     23.05751    14244.109    9666.8204    10364.723    8203.8085   -1210.9909    567.25308    139.88653   -6235.6957 
 3447000    247.20966   -9166.1347   -8223.6588   -9166.1347            0    8445.8118    24.866733    25.060703    22.967561    14312.874    8448.1241    7962.5925    8926.7189    151.79242   -238.91994    389.58784   -6460.6919 
 3448000    247.59513   -9137.1272   -8193.1817   -9137.1272            0    9145.8537    24.898668    25.022352    22.900182    14267.346    9604.0276    7946.2768    9887.2568   -592.47274   -726.21565    635.75717   -6290.1618 
 3449000    249.63326   -9139.3855   -8187.6696   -9139.3855            0    9492.5326    24.887599    24.931922    22.967835    14251.442    9533.3055    9350.4098    9593.8824    558.64944   -60.389133   -595.27329   -6214.7164 
 3450000    247.92866   -9169.5292   -8224.3121   -9169.5292            0    8692.2267    24.898645     24.89674     23.07269    14302.647    8304.1248    8423.7957    9348.7596    362.02337    607.02005    126.39133   -6411.2055 
 3451000    246.95339   -9127.0788   -8185.5798   -9127.0788            0    9747.9452    24.865975    24.878553    23.059567    14265.328    10043.749    10474.031     8726.056     56.37527    527.42526   -1076.4871   -6157.5669 
 3452000    248.54335   -9177.3342   -8229.7736   -9177.3342            0    8429.1157    25.010048    24.935773    22.902422    14282.979     7084.111    9223.0281    8980.2079    122.76702    718.43686   -482.69577   -6473.9669 
 3453000    243.77081   -9198.5803   -8269.2148   -9198.5803            0    8704.5665     25.03147    24.907654      22.8703    14259.064    6856.2943     10071.52    9185.8856    548.83945   -804.20312    733.93249   -6459.0668 
 3454000    250.33283    -9155.617   -8201.2341    -9155.617            0    8059.5782    25.072483    24.882656    22.976528    14334.366    6748.7578    9330.9541    8099.0227   -749.08321    634.88552     1254.878    -6516.363 
 3455000    243.12087   -9173.7866    -8246.899   -9173.7866            0    7232.2525    24.973565    24.886817    23.094763    14353.685    8005.8072    6993.3822    6697.5683     22.05359   -222.63771    96.528848   -6732.9442 
 3456000    234.65062   -9196.1635   -8301.5683   -9196.1635            0    7291.5856    24.985702    24.913623    23.025246    14332.855    6027.9514    8751.3234    7095.4821    290.25626   -900.85352    185.68101   -6777.4083 
 3457000    246.26662    -9146.278   -8207.3974    -9146.278            0    8982.3075    24.897649    25.028802    22.859749    14245.243    9729.9914    7739.5396    9477.3917   -843.35374   -374.86546   -446.05133   -6341.3026 
 3458000    245.80296    -9150.083     -8212.97    -9150.083            0    8675.7424    24.775419     25.01252    23.053612    14286.223    9586.3423    7866.5164    8574.3686    619.59711   -1572.5801   -738.03738   -6405.3798 
 3459000    243.58158   -9116.2331   -8187.5891   -9116.2331            0    8631.7484    24.902051    24.968201     23.04038    14325.573    9087.4926    8966.9648    7840.7879   -911.02138    420.18399    2947.4874   -6384.2114 
 3460000    253.72271   -9165.0333   -8197.7266   -9165.0333            0    9336.5422     24.85845    25.074525    22.853793    14245.085    9696.0476    8424.1536    9889.4252    175.51429   -109.69031   -225.10397   -6258.0604 
 3461000    253.28386   -9163.2598   -8197.6262   -9163.2598            0    8844.9622    24.856357    25.005422    22.998496     14294.57    8623.0032    9023.7512    8888.1322    117.72912    225.73192   -639.35955   -6353.7024 
 3462000    243.69727   -9161.9311    -8232.846   -9161.9311            0    7944.2772    24.873897    25.013894    23.037736    14333.919    8001.2925    7741.9147    8089.6245     340.0816   -336.21982   -173.55398   -6572.1306 
 3463000    243.73343   -9169.6602   -8240.4372   -9169.6602            0     7659.183    24.845943    25.061705    23.027375    14338.725    9000.9381    6460.0553    7516.5557    425.49687    797.63089     1962.585   -6638.7826 
 3464000    251.67788   -9165.5358    -8206.025   -9165.5358            0    8216.6819    24.921264    24.960257    23.043492        14334    7389.7368     9411.306     7849.003    672.08577   -1493.4614   -1453.5189   -6488.3548 
 3465000    251.11704   -9202.0674   -8244.6948   -9202.0674            0    8077.4424    24.907716    24.973809    22.998246    14305.842    8005.2413    7703.8445    8523.2413   -308.10784    175.02401   -84.559808   -6559.4493 
 3466000    239.70031     -9170.41   -8256.5631     -9170.41            0    7330.0035    25.028235    25.043008    22.879722    14340.604    6162.8728    6967.0314    8860.1064    334.43236   -527.32275   -98.459663   -6723.5441 
 3467000    249.44986   -9143.2727   -8192.2561   -9143.2727            0    8191.5664    24.993476    24.957799    22.984713    14337.454    8024.0811    8661.6385    7888.9795    461.11076    40.072445   -258.67029   -6479.4237 
 3468000    245.18668   -9143.6279   -8208.8645   -9143.6279            0    8772.2095    24.915923    24.868759    23.116013     14323.33    9024.9493    8741.5368    8550.1426   -1204.8942    11.396812   -76.621707   -6376.4282 
 3469000    245.01737   -9192.4757   -8258.3578   -9192.4757            0    8226.3788    24.945342    24.874598    23.037465     14294.87     9180.672    7735.7856    7762.6787   -284.05442   -1453.5036    396.21112   -6543.3551 
 3470000    249.69041   -9172.8657    -8220.932   -9172.8657            0    9371.3093    24.886565    24.948466    22.967312    14259.982     9210.066    9725.4588     9178.403     590.4144    485.64409    -291.7088    -6272.007 
 3471000    242.20886   -9148.9095   -8225.4989   -9148.9095            0    9284.4956    24.864431    24.977822    22.973482    14267.895    10493.269    8941.4712    8418.7468    101.22087   -200.05699   -382.11368   -6293.5567 
 3472000    244.94858   -9178.4253   -8244.5696   -9178.4253            0    9213.6404    24.832931     24.95601    23.005506    14257.223    10447.377      8070.08    9123.4638    -945.1695    303.06306   -686.64981   -6328.8053 
 3473000    241.51949   -9145.1839   -8224.4014   -9145.1839            0    8463.6148    24.905817    24.987283    23.011996    14321.026    9181.5102    7376.2143    8833.1198    1.5114141    414.18291    65.839419   -6456.7123 
 3474000    258.11187   -9138.2219   -8154.1818   -9138.2219            0    9357.2994    24.829031    25.096102    22.883706    14259.109    9182.6077    8750.3585    10138.932    -626.3569   -213.12133   -196.02695   -6208.2894 
 3475000    244.85956   -9179.8085   -8246.2922   -9179.8085            0    7531.1226    24.945662    24.979282    23.019607    14344.086    7514.6284    7764.5499    7314.1894   -149.71911   -47.928005    194.09148   -6670.8281 
 3476000    254.85423   -9182.8787   -8211.2582   -9182.8787            0    9497.5048    24.959846    24.866949     23.00563    14279.025     10325.09    9147.4381    9019.9864    348.10831   -986.14613   -235.96903    -6233.451 
 3477000    252.86934   -9161.0392    -8196.986   -9161.0392            0    7251.6685    25.194053    24.956994     22.85352    14369.558    6521.6226    7321.2778    7912.1052   -1079.4423   -66.476049    289.87637   -6677.2881 
 3478000    246.80577   -9131.9749   -8191.0388   -9131.9749            0    8235.2223    25.044904    24.922193    22.981422    14344.404    7808.8636    9041.8686    7854.9348   -627.63369   -1283.6817     1128.797   -6468.2432 
 3479000    241.83971    -9151.894   -8229.8907    -9151.894            0    8256.0658    24.976778    24.843553     23.04394    14299.039     7470.061    10223.773    7074.3631   -330.05825    803.38469   -16.336315    -6508.197 
 3480000    251.94457   -9156.7207   -8196.1931   -9156.7207            0    9029.2629     24.92633    24.932267    22.932071    14251.593    8385.8392     10166.56    8535.3895   -456.27743    -572.6414    495.74249   -6319.5072 
 3481000    252.33491   -9142.7734   -8180.7577   -9142.7734            0    8869.9055    24.899114    24.906516    23.029213    14281.571    8989.5869    9026.3779    8593.7517   -83.039982    452.90139   -1.4652477   -6333.3155 
 3482000    251.28085   -9168.0028   -8210.0056   -9168.0028            0    7943.9708    24.927092    24.973227    23.007985      14322.7    7984.9266    8958.3588    6888.6269     -731.303    654.61829   -651.75317    -6550.654 
 3483000    249.72625   -9144.7759   -8192.7055   -9144.7759            0    7770.3248    25.021615    24.973072    23.032182    14392.042    6505.2905    8704.5347    8101.1492    228.83364   -1090.4182    443.21468   -6561.7675 
 3484000    254.16468   -9164.3586   -8195.3669   -9164.3586            0    7505.9369    24.990943    25.058866    22.965597    14382.083    6765.4422    7498.1963    8254.1721   -358.34875    1685.0786    630.03358   -6621.0122 
 3485000    245.45451   -9175.3399   -8239.5554   -9175.3399            0    8641.8414    24.982325    24.944769    22.895134    14267.752    8175.6321    8590.7575    9159.1347   -261.77428    328.73626   -348.09098   -6441.3565 
 3486000    258.16078   -9175.6206   -8191.3939   -9175.6206            0    9972.9177    24.845714    24.876628    22.980708    14203.861    10915.616    10387.162     8615.975   -1343.7002   -1570.7219    720.10369   -6125.5165 
 3487000    242.59627   -9157.2468   -8232.3592   -9157.2468            0    9106.3256    24.892385    24.866039    23.062252    14274.958    9772.1467    9821.2342    7725.5959   -648.15942    696.67879    792.38884   -6336.5531 
 3488000    257.08515   -9141.9555   -8161.8296   -9141.9555            0    7914.4823    25.035888    24.942774    22.989584    14356.179    7246.0666     8913.171    7584.2094   -384.24085    189.07157   -2194.6805   -6504.7733 
 3489000    247.38796   -9151.2962   -8208.1405   -9151.2962            0    7851.8039    25.103668    24.966919    22.855747    14325.096    6613.5105    7751.7917    9190.1094    79.533988    995.30445   -1291.4707   -6567.7665 
 3490000     248.3288   -9115.2498   -8168.5072   -9115.2498            0    9233.3569     24.95575    24.927332    22.924568    14260.921    8898.6213    9095.6719    9705.7776    30.745191   -327.05902   -358.35409   -6248.1452 
 3491000    253.49665   -9161.2605   -8194.8157   -9161.2605            0    8678.7091    24.823899     24.98946    23.036434    14290.326    9212.4129    8961.1704     7862.544   -194.19286   -850.97852   -691.55965   -6386.0881 
 3492000    251.26202   -9140.8338   -8182.9084   -9140.8338            0    9301.5402    24.844235    24.984897     23.02949     14295.11    11119.193    8122.1386    8663.2895   -534.20769     531.9319   -758.44295   -6243.7278 
 3493000    248.69327   -9175.7742   -8227.6421   -9175.7742            0    8608.3595    24.865049    24.978166    23.014044    14293.639    8790.8776    8764.0756    8270.1252   -325.59672    421.05564    97.451267   -6433.1602 
 3494000    237.30501   -9151.0387   -8246.3237   -9151.0387            0     8052.845    24.936777    25.106373    22.904912    14340.124    8143.0498    7298.3847    8717.1004   -237.76852   -925.39347    1195.9164   -6562.1839 
 3495000    244.87323    -9141.228   -8207.6595    -9141.228            0    7753.7692      24.8906    25.046399     22.96489     14316.77    8662.5176    7440.1791    7158.6108   -473.00854    73.371347   -298.01675   -6588.7082 
 3496000    255.15258   -9197.8082   -8225.0502   -9197.8082            0    8597.1244    24.778916    24.924501    23.116912    14277.054    9098.2764    8678.6232    8014.4735   -571.43101    218.20846    209.14902   -6434.9897 
 3497000    252.77751   -9121.7687   -8158.0656   -9121.7687            0    9613.7127    24.934258    24.915286    22.972418    14271.481    9530.9682    10437.739    8872.4307   -626.27539     43.09946    349.94993   -6157.1163 
 3498000    242.07793   -9178.6471   -8255.7356   -9178.6471            0    7457.3754    25.091403      24.9872    22.844442    14322.641    6405.0845    8207.9997    7759.0421   -514.22565    639.77731    1116.4555   -6698.0314 
 3499000    241.62716   -9195.4493   -8274.2564   -9195.4493            0    8628.1268    24.949411    24.845129    22.994267    14253.487    8917.2138    9206.1756    7760.9911   -300.14726   -432.94802   -33.796723   -6480.7062 
 3500000    245.72225   -9116.5105   -8179.7052   -9116.5105            0    9619.7629    24.910621    24.841167    23.076523    14279.958    10680.799    9161.9215    9016.5687   -480.36678    -1689.142    160.60001   -6176.3075 
Loop time of 594.608 on 64 procs for 250000 steps with 1920 atoms

Performance: 72.653 ns/day, 0.330 hours/ns, 420.445 timesteps/s
195.5% CPU use with 32 MPI tasks x 2 OpenMP threads

MPI task timing breakdown:
Section |  min time  |  avg time  |  max time  |%varavg| %total
---------------------------------------------------------------
Pair    | 73.138     | 75.647     | 79.745     |  19.1 | 12.72
Bond    | 0.81145    | 0.99502    | 1.3039     |  10.6 |  0.17
Kspace  | 277.97     | 287.58     | 301.88     |  40.9 | 48.37
Neigh   | 4.3676     | 5.201      | 6.302      |  25.1 |  0.87
Comm    | 86.238     | 101.94     | 113.09     |  68.1 | 17.14
Output  | 0.67337    | 0.6737     | 0.67568    |   0.0 |  0.11
Modify  | 101.02     | 105.27     | 109.25     |  22.7 | 17.70
Other   |            | 17.3       |            |       |  2.91

Nlocal:        60.0000 ave          64 max          54 min
Histogram: 1 0 3 0 7 3 4 2 7 5
Nghost:        3394.72 ave        3434 max        3363 min
Histogram: 3 4 2 5 7 3 2 3 0 3
Neighs:        21275.1 ave       22713 max       19375 min
Histogram: 2 1 3 4 6 1 2 2 5 6

Total # of neighbors = 680804
Ave neighs/atom = 354.58542
Ave special neighs/atom = 2.0000000
Neighbor list builds = 9368
Dangerous builds = 0

unfix		3
unfix		2
unfix		1

write_data	data.final.${pid}
write_data	data.final.0
System init for write_data ...
PPPM initialization ...
  extracting TIP4P info from pair style
  using 12-bit tables for long-range coulomb (../kspace.cpp:340)
  G vector (1/distance) = 0.37452314
  grid = 30 30 30
  stencil order = 5
  estimated absolute RMS force accuracy = 0.0032600341
  estimated relative force accuracy = 9.8174957e-06
  using double precision FFTW3
  3d grid and FFT values/proc = 5400 960
Last active /omp style is kspace_style pppm/tip4p/omp
WARNING: Not all mixed pair coeffs generated from mixing. Use write_data with 'pair ij' option to store all pair coeffs. (../write_data.cpp:312)

write_restart   restart.lmp.${pid}
write_restart   restart.lmp.0
System init for write_restart ...
PPPM initialization ...
  extracting TIP4P info from pair style
  using 12-bit tables for long-range coulomb (../kspace.cpp:340)
  G vector (1/distance) = 0.37452314
  grid = 30 30 30
  stencil order = 5
  estimated absolute RMS force accuracy = 0.0032600341
  estimated relative force accuracy = 9.8174957e-06
  using double precision FFTW3
  3d grid and FFT values/proc = 5400 960
Last active /omp style is kspace_style pppm/tip4p/omp
Total wall time: 0:09:54
