LAMMPS (30 Jul 2021)
  using 1 OpenMP thread(s) per MPI task
package omp 0
using multi-threaded neighbor list subroutines
echo both

include		in.partitions
variable        pid world 0
include		in.temp
variable	temperature equal 275
variable	melttemp equal 450.0
variable	tempDamp equal 100.0
include		in.pressure
variable        pressure equal 8000
variable        pressureDamp equal 1000.0 # This is 1 ps
include		in.seed
variable        seed world 745823

units		real
atom_style	full



include 	in.box

read_data       ice.data
Reading data file ...
  triclinic box = (-3.3947780 0.0048050000 -0.13785900) to (15.004777 45.145583 19.367857) with tilt (0.0000000 -6.7926110 0.0000000)
  2 by 7 by 3 MPI processor grid
  reading atoms ...
  2016 atoms
  scanning bonds ...
  2 = max bonds/atom
  scanning angles ...
  1 = max angles/atom
  reading bonds ...
  1344 bonds
  reading angles ...
  672 angles
Finding 1-2 1-3 1-4 neighbors ...
  special bond factors lj:    0        0        0       
  special bond factors coul:  0        0        0       
     2 = max # of 1-2 neighbors
     1 = max # of 1-3 neighbors
     1 = max # of 1-4 neighbors
     2 = max # of special neighbors
  special bonds CPU = 0.003 seconds
  read_data CPU = 0.021 seconds
include 	in.setup
variable	out_freq equal 500
variable	out_freq2 equal 500

timestep	1.0

neigh_modify    delay 5 every 1

include		in.tip4p
# This is TIP4P/Ice

# create groups ###
group ox type 2
672 atoms in group ox
group hy type 1
1344 atoms in group hy

# set charges - beside manually ###
set group ox charge -1.1794
Setting atom values ...
  672 settings made for charge
set group hy charge 0.5897
Setting atom values ...
  1344 settings made for charge

# ### TIP3P Potential Parameters ###
pair_style lj/cut/tip4p/long 2 1 1 1 0.1577 8.5
pair_coeff 1 1*2 0.000 0.000
pair_coeff 2 2 0.21084 3.1668
bond_style  harmonic
bond_coeff  1 450 0.9572
angle_style harmonic
angle_coeff 1 55 104.52
kspace_style pppm/tip4p 1.0e-5
pair_modify tail yes

thermo          ${out_freq}
thermo          500
thermo_style 	custom step temp pe etotal epair emol press lx ly lz xy xz yz vol pxx pyy pzz pxy pxz pyz cella cellb cellc cellalpha cellbeta cellgamma

restart 	${out_freq} restart.lmp.${pid} restart2.lmp.${pid}
restart 	500 restart.lmp.${pid} restart2.lmp.${pid}
restart 	500 restart.lmp.0 restart2.lmp.${pid}
restart 	500 restart.lmp.0 restart2.lmp.0

include         in.dump
dump            myDump all atom ${out_freq2} dump.water.${pid}
dump            myDump all atom 500 dump.water.${pid}
dump            myDump all atom 500 dump.water.0
dump_modify     myDump append yes


timer           timeout 23:50:00 every 1000
New timer settings: style=normal  mode=nosync  timeout=23:50:00


fix 		0 all shake 1e-6 200 0 b 1 a 1
       0 = # of size 2 clusters
       0 = # of size 3 clusters
       0 = # of size 4 clusters
     672 = # of frozen angles
  find clusters CPU = 0.001 seconds
fix             1 all nph tri ${pressure} ${pressure} ${pressureDamp}
fix             1 all nph tri 8000 ${pressure} ${pressureDamp}
fix             1 all nph tri 8000 8000 ${pressureDamp}
fix             1 all nph tri 8000 8000 1000
fix             2 all temp/csvr ${temperature} ${temperature} ${tempDamp} ${seed}
fix             2 all temp/csvr 275 ${temperature} ${tempDamp} ${seed}
fix             2 all temp/csvr 275 275 ${tempDamp} ${seed}
fix             2 all temp/csvr 275 275 100 ${seed}
fix             2 all temp/csvr 275 275 100 745823
velocity        all create ${temperature} ${seed}
velocity        all create 275 ${seed}
velocity        all create 275 745823

run             500000
PPPM initialization ...
  extracting TIP4P info from pair style
  using 12-bit tables for long-range coulomb (../kspace.cpp:340)
  G vector (1/distance) = 0.37789371
  grid = 25 48 36
  stencil order = 5
  estimated absolute RMS force accuracy = 0.0026123984
  estimated relative force accuracy = 7.8671602e-06
  using double precision FFTW3
  3d grid and FFT values/proc = 6615 1092
Last active /omp style is kspace_style pppm/tip4p/omp
Neighbor list info ...
  update every 1 steps, delay 5 steps, check yes
  max neighbors/atom: 2000, page size: 100000
  master list distance cutoff = 10.8154
  ghost atom cutoff = 10.8154
  binsize = 5.4077, bins = 5 9 4
  1 neighbor lists, perpetual/occasional/extra = 1 0 0
  (1) pair lj/cut/tip4p/long/omp, perpetual
      attributes: half, newton on, omp
      pair build: half/bin/newton/tri/omp
      stencil: half/bin/3d/tri
      bin: standard
Per MPI rank memory allocation (min/avg/max) = 9.641 | 9.653 | 9.672 Mbytes
Step Temp PotEng TotEng E_pair E_mol Press Lx Ly Lz Xy Xz Yz Volume Pxx Pyy Pzz Pxy Pxz Pyz Cella Cellb Cellc CellAlpha CellBeta CellGamma 
       0          275   -10133.557   -9032.6688   -10133.557            0    -3141.954    18.399555    45.140778    19.505716            0    -6.792611            0    16200.867   -7056.1863   -3313.9642    944.28838     379.2996   -5093.3113   -3848.2932    18.399555    45.140778      20.6546           90    109.20001           90 
     500    270.70624   -9657.4015   -8573.7027   -9657.4015            0     5731.085    18.122021    45.535728    19.425687  -0.15960511   -6.6860092  0.066026852    16030.065    5901.8712    6427.9956     4863.388     540.0657    1206.0572   -757.53676    18.122021    45.536008    20.544205    89.750501    108.99254    90.200824 
    1000    276.50519   -9604.0542    -8497.141   -9604.0542            0    7267.5371    17.952642     45.97079    19.345052  -0.38407376   -6.4928239     0.144257    15965.415    7738.7236    7301.6119    6762.2759    114.24775    455.14948     73.35563    17.952642    45.972394    20.406092    89.442659    108.55293     90.47868 
    1500    280.70051    -9615.827   -8492.1189    -9615.827            0    6040.2991    18.008954    46.011959    19.286659  -0.23501782   -6.3401191   0.12080197    15981.452    6597.3379    5786.6818    5736.8777    -245.6845    -771.2874   -432.26373    18.008954    46.012559    20.302387    89.567693    108.19695     90.29265 
    2000    273.36676    -9568.498   -8474.1485    -9568.498            0    8720.5934    18.036868    45.536009    19.390535 -0.031097616   -6.3286787  0.055770657     15925.97    9404.5627    8815.0699    7942.1476   -363.84335   -124.14265    215.60322    18.036868    45.536019    20.397258      89.8312    108.07557    90.039129 
    2500    281.07396   -9568.1342   -8442.9311   -9568.1342            0    9014.5279    18.032861    45.565976    19.353323  -0.30631864   -6.4840875   0.18905409    15902.334    10584.921    8126.4814    8332.1809    594.10263   -629.17337    303.28762    18.032861    45.567006    20.411523    89.346963    108.52195    90.385167 
    3000    276.07728   -9575.8794   -8470.6791   -9575.8794            0     9260.906    17.884653    46.364101    19.174575  -0.78562791   -6.6678107   0.38101006     15899.67    10605.489    8797.8806     8379.349    544.03852    447.53274   -972.20637    17.884653    46.370756    20.304413     88.60609    109.17122     90.97077 
    3500    271.61375   -9602.0487    -8514.717   -9602.0487            0    8696.6506    17.977167    45.863811    19.290105  -0.45558061   -6.6041252  0.044460265    15904.718    8443.5353    8487.4029    9159.0135    70.576509   -629.19297    1121.1404    17.977167    45.866074    20.389325    89.690732    108.89901    90.569119 
    4000    271.50074   -9597.0754   -8510.1961   -9597.0754            0    7915.3853    18.039192    45.496181    19.362737  0.052401805   -6.4434188 -0.0050706544    15891.275     7837.564    8402.3335    7506.2583   -1044.6222   -71.077847   -1139.4191    18.039192    45.496212    20.406696    90.035074    108.40611    89.934008 
    4500    283.99498   -9621.9324   -8485.0358   -9621.9324            0     8290.877    17.928238    45.849619    19.339841  -0.18650104   -6.3194515   0.11959793    15897.405    7293.3078    9682.4966    7896.8264    5.4815388    138.70634   -223.83753    17.928238    45.849998    20.346479    89.590825     108.0949    90.233059 
    5000    267.89342   -9520.9694   -8448.5309   -9520.9694            0     8259.491    17.930714    46.420244    19.129966  -0.40913919   -6.3000755   0.22355396    15922.791    8462.9552    6998.3488     9317.169   -538.91698   -927.33299   -177.34527    17.930714    46.422047    20.141909    89.206128    108.22711    90.504981 
    5500    268.60349   -9604.1271   -8528.8461   -9604.1271            0    7913.3663    18.003087    45.892073    19.358584  -0.42602468   -6.4797099 -0.051370739    15994.043    6343.3349    8780.9092    8615.8548   -488.83354    468.13718    83.652767    18.003087    45.894051     20.41431    89.975354    108.50638    90.531872 
    6000    273.36934   -9552.2044   -8457.8447   -9552.2044            0    7796.6545    18.132615    45.344761     19.46291 -0.027957696   -6.5405544 -0.010338895    16002.776    7248.9865    8741.6534    7399.3237    224.37732    374.86774    1002.9032    18.132615     45.34477    20.532507    90.017598    108.57504    90.035326 
    6500    267.57689   -9587.3028   -8516.1315   -9587.3028            0    6885.6825    18.076861    45.776051    19.318651  -0.15617835   -6.4269556    0.2403289    15985.939    6026.5036    7415.5495    7214.9943    30.415513   -730.04803   -17.919041    18.076861    45.776318    20.361085    89.261999        108.4    90.195481 
    7000    267.77646   -9550.0274   -8478.0572   -9550.0274            0    7654.1182     17.82073    46.459134    19.331708  -0.72837529    -6.355112  0.049052313     16005.41    8183.8081    7379.7013    7398.8453    1054.5472   -69.386207   -15.536307     17.82073    46.464843    20.349564     89.58141    108.19773    90.898196 
    7500     271.9792   -9571.6016   -8482.8069   -9571.6016            0    8042.5521    18.040695    46.084163    19.228114  0.033411718     -6.43916   0.13642732    15986.068    5431.3717    7100.7032    11595.581   -690.77088       40.441   -397.71407    18.040695    46.084175    20.278111    89.627713    108.51436     89.95846 
    8000    268.79811   -9588.0922   -8512.0321   -9588.0922            0    7442.0126    18.079104    45.482924     19.45083  0.072381227   -6.5576124  0.054677173    15994.233    6174.8747    8595.6909    7555.4721   -1113.9553    11.246843    683.42627    18.079104    45.482982    20.526569    89.876509    108.63084     89.90882 
    8500    272.54215   -9612.7901   -8521.7418   -9612.7901            0    8019.6286    18.054505    45.645007    19.353485  -0.49596858   -6.5750286 0.0033450225    15949.169    7918.6418    8436.7601    7703.4841     665.0193   -47.304351    1019.9603    18.054505    45.647701    20.439873    89.790371    108.76435    90.622539 
    9000    281.94701   -9552.5628   -8423.8647   -9552.5628            0    8897.3935    17.850779    46.454461    19.229531  -0.46415905   -6.3781444    0.3046105    15946.057    9728.0892    7999.7239    8964.3675    150.80071   -178.27015   -1175.6417    17.850779     46.45678    20.261994    88.958425    108.34775    90.572463 
    9500    281.58911   -9582.6622   -8455.3968   -9582.6622            0    8893.4913    17.963891    45.958697    19.286877  -0.29662839   -6.2313499  0.049531139    15923.189    9434.4128    8338.4393    8907.6217   -201.23915   -984.87849    -637.9275    17.963891    45.959655    20.268592    89.746298    107.90494    90.369795 
   10000     282.2353   -9559.7197   -8429.8675   -9559.7197            0    7863.0183    18.155491    45.077873    19.514941 -0.043766112   -6.2769455 -0.068382975    15971.241    7392.4009    8680.2877    7516.3663   -434.93833   -1130.5709    34.293258    18.155491    45.077894    20.499699    90.174094    107.83019    90.055628 
   10500    285.36637   -9554.9445   -8412.5579   -9554.9445            0    8456.6859    18.013109    45.720148    19.398775 0.0013933109   -6.5018334   0.15441648    15976.095    9225.3251    8171.4009    7973.3316    902.88052    144.68649    237.63647    18.013109    45.720148    20.459965    89.568125    108.52892    89.998254 
   11000     278.9191   -9584.3975   -8467.8208   -9584.3975            0    9001.3848    17.910774    46.146897    19.252007  -0.39677843   -6.5719156  0.075970078    15912.296    8830.2605    8331.0469    9842.8471    396.01974    386.14515    272.20107    17.910774    46.148602     20.34295    89.626892    108.84785    90.492626 
   11500    281.20537   -9603.3277   -8477.5985   -9603.3277            0    8953.2474    17.968042    45.653707    19.327214  -0.17833743   -6.4250936   0.13823383    15854.263    7932.8386    9735.1336    9191.7701    237.74109   -189.18323     -1336.54    17.968042    45.654055    20.367674    89.540533    108.38831    90.223814 
   12000    274.96037   -9515.8136   -8415.0845   -9515.8136            0    9590.1619    18.105951    45.163831    19.386005   -0.1097282   -6.1830632  -0.01453732    15852.598    8480.6735    11067.682    9222.1299    76.070747   -33.250989    571.79342    18.105951    45.163964    20.348162    89.998635     107.6898    90.139203 
   12500    291.87317   -9599.1604   -8430.7256   -9599.1604            0    8055.2571    17.989775     45.74015    19.370858  -0.38332272   -6.1102815    0.1149032    15939.407    7839.4665    7757.2197    8569.0851    258.28164   -232.42646   -480.80301    17.989775    45.741756    20.312038    89.531451     107.5069    90.480153 
   13000      277.621   -9539.2121   -8427.8319   -9539.2121            0    7587.5121    17.839582     46.58748    19.221881  -0.42265693    -6.380124   0.19988144    15975.327     6351.673     7108.785    9302.0783   -142.95573    356.81949   -146.64306    17.839582    46.589397    20.254052    89.270833     108.3611    90.519792 
   13500    279.73546    -9630.123   -8510.2782    -9630.123            0    7752.4058    17.976754    46.051322    19.301132  -0.18563191   -6.4710095   0.12255347    15978.506    7198.7448    8082.1499    7976.3226    202.68178    803.81791   -494.54659    17.976754    46.051696    20.357374    89.581658    108.53419    90.230957 
   14000    268.77073   -9605.3852   -8529.4347   -9605.3852            0    7409.7872    18.118392    45.470758    19.367507  -0.15660568   -6.4560252  0.051929301    15956.057    6208.3817    7416.9783    8604.0015    135.19439   -126.70671    1633.1086    18.118392    45.471028     20.41527    89.791857    108.43539    90.197331 
   14500    260.13367   -9580.1789   -8538.8045   -9580.1789            0    7645.7303    18.000095    45.728076    19.403746 -0.051908228   -6.3609214   0.16753579    15971.412    7751.4855    7850.7645     7334.941    37.745421    317.05271    121.03126    18.000095    45.728106    20.420449    89.509662    108.14951    90.065039 
   15000    281.06771   -9593.0326   -8467.8545   -9593.0326            0    7011.6317    17.991217    46.301981    19.240685  -0.31922107   -6.3499604   0.10078134    16028.048    7135.4151    6430.3449    7469.1352   -1018.0541   -155.68785    694.75036    17.991217    46.303081    20.261691    89.591221    108.26409     90.39501 
   15500    273.11644   -9569.8063    -8476.459   -9569.8063            0    7033.6745    17.956807    46.353123    19.304641  -0.60938982   -6.4449026  0.052399477    16068.296    7910.8033    6049.5848    7140.6354    239.29495   -837.82808    1494.0938    17.956807    46.357128    20.352117    89.613983    108.46165    90.753206 
   16000    274.10098   -9575.9523   -8478.6636   -9575.9523            0    6233.6482    18.153425    45.494542    19.497844  -0.35210277   -6.5533342   0.28049882    16102.914    5864.8928    6980.0337    5856.0181   -414.46354    47.240795   -447.51719    18.153425    45.495904    20.571602    89.077483    108.57599    90.443429 
   16500    281.62145   -9605.3569   -8477.9621   -9605.3569            0    7218.6683    18.126533     45.70453    19.330472  -0.25032911   -6.4470065  0.055302528    16014.614    7237.9828    6863.0302     7554.992    1183.6265   -525.66475    494.77315    18.126533    45.705216    20.377294    89.745221    108.44426    90.313813 
   17000    279.83448   -9581.4617   -8461.2205   -9581.4617            0    8706.9652    17.883295    46.093222    19.308787  -0.12310582   -6.3258211  0.097404552    15916.208    8788.7197    8966.6041    8365.5717   -367.80976   -140.37502    606.47598    17.883295    46.093386    20.318828    89.677693    108.13928    90.153025 
   17500    266.29263   -9531.6752   -8465.6451   -9531.6752            0    10059.967    17.970373    45.870808    19.240398  -0.30574971   -6.3355539   0.27187948     15860.16    9847.8356    9829.6713    10502.395   -88.298663    85.591999   -1514.6439    17.970373    45.871827    20.258482     89.11161    108.22418    90.381897 
   18000    286.65056   -9674.4121   -8526.8846   -9674.4121            0    9080.3197    18.041389    45.378646    19.359378  -0.64253559   -6.4392652 -0.010182763    15849.403    8764.3136    9978.5905    8498.0551     152.6234    270.91742    934.87688    18.041389    45.383195      20.4022    89.772567    108.39802    90.811221 
   18500    266.18378   -9562.9042   -8497.3099   -9562.9042            0    8558.0254    17.951243    45.793099    19.363714   -0.1238858   -6.4833307   0.11363157    15917.806    10007.356    8313.7016    7353.0191   -397.23208   -277.93004    -997.3722    17.951243    45.793266    20.420575     89.63196    108.51121    90.155004 
   19000    273.87731   -9589.3677   -8492.9745   -9589.3677            0    7878.8204    17.976733    46.358829    19.148619  0.030475321   -6.4629202   0.16975496    15958.081    7996.3599    7769.6229    7870.4786   -806.53393    761.20099    90.450884    17.976733    46.358839    20.210585    89.530794    108.64956    89.962335 
   19500    272.29546   -9569.2285   -8479.1677   -9569.2285            0    7101.9633    17.945989    45.824085    19.478281    -0.881077    -6.326485  -0.12819369     16018.13    8415.2304    6833.0789    6057.5807    1222.7334    123.57371    1618.4047    17.945989    45.832555    20.480338    90.018326    107.99327    91.101512 
   20000    268.65078   -9623.2682   -8547.7979   -9623.2682            0    7281.1569    18.118117    45.361196    19.452559  -0.10054656   -6.3160988   0.17898011    15987.269     7754.316    8003.6035    6085.5513   -687.07149     287.5853   -1495.1107    18.118117    45.361308    20.453048    89.459392    107.98751       90.127 
   20500     270.7781   -9587.3183   -8503.3319   -9587.3183            0    7518.6716    18.062152    45.806836    19.317559  -0.16176107   -6.3675547   0.16512627     15982.77    8307.1554    7198.5724     7050.287   -487.08766   -1425.5661   -820.07993    18.062152    45.807122    20.340627    89.471526     108.2429    90.202332 
   21000    276.02508   -9603.4596   -8498.4683   -9603.4596            0    7415.3653    17.984154     45.93448     19.32685   -0.5117701   -6.4971102 0.0077517275    15965.771    6653.1604    7346.3825     8246.553   -81.840739   -419.21328   -37.659798    17.984154     45.93733    20.389694    89.774823    108.58111    90.638323 
   21500    276.58323   -9653.9408   -8546.7151   -9653.9408            0    8041.7017    18.081857    45.754598    19.272515  0.047035803    -6.605591    0.2545723    15944.693    7435.5596    8169.6618    8519.8838   -1449.9476    549.35772   -655.98234    18.081857    45.754622    20.374702    89.303195    108.91745      89.9411 
   22000    274.27299   -9577.5098   -8479.5325   -9577.5098            0    7109.5352    17.989796     45.74038     19.40437   -0.1370668   -6.4237827  0.098518002    15967.082    8039.2754    6783.8503    6505.4798   -992.15432   -348.94374   -430.84993    17.989796    45.740585    20.440261    89.669887    108.31681    90.171693 
   22500    281.77805   -9602.6408   -8474.6191   -9602.6408            0      8073.67    17.955638    45.920061    19.363503  -0.64945698    -6.256569 -0.086625706    15965.673     8201.972    8309.9604    7709.0778    1117.3549   -55.859755    1649.5038    17.955638    45.924654    20.349384    89.994757    107.90607    90.810292 
   23000    264.71122   -9599.7793   -8540.0799   -9599.7793            0    7902.4209    18.039833    45.790052    19.279531  0.050241095   -6.3491867   0.32845898    15925.759     6837.611    8570.1727     8299.479    -1319.302   -393.06343   -2315.0954    18.039833    45.790079    20.300748    89.092599    108.22542    89.937135 
   23500    268.99774   -9571.7533    -8494.894   -9571.7533            0    8127.0918    18.017659    45.734985    19.377998  -0.37961815   -6.6081172 0.0025393077    15968.194    7620.1026     8458.926    8302.2468    101.76228    447.35911    301.82644    18.017659     45.73656     20.47374    89.839401    108.82996    90.475566 
   24000    277.75901   -9516.8911   -8404.9585   -9516.8911            0    8622.5133    18.066962    45.792716    19.340445   -0.2755497   -6.6582076  0.035866629    16001.032    8230.6649     9128.789    8508.0859   -768.90993    953.83625   -71.574273    18.066962    45.793545    20.454482     89.78731    108.99668    90.344763 
   24500    283.01808   -9611.9516   -8478.9658   -9611.9516            0    7094.5742    18.015381    45.898858    19.343774   0.10597885   -6.3568836   0.20935412    15995.084    7321.8212    7108.9788    6852.9225   -745.03443    49.692686   -1837.7032    18.015381     45.89898    20.362597    89.452218    108.19092    89.867706 
   25000    274.16876   -9552.0735   -8454.5135   -9552.0735            0    6961.2633    17.945697      45.7323    19.534709  -0.23891318   -6.0231098  -0.14121636    16032.097    8361.3562    7659.5221    4862.9117    282.12759   -416.98203    1220.8786    17.945697    45.732924    20.442668    90.307601    107.13561     90.29932 
   25500    273.47295    -9567.083   -8472.3084    -9567.083            0    7734.9963    18.143746    45.719707    19.270575   0.10025563   -6.2641241   0.16884346    15985.458    5412.9041    8477.8691    9314.2156   -214.01403    145.59546    462.95828    18.143746    45.719817    20.263831    89.561432    108.00671     89.87436 
   26000    278.70125   -9553.4482   -8437.7436   -9553.4482            0     7810.209    18.012847    45.928819    19.323826  -0.35615335   -6.6554873   0.21308312    15986.771     9163.448    7561.0157    6706.1634     167.0079    119.39608   -115.53057    18.012847      45.9302    20.438962    89.257998    109.00359    90.444289 
   26500    271.91891   -9621.4147   -8532.8614   -9621.4147            0    6660.1653    17.985111    45.938695    19.376238  -0.59631215   -6.6223106   0.04419508    16008.891    6497.2743    6314.4463    7168.7754    176.91942   -339.30827    749.56732    17.985111    45.942565    20.476707    89.635837    108.86909    90.743692 
   27000    279.63339   -9572.8704   -8453.4342   -9572.8704            0    8830.3087    17.976058    45.914575     19.31681  0.042651466    -6.225101   0.15800024    15943.381     9622.788    8229.4869    8638.6514    721.74188   -150.66676    469.06321    17.976058    45.914595    20.295714    89.570279    107.86167    89.946776 
   27500    281.29765   -9585.0154   -8458.9167   -9585.0154            0    7792.0293    17.966277    45.943146    19.344793 -0.036410767   -5.9626638  0.048016265     15967.72    8722.9325    7382.6312    7270.5242   -828.37625   -919.62139    76.195763    17.966277     45.94316    20.242942    89.850719    107.13087    90.045408 
   28000    270.36001   -9582.8537   -8500.5409   -9582.8537            0    7343.1035    18.037428    45.712087     19.41765  -0.81772311   -6.1970975 -0.075066806    16010.405    7694.4375    7326.3234    7008.5497    896.85296   -644.55862     1335.921    18.037428      45.7194    20.382708     89.89941    107.70024    91.024829 
   28500    278.11029    -9594.834   -8481.4952    -9594.834            0    7452.6085    18.100019    45.563478    19.405066  -0.40804445   -6.7953409   0.32144652    16003.355    6604.1184    7459.7484    8293.9587   -721.19928   -138.49617   -1283.7886    18.100019    45.565305    20.562991    88.934752    109.29698      90.5131 
   29000    266.11761   -9573.3984    -8508.069   -9573.3984            0    8472.6177     18.01472    45.808323    19.342268   -0.3336751   -6.7229188  0.077178126    15961.706    8330.3224    8757.9427    8329.5879   -62.626155    593.71084    806.70555     18.01472    45.809538    20.477473    89.647044    109.16611    90.417344 
   29500    288.06133   -9602.5987   -8449.4235   -9602.5987            0    8467.3399    17.948705    46.029259    19.280908 0.0011795423   -6.3165307  -0.01177909    15929.222    9435.2831     6490.273    9476.4635   -59.643783   -1101.3259    1004.6007    17.948705    46.029259    20.289212    90.033721    108.13908    89.998532 
   30000    279.25355   -9530.6992   -8412.7836   -9530.6992            0    8927.4103    17.997793    45.910978     19.31824   0.10892845   -6.1202488   0.22784829     15962.59    7486.1771    9132.8537      10163.2   -1268.6972   -112.64687   -755.74484    17.997793    45.911107    20.265827    89.396869    107.57768     89.86406 
   30500    262.29237   -9538.6269   -8488.6108   -9538.6269            0    7717.9574    18.013024    45.845637     19.38115  -0.61467129    -6.276831   0.18748511    16005.313    8038.9259    7566.4176    7548.5286   -85.920595   -50.735809    150.47375    18.013024    45.849758    20.373088    89.236102    107.94442    90.768142 
   31000    273.01454   -9534.4828   -8441.5434   -9534.4828            0     8635.018    18.012767    45.830002     19.31078  -0.38814072   -6.6621987   0.10424512    15941.534    10711.752    7646.3543    7546.9479    441.17802   -158.84796    182.18604    18.012767    45.831646     20.42797    89.549374    109.03412    90.485234 
   31500    278.82412   -9589.9473   -8473.7508   -9589.9473            0     9342.024     18.04227    45.698834     19.27929 -0.045194195   -6.6736127  0.057246646    15895.981    8492.7619    10314.653    9218.6575   -602.62923    345.31087    754.47509     18.04227    45.698856     20.40175    89.820695    109.09345    90.056663 
   32000     274.3943   -9565.7499    -8467.287   -9565.7499            0     9335.806    17.890106    45.777427    19.359556  -0.48713214   -6.3068733  0.022398286    15854.761    9484.4406    9550.2938    8972.6836    154.52823   -306.22691    245.80529    17.890106    45.780019    20.360982    89.748128    108.04434     90.60968 
   32500    279.43242    -9558.446   -8439.8144    -9558.446            0      9011.17    17.976192    45.835954    19.238286  -0.38999361   -6.0555623   0.24734485      15851.5    7379.7517    9700.7068    9953.0515    463.93583    142.92019   -969.97627    17.976192    45.837613    20.170341    89.151035    107.47088    90.487487 
   33000    279.81546    -9555.104   -8434.9389    -9555.104            0    8984.1664    17.965968     45.78653    19.298047  -0.23114661    -6.328666  0.012186531    15874.561    9216.2587     8998.275    8737.9655   -497.09568    628.98795   -166.89122    17.965968    45.787113    20.309278    89.875487    108.15656    90.289247 
   33500    276.73712   -9610.2337   -8502.3919   -9610.2337            0    9195.6245    18.008739    45.595419    19.369501 -0.00050433858   -6.7690226 -0.065389973    15904.607    9687.5418    9382.9762    8516.3557   -596.71357    862.63427   -261.32063    18.008739    45.595419    20.518322    90.182388    109.26279    90.000634 
   34000    272.68838   -9626.7195   -8535.0857   -9626.7195            0    8309.7025    18.030076    45.673818    19.292574  -0.20989934   -6.6758395    0.1993327    15887.481    7471.7654    8366.9737    9090.3684    307.89332   -333.78609    704.22888    18.030076      45.6743    20.415925    89.354481    109.08629    90.263308 
   34500    265.76575   -9596.9622   -8533.0413   -9596.9622            0    7573.8673    17.857524    46.014066    19.337493  -0.93650777   -6.2480184   0.19555863    15889.566    7479.3226    7378.4422    7863.8371    800.97626    79.930958   -521.25472    17.857524    46.023596    20.322761    89.090302    107.90499    91.165959 
   35000    272.94168   -9666.0164   -8573.3686   -9666.0164            0    6644.5116    18.066759    45.979366    19.256829  -0.25644516   -6.1930129  0.088819483    15996.612    5511.6993    6214.8449    8206.9904   -126.20398   -990.58179   -1117.3475    18.066759    45.980081    20.228365    89.650592    107.82766    90.319558 
   35500    280.77229   -9596.2593   -8472.2639   -9596.2593            0    8331.9152    17.973326     45.79182    19.417147   0.25912892   -6.3369218 -0.0087888501     15980.92    7604.6525    9098.3767    8292.7165     -1012.11    582.54513   -345.16604    17.973326    45.792553     20.42504    90.125245    108.07445    89.675775 
   36000     278.1075   -9606.9859   -8493.6582   -9606.9859            0    8346.3475    17.965951    45.935553     19.28806  -0.33244816   -6.4880043  0.093695235    15917.971    7991.0999     8089.091    8958.8516    -336.9968   -231.26977    970.65534    17.965951    45.936756     20.35024    89.604007     108.5914    90.414658 
   36500    278.79038   -9585.5589   -8469.4975   -9585.5589            0     7442.162    18.113023    45.904435     19.25059  -0.53623632   -6.6357863   0.30703011    16006.252     7472.556    7603.0115    7250.9184    834.99122   -167.44274   -1107.6162    18.113023    45.907567    20.364507    88.918083    109.01711    90.669275 
   37000    262.43682   -9555.0465   -8504.4521   -9555.0465            0    6999.4945       18.085    45.443565    19.517694 -0.036958554   -6.5945239  0.045441754    16040.556    7751.3234    7325.3685    5921.7915    395.56828   -649.25329   -1276.6952       18.085     45.44358    20.601704    89.858705    108.66873    90.046598 
   37500    281.98975   -9639.3844   -8510.5151   -9639.3844            0    6056.3372     18.07766    45.686696    19.465797   0.40609679   -6.4202867  -0.17050759    16076.968    5127.7605    6457.9954    6583.2556    107.39099   -394.82301    1564.1282     18.07766      45.6885    20.497961    90.636106    108.25314    89.490727 
   38000    281.10918   -9572.3323   -8446.9882   -9572.3323            0    7236.8295    18.001646    46.272093    19.264079 -0.070060869   -6.3221829   0.15329223    16046.474    8034.9671    6254.0871    7421.4344   -348.73427   -66.457169   -443.90577    18.001646    46.272146    20.275558    89.539764    108.16853    90.086752 
   38500     270.1504   -9557.9165   -8476.4429   -9557.9165            0    8168.2702    17.888938    46.013574    19.407517  -0.68026787   -6.3714774   0.21748754    15974.987    8946.5483    8104.9653    7453.2969   -596.00371   -402.34862   -294.08877    17.888938    46.018602    20.427793    89.125852    108.17391    90.847003 
   39000    283.09655   -9651.1557   -8517.8557   -9651.1557            0    8284.7438    18.054057    45.565208    19.354017  -0.42575953   -6.6030492    0.1890185    15921.328    8124.8961    8059.2908    8670.0444    681.54664       796.67    333.96233    18.054057    45.567197     20.45028    89.297576    108.83737    90.535354 
   39500    280.24832   -9565.1129    -8443.215   -9565.1129            0     9061.926    18.114794    45.577603    19.279463   0.15213923   -6.7060255 -0.022510254    15917.681    9780.9513    8942.9792    8461.8476   -563.90589    790.17522   -897.33224    18.114794    45.577857    20.412471    90.126016    109.17933    89.808746 
   40000    269.53583   -9580.0903   -8501.0769   -9580.0903            0    7822.7962    17.753784    46.326391    19.387019  0.017735812   -6.3523832  -0.14042272    15945.217    9668.1113    6526.0647    7274.2125   -93.003008   -166.46255    739.76422    17.753784    46.326394    20.401691    90.401194    108.14154    89.978065 
   40500    270.71582   -9588.9122   -8505.1751   -9588.9122            0    8529.7375    17.980348    46.021191    19.244135   -0.3502574   -6.2533507   0.18608967    15924.079    8085.7792    8896.0021    8607.4312   -714.41925   -565.50943   -654.91432    17.980348    46.022523    20.235507    89.338344     108.0007    90.436057 
   41000    269.86341   -9600.1504   -8519.8257   -9600.1504            0    7594.4973    18.111092    45.426833    19.353731  -0.50285654   -6.3819644   0.27776486    15922.886    7292.5296    7766.1594    7724.8029   -490.24394   -403.26486   -1336.8809    18.111092    45.429616    20.380714    89.020535    108.24841    90.634215 
   41500    279.50268   -9572.4568   -8453.5438   -9572.4568            0    8098.8821    18.025179    45.641314    19.420231  -0.51578792   -6.6245215  -0.11093158    15976.885    6946.7648    9023.1696     8326.712     313.5337     853.2279     2138.622    18.025179    45.644228    20.519307    90.100707    108.83497    90.647466 
   42000    270.83505   -9562.1941   -8477.9797   -9562.1941            0    7273.9643    18.010549    46.184032     19.24825   0.16921059   -6.5938401   0.08069365     16010.69    7161.8654    7655.7699    7004.2578   -775.34247    600.93462    74.047348    18.010549    46.184342    20.346507    89.840798    108.90968    89.790079 
   42500    270.04717   -9547.8233   -8466.7629   -9547.8233            0    8898.2689    17.896548    46.208374    19.254891 -0.015825432   -6.3434739   0.24769629    15923.225    10433.097     7088.289    9173.4207    894.49133   -390.63256    712.04823    17.896548    46.208377    20.274414    89.293849    108.23292    90.019623 
   43000    276.29643   -9562.4105   -8456.3329   -9562.4105            0     8589.873    18.033395    45.473102     19.48522  -0.64499055   -6.1849829  0.039844692    15978.552    7524.1558    9966.9544    8278.5088   -7.6738254   -359.78283    225.59048    18.033395    45.477676    20.443322    89.642491     107.6104    90.812629 
   43500    277.67401   -9587.3852   -8475.7929   -9587.3852            0    7660.6099    18.158646     45.53302    19.313101  -0.25326209   -6.2977704   0.10905301    15968.419     7458.499    7990.8626     7532.468    988.34981   -392.16178    572.50671    18.158646    45.533724    20.314272    89.593623    108.06026    90.318685 
   44000    269.51021   -9574.3987   -8495.4879   -9574.3987            0    9295.0875    17.847252     46.24233    19.276029  0.074968439   -6.4890497  0.087404138    15908.478      10524.1    8028.0686    9333.0939    491.52353    -67.00512    332.71663    17.847252    46.242391    20.339142    89.783416    108.60503    89.907112 
   44500    277.92929   -9604.5244   -8491.9101   -9604.5244            0    8253.7214    17.915453    46.192872    19.241863  -0.20423549   -6.5811128 -0.0027146325    15923.916    6919.6932    9086.0245    8755.4464   -391.98109    1350.0295   -365.34553    17.915453    46.193323    20.336183    89.925669    108.88174    90.253324 
   45000    267.41328   -9627.0253    -8556.509   -9627.0253            0    8210.6197    18.137318     45.46082     19.28833  -0.39282167   -6.3276312   0.21223046    15903.948    5712.3755     8247.638    10671.846    377.87079   -1107.3105   -1119.3147    18.137318    45.462517    20.300828    89.246706     108.1613    90.495074 
   45500    265.30527   -9575.5558   -8513.4784   -9575.5558            0    8731.5273    17.995975    45.367293    19.524243  -0.44296541   -6.2670691   0.11879948    15940.152    9268.0769    9075.3304    7851.1748    418.25415    923.45637   -1734.1924    17.995975    45.369456    20.505764    89.497099    107.79575    90.559417 
   46000    286.84884   -9588.2784   -8439.9571   -9588.2784            0     8108.851    18.000843    46.077345    19.236962  -0.13629676   -6.4924142 -0.076474636    15955.733    7094.9718    7862.2849    9369.2962   -85.903245    133.39928   -239.94392    18.000843    46.077546    20.303153    90.161616    108.64924     90.16948 
   46500    276.26826   -9587.7961   -8481.8313   -9587.7961            0     8444.318    18.026867    45.940963    19.200043   0.13194642   -6.5560864   0.12620569     15900.93    8146.2174    8578.4966    8608.2399   -189.77778    128.20712   -4.1933291    18.026867    45.941152    20.288909     89.69677    108.85271    89.835442 
   47000    271.60175   -9587.6235   -8500.3398   -9587.6235            0    6906.7533    17.992844    45.534541    19.549768  -0.45758247   -6.4413388    0.1019218    16017.045    6818.8168    7446.9581    6454.4851    123.36073    1024.4361    -796.6972    17.992844     45.53684    20.583845    89.536138      108.236    90.575753 
   47500    274.85527   -9553.0815   -8452.7732   -9553.0815            0    6771.4153    18.126817    45.838725    19.387477  -0.38094862   -6.4085972   0.10342052    16109.252    6955.8204    7479.8022    5878.6232    239.29605    255.86553    710.74253    18.126817    45.840308    20.419478    89.560377    108.29124    90.476153 
   48000    273.25083   -9591.3083    -8497.423   -9591.3083            0    6290.5816    17.963233    46.071672     19.37816 0.0011333332   -6.4080699   0.10640255    16037.291    6006.6696    5824.2442    7040.8312   -739.00295   -75.427749   -513.59257    17.963233    46.071672    20.410482    89.701751    108.29803    89.998591 
   48500    271.86268   -9577.5336   -8489.2053   -9577.5336            0    7278.4048    18.047615    45.850562    19.361806  -0.34482653   -6.4822858   -0.0142285    16021.765    6261.3401    8577.8822    6995.9923     268.0708    725.97737    24.873129    18.047615    45.851859    20.418124    89.903128    108.51042    90.430894 
   49000     273.4405   -9547.2243   -8452.5797   -9547.2243            0    7908.5736    18.118551    45.565961    19.386765  -0.62924989   -6.5315794   0.23491443    16005.504    7111.7365    9648.8978    6965.0865    379.13266    34.217847   -757.26686    18.118551    45.570305    20.458821    89.089555    108.61787    90.791184 
   49500    290.95823   -9539.6194   -8374.8473   -9539.6194            0    6509.5907    17.991069    45.883251    19.502996  -0.13903325   -6.4172599   0.36189014    16099.504    7204.7914    6515.9889    5807.9917    197.48683   -979.08378   -1969.0925    17.991069    45.883461    20.534825    88.935951    108.21033    90.173614 
   50000    282.44471   -9564.1153   -8433.4247   -9564.1153            0    8263.5739    18.003864    46.259445     19.18282 -0.084668311   -6.3344617  -0.13250385    15976.388    7807.2714    7567.7376    9415.7126    901.48159   -95.427089    1887.4193    18.003864    46.259522    20.202068    90.342918    108.27361    90.104868 
   50500    268.53385   -9568.2838   -8493.2816   -9568.2838            0    8692.8375      17.9154    45.860556    19.377215   0.12300939    -6.282232 0.0031592795    15920.517    7736.6499    9083.1713    9258.6912   -512.90464    517.48555   -405.41472      17.9154    45.860721    20.370147     90.03851    107.96307    89.846319 
   51000    270.33284   -9536.4565   -8454.2525   -9536.4565            0    8870.4036    18.065636    45.423983    19.413584  -0.34599854   -6.4117649   0.15422158    15931.042    8253.0694    9624.9963     8733.145    259.83754   -380.17373    636.82468    18.065636    45.425301     20.44558    89.430959    108.27641    90.436419 
   51500    277.86847    -9590.617   -8478.2462    -9590.617            0    8621.7929    18.049024    45.934488    19.202499  -0.65052026   -6.4260675     0.265697    15920.267    7336.9777    8745.5266    9782.8744    145.57931    720.84669    530.04352    18.049024    45.939094    20.250949    88.990835    108.50104    90.811364 
   52000    277.65403   -9613.6304   -8502.1181   -9613.6304            0    8727.1948    17.674282    46.368355    19.341582  -0.37734937    -6.210677  0.071147658    15850.956    9741.6664    8175.1796    8264.7385   -289.81631    273.61312   -42.871454    17.674282     46.36989    20.314388    89.656787    107.80197    90.466267 
   52500    281.53603   -9545.6007   -8418.5479   -9545.6007            0    9073.7715    17.951508     45.94178    19.298787   0.22733991   -6.2225832 0.0039023008    15916.178    9763.8782    8494.4867    8962.9497    194.81744   -409.65815    917.46354    17.951508    45.942343    20.277173     90.07598    107.87108    89.716478 
   53000    280.46765   -9607.1204   -8484.3445   -9607.1204            0    8238.4064     18.15685    45.458403    19.294686  0.083679867   -6.4230914  0.082663571    15925.475    7379.6037    8610.7885    8724.8269    1113.9319    354.26367    1285.8088     18.15685     45.45848    20.335876     89.80041    108.41215     89.89453 
   53500    280.45961   -9611.4706   -8488.7269   -9611.4706            0    8589.7375    17.947423     45.73975    19.472545  -0.63048013   -6.5840864  0.084667567     15985.22    9543.6602    8770.2767    7455.2756    1625.1021    1147.4695    634.88872    17.947423    45.744095    20.555714    89.511077    108.68134    90.789719 
   54000    271.21546     -9548.11   -8462.3727     -9548.11            0    6873.5533    18.007297    46.189478    19.260454  -0.33428222   -6.6230261    0.3246117    16019.837    7012.0918    6891.2959    6717.2723   -661.34632    498.80328   -73.931641    18.007297    46.190687    20.369952    88.952093    108.97388    90.414653 
   54500    262.41793   -9586.4489   -8535.9301   -9586.4489            0    8828.0497    18.017201    45.764437     19.35023  -0.10061777   -6.4847655    0.1276272    15955.175    8825.3714    8526.3085    9132.4692   -298.39818    656.64065    1026.5165    18.017201    45.764547    20.408328    89.601661    108.52697     90.12597 
   55000    277.09076    -9576.099   -8466.8415    -9576.099            0    8767.3259    17.967004     45.64438     19.46704  -0.23685394   -6.2996712  -0.17395184    15964.778    7104.6087    9326.2873    9871.0818    -90.09916   -237.09605    413.40304    17.967004    45.644994    20.461714    90.395552    107.93128    90.297312 
   55500    270.01495   -9617.5529   -8536.6215   -9617.5529            0    7715.3963    18.042793    45.878781    19.272588  0.079947787   -6.2837306   0.22613132    15953.489    7104.8873    7806.3641    8234.9375   -375.97045   -66.218664   -241.15104    18.042793    45.878851    20.272372    89.391823    108.05714    89.900157 
   56000    278.55002    -9548.216   -8433.1168    -9548.216            0    7596.5774     17.99452    45.960293    19.335292  -0.59879479   -6.4840689  0.053846597    15990.933    8158.4251    7690.8061    6940.5009    1582.7622    290.26964    1243.4638     17.99452    45.964194    20.393616    89.611408    108.53875    90.746437 
   56500    271.48756   -9582.7824   -8495.9558   -9582.7824            0    7866.9735    17.964389    45.654999      19.4455  -0.43378463   -6.5809741  0.087206307    15948.502    7830.4684     8845.994     6924.458    1039.6607     1337.054    60.451703    17.964389     45.65706    20.529109    89.582113    108.69727    90.544372 
   57000    270.95966   -9559.3719   -8474.6587   -9559.3719            0    8927.1559    18.138365    45.648574    19.226708   0.16664476   -6.4139811   0.16399039    15919.532    8377.0914    8390.8994    10013.477   -424.24708   -517.06972   -970.28561    18.138365    45.648878       20.269    89.602625    108.44794    89.790837 
   57500     276.1933   -9587.8808   -8482.2161   -9587.8808            0    7832.9794    17.842826    46.002723    19.417463   -0.3465963   -6.1151442  -0.10762626    15938.214    8876.6583    7966.2704    6656.0094    1005.1227    432.24271    1064.7613    17.842826    46.004028    20.357908    90.173232    107.48053    90.431673 
   58000    271.92656   -9577.9609   -8489.3769   -9577.9609            0    8848.5957    17.927073    46.038551    19.343415  -0.22556423   -6.2654197  0.095448494    15964.826    9755.2077    8481.7285     8308.851   -93.979324    937.71752    505.32706    17.927073    46.039104    20.333034     89.64454    107.94717    90.280716 
   58500    275.38409   -9572.7351   -8470.3098   -9572.7351            0     7813.775    18.143308    45.770739    19.266744 -0.070552669    -6.725607   0.37507896    15999.733    7577.7113    8050.4783    7813.1353   -875.05596   -46.901358   -435.77854    18.143308    45.770794    20.410338    88.917915    109.23962    90.088318 
   59000     275.8714   -9551.9543   -8447.5782   -9551.9543            0    8018.4103    17.924495    45.796542    19.469305  -0.61071173   -6.8354543 -0.082299437     15981.96    7969.5508    8817.8392    7267.8409    1554.6822    1567.1799    947.21172    17.924495    45.800614    20.634535    89.975419    109.34544    90.764012 
   59500    275.26323   -9556.0535   -8454.1121   -9556.0535            0    9163.5216    18.004776    45.824704    19.272075  -0.14609181     -6.51788  0.064764918    15900.687    8740.9465    9104.2626    9645.3557    -194.5866   -11.238463    11.996067    18.004776    45.824937    20.344529    89.759084    108.68561    90.182662 
   60000     266.2411   -9588.1427   -8522.3189   -9588.1427            0    8865.5557    17.950316    45.771878     19.35569  -0.16255885   -6.2570754  0.086230723    15903.016     9458.477    8411.6346    8726.5555    446.43625    486.44149   -941.63296    17.950316    45.772167    20.342103    89.694531    107.91419    90.203485 
   60500    265.12695   -9586.6907   -8525.3271   -9586.6907            0    8439.8776    18.002246    45.700425    19.369185  -0.36942251   -6.2697631  0.055448654    15935.229    8420.6071    9076.4003    7822.6254    832.67445    191.33095    338.73554    18.002246    45.701918    20.358741    89.701324    107.93659    90.463144 
   61000    269.28727   -9583.5162   -8505.4979   -9583.5162            0    7135.8318    18.101317    45.958913    19.250987  -0.14933025   -6.5504046   0.26610726    16015.221    6384.2959    7463.6131    7559.5865   -632.70488    46.923248   -666.99825    18.101317    45.959156    20.336645    89.190292    108.78989    90.186165 
   61500    284.14089    -9571.476   -8433.9952    -9571.476            0    8117.8653    17.898566    45.903553    19.462034  -0.40879162    -6.855547   0.12599224    15990.158    8482.1174     8299.433    7572.0456    556.54763    1703.5464    429.90321    17.898566    45.905373    20.634563     89.48065    109.40456    90.510231 
   62000    278.33153   -9572.4692   -8458.2447   -9572.4692            0    8381.5739    18.149993    45.657937    19.287984  -0.43284629    -6.691818 -0.057405861    15983.783    7696.8905    8721.5008    8726.3304    409.98412    1393.3452    739.92995    18.149993    45.659989    20.415926    89.983067    109.13375    90.543159 
   62500     261.7859   -9579.5236    -8531.535   -9579.5236            0    7184.5401    18.082516    45.552465    19.422756 -0.014842464   -6.2411269   0.25936538    15998.586    7030.6948    7472.7114    7050.2141   -578.78006   -929.58038   -1640.9508    18.082516    45.552467    20.402509    89.265901    107.81232    90.018669 
   63000    284.72113   -9540.3935     -8400.59   -9540.3935            0    8380.3887    17.971282      45.7803     19.40553   -0.2679838    -6.232351   0.17161504    15965.525     9305.894    7968.1696    7867.1026    1317.2399    221.40871    617.35112    17.971282    45.781084    20.382498    89.415032    107.80448    90.335388 
   63500    274.19129   -9620.6971   -8523.0469   -9620.6971            0    6494.0805    18.009453    46.156593    19.211001  -0.30674887   -6.5221859   0.01168622     15969.24    6941.1842    6084.0843     6456.973     534.8644   -159.28423   -599.84572    18.009453    46.157612    20.287967    89.844587    108.75248    90.380772 
   64000    280.25818   -9558.8679   -8436.9306   -9558.8679            0    8050.8456    17.928785    45.858961    19.436524   0.29878035   -6.5942428 -0.017275794    15980.622    7144.5648    8853.5166    8154.4554   -283.17868    1321.4864    1179.6517    17.928785    45.859934    20.524688    90.168156    108.74056    89.626712 
   64500    269.17621   -9586.9355   -8509.3618   -9586.9355            0    7368.0876    18.081474    45.683328    19.406153  0.076062762   -6.3387096   0.13944065    16029.907    6377.9795    7590.6708    8135.6125   -958.22027   -910.50111   -449.24882    18.081474    45.683391    20.415618    89.638282    108.08836    89.904603 
   65000    262.94193   -9612.8165   -8560.2001   -9612.8165            0    7172.9278    18.077945    45.799849    19.329397  -0.82669592   -6.1419474    0.1537707    16004.106    8804.4799    6826.9832    5887.3203    27.991198   -715.04148    580.42304    18.077945    45.807309    20.282326    89.252533    107.62722    91.034087 
   65500    270.52463    -9589.684   -8506.7122    -9589.684            0    7155.9262    17.872802    46.146438    19.411276   -0.2402993   -6.3537215   0.12533996    16009.763    8078.1509    6888.8149    6500.8129   -510.47231   -746.60386   -1197.7061    17.872802    46.147063    20.425061     89.55559    108.12401    90.298355 
   66000    284.90076   -9538.5123   -8397.9896   -9538.5123            0    7827.1064    18.044061    46.131013    19.259476   0.22863934   -6.7539386 -0.006055393    16031.411    7600.8832    7558.6141    8321.8219   -1150.8495    219.03715    382.55106    18.044061    46.131579    20.409388    90.110972    109.32482    89.716027 
   66500    281.79852   -9550.6628   -8422.5591   -9550.6628            0    8835.1416    18.061646      45.6193    19.389443  -0.41497293   -6.7344179 0.0020287729    15976.119    8131.6513    10268.811    8104.9621    220.92043    355.67447    197.64425    18.061646    45.621188    20.525664    89.823344    109.15334    90.521173 
   67000    274.49604   -9623.1229   -8524.2527   -9623.1229            0    7211.8002    18.023751    45.408699     19.48099  -0.58342482   -6.4548249   0.32822543    15943.926    6660.5159    7634.7431    7340.1418   -561.86078   -227.44638   -1125.5631    18.023751    45.412447    20.525142    88.852271    108.32965    90.736113 
   67500    282.06683     -9607.12   -8477.9423     -9607.12            0    8683.9285    18.048511     45.83499    19.205251  -0.39899421   -6.2358808  0.055503917    15887.607    8974.6515    8850.0533    8227.0808   -511.05845   -80.908173   -230.68927    18.048511    45.836727    20.192349    89.688489    107.98837    90.498748 
   68000    268.35013   -9594.5083   -8520.2416   -9594.5083            0    7062.7576    17.898879    46.077898    19.381203 -0.056140925   -6.1601851 -0.052115187    15984.506    6626.0899    7099.8556    7462.3274   -162.62166   -1041.1842    352.50732    17.898879    46.077932    20.336706    90.125681    107.63245    90.069809 
   68500    276.53735   -9575.6968   -8468.6548   -9575.6968            0    6452.6101    18.067836    46.014543    19.347607  -0.22893174   -6.4251004   0.17385495    16085.276    5770.9779    6961.0251    6625.8272    160.98979    351.76925   -152.36045    18.067836    46.015113      20.3873    89.421565       108.37    90.285056 
   69000     282.1815    -9667.608   -8537.9711    -9667.608            0    6557.4785    18.088413    45.671641    19.397148  -0.73059802   -6.6348688   0.19482009    16024.518     6445.531    6063.4885    7163.4161    1384.6054    331.92877   -934.47522    18.088413    45.677485    20.501434    89.158988    108.88256    90.916468 
   69500    271.08183   -9611.5542   -8526.3519   -9611.5542            0    7419.9088    17.968075     45.80882    19.429641  -0.33079675   -6.4801389  0.025756386    15992.467    7653.9076    7002.1002    7603.7185    483.43377    587.48944   -619.49572    17.968075    45.810015    20.481793     89.79705    108.44447     90.41374 
   70000    270.01775   -9589.0963   -8508.1537   -9589.0963            0    7902.4797    18.002356    46.023974    19.238677    0.3754289   -6.2240825 -0.023673986    15940.013    7666.9847    8055.0883    7985.3661   -706.43156   -486.90707     832.1896    18.002356    46.025506    20.220446    90.210939    107.92738    89.532635 
   70500    271.97716   -9603.0289   -8514.2423   -9603.0289            0     7916.133     17.85693    45.721569    19.428595  -0.32168059   -6.1437371   0.15452757    15862.416    7920.8723      8439.36    7388.1667   -52.442378   -528.30345   -241.75214     17.85693      45.7227    20.377431    89.443978    107.54755    90.403106 
   71000    284.17875   -9629.0754   -8491.4431   -9629.0754            0    8987.6675    18.012896    45.449868    19.407328   -1.0817212    -6.370303   0.36466937    15888.464    8448.5332    8898.9812    9615.4881    779.23521    110.40621   -420.98873    18.012896    45.462739    20.429344    88.552293    108.16902      91.3634 
   71500    274.86049   -9605.6459   -8505.3167   -9605.6459            0    7194.6791    18.108403    45.791006    19.295367  -0.36381475   -6.4980021   0.14799356    15999.757    6254.0987    7025.6042    8304.3343   -126.44346   -554.84963    940.92882    18.108403    45.792451    20.360676    89.438267    108.61121    90.455212 
   72000    277.57743   -9539.7181   -8428.5124   -9539.7181            0    7653.9386    17.999165    45.865755    19.434441   0.10534655   -6.4747695 -0.075441039    16044.011    7745.9662    7972.4839    7243.3658   -1365.6521    568.97633   -389.66002    17.999165    45.865876     20.48477    90.252604    108.42586    89.868401 
   72500    267.09635   -9594.8355    -8525.588   -9594.8355            0     6870.483    18.037609    45.984114    19.296997  -0.22281735   -6.3902124   0.11310568    16005.769    7611.2087    6107.8167    6892.4236   -386.82603    -116.6044   -350.78842    18.037609    45.984654    20.327856    89.593929    108.32203    90.277626 
   73000      271.957   -9639.1921   -8550.4863   -9639.1921            0    6717.8836    18.075332    45.945745    19.338549  -0.85477809    -6.370145   0.32633976    16060.367    4746.1104    7286.1921    8121.3484     555.2693    -356.4129   -216.85958    18.075332    45.953696    20.363318    88.748452    108.22953    91.065812 
   73500    274.47961    -9552.972   -8454.1675    -9552.972            0    6199.7339    18.000826    45.842057    19.524235  -0.49500161   -6.4829156  0.057114179    16111.299    6322.7162    6246.4824     6030.003   -488.54964    793.56338   -849.50164    18.000826    45.844729    20.572487     89.64599    108.36839    90.618655 
   74000    281.62091   -9610.4799   -8483.0872   -9610.4799            0    6398.3515    18.069912    45.791829    19.352454   0.17549186    -6.490562  -0.16072456    16013.272    4956.2015    7545.9471     6692.906    60.425181    262.04881    1035.0226    18.069912    45.792166    20.412513     90.52096    108.54019    89.780422 
   74500    273.86335   -9580.5844    -8484.247   -9580.5844            0    8547.8767    17.966407    45.868807    19.327721 -0.045624326   -6.3938438   0.16748869     15927.93    8475.2275    9137.3356     8031.067    422.89058   -97.051622   -915.18901    17.966407     45.86883    20.358539    89.510726     108.3042     90.05699 
   75000    277.42902   -9544.4652   -8433.8536   -9544.4652            0    8849.4493    17.916405    45.974488    19.323802   -0.9580113   -6.4136005   0.34007367    15916.968    9073.3628    9692.4462    7782.5387    1305.2681   -184.81271   -229.07318    17.916405    45.984469    20.363183    88.667267    108.35844     91.19375 
   75500    281.26994   -9619.4562   -8493.4685   -9619.4562            0    9241.2907    18.060794     45.84515    19.167989  -0.44217832   -6.4945067  0.052356702    15871.092    10019.994    9266.3599    8437.5184    880.73698    119.08367   -157.15691    18.060794    45.847282    20.238408    89.674454    108.71737    90.552603 
   76000     276.8217   -9590.8331   -8482.6528   -9590.8331            0    7978.8305    18.006787    45.645225    19.376935   0.70239547   -6.5804128  -0.20285448    15926.365    8328.6465    7933.8981    7673.9469   -1554.5384    157.61156    101.23743    18.006787    45.650629    20.464814    90.851367    108.75655    89.118394 
   76500    264.87432   -9643.9287   -8583.5764   -9643.9287            0    8488.8044    17.964183    45.752026    19.342623  -0.10540004   -6.4382499  0.095521152    15897.658    8405.4407    8439.9336    8621.0389   -793.35101    187.32684     885.7486    17.964183    45.752147    20.386202     89.68985    108.40997    90.131993 
   77000    268.89584   -9632.4762   -8556.0249   -9632.4762            0    8879.5201     17.95369     45.86105    19.269312   -0.7089664   -6.3347591   0.28527394    15865.871    9698.1617    8575.6237    8364.7751    644.92887   -510.84933    41.536563     17.95369     45.86653     20.28588     88.91774    108.19634    90.885665 
   77500    269.33542   -9573.5451    -8495.334   -9573.5451            0    8374.3495    18.004133    45.691109     19.34928  -0.35713206   -6.4389207   0.10293102    15917.275    7769.8685    9086.6986    8266.4815    696.63976    520.58017    197.55912    18.004133    45.692505    20.392766     89.56941    108.40581    90.447828 
   78000    277.20852   -9520.7676   -8411.0387   -9520.7676            0    8386.6122    18.122639    45.508048    19.427048    0.4104172   -6.5828271 -0.049707769     16021.99    7440.9832    8546.7689    9172.0846   -771.01736   -17.110686   -193.05141    18.122639    45.509899    20.512101    90.304666    108.71882    89.483288 
   78500    266.98939    -9606.809   -8537.9897    -9606.809            0    8820.9836    18.015654    45.886953    19.308715  -0.28185105   -6.4130448  -0.02943424    15962.196    9932.5643    7839.7801    8690.6065   -108.33811   -617.91929   -82.699233    18.015654    45.887819    20.345872    89.971962    108.37297    90.351923 
   79000    275.51729   -9612.9469   -8509.9884   -9612.9469            0    8087.8322    17.873492    46.171384    19.272929  -0.85173094   -6.1659544   0.25583305    15904.866    7497.1776    8530.5944    8235.7246    1122.6896   -475.38215   -657.22837    17.873492    46.179239    20.236853     88.95375    107.73948    91.056825 
   79500    279.84981   -9591.4146    -8471.112   -9591.4146            0    7698.7973    18.003807    46.048465    19.299946  -0.39695198   -6.3053232   0.16888585    16000.575    7561.1292    7019.4407    8515.8221    642.49998   -282.15177   -974.82832    18.003807    46.050176     20.30452    89.370068    108.09165    90.493895 
   80000    282.07558   -9595.5272   -8466.3144   -9595.5272            0    7824.3402    18.132742    45.436377    19.404778  0.026026651   -6.5810386 -0.076237598    15987.326    6360.1717    9393.7653    7719.0836   -882.22904    1315.8423    -106.0816    18.132742    45.436384    20.490517    90.223718    108.73399     89.96718 
   80500    279.94653   -9618.7623   -8498.0725   -9618.7623            0    6049.7325    18.056171    45.884008    19.373167 -0.097068543   -6.5491668   0.11478901    16050.465     6469.568     5998.423    5681.2066   -517.53476   -169.98495   -738.58107    18.056171     45.88411    20.450534     89.63958     108.6777     90.12121 
   81000    276.84718   -9600.9232   -8492.6408   -9600.9232            0    6159.1402    18.019172    46.330709    19.282568  -0.77312691   -6.4553478   0.24522166    16097.879    5846.1476    6655.4831    5975.7899   -281.71569    176.16223   -298.77308    18.019172    46.337159    20.335906    89.005683    108.50793    90.956014 
   81500    268.38359   -9603.5313   -8529.1306   -9603.5313            0    6274.3849    18.010972    45.913396    19.384832  -0.67358493   -6.3129858    0.1321133    16030.188    5806.9539    6453.1386    6563.0621    568.40417   -605.25151   -4.7547689    18.010972    45.918337    20.387324    89.368483    108.03829    90.840513 
   82000    268.02396    -9576.379    -8503.418    -9576.379            0    8288.6308    18.049615    45.422956    19.425935   0.26190335   -6.3197529  0.057221789     15926.68    8842.9815    8604.7358    7418.1752   -700.57101   -623.51365    -1077.895    18.049615    45.423711    20.428154     89.94171    108.02096    89.669643 
   82500     291.5199   -9563.8184   -8396.7978   -9563.8184            0    8239.9198    18.055847    45.878157    19.242449  0.013953768   -6.4860564  0.074602576    15939.847    8281.3781    8638.0107    7800.3706   -646.48436    2.7510764    46.571137    18.055847     45.87816    20.306312    89.795069     108.6273    89.982574 
   83000    281.34946   -9628.5251   -8502.2191   -9628.5251            0    8654.0868     17.81655     46.25356    19.282939  -0.62927691   -6.4871134   0.10191103    15890.662    9026.8856     8011.126    8924.2487    476.95436    -165.1219   -308.84299     17.81655    46.257841    20.345141    89.464493    108.59359    90.779458 
   83500    274.99123   -9578.1479   -8477.2953   -9578.1479            0    9661.1963    18.093578     45.51257    19.294082  -0.33915386   -6.5279836   0.19826371    15888.391    8622.7095    10189.458    10171.421    731.66553    1012.5436    1432.8094    18.093578    45.513833    20.369474    89.305489    108.69188    90.426953 
   84000    288.47996   -9554.9088   -8400.0578   -9554.9088            0    9336.9217    18.078188    45.335363    19.413829 0.0085856661   -6.4210133   0.18175296     15911.21    8393.5932    10799.435     8817.737   -738.14861    303.44804   -66.437541    18.078188    45.335364    20.448941    89.494148    108.30059    89.989149 
   84500    274.93334    -9578.201   -8477.5802    -9578.201            0    8898.5706    17.814265    46.028785     19.38445  -0.27185635   -6.1569714 -0.036008297    15894.648    8880.6834    8594.1774    9220.8512    138.01612   -612.73426    212.67951    17.814265    46.029588    20.338793    89.998997    107.62108    90.338398 
   85000    276.86265   -9580.8509   -8472.5066   -9580.8509            0    8397.0406    17.983089    46.000292    19.232655  -0.40344932   -6.2795045    0.1695056    15909.778    9426.6263    8079.9951    7684.5003    432.07149    -206.0607    199.06063    17.983089    46.002062    20.232546     89.36403    108.08132    90.502504 
   85500    289.25112   -9572.0005   -8414.0623   -9572.0005            0    8346.8775    18.017267    45.726247    19.347093  -0.44915688   -6.4843907    0.1782233    15939.335    8628.9015    8962.0856    7449.6453    430.40232     119.0446    18.042694    18.017267    45.728453    20.405614     89.32075    108.52841    90.562783 
   86000    272.76359   -9573.1562   -8481.2214   -9573.1562            0    8137.8856    18.015287    45.654767    19.408431  -0.31682178   -6.6402829  0.015197886    15963.119    9181.1286    8366.2965    6866.2316   -376.71572    382.87487    833.10953    18.015287    45.655866    20.512942    89.828844    108.88755    90.397598 
   86500    272.08739    -9622.876   -8533.6482    -9622.876            0    7509.8646    18.105069    45.943582    19.196423   0.43734408   -6.5143327   0.18130069     15967.81    6950.4026    7001.4025    8577.7887   -1357.8423   -298.35822   -214.01118    18.105069    45.945664    20.272446    89.662866    108.74394    89.454609 
   87000    276.87306   -9615.5332   -8507.1472   -9615.5332            0    7113.3715     17.82519    46.369761    19.332124  -0.38668526   -6.0619273 -0.052771098    15978.963    9169.4208    6061.9724    6108.7214    690.86699   -1439.1048    2091.8578     17.82519    46.371373    20.260325    90.006277    107.40967    90.477788 
   87500    278.63749   -9591.3998   -8475.9504   -9591.3998            0    8432.2688    17.948548    45.915594    19.344029  -0.31892517   -6.1119028  0.097974046    15941.767    8645.0276    8751.4577     7900.321   -944.90669   -381.08356   -63.657581    17.948548    45.916701    20.286853    89.603402    107.53414    90.397964 
   88000    280.67856   -9577.4907   -8453.8704   -9577.4907            0     7795.913    18.100772    45.590047    19.345026  -0.12639458     -6.51669   0.19209112    15963.807     7355.015    8354.3918     7678.332     -1271.72    369.75392   -426.43961    18.100772    45.590222    20.414068    89.410145    108.61609    90.158847 
   88500       271.07   -9587.1705   -8502.0155   -9587.1705            0    8669.6722    17.894836    45.844464    19.362263  -0.55173375     -6.60769  0.092180599    15884.397    9390.5952    7846.8986    8771.5227    786.37348    403.90471    121.20208    17.894836    45.847783    20.458917    89.519169    108.84285    90.689516 
   89000    268.59965   -9625.6872   -8550.4216   -9625.6872            0     9652.143    17.996016    45.996585    19.127635  -0.25925422   -6.5172227   0.13782586        15833    8728.7127    9232.4698    10995.246    418.75544    155.58847   -1317.2105    17.996016    45.997316    20.207909    89.505071     108.8147    90.322937 
   89500     273.9465   -9638.0516   -8541.3813   -9638.0516            0    8622.1601     17.95492    45.643447    19.311773  -0.12042715   -6.1535832   0.12753477    15826.469    8195.0216    8878.2814    8793.1772    226.05836   -1245.1892    998.35743     17.95492    45.643606    20.268878    89.593589    107.67381    90.151171 
   90000    274.85018   -9598.5567   -8498.2689   -9598.5567            0    9154.6029    17.898219    45.510167    19.431428  -0.34841354   -6.0795502   0.05448764    15827.888    8611.5696    9777.6163    9074.6229    390.64716    413.86283   -352.05675    17.898219    45.511501    20.360361    89.715697    107.37338    90.438632 
   90500    288.72357   -9604.7446   -8448.9183   -9604.7446            0    8884.9487    18.048536    45.861583     19.22826  -0.20112292   -6.3812363   0.17890754    15915.893    8727.9318    8326.9264    9599.9879   -634.08886   -144.61273    121.38844    18.048536    45.862024    20.260261    89.414907    108.35859    90.251265 
   91000    276.76651    -9603.024   -8495.0645    -9603.024            0    7872.6497    17.893437    45.999344    19.387033  -0.41171925    -6.580528  0.048140813    15957.203    9106.2116    6524.1791    7987.5584    712.20627    105.40181    808.68235    17.893437    46.001187    20.473464    89.700455    108.74867    90.512815 
   91500    266.28317    -9603.394   -8537.4018    -9603.394            0    8027.5078    18.201175    45.622293    19.244511  -0.24994705   -6.8051115 -0.082587515    15980.245    7752.4869    7214.0877     9115.949    8.7654364   -96.805088     312.4357    18.201175    45.622978    20.412437    90.127165     109.4741    90.313898 
   92000    272.95649   -9576.0635   -8483.3565   -9576.0635            0    7810.7574    18.209906    45.055045     19.50946  0.045411451   -6.6209623   0.11820439    16006.501    8096.4203    7905.3303    7430.5216    343.79527    -883.4181   -318.20728    18.209906    45.055068    20.602674    89.689832    108.74545    89.942251 
   92500    270.73129   -9589.2208   -8505.4217   -9589.2208            0    7726.1879    17.913911     45.85514    19.460677  -0.30394616   -6.2326344   0.16002399    15985.874    7968.1079    7843.9241    7366.5317   -44.254041    612.64442   -1211.8736    17.913911    45.856147    20.435002    89.435495    107.75804    90.379774 
   93000    279.15616   -9590.7773   -8473.2516   -9590.7773            0    7098.5017    17.969229    46.388851    19.212006  -0.46319751   -6.2075598  0.093335015    16014.588     7869.461    6106.3376    7319.7064    219.45234   -1730.4035   -275.34867    17.969229    46.391164    20.190188    89.559255    107.90588    90.572085 
   93500    278.09879   -9647.7802   -8534.4874   -9647.7802            0    6490.3254    17.989063    45.895929    19.423058  -0.17693504   -6.5097837  0.054186903    16036.158    6661.6088    6528.4613    6280.9061    403.73922   -661.59708   -299.42238    17.989063     45.89627    20.485004     89.77825     108.5289    90.220882 
   94000    272.84734    -9621.096   -8528.8259    -9621.096            0     7097.363    18.074698    45.493485    19.450264 -0.032046895   -6.6789284  0.064120689    15993.582    7388.6496    7134.4632    6768.9762    671.57528    791.63232    357.26266    18.074698    45.493496    20.565139    89.808247    108.95161    90.040361 
   94500    273.49975   -9644.2153   -8549.3335   -9644.2153            0    7581.3764     18.13198    45.719009    19.237926  -0.47506774   -6.5369932  0.067294827    15947.782    6266.9074    8449.5945    8027.6274   -162.35263    98.018045    613.98532     18.13198    45.721477    20.318332    89.618707    108.76751    90.595341 
   95000    265.68247   -9634.0731   -8570.4856   -9634.0731            0    7541.1123    17.820501     46.20057    19.362807   -0.2245194   -6.2447071   0.18026468    15941.734    8688.5382    7358.0853    6576.7132    66.506705   -525.13944   -735.94644    17.820501    46.201116    20.345692    89.406889    107.87433    90.278436 
   95500    265.33826   -9560.0685    -8497.859   -9560.0685            0     7225.096    18.067064    46.084043    19.244984  -0.23033873   -6.2018819  0.022248554    16023.439    7487.8788    5942.1406    8245.2685   -854.18618   -517.62511    56.516908    18.067064    46.084618    20.219625    89.849117    107.86203    90.286375 
   96000    269.97456   -9573.8783   -8493.1086   -9573.8783            0    7474.7447    18.188151    45.207762    19.503466  -0.20275302   -6.4556991  0.069064271     16036.64     7220.477    7545.6481    7658.1088    -351.3552    277.30518   -117.82302    18.188151    45.208217    20.544246    89.726641    108.31457    90.256965 
   96500    274.29358   -9591.5718   -8493.5121   -9591.5718            0    7160.8444    18.031471    45.459277    19.541478  -0.24056538   -6.6874674   0.14403615    16018.103    8454.3228    6468.4359    6559.7745    659.15947    409.81427   -175.37741    18.031471    45.459914    20.654596    89.502275    108.89145      90.3032 
   97000    272.56158   -9566.8982   -8475.7721   -9566.8982            0    7419.9032    17.999292    46.176971    19.186395  -0.31880866   -6.6211686   0.12208749    15946.825    8172.8921    6358.8407    7727.9766   -88.375962   -28.150143   -440.77144    17.999292    46.178072    20.297106     89.52633    109.03905    90.395567 
   97500    274.90085   -9582.4638   -8481.9731   -9582.4638            0    7981.9842    17.926398    46.177704    19.289191  -0.12390051    -6.350622   0.15964996    15967.591    9437.7472    7531.7528    6976.4526   -628.05477   -606.17588   -1174.0796    17.926398     46.17787    20.308343    89.501503    108.22262    90.153731 
   98000    267.33682   -9607.2665   -8537.0563   -9607.2665            0    8703.3368    17.975847    45.454916    19.428956  -0.33616029   -6.1752661 0.0050270253    15875.217    7580.8987     8927.242    9601.8697    795.38117   -934.33593    1231.7229    17.975847    45.456159    20.386718    89.857525    107.63225    90.423721 
   98500    267.92789    -9583.631   -8511.0546    -9583.631            0    9518.4305    18.112752     45.49796    19.221922  -0.41977932   -6.2334615  0.090380602    15840.656    9449.3177    9327.3337    9778.6402   -806.30464    156.13512    683.04597    18.112752    45.499896    20.207585    89.580685    107.96713    90.528615 
   99000      289.222   -9627.4667   -8469.6452   -9627.4667            0    8339.4124    17.858899    46.065042    19.319211  -0.12802868   -6.4129293   0.27209385    15893.354    7965.3174      8827.07    8225.8497     169.0591   -461.43621   -1344.1779    17.858899     46.06522    20.357594    89.184013    108.36167    90.159242 
   99500    282.21191   -9550.6038   -8420.8452   -9550.6038            0     9003.485    17.981919     45.96826    19.296881   -0.4535862    -6.588042  0.013164238    15950.753     8558.191    9386.7226    9065.5414    343.43354    1271.0278    685.08689    17.981919    45.970497     20.39049    89.780356    108.85013    90.565341 
  100000    275.57356   -9600.6077   -8497.4239   -9600.6077            0    8775.0694    18.084158    45.474755    19.331704  0.013506088   -6.5371965   0.13947609    15897.865    8352.0035    9334.5818     8638.623    206.56803    461.84977   -39.825049    18.084158    45.474757    20.407576    89.613859    108.68299    89.982983 
  100500    274.14574   -9586.7576   -8489.2898   -9586.7576            0    7884.1533    18.022114    45.705738    19.458117  -0.33987657   -6.3250396   0.13391541    16027.923     7673.079    7742.1213    8237.2595    131.86248   -497.30615   -1.6875326    18.022114    45.707002    20.460752    89.493298    108.00683    90.426054 
  101000    277.40192   -9611.2627   -8500.7596   -9611.2627            0     7304.806    17.982844    46.077543    19.308802  -0.76090342    -6.129752  0.035635385    15999.375    7728.1632    6949.8017     7236.453    1762.3153    87.154922    55.244525    17.982844    46.083825    20.258454    89.612979    107.61248     90.94607 
  101500    270.01978   -9571.0478   -8490.0971   -9571.0478            0    7676.5434    18.003594    46.004731    19.358921   0.24303299   -6.3241775   0.18069038    16034.036    7231.2228    7330.7604     8467.647   -1437.0905    225.43017   -1066.2653    18.003594    46.005373    20.366533    89.585666    108.09046    89.697322 
  102000    273.83029   -9569.6526   -8473.4476   -9569.6526            0    8397.3794    17.958745    45.586794    19.490021   0.11888985    -6.689705 -0.043544595    15956.121       9717.3    8490.8997    6983.9384   -1203.5168    724.01993    669.21778    17.958745    45.586949    20.606187    90.169587     108.9441    89.850574 
  102500    262.27013   -9568.1347   -8518.2076   -9568.1347            0    8972.0228    18.146608    45.757623     19.16525  -0.69804058   -6.7379103  0.079920593    15913.782    7388.8956    8991.3476    10535.825    853.28616   -26.427234   -301.00925    18.146608    45.762947     20.31533    89.484756    109.36994    90.873989 
  103000    279.94114   -9597.7142   -8477.0461   -9597.7142            0    7792.0948    17.932015    45.994446    19.314388  -0.50033341   -6.4582308   0.29628601    15929.988    7751.9684    7395.9467    8228.3694    489.25807   -610.89532    -746.6081    17.932015    45.997167    20.367673    88.968903    108.48657    90.623246 
  103500    262.43551   -9569.6996   -8519.1105   -9569.6996            0    7948.9243    17.948975     45.83745    19.405982  -0.12482058   -6.3458042  0.069658399    15965.986    7758.6866    7688.2427    8399.8438   -783.25104   -418.28352    865.83756    17.948975     45.83762    20.417302    89.756029    108.10776    90.156023 
  104000    278.52576   -9601.0247   -8486.0226   -9601.0247            0    7079.8647    18.187402     45.57609    19.329251  0.016557042   -6.5201121  0.018002273    16022.222    7040.3576    6751.4393    7447.7974   -307.46501   -250.86427    -329.0622    18.187402    45.576093    20.399317     89.95609    108.64019    89.979185 
  104500    280.43773   -9641.9133   -8519.2571   -9641.9133            0    6512.7695    17.990778     45.72837    19.526548  -0.38666409   -6.6868859  0.094386955    16064.275    6429.5084    7497.6138    5611.1865   -810.38524    804.58522   -289.76487    17.990778    45.730004    20.639996    89.581038    108.90361    90.484463 
  105000    283.18732   -9598.3719   -8464.7085   -9598.3719            0    6767.0511    17.959981    46.338768    19.276879  -0.90734445   -6.6064472   0.28202038    16043.055    7020.5438    5992.2395      7288.37    1020.5898    584.95309    -835.1675    17.959981     46.34765    20.379469    88.843573     108.9154    91.121747 
  105500    269.41445   -9517.5467   -8439.0193   -9517.5467            0     6256.928    18.093042    46.049222    19.244969  -0.38391479   -6.3814683   0.10565654    16034.341    5800.6356    6179.5375    6790.6108    821.76807   -663.15255   -194.96798    18.093042    46.050823    20.275679    89.551101    108.34482    90.477667 
  106000    272.33279   -9595.3078   -8505.0976   -9595.3078            0    9331.0165    17.912943    45.587172    19.452884   0.15532487   -6.2782011 -0.038374623    15885.233    10472.081    9703.3618    7817.6071   -259.20911   -19.801287   -208.32459    17.912943    45.587437    20.440939    90.167522    107.88687    89.804782 
  106500    284.43186    -9590.904   -8452.2585    -9590.904            0       9062.5    17.990964    45.819328    19.257577  -0.19440017   -6.4698557 -0.059048184    15874.673    9172.0476    8494.3953     9521.057    38.558467    232.77096   -513.82632    17.990964     45.81974    20.315432    90.089116    108.57042     90.24309 
  107000     270.4959   -9566.0863   -8483.2296   -9566.0863            0    7587.8739    18.005231    45.892468    19.276093  -0.68966483   -6.7083484   0.27561144    15927.922    8410.8489    7137.6104    7215.1622    896.44559    200.04745    395.91994    18.005231    45.897649      20.4119    88.943447    109.18679    90.860967 
  107500    274.63137   -9579.1301   -8479.7181   -9579.1301            0    7265.5246    18.025666    45.703015    19.455028  -0.45606647   -6.5690246   0.25718056    16027.583    7845.8123    7031.5339    6919.2277    340.02605    -515.2194   -80.035209    18.025666     45.70529    20.535734    89.099568    108.65583    90.571731 
  108000    277.65542   -9582.2046   -8470.6867   -9582.2046            0     7689.993    18.071624    45.741841    19.363371  0.012743181   -6.3331547 -0.060033425    16006.331    8101.4678    7596.1803    7372.3309   -457.07879   -503.40239    620.50361    18.071624    45.741842     20.37284    90.173798    108.11122    89.984038 
  108500     273.2376   -9515.6376   -8421.8052   -9515.6376            0    8809.4455    17.909673    46.091566    19.332926  -0.10930711   -6.3210033  0.076072604    15959.038    8783.2693    8189.7413     9455.326   -787.21646   -364.00437     746.6887    17.909673    46.091696    20.340179    89.743487     108.1053    90.135878 
  109000    277.19559   -9603.0864   -8493.4093   -9603.0864            0    8737.9093    17.797561    46.344302    19.293606  -0.78446678   -6.5344073   0.32634578    15913.666    9785.1946    7922.3391    8506.1941    549.99737    770.53704   -371.96533    17.797561     46.35094    20.372732    88.771205    108.70785    90.969749 
  109500    265.65292   -9539.8517   -8476.3826   -9539.8517            0    7822.8835     18.21544    45.677799     19.20806  -0.76586923   -6.8919341  0.086585144    15981.897    6335.4155    8196.5947    8936.6403   -364.43851    915.27018   -130.48043     18.21544    45.684219    20.407249    89.432537    109.73802    90.960575 
  110000    269.20905   -9587.1693   -8509.4641   -9587.1693            0    7146.6086    18.150938    45.319105    19.416372   0.07400593   -6.6703409  0.074498735    15971.603    5126.2639    9090.3085    7223.2533   -642.78716    838.56274    -166.6661    18.150938    45.319165    20.530331    89.822489    108.95962    89.906436 
  110500    272.71233   -9615.3626    -8523.633   -9615.3626            0    7951.2122    17.917219    45.842066    19.389589  -0.12935814   -6.3653465   0.08001885    15925.878     8406.452     8396.926    7050.2586   -361.44032    261.67784   -62.942225    17.917219    45.842248    20.407846    89.724916    108.17418    90.161678 
  111000     271.6789   -9557.0456    -8469.453   -9557.0456            0    8222.1919    17.994302    46.185474    19.187325  -0.51804407    -6.305005   0.14008983    15946.113    7811.3016    7541.1901     9314.084    210.61068    -297.0591     559.5844    17.994302     46.18838    20.197182    89.401995    108.19021    90.642637 
  111500    290.79112   -9624.7586   -8460.6555   -9624.7586            0    7890.3381    17.823437      45.8164    19.468345   -0.4497053   -6.3566957   0.12278405    15897.962    8687.4224    7752.3232    7231.2687    450.94946    266.84481    -1201.936    17.823437    45.818607    20.480213    89.481962    108.08227    90.562362 
  112000    285.43466   -9610.7051   -8468.0451   -9610.7051            0    8099.8821    18.081253    45.497685    19.347013 0.0044415513   -6.4386223  0.041744135     15915.92     6787.201    9004.4549    8507.9904   -606.94166   -52.576474    481.40279    18.081253    45.497685    20.390304    89.884467    108.40723    89.994407 
  112500    269.88485   -9596.4154   -8516.0048   -9596.4154            0    7970.8927    18.152976    45.723058    19.182186 -0.080547006   -6.5062187 -0.0013107891    15921.399    8153.9247    8284.0446    7474.7089    -793.7812    131.17635    75.732668    18.152976    45.723129    20.255546    89.971287    108.73592    90.100934 
  113000    279.08384    -9599.115   -8481.8787    -9599.115            0    8021.2195    17.779729    46.045177    19.485341  -0.51183366   -6.3644973  0.097113314    15952.079    8078.0566    8875.8961    7109.7058    214.58999    499.98826   -530.21968    17.779729    46.048022    20.498653    89.530837    108.08838    90.636868 
  113500     276.5302   -9564.1365   -8457.1231   -9564.1365            0    8506.9732    18.037052    46.114136    19.213327 -0.054633764   -6.3511755   0.19814866    15980.935    7787.6081    8790.6511    8942.6604   -790.86065   -577.60253    182.44692    18.037052    46.114168    20.236814    89.417675    108.29096    90.067881 
  114000    275.85307   -9583.1142   -8478.8115   -9583.1142            0    8863.9183    18.003225    45.771083    19.361898  -0.29869841   -6.4094233  0.033847751    15954.729    9003.8945    9238.6928    8349.1675    432.88925    202.30076    256.80402    18.003225    45.772058    20.395219    89.787412    108.31621    90.373902 
  114500    288.49615   -9622.5851   -8467.6692   -9622.5851            0    8603.3674    18.016681    45.396511    19.475343  -0.20649617   -6.6068018   0.19496434    15928.775    8827.2049    8832.2751    8150.6223    64.026317    844.35861   -1228.5612    18.016681     45.39698      20.5664    89.373121    108.73808    90.260621 
  115000    272.26902   -9523.6401   -8433.6851   -9523.6401            0    10407.965    18.107353     45.78328    19.062508  -0.26817442   -6.6091804  0.092675851    15803.086    10675.893    9828.5659    10719.438   -370.96949   -105.99783   -378.97788    18.107353    45.784065    20.175953    89.626885    109.12178    90.335605 
  115500     276.3543   -9576.7855   -8470.4763   -9576.7855            0    9431.3354    17.849979    46.063284    19.255654  -0.34013156   -6.4194662 -0.033209825     15832.55    9015.7181    9836.9387    9441.3495    266.02175    61.615663   -357.94996    17.849979     46.06454    20.297558    89.959941    108.43737    90.423065 
  116000    274.03052   -9611.8209   -8514.8143   -9611.8209            0    8107.4972    17.929184    45.920435    19.355291 -0.0037062339    -6.358978   0.17767116    15935.519    8374.3354      8809.37    7138.7863   -762.92726     849.1923   -1543.2222    17.929184    45.920435    20.373891    89.498901    108.18668    90.004624 
  116500    279.33965   -9556.6602   -8438.3999   -9556.6602            0    7296.6748    18.137898    45.874282    19.301089   -0.3823619   -6.3496183 -0.0032500783    16059.723    7001.8333     6699.891    8188.2999    1343.0779   -931.11584    562.83386    18.137898    45.875875    20.318704    89.859931    108.21003    90.477549 
  117000    261.04196   -9616.5525   -8571.5421   -9616.5525            0    7111.5527    17.981612    45.764854    19.476421 -0.099839674   -6.4164515   0.13379189     16027.65    7876.0225    7152.8567    6305.7789    -1019.623     95.77763   -1177.7436    17.981612    45.764963    20.506578     89.58707    108.23392    90.124995 
  117500    268.69553   -9602.1384    -8526.489   -9602.1384            0    6700.7078    18.091787    46.070403    19.245579  -0.14169517   -6.7029992   0.27229617    16041.112    6502.3718    6344.2335    7255.5179    -883.3682    438.07729   -1330.4095    18.091787    46.070621    20.381282    89.176542    109.20082     90.17622 
  118000    267.24116   -9615.4258   -8545.5986   -9615.4258            0    7491.9922    18.013351    46.052769    19.254177   -0.6492274   -6.6883434  0.031299607    15972.585    7169.4559    7493.9846    7812.5361    573.39358    519.30765    715.88562    18.013351    46.057345    20.382793    89.647006    109.15572    90.807672 
  118500    278.41585   -9599.3782   -8484.8161   -9599.3782            0    7730.7148    17.895138    45.753349    19.496959 -0.063807112   -6.3339735   0.19156377    15963.379    9860.7683    7059.8787    6271.4975    137.10564   -1399.2038   -1198.1564    17.895138    45.753393     20.50091    89.439924     107.9966    90.079904 
  119000    274.49306   -9608.6159   -8509.7576   -9608.6159            0    7951.7725    18.082786    45.781329    19.231123 -0.099852756   -6.2730724  0.083676879    15920.562    7165.9683    7583.6273    9105.7218    19.770042   -167.51067   -191.89407    18.082786    45.781438    20.228558    89.724238    108.06584    90.124966 
  119500    272.17356   -9565.7423   -8476.1696   -9565.7423            0    7680.9583    17.993177    45.831941     19.34037  -0.61612259   -6.4019616 -0.026805988    15949.272    7111.0079    7888.2911     8043.576    947.15002    147.40428    579.10488    17.993177    45.836082    20.372426    89.833362    108.31533    90.770186 
  120000    264.76694   -9568.3692   -8508.4468   -9568.3692            0    7689.8174    17.982852     45.93167    19.392364  -0.20645551   -6.5747396   0.18446169    16017.751    7398.5783    8193.1188    7477.7552   -89.941177    1240.2933   -100.36718    17.982852    45.932134    20.477427    89.401184     108.7278    90.257534 
  120500     277.1276   -9600.9136   -8491.5087   -9600.9136            0    6598.6341    18.170827    46.009775    19.227322  -0.20336437   -6.5466667   0.12497708    16074.727    6440.3674     5932.091    7423.4438   -598.63549     204.3112   -438.99709    18.170827    46.010225    20.311681    89.565836    108.80271    90.253247 
  121000    272.64902   -9583.8379   -8492.3617   -9583.8379            0    6994.1414    17.916429    45.906534    19.465205  -0.35996457   -6.2263128 -0.084630616    16009.764    7277.6369    7142.5148    6562.2727    235.55527    169.85776    592.62993    17.916429    45.907945    20.436936    90.100388     107.7377    90.449261 
  121500    276.12581   -9590.8344   -8485.4398   -9590.8344            0    8759.3552    17.991269    45.650174    19.357062   0.13945644   -6.1750927   0.21716335    15898.043    8438.6316    9089.6585    8749.7755   -928.54315    215.21632   -335.77482    17.991269    45.650387     20.31932    89.440836    107.69215    89.824968 
  122000    282.03537   -9566.4272   -8437.3753   -9566.4272            0    9086.7266    18.081844    45.866108    19.185827  -0.55586903   -6.3966024   0.12074976    15911.647    7912.4142    10363.959    8983.8063    955.92843    304.99149    692.89796    18.081844    45.869476    20.224417    89.438326    108.43817    90.694356 
  122500    278.88358   -9520.9796   -8404.5451   -9520.9796            0    7539.7157    17.839359    46.149806    19.411712  -0.46202549   -6.5521988   0.18358207    15981.332    7992.4813    7409.6399    7217.0259    26.491721    69.875354   -516.83339    17.839359    46.152119    20.488523    89.303193    108.65074    90.573593 
  123000    268.42977   -9578.9608   -8504.3752   -9578.9608            0    8233.4852    17.983804    45.867618     19.25804 -0.075895753   -6.5484611   0.18202902    15885.461    8551.4332    8326.6919    7822.3304     132.7125    246.78587   -649.37843    17.983804    45.867681    20.341769    89.456759    108.77919    90.094805 
  123500    279.45486   -9593.5522   -8474.8307   -9593.5522            0     7882.668    18.074047    45.670527    19.317443  -0.20218047   -6.3793916 -0.012807928    15945.608    7175.6186    8134.6191    8337.7664   -285.53005   -642.75127     228.3714    18.074047    45.670974     20.34356    89.956534    108.27528    90.253643 
  124000    279.92393   -9589.5309   -8468.9316   -9589.5309            0     8951.604    17.799132    45.676872    19.544162  -0.35740674   -6.2309176  0.088620401    15889.573    10827.195    9094.8592    6932.7576   -77.506542   -8.3179468    623.92724    17.799132     45.67827    20.513567     89.61631    107.68275    90.448312 
  124500    277.75879   -9562.9896   -8451.0578   -9562.9896            0    8652.1451    18.090926    46.170661    19.080179  -0.40260952   -6.3812741    0.2046279    15937.101    9212.5683     8376.736    8367.1311   -615.03714    461.15319    -1957.123    18.090926    46.172416    20.120034    89.258829    108.49127    90.499608 
  125000    284.71494   -9584.5452   -8444.7664   -9584.5452            0    9291.8217    17.948418    45.794559    19.421557  -0.30659712   -6.5288142  0.012271831    15963.351    9397.3183    9093.6097    9384.5371    1389.3803   -140.34406    879.88209    17.948418    45.795585    20.489569    89.843457    108.58075    90.383593 
  125500    281.64896   -9611.1215   -8483.6165   -9611.1215            0    7821.2939    17.996159    45.594517    19.443173  -0.13391664   -6.5405967  0.036895883    15953.632    7837.1515    7387.0614    8239.6686   -384.15655    -282.2797    1247.2791    17.996159    45.594714    20.513843    89.843294    108.59268    90.168284 
  126000    267.60761   -9561.9227   -8490.6284   -9561.9227            0    9179.3652    17.986668    45.929932    19.228404  -0.21778803   -6.4315427   0.11125816    15885.094    9512.1394    8494.5171    9531.4391   -249.18748   -81.806405   -402.54885    17.986668    45.930448    20.275815    89.599428    108.49384     90.27168 
  126500    264.93249    -9604.979   -8544.3938    -9604.979            0    8316.7081    17.741181    46.342704     19.33282  -0.70894508   -6.1932916   0.19665236    15894.948    7734.5466    8944.8432    8270.7345    1069.2373    823.84941   -648.42142    17.741181    46.348126    20.301563    89.177678    107.76206    90.876436 
  127000    278.71854   -9576.2694   -8460.4956   -9576.2694            0    6908.3421    18.089504    45.681412    19.379904  -0.32895525   -6.2613642   0.25227428    16014.663    6003.4098    6947.9887    7773.6278   -918.48687   -1244.5334   -932.86989    18.089504    45.682596    20.367842    89.163495    107.90347    90.412584 
  127500    276.25515   -9603.1425   -8497.2302   -9603.1425            0    7521.8375    18.225534    45.263147    19.425793 -0.011339108   -6.5401483 -0.0073276407    16025.212    7736.1545    7347.4547    7481.9034   -1.2559233   -667.94129   -839.30633    18.225534    45.263149    20.497196    90.015903    108.60701    90.014353 
  128000    277.80386   -9608.2368   -8496.1246   -9608.2368            0    7884.1565    17.939238    45.708868    19.506806  -0.18629645   -6.5653936  0.027940893    15995.235    8392.6584    8121.7984    7138.0126    341.79641    614.08922    10.952211    17.939238    45.709247    20.582047     89.84773    108.60164     90.23352 
  128500    275.00296   -9597.9602   -8497.0607   -9597.9602            0    7082.4517    18.005115    46.180729    19.252659  -0.43070849   -6.4374522   0.24579305    16008.382    6773.4561    7342.5524    7131.3465   -638.43688   -156.69758   -468.48927    18.005115    46.182738    20.301874    89.136887    108.48683    90.534358 
  129000     276.1265    -9543.733   -8438.3357    -9543.733            0    7548.1995    17.933586    46.034861     19.39271  -0.38494737   -6.2584283  0.065554395    16010.042    9532.3197    6689.7319    6422.5468   -56.054399    -106.4569   -654.09711    17.933586     46.03647    20.377669    89.668545    107.88587    90.479101 
  129500    280.87981   -9553.5742   -8429.1483   -9553.5742            0     7863.937    17.934721    45.626477    19.480169    0.1427719   -6.1713604 -0.022902083    15940.587    7937.8653    8153.1187     7500.827   -274.70213    239.83705    7.6278443    17.934721    45.626701    20.434364    90.118361     107.5783    89.820714 
  130000    267.76044    -9604.892    -8532.986    -9604.892            0    9558.7078    18.106671    45.786071    19.118417  -0.13733869   -6.4821592   0.03400249    15849.805    7927.3474    10847.749    9901.0272   -67.050345    1304.1988   -904.78509    18.106671    45.786277    20.187457     89.84831    108.72936    90.171862 
  130500    282.91557   -9587.5782   -8455.0027   -9587.5782            0    9042.2557     17.89101    46.066517    19.262862   -0.6079087   -6.6658175   0.25568965    15875.998     7207.292    10116.051    9803.4244    842.28223    1247.9818    31.681319     17.89101    46.070528    20.385199    89.034145    109.08636     90.75605 
  131000    269.63673   -9613.9144   -8534.4971   -9613.9144            0    8039.5765    17.986354     45.73926    19.347913  -0.61523665    -6.612107   0.15130501     15917.19    7489.2175      8384.34    8245.1719    426.29882    633.79825    811.89807    17.986354    45.743398    20.447117    89.326847    108.86721    90.770636 
  131500    264.48605   -9597.5622   -8538.7643   -9597.5622            0    9273.2089    18.105624     45.43405    19.337779   0.17120677    -6.297014  0.070258534    15907.486    8721.9453    9776.7937    9320.8877   -1021.1345    -456.8444     66.96657    18.105624    45.434372    20.337331    89.868914    108.03683    89.784096 
  132000    276.20115   -9587.4962      -8481.8   -9587.4962            0     8398.066     17.96493    45.714071    19.441959   0.20525156   -6.1884425 -0.019803471     15966.71    10110.359    8240.2772    6843.5616   -424.32352    -1099.811    1069.0206     17.96493    45.714531    20.403112    90.133638    107.65644    89.742749 
  132500    280.07348   -9554.1473   -8432.9493   -9554.1473            0    7311.3466    17.897501    46.520962    19.288459  -0.83201836   -6.3476855   0.18733993    16059.743    7760.6198     6102.766    8070.6539    762.00395     287.5557   -27.005992    17.897501    46.528402    20.306965    89.151213    108.21518    91.024615 
  133000    282.18843   -9590.5714   -8460.9068   -9590.5714            0    7784.8039    17.967868    46.257911    19.262228  -0.65560977   -6.5294927   0.23503605    16009.917    8181.4884    7390.7214    7782.2019   -173.82619    535.44229    -1595.626    17.967868    46.262556     20.34018    89.077306    108.72429    90.811994 
  133500    280.65972   -9585.3736   -8461.8288   -9585.3736            0    8347.9296    18.062678    45.514841    19.390049 0.0057175602   -6.4921444  0.042877862    15940.945      8225.49    8388.6579    8429.6408   -836.28104   -69.080095   -51.317737    18.062678    45.514841    20.448076    89.882141    108.51145    89.992803 
  134000      266.521   -9623.8785   -8556.9342   -9623.8785            0    9687.1844    18.032165    45.639082    19.296587  -0.07105885   -6.3813324  0.055207084     15880.54    9459.2812    9995.5994    9606.6725    -500.6265     96.71501   -226.42442    18.032165    45.639137    20.324437    89.816359    108.29885    90.089208 
  134500    275.35764   -9593.6604    -8491.341   -9593.6604            0    8963.0092    17.802915    46.299023    19.239521  -0.42221543   -6.3570638   0.24471848    15858.321    10229.929    8468.7636    8190.3357     154.1464   -636.26122    576.68047    17.802915    46.300948     20.26404    89.144158    108.28305    90.522484 
  135000    268.84391   -9618.0605    -8541.817   -9618.0605            0    10453.851    17.844087    46.147777    19.152522  -0.59945994   -6.4301862    0.2503902     15771.43    10142.414    9880.2578    11338.881   -453.71822     66.72854     -1038.34    17.844087     46.15167     20.20468    89.053122    108.55727    90.744231 
  135500    265.07406   -9544.5766   -8483.4247   -9544.5766            0    9974.3463    18.035482    45.402746    19.423049  -0.17911148   -6.5188091 0.0049685142    15904.766    10995.023     9537.916    9390.0999    388.92653   -481.45762   -1329.8289    18.035482      45.4031    20.487795    89.914188     108.5529    90.226028 
  136000    282.00261   -9612.7577    -8483.837   -9612.7577            0     8261.252     18.05719    45.592674    19.409956   0.23751043   -6.4838056 0.0031627838    15979.743    8348.2359    7935.8773    8499.6427   -1125.6833    702.04557    201.16588     18.05719    45.593293    20.464264    90.085712    108.47166    89.701526 
  136500    281.64415   -9580.6786   -8453.1929   -9580.6786            0    7649.7067     17.91978    46.340878    19.295633  -0.36027815   -6.3143807  0.077426477    16023.448    7387.7459    7851.3489    7710.0253   -320.09454    316.56238   -1699.5215     17.91978    46.342278    20.302681    89.642965    108.12024    90.445438 
  137000    267.72588   -9583.0806   -8511.3129   -9583.0806            0    7984.2896    17.954104    46.064509    19.325665  -0.75124822    -6.340157  0.063073492    15983.233    8875.4782     7203.993    7873.3977    1462.6915    254.08397    177.34284    17.954104    46.070634    20.339196    89.531101    108.16298    90.934332 
  137500    286.40866   -9567.3465   -8420.7874   -9567.3465            0    7798.3085    18.045844    45.416796    19.500389   0.28043129   -6.5085936   0.16021041    15982.215    7751.9816    8418.0743    7224.8694   -423.23748    -418.8957   -206.96057    18.045844    45.417662    20.558517    89.665507    108.45675    89.646225 
  138000     271.8223   -9582.4896    -8494.323   -9582.4896            0    8181.5639     18.07441    45.747341    19.264876  -0.15831891   -6.4502937  -0.15136112    15929.282    7528.3864    7921.9022    9094.4033    1145.5311   -1029.9734   -144.94761     18.07441    45.747615     20.31661    90.363907    108.51112    90.198284 
  138500     285.7837   -9620.2427   -8476.1855   -9620.2427            0    8811.7002    17.907982    46.041609    19.300621  -0.40406275   -6.4078698  0.083458721    15913.599     9310.268    8015.9811    9108.8517   -173.55835   -757.95545    47.943106    17.907982    46.043382    20.336709    89.606443    108.36618    90.502817 
  139000       265.36   -9637.6685    -8575.372   -9637.6685            0    7911.1364    17.989902    45.820168     19.36421  -0.42622522   -6.4756138   0.33768214    15961.925    8596.3349    7472.1125    7664.9617    16.768746    258.86459    -926.6633    17.989902    45.822151    20.421073    88.883529    108.48791    90.532957 
  139500    275.87227   -9598.8465    -8494.467   -9598.8465            0    7740.0859    18.105271    45.686752    19.368357  -0.48637936   -6.4502749 -0.0055687197    16020.944    8260.3642    7612.1561    7347.7374     981.2603    182.25566    839.91178    18.105271    45.689341    20.414195    89.822907    108.41939    90.609946 
  140000    267.90224   -9552.0134   -8479.5397   -9552.0134            0     7487.604    17.881107    46.064614    19.387959   0.41611658   -6.3167721    -0.102361    15969.596    7673.9099     7278.436    7510.4662    1137.0426    174.61091    584.32395    17.881107    46.066494    20.391298    90.447934    108.04584    89.482443 
  140500    283.71086   -9563.9082    -8428.149   -9563.9082            0    8954.0358    17.881578    46.281356    19.210399   0.33840079   -6.3351907   0.17652232    15898.213    8771.5247    9050.6682    9039.9146   -731.98945    940.78087   -1463.9157    17.881578    46.282593    20.228822    89.631229    108.25076    89.581071 
  141000    268.81645   -9605.6792   -8529.5457   -9605.6792            0    8236.6274    18.004622    45.931226    19.257605  -0.95600469   -6.4674294   0.10206042    15925.546    8048.0257    7776.8597    8884.9969    1280.4503    524.39872    1183.1084    18.004622    45.941174    20.314857    89.332621    108.56375    91.192372 
  141500    274.47105    -9588.283   -8489.5128    -9588.283            0    9045.5908    17.955762    45.608454    19.419101  -0.46927115   -6.4736707   0.16489905    15902.973    8468.2961    9424.8361    9243.6403    544.92235    102.08295   -592.01023    17.955762    45.610868    20.470396    89.352041    108.43602    90.589503 
  142000    268.27683   -9595.8314   -8521.8581   -9595.8314            0    7572.2414    18.034909    45.799346    19.356574   0.18974018   -6.5115576  0.081229683    15988.279    7999.7528    8487.3773    6229.5941   -452.68095    1044.0765   -13.847567    18.034909    45.799739    20.422633    89.847793     108.5928    89.762633 
  142500    281.04479   -9605.1318   -8480.0454   -9605.1318            0    7443.3078    18.089635    46.003998    19.225885  -0.43286616    -6.549859  -0.17530233    15999.695    6321.7361    7532.0024    8476.1848    497.17618   -363.53428    3060.5568    18.089635    46.006034    20.311721    90.320638    108.81218    90.539098 
  143000    275.58265   -9586.6458   -8483.4257   -9586.6458            0    6968.9338     17.91409     45.94895    19.472373  -0.55389612   -6.4619415   0.26972873    16028.365    7886.8682    6992.0028    6027.9304   -416.37497    539.16623   -967.55003     17.91409    45.952288    20.518352    89.029311    108.35687    90.690644 
  143500    265.82537   -9543.9235    -8479.764   -9543.9235            0    5922.2438     18.13486    45.771866    19.364054  -0.23283057   -6.4403498   0.21593296    16073.451    6388.8793    6137.9933    5239.8589   -1170.8078   -113.95906   -60.552595     18.13486    45.772458    20.408119    89.301785     108.3957    90.291447 
  144000    275.37655   -9597.3055   -8494.9104   -9597.3055            0    6664.2125    18.057249    45.773313    19.390111  -0.19861905   -6.3744608  -0.13568264    16026.705    6850.0905    6460.3329    6682.2139   -734.85171    38.956397    413.03347    18.057249    45.773744    20.411481    90.303222    108.19776    90.248616 
  144500    268.21506   -9579.1826   -8505.4566   -9579.1826            0    7515.3729     17.89873    45.821515    19.513603 -0.004869363   -6.4502179   0.19356706    16004.022    9973.9447    6878.1388    5694.0352   -1290.4244    354.45143   -87.733731     17.89873    45.821515    20.552943    89.458471    108.29045    90.006089 
  145000    285.61405   -9574.2511   -8430.8729   -9574.2511            0    8200.5392    18.085272    45.874212    19.251098  -0.48289206   -6.6239052    0.2190328    15971.628    9285.0972    7933.5292    7382.9913   -298.44897    333.02057   -479.34059    18.085272    45.876753    20.359983    89.187411    108.98614    90.603098 
  145500    265.78468   -9533.9746    -8469.978   -9533.9746            0    7487.8432    17.940743    45.958896    19.457507  -0.49735771   -6.5594754   0.10228917     16043.43    7169.7431    7409.0757     7884.711    530.96349    139.33504    649.75394    17.940743    45.961587    20.533674    89.516529    108.62965    90.620019 
  146000    267.01613    -9588.406   -8519.4795    -9588.406            0    7246.9406    18.051166    45.731816    19.375547 0.0036212939    -6.400616   0.10647774    15994.759    6399.7595    8113.8418    7227.2206    -68.78335    24.403359   -486.15679    18.051166    45.731816    20.405662     89.70245    108.28046    89.995463 
  146500    276.49347   -9603.9466   -8497.0802   -9603.9466            0    7276.9164    18.123342    45.856103    19.215408  -0.18437842   -6.2965226 -0.021879145    15969.269    6446.5877    7279.9146    8104.2468   -431.37373   -273.72997    642.31167    18.123342    45.856473    20.220746    89.990259    108.14297    90.230374 
  147000    270.13227   -9576.0885   -8494.6875   -9576.0885            0    7147.2744     17.75779     46.07828    19.530405  -0.37895656   -6.2680481   0.25329875    15980.723    8463.2012    7129.1942     5849.428    693.68758    501.46379   -1670.1754     17.75779    46.079838     20.51315    89.148518    107.79201    90.471201 
  147500    272.28188   -9574.3114    -8484.305   -9574.3114            0    8973.8051    18.092853    45.873284    19.227805  -0.68205225    -6.445487   0.12887104    15958.666    8380.1451     9438.563    9102.7072    618.39573   -372.79467   -749.29966    18.092853    45.878354    20.279778    89.365209    108.53164    90.851821 
  148000     272.0379   -9604.4727    -8515.443   -9604.4727            0    7781.9377    18.036503    45.670844    19.393979  -0.14089923   -6.4548017 -0.012167062    15975.641    8062.0585    7957.6849    7326.0695   -954.44923   -138.37111   -228.84607    18.036503    45.671061    20.439938    89.978285    108.40873    90.176763 
  148500    276.23572    -9624.849   -8519.0145    -9624.849            0    7078.2133    17.980083     45.91799    19.354414   0.13585941    -6.473466   0.13774864    15979.184     8230.247    6848.7793    6155.6137   -523.35431    265.56528    359.99129    17.980083    45.918191    20.408775    89.667054    108.49309    89.830477 
  149000    273.27574   -9555.0742   -8461.0891   -9555.0742            0    8414.0146     17.99484    46.174128    19.176062  -0.70655738   -6.4364161   0.17238527    15933.314    7357.4146    8434.6744    9449.9546    527.72465    334.96276   -56.094083     17.99484    46.179534    20.228161    89.232819    108.55355    90.876673 
  149500    275.19361   -9560.5399   -8458.8772   -9560.5399            0     9316.613    17.843903    45.785686    19.441943  -0.87316565   -6.4080798   0.10711512    15883.977    8758.1108    9691.6397    9500.0884    870.12656    559.83964    -383.2983    17.843903    45.794011    20.471055    89.358262      108.242    91.092539 
  150000    277.03272   -9636.3195   -8527.2944   -9636.3195            0    8713.4173    18.119402    45.343432    19.347074   0.52511886   -6.5056598  0.061534764    15895.476    7728.4171    10284.484    8127.3514   -2650.6808    -481.0963   -834.24621    18.119402    45.346472     20.41168    90.038753    108.58568    89.336492 
  150500     276.5509    -9610.408   -8503.3117    -9610.408            0     9011.777    18.069689    45.622227    19.327043 -0.069174194   -6.5519144 -0.037352429    15932.817    7271.5948    8947.7842    10815.952    576.41633   -9.3394866    1472.0858    18.069689    45.622279    20.407439    90.076979    108.72675    90.086874 
  151000    277.50948   -9571.8648   -8460.9311   -9571.8648            0    8571.9446    17.937737    45.911553    19.357361   -0.6751732   -6.5145763   0.21705006    15941.742    8975.2452    8887.7719    7852.8168    319.69807   -144.33106    542.90539    17.937737    45.916517    20.425333    89.122466    108.59919    90.842528 
  151500    277.17481   -9602.0481   -8492.4542   -9602.0481            0    8138.7987    17.990532    45.927581    19.281997  -0.35988522   -6.4537453   0.25969617    15931.974    7546.1405     7679.758    9190.4976     164.5745   -1090.8704   -153.45335    17.990532    45.928991    20.335036    89.125787    108.50399    90.448956 
  152000    278.53332   -9601.9446   -8486.9122   -9601.9446            0    8005.8006    17.972541    45.512273    19.454583   0.53808042   -6.3336563  -0.16832572    15913.289     8420.021     8637.309    6960.0717   -1254.9609   -201.26559    -137.8182    17.972541    45.515454    20.460312     90.68103     108.0326    89.322638 
  152500    270.50463   -9598.4068   -8515.5152   -9598.4068            0    10456.084    17.965445    45.659829    19.262364   0.32721337   -6.2276051  0.023220862      15800.9    12106.361    9510.0689    9751.8223   -741.88492   -485.12843   -407.40093    17.965445    45.661001    20.244067    90.060589    107.91623    89.589407 
  153000     274.5917   -9580.1462    -8480.893   -9580.1462            0    9044.9218    17.925724    45.960257    19.267957    -0.687657   -6.3318767   0.32348087    15874.309    8515.2616    9264.3244    9355.1795   -706.74882   -31.548133   -2192.8664    17.925724    45.965401    20.284266    88.818732    108.18927    90.857195 
  153500    282.97088   -9589.0683   -8456.2714   -9589.0683            0     8851.036    17.992159    45.687978     19.32827  -0.73572677   -6.4941111  0.077796117    15888.328    8829.9393    8962.1825    8760.9862   -797.39547    719.91492   -1249.5199    17.992159    45.693902    20.390231    89.487599    108.57171    90.922571 
  154000    264.12835    -9571.982    -8514.616    -9571.982            0    7977.4473    18.016925    45.721543    19.392764   0.38940268   -6.5364606  0.042542952    15975.014    8510.3241    7609.1591    7812.8589   -1383.3094   -188.93254   -308.97928    18.016925    45.723201    20.464761    90.036751    108.62669    89.512033 
  154500    276.83437   -9621.5861    -8513.355   -9621.5861            0    7628.9322    17.941212    45.990886    19.351785  0.022629303   -6.4638797 -0.090574813    15967.782    7514.4787    7837.1451    7535.1726   -394.51684   -387.98142    1026.7367    17.941212    45.990892    20.402979    90.263285    108.47015    89.971808 
  155000    278.27808    -9622.082   -8508.0715    -9622.082            0    7357.8535    18.024444    46.127297    19.207097  -0.93079119   -6.4123857   0.23534702    15969.143    7863.8529    6543.8425     7665.865    1341.1911   -778.47931   -31.894408    18.024444    46.136688    20.250596    88.968179    108.46055       91.156 
  155500    277.30354   -9604.2599   -8494.1507   -9604.2599            0    7399.5452    17.951659    45.814885    19.412929  -0.50649772   -6.3464166   0.34002485    15966.225    6670.7339    8086.3279    7441.5737    420.84548   -175.17874   -1132.8864    17.951659    45.817684    20.426806    88.849448    108.10085    90.633397 
  156000    270.04118   -9644.4367   -8563.4003   -9644.4367            0    6810.8629    18.020588    45.668202    19.434902    0.1314812    -6.437073 -0.078143271      15994.3     6763.286    7156.9796    6512.3231    -528.5034   -240.02998     1050.251    18.020588    45.668392    20.473335    90.270553    108.32535    89.835043 
  156500    270.03354   -9600.6093   -8519.6035   -9600.6093            0    7557.1405    18.116128    45.773886    19.277339   0.10742644    -6.523377  0.028140346    15985.648    7393.5364    7086.0635    8191.8216    69.239127    133.85137   -650.38943    18.116128    45.774012    20.351193    89.963877     108.6956    89.865533 
  157000    270.52734   -9607.2907   -8524.3081   -9607.2907            0     8003.774    17.898219     46.12566    19.335055  -0.95624624   -6.5156014   0.19886071    15962.387    8266.0862     8043.177    7702.0587    994.39319    -226.3311   -512.78413    17.898219    46.135571    20.404337    89.062456    108.62207    91.187648 
  157500    263.03935   -9590.0903   -8537.0838   -9590.0903            0    8058.7999    17.952936    46.086089    19.218688  -0.77003909   -6.4597935   0.18010899     15901.17    9514.1598     6435.758     8226.482   -293.10275   -240.57421   -598.47478    17.952936    46.092522    20.276078    89.186137    108.57779    90.957249 
  158000    274.70951   -9607.4388   -8507.7141   -9607.4388            0    8402.2481    18.065019    45.611221    19.311915   0.29002539   -6.3384638  0.026086545    15912.392    6794.2439    9051.6707    9360.8297    267.01088   -115.42479    1186.4578    18.065019    45.612143    20.325523    90.040077    108.17061    89.635682 
  158500    267.96356   -9573.0712    -8500.352   -9573.0712            0    9191.7911    17.930267    45.656301    19.430264   0.12878464   -6.2295516 -0.046463452     15906.19    8741.4074     9795.151     9038.815    31.407157    475.82672    -904.7764    17.930267    45.656483    20.404525    90.179811    107.77636    89.838384 
  159000    272.57128   -9583.1959   -8492.0309   -9583.1959            0    8343.9251    17.993256     45.96655    19.250584  -0.97252026   -6.3508757  0.080146263    15921.925    9000.6049    8049.4429    7981.7275    491.56612   -365.29601    949.66845    17.993256    45.976837    20.271286    89.393815    108.25787    91.212033 
  159500    273.14173   -9544.7675    -8451.319   -9544.7675            0    7247.6939    17.936331    46.073518    19.392361  -0.52374263   -6.5103819   0.36435698    16025.651    7465.3743    7135.7839    7141.9235   -344.72639    588.52306   -1933.8242    17.936331    46.076495    20.459265    88.772355    108.55482    90.651284 
  160000    280.81626   -9621.7304   -8497.5589   -9621.7304            0    7902.9883    17.993255    45.953529    19.332873 -0.097563121    -6.562615   0.03527072    15985.456    7971.6931    7616.0071    8121.2646    594.23005   -307.95537    648.81759    17.993255    45.953633    20.416394    89.861917    108.74994    90.121643 
  160500    273.40347   -9574.2046   -8479.7082   -9574.2046            0    8889.2024    18.031512    45.753467    19.355513  -0.12478917   -6.5008649 -0.075696379    15968.379    9103.7977     8680.884    8882.9254   -73.332397    208.28312    -419.9643    18.031512    45.753637    20.418199    90.162658    108.56533     90.15627 
  161000    268.23924   -9595.2619   -8521.4391   -9595.2619            0    8335.2958    18.019818    45.654537    19.321937   0.02071063   -6.3985838   0.41418543    15895.896     8346.752     8420.412    8238.7234   -495.26855    43.805234   -1334.6965    18.019818    45.654542    20.358062    88.842406    108.31869    89.974008 
  161500    275.62498   -9578.3358   -8474.9462   -9578.3358            0    8797.9911    17.893887    45.947257    19.346765  -0.89291894   -6.2974438  0.085749975    15906.426    9259.3841    8170.4773    8964.1118    1171.3966   -161.03036    420.01939    17.893887    45.955932    20.346067    89.413989     108.0301    91.113321 
  162000    271.62082   -9576.5428   -8489.1827   -9576.5428            0    7809.6365    17.961905     46.03865    19.327528  -0.35901969   -6.3751479  0.067061959    15982.742    7632.0296     7068.599    8728.2807   -1174.5163     63.49116    -83.68671    17.961905    46.040049    20.351913    89.671252    108.25494    90.446796 
  162500    271.26724   -9575.8026    -8489.858   -9575.8026            0    7903.1897    17.996475    45.900659    19.341944   0.21665586   -6.4073133   0.14938274    15977.414    7868.5186    7803.7876    8037.2629   -471.37105   -427.35899   -683.98045    17.996475    45.901171    20.376133    89.664993    108.32773     89.72956 
  163000    277.04827   -9596.5797   -8487.4924   -9596.5797            0    7545.0687    18.118025    45.535204    19.399969  -0.63073498   -6.5998077  0.029707126    16005.129    7344.4191    7846.9245    7443.8623    1092.0783   -203.20745    652.52063    18.118025    45.539572     20.49188    89.661362    108.78812    90.793587 
  163500    270.09626   -9598.4745   -8517.2176   -9598.4745            0    6384.1322    17.961509    45.959336     19.44921  -0.67756292    -6.622219   0.27412445    16055.305    5618.2283    6996.0471    6538.1213    211.16335    399.85083   -372.48352    17.961509    45.964331    20.547523    88.963439    108.80135    90.844631 
  164000    273.18651   -9594.4645   -8500.8367   -9594.4645            0    6569.2261    17.914976    46.327111    19.297616 -0.062041345   -6.4214684   0.24231476    16016.038    7852.3873    5719.6495    6135.6416    -383.0755   -220.91337   -452.18559    17.914976    46.327152    20.339419    89.293161    108.40401    90.076731 
  164500    271.40651   -9571.1958   -8484.6937   -9571.1958            0    7409.9972     18.01378    45.907652    19.307451  -0.15672099   -6.3330667  0.012056478    15966.689    6768.5862    7414.0887    8047.3168   -364.75886    95.445749    439.20164     18.01378     45.90792    20.319585    89.905042    108.16008    90.195597 
  165000    281.94769   -9605.3916   -8476.6908   -9605.3916            0    8277.9948    17.964293    45.608965    19.416427  -0.29937083   -6.3345807   0.11786854    15908.516    9112.7026    8371.4777     7349.804    114.79868    364.59748    950.07683    17.964293    45.609948    20.423968    89.552703    108.06853    90.376076 
  165500    274.90344   -9579.3024   -8478.8013   -9579.3024            0    8660.7021    18.091034    45.710258    19.254794  -0.38783758   -6.4759791   0.22786956    15922.672    8310.9468    8468.0907    9203.0688    1438.3704    342.34034   -198.50942    18.091034    45.711904    20.315938    89.202394    108.58816    90.486126 
  166000    282.91207   -9557.6427   -8425.0812   -9557.6427            0    7886.3841    17.886535    46.065005    19.349794  -0.01133707   -6.6002805   0.04428557    15943.133    8339.5814    7719.9362    7599.6346   -945.44602    519.55026   -513.87309    17.886535    46.065006    20.444564    89.871337    108.83464    90.014101 
  166500    270.68866   -9603.0599   -8519.4315   -9603.0599            0    7568.0936    17.905612    46.090138    19.313827   0.17180218   -6.5979113 -0.0082569252    15939.164    7682.3109    7378.3225    7643.6475   -1100.4135    705.60186    658.75213    17.905612    46.090458    20.409714    90.092221    108.86098    89.786429 
  167000    272.51954   -9614.8193   -8523.8615   -9614.8193            0    7898.5998    18.116464    45.858196    19.218009  -0.55229302   -6.3184778  0.089858845    15966.098    7255.8525    6980.3822    9459.5648    809.21247   -361.94308    606.26901    18.116464    45.861522    20.230252    89.530013    108.19959    90.690008 
  167500    279.09066   -9619.8784   -8502.6149   -9619.8784            0    8116.5061    17.905089    45.662649    19.502682  -0.52775728   -6.2133203   0.19790562    15945.272    7167.7334    8964.2723    8217.5126     225.6759   -456.25847   -2236.3476    17.905089    45.665699    20.469468    89.245066     107.6704    90.662181 
  168000    275.20556   -9570.1292   -8468.4186   -9570.1292            0    8611.8583    18.030266     45.91875     19.25652  0.035587685   -6.4743558  0.044809623    15942.998    8359.8585    8062.3847    9413.3316    85.704091    216.98811   -127.36466    18.030266    45.918764    20.315827    89.887777    108.58344    89.955595 
  168500    277.73403   -9604.0524   -8492.2197   -9604.0524            0    8296.3877     17.97615    46.022888     19.25715  0.035865396   -6.6839265 -0.011957119    15931.717    7965.2456    8354.2993    8569.6183    -10.47062    978.32957    1002.3843     17.97615    46.022902    20.384132     90.04825    109.14127     89.95535 
  169000    279.26406   -9587.0646   -8469.1069   -9587.0646            0    7642.4671    17.953405    45.556303    19.503922  -0.72953178   -6.5789642   0.20645067    15952.078    8211.5671    8445.6496    6270.1845    1313.0409    268.00372   -72.762864    17.953405    45.562144    20.584663    89.132193    108.63905    90.917448 
  169500    267.41649   -9585.4649   -8514.9357   -9585.4649            0    7327.7631    18.160193    45.606416    19.289899  -0.82519876   -6.3583656   0.26080779    15976.306    6056.5913    7359.7665    8566.9315    989.17088   -199.82359    443.63942    18.160193    45.613881    20.312485    88.939931    108.24177    91.036592 
  170000    275.29065   -9559.7408   -8457.6896   -9559.7408            0    7091.0191    17.931773     46.27471    19.367834  0.043525748   -6.2824754   0.12558611    16071.189    10044.753    5892.2152    5336.0896   -1370.3802    -180.7967   -867.16135    17.931773     46.27473    20.361687    89.663239     107.9715    89.946108 
  170500    260.92246    -9606.117    -8561.585    -9606.117            0     7000.543    17.957748    46.185781    19.275516  0.021282337    -6.454454 -0.035283013    15986.971    7991.4637    6783.0241    6227.1412    306.43919   -704.99328    1372.8203    17.957748    46.185786    20.327487    90.107833    108.51322    89.973598 
  171000    276.51672   -9606.6844   -8499.7249   -9606.6844            0     7779.206     18.07465    45.715745    19.334979  -0.36945874   -6.6225308   0.20089463    15976.418     7571.713    8070.5228    7695.3821   -949.63337   -600.65569   -900.86419     18.07465    45.717238    20.438681    89.286801    108.90618    90.463034 
  171500    274.97862    -9624.664   -8523.8619    -9624.664            0     8889.192    17.997401    45.457854    19.479026  -0.72871237   -6.5721316   0.34470766    15936.244    8996.8325    9613.5021    8057.2413     1403.267    1000.1699    401.95195    17.997401    45.463694    20.560744    88.745891    108.64144    90.918402 
  172000    273.35989   -9616.2635   -8521.9416   -9616.2635            0    7989.2188    17.960206    46.114667    19.234176  -0.36645029   -6.3002894 -0.087242524      15930.3     9345.669    6766.0444     7855.943     521.1527   -392.94009     251.3223    17.960206    46.116123     20.23993    90.105239     108.1364    90.455291 
  172500    279.13809    -9574.424   -8456.9706    -9574.424            0    8586.9324    17.940248    46.176647    19.237855   0.16416563   -6.2967841 -0.067099336    15937.033    8894.4406    8185.3797    8680.9769   -1660.8725   -108.33863   -261.55074    17.940248    46.176939    20.242259    90.253288     108.1238    89.796305 
  173000    282.83914   -9624.6764   -8492.4068   -9624.6764            0    7836.3175    18.009091    45.523492    19.449698  -0.10702021   -6.5675446   0.22237235    15945.576    7821.2013    7932.4513    7755.3001   -699.57664    954.90801    1207.8542    18.009091    45.523618    20.529804    89.336288    108.65706    90.134695 
  173500    281.12675   -9593.4869   -8468.0724   -9593.4869            0    7989.1908    18.101715    45.645267    19.298721   -0.7233092    -6.647931   0.18354528    15945.715    7191.5742    8558.0277    8217.9704     11.24578    345.77802   -529.56362    18.101715    45.650997    20.412479    89.189188    109.00676    90.907851 
  174000    275.91368    -9618.197   -8513.6517    -9618.197            0    7854.6918    17.922666    46.082028    19.308205  -0.11963386   -6.5230681  0.032978887    15946.893    8315.2909    8394.2671    6854.5173    48.971392    590.47163    727.74975    17.922666    46.082184     20.38034    89.859677    108.66696    90.148746 
  174500    278.40191   -9556.4701   -8441.9638   -9556.4701            0    7407.3112    17.885601    46.356444     19.33541   0.50435202   -6.2246634 -0.012941967    16031.237    8195.7254    6483.7805    7542.4276   -769.63565    170.77823   -154.57715    17.885601    46.359187    20.312673     90.22752    107.84496    89.376654 
  175000    269.41171   -9574.9292   -8496.4128   -9574.9292            0     7703.036    18.109066    45.591628    19.358204  -0.68702144   -6.0545778 -0.006173624    15982.555    6915.2168    9153.4393     7040.452    274.60122   -145.83544    925.93279    18.109066    45.596804    20.282949    89.759739    107.36788    90.863326 
  175500     263.1457   -9618.1139   -8564.6817   -9618.1139            0    7440.7477    18.074965    45.390774    19.452241  -0.68435789   -6.2002991   0.35924627    15959.331    6989.3288    7340.8555    7992.0588    492.81857   -414.93273   -1236.1638    18.074965    45.395933    20.419659    88.729724    107.67658    90.863785 
  176000    269.67026     -9631.72   -8552.1685     -9631.72            0    7947.4109     17.97101     45.92343    19.324698  -0.22501642   -6.4724187   0.13362329    15948.488    8415.7758     7834.989    7591.4678   -951.11182   -310.36182    814.16696     17.97101    45.923982    20.380236    89.535182    108.51682    90.280737 
  176500     274.1457   -9566.9808   -8469.5131   -9566.9808            0    8491.1933    17.981952    46.117234    19.252964  -0.18461392   -6.6630961 -0.039192995    15966.058    8548.3764    8323.9843    8601.2192    485.30575    768.47641    412.82652    17.981952    46.117603     20.37339    90.035209    109.08976    90.229362 
  177000    275.53202   -9579.2643   -8476.2469   -9579.2643            0    7711.9421    18.074241    45.692344    19.359157   0.08557538   -6.5207621   0.13235449    15987.846    7086.2664    8065.9254    7983.6343   -743.37401    748.77201    1030.0018    18.074241    45.692424    20.428285    89.663033    108.61471    89.892693 
  177500    271.12422   -9582.9658   -8497.5937   -9582.9658            0    8201.5235    18.035041    45.403544    19.449082  -0.65482744   -6.2460338   0.17850059    15925.974    8183.7299    8538.8391    7882.0015    58.727657    199.05906   -859.99499    18.035041    45.408266    20.428206    89.246751    107.80361    90.826285 
  178000    279.77984   -9603.6503   -8483.6279   -9603.6503            0    9021.6631    17.918215    45.953664    19.295042  -0.71484385   -6.2649314   0.13270007    15887.685    8838.4611    9360.9051    8865.6233    495.39624    448.88679    718.31969    17.918215    45.959223     20.28708    89.350047    107.98776    90.891207 
  178500    274.67755   -9659.4247   -8559.8279   -9659.4247            0    7894.4302    17.886287    46.156201    19.229352   0.18221452   -6.5499872   0.12529513    15875.043    7992.7545    7846.5914    7843.9446   -2116.3384    484.30091   -882.58339    17.886287     46.15656    20.314675    89.719547    108.80973     89.77381 
  179000    274.50123   -9593.8986   -8495.0076   -9593.8986            0     7695.669      18.0866    45.702568    19.330854  -0.22303198   -6.6788962 -0.038061613    15978.962    7672.5802    8337.5631    7076.8636   -360.89739    751.20702   -254.67545      18.0866    45.703112    20.452164    90.015318    109.06022    90.279606 
  179500    267.82831   -9595.8549   -8523.6771   -9595.8549            0    6710.0546    18.107804    45.455171    19.451261  -0.50051935   -6.4629326   0.11492965    16010.203     6304.258    7546.8524    6279.0534   -155.14007   -823.57831   -771.76129    18.107804    45.457927    20.497177    89.479833    108.37943    90.630874 
  180000    272.87845   -9597.1395   -8504.7449   -9597.1395            0    7071.4022    17.899863     46.17414    19.350189  -0.19677101     -6.16101   0.26633478     15993.14    7541.3837     7170.225    6502.5978    73.160197    149.59362   -459.11989    17.899863    46.174559    20.309082    89.174527    107.65966    90.244164 
  180500    281.33364    -9578.387   -8452.1444    -9578.387            0    7445.7105    17.844738    46.539159    19.246198  -0.32956413   -6.1898072  -0.10749348    15983.565    7644.3212    7294.5047    7398.3055   -296.31376   -374.03046    1066.0415    17.844738    46.540326    20.217354     90.18041    107.82815     90.40573 
  181000    274.44142   -9627.0547   -8528.4032   -9627.0547            0    8129.9543    18.006898    45.687069    19.383881   0.11029344   -6.5083851 0.0051661968    15946.777    7661.3661    7950.8123    8777.6846   -922.44621   -204.19008   -109.08717    18.006898    45.687202    20.447345     90.02955    108.56013    89.861682 
  181500    274.23219   -9587.5219   -8489.7079   -9587.5219            0    7649.3623     18.17691    45.344275     19.37149  0.051222504   -6.7131959    0.1522762    15966.346    6593.9517    8380.9782    7973.1572   -246.46951    1.1294689    991.84435     18.17691    45.344304    20.502312    89.595638    109.11323    89.935277 
  182000    287.15976   -9613.8012   -8464.2352   -9613.8012            0    8076.2198    17.965856    46.126543    19.257647  -0.68818228   -6.5314776  0.052531938    15958.866    8566.8578    7792.0503    7869.7514   -342.19316    153.67802    830.08027    17.965856    46.131676    20.335189     89.57747    108.73496    90.854758 
  182500    269.20498   -9550.7488   -8473.0599   -9550.7488            0    8960.5269     17.87276    46.214103    19.260141   -0.4819544   -6.2923214   0.25695214    15908.367    8672.5295    8846.5943    9362.4568   -611.40788   -116.82105     73.69142     17.87276    46.216616    20.263573    89.087927     108.0908    90.597501 
  183000    282.16218   -9624.1004   -8494.5409   -9624.1004            0    7638.6095    18.104642    45.539252    19.319649   0.10543289   -6.2833937   0.16257044    15928.507    6216.8564    8293.7559    8405.2162   -490.10046    621.98743   -974.08453    18.104642    45.539374    20.316405    89.582547    108.01566    89.867349 
  183500    273.92986   -9580.8172   -8484.2136   -9580.8172            0    8161.9471    18.097021    45.241374    19.523718  -0.23143112   -6.4841309  -0.16042836    15984.734     6652.357    9223.1664    8610.3179    489.74679    454.47097    858.39691    18.097021    45.241966    20.572926    90.354415    108.37155    90.293093 
  184000    268.57888   -9589.2681   -8514.0856   -9589.2681            0    7141.8864    18.010625    46.152621    19.295792  -0.28139987   -6.6389816  0.068859016    16039.387    7074.9175     7057.135    7293.6066    72.319454    636.77421    -957.9831    18.010625    46.153479    20.406088    89.693007    108.98637    90.349337 
  184500    277.94146   -9585.6406   -8472.9776   -9585.6406            0    7142.0823    17.931192    46.458368     19.20094  -0.41981602   -6.5711872   0.23407499    15995.418    8021.8213    6117.5234    7286.9021    254.16364   -587.40713   -776.90487    17.931192    46.460264      20.2956    89.171563    108.89131    90.517733 
  185000     272.5735   -9564.0581   -8472.8843   -9564.0581            0    8339.3256    18.054118    45.592455    19.381838  -0.45352466   -6.4015666 -0.0011158364    15953.803    7930.1483    8729.7518    8358.0767    192.69386    284.83965   -698.05031    18.054118    45.594711    20.411656    89.824394    108.27771    90.569923 
  185500    271.66646   -9571.9802   -8484.4374   -9571.9802            0     8192.962    18.051602    45.447253    19.431043  -0.02102837   -6.3212044   0.07150601    15941.145    9022.2138    7772.3139    7784.3585   -529.96805   -220.91361   -285.99125    18.051602    45.447258    20.433506    89.791295    108.02036    90.026511 
  186000    283.72908   -9555.1476   -8419.3154   -9555.1476            0    9202.9876    17.941426    46.121883    19.226065  -0.18946985   -6.4758992   0.14802846    15909.422    10183.054    8972.7589    8453.1496   -275.44478    -131.5361   -1286.0213    17.941426    46.122273    20.287947    89.506816    108.61451    90.235371 
  186500    281.91076   -9634.3749   -8505.8219   -9634.3749            0    7824.6993    17.879295    46.527505    19.110623   -1.1755786    -6.792629  0.081515591    15897.725    7794.3366    7291.0617    8388.6997    154.09675     285.9785    52.840332    17.879295    46.542354     20.28207    89.285102    109.56695    91.447345 
  187000    273.86788   -9632.6489   -8536.2934   -9632.6489            0    8297.1696    18.022888    45.542342    19.441383  -0.33829478    -6.810749   0.33218299    15957.575    8418.3181    9640.7584    6832.4325   -617.54915    828.63581   -1238.9152    18.022888    45.543598    20.602525     88.93547    109.30388    90.425593 
  187500    274.93504   -9587.0383   -8486.4107   -9587.0383            0    7204.3516    18.153122    45.445419    19.385655  -0.16022614   -6.6304996   0.17266227    15992.705    8033.5489    7344.1181    6235.3877   -518.52711    7.5372747   -443.24129    18.153122    45.445701    20.488947    89.451786    108.88159    90.202006 
  188000    278.27532   -9577.6939   -8463.6943   -9577.6939            0    6948.4533    17.947785    46.042781    19.402908  -0.31723155   -6.4044205 -0.023388642    16033.902    7128.2652    6912.4953    6804.5996    1172.0958    107.52934   -226.03105    17.947785    46.043873    20.432572    89.941851    108.26677    90.394758 
  188500    283.47202   -9582.6087   -8447.8056   -9582.6087            0    6434.4726    17.983292    46.166458    19.341708 -0.073896898   -6.3191054   0.16683567    16057.967    6010.3272    6096.8603    7196.2303    78.526656    4.6121632   -301.97348    17.983292    46.166517    20.348479     89.50175    108.09204    90.091711 
  189000    266.05153   -9622.9015   -8557.8366   -9622.9015            0    7081.6916    18.105418    45.736929    19.306449  -0.51343431   -6.4915845   0.12292124    15987.405     5757.923    7220.6434    8266.5085    489.75111    338.50811    240.06066    18.105418    45.739811    20.368965    89.449276    108.58431    90.643165 
  189500    274.94972    -9579.616   -8478.9296    -9579.616            0    7053.0252    17.945744    45.537366    19.623978  -0.67206434   -6.6487558  0.060578992    16036.752    8001.3443    7811.1909    5346.5405    855.40913    447.64829    493.62365    17.945744    45.542325    20.719801    89.561182     108.7167     90.84554 
  190000    274.47465   -9548.0912   -8449.3066   -9548.0912            0    6755.0394    18.126966    46.065914    19.238497  0.051785917   -6.5936914   0.17076026    16064.824    6016.9772    6188.1514    8059.9896    17.742639   -266.07964   -108.36921    18.126966    46.065943     20.33779    89.539811    108.91765     89.93559 
  190500    284.51357   -9579.6398   -8440.6672   -9579.6398            0    7563.3814    18.020176    46.064631    19.273071  -0.25234539   -6.3786688 -0.00054488171    15998.437    7462.0438    7738.8045     7489.296    -302.8665    220.43008    1183.7307    18.020176    46.065322    20.301199    89.902921    108.31262    90.313867 
  191000     276.9519    -9556.053   -8447.3515    -9556.053            0    8671.5325    17.906554    45.672608    19.481729  -0.31313517   -6.2942769    0.1314231    15932.919     8674.636    9404.1969    7935.7648   -771.82102    137.46708   -1050.7016    17.906554    45.673682    20.473714    89.511451    107.90455    90.392818 
  191500    276.23134   -9567.5124   -8461.6954   -9567.5124            0    7379.3371    18.165342    45.839858    19.240078  -0.20773793   -6.5635079   0.20902828    16021.149     6398.853     7788.868    7950.2903   -676.17428    953.18686    484.47623    18.165342    45.840329    20.329877    89.327057    108.83539    90.259652 
  192000    271.71613   -9560.1347   -8472.3931   -9560.1347            0    7687.2295    17.950028    46.058847    19.343496  -0.34235266   -6.7548053 -0.022575165    15992.382    7685.8079    7778.7157    7597.1649    -925.5471    817.97228    813.89433    17.950028    46.060119    20.488991    89.922729    109.24934    90.425868 
  192500    272.56378   -9527.6439    -8436.509   -9527.6439            0    7825.1905    17.880376    46.078588    19.363648   -0.1989162   -6.5572693   0.07948362    15953.757    8568.5348    6872.0219    8035.0148    1065.0239    595.76948   -721.52714    17.880376    46.079018    20.443946     89.69791    108.70791    90.247338 
  193000     277.7929   -9604.4076   -8492.3393   -9604.4076            0    8215.0776     18.07818    45.753659    19.254703 -0.061091392   -6.3257597   0.12398902    15926.391    6989.7821    8117.8157    9537.6351   -592.18858   -306.00138    -156.3473     18.07818      45.7537    20.267565    89.625607    108.18658    90.076503 
  193500    269.11475    -9542.509   -8465.1813    -9542.509            0    8499.0167    17.980444    45.615147    19.388485  -0.34272628   -6.3171374  0.071291399    15902.058    7498.9757    9015.9379    8982.1366   -1329.8958    282.77412    217.41581    17.980444    45.616434    20.391779    89.666336    108.04648     90.43048 
  194000    266.42216   -9551.0122   -8484.4636   -9551.0122            0    7902.7085    18.089496     45.73553    19.295245  -0.23455271   -6.4277297  0.061996553    15963.587    8666.7192    7526.9592    7514.4472    420.88702   -470.06655    189.88024    18.089496    45.736131    20.337798    89.732478    108.42412    90.293836 
  194500    279.14803    -9574.058   -8456.5649    -9574.058            0     8761.469    18.059038    45.861043     19.22883   0.13967245   -6.5369391   0.20528549    15925.438    9210.3088    8454.5372     8619.561   -1387.7438    282.11432   -897.44549    18.059038    45.861256    20.310628    89.477052    108.77473    89.825503 
  195000    274.00529   -9571.3964   -8474.4908   -9571.3964            0    8428.1784    17.852127    45.961942    19.438335  -0.50260224   -6.5128953 -0.084264301    15949.512    9177.0358    8889.2106    7218.2889    927.78015    1245.2493    1039.8917    17.852127     45.96469     20.50058    90.036455    108.52348    90.626515 
  195500    275.76529   -9564.6959   -8460.7446   -9564.6959            0     8014.295    18.149293    45.929429    19.185014  -0.34584898   -6.4285761   0.12935288    15992.372    5974.6397    8649.1489    9419.0965   -160.19791    246.49956   -867.30697    18.149293    45.930731    20.233835    89.496648    108.52474     90.43143 
  196000    265.46672   -9543.9387    -8481.215   -9543.9387            0    8153.5471    17.943887    45.769894    19.446381 -0.092665362   -6.2786349   0.15808646    15971.114    8797.0389     8442.201    7221.4013   -976.09921   -217.11327   -926.73584    17.943887    45.769988    20.435459    89.521121    107.89311       90.116 
  196500    291.08087   -9581.5541    -8416.291   -9581.5541            0    8422.4676     17.81879    46.040016    19.379188  -0.21633631   -6.2434035 -0.086660481    15898.248    8492.5167    8831.3104    7943.5756    529.18111      134.607    1173.8284     17.81879    46.040524    20.360268    90.161312    107.85724    90.269224 
  197000    274.07384   -9587.7826   -8490.6026   -9587.7826            0    8672.3044    18.107776     45.92595    19.123854  0.032004307   -6.4200633   0.10364021    15903.719    8382.6877     7954.733    9679.4926   -1135.1448   -919.49605    485.94011    18.107776    45.925962    20.172996    89.718345    108.55715    89.960072 
  197500    268.00386   -9545.5786   -8472.6981   -9545.5786            0    8500.4329    17.989533    45.437508    19.542262  -0.27742451   -6.5710537   0.22226474    15973.836    8485.0992    9121.4934     7894.706   -61.291312     1046.447     -488.098    17.989533    45.438355    20.618636    89.270869    108.58402    90.349822 
  198000    280.96204   -9581.4121    -8456.657   -9581.4121            0    7854.5497    18.051408    45.746741    19.321416  -0.42744824   -6.5272088   0.11229037    15955.491    7954.1902     7951.923    7657.5358    167.48108    737.13757    954.89593    18.051408    45.748738    20.394464    89.513208    108.66583    90.535345 
  198500    278.42737   -9614.2316   -8499.6234   -9614.2316            0    8024.7027     17.84488      46.1782    19.344583  0.019396676   -6.3481313  0.051417492    15940.796    8431.7967    7586.9835    8055.3278   -181.24915   -753.52943    932.99238     17.84488    46.178204    20.359625    89.862805    108.16774    89.975934 
  199000    272.03319   -9560.6787   -8471.6678   -9560.6787            0    7549.7927     18.08162    45.955095    19.278813  -0.06299983   -6.3838223  0.097729894    16019.586    7398.5983    7535.9471    7714.8328   -1091.9543   -352.63625    143.19734     18.08162    45.955138    20.308504    89.699586    108.32111    90.078547 
  199500    274.36904   -9529.8059   -8431.4441   -9529.8059            0    7489.8963    18.181446    45.379993    19.382634  -0.71860732   -6.4697957   0.12100962    15992.105    6321.2128    7995.3395    8153.1366   -192.71754   -477.83873    624.15229    18.181446    45.385682     20.43427    89.373502    108.45833    90.907222 
  200000    277.86752   -9592.7808   -8480.4137   -9592.7808            0     7749.918    17.924887    45.679391    19.496486   -0.3596914   -6.5040276   0.18349346    15963.682    8072.8691    8118.0078    7058.8771   -148.35347    105.54252   -651.90675    17.924887    45.680807    20.553564    89.345727    108.44794    90.451153 
  200500    268.11916   -9622.2556   -8548.9135   -9622.2556            0    8451.0403    17.969672    46.143277    19.159797  -0.17599199   -6.4211289  0.071308014    15886.912    7985.1955    8028.6069    9339.3186    121.82059    207.81852    605.86072    17.969672    46.143613    20.207271    89.728374    108.52771    90.218527 
  201000    286.65675   -9633.9765   -8486.4242   -9633.9765            0    8398.4648    17.908182    45.757266    19.412527 -0.077650971    -6.333037  0.014838647    15907.197     8551.576    8487.5958    8156.2227    428.27444   -161.59093    411.94593    17.908182    45.757332    20.419446    89.928207    108.06811    90.097232 
  201500    283.29755   -9594.3812   -8460.2766   -9594.3812            0    8900.2246    18.032786    45.293347    19.495932  -0.45230086   -6.3456479  0.090340325    15923.599    10388.668    8770.4406    7541.5655    735.07802   -155.57457   -127.07875    18.032786    45.295605    20.502848    89.570476    108.02915    90.572139 
  202000    273.26942   -9560.7346   -8466.7748   -9560.7346            0    7861.3976    18.180103    45.875644    19.141401  -0.37838842   -6.5215113   0.22507715    15964.387    7152.6242    7533.1389    8898.4298    515.68485   -309.87187   -954.13286    18.180103    45.877205    20.223105    89.209919    108.81286    90.472573 
  202500    271.88541   -9578.3469   -8489.9277   -9578.3469            0     8782.825    17.809193    46.077727    19.434424  -0.14370784   -6.4891404  0.075559214    15948.027    9195.4418    8281.5436    8871.4895    193.49178    45.853755   -391.49306    17.809193    46.077951    20.489302    89.732114      108.464    90.178694 
  203000    255.18015   -9609.2351   -8587.6908   -9609.2351            0    7546.1498    18.029199    45.739604    19.332741  -0.17826843   -6.4726007    0.0315344    15942.714    6992.9455    8751.9838    6893.5199    604.42171    624.43363    271.20396    18.029199    45.739951    20.387507    89.840483    108.51052    90.223307 
  203500    270.48802   -9575.7209   -8492.8957   -9575.7209            0    6829.7714    18.142157    45.564363      19.3509  -0.24002505   -6.4338958   0.17744455    15996.148    7243.6965    7182.3286    6063.2892    -439.5884   -502.47103    592.91785    18.142157    45.564996     20.39323    89.406235     108.3905    90.301821 
  204000    278.98353   -9617.4065   -8500.5718   -9617.4065            0    6432.3811     17.86747    46.072524    19.485482  -0.68981622    -6.360689   0.18703141    16040.438    9585.9235    4941.2859    4769.9338    162.36857   -469.98569   -831.44598     17.86747    46.077688    20.498228    89.211085    108.07757    90.857791 
  204500    265.89312   -9582.5785   -8518.1477   -9582.5785            0    7597.6781     17.92154     46.63427    19.136527  -0.59214486   -6.3199042   0.06325378    15993.504    8390.6494    5961.1875    8441.1973    466.49584   -493.31826   -151.01837     17.92154    46.638029    20.153209    89.592053    108.27589    90.727482 
  205000    279.36172   -9637.8502   -8519.5015   -9637.8502            0    8247.4503    17.968781    45.992202    19.306802   0.20722018   -6.3992795   0.15353495    15955.601    7659.8649    8477.1433    8605.3426   -1646.5807    125.14581   -336.36111    17.968781    45.992669    20.340279    89.648731    108.33734    89.741853 
  205500    281.31022    -9589.293   -8463.1441    -9589.293            0    7779.2136    18.042686    45.594593     19.41671  -0.29260728   -6.5021659  0.010465892    15973.136    7124.4768    7700.2359    8512.9281    5.7341246   -756.03052    357.48325    18.042686    45.595532    20.476496    89.853957    108.51439    90.367696 
  206000    272.77789    -9611.061    -8519.069    -9611.061            0    9314.4632    17.995483    45.605737    19.300131  -0.44081087   -6.4351183   0.19747807    15839.565     9667.375    9578.3596    8697.6549    325.52913   -72.376792   -525.01457    17.995483    45.607867    20.345633     89.26873     108.4387    90.553786 
  206500    277.79884   -9561.8887   -8449.7966   -9561.8887            0    9232.1379    17.900883    46.076532    19.230319  -0.34533788   -6.3722257   0.27446571    15861.371    10880.746    8320.5547    8495.1128    1293.5723    -487.8591   -521.80812    17.900883    46.077826    20.260448    89.088748    108.33157    90.429417 
  207000    282.70707   -9604.2739   -8472.5331   -9604.2739            0    8799.7084    17.925123    45.970936    19.345186 -0.038283078   -6.4386416  -0.19401637    15941.104    8918.9962    8440.8313    9039.2976   -324.75048   -694.98469    402.35777    17.925123    45.970952    20.389457    90.530139    108.40808    90.047714 
  207500    279.94981   -9653.5543   -8532.8515   -9653.5543            0    6948.7893     18.11519    45.596988    19.328067   0.26850535   -6.5627351 -0.0053819608    15964.947    5677.0977    8233.6252     6935.645   -678.60926    114.92939    382.05067     18.11519    45.597779    20.411852    90.123583    108.75463    89.662608 
  208000    277.32332   -9609.1608   -8498.9724   -9609.1608            0    8070.6036    18.012044     45.76975    19.367506   -0.6138613   -6.5720526   0.38839301    15966.703    8312.5898    8250.1927    7649.0283   -288.22676   -80.079507     -1502.55    18.012044    45.773866     20.45588    88.665246    108.74031    90.768402 
  208500    266.39355   -9626.3615   -8559.9274   -9626.3615            0     7078.864    17.955343    46.030571    19.308561  -0.97363149   -6.4965229   0.11470279    15958.423    7081.5737    7530.1506    6624.8678    435.03227    830.24619   -946.85969    17.955343    46.040867    20.372494    89.291087    108.59563    91.211731 
  209000    270.00677   -9557.1601   -8476.2615   -9557.1601            0    8317.6164    17.972334    45.922297    19.323461   0.18174952   -6.4612756  0.030554969    15948.249    7989.7376    9072.8486     7890.263   -155.42394    363.34818    104.52346    17.972334    45.922657    20.375112    89.985988    108.48861    89.773238 
  209500    276.60604   -9607.3162   -8499.9991   -9607.3162            0    8318.8174    17.993691    45.738779     19.36296   0.17675347    -6.421868 -0.0024920178    15935.899     7950.295    8301.4359    8704.7213    -703.6821   -800.24569     569.6936    17.993691     45.73912    20.400113    90.076699    108.34848    89.778587 
  210000    281.49901   -9606.7195   -8479.8148   -9606.7195            0    8147.6204    18.019543    45.725644     19.36411  -0.72315464   -6.3135372   0.14271476    15955.159     9477.517    8002.0013    6963.3431   -451.75167   -118.66194    259.15412    18.019543    45.731362    20.367864    89.317725    108.05775    90.906062 
  210500    283.05648   -9569.7352   -8436.5956   -9569.7352            0    7291.4175    18.030364    45.962573    19.318781  -0.69372968   -6.4114361     0.399255    16009.897     7305.409    6809.6142    7759.2292    493.30499   -185.48005   -628.23853    18.030364    45.967808    20.358811    88.604058     108.3561     90.86472 
  211000    270.59132   -9582.7021   -8499.4634   -9582.7021            0    8425.3927    17.872334    46.177892    19.288071   0.28910072   -6.7067722  0.010879755    15918.574    8829.1081    8182.9643    8264.1056   -1349.0274    537.80299     252.4018    17.872334    46.178797    20.420837    90.087281    109.17338    89.641299 
  211500     277.6687   -9600.2365   -8488.6654   -9600.2365            0    9037.6062    17.967279     45.90566    19.235704    0.1430668   -6.6278902  -0.20446468    15865.604    10224.966    8442.2137    8445.6384    70.714078    759.01649    1715.1745    17.967279    45.905883    20.346573    90.633948      109.011    89.821436 
  212000    264.76412   -9596.6788   -8536.7677   -9596.6788            0    8664.1624    18.024404    45.530848    19.384055  -0.37716583   -6.3785106   0.20682527    15907.842    7731.5172    9280.5685    8980.4015   -220.59035     541.8608   -638.37227    18.024404     45.53241    20.407591    89.270982    108.21332    90.474613 
  212500     286.0182   -9587.2372   -8442.2412   -9587.2372            0    8076.0136    18.056076    45.675696    19.317616  -0.56781409   -6.2691663   0.10486816    15931.698    6786.8624    8844.8976    8596.2808    888.13941   -282.25656    2395.3306    18.056076    45.679225    20.309695    89.484327    107.97961    90.712232 
  213000     280.1838   -9594.8592   -8473.2196   -9594.8592            0    8765.2119    17.927021    46.194595     19.18653 -0.012591521   -6.2454258  0.097819427     15888.97    10341.931    7735.3397    8218.3649    570.00191    121.80564   -78.778236    17.927021    46.194597    20.177657      89.7174    108.03042    90.015617 
  213500    279.43375   -9578.4613   -8459.8243   -9578.4613            0    8008.6926    17.901957    46.028426      19.4062 -0.034113348    -6.438422 0.0017020322    15990.688    7904.5819    7728.5891    8392.9067   -327.96216      737.554    635.54393    17.901957    46.028439    20.446366    89.981859    108.35437    90.042464 
  214000    276.73565   -9597.8794   -8490.0436   -9597.8794            0    7424.1538    18.128683    45.627556    19.362902  -0.61270361    -6.597433   0.18595474    16016.364    7748.5269    7029.7524     7494.182    351.02832   -178.12155   -364.87399    18.128683     45.63167    20.456849     89.23109    108.81448    90.769343 
  214500    269.85494   -9571.0894   -8490.7986   -9571.0894            0    7421.8357    18.139453    45.674096    19.351833  -0.50776011   -6.4993724   0.41681292    16033.054    8153.0426    7364.4697    6747.9947    -545.1082    548.48385   -844.22804    18.139453    45.676919     20.41835    88.627587    108.56077    90.636932 
  215000     273.4841   -9649.1238   -8554.3046   -9649.1238            0     7438.803     17.74957     46.21995     19.42693   0.12549972   -6.2287033 -0.062052184    15937.547    8071.4043     7329.123    6915.8816   -190.95131     236.0394    602.10228     17.74957    46.220121    20.401132    90.221769    107.77691    89.844427 
  215500    286.75073   -9622.0335    -8474.105   -9622.0335            0    8695.8887    18.022097    45.880066    19.270978   0.21316564   -6.3622979 -0.094509693    15934.305    9283.7616    8765.2384    8038.6662   -324.10992   -643.45219    1628.2034    18.022097    45.880561    20.294294    90.350278    108.27039    89.733797 
  216000    269.36418   -9599.6779   -8521.3517   -9599.6779            0    8064.2904    18.050786    45.534074    19.355436  -0.34333769   -6.4699118   0.20141957    15908.732    6264.4229    8533.3697    9395.0784    74.396164    89.244948   -367.11251    18.050786    45.535368    20.409146    89.297589    108.48222    90.432016 
  216500    270.78503   -9587.8598   -8503.8456   -9587.8598            0    8432.6506    17.883554    45.796737    19.405271   -0.7346962   -6.4406375   0.26991641     15893.08    7294.5515    9403.9673     8599.433    556.25019    167.72528   -981.17283    17.883554     45.80263    20.447963    88.954246    108.35942    90.919091 
  217000    274.54716   -9576.2314   -8477.1566   -9576.2314            0    8225.4561     17.97636    46.296259    19.124916  -0.11845337   -6.4226961  0.040123865    15916.486    9050.2723     7302.396       8323.7     628.9618   -588.16204    319.50636     17.97636    46.296411    20.174614    89.839379    108.56349    90.146596 
  217500    272.93251   -9537.3078   -8444.6968   -9537.3078            0    8334.5068    17.926575     45.81771    19.411583   0.38789285    -6.454785  -0.11103267    15943.794    10948.499    7773.1125    6281.9089   -132.25998   -951.57221    1080.3872    17.926575    45.819352    20.456934    90.464022    108.39284    89.514945 
  218000    279.49104   -9580.0929   -8461.2266   -9580.0929            0     8329.649    18.147871    45.298231    19.408897 -0.058580637   -6.5814176   0.12771942    15955.403    6985.0863     9343.335    8660.5256   -850.10576    276.05796    418.53887    18.147871    45.298269    20.494796    89.619148    108.73105    90.074096 
  218500    289.74535    -9576.344   -8416.4273    -9576.344            0    7828.2156    18.030785    45.772589    19.362434  -0.74737241   -6.4928991   0.18431972    15980.121    8230.0079    7877.4507    7377.1882    152.97738    162.76311    363.71288    18.030785     45.77869    20.422917    89.185555    108.53732    90.935439 
  219000     274.8715   -9594.1489   -8493.7756   -9594.1489            0    7623.3681    17.998127    46.068381    19.264963  -0.31752211   -6.4110149   0.15086921    15973.439    7046.8717    7749.2632    8073.9694   -405.75975    292.42501    892.96915    17.998127    46.069475    20.304253    89.449582    108.40594      90.3949 
  219500    273.38076   -9583.4036   -8488.9981   -9583.4036            0    6844.4878    18.042371    45.895842     19.42998  0.099814342   -6.4147945  0.075487247    16089.379    5589.2244     7215.479    7728.7601    -1031.773    366.69821   -351.87973    18.042371     45.89595    20.461657    89.827689    108.27048    89.875393 
  220000    278.02054   -9641.9962   -8529.0166   -9641.9962            0    6801.2671    18.087475     45.57004    19.460809  -0.44771112   -6.4369997 -0.036378073    16040.513    7162.5306    6822.9938     6418.277    5.4191922    -327.4901    578.24817    18.087475    45.572239     20.49779    89.924915     108.3025    90.562895 
  220500    267.11982   -9622.4199   -8553.0784   -9622.4199            0    8874.3319    18.023065    45.924066    19.240684  -0.50114608   -6.4926186   0.30061701    15925.368    8485.2687    8403.5032    9734.2238   -214.38802   -130.45151   -914.83027    18.023065    45.926801    20.308825     88.95201    108.64445    90.625215 
  221000    270.93396   -9579.3933   -8494.7829   -9579.3933            0    7811.0901    17.814889    46.405296    19.315626  -0.25561413   -6.4166235    0.3338722    15968.328    8811.6055    7234.3029    7387.3618     158.0334    221.15303   -492.99669    17.814889       46.406    20.356276    88.960743    108.37385    90.315599 
  221500    259.07857    -9605.945   -8568.7944    -9605.945            0    8289.7339     17.99465    45.765725    19.331539  -0.30622527   -6.3903807   -0.1643896     15920.26    7450.5894    8483.9002    8934.7122    399.86491    837.07074    1616.0018     17.99465    45.766749    20.361051    90.342262     108.2916    90.383369 
  222000    269.94049   -9597.3772   -8516.7439   -9597.3772            0    8597.7817    18.026277    45.607025     19.39066  0.036029507   -6.3834559   0.17697853    15941.544    7910.7254    8734.7528    9147.8669    153.66985   -558.20471    -302.9912    18.026277    45.607039     20.41513    89.517451    108.22097    89.954736 
  222500    284.96479   -9580.7119   -8439.9329   -9580.7119            0    8048.7469     17.98436    45.954927     19.33199   -0.4919775   -6.5215087   0.11739863    15977.309    8219.4775    8073.9113    7852.8518    587.97015    211.47429   -73.866157     17.98436     45.95756    20.402688    89.474275    108.64114    90.613365 
  223000      272.434   -9601.2586   -8510.6432   -9601.2586            0    7068.5562    17.955186    46.242346    19.229696   -0.4685507   -6.6095134  0.060818621    15966.223    6829.3078    6527.0874    7849.2732   -287.82974    -202.2152    332.21565    17.955186     46.24472    20.333976    89.639939    108.96847     90.58053 
  223500    279.33272   -9565.4992   -8447.2666   -9565.4992            0    8744.1769     17.93033    45.535946    19.465554   0.42837906   -6.5877989  0.059948205     15893.13    10563.005    8906.4504     6763.075   -654.82791   -188.18934   -367.95762     17.93033    45.537961    20.550194     90.00565    108.69747    89.461006 
  224000    272.93128   -9509.6323   -8417.0262   -9509.6323            0    9157.1212     18.20201    45.368995    19.285324  -0.10796368   -6.3556011  -0.11036035    15925.954    8664.8332    9155.5729    9650.9574   -842.00143   -83.462788    -485.1419     18.20201    45.369124      20.3059    90.268721    108.23969    90.136345 
  224500    268.99291    -9611.412   -8534.5721    -9611.412            0     8184.788    17.870225    45.940378     19.38562  -0.65857566   -6.0882215   0.11139149    15914.914    8440.8143    8360.0101    7753.5396    460.58773    737.57038    147.21577    17.870225    45.945098    20.319476    89.439853    107.43508    90.821304 
  225000    270.71406   -9569.8589   -8486.1288   -9569.8589            0    8314.8336    17.870005    46.057373    19.303538  -0.37417208   -6.2879435   0.22476288     15887.69    8340.8023    8742.8546     7860.844   -187.23216   -207.83354   -2318.9111    17.870005    46.058893    20.303087    89.221557    108.04138    90.465463 
  225500    286.37613   -9575.0413   -8428.6124   -9575.0413            0     8381.565     18.12769    45.689195    19.296947 0.0030766434   -6.6675762  0.017477982    15982.495    7592.5322    9374.2087    8177.9541   -1311.7992     788.3689    106.66499     18.12769    45.689196    20.416391     89.95221     109.0613    89.996142 
  226000    268.45372   -9585.1475   -8510.4661   -9585.1475            0    7270.5966    18.064284    45.525208    19.498486  -0.13929438   -6.6974719 -0.00041516871    16035.171    8202.5367    8129.8476    5479.4055    718.78333    287.38097    1452.5651    18.064284    45.525421    20.616671    89.944204    108.95692    90.175308 
  226500    264.15272   -9545.3803   -8487.9167   -9545.3803            0    7140.4741    17.976475    46.121999    19.298796    -0.421599   -6.3737772   0.27463206    16000.843    7813.1616    7080.9323    6527.3286   -194.95347     -179.247   -1131.6377    17.976475    46.123926    20.325944    89.061618    108.27502    90.523723 
  227000    271.84043   -9542.9434   -8454.7042   -9542.9434            0    7299.3189    17.877476    46.332221    19.297428  -0.39987218   -6.1450471   0.13389717     15984.12    8533.8984    6544.3517    6819.7068   -725.67459    -396.6016   -337.45742    17.877476    46.333947     20.25266    89.471172    107.66309    90.494481 
  227500    260.71854   -9563.1503   -8519.4346   -9563.1503            0    8687.4791    18.005028    45.482837    19.468461   0.17244325   -6.3957794 -0.034377222    15943.108    7549.3373    9922.7918     8590.308   -561.86282    127.31452    1264.3063    18.005028    45.483164    20.492149    90.163917    108.18636     89.78277 
  228000    278.05627   -9578.4017    -8465.279   -9578.4017            0    7748.4892    18.172167    45.505436    19.324617 -0.048068126   -6.6096868  0.063950072    15980.151    7336.2039    7957.6216    7951.6422    453.60456    138.87329    256.35311    18.172167    45.505461    20.423831    89.801011    108.88236    90.060522 
  228500    275.46896   -9552.1723   -8449.4073   -9552.1723            0    9376.1826    17.974369    45.868843    19.295617  -0.60620889   -6.5741585  0.061439583    15908.532    9322.0621    9617.0659    9189.4199    556.30132    135.40967   -947.89947    17.974369    45.872849    20.384901    89.583137    108.81426    90.757185 
  229000    279.87309   -9616.8826   -8496.4868   -9616.8826            0    7525.4801     17.95613    45.908795     19.33939  -0.14708783   -6.5216126   0.10237799    15942.316    6653.8535    7817.4401    8105.1467   -338.59617    122.66028     222.1116     17.95613     45.90903    20.409653    89.653938    108.63485     90.18357 
  229500    274.88195    -9572.618   -8472.2029    -9572.618            0    8576.7233    18.112238    45.464053    19.312299   0.63781712   -6.3549788  0.075399012    15902.824    7869.5948    9363.9808    8496.5941   -207.92886    685.20815   -197.93235    18.112238    45.468526    20.331167     90.03876    108.21437    89.196248 
  230000    278.61937   -9542.7472   -8427.3703   -9542.7472            0    9536.7359    17.949124    45.417796    19.454649  -0.31391166    -6.035769  -0.23239745    15859.618    10552.069     10180.44    7877.6988    411.63214   -35.813317    1188.2682    17.949124    45.418881     20.37076    90.536312    107.23525    90.396002 
  230500    280.87261   -9588.0377   -8463.6406   -9588.0377            0    9239.3456    17.877075    46.003147    19.317409  -0.50791951   -6.1257094   0.20490175     15886.67    10566.223    8073.3876    9078.4267    292.27228   -936.76195   -137.37507    17.877075    46.005951     20.26644    89.229531    107.59332    90.632575 
  231000    276.06698    -9547.707    -8442.548    -9547.707            0     8386.578    18.047227    45.936342    19.232758   -0.2480408   -6.5090486   0.17575807     15944.41    9138.9362    7438.8375    8581.9604   -109.85712   -153.50266    308.24448    18.047227    45.937012    20.305112    89.404879    108.69692    90.309375 
  231500    270.45231   -9569.7967   -8487.1145   -9569.7967            0    7627.5944    18.014444    45.641296    19.439091  -0.26238733   -6.7119278   0.02362747    15982.871    6952.6326    8515.6297     7414.521   -54.620677    316.62617   -1144.3622    18.014444     45.64205    20.565232    89.826672    109.04875    90.329384 
  232000    273.64963   -9589.1367   -8493.6548   -9589.1367            0    7226.9589     18.15826    45.655116    19.304707  -0.20066995   -6.5780924   0.11928336     16003.94    6899.2775     7194.768    7586.8311   -143.72971   -13.406761   -189.44591     18.15826    45.655557     20.39503    89.583672    108.81624    90.251833 
  232500    275.03427   -9585.6887   -8484.6638   -9585.6887            0    7374.2585     17.91864    46.243493     19.29985  -0.29230261   -6.0596108   0.21578665    15992.252    6848.4923    6840.4218    8433.8613     999.1955   -461.20154   -26.977075     17.91864    46.244416     20.22992    89.280357     107.4298    90.362159 
  233000    278.65895   -9579.0817   -8463.5464   -9579.0817            0    7561.7243    17.806396    46.214956    19.441333  -0.34572216   -6.0204011  0.031375816    15998.697    9386.1413    6274.0752    7024.9565   -513.22184   -717.81868     191.8536    17.806396    46.216249     20.35219    89.784887    107.20617    90.428607 
  233500    277.46678   -9588.4185   -8477.6558   -9588.4185            0    8908.6358    18.130108    45.646779       19.268 -0.072152914   -6.4101544  0.071087851    15945.832    8541.2786    9542.8037     8641.825   -99.583177    423.51909    149.81369    18.130108    45.646836    20.306427    89.770832    108.40134    90.090566 
  234000    270.82337   -9538.4155   -8454.2478   -9538.4155            0    8966.9094    18.032124    45.551186    19.354931    -0.105449   -6.6568739  0.089584497    15897.843    9612.4173     8982.154     8306.157    904.57831    434.22395   -23.204765    18.032124    45.551308    20.467911    89.706088    108.97979    90.132637 
  234500    275.91418   -9593.8541   -8489.3068   -9593.8541            0    8626.1372    17.975971    45.755499    19.347005   -0.3464822    -6.617101  0.076778517    15912.903    8609.8467    8581.9947    8686.5701   -195.18439    1083.8456    538.04151    17.975971    45.756811    20.447458     89.64446    108.88168    90.433862 
  235000    273.31395   -9592.0892   -8497.9512   -9592.0892            0    8286.1255    18.094151    46.033389    19.099832  -0.30467989   -6.2483925   0.22219936     15908.92    8008.8247    7937.2883    8912.2635   -125.80873   -1128.5164   -126.36916    18.094151    46.034397    20.097148    89.248614    108.11404    90.379216 
  235500    278.41517   -9591.7452   -8477.1859   -9591.7452            0    8553.2651    17.844332    45.736128    19.491655  -0.20616129   -5.9390717   0.13634573    15907.737    9855.3204    8479.4206    7325.0542   -695.04678   -750.49615   -945.23482    17.844332    45.736593    20.376844    89.541346    106.94549    90.258266 
  236000    280.44386   -9590.1011   -8467.4204   -9590.1011            0     8975.495    18.075741    45.609515    19.294341   -0.2598236   -6.2826251 -0.078478487    15906.752    8351.7671    8941.4131    9633.3048   -115.72977   -262.58556    49.781865    18.075741    45.610255    20.291603    90.120534    108.03615    90.326393 
  236500    272.58125   -9593.6421   -8502.4373   -9593.6421            0    7580.1254    18.044754    45.812258     19.29513  -0.15577483   -6.6526263   0.10268495    15950.722    8102.7254    7299.0574    7338.5934   -554.85474    50.468241   -170.37731    18.044754    45.812522    20.410047    89.648237    109.02306    90.194821 
  237000    269.43236   -9611.8847   -8533.2856   -9611.8847            0    7129.9581    17.943959    46.009196    19.410738  -0.54135766    -6.625037  0.027683776    16025.256    7493.8506    7087.8232    6808.2004   -159.02299    594.48227   -149.41297    17.943959    46.012381    20.510208    89.704923    108.84516    90.674128 
  237500    265.88061    -9606.504   -8542.1233    -9606.504            0    7367.4561    18.151729    45.722573    19.240305  -0.29669096   -6.4548999  0.077560005    15968.371    7406.2608    7513.9504    7182.1571   -646.00623    428.12783    -1841.759    18.151729    45.723535    20.294361    89.662782    108.54587    90.371784 
  238000    280.78031   -9557.2035    -8433.176   -9557.2035            0    6680.3576    17.980103    45.599948    19.548689    0.1043608   -6.2590971   0.28872582    16027.809    6799.7977    8010.8366    5230.4386   -2269.1434   -725.48392   -411.04508    17.980103    45.600067    20.528295    89.234108    107.75221    89.868872 
  238500    283.40324   -9586.7097    -8452.182   -9586.7097            0    7886.2552     17.94974    45.970036    19.348942  -0.49533183   -6.2344165 -0.00094982275    15965.783     7833.742    8438.3767    7386.6469    448.83064     246.7593    601.05509     17.94974    45.972704    20.328539    89.813351    107.85944    90.617344 
  239000    280.14675   -9617.7851   -8496.2938   -9617.7851            0    8326.1825     17.99583    46.117899     19.17332  -0.31971183   -6.3683646  0.061122106    15912.511    7381.3771    7875.8533     9721.317    260.18109    186.60483    760.62916     17.99583    46.119007    20.203366    89.701463    108.37368    90.397196 
  239500    275.50707   -9541.7792   -8438.8616   -9541.7792            0    9048.4782    17.999702    45.589878    19.400469  0.011773292   -6.5399617   0.27296603    15920.107    9845.6993    9034.5457    8265.1897   -647.21871    102.12921   -398.25614    17.999702    45.589879    20.474956    89.240854    108.62741    89.985204 
  240000    285.15808   -9583.5819   -8442.0292   -9583.5819            0    9400.0404    18.078249    45.331992    19.402733  -0.49935052   -6.6017252 0.0064578285    15900.986     9242.535    8992.9478    9964.6384    342.19555   -180.15735    687.51184    18.078249    45.334742    20.495093    89.778663    108.79073    90.631111 
  240500    277.06915   -9539.8115   -8430.6406   -9539.8115            0    8890.2258    18.071613    45.907922     19.20211   -0.3389457   -6.5095991   0.27479264    15930.651     7877.575    9321.3969    9471.7055   -772.47485   -212.99167   -1549.2098    18.071613    45.909174    20.277363    89.087729     108.7251    90.423016 
  241000    279.56455   -9594.8777   -8475.7171   -9594.8777            0    8047.0582    17.722281    46.624479     19.27863  -0.19429273   -6.2485293   0.13046538     15929.78    9440.0004    6586.9481    8114.2259    160.34176   -761.94651     499.0303    17.722281    46.624883    20.266394    89.557541      107.958    90.238761 
  241500    269.28673    -9534.203   -8456.1868    -9534.203            0    6678.8677    17.952501    46.149753    19.388191  -0.20382078    -6.274221 -0.091174144    16063.183     6163.149    7075.0506    6798.4033    688.52552   -870.41929    502.42108    17.952501    46.150203    20.378324    90.178434    107.93194    90.253046 
  242000    281.29091   -9569.3111   -8443.2395   -9569.3111            0    7879.1145    18.179816    45.599869    19.313451  -0.16164649   -6.4387665   0.11271821    16010.797    7999.5014    8110.5378    7527.3044   -697.10876    375.23566   -1043.0573    18.179816    45.600155    20.358777    89.618541    108.43719    90.203106 
  242500     285.5688    -9556.575    -8413.378    -9556.575            0    7793.5377    17.979465    45.859006    19.435509  -0.30995189   -6.5373602   0.22458206    16024.974    8069.1998    8517.4976    6793.9158   -36.133985    600.36235    1129.3881    17.979465    45.860054    20.506743    89.249062    108.58981    90.387245 
  243000    269.53166    -9545.553   -8466.5564    -9545.553            0    8506.7435    17.970545    46.176249     19.23373  -0.53578744   -6.4730028   0.12247039    15960.387    9479.0181    7245.4871    8795.7253    1104.6738     758.9715    933.50372    17.970545    46.179357    20.294116    89.442215    108.60002    90.664779 
  243500    279.57661   -9614.6418   -8495.4329   -9614.6418            0    9446.9831    17.971872      45.7781    19.325336  -0.19463824   -6.1194085   0.18560356    15899.305     9010.106     9617.641    9713.2022    66.396941     165.5504   -554.27754    17.971872    45.778514    20.271908    89.401874    107.56974    90.243607 
  244000    269.83523   -9607.5263   -8527.3144   -9607.5263            0    8495.0659    17.951905    45.391467    19.480313  -0.23201934   -6.0867996  0.022760353    15873.793    8036.0806    8879.4804    8569.6365   -165.97692   -888.80329   -637.54218    17.951905     45.39206    20.409122     89.84876    107.35187    90.292866 
  244500     285.0707   -9557.7641   -8416.5611   -9557.7641            0    8869.9684    18.076817    45.771824    19.225179  -0.49396471   -6.4646747 -0.027499295    15907.084    8378.3424    9773.5465    8458.0165    290.06108    668.55663    433.49979    18.076817    45.774489    20.283005    89.880611    108.58576    90.618306 
  245000    284.99846   -9589.5699   -8448.6562   -9589.5699            0    8349.6167    17.967605    45.950112    19.280255  -0.40802061   -6.6621991   0.10855476    15918.038     7329.117    8636.9414    9082.7919    325.55867   -34.078595    -131.7355    17.967605    45.951924     20.39914    89.528953    109.06206    90.508753 
  245500    274.58805   -9583.0195    -8483.781   -9583.0195            0    8399.2946     17.95672    45.789731    19.394774  -0.32653044   -6.4793129  0.076740607    15947.031    8100.8126    9514.4638    7582.6074    358.56872    402.49569     1029.359     17.95672    45.790895    20.448586    89.655521    108.47306    90.408574 
  246000    272.55554   -9583.1055   -8492.0036   -9583.1055            0    7818.2399    18.064722      45.7865    19.304692  -0.22328926   -6.0866355  0.055115654    15967.305    8204.7178    7803.9695    7446.0323    511.40686   -337.69515     406.0931    18.064722    45.787045    20.241574    89.759971    107.49963    90.279415 
  246500    274.41555   -9579.4261   -8480.8781   -9579.4261            0    7707.4519    17.860716    45.902665    19.518941  -0.21264247    -5.875939   0.10354866    16002.691    7835.3072    7381.1694    7905.8792     -604.653   -848.13357     754.6952    17.860716    45.903157    20.384466    89.632442    106.75356    90.265419 
  247000     272.9901   -9570.2387   -8477.3971   -9570.2387            0    6592.3322    18.039451    46.116942    19.308141  -0.31786018   -6.7021289 -0.044735982    16062.911    5635.0372    6774.6794      7367.28    311.11137     685.9109    1023.2603    18.039451    46.118038    20.438318    89.995912    109.14256    90.394904 
  247500    276.38401   -9584.1646   -8477.7364   -9584.1646            0     7823.226    18.033283    45.960539    19.282636  -0.21921381   -6.8422554   0.11842702    15981.822    8346.6085    6902.2811    8220.7883   -664.93779    -365.1622   -1569.2603    18.033283    45.961062    20.460951     89.57699    109.53639    90.273276 
  248000    264.88343   -9566.3897    -8506.001   -9566.3897            0    7096.8108    17.961295    45.829064    19.491733  -0.47733867   -6.4291429   0.18482904    16044.607     7402.378    7569.5112    6318.5432    322.29056   -92.163546   -73.918883    17.961295     45.83155    20.525489    89.297155    108.25383     90.59675 
  248500     268.9597   -9628.0145   -8551.3076   -9628.0145            0    6988.6188    18.055908    45.708548    19.339944  -0.41698878   -6.1353235  0.059478754    15961.437    6619.3294    7026.1194    7320.4076    313.56423    266.69467   -174.79559    18.055908     45.71045    20.289879    89.673997    107.60081    90.522682 
  249000    268.42961   -9613.9999    -8539.415   -9613.9999            0    7933.5584    17.987605    45.886986    19.337461  0.076135592   -6.1914729  0.078605881    15961.082    7530.8738    7444.7336    8825.0677    433.62306   -257.23212   -1512.8414    17.987605     45.88705    20.304628    89.807177     107.7539    89.904935 
  249500    268.96381   -9599.2974    -8522.574   -9599.2974            0    7754.0069    17.880703    46.053885    19.370853  -0.11611749   -6.6534887   0.14354453     15951.43    8104.9001    7826.6956    7330.4249    581.55961    728.85109   -82.447383    17.880703    46.054031    20.482174    89.551525    108.95606    90.144462 
  250000    276.89068   -9579.0138   -8470.5573   -9579.0138            0    7945.8672    18.082573    45.875881    19.222716  -0.73940565   -6.8886138    0.1502066     15946.28    8128.5065    8129.9591    7579.1359    911.35675    906.00133   -548.17575    18.082573    45.881839    20.420293    89.267098    109.71499    90.923386 
  250500    271.31123   -9559.4173   -8473.2966   -9559.4173            0    10268.406    17.940571    45.675249    19.369354  -0.39098428   -6.4994109   0.17854545    15872.024    9867.3107    10382.393    10555.514    430.85491    111.63184    920.35659    17.940571    45.676923    20.431498    89.343299    108.54851    90.490445 
  251000    267.80726   -9534.5304   -8462.4369   -9534.5304            0    9570.1131    17.969663    45.738278     19.33255  0.064876897   -6.1588207  0.063823518    15889.451     9688.482    9008.2333    10013.624   -482.43237   -52.287145    376.74937    17.969663    45.738324    20.289964    89.844441    107.67036     89.91873 
  251500    276.05411   -9617.6088   -8512.5013   -9617.6088            0    8634.4292    18.002287    45.666988    19.285959  -0.15349639   -6.2102774  0.052853937    15855.184     8565.869    8595.0484    8742.3704    670.01988   -628.31828    1138.7487    18.002287    45.667246    20.261257    89.791509    107.84903    90.192582 
  252000    266.66523   -9588.4849   -8520.9632   -9588.4849            0    8644.9742    17.935166     45.72232    19.416113  -0.49705402   -6.5249173   0.18704063    15921.939     8511.357    8830.4197    8593.1458     449.5066     433.6443    447.07461    17.935166    45.725021    20.484017    89.278445    108.57447    90.622846 
  252500    272.27643   -9547.2493   -8457.2647   -9547.2493            0    8077.8684    18.080551    45.858479    19.267001  -0.38474799   -6.7105286   0.14650238    15975.168    8492.9822    7139.0661    8601.5568    -394.6182   -273.62529    642.29102    18.080551    45.860093    20.402695     89.43049    109.20227    90.480694 
  253000    275.50581   -9602.1004   -8499.1879   -9602.1004            0    6972.8981     17.96548    46.048411    19.343809  0.014942256   -6.5097068 -0.025032248    16002.782    6939.3625     5965.818    8013.5138    364.14924   -223.91529     375.6232     17.96548    46.048414    20.409798    90.076202    108.59944    89.981408 
  253500    271.84153   -9507.6046   -8419.3611   -9507.6046            0    7246.8924    17.830283    46.138816    19.483301    0.2349029   -5.9567405  0.022815705    16028.291    8140.7849    6680.0376    6919.8548   -1621.2582    183.04548   -536.25359    17.830283    46.139414    20.373569    90.021124    107.00025    89.708297 
  254000    264.82017    -9603.123   -8542.9875    -9603.123            0    6967.5501    18.118623     45.73343     19.32674  -0.36909793   -5.9857468   0.11443711    16014.654    5401.9665    6889.8981    8610.7858    496.86935    -795.3654    10.873099    18.118623    45.734919    20.232774    89.539141    107.20816    90.462403 
  254500    283.38208    -9569.542   -8435.0989    -9569.542            0    7568.5651     18.03203    45.661426    19.471681  -0.46990738   -6.4335818   0.12655321    16032.363    7546.2173    8198.7064    6960.7717    1224.4994    362.13678   -946.77586     18.03203    45.663844    20.507398    89.461461    108.28356    90.589617 
  255000    271.37812    -9585.845   -8499.4565    -9585.845            0    7792.3823    18.053956     45.88109    19.303336  -0.20791295   -6.7632443  0.054032809    15989.632    5740.0528    8686.2299    8950.8641    384.91221    552.16538    1574.5712    18.053956    45.881561    20.453928    89.762793    109.30869    90.259638 
  255500    266.93273   -9580.5442   -8511.9516   -9580.5442            0    8596.9531    17.935612    46.083976    19.296876  -0.20845952   -6.6384568  0.093827115    15949.723    11354.837    6821.9529    7614.0694    76.907649   -965.06843    561.97566    17.935612    46.084447    20.407041    89.652257    108.98389    90.259174 
  256000     284.5638   -9589.5509   -8450.3771   -9589.5509            0    6971.7794    18.062764    45.668389    19.396893  -0.39694844   -6.1903184    0.1090929    16000.445    6714.5776    6759.1848    7441.5756    783.29562   -97.885542   -675.69151    18.062764    45.670114    20.361026    89.541616    107.69968    90.498001 
  256500    277.64183   -9569.0573   -8457.5938   -9569.0573            0    7275.3769    18.116581     45.50464    19.453998   -0.2352829    -6.067572    0.1740886    16037.652    6111.0394    8236.9436    7478.1477    224.14507   -413.17167   -828.64839    18.116581    45.505248    20.379003    89.422342     107.3217    90.296247 
  257000    276.98509   -9562.1028   -8453.2684   -9562.1028            0    8432.5864     17.93001     45.94418    19.313867  -0.11952452   -6.4237254  0.055007755     15910.37    8090.8801    8320.1366    8886.7424     261.2224   -379.76751    -854.9905     17.93001    45.944335    20.354182    89.798115    108.39688    90.149056 
  257500    284.37138   -9631.4302   -8493.0268   -9631.4302            0    8088.0911     18.03387     45.88085    19.235327 -0.074056815   -6.7022584 0.0055160962    15915.489    9017.7702    7455.8875    7790.6155    98.637314    147.48597    443.09098     18.03387     45.88091    20.369539    89.954055    109.21012    90.092482 
  258000    270.77272   -9583.3637   -8499.3987   -9583.3637            0    7880.5825      18.0184    45.711841    19.378405  -0.27402828   -6.4739912     0.248778    15961.105     7055.222    8633.2183    7953.3072   -400.56481    113.52308   -1257.5975      18.0184    45.712663    20.432744    89.193559    108.47217    90.343466 
  258500    270.90775   -9567.3828   -8482.8774   -9567.3828            0    8376.1815     17.85751    45.835469    19.452754  -0.68123287   -6.0368167   0.16676608    15922.222     8789.736    8173.0293    8165.7794   -105.99002   -286.38669    356.74814     17.85751    45.840532    20.368618    89.278572    107.24021      90.8515 
  259000     265.3475   -9604.1391   -8541.8926   -9604.1391            0    8281.8271    18.082596     46.06559    19.129518  -0.32990464   -6.1031286  0.013588067     15934.61    6618.2767    8665.5687    9561.6359    421.17281   -405.01619   -279.54369    18.082596    46.066771    20.079512    89.836512    107.69489    90.410324 
  259500    267.94517   -9580.9693   -8508.3237   -9580.9693            0    7871.8807    17.969605    45.781017    19.368855   0.22516941   -6.6226298  0.099587131    15934.114    8877.4674    7245.2861    7492.8886   -1009.7877   -167.94731   -1208.7778    17.969605    45.781571    20.470019    89.812428    108.87643    89.718199 
  260000    262.36906   -9614.4188   -8564.0957   -9614.4188            0    7840.9467      18.0068    45.746194    19.406294  -0.29136967   -6.7156892  0.054896845    15985.791     8511.714    7607.4513    7403.6748    -771.5011    288.56816   -129.92556      18.0068    45.747122    20.535524    89.727495    109.08848    90.364927 
  260500    266.19928    -9569.652   -8503.9956    -9569.652            0    6963.6446    18.084926    45.980371     19.28121  -0.57181388   -6.4374843   0.16501612    16033.321    5030.2152    7447.3939    8413.3249    349.88069    298.41345   -607.53245    18.084926    45.983926    20.328145    89.309288    108.46217    90.712496 
  261000    276.48319    -9596.321   -8489.4958    -9596.321            0    8535.9071    17.970319    45.740169    19.413403  -0.19459126   -6.1417904   0.16862262    15957.146    8604.0999    8278.9803     8724.641    183.00251    616.15795    271.79762    17.970319    45.740583    20.362471    89.452006    107.55511    90.243751 
  261500    281.29211   -9601.2173   -8475.1409   -9601.2173            0    8154.6855    18.040318    45.475436    19.467604   0.21206599   -6.2988721  -0.14182418    15971.054    8563.3575    7659.7254    8240.9737   -325.78424   -322.11894    452.66205    18.040318     45.47593    20.461757    90.479378    107.92889    89.732814 
  262000    278.79202   -9613.3611   -8497.2931   -9613.3611            0    9280.2345     18.06282    45.865856    19.193618 0.0045154293   -6.7285355  0.010070563    15901.274    7705.1357    8919.4678      11216.1   -715.55955    492.32718     34.30268     18.06282    45.865856    20.338837    89.973497    109.31868    89.994359 
  262500    272.84571   -9580.7109   -8488.4473   -9580.7109            0    7989.4271    17.925057    46.239525    19.261301  -0.47439807   -6.7549821   0.26053032    15964.655    6533.3487    8694.3011    8740.6313    116.60824    1472.1725   -609.18706    17.925057    46.241959    20.413118    89.074228    109.32425     90.58781 
  263000    282.55244   -9594.4688    -8463.347   -9594.4688            0    6356.2185    18.036775    45.904733    19.408549  -0.67417978   -6.4118241   0.12000132    16069.761    6686.9513    5305.5628    7076.1415    58.050164   -690.80245    159.47961    18.036775    45.909683    20.440588    89.399731    108.28121    90.841414 
  263500    272.15322   -9514.1934    -8424.702   -9514.1934            0    7449.4636    18.073373    45.721931    19.424028  -0.21883162   -6.2284608   0.12515334    16051.036     6941.049    7726.0705    7681.2712    402.10315   -630.99908   -100.94474    18.073373    45.722454    20.398585    89.564737    107.77849    90.274224 
  264000    269.23099   -9598.3062   -8520.5132   -9598.3062            0    6666.0742    18.052753    45.886802    19.358139 -0.043852534   -6.3971505 -0.049244835    16035.956     6667.792    6111.6306    7218.7998    611.32196   -145.35381    195.86327    18.052753    45.886823    20.387828    90.121212    108.28676    90.054756 
  264500     270.7322    -9638.319   -8554.5163    -9638.319            0     6600.061    18.000474    46.180685    19.304535  -0.14705777   -6.7953369   0.13053792    16047.362    7013.3058    6548.9435    6237.9337   -944.55132    249.01264   -355.24219    18.000474    46.180919    20.466038    89.573971    109.39203    90.182452 
  265000    273.48693   -9602.5154   -8507.6849   -9602.5154            0     7207.457    18.052804    45.910113    19.334957  -0.60985524   -6.8562536   0.26593305    16024.934    6984.5051    6560.5009    8077.3651   -212.37132    1300.1123   -434.71712    18.052804    45.914163    20.516323     89.00302      109.523    90.761054 
  265500    264.36968    -9599.287   -8540.9549    -9599.287            0    8285.8331    18.082555    45.366439    19.444862  -0.49538583   -6.3516693   0.09709451     15951.42    8211.9504    9648.2729    6997.2761    70.361387    1196.4979    -343.1735    18.082555    45.369143    20.456192    89.533805    108.08943    90.625625 
  266000    270.47495   -9594.9859    -8512.213   -9594.9859            0    8239.6012    17.935545    45.676685    19.395265 -0.043362303   -5.9454037  0.086344161    15889.303    8461.0349    7706.6342    8551.1346    510.63669   -1766.6451   -419.50579    17.935545    45.676705    20.286241    89.740191    107.04218    90.054393 
  266500    287.93754   -9589.6372   -8436.9576   -9589.6372            0    7409.2632    17.936469    46.376802    19.231912 -0.079263595   -6.2341158   0.15625091    15997.798    6656.2959    7684.5221    7886.9714   -929.98586    234.64861   -656.34992    17.936469     46.37687    20.217691    89.526994    107.95979    90.097925 
  267000    275.84754   -9598.7495   -8494.4689   -9598.7495            0    8843.3547    17.893861    46.034199     19.29546  -0.61522476   -6.6317955   0.15324493    15894.241    8877.4914    8615.9571    9036.6156   -33.518926    140.39895    216.71121    17.893861     46.03831    20.403896    89.320838    108.96715    90.765685 
  267500    286.54098   -9618.8921   -8471.8032   -9618.8921            0    8627.9995    18.061131    45.623083    19.289315  -0.47395773    -6.680228   0.17341272    15894.482    9127.4716     8441.126     8315.401    635.19938    -161.4922    214.46845    18.061131    45.625545    20.414044    89.318528    109.10115    90.595199 
  268000    278.58284   -9601.6146    -8486.384   -9601.6146            0    8390.2723    18.054826    45.464098    19.355869  0.065477241   -6.3501717  0.070333945    15888.195    8642.4915    8737.8622    7790.4633   -184.61192   -848.97095   -794.19106    18.054826    45.464145    20.371041    89.827901    108.16324    89.917483 
  268500    281.36779   -9627.2097   -8500.8303   -9627.2097            0    7623.3076    17.890416    45.993819    19.386841  -0.12359662   -6.0851167  0.008235009    15952.435    8911.1351    7231.7072    6727.0805    531.65124   -709.51966    293.00336    17.890416    45.993985    20.319408     89.93067    107.42596    90.153967 
  269000    266.55402   -9579.6179   -8512.5414   -9579.6179            0    7325.9383    18.032532    46.090776     19.26498  -0.53198362   -6.3063301   0.23122994    16011.767    6891.8886    7594.6268    7491.2993    826.64488   -547.00956   -148.91901    18.032532    46.093846    20.272215    89.140772    108.12448    90.661283 
  269500    263.20556   -9501.3631   -8447.6912   -9501.3631            0    7840.4355    18.023214     45.84319    19.409159  -0.54896131    -6.713647   0.14541091    16036.655    8010.4942    8160.8883    7349.9239    148.77431    331.33419   -268.32115    18.023214    45.846477    20.538005    89.370094    109.08006    90.686071 
  270000    276.59051   -9588.5616   -8481.3068   -9588.5616            0    7700.7968    18.021476    45.810287    19.386632 -0.065099117   -6.6822438 -0.032459545    16005.003    7703.2801    7517.3579    7881.7524   -561.57047    776.74889    600.42546    18.021476    45.810333    20.505974    90.064163    109.01818    90.081421 
  270500    271.78561   -9575.5944   -8487.5747   -9575.5944            0    7564.2751    18.068168    45.898656    19.315969  0.010928616   -6.2664703  0.025248038    16018.823    7586.3011    7628.0446    7478.4798   -29.046854   -316.87534    613.68375    18.068168    45.898657    20.307042    89.932973    107.97404    89.986358 
  271000    263.30579   -9571.7956   -8517.7225   -9571.7956            0    8470.1626    17.890307    45.858582    19.387656  -0.44419254   -5.9038096   0.25252026      15906.1    8193.8996     8950.417    8266.1711     513.9752   -25.530781   -676.62059    17.890307    45.860733      20.2682    89.124507    106.93486    90.554957 
  271500    284.67049   -9572.2211   -8432.6203   -9572.2211            0    8438.5184    17.971052    45.867376    19.318924  -0.70196225   -6.3149227  0.066877692    15924.299     8292.699    8316.3642    8706.4919   -138.30502    565.31544    239.66475    17.971052    45.872747    20.324949    89.539081    108.10131    90.876796 
  272000    289.89551   -9596.0202   -8435.5024   -9596.0202            0    8607.7361    18.037266    45.937273    19.249391  -0.07281381   -6.7759062   0.17241141    15949.714    8499.0401    7474.3219    9849.8464   -1099.4092   -75.200849   -529.87343    18.037266    45.937331    20.407883     89.48579    109.39167    90.090818 
  272500    275.89573   -9537.8373   -8433.3639   -9537.8373            0    7913.1973    17.968414    45.807932    19.454139  -0.11053959   -6.6636548   0.10002375    16012.622    9154.2191     7049.242    7536.1309   -1385.7688   -744.33973    -635.5983    17.968414    45.808065    20.563994    89.676508    108.90771    90.138261 
  273000    270.91339   -9546.2297   -8461.7017   -9546.2297            0    7462.9935    18.031549    45.734442    19.383247  -0.69073023   -6.1591116  0.010017428    15984.644     8544.256     6391.316    7453.4087   -66.819455   -941.42748   -257.50556    18.031549    45.739657    20.338265    89.709757    107.62788    90.865276 
  273500    275.60019   -9568.5151   -8465.2248   -9568.5151            0    8277.0387    17.969823     45.88179    19.422712  -0.36035092   -5.9036641   0.15886929    16013.787    7551.1355    8224.1481    9055.8326    1361.9041   -821.39019    208.40281    17.969823    45.883205    20.300745     89.42076    106.90647    90.449986 
  274000    279.29725   -9511.2051   -8393.1146   -9511.2051            0      8697.46    17.953038    46.042528    19.340126 -0.047257785   -6.2751387   0.13298062    15986.611    8728.3698    8471.2424    8892.7677   -277.28391    618.08571   -569.01903    17.953038    46.042552    20.333114    89.607128    107.97589    90.058808 
  274500     278.9376   -9578.9986   -8462.3478   -9578.9986            0    7285.1415    18.010068    45.957319    19.329835  -0.40993763   -6.7369778 -0.042302828    15999.196    6679.9223    7264.6047    7910.8974    451.72924    1094.6269   -810.34796    18.010068    45.959147    20.470251    89.950206    109.21481    90.511063 
  275000    286.30913   -9611.6986   -8465.5379   -9611.6986            0    6796.6473    18.030952    45.960284    19.371068  -0.16344471   -6.6294161   0.19338436    16052.953    6015.3375     7636.737    6737.8674   -107.44385    698.10585    603.45975    18.030952    45.960575    20.474981    89.392867    108.89176    90.203755 
  275500    271.49061    -9613.428   -8526.5892    -9613.428            0    7077.3098    18.012923    45.919196    19.322767  -0.41331022   -6.2194711   0.17998993    15982.613    6549.1864    7463.0708    7219.6722    150.89787   -733.17474    876.64516    18.012923    45.921056    20.299841    89.333992    107.84122    90.515695 
  276000    283.83223   -9560.0044   -8423.7593   -9560.0044            0    6918.7053    18.019399    45.836484    19.422694  -0.58053096   -6.1192302  0.050009113    16042.095    6375.0817    7042.3995    7338.6347    596.52565   -1154.6159    142.28274    18.019399     45.84016    20.363902    89.641263    107.48728    90.725627 
  276500    268.90421   -9555.1665   -8478.6816   -9555.1665            0    7739.7832    18.007365    46.071721    19.269003   0.42519734   -6.5626378   0.09817515    15986.149    8280.1006    7244.1495    7695.0996   -1237.7292   -160.85785   -768.19421    18.007365    46.073683    20.356137    89.894149    108.80759     89.47123 
  277000    269.90059   -9573.9159   -8493.4423   -9573.9159            0    7534.3675    18.028842    45.959678    19.299151  0.053985016   -6.8324565 -0.0012034253    15991.272    7579.6861    7937.4353    7085.9812    337.19083   -254.84048    502.61418    18.028842     45.95971    20.472901    90.025828    109.49543    89.932699 
  277500    278.64541    -9626.649    -8511.168    -9626.649            0    7435.7661    18.062306    45.808635    19.332721  -0.81428777   -6.5945432   0.18735698    15996.079    6823.1682    7716.2513    7767.8787    1400.3403    121.59404    54.939131    18.062306    45.815872    20.427364    89.145799    108.83409    91.018374 
  278000    262.47428   -9565.4024    -8514.658   -9565.4024            0     7421.034    18.018807    45.807276    19.387872  -0.31097207   -6.3278095   0.27542911    16002.603      8370.59    6349.2977    7543.2142   -750.34449   -1407.1329   -329.24737    18.018807    45.808331     20.39624    89.105593    108.07393    90.388958 
  278500    279.02601   -9610.1318   -8493.1271   -9610.1318            0    7294.2571    17.930248    45.941366    19.380527 -0.069788401    -6.247036 -0.030297131    15964.518    7223.7403    6636.5498    8022.4812   -28.590987   -367.49478    278.83025    17.930248    45.941419    20.362495    90.058548    107.86596    90.087037 
  279000    274.68513   -9617.9761   -8518.3489   -9617.9761            0    6634.9498    18.028625    45.812842    19.367234  0.052184894   -6.4985568  0.021505297    15996.223    5441.2817    6776.7736    7686.7942   -85.359155     -194.911    1187.8102    18.028625    45.812871    20.428448    89.960446    108.54885    89.934735 
  279500    281.21106   -9606.2386   -8480.4867   -9606.2386            0    7744.8982    18.135824    45.664474    19.300514  -0.47449496   -6.8474277   0.31722315    15983.968    7580.4386    6998.8593    8655.3967   -193.94201    308.34457   -1629.1848    18.135824    45.666939    20.481643    88.913548    109.53121    90.595333 
  280000    280.74681   -9585.7899   -8461.8965   -9585.7899            0    6769.0199    17.968159    45.823734    19.442032  -0.86473875   -6.7204407  0.047419056     16007.95    6959.8225    6958.6475    6388.5897    975.67856    297.10217   -297.91666    17.968159    45.831893    20.570833     89.51477    109.06845    91.081099 
  280500    273.15283   -9548.0611   -8454.5681   -9548.0611            0    7959.7137    18.064871    45.919743    19.263533   0.10483694   -6.3766832  0.053911706     15979.76    6082.3025    8155.2494    9641.5893   -1446.5373    31.570781   -488.71399    18.064871    45.919862    20.291592    89.888881    108.31569    89.869191 
  281000    276.88901   -9565.7219   -8457.2721   -9565.7219            0    7878.5553    17.987101     45.79748    19.392678  -0.03363217   -6.2082984  0.058728057    15974.989    8889.1219    7496.5109    7250.0333    447.57911   -1307.9646    533.29637    17.987101    45.797492    20.362278    89.821921    107.75167    90.042076 
  281500    271.56404   -9534.9611   -8447.8283   -9534.9611            0    5983.0737    18.106693    45.677611    19.480557  -0.52243982     -6.43488    0.1049011    16111.793    6051.7015    5933.4877    5964.0319    1045.4662   -241.31775   -639.49966    18.106693    45.680599     20.51611    89.501525    108.27934    90.655295 
  282000    268.75871   -9564.7461   -8488.8437   -9564.7461            0    5733.3313    18.182313    45.994798    19.330726  -0.22822695   -6.7534691   0.29345816    16166.129    6237.4166    5472.8684    5489.7089   -1175.4265    782.62727   -859.54731    18.182313    45.995365    20.478585    89.085166    109.25555      90.2843 
  282500    272.64404   -9559.8669   -8468.4106   -9559.8669            0    6967.1368    17.931048     46.03329    19.432815  -0.53942561   -6.6451236  0.037371975    16040.334    8097.8951    6582.5419    6220.9735   -55.991566    544.41697     797.2001    17.931048    46.036451    20.537608    89.678522    108.87828    90.671371 
  283000    281.31689   -9599.9444   -8473.7687   -9599.9444            0    7503.2688    18.068187    45.858411    19.333956 -0.064356583   -6.4415941  0.097572452    16019.697    7388.1216    7359.3271    7762.3577    2.1637796    -334.2244   -1335.4595    18.068187    45.858456    20.379046    89.700258    108.42657    90.080407 
  283500    255.68848    -9546.068   -8522.4887    -9546.068            0     7377.555     18.03397    45.825801    19.323855 -0.038999792   -6.2554241   0.16645105    15969.642    5512.3062    8347.6271    8272.7315   -1274.5986   -646.27128   -636.53731     18.03397    45.825818    20.311804     89.51545    107.93693    90.048761 
  284000    273.22899    -9570.082   -8476.2841    -9570.082            0    8178.5724     17.85891    45.975202    19.427355  -0.50325669   -6.3052459 -0.045358329     15951.16    9727.2379    6824.7754    7983.7038    331.12802   -959.61404     360.2664     17.85891    45.977956    20.424992    89.933632    107.98105     90.62715 
  284500    287.11792   -9497.2698   -8347.8713   -9497.2698            0     8021.367    18.127127    45.880981    19.219476 -0.020518023    -6.619666   0.10705473    15984.653     6956.332    8485.7268    8622.0423   -1297.8494   -74.342656     803.4881    18.127127    45.880986    20.327806    89.689911    109.00471    90.025623 
  285000    280.77171   -9607.0833   -8483.0902   -9607.0833            0    8487.2904    17.989364    45.469145    19.456895   0.19887316   -6.6311374   0.26210926    15914.981    8814.9949    9963.7632    6683.1132   -1050.5792    551.07157   -480.93846    17.989364    45.469579    20.557515    89.350303    108.81812    89.749401 
  285500    273.97333   -9601.7234   -8504.9457   -9601.7234            0     8094.905    18.115715    45.673662      19.2671  -0.88813366    -6.426903  0.025696296    15941.811     6938.098    8258.3384    9088.2787    1438.8853    626.82067   -1180.6458    18.115715    45.682296    20.310758    89.575046    108.44707    91.113988 
  286000    270.29086   -9613.2117   -8531.1757   -9613.2117            0    8271.7624     17.90295    45.950515    19.386061  -0.36107971   -6.2370617   0.19771155    15947.939    8596.4384    8443.9168     7774.932    525.49754   -169.72426   -95.904017     17.90295    45.951934    20.365642    89.305887    107.83363    90.450222 
  286500    280.18065   -9563.7396   -8442.1126   -9563.7396            0    6929.0579    18.028264    46.003425    19.328325  0.061414523   -6.3677241    0.1114722    16030.176    7689.6959    6260.8684    6836.6095   -1184.4674   -130.74935   -735.43437    18.028264    46.003466     20.35054    89.710089     108.2342     89.92351 
  287000    270.13296   -9598.4395   -8517.0356   -9598.4395            0    7793.2247    18.085273    45.842022     19.27377  -0.15861152   -6.4589586 -0.040194203    15979.217     6972.405    7969.4198    8437.8493    -386.9472   -177.34199    229.37792    18.085273    45.842296    20.327271    90.050303    108.52681     90.19824 
  287500    283.80102   -9577.4006   -8441.2804   -9577.4006            0    8314.3203    17.941452    45.531694     19.48303 -0.098859619   -6.5029042   0.25578063    15915.779    7863.3723    9020.5129    8059.0758   -545.56358    169.95679   -592.23521    17.941452    45.531802    20.541218    89.247146    108.45612    90.124402 
  288000    266.34353   -9608.7571   -8542.5233   -9608.7571            0    9738.2309    18.074479    45.749952    19.098126  -0.41415422   -6.5472622   0.10853853    15792.366    9366.6287    9136.8085    10711.256   -80.595616   -15.663711   -60.500211    18.074479    45.751826    20.189523    89.523792    108.92257    90.518659 
  288500    267.52264   -9629.2805   -8558.3263   -9629.2805            0     8634.916    17.911946    46.089116    19.238122  -0.49630456    -6.436944 -0.021383858     15881.95    9210.2501     8082.495     8612.003    759.09128   -31.496623    1400.1148    17.911946    46.091788     20.28645    89.864633    108.49988    90.616958 
  289000    281.14006   -9540.2737    -8414.806   -9540.2737            0    7668.4631    18.000617    45.871845    19.403046   -0.1935735    -6.442177   0.20354991    16021.513    7744.9271    7343.0496    7917.4126    -122.7871   -289.59576    -872.1661    18.000617    45.872254    20.445569     89.35339     108.3662     90.24178 
  289500    272.10798   -9604.7405   -8515.4303   -9604.7405            0    8077.4267    18.162893     45.54533    19.303777  -0.31098101   -6.3995794 -0.028108207    15968.759    7459.3657    8925.6599    7847.2544    169.23301     -665.318    1100.7367    18.162893    45.546392    20.336942    89.956085    108.34135    90.391206 
  290000    282.49635   -9593.8921   -8462.9948   -9593.8921            0    7715.2431    17.962474    45.892922    19.387262   0.02151228   -6.3088527 -0.052249396    15981.897    9042.0061    6628.0642     7475.659   -235.19853    7.0926704   -10.080006    17.962474    45.892927    20.387993    90.155146    108.02546    89.973143 
  290500    269.14505   -9566.3431   -8488.8941   -9566.3431            0    6963.3993    17.909566    46.279297    19.343543  -0.11656229    -6.361753    0.3018593    16032.743     7605.356    6235.2166    7049.6253    167.96377   -383.12876   -908.13599    17.909566    46.279444     20.36506    89.105625    108.20306    90.144309 
  291000    271.29788   -9527.4482    -8441.381   -9527.4482            0    7660.7055    18.044526    46.093229    19.283364   -1.0938494   -6.5175226   0.17329899    16038.562    6639.4717    8063.9117    8278.7331    1113.3982    397.57138    998.48599    18.044526    46.106206    20.355743    89.077081    108.67387    91.359445 
  291500    281.51559   -9580.4267   -8453.4557   -9580.4267            0    8245.2233    17.960482    45.708346     19.42511  -0.17907313    -6.530108   0.11745701    15946.926    9593.6032    8513.2774    6628.7893    12.677945    169.70234    613.33408    17.960482    45.708696    20.493682    89.600091     108.5807    90.224468 
  292000    269.79516    -9586.919   -8506.8674    -9586.919            0    8735.6802    17.983549    45.816979     19.29764   0.49361039   -6.4163972  0.069743879    15900.327     9210.146    8525.9843    8470.9103   -26.371623    391.53099     403.4073    17.983549    45.819638    20.336517    89.998263    108.39167    89.382746 
  292500    269.97866   -9590.1267   -8509.3406   -9590.1267            0    8381.3125    17.906739    46.066107    19.308558  -0.57497506   -6.2596435 -0.061282926    15927.508    9370.3176    7215.1751    8558.4447    1170.8741   -948.17729    952.23283    17.906739    46.069695    20.297963    89.952449     107.9621    90.715101 
  293000    267.92827   -9625.5028   -8552.9248   -9625.5028            0    8641.4085    17.950907     45.66663    19.329837   -1.0991446     -6.25287   0.32446748    15845.777    7272.5138    8367.1253    10284.586    1481.4806   -345.90205   -130.31076    17.950907    45.679856    20.318618    88.660922    107.92314    91.378779 
  293500    269.52181   -9537.8189   -8458.8616   -9537.8189            0    8432.7731    17.996702    45.677136    19.411401  -0.24932377   -6.3980964   0.27782202    15956.906    8203.9708    9332.6349    7761.7135    611.86824   -353.10155   -380.66284    17.996702    45.677816    20.440531    89.123339    108.24074     90.31274 
  294000    280.75635   -9560.6863   -8436.7547   -9560.6863            0    7724.2031    17.989848    45.954273    19.345298 -0.088110036     -6.46141 -0.054927246    15992.958    8992.9948    6972.3373     7207.277    552.13843    -446.1994    498.36514    17.989848    45.954357    20.395916    90.119498    108.46946    90.109855 
  294500    281.76301   -9588.8219   -8460.8603   -9588.8219            0     8331.192    18.005114    45.992058    19.290857   -0.2830989   -6.5336488   0.11548292    15974.609    8716.9015    8414.6651    7862.0094     54.45052    413.12986    753.59901    18.005114     45.99293    20.367599    89.562007    108.71049    90.352673 
  295000     288.3656   -9610.5087   -8456.1155   -9610.5087            0    9170.9585    17.926231    45.787957    19.321364  -0.21153751   -6.5301207   0.40982866    15859.081    9564.8971     8741.496    9206.4825   -1851.2374    417.19184   -1150.3856    17.926231    45.788446    20.399155    88.764082    108.67001    90.264701 
  295500    287.39948   -9604.0874   -8453.5618   -9604.0874            0    9245.5454    17.962478    45.507266     19.38208   -0.8661877   -6.3795674 -0.019717272    15843.362    10217.557    8615.9455    8903.1332    1371.5763   -227.12836    706.86029    17.962478    45.515509    20.405006    89.714451    108.21883    91.090439 
  296000    274.87638    -9593.468   -8493.0752    -9593.468            0    8410.3044     18.03854    45.699226    19.300576  -0.14458262   -6.3711481  0.068601391    15910.378    7915.5851    8672.6035    8642.7244   -866.09677    10.863832    1346.4271     18.03854    45.699455     20.32507    89.749793    108.26802    90.181271 
  296500     271.3331   -9624.2638   -8538.0555   -9624.2638            0    8068.9891    17.914228    46.080733    19.307331 -0.033343191   -6.4167493   0.19234333    15938.216    8277.9846    7944.1909    7984.7918   -1100.5917    526.25562   -99.943918    17.914228    46.080745    20.346614    89.445281    108.38326    90.041458 
  297000    270.82369   -9609.3005   -8525.1315   -9609.3005            0    6450.5554     17.97469    46.179487    19.311104  -0.69533413   -6.5646304  0.059249625    16029.413    7129.2733    5879.8577    6342.5354    944.80007   -776.61913   -405.69816     17.97469    46.184721    20.396486    89.555942    108.77491    90.862649 
  297500    286.99982   -9560.5424   -8411.6167   -9560.5424            0     6904.053    18.169986      45.5398    19.387165   -0.3315992   -6.6225443   0.21079471    16042.055    6991.1661    6753.3816    6967.6114   -120.03913   -162.25082    1159.5591    18.169986    45.541007     20.48816    89.275651    108.85884    90.417193 
  298000    276.01765   -9594.7927   -8489.8311   -9594.7927            0    7527.5977    18.050483    45.740863    19.440754  -0.11290905   -6.4086628   0.17400518    16051.155    6097.7624    8570.5989    7914.4317    331.17025    462.30633   -1335.5764    18.050483    45.741002    20.470568    89.468687    108.24417    90.141432 
  298500    278.76649   -9617.8913   -8501.9255   -9617.8913            0    7451.4977    17.885866    46.256209    19.334502  -0.34013105   -6.2271579  0.021495334    15996.059    7095.6405    7635.8637     7622.989   -174.68687   -859.43094    459.39664    17.885866     46.25746    20.312581    89.810214    107.85244      90.4213 
  299000    280.80719   -9587.4474   -8463.3122   -9587.4474            0    9089.0269    17.914298    45.958163    19.299826  -0.12358819   -6.3042542   0.24333044    15889.706    10181.196     8078.058    9007.8262    16.460182   -616.99324   -1804.7724    17.914298    45.958329     20.30483     89.26552    108.08819    90.154076 
  299500    277.39156   -9570.7898   -8460.3282   -9570.7898            0    8255.4192    18.086391    45.563062     19.35501  -0.55467896   -6.4957647  0.012085153     15949.91    7440.9403    9153.6183    8171.6989    1033.0112    677.00528    1655.8196    18.086391    45.566438    20.415962    89.744174    108.55234    90.697477 
  300000    265.81871   -9606.4576   -8542.3247   -9606.4576            0    7754.9118    17.922037     45.70643    19.433488   0.33679897    -6.639139   0.11095242    15918.987    7882.4592    8065.0119    7317.2644   -663.20149    1052.7287    30.294338    17.922037    45.707671    20.536575    89.826944    108.86162     89.57781 
  300500    276.29954   -9551.1036   -8445.0136   -9551.1036            0     9035.225    17.891446    46.385037    19.142232   0.19782581   -6.6285242  0.019487058     15886.05    9815.9601    7415.2766    9874.4384   -1242.0759     166.5552    8.3257112    17.891446    46.385459    20.257413    90.024841    109.09981    89.755643 
  301000    271.20831   -9600.0317    -8514.323   -9600.0317            0    7149.4369    17.961173    46.115799    19.284679  -0.65421689   -6.4490551  0.012990121     15973.38    7313.0227    6743.2023    7392.0857     1043.739    22.133128    1111.5305    17.961173    46.120439    20.334436    89.705641    108.49062    90.812766 
  301500    272.61896   -9591.0108   -8499.6549   -9591.0108            0    7469.2021    18.014812    45.702209    19.407397  -0.23399341   -6.3691396   0.28338264    15978.434    6859.1437    8051.1187    7497.3438    794.79465    483.18047   -999.72416    18.014812    45.702808    20.427758    89.113681    108.16705    90.293349 
  302000    263.74434   -9548.1493   -8492.3206   -9548.1493            0    8392.2277    18.002957    45.824758    19.346307   -0.2307591   -6.3832515   0.01600438    15960.339    8287.4046    8943.7232    7945.5553    469.99008    602.99932    615.63227    18.002957    45.825339    20.372181    89.864586    108.26013    90.288521 
  302500    257.47955   -9599.5896   -8568.8403   -9599.5896            0    7995.6269    17.835448    46.119839    19.332248  0.048288831   -6.3693894  -0.19578187    15902.088    8011.0689    7746.3117    8229.5001   -429.11532   -116.11961    1198.2495    17.835448    46.119864    20.355424    90.569861    108.23461     89.94001 
  303000    277.61192   -9578.2916   -8466.9479   -9578.2916            0    8838.8198    17.974486    45.877247    19.315466  0.010297578    -6.393995    0.2206419    15927.919    8705.5719    8537.1625     9273.725   -611.80933   -186.46045   -1311.8699    17.974486    45.877248    20.347459    89.382731    108.31497    89.987139 
  303500    271.16571   -9591.1219   -8505.5838   -9591.1219            0      8363.11    18.071182    45.531395    19.380649  -0.77884816   -6.3895325   0.11477239    15946.517    9069.1091    7857.8284    8162.3924      478.959   -100.27062   -400.43855    18.071182    45.538056    20.407078    89.370971    108.24638    90.979991 
  304000    269.29518   -9617.8672   -8539.8173   -9617.8672            0    9105.4738    18.005683    45.562615    19.355755  -0.47441663   -6.4434046   0.15629211     15879.19     9136.154    9235.6372    8944.6301   -183.99642    523.59411   -180.51208    18.005683    45.565085    20.400665    89.372643     108.4117    90.596566 
  304500     280.0923   -9579.6913   -8458.4179   -9579.6913            0    8815.3888    17.948795    46.205228     19.24337   0.53512292    -6.564975   0.13514299    15959.068    9391.9154    7975.4068    9078.8442   -1194.2659    151.23588   -827.44109    17.948795    46.208326    20.332842    89.833442    108.83691    89.336462 
  305000    270.16455   -9595.2393   -8513.7091   -9595.2393            0    8108.8288    17.895448    46.145119    19.301846  -0.17615144   -6.5540319  -0.25935039    15939.224    9010.8036     8659.459    6656.2239    1654.4874    1464.5009    1991.3469    17.895448    46.145455    20.385874    90.658613    108.75358    90.218716 
  305500     282.0122    -9606.902   -8477.9429    -9606.902            0    8648.4037    18.006252    45.639975    19.352938  -0.54079399   -6.3882205   0.22116862    15904.339    9833.5326    8561.6722    7550.0063    369.68283    145.41327   -692.02613    18.006252    45.643179    20.381228    89.165485    108.26645    90.678873 
  306000    284.25415   -9626.2319   -8488.2978   -9626.2319            0     7550.035    18.032308    45.754719     19.39808  -0.22782876   -6.4035705   0.25417247    16004.642     7001.409    7613.3832    8035.3129   -771.49383   -510.17803   -750.71232    18.032308    45.755286    20.429288    89.197708     108.2673    90.285293 
  306500    279.62443   -9558.9108   -8439.5105   -9558.9108            0    7637.1189    17.954314    46.102856    19.337826  -0.16159577   -6.4445463 -0.087308048    16006.792     6595.071    8293.2879    8022.9978   -241.35097   -413.27905    64.074831    17.954314    46.103139    20.383604    90.181917    108.43105    90.200827 
  307000    282.50876   -9581.2694   -8450.3224   -9581.2694            0    7794.7173    17.952605    46.307413    19.197242   -0.1242999   -6.4389121 -0.033934045    15959.411    7682.6704    7117.7305     8583.751   -59.077259   -430.62318     267.4731    17.952605     46.30758    20.248329    90.047115    108.54185    90.153795 
  307500    275.77759   -9594.3492   -8490.3486   -9594.3492            0    9762.4717    17.962083    45.558106    19.409442  -0.27890141   -6.4545775   0.32496533    15883.105    7653.7552    10872.448    10761.212    73.215764    810.04532    -786.8938    17.962083     45.55896    20.457117     88.97914    108.39206    90.350754 
  308000    276.05215   -9613.1605   -8508.0608   -9613.1605            0    8573.3236    18.016251    45.550894     19.36234  -0.39653952   -6.4578141   0.10266786    15889.827    8161.4353    9009.9784     8548.557   -264.43219   -152.89803   -730.11728    18.016251     45.55262    20.411127    89.554006    108.44456    90.498771 
  308500    275.28588    -9596.149   -8494.1169    -9596.149            0      8554.39    17.964291    45.967709    19.289916  0.072816738   -6.4496168 0.0084948722    15929.175    7720.7746    9865.6742    8076.7211   -658.88946    1122.3996    233.21818    17.964291    45.967766    20.339579     90.00485    108.48745    89.909239 
  309000    277.77089   -9575.8837   -8463.9035   -9575.8837            0    7488.1057    17.873381    46.159544    19.336315  -0.16379742   -6.2958394   0.17617692    15952.984    7517.3413    7563.8954    7383.0804   -973.96619   -508.54081   -918.25638    17.873381    46.159834    20.336217    89.440686    108.03438    90.203314 
  309500    273.19577   -9503.1021   -8409.4371   -9503.1021            0    8183.6447    17.944239    45.976474     19.36354   -1.3180265   -6.1505353   0.21163817    15975.169      8547.15     8020.506    7983.2781    1084.9676   -96.340455   -27.803928    17.944239    45.995362    20.317986    88.906359    107.62067    91.642072 
  310000    269.16365    -9573.066   -8495.5426    -9573.066            0    6846.8587    18.182307    45.514299    19.381618  -0.48670792   -6.2978788   0.18360689    16039.354     5753.201    7559.5846    7227.7904    103.24928   -960.42175    115.83888    18.182307    45.516901    20.379993    89.294499    108.00034     90.61267 
  310500    273.00464    -9512.235   -8419.3352    -9512.235            0    7920.3202    18.025365    45.716859    19.401983   0.18110774   -6.5132891  0.047975402    15988.458    7901.6199    7561.7082    8297.6325    293.40453   -307.33001   -251.96548    18.025365    45.717217    20.466123    89.937926    108.55696    89.773023 
  311000    283.93973   -9595.1466   -8458.4712   -9595.1466            0      8565.32    17.935557     46.09904    19.265191  -0.31851639   -6.5596675  0.028151508     15928.69    8840.1285    8430.0097    8425.8218   -1.2707017     532.3904   -90.599145    17.935557     46.10014    20.351354    89.793149    108.80334    90.395873 
  311500    267.41608   -9568.5267   -8497.9992   -9568.5267            0    9205.3083    17.921162    45.869996     19.33711  -0.37853005   -6.4107853   0.37476728    15895.948    10193.689    8882.5225    8539.7129   -719.14842     -1284.87    481.54402    17.921162    45.871557    20.375536    88.797348    108.33857    90.472808 
  312000    267.85633   -9574.1926   -8501.9026   -9574.1926            0     8379.397    18.052448    45.437628    19.422904  -0.35080438    -6.213414  0.094853714    15931.839    7680.5149     9594.764     7862.912   -200.09998   -169.30297     1266.012    18.052448    45.438982    20.392761    89.598726    107.73935    90.442347 
  312500    269.29356   -9570.6614   -8492.6179   -9570.6614            0    8479.8993    18.005466    45.627842    19.361301 -0.023764468   -6.2256319  -0.20515565    15906.287    7792.2197    9467.3392     8180.139   -524.37893    247.08685    949.51813    18.005466    45.627848    20.338646    90.568817    107.82427    90.029842 
  313000    266.88422   -9547.7971   -8479.3988   -9547.7971            0    8161.1684    17.825342    46.333737    19.294517   0.14132793   -6.3937233   0.15130531    15935.626    8036.6346    7160.6529    9286.2176   -1150.7372   -658.09304    63.636123    17.825342    46.333953    20.326854    89.628483    108.33339    89.825236 
  313500    274.38815   -9615.2852   -8516.8469   -9615.2852            0    7876.8447    18.009628    45.970438    19.294012  -0.59954024   -6.5641944   0.19016554    15973.715     7659.399    7505.7628    8465.3724    900.63093    384.19835   -173.31433    18.009628    45.974348    20.380964    89.224773    108.78844    90.747201 
  314000    274.77316   -9569.8716    -8469.892   -9569.8716            0    7550.9116    18.054224    45.698644    19.393628  -0.55801945   -6.4793463   0.17720858    16000.782     6500.193     8476.779    7675.7629    766.21331    536.42481    126.26149    18.054224    45.702051    20.448133    89.281805    108.47358    90.699596 
  314500    277.82633   -9588.1041    -8475.902   -9588.1041            0    8228.4698    17.946629     46.00573    19.285636    0.5644493   -6.1541432    0.0828471    15923.143    7896.4693    8549.3162    8239.6241   -1454.3204   -348.62991   -1242.7584    17.946629    46.009193    20.243915    89.979224    107.69799    89.297067 
  315000    271.66447   -9561.8815   -8474.3467   -9561.8815            0    9325.9706    17.808817    46.164753    19.275158   0.31885676    -6.044539   -0.2133082    15846.871    10007.292      9343.45      8627.17    629.25113   -330.10543    2209.4235    17.808817    46.165854    20.201823    90.723388    107.41002    89.604268 
  315500    286.45126   -9570.4175   -8423.6879   -9570.4175            0    7879.3115     18.06755    45.556993    19.417262  -0.75631275   -6.3909207   0.11710574    15982.412    6556.0426    8317.4958     8764.396    1407.2877   -596.48989    503.29721     18.06755     45.56327    20.442301    89.374475    108.21793    90.951106 
  316000    277.55951   -9578.9793   -8467.8453   -9578.9793            0    6720.8898    18.091626    45.687031    19.410073  -0.46882439   -6.5013656   0.27817036    16043.448    6249.5294    7236.4597    6676.6802     562.4772   -161.24159   -699.26635    18.091626    45.689436    20.471836    89.034754     108.5164    90.587929 
  316500    281.07143   -9579.8813   -8454.6883   -9579.8813            0    7355.0473    17.984571    46.159394    19.318436 -0.064331709   -6.4609288   0.07156624    16037.333    8389.6619    6932.3487    6743.1312   -250.21932   -41.167219   -33.708809    17.984571    46.159439    20.370338    89.773378    108.49207    90.079852 
  317000    273.94029   -9636.8916   -8540.2462   -9636.8916            0     7185.668    17.854273    46.151477    19.418139  -0.11420139   -6.3183343  -0.14780598    16000.568    7213.2274    7179.1689    7164.6078   -66.214715    955.35874    1392.4496    17.854273    46.151618    20.420757    90.370843    108.02352    90.141778 
  317500    268.97082   -9632.7302   -8555.9787   -9632.7302            0    7211.9069    18.060588    45.609702    19.404733  -0.23803236   -6.1910799     0.269227    15984.417    6446.6342    8670.3684     6518.718    416.96555   -63.545486   -306.41992    18.060588    45.610323    20.370214    89.151839    107.69369    90.299018 
  318000    275.66362   -9593.4134   -8489.8692   -9593.4134            0    7772.9329    18.098859    45.706088    19.284307  -0.56162878   -6.3086093   0.19723129     15952.52    6929.7807    7744.0168    8645.0012    775.41567    333.56648   -2485.5785    18.098859    45.709538    20.290933    89.224218    108.11395    90.704006 
  318500    272.07829   -9595.2576   -8506.0662   -9595.2576            0    6740.5385    17.977064    45.949808    19.375034  -0.20629798   -6.5824471 -0.049319934    16004.605    6490.3699    7137.8763    6593.3694   -166.64155   -416.68953    394.09332    17.977064    45.950271    20.462722    90.055348    108.76455    90.257236 
  319000    278.01516   -9549.7295   -8436.7715   -9549.7295            0    6917.5058    18.078755    45.994456    19.351921  0.088472442   -6.7682575   0.12830987    16091.558    6918.8091    7450.5555    6383.1529   -358.16534    42.505071   -598.55666    18.078755    45.994541    20.501771    89.677799    109.27669    89.889789 
  319500    271.91999   -9576.6476   -8488.0899   -9576.6476            0    7577.1581    18.023403     45.74482     19.40404  -0.46976038   -6.4587767   0.16561833    15998.191    8583.2951    6964.8944    7183.2847    53.407973   -40.231688    1679.1126    18.023403    45.747232    20.451406    89.350215    108.40977    90.588358 
  320000    271.54589   -9580.5693   -8493.5092   -9580.5693            0    7777.8148    17.947575    45.889822    19.414875  -0.64681846   -6.1009139    0.2065189    15990.305     9077.321    7342.9792    6913.1442     682.1314   -512.85936    1091.8256    17.947575     45.89438    20.351933    89.176561    107.44383    90.807532 
  320500    264.92791   -9608.2829   -8547.7161   -9608.2829            0    6609.8849    17.985132    46.362095    19.173606   0.28420485   -6.1016448 -0.023818533    15987.497    6365.1794    6892.4582    6572.0172    102.62682    16.899564    258.98414    17.985132    46.362966    20.121078    90.174331    107.65269    89.648775 
  321000    271.54967   -9586.9751   -8499.8999   -9586.9751            0    8507.2058    17.905796    45.910564    19.357538   0.65446464   -6.4502025  -0.12450588    15913.158    10132.496    7882.8405    7506.2807   -524.57034    221.19769   -346.20997    17.905796    45.915228    20.404286    90.607761    108.42844    89.183292 
  321500    269.84048   -9585.5075   -8505.2746   -9585.5075            0    9076.7074     18.06705    45.560363    19.371462  -0.41973442   -6.6352352  0.016711364    15945.451    8913.9459     9101.195    9214.9815    336.05292   -284.81063    288.69285     18.06705    45.562296    20.476332    89.782201    108.90767    90.527834 
  322000    271.99993   -9571.8769   -8482.9992   -9571.8769            0    8400.0032    18.023028    45.726498    19.342561  -0.59527951   -6.5715339    0.2365322    15940.785    7024.5965    8772.6589    9402.7542    268.27152    560.39931   -776.80006    18.023028    45.730372    20.429774    89.096752    108.76362    90.745849 
  322500    268.94303   -9559.8747   -8483.2344   -9559.8747            0    8143.4233    17.855411    46.271034    19.232038  -0.26304697   -6.2926104  0.071245988    15889.286    9577.5014    6399.4261    8453.3425    217.63471   -84.416655    7.6961951    17.855411    46.271781    20.235447    89.696984    108.11768    90.325718 
  323000    289.54954   -9597.2274   -8438.0946   -9597.2274            0     7542.222    17.924837    45.968829    19.372473  0.034818587   -6.2027365  -0.15475261    15962.603    7948.2584    7655.5465    7022.8609    35.081879    391.86993    1111.4691    17.924837    45.968843    20.341843    90.449121    107.75365    89.956602 
  323500    279.99429   -9589.2445   -8468.3636   -9589.2445            0    7388.8851    18.219639    45.324428    19.430083   0.16650357   -6.4419954   0.13866236     16045.26    7914.0781    7159.7476    7092.8297   -386.13553   -551.07657   -249.09966    18.219639    45.324734    20.470629    89.678132    108.34237    89.789519 
  324000    269.68907   -9607.2011   -8527.5743   -9607.2011            0    7156.1509    18.066706    45.715455    19.358202   -0.8401683   -6.5887982   0.23091639    15988.475    6893.2974    7505.4961    7069.6593     1156.877    117.09202    774.79087    18.066706    45.723175    20.450075    89.013887    108.79538    91.052875 
  324500    278.05026   -9588.9402   -8475.8416   -9588.9402            0    7420.7815    17.955256    46.030739     19.36582  -0.60924077   -6.5287256   0.18136982    16005.728    7223.3319      7514.96    7524.0525    908.03304    569.95083     173.5882    17.955256     46.03477    20.437518    89.249331    108.62955    90.758295 
  325000    273.10181    -9548.757   -8455.4682    -9548.757            0    8011.1958    18.029258    45.890526    19.329571  0.060392035   -6.3516852  0.058177326    15992.748    7348.9607    8671.8169    8012.8097   -942.61336    264.47128   -193.08246    18.029258    45.890566    20.346489    89.859711    108.19041    89.924599 
  325500    276.46427   -9551.9145    -8445.165   -9551.9145            0    7887.1639    18.010439    45.646912    19.381051 -0.0086664711   -6.2302081 -0.034075902    15933.568    7987.3466    7689.8535    7984.2915    61.423358   -825.30661     80.03905    18.010439    45.646913    20.357843    90.092575    107.82043    90.010878 
  326000    275.37442   -9591.3507   -8488.9642   -9591.3507            0     8549.028    17.975469    45.841855    19.311733  -0.48121293   -6.4205003   0.13305313    15913.425    6976.9926     9100.817    9569.2745    360.00066   -330.42607   -406.29116    17.975469     45.84438      20.3515    89.435691    108.38982    90.601425 
  326500    284.01686   -9617.3907   -8480.4065   -9617.3907            0    8648.3147    17.975243    45.907212    19.204521  -0.48287746   -6.7161045   0.26879248    15847.442    9819.3803    8219.9891    7905.5747    839.46208    18.727339    342.98989    17.975243    45.909752    20.346792    89.044169    109.27374    90.602646 
  327000    280.51435     -9543.15   -8420.1871     -9543.15            0    9962.8212     18.04777    45.607239    19.290495  -0.27173026   -6.7451621 -0.015069908    15878.179     9356.057    9997.3478    10535.059    1566.6342    553.04834    1005.1703     18.04777    45.608049    20.435768    89.929578    109.27281    90.341367 
  327500    276.89378   -9583.1094   -8474.6404   -9583.1094            0    9309.0756    17.965541    45.571652    19.415647   0.16981988   -6.3241432  -0.13545693    15895.967    10442.267    10089.412    7395.5485   -1894.2504    29.950987    962.21193    17.965541    45.571968      20.4201    90.446198    108.04126    89.786492 
  328000    270.39666   -9584.3369   -8501.8774   -9584.3369            0    8036.4183    17.956191     45.98423    19.254962  -0.14729594   -6.0524237   0.06560763    15898.853    7670.0968    8284.2218    8154.9364     -946.851   -509.09656   -662.97555    17.956191    45.984466    20.183897    89.758727    107.44943    90.183528 
  328500    278.97473   -9524.1148   -8407.3154   -9524.1148            0    8964.7874    17.923497    45.911932     19.32988  -0.79266563    -6.310414   0.18481891    15906.604    8690.4997    9783.8232    8420.0392    295.27357   -326.96896    412.74729    17.923497    45.918774    20.334693    89.172364    108.07897    90.989109 
  329000    276.14606   -9574.1443   -8468.6687   -9574.1443            0    8315.7933    18.007458    45.872681    19.306077  -0.60859235   -6.7432173    0.2021902    15947.792    8146.4296    8095.1503    8705.7998    280.45222    402.65934    310.29316    18.007458    45.876718     20.45083     89.18294    109.25228    90.760098 
  329500    268.85884   -9564.1244   -8487.8212   -9564.1244            0    7892.1887    18.127509    45.797908    19.263309   0.45909216   -6.7610635  -0.11365573    15992.437    6345.2403    7692.0901    9639.2357   -1213.4565    700.93239    437.48048    18.127509    45.800209    20.415679    90.509159    109.33981    89.425669 
  330000    279.89474   -9546.4788   -8425.9964   -9546.4788            0    8229.9913    17.898068    45.851807    19.485593   0.42549863   -6.3258804  -0.16778095    15991.023    9454.3708    7996.7337    7238.8693    -1057.669    829.48809    1406.5762    17.898068    45.853781    20.487393     90.63338    107.98509    89.468318 
  330500    269.07304   -9541.5031   -8464.3424   -9541.5031            0    8722.6268    17.948276      46.0499     19.26586  -0.35101645   -6.1217659   0.17916221    15923.548     9384.004    8250.4258    8533.4506   -156.84614   -473.71083    599.87477    17.948276    46.051238    20.215872    89.359971    107.62704     90.43673 
  331000     269.7465   -9594.2429   -8514.3862   -9594.2429            0    8255.8631    17.938919    45.995582    19.300949  -0.37650824   -6.2578516   0.18372183    15925.426    9376.8602    7176.4099    8214.3194   -815.17217    39.576246   -637.99157    17.938919    45.997123    20.290912    89.336584    107.96323    90.468998 
  331500    280.96983   -9570.1633    -8445.377   -9570.1633            0    8934.6577    18.040454    45.702665    19.279247  -0.18491186   -6.6085989 -0.088995732    15895.678    8359.0733    8854.0382    9590.8615      225.942    255.96503    500.25818    18.040454    45.703039    20.380649    90.175022    108.92066    90.231816 
  332000    285.87947   -9589.3664   -8444.9258   -9589.3664            0    7753.0597    18.057141    45.705022    19.356156  0.052198453    -6.708224  0.082194888    15974.675    7101.4215    7928.4339    8229.3238   -335.57711     977.7612    634.50625    18.057141    45.705052    20.485795     89.79154    109.11452    89.934564 
  332500    279.63318   -9531.3577   -8411.9224   -9531.3577            0    7090.2906    17.939656    46.011327    19.401338  -0.37131949    -6.375168   0.20297014    16014.396    6568.7597    7339.7056    7362.4064   -422.42881    191.26251    26.095436    17.939656    46.012825    20.422925    89.286242     108.1893    90.462377 
  333000     279.6929   -9635.9523   -8516.2779   -9635.9523            0     7328.927    17.916544    46.203627    19.310449  -0.69951475    -6.097139   0.10321547     15985.37     7901.685    6520.7958    7564.3002    882.72206   -900.63478    780.88822    17.916544    46.208922    20.250413    89.446843    107.52291    90.867382 
  333500    271.61617   -9541.0125    -8453.671   -9541.0125            0    6578.3175    18.081981    45.757502    19.415371  0.070773482   -6.4208823   0.14267843    16064.012    6029.0833    6893.7404    6812.1287   -267.87778   -707.94448   -488.68524    18.081981    45.757557    20.450054    89.628074    108.29917     89.91138 
  334000    273.45304   -9602.7875   -8508.0927   -9602.7875            0    7166.3061    18.144512    45.600516    19.288214  0.017128886   -6.7145113 -0.045291656    15959.052    6640.7305    6468.8626    8389.3253   -849.50005   -1073.7225   -178.45973    18.144512     45.60052    20.423563    90.134136    109.19371    89.978478 
  334500    281.18165   -9585.1747   -8459.5405   -9585.1747            0    7953.9262    17.973149    45.646218     19.42747  -0.61576833   -6.5218794  0.035919952    15938.418    8567.4709    8331.8763    6962.4315   -251.44602    678.21551    1656.2667    17.973149    45.650371    20.492994     89.65362    108.55708    90.772874 
  335000    273.18546   -9612.3637     -8518.74   -9612.3637            0    8378.2261    17.973242    45.866169    19.260571  -0.39148314   -6.2826287   0.21641737    15877.717    7390.8124    9184.0018    8559.8641   -362.49425    174.70837   -2611.4084    17.973242     45.86784      20.2605    89.236339     108.0648    90.489027 
  335500    276.82233    -9537.959   -8429.7761    -9537.959            0    8371.2402     17.96481    46.032285    19.354301   0.17501763   -6.1841099  0.056622595    16005.257     8406.195     8293.414    8414.1114   -1676.1103    299.97383   -942.01304     17.96481    46.032617    20.318351    89.906633    107.71971    89.782159 
  336000    293.96483   -9609.2805   -8432.4723   -9609.2805            0    5888.6743    18.040277    45.942496    19.389271    0.2269989   -6.3949675  -0.23208572    16070.125    4865.4651    6091.3717    6709.1861    720.97484   -762.92718    697.44364    18.040277    45.943057    20.417965    90.739944    108.25236    89.716908 
  336500    283.18513   -9614.3351   -8480.6805   -9614.3351            0    7418.7981    18.116877    45.655443    19.388922  -0.21333445   -6.8951883   0.17615035    16037.238     6589.481    7348.9121    8318.0013    -127.8918    919.37236    354.27565    18.116877    45.655942    20.579236    89.419863    109.57592    90.267724 
  337000    281.94672   -9605.5484   -8476.8514   -9605.5484            0    8854.4698     18.03378     45.62485    19.335605  -0.82643357   -6.8037311   0.27714525    15909.113     10154.91    7565.7623    8842.7375    332.91407   -458.18882   -745.74735     18.03378    45.632334     20.49959    88.881045    109.38389    91.037723 
  337500    279.48435   -9584.8393   -8465.9998   -9584.8393            0    8614.5667     17.90343    45.830513    19.347496  -0.39691273   -6.4256867  0.044055483    15875.074    9218.6262    8986.0895    7638.9843    115.77958    149.78286    362.14658     17.90343    45.832232    20.386687    89.719794     108.3723    90.496195 
  338000    269.68122   -9582.7052   -8503.1099   -9582.7052            0    8287.0001    18.027477    45.828196    19.278326  0.064779511   -6.2999082 -0.018797735    15927.112    8580.2601    8159.1788    8121.5613    -1200.751   -664.80107    65.846819    18.027477    45.828242    20.281593    90.078261    108.09672    89.919011 
  338500    271.53032   -9549.2271   -8462.2293   -9549.2271            0    8125.8648    18.019507    45.793915    19.384138  -0.22721362   -6.4033411   0.16953025    15995.477    7055.8276    8948.4304    8373.3363    243.10006   -185.71514    -915.5877    18.019507    45.794479    20.415101    89.435037    108.27976     90.28428 
  339000    277.68173   -9577.8955   -8466.2723   -9577.8955            0     6394.801    18.012121     45.99228     19.41054  -0.80624465   -6.6840598   0.25300689     16080.05    5200.2347    6961.5116    7022.6567    919.42784    262.70556   -1039.3233    18.012121    45.999346    20.530702    88.967032    108.99976    91.004292 
  339500    276.47073   -9582.7844    -8476.009   -9582.7844            0    7207.7732    18.089859    46.133712    19.245421  -0.24203884    -6.760591 0.0062176776    16061.311    7819.0141    6913.4983     6890.807    1419.9561    689.08628    8.2959667    18.089859    46.134347     20.39833     89.88291    109.35551    90.300597 
  340000    280.40214   -9589.3925   -8466.8789   -9589.3925            0    7242.7819    17.998761     45.75424     19.40479   0.50421334   -6.4501137 -0.045894726    15980.226    7285.0686    6961.6991    7481.5779    -1097.204   -86.093692    193.50967    17.998761    45.757018    20.448764    90.327737    108.38666    89.368624 
  340500     284.7472    -9524.547    -8384.639    -9524.547            0    8100.5514    18.063823     45.60633    19.395803  -0.49379933   -6.2793245  0.072002022    15978.741      7642.94    8093.3026    8565.4115    865.77132    30.005495    268.60967    18.063823    45.609003    20.387062    89.606589    107.93907    90.620342 
  341000    274.06811    -9570.916   -8473.7589    -9570.916            0    8592.5795    17.998916    45.795782      19.2977  -0.78773626   -6.3051075   0.29860669    15906.601     8102.819    8269.9603    9404.9591     1676.765    29.694926   -1661.2584    17.998916    45.802557    20.303812    88.851398    108.09166    90.985451 
  341500    266.21165   -9626.3069    -8560.601   -9626.3069            0    9949.5944    17.820486    45.951869    19.339918 -0.099150014   -6.5874117   0.13198455    15837.161    10381.472    9273.9233    10193.388    -463.9496   -399.62468    402.22962    17.820486    45.951976    20.431442    89.590015    108.80906    90.123626 
  342000    277.46151   -9581.7125   -8470.9709   -9581.7125            0    8537.2244    18.039477    45.930849    19.236483   0.23438052   -6.7962462  -0.12172732    15938.744    7110.7613    9089.6551    9411.2567   -493.50261    893.48511   -214.92301    18.039477    45.931447    20.402109    90.439243    109.45795    89.707628 
  342500    271.64322   -9553.6659   -8466.2162   -9553.6659            0    8075.6688    17.993421    45.694446    19.386701  -0.38458472   -6.4786406  0.061302923    15939.734    7977.5669    7881.7619    8367.6776     -260.063   -890.03654    193.48195    17.993421    45.696064    20.440664    89.675335    108.47849    90.482215 
  343000    278.35165   -9582.6984   -8468.3933   -9582.6984            0     9006.162    17.978271    45.648496    19.377535  -0.40452156   -6.2829542   0.19860366    15902.775    9098.5701    8515.6256    9404.2902    631.30309   -97.398454   -1205.6935    17.978271    45.650289    20.371643    89.284837    107.96384    90.507723 
  343500    265.41617   -9584.6815   -8522.1601   -9584.6815            0    8938.3628    17.939602    45.906863    19.250688  -0.15074662   -6.3774395 -0.034972769    15853.921     9379.384    8375.2445    9060.4598   -197.71528   -553.97144   -145.05935    17.939602     45.90711    20.279595    90.039641    108.32916    90.188144 
  344000    271.38257   -9575.0464   -8488.6401   -9575.0464            0    8577.4092    17.912497    46.331542    19.192046   0.12451401   -6.7595273  -0.11745379     15927.74    8655.3595    7917.6405    9159.2275    1356.0623     115.4487    1395.9218    17.912497     46.33171    20.347964    90.381879    109.40216     89.84602 
  344500    263.65581   -9631.9166   -8576.4424   -9631.9166            0    7414.6002    18.070843    45.665481    19.392444  -0.22732383   -6.8415179   0.21531065    16002.911    7071.1392    7342.4647    7830.1966    318.44322   -369.97013   -598.84791    18.070843    45.666047    20.565009    89.305232    109.43138    90.285217 
  345000    257.55588   -9561.0254   -8529.9705   -9561.0254            0    7049.3726    18.147621    45.514732    19.399803  -0.71533538   -6.4994495    0.1852563    16023.929    6781.8546    7240.3417    7125.9215   -41.934429   -343.19192    930.67709    18.147621    45.520353    20.460438    89.195246    108.52143    90.900419 
  345500    263.77744   -9550.7911   -8494.8299   -9550.7911            0    7533.7023    17.962193    45.962546    19.356698  -0.12215341   -6.1639474  0.063230343     15980.66     7891.598    8221.4705    6488.0383   -1154.9343    640.67395    -382.1378    17.962193    45.962708    20.314527     89.77546    107.66347    90.152273 
  346000    276.40912   -9608.4586   -8501.9299   -9608.4586            0    7177.5552    17.890681    46.390188    19.283469   0.11517528   -6.1851863 -0.018445839    16004.355     8238.006     6080.315    7214.3445    132.97833   -29.286226    2.9934347    17.890681    46.390331     20.25115    90.095635    107.78367    89.857749 
  346500    266.80625   -9644.5157   -8576.4294   -9644.5157            0    7171.3094    18.017917    45.652926     19.42007  -0.39746593    -6.617091   0.19682272    15974.379    7664.3828    7038.3925    6811.1529   -172.86259    1057.6908   -687.61949    18.017917    45.654657    20.517401    89.289494    108.81486    90.498819 
  347000    271.38772    -9607.537   -8521.1101    -9607.537            0    8240.4846    18.077746    45.514665    19.426726  -0.71307958   -6.7297933   0.19278674     15984.36    8176.6621    8308.4885    8236.3034    30.483791   -117.92436   -669.90687    18.077746    45.520251    20.560276    89.169009     109.1062    90.897581 
  347500    283.47172   -9579.6998   -8444.8979   -9579.6998            0    7228.0567     18.02256    46.012852     19.27883 0.0057996615   -6.5232571 0.0043150244    15987.344     7429.511     7344.096    6910.5631   -540.83917    947.03101     507.3746     18.02256    46.012853    20.352548    89.990167    108.69395    89.992778 
  348000    267.41247     -9592.67   -8522.1569     -9592.67            0    8144.9406    17.837195    46.186381     19.35978   0.10693285    -6.115799 -0.085043051    15949.274    7466.5678    9196.6356    7771.6185   -256.07549    627.95645    429.73213    17.837195    46.186505    20.302988    90.279954    107.53129    89.867346 
  348500     276.4505   -9595.8643   -8489.1699   -9595.8643            0    7147.2291    18.080182     45.69135    19.361468  -0.58327581   -6.0586873  0.087825803    15994.662    6676.0596    7161.5251    7604.1024    288.94208   -391.55553   -98.608765    18.080182    45.695073     20.28748    89.533565    107.37604    90.731373 
  349000    269.42452   -9635.6029   -8557.0352   -9635.6029            0    7416.8369    18.061053    45.408268     19.47328  -0.67035919   -6.4041065   0.31974447    15970.448    7758.5712    7301.2543    7190.6851    236.24427   -1091.6272    -203.4493    18.061053    45.413216    20.501791    88.842249      108.202    90.845792 
  349500    283.07963   -9577.2234   -8443.9912   -9577.2234            0    8414.0444    17.948484    45.849751    19.361854  -0.34427196   -6.6930838  0.011629235    15933.519    8783.2265    8341.0336    8117.8731    529.75173    1374.3355    484.85419    17.948484    45.851043    20.486066    89.826922    109.06945    90.430209 
  350000    285.20012   -9600.0658   -8458.3447   -9600.0658            0    8571.9745    17.961279    46.061036    19.191148 0.00036387691   -6.5971726  0.026651062    15877.126    8385.4175    8201.1933    9129.3126     63.66201    428.57179    555.25901    17.961279    46.061036    20.293436    89.924901    108.97097    89.999547 
  350500    278.17303   -9539.0161   -8425.4261   -9539.0161            0    6980.2893    18.013901    45.810496    19.396853  -0.24268514   -6.3472079    0.2045862    16006.782    8252.1357    6355.9239    6332.8083   -406.76553   -689.80887   -46.393092    18.013901    45.811138    20.409969    89.331277    108.11864    90.303527 
  351000    274.82056   -9583.3538   -8483.1845   -9583.3538            0    7897.7101    18.066831    45.422926    19.508765  -0.81785572   -6.2458407   0.14692623    16009.835    8946.9007    8880.6353    5865.5943    1036.1777    22.601143    1459.0577    18.066831    45.430288    20.484727    89.274599    107.75229    91.031519 
  351500    273.15277    -9595.128   -8501.6353    -9595.128            0     6507.365    18.120013     46.05044    19.283734  -0.11480417    -6.496764   0.10849096    16091.014    5318.9086    7365.7021    6837.4843   -798.41696    402.96012    887.43875    18.120013    46.050583    20.349007    89.648922    108.61859    90.142839 
  352000    277.90071   -9590.8919   -8478.3921   -9590.8919            0    7620.2557    17.896356    46.419204    19.250963   0.29889618   -6.6499749 0.0052566452    15992.442    7720.3142    6929.9388    8210.5141   -1217.4987    370.23916   -1521.8669    17.896356    46.420167    20.367174    90.105668    109.05675    89.631074 
  352500    268.31124   -9603.5807   -8529.4696   -9603.5807            0    8867.6227    17.973152    45.773077    19.363875  -0.44393956    -6.526453  0.045833468    15930.398    9146.8131    8175.7083    9280.3468   -476.78099   -245.23211   -128.61858    17.973152     45.77523    20.434195    89.694017    108.62597    90.555677 
  353000     268.4002   -9574.5265   -8500.0593   -9574.5265            0    7245.7612    18.170209    45.473704     19.37613  -0.51855693   -6.4387568   0.26266269    16009.851    7992.8726    7167.8768    6576.5343    164.41804    82.369182   -813.24747    18.170209    45.476661    20.419623    89.056987    108.38026    90.653341 
  353500    267.52452   -9672.9527   -8601.9911   -9672.9527            0    7371.4616    18.002696    45.754377    19.420922  -0.34785705   -6.4267816  0.029483623    15997.055    6934.9931    7511.9555    7667.4363   -535.30911   -173.92873     751.7201    18.002696    45.755699      20.4567    89.780576    108.31042    90.435595 
  354000    271.29331    -9590.216    -8504.167    -9590.216            0      6814.63    17.929461    46.294012    19.298842 -0.054775981   -6.4240625 -0.048704166    16018.554    6639.4233    6412.7212    7391.7455    746.60252    -118.2497    1086.2537    17.929461    46.294044    20.340016    90.115783    108.41115    90.067793 
  354500    278.52044   -9572.0086   -8457.0278   -9572.0086            0    7250.3424    17.983111    46.063571    19.319838 -0.035844673   -6.4026831   0.30148319    16003.904    6617.6998    6818.4811    8314.8464   -501.29096   -375.85414   -1047.4192    17.983111    46.063585    20.355377    89.137337    108.33335    90.044585 
  355000    272.44675   -9553.2337   -8462.5673   -9553.2337            0    8763.5841    17.989197     45.55887    19.454344  -0.91818936   -6.3759132   0.21357585    15944.147    8652.0585    9260.6417    8378.0521    285.16447   -46.261275   -854.16193    17.989197    45.568121    20.473626    89.042846    108.14488    91.154578 
  355500    274.80556   -9608.9108   -8508.8015   -9608.9108            0    8160.8152     18.04983    45.528666    19.281323  -0.56866093   -6.4049533  0.079501017    15845.096    6844.0964    8948.8985    8689.4508   -507.12204   -384.56848     274.6443     18.04983    45.532217     20.31746    89.550236    108.37553    90.715597 
  356000    274.12288   -9587.5409   -8490.1646   -9587.5409            0    9078.6562    17.906743    45.998814    19.277652   0.37667635   -6.4553155  0.091405601    15878.789    9704.1586    8894.3173    8637.4927   -732.17499   -317.21273   -1559.9999    17.906743    46.000356    20.329961    89.891375    108.51345    89.530825 
  356500     271.7059   -9591.9655   -8504.2649   -9591.9655            0    7858.5173    17.987577     46.04598    19.293251  -0.17069412   -6.4384735  -0.13898923    15979.744    7265.2021    8353.3545    7956.9954   -666.19202    500.97639    804.62562    17.987577    46.046297    20.339685    90.324291    108.45425    90.212397 
  357000    278.12226   -9580.6648    -8467.278   -9580.6648            0    8106.8615    18.049771    45.835376    19.281277   -0.3725494    -6.400099   0.19684974    15951.748    6627.6742    8521.0611    9171.8491    -772.7545    498.74373   -895.79096    18.049771     45.83689    20.316684     89.29816    108.36183    90.465689 
  357500    296.23572   -9581.7497   -8395.8506   -9581.7497            0    8753.4131    18.055298    45.498295    19.382652  -0.34912552   -6.3359007   0.28958398    15922.563    7686.6547    9030.4592    9543.1255   -185.66907    -260.0954   -337.69657    18.055298    45.499635    20.393986    89.049825    108.09991    90.439643 
  358000    281.16884   -9605.5075   -8479.9245   -9605.5075            0     8804.493     18.06612    45.339034    19.447861  -0.27725636   -6.4393991  -0.25674512    15929.751    9097.2255    9337.3428    7978.9106    121.61912   -452.65501    1686.5917     18.06612    45.339882    20.487827    90.607884    108.31878     90.35037 
  358500    276.92084    -9568.334   -8459.7568    -9568.334            0    8641.4296    18.055079    45.909486    19.265095    0.4370015   -6.6752191 -0.0047847389    15968.826    8137.7722    8973.5905     8812.926   -1129.2703    1272.4384   -1262.8264    18.055079    45.911565    20.388783    90.191995    109.11084    89.454632 
  359000    268.18803   -9586.2796   -8512.6618   -9586.2796            0    7113.9121    17.952614    46.082089    19.310357  -0.27278151    -6.550995   0.24233694    15975.342    7050.1785    7368.7822    6922.7755    -222.5019    915.43899   -1819.5138    17.952614    46.082896    20.392748    89.210163    108.73802    90.339157 
  359500     275.0354   -9559.2614    -8458.232   -9559.2614            0    7965.4376    18.021929    45.738002    19.364872  -0.67209428   -6.4006905   0.05579074    15962.213     7919.106    7709.4918    8267.7151      358.466   -918.04304   -321.14885    18.021929     45.74294    20.395348    89.579088    108.29025    90.841869 
  360000    287.48629   -9573.5903   -8422.7171   -9573.5903            0    8670.8813    18.000101    45.588271    19.441226   0.16128552   -6.3852867  0.063798222    15953.343     8477.233    8497.8738     9037.537   -28.772865    437.12806    531.19175    18.000101    45.588556    20.463069     89.88462    108.18219    89.797296 
  360500    273.86162   -9579.7225    -8483.392   -9579.7225            0    8086.3497     18.01579    45.857495    19.284493  0.099509108   -6.3018644  0.034111508    15932.058    7471.7306    7149.7236    9637.5948   -933.47992   -585.20882     512.5224     18.01579    45.857603    20.288084    89.942285    108.09654     89.87567 
  361000    269.35927   -9560.2781   -8481.9716   -9560.2781            0    7891.0003     17.91855    46.257078     19.25694   -1.0083116   -6.2243855   0.12088119    15961.303    8079.8888    6944.5341    8648.5779    655.00258   -451.77797    528.23079     17.91855    46.268066    20.238264    89.273815    107.91196    91.248735 
  361500    277.05407   -9596.3782   -8487.2676   -9596.3782            0    7074.9326    17.968479    45.926873    19.416213  -0.36180315   -6.4442758   0.33283891    16022.959    8110.5799    7028.1477    6086.0701   -1399.3214   -473.49364    -940.0286    17.968479    45.928298     20.46042    88.925751    108.35858    90.451356 
  362000    276.23639   -9598.4867   -8492.6494   -9598.4867            0    6958.7384     18.10441    45.751496     19.34309  0.045899805   -6.6628313   0.10875242    16021.956    6608.4028    7075.8071    7192.0052   -1072.8809   -242.85925   -1336.1446     18.10441    45.751519    20.458745    89.714152    109.00627    89.942519 
  362500    278.21637   -9585.4787   -8471.7152   -9585.4787            0    7900.8928    17.954376    45.993488    19.331943  -0.24867105    -6.514558 -0.099923145    15964.016    8393.3702    7266.4341    8042.8741    174.78331    16.792569    1286.2385    17.954376     45.99416     20.40033    90.181715    108.62277    90.309776 
  363000    268.74579   -9632.4223   -8556.5716   -9632.4223            0    8439.2504    17.882603    45.989568    19.319064 -0.067115353   -6.2733725   0.23844686    15888.253    8640.1476    7867.3532    8810.2505   -1167.4586   -349.23378   -475.58529    17.882603    45.989617    20.313501    89.301603     107.9886    90.083615 
  363500    280.96518   -9550.1992   -8425.4316   -9550.1992            0    7989.3247    18.138179    45.531526    19.321606  -0.69817333   -6.1583956   0.16915236    15956.922    6480.3844    8687.1687    8800.4208    716.22618     470.7568    84.955318    18.138179    45.536879    20.280013    89.255379    107.67806    90.878496 
  364000      275.134   -9564.4829   -8463.0588   -9564.4829            0    8662.0799    18.017624    45.400342     19.42567   -0.6427755   -6.3606676  -0.12937879     15890.32    8513.0688    9643.6941    7829.4768      1286.04    918.68296    970.84366    18.017624    45.404892    20.440927    90.110216    108.12994    90.811136 
  364500    277.84678   -9550.7207   -8438.4367   -9550.7207            0    8827.8777    17.936073    45.875989    19.326768     0.238991   -6.5645941  0.093964517    15902.743    10423.085      8299.92    7760.6277   -81.758791    489.67226   -1231.7081    17.936073    45.876611    20.411435    89.832236    108.76053     89.70152 
  365000    275.56829   -9571.8011   -8468.6384   -9571.8011            0    8487.3364    18.042304    45.903537    19.215547  -0.36632441    -6.620823  0.022693952    15914.423    8410.3025    8592.3951    8459.3117    185.96073   -9.9253531    300.79167    18.042304    45.904999    20.324199     89.78708    109.01166    90.457228 
  365500    277.23636   -9595.0888   -8485.2485   -9595.0888            0    9247.3456    18.012003    45.593655    19.338321  -0.71434407   -6.5379905   0.14414845    15881.269    10727.747    8541.8658    8472.4236    130.31027   -690.07554    585.31069    18.012003     45.59925    20.414132     89.30799    108.67913    90.897615 
  366000    269.92192   -9534.5512   -8453.9923   -9534.5512            0    9378.9317    18.079445    45.515432    19.323699 0.0081745171   -6.3458097   0.15647662     15901.35    7140.7158    11098.014    9898.0652   -99.584092    350.51586   -77.838826    18.079445    45.515433    20.339595    89.562418    108.17937     89.98971 
  366500    277.33363    -9588.137   -8477.9073    -9588.137            0    7750.6352    17.956808    45.907007    19.331159   0.54006375   -6.1465738  -0.10930504    15935.511    6985.3215    8348.1163    7918.4677    -1001.106   -454.02473    582.37687    17.956808    45.910184    20.285118    90.512948    107.63842    89.325986 
  367000    279.94852   -9610.6949   -8489.9972   -9610.6949            0    6883.9695    17.853069    46.048176    19.442195  -0.30680886   -6.2160192 -0.0005136231    15983.453    7799.3994    7130.5863    5721.9226    288.31712    -54.67192    972.29729    17.853069    46.049198    20.411708    89.885189    107.73001    90.381744 
  367500      279.565   -9598.0639   -8478.9015   -9598.0639            0    7017.1497    18.107632    45.950058    19.252968  -0.58527231   -6.4565827   0.21516306    16019.369    6905.7336     6346.218    7799.4977    775.16903   -778.54308   -110.14096    18.107632    45.953785    20.307893    89.160963    108.53807    90.729745 
  368000    282.03506   -9596.4058   -8467.3552   -9596.4058            0     8066.899    17.988155    45.766974    19.406071  -0.31078319   -6.5391536  0.087508474    15976.309    8722.8408    7401.8086    8076.0476   -838.86129   -791.07284   -126.99286    17.988155     45.76803    20.478374    89.630931     108.6218    90.389064 
  368500    280.52129   -9621.1783   -8498.1876   -9621.1783            0    8511.4473    17.969855    45.880753    19.295967  0.046955642   -6.4129909 -0.055378408    15908.955    8844.7544     8013.907    8675.6806    454.11016    46.143355    1529.7159    17.969855    45.880777    20.333811    90.174537    108.38409    89.941362 
  369000    275.03834    -9586.162   -8485.1208    -9586.162            0    9604.5282    17.919772    46.076643    19.210764  0.061449443    -6.175313   0.17074165        15862    9959.1554    8981.1033    9873.3257   -155.69738   -450.63579    166.06665    17.919772    46.076684    20.179621    89.538594    107.81938    89.923588 
  369500    275.08959   -9579.6642   -8478.4179   -9579.6642            0     9013.749       17.906    45.690417    19.405506  -0.71384222   -6.1498105   0.18951675    15876.278    9648.8515    9374.0482    8018.3474      564.136   -270.16751     423.6216       17.906    45.695993    20.357548    89.196264    107.58317    90.895085 
  370000     275.3274   -9521.0702   -8418.8718   -9521.0702            0    7300.8655    18.190025    45.482718    19.333472  -0.40392991   -6.5620579   0.14453377    15995.196    6710.0114    7148.7618    8043.8234    214.76619   -356.62507    -751.5809    18.190025    45.484511    20.417264    89.430876    108.74746    90.508828 
  370500    278.42109   -9626.7176   -8512.1346   -9626.7176            0    7746.9189     18.01711    45.801614    19.344525   0.13926234   -6.7238587  0.080226352    15963.348     7438.241    7124.3532    8678.1626   -257.39154   -239.23467   -946.67849     18.01711    45.801826    20.479926    89.832751    109.16651     89.82579 
  371000    274.18817   -9584.8203   -8487.1826   -9584.8203            0    7710.9205    17.910267    46.168656    19.324513  -0.46763461   -6.4891689  -0.10914075    15979.304    8501.5507     7087.339    7543.8718    641.98444   -247.84983    1289.4809    17.910267    46.171025    20.385241    90.122013    108.56177     90.58032 
  371500    270.35925   -9573.6388   -8491.3291   -9573.6388            0    7508.7757    18.040232    45.951551    19.285326  -0.48050035   -6.2042328   0.26432141    15987.084    7167.7618    7589.6602    7768.9051   -8.4607169    -929.2816   -735.24198    18.040232    45.954063    20.260458    89.069054     107.8318    90.599101 
  372000    267.92622   -9547.1526   -8474.5829   -9547.1526            0    7570.2735    17.981537    45.646039    19.492747  -0.31162646   -6.1752902   0.21026227    15999.372    9090.4283    7192.3396    6428.0524    -410.6724    341.39453   -1530.8886    17.981537    45.647103    20.448609     89.29273    107.57721    90.391153 
  372500    263.35447   -9574.6272   -8520.3592   -9574.6272            0    7348.8012    18.046347    45.851141    19.320586   -0.1008746   -6.4040721  -0.14086768    15986.734    6485.3943    8128.8476    7432.1616    946.54894    835.78747    747.54326    18.046347    45.851252    20.354779    90.356865    108.33803    90.126053 
  373000    270.15691   -9662.8624   -8581.3627   -9662.8624            0    7281.4401    17.965937    46.000831    19.283311   0.14482912   -6.5387384   0.10355391    15936.654    8195.2404    6688.6764    6960.4034   -118.73716   -37.967833   -833.79055    17.965937    46.001059    20.362021    89.766542    108.73093     89.81961 
  373500    276.99299   -9618.4802   -8509.6141   -9618.4802            0    7830.9434    17.963931    45.728816    19.413005  -0.53389033   -6.5432502   0.17393087    15947.188    8821.0608    7222.5743    7449.1952    84.824269   -365.63538    606.88625    17.963931    45.731933    20.486804    89.299944    108.62595    90.668906 
  374000    266.44015    -9509.342   -8442.7213    -9509.342            0    8193.3726    18.189542    45.460591    19.320142  -0.74832325   -6.4101783    0.0378686    15975.967    7683.0489    7792.4903    9104.5786    309.73066   -1073.4606    1017.3836    18.189542    45.466749    20.355827    89.596461    108.35516    90.943056 
  374500     279.9993    -9551.019    -8430.118    -9551.019            0    8284.7665    18.056878     45.76327    19.396971    0.5152162   -6.2315727   0.24200051    16028.528    8469.6318    8202.7723    8181.8956   -1203.3617   -752.05984   -685.78845    18.056878     45.76617    20.374826    89.516786    107.80911    89.354975 
  375000    292.38267    -9617.655   -8447.1805    -9617.655            0    7371.7019    17.893297     46.13646    19.353359  -0.15624957   -6.3054918 -0.033789427    15976.844    9613.5386    6252.5405    6249.0264   -427.95675   -586.75337     675.1448    17.893297    46.136724    20.354677    90.035002    108.04603    90.194042 
  375500    273.82059   -9602.1445   -8505.9782   -9602.1445            0    7168.9492    18.063605     45.96343    19.279401  -0.43939554   -6.4917296  0.094835058    16007.017    6352.1189    7699.2269    7455.5017   -1001.6068    70.426257   -86.296067    18.063605     45.96553    20.343226    89.558131    108.60912    90.547712 
  376000    275.45277   -9560.5599   -8457.8597   -9560.5599            0    7644.1642    18.051884    45.549036    19.403241  -0.34344886   -6.5672854   0.36094921    15954.236    6908.3311    7732.5914    8291.5701    -710.0919    22.814566   -1597.4602    18.051884    45.550331    20.487686    88.852043    108.69606    90.432013 
  376500    277.07208   -9542.3228   -8433.1401   -9542.3228            0    8603.0303    17.940103    45.649777    19.490686  -0.50431817    -6.451093  -0.13368818    15962.125    8224.4203    7892.6691    9692.0015    45.895421   -791.63162    516.49925    17.940103    45.652563    20.530984    90.174183    108.31328    90.632952 
  377000    261.89909   -9597.1969   -8548.7551   -9597.1969            0    8610.9958    18.033038    45.903512    19.202973 -0.057188299   -6.3294194  0.055824421    15895.833    7317.0705    8082.9654    10432.951   -164.91566    57.087998   -1397.9276    18.033038    45.903548    20.219269    89.819464    108.24247    90.071381 
  377500     274.3869    -9596.463   -8498.0297    -9596.463            0    8484.2469    17.959083    45.929689    19.314212 -0.075989922   -6.3431445   0.22083959    15931.426    9146.9699    7040.8784    9264.8923   -428.08642   -1009.8285   -46.280555    17.959083    45.929752    20.330347    89.348032    108.18003    90.094795 
  378000    280.04338   -9607.6669   -8486.5894   -9607.6669            0    6859.2989    17.968881    45.877293    19.409265  -0.56689291   -6.3964971 -0.00097919331    16000.293    8087.0729    6857.8526    5632.9712   -603.75373   -1533.6254    3.8813361    17.968881    45.880796    20.436114    89.781161     108.2401    90.707952 
  378500    273.19581   -9633.5519   -8539.8868   -9633.5519            0    7242.3998    18.150847    45.766294    19.252034  -0.13628359   -6.6070789   0.03884066    15992.606    7626.2712    6726.7142    7374.2141    445.15948   -394.58998    107.53529    18.150847    45.766497    20.354258    89.835284     108.9416    90.170616 
  379000    272.70585   -9585.2801   -8493.5764   -9585.2801            0     6839.367    17.969871    45.860286    19.487775   0.33230543    -6.657498   0.11098413    16059.942    5973.8818    7261.6879    7282.5314    -1320.447    584.59219    -483.5604    17.969871     45.86149    20.593882    89.825441    108.86113     89.58484 
  379500    278.56517   -9608.0024   -8492.8425   -9608.0024            0     6902.391    17.925055     46.02903      19.3893  -0.43618715   -6.3999166  0.012703039    15997.585    6865.6464    7730.8057    6110.7209    342.72508    770.42554   -42.222945    17.925055    46.031096    20.418228    89.794178    108.26674    90.542939 
  380000    270.70637   -9593.7006   -8510.0013   -9593.7006            0    8296.0847    18.052531     45.91596    19.198825  -0.37922597   -6.2883197    0.2016762    15913.892    7779.7865    7883.4017    9225.0658    235.38496   -696.41538    95.114953    18.052531    45.917526    20.203428    89.280776    108.13459    90.473203 
  380500    273.13785   -9587.7975   -8494.3645   -9587.7975            0    8522.5399    17.905892     45.62662    19.517101  -0.25329244   -6.4772402  0.088866948    15945.185    9514.3378    8583.0102    7470.2718   -634.05165   -335.27831    933.41463    17.905892    45.627323    20.564041    89.652215    108.35954     90.31807 
  381000    268.84222   -9607.6911   -8531.4544   -9607.6911            0    10363.925    18.026126    45.793979    19.233894  -0.10489692   -6.6279397  0.074069685     15877.35    9790.5166    10155.577    11145.683    260.82643    139.00903    1219.5532    18.026126      45.7941    20.343986    89.748636    109.01366    90.131243 
  381500    277.21433    -9520.227   -8410.4749    -9520.227            0    9000.9412    17.979837    46.032062      19.2659  -0.53380895   -6.4685705 -0.012855359    15945.403    9343.6343    8695.8715    8963.3177    1697.7501   -396.25908    669.46421    17.979837    46.035157    20.322832    89.824773    108.55959    90.664398 
  382000    274.98774   -9603.7737   -8502.9351   -9603.7737            0    8236.7702    17.845017    45.702315    19.549021  -0.35414881   -6.2083224   0.20796825    15943.372    8844.6813    8793.1297    7072.4995    295.78054   -130.99144     -744.007    17.845017    45.703687     20.51221    89.284716    107.61772    90.443978 
  382500    281.23346   -9536.1158   -8410.2741   -9536.1158            0     7082.673    18.251871    45.758063    19.221369  -0.26996298   -6.3143957   0.20298035    16053.116    6459.8496    7005.3497    7782.8198   -208.01581   -406.86501   -1229.5415    18.251871    45.758859    20.232989    89.319701    108.18488    90.338029 
  383000    274.82093    -9563.606   -8463.4351    -9563.606            0    8323.6038    17.956097    45.760298     19.43853  -0.35307394   -6.4116358 -0.019832821     15972.18    7455.4359    8979.8659    8535.5096    -603.1576    -261.9512   -313.80625    17.956097     45.76166    20.468657    89.917041     108.2547     90.44207 
  383500    282.20302   -9566.5255   -8436.8025   -9566.5255            0    7678.5038     17.95752    45.937675    19.388989 -0.083164511   -6.3997756  0.071338203    15994.495    8934.9787    7405.7559    6694.7768   -20.192363   -473.17783   -711.67039     17.95752     45.93775     20.41801    89.767303    108.26653    90.103727 
  384000     272.4201   -9617.2616   -8526.7018   -9617.2616            0      7936.55    18.071435    45.786625    19.293497 -0.099332631   -6.4513245  0.091961903    15964.018    7273.4071    7983.7219    8552.5212     286.5775   -212.16976    191.51056    18.071435    45.786733    20.343723    89.701581    108.48862    90.124301 
  384500    285.01342   -9627.8733   -8486.8996   -9627.8733            0    9362.3759    17.877506    45.522039    19.495314  -0.74983594   -6.3674148  0.097447435    15865.687    11213.702    8968.7221    7904.7041    735.04045    170.40876    1417.6442    17.877506    45.528214    20.509041    89.434818    108.08748    90.943687 
  385000    270.73671   -9612.8421   -8529.0214   -9612.8421            0    8608.4558    18.200727    45.683192    19.124863  -0.69131672   -6.4470284   0.42575186    15901.698    7873.5472    8714.8832     9236.937   -107.89962   -125.11837   -991.84642    18.200727    45.688423    20.186773    88.514691    108.62477    90.866982 
  385500    275.31213   -9639.7167   -8537.5795   -9639.7167            0    7170.9949    17.894344     45.98393    19.398413  -0.23217428   -6.4232587  0.064428609    15962.028    8183.7161    6580.0922    6749.1764    -457.6977   -252.37002    178.98863    17.894344    45.984516    20.434305    89.728417     108.3208    90.289286 
  386000    275.60154   -9621.1321   -8517.8364   -9621.1321            0    7457.7705    17.997825    45.998526    19.299595  -0.12093129   -6.4009084 -0.033067487    15977.622    6778.8987    7576.7512    8017.6615    91.257585   -484.26583   -500.88823    17.997825    45.998685    20.333398    90.045759    108.34861    90.150632 
  386500    271.60751   -9557.3972   -8470.0904   -9557.3972            0    7677.7512    18.092951     45.77888    19.298428  -0.23814087   -6.4500616   0.28731326    15984.406    7460.1109    8187.1954    7385.9472    1283.1265    82.601273   -727.52366    18.092951    45.779499     20.34982    89.096562    108.47913    90.298049 
  387000    285.26116   -9630.5526   -8488.5872   -9630.5526            0    7530.7735    18.022073    45.424361    19.519558  -0.61195086   -6.5583816  0.087608421    15979.513    8659.0933    8066.9541    5866.2731    1379.3746   -150.76439    897.05332    18.022073    45.428483    20.592066    89.510438    108.57167    90.771834 
  387500     278.3901   -9609.7493   -8495.2903   -9609.7493            0    7680.0938    18.103735    46.056379    19.176977 -0.042547166   -6.6164273 -0.052716842    15989.619    7692.0096    6702.6764    8645.5953    279.71823    213.85391    1283.0644    18.103735    46.056398    20.286358    90.131628    109.03536     90.05293 
  388000    262.55112   -9612.8261   -8561.7741   -9612.8261            0    6916.7469    17.967219    46.182125    19.356195   0.35842531   -6.4208089   0.13616682     16061.08    7795.8892     6468.747    6485.6046   -308.43128    150.12813   -179.09982    17.967219    46.183515    20.393813    89.757454    108.35122    89.555329 
  388500    269.39951   -9644.3573   -8565.8897   -9644.3573            0    7229.4523    17.972255    45.678247    19.456117  -0.52579806   -6.2874686  0.076042402    15972.326    7449.1296    8119.1252    6120.1022   -553.14727    -255.1673   -243.80433    17.972255    45.681273    20.446969    89.584135    107.90871    90.659497 
  389000    266.59381   -9577.1799   -8509.9442   -9577.1799            0    8505.3345     18.06049    45.755595    19.280043  -0.58331038   -6.3553223   0.14802728     15932.42    6536.5291    9721.4962    9257.9783    203.12547    428.22418    -982.9917     18.06049    45.759313    20.301037    89.353596    108.24338     90.73039 
  389500    268.73903   -9592.7097   -8516.8861   -9592.7097            0    8673.2304      17.9327    45.856572    19.339372   0.10213027   -6.4822237  0.093077323    15903.387    8386.7595    9135.6088    8497.3228   -931.53383    286.07052   -357.70304      17.9327    45.856686    20.397039    89.779097    108.53006    89.872393 
  390000    270.82819   -9615.0708   -8530.8838   -9615.0708            0    8546.7205    18.058578    45.720057     19.27063  -0.17941324   -6.6050761 -0.076182393    15910.588    9032.6602    8728.9587    7878.5426   -330.77879    509.50671    1128.2192    18.058578    45.720409    20.371303    90.141367    108.91919    90.224837 
  390500    283.94462   -9581.8823   -8445.1873   -9581.8823            0    8372.4498    17.975418    45.685138    19.441494  -0.26294315   -6.4468698   0.26789813    15965.539    6638.2262    9653.1614    8825.9618   -477.83604    1197.4073   -1261.9427    17.975418    45.685895    20.484277    89.146869    108.34408    90.329765 
  391000    279.15927    -9552.788   -8435.2498    -9552.788            0    8037.8594    18.066661    45.824523    19.229353  -0.74269848   -6.1534206   0.24454306    15919.907    7437.9664    8093.5436     8582.068    1050.0199    45.287718    125.19183    18.066661    45.830542    20.191395    89.023157     107.7434    90.928537 
  391500    289.83767   -9539.7614   -8379.4751   -9539.7614            0    8605.4059    17.921045    46.111809     19.35024   -0.5023495   -6.2341732 -0.054250363    15990.492    8154.3718    9061.1681    8600.6778   -164.10531    100.06966    84.852288    17.921045    46.114545    20.329772    89.961488     107.8576    90.624165 
  392000    261.53589   -9638.9059   -8591.9181   -9638.9059            0    8157.2028    17.985744    45.748777    19.339791   0.19898506   -6.5930595  0.053299886    15913.279     8174.983    8588.0048    7708.6205   -489.09667     1021.522   -473.06646    17.985744     45.74921    20.432788    89.930954    108.82451    89.750793 
  392500    263.89298   -9598.5171   -8542.0933   -9598.5171            0    6826.9665    18.175409    45.731546    19.276352  -0.27322773   -6.7582923  0.054315883    16022.302    6652.1759    6676.6855    7152.0382    528.43167   -64.739003    313.09582    18.175409    45.732362    20.426826    89.734394     109.3206    90.342315 
  393000    270.86701   -9573.6938   -8489.3515   -9573.6938            0    8544.5834    17.902781    45.684742    19.542838  -0.71404231   -6.4955942  0.091607568    15983.773    8166.8418    8859.0864    8607.8219    1177.4601    764.07738    565.39744    17.902781    45.690321    20.594263     89.46274    108.38544    90.895447 
  393500    281.14914   -9548.8458   -8423.3417   -9548.8458            0    6734.0895     18.05639    46.085796    19.284643  -0.16618281   -6.2935149   0.23921825    16047.583       6415.5    6863.4395     6923.329   -772.06376   -326.30704    -273.5799     18.05639    46.086096    20.287016    89.260276    108.07272    90.206604 
  394000    266.55707   -9585.6907    -8518.602   -9585.6907            0    7524.4422    17.980052    45.921449    19.362328  -0.18333786   -6.2922353  0.021628605    15986.894    8107.5832    7471.9361    6993.8072   -385.92049   -190.14034    1147.4811    17.980052    45.921815    20.359087    89.868435    108.00276    90.228748 
  394500    274.92495   -9617.4348   -8516.8476   -9617.4348            0    8235.8186    18.051737    45.687897    19.378129  -0.32244317   -6.4763544 0.0068554349    15982.033    8399.4373    8609.9139    7698.1045   -281.73088   -585.01069    175.42989    18.051737    45.689035    20.431718    89.852605    108.48012    90.404359 
  395000    268.81604   -9564.2159    -8488.084   -9564.2159            0    6806.7855    18.225296    45.572264    19.286724  -0.24234671   -6.9021131   0.17799382    16018.935    5850.1447    7147.4611    7422.7506   -827.98131   -190.00885   -1372.7733    18.225296    45.572908    20.485325    89.399504    109.68992    90.304688 
  395500    274.63241   -9635.2572   -8535.8411   -9635.2572            0    7763.7756    17.879879    45.987224    19.403357  -0.34543438    -6.956414  0.081646675    15954.333    9386.3411    7038.9858    6865.9998    525.78398    1163.9101   -736.42137    17.879879    45.988521    20.612827    89.627817    109.72341    90.430371 
  396000    276.59122    -9640.639   -8533.3813    -9640.639            0    8027.8945    17.882975    46.289025    19.260909   -0.2286446   -6.2545243   0.13162801    15943.901    8578.3887    7300.3743    8204.9205    120.19099   -465.52229   -358.85859    17.882975     46.28959    20.251395    89.540189    107.98959     90.28301 
  396500      273.309    -9614.681   -8520.5628    -9614.681            0    7319.4855    18.010792    45.950739    19.275955  -0.33523909    -6.048751   0.11791429    15952.958    7470.7854    6688.6367    7799.0343    607.88821   -910.10661    946.80569    18.010792    45.951962    20.203062    89.540452    107.42143    90.418001 
  397000    268.56445    -9549.541   -8474.4163    -9549.541            0    7773.9471    17.917597    45.631227    19.507858   -0.1821004   -6.2637349   0.15134864    15949.663    8595.1397    7162.9606     7563.741   -471.93686   -602.02686   -1074.0679    17.917597    45.631591    20.489359    89.506872    107.80069    90.228649 
  397500    276.64289   -9571.1166   -8463.6521   -9571.1166            0    8477.7653    18.091614    45.902027    19.188604 -0.091239737   -6.6873728 -0.012241824    15935.017    7623.0452     8647.159    9163.0917      214.275    179.39386   -789.03056    18.091614    45.902118    20.320522    89.997037    109.21383    90.113887 
  398000    264.70139   -9571.3091   -8511.6492   -9571.3091            0    7271.4165     17.96058    46.079126    19.338096  -0.22308911   -6.6642442   0.10024292    16004.359    7503.3689    7285.7811    7025.0994   -1216.9769    752.56451    -795.9887     17.96058    46.079666    20.454441     89.62883     109.0146    90.277392 
  398500    282.20139   -9581.6573   -8451.9408   -9581.6573            0    7918.7032    18.002333    45.690174    19.425653  -0.60179483   -6.3132554   0.21032846    15978.177    8591.2118    8097.6219    7067.2758    620.95424   -797.89736    1289.7218    18.002333    45.694137     20.42688     89.17685    108.00296    90.754611 
  399000    260.50851   -9631.3693   -8588.4943   -9631.3693            0     7928.312    18.109688    45.607632    19.278522  -0.32929138    -6.123204    0.1583209    15922.902    8093.3875     7240.089    8451.4596    66.320812   -899.84597   -542.25782    18.109688    45.608821    20.228201    89.426342    107.62022    90.413674 
  399500    274.64057   -9597.0318    -8497.583   -9597.0318            0    7624.7775    17.866729    46.055935    19.420096    0.2596736   -6.3884495  -0.27349845    15980.193     6946.179    8205.4159    7722.7376    1782.1313    1348.2553     2355.376    17.866729    46.056667    20.445714    90.867393    108.20749    89.676957 
  400000    263.45435   -9600.6944   -8546.0266   -9600.6944            0    8605.3614    17.953078    46.015128    19.244791   0.24146968   -6.6059861 -0.048301422    15898.375    9007.8707    7853.9763    8954.2371    199.08256    143.75804    945.69525    17.953078    46.015761    20.347073    90.233626    108.94529    89.699337 
  400500    271.36455   -9582.7902   -8496.4561   -9582.7902            0    9100.9924    18.059785    45.606974    19.246721  -0.52215004   -6.5678821   0.15601841    15852.603    8776.2014    9370.0676    9156.7081    34.313377    394.01316   -366.22891    18.059785    45.609963    20.337101     89.34863    108.84147    90.655945 
  401000    265.35084   -9580.0669    -8517.807   -9580.0669            0    9252.4313    17.943935    45.685577    19.377387  -0.39834355   -6.4199136   0.19486679    15885.175     9555.436    10247.461    7954.3969     437.2726    143.91279    913.52436    17.943935    45.687313    20.414122    89.295973    108.32966    90.499563 
  401500     284.8759   -9583.7641    -8443.341   -9583.7641            0    8580.9755    18.011144    45.951837    19.221127 -0.036352575   -6.4300718  0.068673523    15908.273    8379.0367    8890.3319     8473.558   -121.01586    225.29464    416.31241    18.011144    45.951852    20.268258    89.791488     108.4966    90.045327 
  402000    276.05158   -9531.7579   -8426.6605   -9531.7579            0    9129.6198    18.013848    45.848002    19.301923  -0.13859717   -6.4899248  -0.11380639    15941.438    7276.7561    9784.2621    10327.841    413.03108    284.19424     443.9435    18.013848    45.848212    20.364094    90.265003    108.58399    90.173203 
  402500    269.86849   -9559.1287   -8478.7836   -9559.1287            0    9703.2112    17.878319    45.617118    19.423747  -0.18852156   -6.4265262   0.33017889    15841.181    9449.7965    10454.857    9204.9801   -901.40912    674.82846   -1025.4695    17.878319    45.617508    20.461946    89.001052    108.30481    90.236785 
  403000    270.71116   -9559.5528   -8475.8344   -9559.5528            0    10199.444    17.971618    45.765378    19.235824  -0.90909053   -6.3664042   0.17791775     15821.04    9698.0366    10142.355     10757.94    307.96207   -369.78498    -270.4413    17.971618    45.774406    20.262766    89.139458    108.31206    91.137983 
  403500    285.78369   -9581.8202   -8437.7629   -9581.8202            0    8425.2089    18.003111    45.878517    19.318316  -0.28899622   -6.3915807  0.032006967     15956.08    9319.6369    8192.6799    7763.3099    393.00184   -609.32262    -456.4904    18.003111    45.879427    20.348235    89.796513    108.30708    90.360911 
  404000    264.15874    -9589.793   -8532.3054    -9589.793            0    9051.8847    17.913018    45.732487    19.408058   0.26990515    -6.381677   0.11213498    15899.215    8417.4199    10119.828    8618.4061   -753.47494    526.78257   -283.99901    17.913018    45.733284    20.430641    89.791155     108.2014    89.661854 
  404500    271.44605   -9621.2145   -8534.5541   -9621.2145            0    8115.7071    18.026575    46.018044    19.181778  -0.70164761   -6.4734075  0.070678978      15912.2    6882.2651    9153.5827    8311.2734    269.97269    5.8055025     119.3388    18.026575    46.023393    20.244767    89.520677    108.64823    90.873534 
  405000    282.58881   -9596.0218   -8464.7544   -9596.0218            0    7660.9281    17.970224    46.090819    19.284122  -0.85189431   -6.5033095   0.23670165    15972.312    8370.4616     6610.308    8002.0148    1207.5003   -225.70453   -198.85293    17.970224    46.098691    20.352553    88.995382    108.63468    91.058874 
  405500    277.37494   -9588.0128   -8477.6177   -9588.0128            0     7700.878    17.950734    45.574967    19.525809   0.10206146   -6.4106054   0.17743848    15974.145    8506.6717    7757.7801    6838.1822     -265.707   -645.30789   -176.18377    17.950734    45.575082    20.551997    89.545348    108.17505    89.871691 
  406000    284.56577    -9612.436   -8473.2544    -9612.436            0    8793.5526    18.125792    45.629074    19.259577 -0.039293568   -6.4543059 -0.0087495454    15928.885    8011.9078    8937.3906    9431.3594    130.91307   -591.25053    183.34781    18.125792    45.629091    20.312298    90.009002    108.52713     90.04934 
  406500    274.80383   -9561.8988   -8461.7964   -9561.8988            0    9263.4276    17.838324    46.068656    19.332435  -0.40548611   -6.4180837   0.15584708    15887.156    10240.584    8620.7816    8928.9173    -187.1612    42.633436   -270.54491    17.838324    46.070441    20.370546    89.402775    108.36485    90.504292 
  407000    277.96617   -9635.1472   -8522.3853   -9635.1472            0    8107.8083    17.924314    46.019885    19.318997  -0.38685537   -6.4474204   0.15377518    15935.755    8602.8319    7748.2675    7972.3256    1.2161623   -164.47251    328.25709    17.924314    46.021511    20.367045    89.414946     108.4551    90.481632 
  407500    279.11086   -9577.8516   -8460.5073   -9577.8516            0    7912.6769    18.209175    45.643528    19.208867   -0.1757031   -6.4099451  0.049615482    15965.084    6370.0453    8664.0524     8703.933   -1301.7747     130.7289    791.65472    18.209175    45.643866    20.250196    89.789804    108.45365    90.220557 
  408000    272.45717   -9564.0746   -8473.3665   -9564.0746            0    7212.8312    17.902021    45.553625    19.621814 -0.060458529   -6.2483962 -0.039245636    16001.627    8195.6747    7508.3025    5934.5163   -1337.1977   -348.32167    960.14886    17.902021    45.553665    20.592707    90.086121    107.66359    90.076043 
  408500    266.40487   -9579.3666   -8512.8871   -9579.3666            0    7356.8678    18.084203    46.009219    19.240843  -0.33800742   -6.3639527  0.065830235    16009.152    7599.8401    6748.6537    7722.1097   -1036.8839    -469.1136   -984.83494    18.084203     46.01046    20.266086    89.681715    108.30165    90.420917 
  409000    273.15414   -9546.1854   -8452.6871   -9546.1854            0    7587.2692    18.005906    46.060927    19.279139   -0.4632411   -6.5337025   0.19913288    15989.515    6496.0502    8013.5284    8252.2289   -585.60901    133.81944    960.79319    18.005906    46.063257    20.357164    89.254608     108.7206    90.576212 
  409500    282.02321   -9594.4271   -8465.4239   -9594.4271            0    7086.9703    18.000503    45.824407    19.447538  -0.35511724   -6.5429522  0.055132388    16041.542    7328.2528    6395.8079    7536.8502   -362.11157   -184.96802     11.62108    18.000503    45.825783    20.518772    89.704472    108.59499    90.444006 
  410000    284.05221   -9604.1128    -8466.987   -9604.1128            0    7431.6021    18.332292    45.313005    19.308039  0.029570271   -6.4111696  0.029972307    16039.019    7763.2237    7838.1277    6693.4549   -104.23661   -935.39035   -225.37175    18.332292    45.313015     20.34464    89.927373    108.36855     89.96261 
  410500    275.45063   -9573.3375   -8470.6458   -9573.3375            0    8120.6359    17.910005    45.450972    19.553016  -0.30611542   -6.1496888   0.14504682    15916.686    8945.8074    8195.4304      7220.67   -249.35217   -809.19336    -1007.353    17.910005    45.452003    20.497809    89.478794    107.45862    90.385885 
  411000    275.94193   -9545.7053   -8441.0469   -9545.7053            0    8910.3313    17.911928    46.008168    19.297009  -0.43299442   -6.2782389    0.1102623    15902.569    8120.3115    9195.3827    9415.2998   -398.15754    299.07682   -886.01947    17.911928    46.010206     20.29293    89.521871    108.02191    90.539209 
  411500    276.21477   -9546.7362   -8440.9856   -9546.7362            0    8620.5953    18.042745    46.058658    19.147751  -0.17528801   -6.5068844  0.057871694    15912.253    8151.0657     8212.705    9498.0152     388.3037   -188.54499    1606.9718    18.042745    46.058991    20.223235    89.765882    108.76897    90.218053 
  412000     279.0975   -9582.2137   -8464.9227   -9582.2137            0    7887.7401    17.916353    45.803363    19.472701  0.068115992   -6.5738368  0.051950393    15979.867    8189.3003    8044.2112    7429.7088   -143.46018    402.18674    -826.6579    17.916353    45.803413    20.552473    89.882428    108.65423    89.914793 
  412500    281.84907   -9588.8695   -8460.5635   -9588.8695            0    5824.2176    18.156727    45.797895    19.405491  -0.36673043   -6.4115809  0.023370762     16136.44     5741.994    5807.0389      5923.62    819.08411    342.55202    357.23684    18.156727    45.799364     20.43727    89.790551    108.28356    90.458791 
  413000    261.03512   -9598.7678   -8553.7847   -9598.7678            0    7688.8853    18.126827    45.643265    19.341201  -0.52890561   -6.2860172   0.19559204    16002.283    6837.0848    8216.2294    8013.3416    482.52309    189.76628   -155.99044    18.126827    45.646329    20.338002    89.243805    108.00364    90.663903 
  413500    273.76783    -9578.789    -8482.834    -9578.789            0    7868.7372     17.86339     46.08964    19.419606  -0.41664698   -6.3297099   0.15643779    15988.496    9849.7475    6823.2155    6933.2485    291.33749   -54.143844   -833.45208     17.86339    46.091524    20.425738    89.400687    108.05254    90.517936 
  414000     271.5634   -9592.1324   -8505.0023   -9592.1324            0    8693.7033    17.942609    46.336314    19.124442 -0.036719393   -6.5258794  -0.13182539    15899.954    7432.2262    8294.1248    10354.759   -352.87046    502.54105    1150.6711    17.942609    46.336329    20.207642    90.359111    108.84089    90.045404 
  414500     265.6548   -9575.0591   -8511.5824   -9575.0591            0    9766.5737    18.040183    45.602294    19.314886   0.26809022   -6.6651256   0.17053203    15889.849    9301.6031    9980.7156    10017.403   -967.20945   -66.248655   -448.98992    18.040183    45.603082    20.433252    89.631696     109.0377    89.663169 
  415000    267.39373   -9593.6655   -8523.2275   -9593.6655            0    8759.0676    17.986403    45.563797    19.439973  -0.45589744   -6.5396763   0.12764999    15931.618    10443.943    9037.2243    6796.0351     639.9201    910.37323   -1670.3558    17.986403    45.566077    20.510881    89.460652    108.59275    90.573265 
  415500    279.68098   -9605.3565   -8485.7298   -9605.3565            0    8474.0919    18.021501    45.873619    19.256602   -0.4353441   -6.4341931  0.038494267    15919.654    8328.6129    8067.9629    9025.6998    783.17574   -297.50789    699.40375    18.021501    45.875685    20.303129    89.719065    108.47594    90.543725 
  416000    274.76943   -9562.3545   -8462.3898   -9562.3545            0    7494.0331    17.975497    45.987294    19.328079 -0.029825815   -6.3693238    0.1255234    15977.449    7717.3741    7928.2864    6836.4387   -251.96534    28.406013   -1242.1982    17.975497    45.987304    20.350889     89.63497    108.23862     90.03716 
  416500    272.08606   -9565.0715    -8475.849   -9565.0715            0    8962.0345    17.893127    45.881137    19.387129  -0.57943267   -6.2939898    0.0363336    15915.999    10448.866    8504.7318    7932.5062    580.13297    57.071059    597.24798    17.893127    45.884796    20.383238    89.674462    107.98588     90.72355 
  417000    274.46057   -9577.5655   -8478.8373   -9577.5655            0    9033.0334    18.069044    45.671544    19.254584  -0.50322183   -6.4616171   0.22102767    15889.675    8235.8149     8992.604    9870.6814   -405.21207    96.903548   -1646.4451    18.069044    45.674316    20.311089    89.175685    108.55002    90.631275 
  417500    274.37108   -9530.1721   -8431.8022   -9530.1721            0    7888.4222    18.027992    45.777299    19.366272  0.098251373   -6.5808874   0.18953048    15982.457    8262.1612    7526.3216    7876.7838   -1696.7124    281.35883   -1365.1961    18.027992    45.777404    20.454743    89.508665    108.76753    89.877027 
  418000    266.41018   -9563.4814   -8496.9807   -9563.4814            0    7907.9725    17.929515    46.047052    19.372194  -0.27889288   -6.4889459  -0.23186519    15993.709    7673.9991     7574.281    8475.6374    700.24699    387.97622    872.92733    17.929515    46.047897      20.4314    90.540004    108.51765    90.347019 
  418500    282.34269   -9551.7899   -8421.5077   -9551.7899            0     7451.236     18.04067    45.984951    19.302698  -0.24721842   -6.3601133   0.20766931    16013.505     7993.555     6689.678    7670.4752   -238.06293   -613.73095   -1676.9854     18.04067    45.985615    20.324574    89.318176    108.23573    90.308023 
  419000    273.52109   -9532.4494   -8437.4821   -9532.4494            0    8495.4994    17.970773    45.652789    19.433973  -0.59922505   -6.3591962   0.21321022     15943.94    8882.7455     8638.084    7965.6686    549.61058   -245.56155   -702.66545    17.970773    45.656722    20.449062    89.168784    108.11814    90.752004 
  419500    284.94146    -9573.211   -8432.5254    -9573.211            0    8430.4442    18.071044    45.768014    19.282739  -0.13512183   -6.5368997 -0.087762192    15948.287     7640.205    9272.6681    8378.4594     135.8661    732.28673    64.612576    18.071044    45.768214    20.360815    90.192656    108.72662    90.169155 
  420000    269.39072    -9573.226   -8494.7936    -9573.226            0    8067.4602    17.974891    46.188108    19.224033   0.57562314   -6.5754796  0.085793769    15960.296    7588.4554    7899.0409    8714.8843   -1223.5059    31.434847   -939.06448    17.974891    46.191695     20.31767    89.989154    108.88281    89.285984 
  420500    272.52696   -9593.5291   -8502.5416   -9593.5291            0    8014.7376    17.896062    45.904511    19.435728  -0.49558003   -6.4638271   0.11532181    15966.644    8442.4472    8505.0169    7096.7487    601.58116    1044.9913    319.59896    17.896062    45.907186    20.482721    89.482235    108.39551    90.618535 
  421000     288.6349    -9556.615   -8401.1437    -9556.615            0    8504.8747    18.088527    45.456442    19.382366  -0.79383243   -6.3278351   0.15833373    15936.958    7578.6902    9653.0993    8282.8348    154.24747    235.05222    138.29935    18.088527    45.463373    20.389769    89.244645    108.07994    91.000488 
  421500    272.77905   -9568.9166   -8476.9199   -9568.9166            0    8889.8346    18.041539    45.605968    19.313074  -0.10974949   -6.3120167  0.081499753    15890.832    8086.4971    9078.5464    9504.4602   -286.16092    193.18238   -655.11844    18.041539      45.6061    20.318539    89.727347    108.09859     90.13788 
  422000    274.94242   -9550.6409   -8449.9837   -9550.6409            0    7533.0069    17.817024     46.37864    19.305596   0.44490104    -6.409094  -0.11390278    15952.781    7587.1685    7466.1659    7545.6863    32.186719   -113.32463    947.12728    17.817024    46.380774    20.341964    90.493975     108.3649     89.45039 
  422500    278.62679   -9610.3826    -8494.976   -9610.3826            0    9079.7926    18.033412    45.947395    19.149381   -0.2158088   -6.7380969 -0.010303294    15866.954    7820.9726    9024.0647    10394.341   -192.87914    352.06165    411.21681    18.033412    45.947902    20.300267    89.939757    109.38545    90.269109 
  423000    279.21331   -9576.3384   -8458.5839   -9576.3384            0    8787.7836    18.116702    45.381599    19.354545  -0.60246437   -6.7893374   0.22928469    15912.628    9384.5442    8956.4113    8022.3953     223.7516    615.41805   -958.45839    18.116702    45.385598    20.512096    89.107826    109.32899    90.760587 
  423500    273.49717   -9575.0931   -8480.2216   -9575.0931            0    7537.2134    17.993999    45.800837    19.426446  -0.21467631   -6.5208297  0.078109769    16010.115    7713.8038     7611.066    7286.7705   -152.47189    298.52839   -76.028478    17.993999     45.80134    20.491806    89.696146     108.5551    90.268553 
  424000    273.41709   -9607.7283   -8513.1774   -9607.7283            0    7761.7497    17.961019    46.139081    19.273137   0.40269446   -6.2837209 -0.019892131    15971.743    6751.2594    7574.1343    8959.8553   -489.19852    455.53169   -482.84367    17.961019    46.140838    20.271639    90.211225    108.05778    89.499944 
  424500    278.92607    -9583.448   -8466.8433    -9583.448            0    6678.7845    18.033543    45.975601    19.379453  -0.27074975   -6.2555368 -0.0018618225    16067.562    6921.1907    7150.3904    5964.7724   -22.584054    -684.9409    378.43109    18.033543    45.976398     20.36406    89.901591    107.88968     90.33741 
  425000    275.62551   -9554.0179   -8450.6261   -9554.0179            0    7708.2862    18.052272    45.750818    19.446376  -0.89912818   -6.4828263   0.18482783    16060.883     7855.556    7224.9355    8044.3671     632.3831    113.69587    554.92601    18.052272    45.759653    20.499335    89.127441    108.43603    91.125873 
  425500    272.95672   -9559.8929   -8467.1849   -9559.8929            0    6934.0584    18.142391    45.814336    19.342543  -0.20553956   -6.6160508   0.30659185    16077.166    6306.8832    7245.8858    7249.4063    78.573816   -223.91374   -736.26032    18.142391    45.814797    20.445051    89.057584    108.88087    90.257048 
  426000    272.42649   -9604.3561   -8513.7708   -9604.3561            0    7544.2876    17.998171    46.041567    19.316141  0.037396642   -6.4830508 -0.082399769     16006.59    9024.0122    6708.6389    6900.2118     409.5953    167.94333    986.58416    17.998171    46.041582    20.375231    90.246519    108.55307    89.953462 
  426500    271.52736   -9591.1004   -8504.1145   -9591.1004            0    7693.4529    17.954424    46.021734    19.341451  -0.10030792   -6.3376805 -0.0056666985     15981.72    9274.7183    6944.8743    6860.7661    84.032005    203.29166    697.03123    17.954424    46.021843    20.353328    89.977066     108.1426     90.12488 
  427000    270.99652   -9599.6409     -8514.78   -9599.6409            0    8475.2031    18.049674    45.737366    19.354962  -0.39735029   -6.3513094   0.18896937    15978.384    8771.0326    7607.3931    9047.1836    416.21381   -639.30864    587.50603    18.049674    45.739092    20.371289    89.313327    108.16638    90.497753 
  427500    268.86513   -9553.1699   -8476.8415   -9553.1699            0    7187.8487    17.995719    45.919595    19.379761  -0.99437266   -6.5401952  0.051093401    16014.585    8659.7317    6541.9536    6361.8609     792.6522   -386.86795    836.45154    17.995719     45.93036    20.453653    89.460265    108.64822    91.240526 
  428000    280.30193   -9571.9875    -8449.875   -9571.9875            0    8211.0227    17.887871    46.309044    19.194402  -0.23218574   -6.7093482   0.06485731    15900.071    8602.0459    7968.9901     8062.032    -594.5578    84.282134   -1804.5584    17.887871    46.309626    20.333338    89.722456    109.26683    90.287269 
  428500    277.78248   -9561.4541   -8449.4275   -9561.4541            0    9372.7021    18.008046    45.769039    19.276785   0.23945105    -6.532059  0.094093008    15888.137    9237.7924    9123.3987    9756.9152   -1512.6957    -183.7721    432.40828    18.008046    45.769665     20.35365    89.831329    108.71906    89.700247 
  429000    272.73509   -9581.0011   -8489.1804   -9581.0011            0     8665.673    18.050414    45.517439    19.381743  -0.33255767   -6.2397346   0.13922976    15924.208    8540.0688    8389.0435    9067.9065    399.46579   -62.002518   -180.52848    18.050414    45.518654    20.361868    89.479951    107.84495    90.418605 
  429500    275.48134   -9556.8314   -8454.0168   -9556.8314            0    8872.5971    17.985962    45.716319    19.348586   -0.3966156   -6.2956608   0.11028609    15909.414    9511.5741    8987.8638    8118.3535   -58.487827   -119.35666    663.27884    17.985962     45.71804    20.347366    89.535661    108.02363    90.497062 
  430000    273.44439   -9578.5456   -8483.8854   -9578.5456            0    8646.8669    17.943312    46.071038    19.235119   0.08345547   -6.5321739   0.10314699    15901.039    8887.5225    8428.5446    8624.5335    -814.5139    352.51812     289.1623    17.943312    46.071114    20.314275     89.74245    108.75704    89.896212 
  430500    275.83246     -9607.39   -8503.1698     -9607.39            0    8436.9538    17.959407    46.021168     19.25263  -0.48337805   -6.6397502 -0.094869192    15912.547    8041.7444    8846.9304    8422.1865     132.9512    879.02557    1015.7077    17.959407    46.023707    20.365634    90.070694    109.02782    90.601778 
  431000    280.98245   -9554.3117   -8429.4749   -9554.3117            0    8062.4654    18.229603    45.193123    19.442163  -0.38414975   -6.6470488   0.24583332    16017.479    8697.9968    8732.7051    6756.6942   -639.11008    172.49364   -2048.8466    18.229603    45.194756    20.548514    89.156996    108.87356    90.487013 
  431500    279.62401   -9564.9725   -8445.5739   -9564.9725            0    7388.2433    18.136245    45.535617    19.424494 -0.092428271   -6.4491376   0.22002036    16041.622    7278.3147    7392.0115    7494.4037   -167.66764   -316.52635   -325.63904    18.136245    45.535711    20.468286    89.347453    108.36561    90.116299 
  432000     280.4177   -9611.0024   -8488.4265   -9611.0024            0    8003.4494    17.893456    46.025483    19.392681   -0.3157054   -6.3975168 -0.037180054    15970.939    7940.6211    7911.9973      8157.73    320.09978     -452.978    3611.9439    17.893456    46.026565    20.420717    89.981194    108.25735    90.393006 
  432500    272.77556   -9603.4495   -8511.4668   -9603.4495            0    8537.7125     17.95312    46.104819    19.227812 -0.026799704   -6.3403538   0.14566012    15915.348     8474.758    8111.0017    9027.3779    -1217.887    174.57885   -1098.8667     17.95312    46.104827     20.24673    89.577366    108.24944    90.033305 
  433000    275.30127   -9584.8756   -8482.7819   -9584.8756            0    6557.3614    18.113516     45.68635    19.383818  -0.17195927   -6.3672432   0.14917522    16040.893    5886.8359    5977.5239    7807.7243   -139.32043   -248.73765   -424.27219    18.113516    45.686674    20.403344    89.513791    108.18394    90.215655 
  433500    262.89893    -9573.634   -8521.1896    -9573.634            0    7970.6405     18.06609    45.208382    19.608545  -0.66708332   -6.4483225 -0.014295845    16015.058    9129.7723     8803.374    5978.7753    1132.2761    1099.1013    1417.5983     18.06609    45.213304    20.641611    89.775594    108.20358    90.845381 
  434000    277.90584   -9590.2641   -8477.7436   -9590.2641            0    7193.7775    18.046247    46.110549    19.265435  -0.16417051   -6.5053913   0.26465876      16031.2    6433.6795    7225.6588     7921.994    541.19025     448.1776    88.374711    18.046247    46.110842    20.335859    89.189051    108.65673    90.203993 
  434500    282.60575   -9557.4799   -8426.1447   -9557.4799            0    8217.1939    17.917124    46.260263    19.285424  -0.30127143   -6.4857981  0.092540265     15984.74      9884.31    6721.8431    8045.4286    307.09407    152.94244   -18.154254    17.917124    46.261244    20.347032    89.620477    108.58789    90.373135 
  435000    274.68396   -9604.5046   -8504.8821   -9604.5046            0    8584.9068    18.046318    45.445207    19.414006   -0.3378014   -6.4937065 -0.0035445162    15921.789    8413.9566    9378.7255    7962.0384    8.4308702    384.91866   -453.86016    18.046318    45.446463    20.471245    89.874827    108.49435    90.425881 
  435500    265.82397   -9630.0472   -8565.8933   -9630.0472            0    8458.5514    18.126575    45.340268    19.394204  0.098564731   -6.4131829   0.12474832    15939.393    8846.7963    8606.7941    7922.0639   -751.22825    100.06635   -848.89174    18.126575    45.340376    20.427423    89.689203    108.29742    89.875446 
  436000    275.72343   -9634.0986   -8530.3149   -9634.0986            0    8491.8912    17.776016    46.282372    19.271807  -0.25667178   -6.2791627   0.12225352    15855.228    10674.306    7149.6347    7651.7328   -315.63127   -496.92268   -93.882823    17.776016    46.283084    20.269321    89.555991    108.04637    90.317746 
  436500    276.05285    -9570.268   -8465.1655    -9570.268            0    8437.7038    17.819039    46.337402    19.247153  -0.51722961   -6.3422466   0.14113082    15892.143    7464.4035    9249.1279    8599.5798    69.753462    1157.2621    594.00895    17.819039    46.340289    20.265659    89.400866    108.23742    90.639523 
  437000    273.95796   -9607.4508   -8510.7346   -9607.4508            0    7815.3226     18.09752     45.38057    19.405198  -0.37473843   -6.4654012   0.18423784    15937.019    7693.7519    8646.1239    7106.0918    203.73961   -858.90694    259.61844     18.09752    45.382117    20.454757    89.334391    108.42621     90.47312 
  437500    274.60816   -9556.8079   -8457.4889   -9556.8079            0    8082.7503    18.050057    45.568969    19.431815   -0.2006998   -6.4982676 -0.0088523028    15983.105    8449.6364    8430.4038    7368.2108   -119.00587    1256.0109    388.03186    18.050057    45.569411    20.489582    89.944722    108.49065    90.252347 
  438000    266.86604   -9628.3589   -8560.0333   -9628.3589            0     7541.419    17.834213    46.591445    19.156667   0.13179899   -6.4270411  0.011321141    15917.691    7296.7381    7088.6063    8238.9127   -251.96458    76.434469    356.94646    17.834213    46.591632     20.20606    90.019451    108.54654    89.837921 
  438500     275.5686   -9573.4957   -8470.3318   -9573.4957            0    7990.8189    17.873294    46.241509    19.285676  -0.66188541   -6.3611246   0.14262633    15939.381    7825.5891    8101.8797    8044.9878    1224.8686    319.34627   -619.05212    17.873294    46.246246    20.308165    89.340775    108.25399    90.820057 
  439000    282.50822   -9573.5795   -8442.6348   -9573.5795            0    8132.1712    18.093153    45.204334    19.491742   -0.9147802   -6.4236545   0.27989098     15942.08    8564.0551      7779.41    8053.0484     1072.078   -605.78864   -962.92606    18.093153    45.213589    20.524855    88.855955    108.23828    91.159311 
  439500     276.7785   -9592.6119   -8484.6044   -9592.6119            0    8515.2272    18.092303    45.558452    19.381922 -0.075920486   -6.5181537   0.18256578    15975.691    9131.4964    7688.4815    8725.7037   -536.39329   -185.17412   -2179.6645    18.092303    45.558515    20.449414    89.458041    108.58706     90.09548 
  440000    272.04094   -9591.9355   -8502.8936   -9591.9355            0    8180.3035    17.973309    46.165458    19.253446 -0.021652211   -6.4889427 -0.047617723     15975.47    8198.9956    7909.0671    8432.8478    -673.2565   -397.41799    522.25656    17.973309    46.165463    20.317575      90.1257    108.62518    90.026872 
  440500    261.70802    -9613.852   -8566.1752    -9613.852            0    8331.9177    17.860138     46.07496    19.345221  -0.37760029   -6.3729376   0.16817312    15919.282    8976.4577    8093.2915    7926.0038   -497.89221   -434.93401   -211.78983    17.860138    46.076508    20.368608    89.380031     108.2329    90.469548 
  441000    281.26021   -9660.1642   -8534.2155   -9660.1642            0    7493.9449    18.151777    45.426423    19.350148  -0.71308143   -6.4257264   0.37358278    15955.557    7728.1949    7820.2983    6933.3415    498.05356   -14.106603   -1284.6205    18.151777    45.432019    20.392591     88.66701    108.36691    90.899327 
  441500    275.40427   -9697.9968   -8595.4907   -9697.9968            0    6484.2783    18.049158    45.580502    19.451834  -0.54029211   -6.3690973 -0.085014433    16002.823    7710.2937    5484.5763    6257.9648    453.93885   -842.83809    1226.1056    18.049158    45.583704    20.468182    90.026641    108.12979    90.679128 
  442000    266.84501   -9562.4651   -8494.2237   -9562.4651            0     7615.792      17.9354    46.073998    19.383056   0.26454012   -6.3398864  -0.10506872    16017.297    8567.2794    7498.2577    6781.8389   -1155.6491   -763.85661   -505.97732      17.9354    46.074758    20.393824    90.397452    108.11184    89.671032 
  442500    282.26148   -9562.9954   -8433.0384   -9562.9954            0    6718.5411    18.012997    46.129279    19.270921  -0.06886832   -6.4087633   0.25526335     16012.72    6738.6162    6444.5711    6972.4359   -48.201934   -520.56916   -578.94151    18.012997     46.12933    20.310239    89.252883    108.39363    90.085539 
  443000    282.31807   -9612.7507   -8482.5672   -9612.7507            0     7098.611    18.058641    45.732814    19.375276  -0.81937219   -6.5590565    0.2183559    16001.506    7711.8188    7325.0349    6258.9793    277.92484    174.81008    396.01446    18.058641    45.740153    20.456544    89.059383    108.70125     91.02643 
  443500    288.12684   -9595.1698   -8441.7324   -9595.1698            0    8879.2215    18.046884    45.569009    19.325571  -0.36174799   -6.6024737     0.120589    15892.937    8664.8077    9478.3853    8494.4714   -463.12228    1146.6616   -1335.1036    18.046884    45.570445    20.422657    89.514651    108.86211    90.454831 
  444000    278.73088   -9624.4033   -8508.5801   -9624.4033            0    9265.0427    17.914354    45.810915    19.318713   0.35762645   -6.4839782 -0.089234208    15854.345    9649.7849    8392.3905    9752.9526   -38.416994   -744.66935    357.57933    17.914354    45.812311    20.377993    90.393206    108.55322    89.552725 
  444500    276.67766   -9644.6567   -8537.0529   -9644.6567            0    8676.3088    17.993119    45.994348    19.228144  0.054051103   -6.4544491  0.088915757    15912.861    8206.8001    8238.2577    9583.8687   -557.51909   -482.38153   -1065.6924    17.993119     45.99438    20.282735    89.770252    108.55554    89.932668 
  445000    274.60259   -9632.2142   -8532.9175   -9632.2142            0     7378.925    17.978862    45.852553    19.357432   -1.0418701   -6.3808166   0.27890919    15957.816    7508.2993    6928.0678    7700.4079    1569.1947   -446.21481    575.23547    17.978862    45.864388    20.383886    88.808721    108.24207    91.301661 
  445500    275.59559    -9570.979    -8467.707    -9570.979            0    7807.9082    17.955759    45.837226    19.384683  -0.31461309   -6.4193267  0.078948633    15954.411    8132.3804     6993.088    8298.2563   -189.80233   -313.68672    466.71761    17.955759    45.838306    20.420086    89.654861    108.32238    90.393255 
  446000    284.35224   -9591.0881   -8452.7613   -9591.0881            0    8434.9245    17.983515    45.953163    19.284925   0.49450595   -6.4258019  -0.14967129    15937.051    9070.8944    8483.0168    7750.8624    -1630.838   -101.40635   -916.02526    17.983515    45.955823    20.327854    90.616739    108.42773    89.383459 
  446500    274.31846   -9592.3974   -8494.2381   -9592.3974            0    8258.4617    18.005452    45.740323    19.332658  -0.24797066    -6.403687 -0.045023818    15921.898    8268.0756    7499.7357    9007.5738    577.42896   -432.55754    1786.4063    18.005452    45.740995     20.36568    90.028999    108.32672    90.310613 
  447000    281.53614   -9557.8116   -8430.7582   -9557.8116            0     8638.408    17.971682    45.674155    19.445473  -0.76210548   -6.4380542   0.44012141    15961.649    9870.6476    8228.9758    7815.6005       256.14    69.954379   -2241.9063    17.971682    45.680512    20.488256    88.468812    108.31442    90.955932 
  447500    271.35565   -9541.7058   -8455.4073   -9541.7058            0    8851.3171    18.100819     45.78257    19.237022  -0.28937704   -6.5625649   0.12896636    15941.759    7509.3963     9254.548    9790.0069   -166.21055     473.9577    590.20561    18.100819    45.783485    20.326016    89.519543    108.83629    90.362144 
  448000     277.5527   -9589.8079   -8478.7012   -9589.8079            0     7639.483    18.000516    45.853787    19.363872   0.21470798   -6.5590217  -0.16077024    15982.781    8353.9989    7960.4688    6603.9814   -628.86727    41.682598     403.6745    18.000516     45.85429    20.445199    90.536614    108.71191    89.731717 
  448500    269.16894    -9632.816   -8555.2714    -9632.816            0     6894.922    18.053809    45.861838    19.328305  -0.10798275   -6.5250346   0.12440602    16003.467    7709.5783    7057.1723    5918.0153   -84.389683     345.8119    918.00367    18.053809    45.861965    20.400366    89.607447    108.65379    90.134904 
  449000      277.109   -9604.3927   -8495.0623   -9604.3927            0    7896.2159    18.027731    45.885932    19.342893  -0.56961374   -6.2752713   0.27135889    16000.813     8648.955    7367.9105    7671.7822    267.51919   -1030.2974   -1275.4625    18.027731    45.889468    20.337162    89.016064    107.97258    90.711216 
  449500    278.51824   -9569.3169   -8454.3449   -9569.3169            0    6014.5559    17.934001    45.939516    19.487854  -0.29796367    -6.153741 -0.040913835     16055.64    7048.3854    5786.1339    5209.1485   -728.86098   -586.77443   -606.71606    17.934001    45.940482    20.436405    90.002805    107.52468    90.371615 
  450000    274.37459   -9583.9495   -8485.5655   -9583.9495            0    7156.9681     18.06677    45.817454    19.276169   0.39737919   -6.3581936  0.046345776      15956.3    7882.9923    5984.6759    7603.2361   -521.68903   -816.10068   -168.66479     18.06677    45.819177     20.29777    90.024838    108.25495    89.503081 
  450500    273.19716   -9573.0455    -8479.375   -9573.0455            0    8484.7039    18.036416     45.69917    19.286379   -0.3967324   -6.6213606   0.12013142    15896.783    6997.8066     8527.098    9929.2071   -112.74642    388.61122   -474.48405    18.036416    45.700892    20.391696     89.50096    108.94793    90.497395 
  451000    272.89307    -9568.772   -8476.3189    -9568.772            0    7935.1582    17.963892    45.911169    19.344552  -0.69913405   -6.6378819   0.13071351     15954.29    7254.3473     8308.041    8243.0863    41.631408    428.69048    1024.5959    17.963892    45.916492    20.452146    89.350698    108.93872    90.872431 
  451500    273.97649   -9587.7943    -8491.004   -9587.7943            0    6726.8741     18.01745    46.060612    19.290445   0.11678112   -6.4353986   0.27561794    16009.039    7567.2512    6608.2016    6005.1696   -746.86435   -402.73879    193.67344     18.01745     46.06076    20.337443    89.269463    108.44723    89.854734 
  452000    271.64284    -9572.343   -8484.8948    -9572.343            0    7239.8629    18.036456    45.793895     19.38887   -0.1406522   -6.2400264  -0.17544765    16014.423    7162.9248    6517.2426    8039.4212    726.19171   -1494.8377    1698.6649    18.036456    45.794111     20.36902    90.439606    107.83933    90.175979 
  452500    274.25488     -9562.95   -8465.0452     -9562.95            0    6898.4372    18.006742    45.765079    19.444686  -0.19511167   -6.3183064  0.035331238    16023.976    7384.9581    6665.8801    6644.4733   -152.05445    421.26106    445.23643    18.006742    45.765495     20.44549    89.825503    108.00089    90.244269 
  453000    262.00161   -9592.1837   -8543.3316   -9592.1837            0    6185.9248    18.075453    46.017421    19.281879  -0.40295598   -6.5211506   0.27714846    16038.392    6378.3908    6543.3355    5636.0481    143.63388    571.63774    669.02469    18.075453    46.019185    20.356647     89.05921    108.68379    90.501703 
  453500    269.87883   -9559.7101   -8479.3237   -9559.7101            0    6325.6639    17.917995     46.19152    19.405463  -0.67056274   -6.5750822  0.062030012    16061.114    6880.4305    5382.1099    6714.4511    1494.5684    226.26394    373.28818    17.917995    46.196387    20.489205    89.559665    108.71765    90.831705 
  454000    279.30028   -9535.9898   -8417.8872   -9535.9898            0    7639.8663    18.057371     45.68565     19.46602    0.2777182   -6.4939603   0.16179801    16058.741     8546.278    7757.6652    6615.6555   -1026.9031   -14.391534   -27.414226    18.057371    45.686494    20.521297     89.65848    108.44836    89.651709 
  454500    277.67779   -9578.5436   -8466.9361   -9578.5436            0    6988.0288    18.169188    45.637851    19.309147  0.025240461    -6.317431  0.083840977    16011.197    5873.8753    7096.3618    7993.8494     413.4492   -566.80271    138.29511    18.169188    45.637858    20.316499    89.773408    108.11654    89.968312 
  455000     271.5951    -9601.905   -8514.6479    -9601.905            0    8291.6523    17.826529    45.964092    19.468459  -0.49014823    -6.201232   0.08010757     15952.07    8882.7316    8442.4958    7549.7296    1039.7204    79.738745   -427.96157    17.826529    45.966705    20.432391    89.589951    107.66795    90.610963 
  455500    259.55783   -9590.3999   -8551.3307   -9590.3999            0     7210.618    18.046258    46.064286    19.232261  -0.21336935   -6.4105555   0.20832552    15987.547    6673.9457    7962.6008    6995.3075    74.764118   -364.97911     532.3203    18.046258     46.06478    20.273591    89.327319    108.43341    90.265392 
  456000    277.56503   -9630.7228   -8519.5667   -9630.7228            0     7409.296    18.032533    45.711311    19.424307  -0.22144269   -6.6960521  0.036921609    16011.277    6906.7265     8477.042    6844.1196    778.84899    940.25156     1230.606    18.032533    45.711847    20.546099    89.806582    109.02034     90.27756 
  456500    276.83846   -9592.1046   -8483.8571   -9592.1046            0    7287.0706    18.067802     45.65429    19.422048  -0.14563228   -6.6735477  0.070987164    16020.717    7478.2583      7259.67    7123.2834   -287.18962    83.823125    1142.2902    18.067802    45.654522    20.536729    89.742561    108.96295    90.182767 
  457000      274.057   -9625.1608   -8528.0482   -9625.1608            0    6352.4625     18.14061    46.012954    19.206834  -0.39640635   -6.3959361   0.19582977    16032.003    6540.2335    6494.3793    6022.7748    904.46279   -321.29203    225.98958     18.14061    46.014662    20.244723    89.289832    108.41703    90.493597 
  457500    272.59957   -9595.4044   -8504.1262   -9595.4044            0    7947.1525    17.815517    45.925403    19.483386  -0.42401974   -6.1572937  0.062127658     15941.01    8663.4015    7954.6184    7223.4375   -482.01534   -126.79835    246.36048    17.815517     45.92736    20.433268    89.666397    107.53791    90.528985 
  458000    263.43279    -9604.112   -8549.5305    -9604.112            0    8898.2828    17.970752    45.898817    19.263185   0.12708397   -6.2600235  0.021225473    15888.974    8702.7915    8339.1649    9652.8921   -188.42013   -425.95383    236.36751    17.970752    45.898993    20.254843    89.988988    108.00277    89.841361 
  458500    265.87263   -9555.9496   -8491.6008   -9555.9496            0    7817.6571    18.076789    45.736008    19.299327  -0.10398084   -6.4806042  0.080425379    15955.915    8599.7512    7839.1839    7014.0361   -956.79438    122.36978   -1485.6355    18.076789    45.736126    20.358505     89.73219    108.56161    90.130262 
  459000    283.16809   -9588.3258   -8454.7394   -9588.3258            0    8596.2158     17.91733    45.737571    19.464117  -0.69845518   -6.6224442  0.066524441    15950.749    8838.2648    8934.5285    8015.8541    389.55633    640.30734   -953.36807     17.91733    45.742903    20.559986    89.532834    108.79019    90.874892 
  459500    265.44815   -9630.9921   -8568.3426   -9630.9921            0    7818.0394     18.09336     46.00952    19.106081    -0.599316   -6.5099776   0.18791784    15905.178    6971.6442    8664.3943    7818.0797    388.18581   -321.74499   -952.17504     18.09336    46.013423    20.185575     89.22595    108.81457    90.746288 
  460000    282.65705   -9570.9127   -8439.3721   -9570.9127            0    8295.5949    17.918619    45.927688    19.367679 -0.034278024   -6.2269188  0.057422004     15938.84    7485.4058    8688.0912    8713.2876    541.24295    92.935916   -806.63312    17.918619    45.927701    20.344159    89.825192    107.82309    90.042763 
  460500    281.72529   -9580.8454   -8453.0348   -9580.8454            0    9056.6228    17.944185    45.674622    19.396593  0.020228458   -6.2414888 -0.057939466    15897.329    9843.2986    8601.5956    8724.9742   -142.64152   -503.77335    297.74967    17.944185    45.674626    20.376147    90.170693     107.8372    89.974625 
  461000    268.56063      -9562.3   -8487.1907      -9562.3            0    8399.3444    18.070931    45.855109    19.179677  -0.18181664   -6.5018206   0.18902113    15893.134    7166.6988    9152.6794    8878.6551   -1226.6571   -193.09019   -947.70202    18.070931    45.855469    20.252639     89.39231    108.72557    90.227178 
  461500    273.65982   -9576.7853   -8481.2627   -9576.7853            0    7839.4035    17.922835    46.034812    19.358539  -0.63245397   -6.5966071  0.083886045    15972.234    6783.6484    8283.1494    8451.4127    1605.5026     375.0804    1837.6679    17.922835    46.039156     20.45178    89.511138    108.81687    90.787114 
  462000    281.45848   -9562.1676   -8435.4252   -9562.1676            0    7889.3319    18.062933    45.659954     19.40438  -0.15789987   -6.4907307    0.1775162    16003.815    9289.3564    7962.9727    6415.6665    -646.2401    -226.4147   -1384.0726    18.062933    45.660227    20.461942    89.440077    108.49428    90.198138 
  462500    278.39836   -9559.2276   -8444.7355   -9559.2276            0    7749.4894    18.179574     45.53653    19.380228   0.23798913   -6.2754413   0.03089525    16043.625    6541.5304    8478.6137     8228.324    65.811566   -216.25905    1011.8539    18.179574    45.537152    20.370944     90.00535    107.94226    89.700556 
  463000    277.70347   -9609.8329   -8498.1226   -9609.8329            0    7498.7799    17.921133    45.847412    19.463643  -0.36696909   -6.2346725 -0.094308219    15992.061    8332.5815    7452.9354     6710.823    55.873166   -619.89124    368.78344    17.921133    45.848881    20.438039    90.124481    107.76132    90.458594 
  463500    278.07643   -9571.8701   -8458.6668   -9571.8701            0    7359.7284    18.022333    46.113701    19.286414  -0.19088511   -6.4216569    0.2381956    16028.485    6920.5459    7749.3414    7409.2978   -971.10394    510.02044   -438.62375    18.022333    46.114096    20.328802    89.253722    108.41453    90.237171 
  464000    274.99255   -9573.8359   -8472.9781   -9573.8359            0    6916.7755    17.960822    45.986003    19.326813  -0.32975356   -6.5029327   0.12055905    15962.912      6425.65    7427.1051    6897.5713    654.39882     628.7726     732.7454    17.960822    45.987185    20.391871    89.530247    108.59631    90.410846 
  464500    265.41525   -9603.4452   -8540.9275   -9603.4452            0    8491.1617    17.967611     45.66377    19.397573  -0.39774845   -6.4684915 0.0020083887    15915.104    8235.1894    9555.4575    7682.8382     489.9031    144.81349   -299.12515    17.967611    45.665502     20.44767    89.836501    108.44195    90.499055 
  465000    281.34976   -9627.0218   -8500.7146   -9627.0218            0    8290.2892    18.101417    45.500716    19.318735 -0.0079820703   -6.3808968   0.18120565    15911.441     7946.098    8453.9674    8470.8022   -730.62454   -320.24922   -192.43614    18.101417    45.500717    20.346062    89.486554    108.27742    90.010051 
  465500    276.86614   -9583.1566   -8474.7984   -9583.1566            0    10401.743    17.828234    45.671276    19.375762  -0.46861555      -6.2152   0.19079861    15776.486     10817.66    10503.728    9883.8401   -776.54645    680.67768   -1138.9636    17.828234     45.67368    20.349086    89.283239    107.78397     90.58787 
  466000    282.29755   -9624.4644    -8494.363   -9624.4644            0    9785.1644    17.855503    45.907492    19.247132  -0.72264311   -6.3140291 -0.011356068      15776.9    9557.5012    9674.2225     10123.77    2025.6786    619.76493    870.95386    17.855503    45.913179    20.256337     89.75102    108.16209    90.901835 
  466500      271.099   -9587.2286   -8501.9575   -9587.2286            0    9177.7018    18.004949    45.794907    19.269697   0.12538395   -6.4943058   0.11403183    15888.539    9413.8069    9176.7218    8942.5767   -540.33548    541.36939   -415.57556    18.004949    45.795078    20.334951    89.728804    108.62463    89.843128 
  467000    283.08984   -9526.6559   -8393.3827   -9526.6559            0    9001.4589    18.001944    45.614151    19.376965  -0.22839046   -6.5235501  0.060869886    15911.267    9914.1798    8835.0885    8255.1085   -548.47221   -400.92868   -1697.0184    18.001944    45.614723    20.445713     89.73789     108.6065    90.286878 
  467500    280.37293   -9596.9802   -8474.5835   -9596.9802            0    7748.9876    18.019497    45.873172    19.362094  -0.55274681   -6.3188041   0.22880379     16004.93    8240.1392    7707.2138    7299.6098     47.98216    43.792068   -1354.5786    18.019497    45.876502    20.368366    89.142235    108.07287     90.69035 
  468000    269.69204   -9574.1893   -8494.5506   -9574.1893            0    6583.3648    18.060103     46.11109    19.265594   -0.2521628   -6.1767875   0.14876718    16043.829     6214.085    6339.2929    7196.7164    450.09893   -683.12081    1064.3589    18.060103     46.11178    20.232102    89.483046      107.776    90.313324 
  468500    269.59841   -9625.3172   -8546.0533   -9625.3172            0    7707.8316    17.923929      45.9026    19.447095  0.017217148   -6.3580366   -0.1474711    16000.193    7909.5538    8476.4667    6737.4744    27.825689    494.74505    459.37692    17.923929    45.902603    20.460593    90.419645    108.10416    89.978509 
  469000    285.18294   -9580.7226   -8439.0703   -9580.7226            0    7676.3464    18.175636    45.688138     19.31161 -0.059396423   -6.6936683   0.11868768    16036.573     7803.551    7869.1733    7356.3148   -718.40474      163.672    312.17726    18.175636    45.688177    20.439119    89.642894    109.11668    90.074487 
  469500    275.47319    -9574.637   -8471.8551    -9574.637            0    7549.0935    18.035389    45.742642    19.395462  -0.65148939   -6.5924655   0.24165097    16000.991    7447.4516    7195.3927    8004.4363    730.03232   -54.507608   -286.89266    18.035389    45.747281    20.486653    89.061625     108.7714     90.81598 
  470000    281.39257   -9608.5594   -8482.0809   -9608.5594            0    7841.9504    17.939303    45.966167    19.344666  -0.53944683   -6.2638533  0.072229387    15951.632    8483.0136    6935.1015    8107.7361    744.70083    433.53693    280.39181    17.939303    45.969333    20.333647     89.58936    107.94197    90.672377 
  470500    267.51779   -9568.4197    -8497.485   -9568.4197            0    8377.4213    17.926956    46.306089    19.223497   0.68582885   -5.9535571   0.04584856    15957.948    7475.6925    7642.4892    10014.082   -547.37283   -746.87056   -354.91399    17.926956    46.311167    20.124358    90.120499    107.20782    89.151467 
  471000    276.13531   -9560.2446   -8454.8121   -9560.2446            0    7960.4194    17.897701    45.825441    19.452746 -0.039822381   -6.1896796 -0.017180293    15954.559    8251.9697    8164.6784    7464.6101    9.3486243    -429.9921    -452.3992    17.897701    45.825458    20.413764    90.033123    107.65057     90.04979 
  471500    274.60784   -9534.4835   -8435.1657   -9534.4835            0    10069.509     18.01755    45.601886     19.33813  -0.41718461   -6.4760243   0.13224472     15888.87     9474.322     10314.78    10419.425   -377.23395     422.4116    285.83987     18.01755    45.603794    20.394109    89.462037    108.51445     90.52415 
  472000    287.04802    -9516.179   -8367.0603    -9516.179            0    9513.7198    18.045283    45.680319    19.250736  -0.52377398   -6.5703669   0.18742187    15868.657    9126.3706    9369.3642    10045.424    278.42079   -12.440532    907.88428    18.045283    45.683322    20.341969    89.259936    108.84418    90.656929 
  472500    281.00304    -9548.366   -8423.4468    -9548.366            0    9824.9861    17.855986    45.930449     19.32323   -0.2759839   -6.3202711 0.0085330475    15847.628    9656.6555    9927.8071    9890.4958    24.075894   -100.53027   -18.430046    17.855986    45.931278    20.330596    89.868928    108.11196    90.344271 
  473000    287.62352   -9616.8317   -8465.4092   -9616.8317            0    9916.1002    17.909915    45.957624    19.244357   0.15221026    -6.085649  0.061513665    15839.975    9745.5649    9334.5237    10668.212   -549.28053    -763.0366   -2.6680814    17.909915    45.957876     20.18376    89.882597    107.54845    89.810239 
  473500    281.55763   -9561.1242   -8433.9848   -9561.1242            0    9476.9235    18.093997    45.369628    19.386833   -0.4214033   -6.3152256   0.13597579    15914.999    7468.5336    11169.836    9792.4008    209.37051   -284.74021    571.59816    18.093997    45.371585    20.389945    89.453096    108.04251    90.532161 
  474000    269.16809    -9623.541   -8545.9998    -9623.541            0    8754.6662    17.981649    45.564631    19.430098  -0.48722888   -6.6482577   0.21585599    15919.607    8976.2059    8779.5272    8508.2656    657.54241    340.56866   -17.461131    17.981649    45.567236    20.537152    89.199479    108.88796    90.612648 
  474500    283.43031   -9617.1474   -8482.5113   -9617.1474            0    7503.2559     18.03877    46.042264     19.21469  -0.23346226   -6.7014925   0.03934772     15958.68    5325.5001    8160.3577    9023.9098   -255.77585    808.10849    71.740176     18.03877    46.042856    20.349836    89.793543    109.22716    90.290522 
  475000    279.30593   -9561.6724   -8443.5471   -9561.6724            0    7611.3105    17.965318     46.06482    19.289044 -0.048540554   -6.4087411 -0.050078547    15963.017    8366.4561    7601.0283    6866.4472   -316.10923   -214.93552   -1128.0382    17.965318    46.064845    20.325887    90.122128    108.37889    90.060375 
  475500    266.60121   -9627.3425    -8560.077   -9627.3425            0    6558.2288    17.979677    45.482688    19.541786  -0.18566438   -6.1877553   0.21889358     15980.57    6027.9067    7016.8754    6629.9043   -263.87458   -731.07452   -786.72037    17.979677    45.483067    20.499211    89.317577    107.56895    90.233885 
  476000    273.57054   -9553.0271   -8457.8619   -9553.0271            0    6984.3015    18.130722    45.673643    19.311646  -0.57524055   -6.3327752    0.1035184    15991.899    7147.6228    7066.6314    6738.6502    -86.57341   -93.749001    316.09021    18.130722    45.677266    20.323741    89.483347    108.15538    90.721578 
  476500     274.8995   -9651.5762   -8551.0908   -9651.5762            0    7531.6151    17.933159    45.975985    19.332676  -0.27324177   -6.4232354 0.0041751275    15939.688    7313.9673    7485.0393    7795.8388    688.97698   -292.05018    91.178438    17.933159    45.976797    20.371802    89.880894    108.37894    90.340513 
  477000    274.42179   -9561.3853   -8462.8123   -9561.3853            0    6842.9978    18.002924     45.95555    19.472943  0.015327265   -6.5061106   0.10232202    16110.633      8258.63    6245.6117    6024.7518   -210.39445    782.08419   -434.09212    18.002924    45.955552    20.531329    89.720509    108.47477    89.980891 
  477500    266.49065   -9542.5213   -8475.6985   -9542.5213            0    7187.0924     18.23305    45.480534    19.323617  -0.29376023   -6.5441894   0.16539458    16024.087    5250.9087    7623.2451    8687.1233   -934.36807   -349.21987    1048.9583     18.23305    45.481483    20.402351    89.416822    108.70869     90.37007 
  478000    270.52121   -9553.8151    -8470.857   -9553.8151            0    8613.7211    18.013682    45.638984    19.392315  -0.41480977    -6.441097   0.11402378    15942.929    8817.0597    9021.2677    8002.8358    860.86803    164.81799   -245.09301    18.013682    45.640869    20.434349    89.516156    108.37345    90.520743 
  478500    275.93418   -9580.9412   -8476.3138   -9580.9412            0    8645.4694     17.92889    46.034448    19.311876  0.047798247    -6.421837   0.12364737     15938.99    7909.3759    8494.7664    9532.2658   -546.21276    276.56384    39.204482     17.92889    46.034472    20.351998    89.670673    108.39332    89.940509 
  479000    269.96796   -9583.2492   -8502.5059   -9583.2492            0    8516.0924    17.974475    46.102485    19.205678  -0.24420101   -6.4542671  0.076666797     15915.13    8916.2474    8115.6459     8516.384    419.26767    548.41124    87.899365    17.974475    46.103132    20.261331    89.686524    108.57532    90.303488 
  479500    257.57957   -9634.4787    -8603.329   -9634.4787            0     8684.084    17.958301    45.219788    19.582407   -0.8449821   -6.5572892   0.18720723    15902.297    8490.9546    9797.6237    7763.6736    662.28798    481.41504   -256.94714    17.958301    45.227682    20.651968    89.140798    108.51265    91.070511 
  480000    278.83998   -9608.5185   -8492.2585   -9608.5185            0    8251.7713    18.230307    45.335257    19.334413  -0.25217764   -6.6601139   0.13876892    15979.422    6292.6061    9015.4124    9447.2955    174.72284    544.40475    827.98506    18.230307    45.335959    20.449839    89.507406    109.00681    90.318705 
  480500    281.46818   -9556.4041   -8429.6228   -9556.4041            0    8366.9745    17.953574     46.20559    19.258771   0.14108279   -6.4642156  0.040132104    15976.218    7589.3812    8312.2459    9199.2964   -920.54378    -222.9454    923.77016    17.953574    46.205806    20.314722     89.94248    108.55431    89.825055 
  481000    271.48152   -9632.1802   -8545.3778   -9632.1802            0    6675.5681    17.848616    46.235637    19.354115  -0.15493433   -6.3293209  0.086928488    15971.831     8238.517    6497.5076    5290.6796    157.58854    291.38567   -81.040743    17.848616    46.235897    20.362947     89.69573    108.10898    90.191996 
  481500    263.93275   -9588.0806   -8531.4977   -9588.0806            0    7435.5147     18.15665    45.683647    19.316822  -0.54854846   -6.3899182   0.20874744     16022.57     6344.217    8733.1364    7229.1907    62.548721    63.603716   -701.74712     18.15665     45.68694     20.34734    89.196168    108.30299    90.687949 
  482000     257.8559   -9592.6022   -8560.3462   -9592.6022            0    6532.3688    18.051787     45.58432    19.507004  -0.32658983   -6.5217943  0.099295937    16051.893    7141.8171    6663.5916    5791.6976     720.4597   -241.02095    171.57748    18.051787     45.58549    20.568589     89.59325    108.48615     90.41049 
  482500    276.71704   -9550.7537   -8442.9923   -9550.7537            0    6851.1828    17.995802    46.117012    19.339452   0.33776898   -6.6161895 0.00041230363    16050.055    5893.2089    7156.9803    7503.3591   -1000.3664    18.128127   -388.49973    17.995802    46.118248    20.439872    90.134676    108.88625    89.580363 
  483000    264.31729   -9603.5032   -8545.3809   -9603.5032            0    8796.1265    17.999304    46.175022    19.136517 -0.098470391   -6.5351508   0.10613041    15904.708     8585.689     9279.453    8523.2375    2.9117023    861.54213    -480.0751    17.999304    46.175127    20.221912    89.659807    108.85485    90.122186 
  483500    280.12901   -9592.5423    -8471.122   -9592.5423            0    7993.1632    17.891256    45.752828    19.471682  -0.84469338    -6.353315   0.21195198    15939.042    9582.4918    7961.6324    6435.3655    755.59676    38.572212   -515.56595    17.891256    45.760625    20.483064    89.079137    108.06972     91.05768 
  484000    283.44752   -9605.5945   -8470.8895   -9605.5945            0    7743.6121    18.027158    45.726836     19.33733  -0.37749016   -6.3165442   0.14246442    15940.243    8247.3181    7428.6704    7554.8477   -275.47675    109.45284    -655.2516    18.027158    45.728394    20.343337    89.451904    108.08918    90.472985 
  484500     287.2732   -9607.0264   -8457.0063   -9607.0264            0    8014.8513    18.045703    45.776427    19.292047    0.3891141   -6.4045157 -0.0027407913    15936.539    8200.8854    8431.5046     7412.164   -1341.3458   -119.62767   -1694.9204    18.045703    45.778081    20.327344    90.161168    108.36498    89.512979 
  485000    274.88117   -9590.8106   -8490.3986   -9590.8106            0    7336.2439    17.912456     45.88853    19.497089  -0.28111347   -6.5347531 -0.098869187    16026.145    6709.1632    8128.6211    7170.9473    1374.0371    1062.3642     1219.048    17.912456    45.889391    20.563299    90.163936    108.52916     90.35099 
  485500    285.89585   -9572.6322   -8428.1259   -9572.6322            0    7134.2467    18.084145    45.953512      19.3036  -0.90182573    -6.647933   0.32364872     16041.87    7758.5764    6591.5766    7052.5872     99.85603   -42.302001   -281.57506    18.084145     45.96236    20.418833    88.725888    109.00063     91.12427 
  486000    270.98551   -9600.1407    -8515.324   -9600.1407            0    5980.5304    18.046565     45.87606    19.404613  -0.46718621   -6.4970034   0.27025826    16065.183    5863.7073    5986.2592    6091.6246   -260.43091   -170.61123    355.43153    18.046565    45.878438    20.465168    89.058136    108.50977    90.583461 
  486500    269.91635   -9610.0673   -8529.5306   -9610.0673            0     8105.257    17.968266    45.786349    19.369328 0.0038493237   -6.3522123 -0.0093582079    15935.171    9026.2391    7191.3891    8098.1428    46.671799   -640.77896   -593.49385    17.968266    45.786349    20.384346    90.027805    108.15701    89.995183 
  487000    279.24908   -9579.7524   -8461.8547   -9579.7524            0    7992.5514    17.990828    45.901312    19.295529   -0.1621265   -6.3562403  0.027767943    15934.298    7958.6398    8083.8673     7935.147    788.74277   -242.40106    247.33032    17.990828    45.901598    20.315512    89.858369    108.23265    90.202372 
  487500    265.36965   -9564.6606   -8502.3255   -9564.6606            0    9588.0535     17.93722    46.001505    19.220117  -0.54051275   -6.5438179   0.32450649     15859.27    8881.1425      9355.72    10527.298   -269.59877    614.68521   -1874.5305     17.93722     46.00468    20.306151    88.867428    108.79953    90.673188 
  488000    273.22163   -9551.6748   -8457.9064   -9551.6748            0    8573.5113    17.921889    45.942583    19.379948  -0.57413564    -6.701072   0.26315635     15957.02    8466.5961    9172.9543    8080.9834    355.95636    448.24943   -141.03395    17.921889     45.94617    20.507462     89.03083     109.0724    90.715977 
  488500    287.92763   -9597.9652   -8445.3252   -9597.9652            0    8642.5039    18.026805    45.768119    19.258145  -0.11869647   -6.4788375  -0.17607317    15888.989    8664.0119    8753.9536    8509.5462    -482.7591   -156.47497    1285.1054    18.026805    45.768273     20.31951    90.449106    108.59328    90.148592 
  489000    274.34076   -9596.5126    -8498.264   -9596.5126            0    8601.4643    17.983463    45.801616    19.250332   0.31113191    -6.238499 -0.0048489391    15855.952    8962.2749    9312.4589    7529.6591    -951.0094   -544.20383    243.80332    17.983463    45.802672    20.235962    90.133716    107.95607    89.610794 
  489500    281.86903   -9567.5773   -8439.1913   -9567.5773            0    8555.1648    17.877537    45.948518    19.356902  -0.56472328   -6.1958273   0.16486926    15900.656    9424.7085    7483.1968    8757.5891    77.924304   -386.95964   -862.61052    17.877537    45.951989    20.324988     89.32061    107.74841     90.70415 
  490000    282.69676   -9558.7219   -8427.0224   -9558.7219            0    8272.0866    18.051441    45.737943    19.323979  -0.82854283   -6.4762375   0.14950898    15954.568     8103.745    8807.3398    7905.1749    1462.9681   -36.895893    685.25944    18.051441    45.745446    20.380878    89.249986    108.52754      91.0378 
  490500    270.06419   -9561.4867   -8480.3582   -9561.4867            0    7919.0656    18.109626    45.593313    19.371731    0.1464808   -6.7772495   0.12188958    15994.809     8551.572    7137.0722    8068.5527   -1559.2041   -387.45375    -1055.697    18.109626    45.593548    20.523399    89.720504    109.28217    89.815923 
  491000    274.92342   -9571.8434   -8471.2623   -9571.8434            0    7221.8529    17.986101     45.93335    19.390162  0.041558009   -6.6426796  -0.15175776    16019.413     6935.943    7502.6954    7226.9204    458.01794    144.68713   -246.86249    17.986101    45.933369     20.49699    90.441016    108.90989    89.948162 
  491500    270.25919    -9570.585   -8488.6759    -9570.585            0    6449.3965    17.957843    46.324695    19.261354  -0.30023187   -6.1431015   0.17737134    16023.358    6884.2153    5098.1609    7365.8132    315.14821   -1220.8917   -841.85006    17.957843    46.325668    20.218034    89.384522    107.68855    90.371331 
  492000    275.78394   -9536.8208   -8432.7949   -9536.8208            0    7792.8425    17.921366    46.041523    19.385993  -0.81323546   -5.9993279   0.27685834    15995.906    9406.6856    7247.8143    6724.0277    526.26219   -678.19429   -450.03569    17.921366    46.048704    20.294958    88.919331    107.19393    91.011915 
  492500     267.4135   -9586.3801    -8515.863   -9586.3801            0    8194.6677      18.0158    45.564661    19.428685  -0.27698912   -6.3621075   0.11052714    15948.693    8250.2127    8423.5288    7910.2615   -319.34335   -127.29204    318.55673      18.0158    45.565503     20.44413    89.581856    108.13125    90.348299 
  493000    276.07788   -9633.4776   -8528.2749   -9633.4776            0    8071.9903     18.07667    45.586769    19.333867 -0.015153511   -6.6286324   0.10630612    15932.208    8996.1641    7587.8524    7631.9545   -965.15614   -593.19224   -657.52092     18.07667    45.586772    20.438896    89.695817    108.92406    90.019046 
  493500     269.9014   -9585.0866   -8504.6098   -9585.0866            0    7523.4669    18.029887    45.900182    19.348339  -0.54567847   -6.5832319  0.020743801    16012.203    6985.0546    8381.7446    7203.6015    1528.8258    505.24028   -53.183221    18.029887    45.903426    20.437651    89.722456    108.79075    90.681121 
  494000    276.66713     -9582.95   -8475.3885     -9582.95            0    8232.8406    17.917899    45.980428    19.349797  -0.35827632   -6.2466459   0.20886612    15941.768    7949.2774    7847.2605    8901.9837   -169.35747    516.00406     -1688.41    17.917899    45.981824    20.334179    89.274331    107.89053    90.446436 
  494500    281.26075   -9562.2447   -8436.2938   -9562.2447            0    9405.7192     18.07386    45.511205    19.279326     0.115268   -6.0435926   0.08440496    15858.463    9514.6722     9018.532    9683.9534   -316.90911    -488.2526     304.3546     18.07386    45.511351    20.204567    89.804053    107.40476    89.854885 
  495000    273.21274    -9576.177   -8482.4441    -9576.177            0    8471.9694    17.968578    45.513122    19.457418  -0.17940021   -6.2210309  -0.20226698    15912.395     9010.474    8335.5632     8069.871    7.9559888   -439.39675   -400.68076    17.968578    45.513475    20.428736    90.498519     107.7295    90.225843 
  495500    264.38698   -9611.1965   -8552.7951   -9611.1965            0    8140.8159    18.003498    45.907814    19.269089  -0.21741255   -6.5971642   0.21737145    15925.925    8974.6159    7740.9192    7706.9128   -149.75733    91.609928    202.42591    18.003498    45.908329    20.368299    89.300641    108.89857    90.271342 
  496000     274.3832   -9546.6657   -8448.2472   -9546.6657            0    9620.3057    17.969205    45.782315    19.355624  -0.34699491   -6.6321762   0.21583592    15923.326    7749.5409    10864.351    10247.025    183.65117    983.52136   -994.35317    17.969205     45.78363    20.461489    89.254866    108.91286     90.43425 
  496500     285.1482   -9584.8378   -8443.3246   -9584.8378            0    8510.3458    18.026779    45.736378    19.334689   -0.4860832   -6.4697533 -0.010704132    15941.056    7009.7367    8659.5486    9861.7522    1427.2851   -591.78507    952.06273    18.026779    45.738961    20.388428    89.836859    108.50122    90.608913 
  497000    276.50761   -9590.2498   -8483.3268   -9590.2498            0    8799.0189    17.967406    45.618022    19.402232   0.20505683   -6.2476236   0.16235136    15902.797    8274.8118    9088.7585    9033.4865   -238.40132    768.70569   -868.44205    17.967406    45.618483    20.383958    89.622598    107.84825    89.742452 
  497500    276.61553   -9618.9122   -8511.5572   -9618.9122            0    8366.5795    17.811388     46.18997    19.309149 -0.070858356   -5.9398456  0.056662333    15885.782    9956.4313    7311.6692     7831.638    229.80898   -1014.8447    768.30709    17.811388    46.190025    20.202184    89.813456    107.09878    90.087895 
  498000    275.65901   -9614.2399    -8510.714   -9614.2399            0    8133.3574    17.926169    46.365966     19.11574  -0.57201331   -6.0681845  0.049220826    15888.318    9235.0331    7459.4443    7705.5948    140.75735    -462.5772    1085.6232    17.926169    46.369495    20.055842    89.645541    107.61169    90.706818 
  498500    277.49604   -9563.1791   -8452.2992   -9563.1791            0    9227.6529    17.924881    45.685824    19.432783  -0.18460476   -6.4268137   0.33409706    15913.758    9447.8843    9093.7029    9141.3714   -217.39815   -126.67932   -1456.2443    17.924881    45.686197    20.470677     88.99216    108.29757    90.231516 
  499000    275.33806   -9601.4675   -8499.2265   -9601.4675            0     7413.247    18.131965    45.589736    19.338748  -0.44328578   -6.6083171  0.014350308    15986.018    7006.3771    7864.8249     7368.539     518.2345   -89.158766    426.49093    18.131965    45.591891    20.436664    89.779633      108.866     90.55709 
  499500    282.80534   -9585.9372    -8453.803   -9585.9372            0    6869.8393    18.052839    46.003113    19.299684  0.040954497   -6.5245162  0.031708318    16028.132    6341.8009    7148.7039     7119.013   -57.103625   -514.73584   -1167.6037    18.052839    46.003132     20.37273     89.92716    108.67849    89.948992 
  500000    273.29256      -9624.2   -8530.1476      -9624.2            0    6015.0827    17.862017    46.357496    19.368362 -0.0034672092   -6.3504633  0.036782952    16037.747    6382.4876    6112.7224     5550.038   -477.04016    430.16204   -766.21793    17.862017    46.357496    20.382914    89.895269    108.15316    90.004285 
Loop time of 5539.84 on 42 procs for 500000 steps with 2016 atoms

Performance: 7.798 ns/day, 3.078 hours/ns, 90.255 timesteps/s
96.2% CPU use with 42 MPI tasks x 1 OpenMP threads

MPI task timing breakdown:
Section |  min time  |  avg time  |  max time  |%varavg| %total
---------------------------------------------------------------
Pair    | 195.73     | 215.99     | 251.19     | 103.4 |  3.90
Bond    | 0.58385    | 0.63943    | 0.76762    |   5.7 |  0.01
Kspace  | 3057.6     | 3098.5     | 3142.3     |  35.3 | 55.93
Neigh   | 47.216     | 48.871     | 49.907     |   8.4 |  0.88
Comm    | 473.68     | 537.2      | 604.66     | 129.6 |  9.70
Output  | 36.02      | 36.102     | 36.441     |   1.5 |  0.65
Modify  | 1354.9     | 1398.9     | 1427.6     |  45.0 | 25.25
Other   |            | 203.6      |            |       |  3.67

Nlocal:        48.0000 ave          56 max          42 min
Histogram: 2 5 5 10 4 6 4 4 0 2
Nghost:        3101.57 ave        3153 max        3021 min
Histogram: 2 1 2 7 4 3 1 8 8 6
Neighs:        15871.5 ave       18446 max       14010 min
Histogram: 2 6 4 11 5 4 4 3 1 2

Total # of neighbors = 666602
Ave neighs/atom = 330.65575
Ave special neighs/atom = 2.0000000
Neighbor list builds = 14375
Dangerous builds = 0


write_restart   restart.equil
System init for write_restart ...
PPPM initialization ...
  extracting TIP4P info from pair style
  using 12-bit tables for long-range coulomb (../kspace.cpp:340)
  G vector (1/distance) = 0.37630136
  grid = 24 48 36
  stencil order = 5
  estimated absolute RMS force accuracy = 0.0028595049
  estimated relative force accuracy = 8.6113142e-06
  using double precision FFTW3
  3d grid and FFT values/proc = 6615 1008
Last active /omp style is kspace_style pppm/tip4p/omp
write_data   	water.equil.data nocoeff
System init for write_data ...
PPPM initialization ...
  extracting TIP4P info from pair style
  using 12-bit tables for long-range coulomb (../kspace.cpp:340)
  G vector (1/distance) = 0.37630136
  grid = 24 48 36
  stencil order = 5
  estimated absolute RMS force accuracy = 0.0028595049
  estimated relative force accuracy = 8.6113142e-06
  using double precision FFTW3
  3d grid and FFT values/proc = 6615 1008
Last active /omp style is kspace_style pppm/tip4p/omp
Total wall time: 1:32:19
