LAMMPS (30 Jul 2021)
Processor partition = 0
  using 2 OpenMP thread(s) per MPI task
using multi-threaded neighbor list subroutines
variable        pid world 0 1
variable        phase world IceII IceV

shell cd ${phase}
shell cd IceII
include Restart.lmp
echo both
log log.lammps
#include		in.partitions
include		in.temp
variable        temperature equal 86.33
variable	tempDamp equal 100.0
include		in.pressure
variable        pressure equal 8108.3
variable        pressureDamp equal 1000.0 # This is 1 ps
include		in.seed
variable        seed equal 745823

units		real
atom_style	full
box tilt large
read_restart	restart.lmp.${pid}
read_restart	restart.lmp.0
Reading restart file ...
  restart file = 30 Jul 2021, LAMMPS = 30 Jul 2021
  restoring atom style full from restart
  triclinic box = (-10.473821 -9.1879760 0.24716235) to (12.453821 12.177974 21.612837) with tilt (-9.1556710 1.8226759 2.7956430)
  2 by 4 by 4 MPI processor grid
  restoring pair style lj/cut/tip4p/long/omp from restart
  restoring bond style harmonic/omp from restart
  restoring angle style harmonic/omp from restart
  1296 atoms
  864 bonds
  432 angles
Finding 1-2 1-3 1-4 neighbors ...
  special bond factors lj:    0        0        0       
  special bond factors coul:  0        0        0       
     2 = max # of 1-2 neighbors
     1 = max # of 1-3 neighbors
     1 = max # of 1-4 neighbors
     2 = max # of special neighbors
  special bonds CPU = 0.002 seconds
  read_restart CPU = 0.008 seconds
include 	in.setup
variable	out_freq equal 1000
variable	out_freq2 equal 10000
variable	out_freq3 equal 1000

timestep	2.0

neigh_modify    delay 7 every 1

include		in.tip4p
# This is TIP4P/Ice

# create groups ###
group ox type 2
432 atoms in group ox
group hy type 1
864 atoms in group hy

# set charges - beside manually ###
set group ox charge -1.1794
Setting atom values ...
  432 settings made for charge
set group hy charge 0.5897
Setting atom values ...
  864 settings made for charge

# ### TIP3P Potential Parameters ###
pair_style lj/cut/tip4p/long/omp 2 1 1 1 0.1577 8.5
pair_coeff 1 1*2 0.000 0.000
pair_coeff 2 2 0.21084 3.1668
bond_style  harmonic
bond_coeff  1 450 0.9572
angle_style harmonic
angle_coeff 1 55 104.52
kspace_style pppm/tip4p/omp 1.0e-5
pair_modify tail yes

thermo          ${out_freq}
thermo          1000
thermo_style    custom step temp pe etotal epair emol press lx ly lz vol pxx pyy pzz pxy pxz pyz enthalpy

restart 	${out_freq3} restart.lmp.${pid} restart2.lmp.${pid}
restart 	1000 restart.lmp.${pid} restart2.lmp.${pid}
restart 	1000 restart.lmp.0 restart2.lmp.${pid}
restart 	1000 restart.lmp.0 restart2.lmp.0


include         in.dump
dump            myDump all atom ${out_freq2} dump.water.${pid}
dump            myDump all atom 10000 dump.water.${pid}
dump            myDump all atom 10000 dump.water.0
dump            myDump2 all dcd ${out_freq2} dump.dcd
dump            myDump2 all dcd 10000 dump.dcd
dump_modify     myDump append yes
dump_modify     myDump2 append yes


variable natoms 	equal  "count(all)"                        # NUMBER ATOMS
variable H      	equal  "enthalpy/v_natoms"                 # ENTHALPY-per-atom
variable Vol      	equal  "vol/v_natoms"                 # volume-per-atom
fix AVG all 		ave/time ${out_freq} 1 ${out_freq} v_Vol v_H file vol_enthalpy.dat
fix AVG all 		ave/time 1000 1 ${out_freq} v_Vol v_H file vol_enthalpy.dat
fix AVG all 		ave/time 1000 1 1000 v_Vol v_H file vol_enthalpy.dat


timer           timeout 10:00:00 every 1000
New timer settings: style=normal  mode=nosync  timeout=10:00:00

fix 		1 all shake 1e-6 200 0 b 1 a 1
Finding SHAKE clusters ...
       0 = # of size 2 clusters
       0 = # of size 3 clusters
       0 = # of size 4 clusters
     432 = # of frozen angles
  find clusters CPU = 0.001 seconds
fix             2 all nph tri ${pressure} ${pressure} ${pressureDamp}
fix             2 all nph tri 8108.3 ${pressure} ${pressureDamp}
fix             2 all nph tri 8108.3 8108.3 ${pressureDamp}
fix             2 all nph tri 8108.3 8108.3 1000
fix             3 all temp/csvr ${temperature} ${temperature} ${tempDamp} ${seed}
fix             3 all temp/csvr 86.33 ${temperature} ${tempDamp} ${seed}
fix             3 all temp/csvr 86.33 86.33 ${tempDamp} ${seed}
fix             3 all temp/csvr 86.33 86.33 100 ${seed}
fix             3 all temp/csvr 86.33 86.33 100 745823


run             250000
PPPM initialization ...
  extracting TIP4P info from pair style
  using 12-bit tables for long-range coulomb (../kspace.cpp:340)
  G vector (1/distance) = 0.36929004
  grid = 30 40 32
  stencil order = 5
  estimated absolute RMS force accuracy = 0.0041460287
  estimated relative force accuracy = 1.2485642e-05
  using double precision FFTW3
  3d grid and FFT values/proc = 7752 1200
Last active /omp style is kspace_style pppm/tip4p/omp
Neighbor list info ...
  update every 1 steps, delay 7 steps, check yes
  max neighbors/atom: 2000, page size: 100000
  master list distance cutoff = 10.8154
  ghost atom cutoff = 10.8154
  binsize = 5.4077, bins = 7 5 4
  1 neighbor lists, perpetual/occasional/extra = 1 0 0
  (1) pair lj/cut/tip4p/long/omp, perpetual
      attributes: half, newton on, omp
      pair build: half/bin/newton/tri/omp
      stencil: half/bin/3d/tri
      bin: standard
Setting up Verlet run ...
  Unit style    : real
  Current step  : 4250000
  Time step     : 2
  Walltime left : 9:59:59.93
Per MPI rank memory allocation (min/avg/max) = 10.66 | 10.66 | 10.66 Mbytes
Step Temp PotEng TotEng E_pair E_mol Press Lx Ly Lz Volume Pxx Pyy Pzz Pxy Pxz Pyz Enthalpy 
 4250000    83.420544   -6765.1604   -6550.5661   -6765.1604            0    8309.9313    22.927642     21.36595    21.365674    10466.421    8756.2349    7239.5934    8933.9657    457.11616    -135.8938    167.99054   -5282.1214 
 4251000    90.531948   -6800.3589    -6567.471   -6800.3589            0    8387.1167    23.176424    21.064173      21.4105    10452.439    8056.9545    8712.8168    8391.5787   -225.12055    -372.5186   -435.46518   -5288.9548 
 4252000    86.066308   -6789.6928   -6568.2924   -6789.6928            0    8150.5564    22.942828    21.310677    21.406329    10466.136    9049.3323    7880.0124    7522.3246    270.08431    578.91477   -1014.7024   -5324.2089 
 4253000    86.646223    -6793.672   -6570.7799    -6793.672            0    7612.0745    23.128019    21.118812    21.433833    10469.062    7462.4737    8497.9507    6875.7992     650.9481   -979.28821   -1072.1518   -5408.5643 
 4254000    83.138137   -6796.1416   -6582.2738   -6796.1416            0    7466.8789    23.056592    21.171011    21.471056    10480.695    7979.2432    7589.8968    6831.4967    -766.3623    176.08152   -328.13749     -5440.96 
 4255000    84.958532   -6790.6942   -6572.1435   -6790.6942            0    7990.6761    22.986807    21.211306      21.4765    10471.516     8023.035    7887.0617    8061.9314   -18.316343    492.76231    627.86176   -5351.8369 
 4256000    88.260339   -6787.3493   -6560.3049   -6787.3493            0    7955.8377    23.131434     21.06616     21.46458    10459.486    7426.5301    9673.3387    6767.6443   -178.95153   -75.523543   -514.44686   -5346.7145 
 4257000    86.596498   -6793.8571   -6571.0929   -6793.8571            0    8900.3592    22.889256    21.248453    21.437472    10426.356    9668.6841    8599.1119    8433.2817   -660.92665     346.7871   -15.651682   -5217.7247 
 4258000    87.420583   -6791.1045   -6566.2204   -6791.1045            0    8070.6718    23.032839    21.157073    21.490147    10472.309    8424.0157    8353.2469    7434.7528   -176.68486   -174.72958   -33.766237   -5333.6038 
 4259000    89.883784   -6786.3813   -6555.1607   -6786.3813            0    7616.7281    23.048449    21.247099    21.408473    10484.001    7018.9481    7481.4327    8349.8034    587.17816   -990.37951    115.62093   -5390.5752 
 4260000     87.48895   -6789.1266   -6564.0666   -6789.1266            0    8068.8911    23.058298    21.187628    21.418462    10464.004     8500.371    7952.9109    7753.3915    35.431929   -292.50051   -512.01792   -5332.6992 
 4261000    88.142271   -6800.0119   -6573.2713   -6800.0119            0    7220.8972    23.151678    21.207818    21.390507    10502.666    7007.9947    6999.7132    7654.9836    119.27612    444.96465   -488.32105    -5467.242 
 4262000    88.043077   -6782.5873   -6556.1018   -6782.5873            0    7474.8094    23.037253    21.250774    21.436477     10494.43    7914.5743    6670.5899     7839.264    532.07137   -840.68767   -116.49629   -5412.0785 
 4263000    88.697216   -6787.6074   -6559.4393   -6787.6074            0     8045.287    23.001358    21.192096    21.480304    10470.509    8405.7273    8119.4559    7610.6776   -1109.6015    240.51655    469.04946   -5330.9108 
 4264000     84.01569   -6796.0598   -6579.9346   -6796.0598            0    7867.9151    23.013934    21.183522    21.484464    10474.023    8259.7923    7567.2928      7776.66   -105.11872    46.957519    519.37565   -5378.0878 
 4265000    87.047803    -6791.936   -6568.0109    -6791.936            0    8302.1609    23.009601    21.186517    21.468559    10465.778    8548.1048    8632.4921    7725.8857    939.35356   -21.427011   -206.39302   -5300.8301 
 4266000     84.43062   -6787.2479   -6570.0552   -6787.2479            0    8151.7223    23.188837    20.997124    21.523621    10479.827    7700.4154    8557.1133    8197.6382   -277.00001    216.66532     48.32961   -5324.1661 
 4267000    87.125301   -6791.2823   -6567.1577   -6791.2823            0    8407.3982    22.932376    21.273006    21.412893    10446.078    9880.9785    6926.8641    8414.3519   -697.31879    356.57252   -320.95862   -5286.3299 
 4268000    82.134056   -6788.9866   -6577.7018   -6788.9866            0    8512.3903    23.071827     21.09692    21.465267      10448.1    8866.2598     8807.782     7863.129    392.59369   -1497.0702    175.41505   -5280.6278 
 4269000    86.090092   -6794.3897   -6572.9282   -6794.3897            0    7995.0955    22.946964    21.297598    21.423496    10469.988    8779.3293     7230.582    7975.3753    339.45157   -598.17276     251.9379   -5352.1248 
 4270000    87.801696   -6801.4482   -6575.5837   -6801.4482            0    8142.1738    22.943466    21.241371    21.486896    10471.653    8525.9231    8855.2015    7045.3967   -693.07597   -378.84018   -111.47423   -5332.1246 
 4271000    81.197847   -6788.6026    -6579.726   -6788.6026            0    8244.9368    23.081776    21.145848     21.42161    10455.539    7750.9797    8372.1775    8611.6531    338.13848    295.79561   -181.31436   -5322.5107 
 4272000    87.321937   -6792.0956   -6567.4653   -6792.0956            0    7742.6841    23.048343    21.249662    21.408508    10485.234    8656.5607    7531.1025     7040.389    251.13031    80.623258   -666.08159    -5383.482 
 4273000    86.002036   -6795.5899   -6574.3549   -6795.5899            0    8490.3246     23.10055    21.131371    21.410669    10451.539    9491.5492    8002.7169    7976.7077   -511.04782    -118.4059   -732.87491   -5280.2174 
 4274000    90.110328    -6772.949   -6541.1457    -6772.949            0    8978.7767    23.004905    21.221479    21.364946    10430.326    9207.9031    8421.3173    9307.1099    317.40117    116.82567   -293.73537   -5175.3336 
 4275000    89.171575   -6779.1069   -6549.7185   -6779.1069            0    9094.2182    23.110887    21.092244    21.401846    10432.554    9302.4668    8641.5386    9338.6491   -419.92263   -774.51512    561.02385   -5166.0505 
 4276000    88.749797   -6788.4572   -6560.1537   -6788.4572            0    8391.7952    22.927898    21.307835    21.429608    10469.303    8713.9285    8076.5963    8384.8607    489.83624   -174.07985    284.59021   -5278.8604 
 4277000    87.902085   -6792.7785   -6566.6557   -6792.7785            0    6809.2352    23.117697    21.186528    21.436638    10499.316    6795.7116    7342.7878    6289.2064   -970.01172    504.63203   -414.03331   -5524.0136 
 4278000    83.858464   -6792.9022   -6577.1814   -6792.9022            0    7926.6454    23.102057    21.134459    21.405182    10451.069    7969.3566    8259.0136     7551.566    943.29334   -638.53773    171.44133    -5369.017 
 4279000    86.133351   -6795.9387   -6574.3659   -6795.9387            0    8155.0219    23.071434     21.23741    21.324928    10448.735    7784.5989    7806.0282    8874.4388   -441.63512    695.41613   -836.86419   -5331.6704 
 4280000    88.123671   -6785.6332   -6558.9405   -6785.6332            0    7716.8789    23.152845    21.177092    21.378989    10482.331    8007.3652    7907.0153    7236.2562    364.14646    362.79509   -694.62933     -5379.23 
 4281000    87.767772   -6781.3825   -6555.6053   -6781.3825            0    8768.0284    22.902623    21.369361    21.330009    10439.214    9503.1804    8109.0152    8691.8897    25.041194   -310.71332   -196.68076   -5220.7148 
 4282000     90.95195   -6799.0417   -6565.0734   -6799.0417            0    7559.8849    23.152567    21.170139    21.373148      10475.9    7507.7213    7410.7036    7761.2296   -685.39182    71.575152    158.83776   -5410.0722 
 4283000    87.340521   -6792.4964   -6567.8182   -6792.4964            0    8229.0617    23.074119    21.214911    21.346266    10449.325    8084.3642    7980.0542    8622.7668    180.98619    355.40574    124.05196   -5313.7694 
 4284000    88.919088   -6800.0917   -6571.3527   -6800.0917            0     7947.278     23.02696    21.208373    21.392286     10447.23    8221.7249    7590.5229    8029.5861    -760.7454    627.06444      618.194   -5360.4885 
 4285000    83.749673   -6792.8051   -6577.3642   -6792.8051            0    7505.9367     23.22681    21.036048    21.431741    10471.555    6770.5076    8553.6684    7193.6342   -37.819254   -13.478299    369.95013   -5431.0809 
 4286000    85.582586   -6793.2373   -6573.0813   -6793.2373            0    8111.0208    22.994134    21.289195    21.341445    10447.205     7775.899    8014.3048    8542.8586   -573.00683     1246.388    -141.0674   -5337.2719 
 4287000    88.668781   -6793.9361   -6565.8411   -6793.9361            0    7913.0148    23.185195    21.160817    21.327036     10463.42    7187.6789    8141.0799    8410.2857    34.376767   -449.90798   -384.20101   -5358.3289 
 4288000    87.889206   -6799.3333   -6573.2437   -6799.3333            0    7449.3972    23.054258    21.344661     21.29055    10476.768    7583.3965    6751.2825    8013.5127   -74.901783   -279.40491    275.31385   -5435.0286 
 4289000    87.670239    -6787.266   -6561.7397    -6787.266            0    9040.8624    23.125662    21.126591    21.322403     10417.41    8155.4337    9539.9184    9427.2351   -84.803635    502.18626    35.173679   -5188.1865 
 4290000    88.266753   -6797.8513   -6570.7904   -6797.8513            0    8342.7742    23.102591    21.139595    21.373457    10438.356     8367.323    8480.1311    8180.8684    661.25055   -293.61349    282.17237   -5300.7472 
 4291000    84.110118    -6793.787   -6577.4188    -6793.787            0    7952.7397    22.982608    21.252457    21.418998    10461.829    7812.8872    7816.5286    8228.8032   -56.314861    889.26688    278.37471   -5364.0293 
 4292000    85.135094    -6791.735   -6572.7301    -6791.735            0    7851.4593    23.128055    21.125753    21.416431    10464.016    8205.8026    8287.7843    7060.7909   -490.84503  -0.57756323   -96.729989   -5374.5429 
 4293000    86.839914    -6787.736   -6564.3457    -6787.736            0    7786.6449     23.01643    21.300487    21.360168    10472.061    7695.7263    7734.8527    7929.3556    264.21904    430.02305    -296.6998    -5375.136 
 4294000    85.435843   -6780.9825    -6561.204   -6780.9825            0    8249.3435    23.199174     21.13395    21.309293    10447.737    8093.5537    7844.3184    8810.1585    -490.5675   -361.99753       319.36   -5304.2555 
 4295000     81.42226   -6799.4984   -6590.0446   -6799.4984            0    7855.4457    23.010835    21.321863    21.306874    10453.874    7324.0428     8236.814    8005.4803    222.36731    273.52682   -1017.1415   -5392.4109 
 4296000    86.192759   -6786.8048   -6565.0792   -6786.8048            0    8133.6123    23.135017    21.193869    21.335296    10461.134    8948.3355    7274.8577    8177.6435   -140.87079   -803.47712    186.08048   -5324.1754 
 4297000    84.024511   -6792.4006   -6576.2526   -6792.4006            0     7778.095     23.13239    21.230521    21.314758    10467.948    7380.0475    7809.8853    8144.3522   -1012.9682    915.56346   -183.49996   -5388.8153 
 4298000    84.087526   -6779.7194   -6563.4094   -6779.7194            0    7325.8276    23.069041    21.269047    21.370749    10485.697    7879.3057     6776.564     7321.613    316.78641    38.013621   -82.894746   -5443.1208 
 4299000     85.60546   -6783.6125   -6563.3976   -6783.6125            0     7517.395    23.136998     21.15598    21.421582    10485.562    7091.5494    8304.9949    7155.6405    166.55393   -676.31053   -187.37709   -5413.8289 
 4300000    87.382446   -6793.3419   -6568.5559   -6793.3419            0     7811.897    22.970617    21.229515    21.455226    10462.749    8427.8167    8126.1728    6881.7015    -65.75114    1028.4078    38.342189   -5376.5506 
 4301000    90.530286   -6793.3469   -6560.4633   -6793.3469            0    7086.2545    23.182081     21.12082    21.412912    10484.288     6533.072    6903.6749    7822.0165     630.8581    378.30222    865.56938   -5476.9567 
 4302000    86.942573   -6803.7049   -6580.0504   -6803.7049            0    7591.8057    23.062503    21.247957    21.373189    10473.527    6754.4904    7529.9802    8490.9464    506.70294    526.94397    543.44394   -5420.4351 
 4303000    85.442879   -6795.3208   -6575.5242   -6795.3208            0    7870.6473    23.115082     21.17209    21.391424    10468.847    7844.4374     7930.056    7837.4486    201.11914   -727.36177   -98.438491   -5373.8542 
 4304000    88.287064    -6791.255   -6564.1419    -6791.255            0    8378.6825    23.040359    21.201998    21.389443    10448.779    9107.2581    7600.8645    8427.9247   -539.76715   -788.59366   -139.03588   -5287.3587 
 4305000    87.725359   -6791.4448   -6565.7767   -6791.4448            0    7914.6572    22.980897    21.326932    21.371549    10474.453     7880.097    8252.9286    7610.9458    542.68109   -83.702164   -442.60678   -5356.7403 
 4306000    89.560762   -6783.5229   -6553.1333   -6783.5229            0    8895.1173     23.09458    21.066747    21.458708    10440.255    9096.8556    9155.0429    8433.4533   -391.47991    366.85135    648.38216   -5198.7591 
 4307000    88.170473   -6789.4611   -6562.6479   -6789.4611            0    8838.6088    22.919782    21.238568    21.396983    10415.695    9372.6543    8664.2822      8478.89    436.84013    545.95025   -217.14025   -5220.0435 
 4308000    83.297836   -6781.3589   -6567.0803   -6781.3589            0    8548.1363    23.191555    21.055681    21.385499    10442.838    7881.2794    9793.5735    7969.5558   -154.24325   -48.961753    82.163048   -5265.2155 
 4309000    87.625068   -6792.7712    -6567.361   -6792.7712            0    8312.8653    22.973206    21.315313    21.357853    10458.536    8991.3906    7781.2312    8165.9741   -142.28838    335.32666   -187.77501   -5299.4244 
 4310000    83.986161   -6799.8779   -6583.8286   -6799.8779            0    7844.0666     23.23071    21.076469    21.365117    10460.817    6542.7281    9141.0543    7848.4175   -309.47029    417.41081     383.8057   -5387.1355 
 4311000    87.015056   -6790.6443   -6566.8034   -6790.6443            0    8330.3954    22.989761    21.279872    21.329303    10434.704    8281.1121    7308.2571     9401.817    629.07456   -261.50497     516.6168   -5299.0883 
 4312000    89.675251   -6792.9058   -6562.2217   -6792.9058            0    8168.2814    23.137876     21.15059    21.356278    10451.329    7678.1406    8830.6195     7996.084    730.20376    293.64209    569.02856   -5317.1965 
 4313000    87.583837   -6781.6282   -6556.3241   -6781.6282            0    8029.9307    23.161784    21.143061    21.393555    10476.659    8907.5158    7580.9439    7601.3325   -735.46647    372.29748   -615.81605   -5329.4203 
 4314000    83.659141    -6785.134    -6569.926    -6785.134            0    8983.6289     22.95688    21.236709      21.3893    10427.895    9906.5018     7807.354     9237.031    237.38126    -524.3771    364.22117   -5203.6944 
 4315000    83.129997   -6798.4321   -6584.5852   -6798.4321            0    8319.7805    23.182121       21.072    21.391829    10449.773    7393.7916    9141.3993    8424.1506    512.19959   -229.80135   -258.27869   -5316.6572 
 4316000    87.958944   -6785.3262   -6559.0571   -6785.3262            0    7956.4674    22.959989    21.344724    21.355416    10465.747    8329.9588    7020.5619    8518.8815       104.12    -273.5472    233.90474   -5344.6441 
 4317000    82.054093   -6790.8474   -6579.7682   -6790.8474            0     8435.328    23.140581    21.102459     21.35926    10430.221    8559.0154    9160.2587      7586.71   -780.38698   -774.43903   -262.25363   -5296.6361 
 4318000    84.307547   -6795.2093   -6578.3333   -6795.2093            0    8080.4453    23.013038     21.27739    21.341636     10450.09    7916.8489    8235.5851     8088.902   -79.718108    155.69538   -29.960038   -5346.8424 
 4319000    85.434528   -6808.0676   -6588.2925   -6808.0676            0    6895.9812    23.166614    21.169889    21.387069     10488.96    6280.4266    7128.7274    7278.7896    779.29685    180.45137   -26.349405   -5533.4093 
 4320000    84.166036   -6791.0949   -6574.5829   -6791.0949            0    7847.1817    23.162553     21.11551     21.43035    10481.351     7500.357    8318.0247    7723.1634    740.95605    123.75137    265.19064   -5375.0647 
 4321000    89.393555   -6798.2936   -6568.3341   -6798.2936            0    7466.0686    23.022481    21.260013    21.413748    10481.136    7798.3826    7154.0014    7445.8219    282.72121    292.26463    121.98798   -5427.0962 
 4322000    91.865094   -6786.5168   -6550.1995   -6786.5168            0    8299.3043    23.208306    21.107051    21.364307    10465.496    8265.5363    8261.2913    8371.0855   -7.6490416   -1114.1356   -103.64153   -5283.4889 
 4323000    88.985597   -6806.8797   -6577.9697   -6806.8797            0    8151.6389    22.973908    21.321551    21.350001    10458.071    8666.7606     7628.482     8159.674    182.11007   -131.24097    370.85838   -5334.6798 
 4324000    86.930196   -6791.4804   -6567.8578   -6791.4804            0    8614.4919    23.086458    21.157161    21.372569    10439.301    8306.1025    8633.5643     8903.809   -12.081123    303.62912    17.111783   -5256.3316 
 4325000    87.456057   -6795.7734    -6570.798   -6795.7734            0    7789.2225    23.090651     21.21359    21.366584    10466.114    7379.9787    7184.6858    8803.0031    291.04286    215.62985    855.75033   -5381.8703 
 4326000    85.464257   -6790.4931   -6570.6415   -6790.4931            0    7619.3137    23.090936    21.229943    21.344328      10463.4     7913.888    7130.4448    7813.6084    6.6978798    417.28536    770.08516   -5407.9498 
 4327000    84.383768   -6792.9963   -6575.9242   -6792.9963            0    8388.0148    23.129268    21.127866    21.394556    10454.922    7772.7634    8589.0675    8802.2136    -98.66013   -27.187483    161.14128   -5296.9674 
 4328000    89.893954   -6786.8722   -6555.6255   -6786.8722            0    7962.8311    22.982276     21.29008    21.369832    10456.141    8362.6552    8130.0392    7395.7988   -216.40311     470.7919    248.98974   -5341.3567 
 4329000    85.488929   -6793.1077   -6573.1926   -6793.1077            0     9167.755    23.130829    21.077056    21.381055    10423.901    9271.5413    8896.4714    9335.2524   -491.12828   -259.78878     72.15151    -5179.493 
 4330000    87.586058   -6780.2817   -6554.9719   -6780.2817            0    8638.6995    22.946457    21.255666    21.409057    10442.101    8618.9419    8946.4265    8350.7301    36.182331    749.79903   -524.84189   -5239.4074 
 4331000     83.10459   -6793.2263   -6579.4448   -6793.2263            0    7688.5843    23.124494    21.090516    21.515755    10493.395     8444.587    7486.2449    7134.9209    639.54349   -755.76811     -298.635   -5402.8192 
 4332000    87.074889    -6801.867   -6577.8722    -6801.867            0    8048.3659    23.041917      21.2057    21.436255    10474.183    7452.7859    9169.8586    7522.4532     467.0664    186.35302   -98.160563   -5348.4423 
 4333000    85.524749   -6792.0899   -6572.0827   -6792.0899            0    7885.8284    22.955856    21.266007    21.437848    10465.515    8896.7489    7641.2485    7119.4877    431.05593   -725.44631   -237.58639   -5368.4782 
 4334000     91.57281   -6786.9998   -6551.4344   -6786.9998            0    8318.4085    23.116821    21.071338    21.467998    10457.112    8847.2784    7518.4381     8589.509   -788.28833   -252.93203    857.84726   -5282.8251 
 4335000    85.693114   -6794.2441   -6573.8037   -6794.2441            0    7973.2573    22.976391    21.279076    21.414159    10469.733    7563.7821    8551.2534    7804.7365    716.94703    719.25365    287.92602   -5356.3646 
 4336000    85.068212   -6799.1209   -6580.2881   -6799.1209            0     6785.211    23.172585     21.07482    21.523912    10511.376    6254.1876    7568.6804    6532.7652    798.23335    218.68358     348.1794   -5540.1312 
 4337000    84.395535   -6796.4926   -6579.3902   -6796.4926            0    8171.4915    23.001553    21.192727    21.470397    10466.081    8791.4398    8033.9838    7689.0508   -118.98597    94.907261   -165.74178   -5332.1179 
 4338000    89.157011   -6794.3348   -6564.9838   -6794.3348            0    8575.0544    23.019265    21.186632    21.423055    10448.039    9228.3569     8109.843    8386.9634    483.01172   -438.86207    596.47573   -5258.3691 
 4339000    85.907304   -6806.7476   -6585.7563   -6806.7476            0    8363.9632    23.136825    21.083826     21.40916    10443.662    8497.9871    8198.5562    8395.3462   -588.31067    500.67364   -172.57754   -5311.8402 
 4340000    88.213655   -6802.6951   -6575.7708   -6802.6951            0    8010.7332    23.004967    21.247295    21.404986    10462.614    8309.1296    7671.0328    8052.0372    482.30218    513.76179   -20.293438   -5353.4411 
 4341000    85.870686   -6803.8707   -6582.9736   -6803.8707            0    7148.0015     23.11235    21.144035    21.456904    10485.739    7219.3982    7101.7894     7122.817   -317.01828   -735.46794    315.48222   -5489.8744 
 4342000    85.913646   -6788.3083   -6567.3007   -6788.3083            0     8504.087    22.959834    21.247334    21.431224    10454.906    9790.2757    7349.8112    8372.1741   -480.99487   -594.45971    715.33478   -5270.6478 
 4343000    84.354385   -6787.8105    -6570.814   -6787.8105            0    8224.7443    23.100424    21.109254     21.44835    10458.917    7274.4575     8874.147    8525.6284   -190.48178   -120.14545    253.62577   -5316.2726 
 4344000    88.631795   -6793.9846   -6565.9847   -6793.9846            0    8521.8258    23.034052    21.197879    21.398517    10448.319    9106.3539    7530.4258    8928.6977    479.93445   -45.040119    362.17061   -5267.4458 
 4345000    84.901225   -6803.1185   -6584.7152   -6803.1185            0    8041.1006    23.086924    21.169074     21.40173    10459.642    7522.8684    7891.6446    8708.7888    353.24405    392.02117   -559.83414   -5358.1004 
 4346000    87.645256    -6789.064   -6563.6019    -6789.064            0    7631.6764    23.121778    21.179916    21.419501      10489.5    7374.7433    7868.0902    7652.1955   -252.84581    442.61765     210.5036   -5396.1188 
 4347000    86.428716   -6796.9317   -6574.5991   -6796.9317            0    7388.4471    23.041515    21.281227     21.37744    10482.464    7320.2228    7176.9464     7668.172    421.30723    156.21313    153.00756    -5445.083 
 4348000    83.716432   -6798.5376   -6583.1822   -6798.5376            0    7838.4434    23.057484    21.137705    21.463121    10460.745    7695.0057     8336.492    7483.8326   -11.165549    229.75734    251.49536   -5387.3552 
 4349000     88.33744   -6794.5605   -6567.3178   -6794.5605            0    7932.7521    23.041142    21.213936    21.406067    10463.142    7845.5261    8104.2542     7848.476   -41.331732    384.32588    381.32585   -5356.8259 
 4350000    84.541956   -6792.6775   -6575.1984   -6792.6775            0    8294.7491    23.122175    21.136901    21.393861    10455.846    7828.5682    8749.6061    8306.0729    1584.6354   -763.09767   -172.18422   -5310.3505 
 4351000    83.375486   -6798.5474   -6584.0691   -6798.5474            0    7717.9496    23.060092    21.234022    21.392656    10475.096    8399.5327    7095.1396    7659.1765    -731.1026    104.06096    71.396705   -5405.0093 
 4352000    86.345249    -6792.365   -6570.2471    -6792.365            0    8391.1521    23.025404    21.249851    21.344663    10443.653    8267.7184    8831.8416    8073.8963    88.526537   -39.803477   -483.00201   -5292.1909 
 4353000    85.569006   -6781.8826   -6561.7615   -6781.8826            0    7682.3195    23.141463    21.204094    21.384121    10493.054    7811.9415     7689.181    7545.8359   -576.46621   -634.61572   -31.385621   -5386.1328 
 4354000    84.971611   -6786.5344   -6567.9501   -6786.5344            0    8271.3888    22.985123    21.279019    21.383495    10458.686    8850.2452     7310.233    8653.6882    136.08185    180.84881   -423.61354   -5306.3217 
 4355000    89.021205   -6789.7762   -6560.7746   -6789.7762            0    8675.7952    23.152098    21.043658    21.421836    10436.822    8285.2243    9014.4785    8727.6828    339.01429     207.8214   -100.93186   -5240.2288 
 4356000    84.620918   -6793.0487   -6575.3665   -6793.0487            0    8265.8889    23.013376    21.248195      21.3891    10459.114    8679.7586    8641.5553    7476.3528    297.81178   -68.980324   -286.81274   -5314.5255 
 4357000    88.051256   -6799.0386   -6572.5321   -6799.0386            0    8364.9803    23.070923    21.138731    21.452089     10461.97    8689.5885    9153.3807    7251.9716   -759.25026   -381.86394    -303.3633   -5296.2277 
 4358000    85.439191     -6793.61   -6573.8229     -6793.61            0     8023.809    23.026667    21.222473    21.400588    10458.099    7544.2852    8596.0899    7931.0519    176.14699    114.11726    781.30469   -5350.0263 
 4359000    85.668556   -6794.1232    -6573.746   -6794.1232            0    8568.8411    22.999891    21.229536    21.378696    10438.726    9153.5617    8109.3599    8443.6016   -819.38922    411.58921   -477.01033   -5269.2418 
 4360000    85.589518   -6793.3317   -6573.1579   -6793.3317            0    8439.2528    23.100568    21.055882    21.486972    10451.324    8065.2583    8813.7866    8438.7134   -191.22184   -54.570382    145.09252   -5286.8315 
 4361000    88.947368   -6798.8037    -6569.992   -6798.8037            0    7806.2898    23.049806    21.190519    21.427901    10466.188    7888.3344    7350.3403    8180.1945    585.01073    439.07498    307.44514   -5378.4508 
 4362000    86.524627   -6791.8012   -6569.2218   -6791.8012            0    8103.4539    23.146853    21.112496    21.424583    10469.933    7599.6941    9257.4833    7453.1843    426.85789    919.06155    305.58983   -5331.8792 
 4363000    88.445859   -6794.8888   -6567.3672   -6794.8888            0    8267.3511     23.09251    21.211304    21.347143    10456.305    8167.9418    7201.1566     9432.955   -125.85742   -282.38349     674.2535   -5306.6417 
 4364000    89.168238   -6794.4233   -6565.0434   -6794.4233            0    7755.2094     23.04549    21.282135    21.344626    10468.626     7548.867    7797.4326    7919.3288  -0.56759107    26.271564   -186.62759   -5381.0232 
 4365000    90.187432   -6794.9901   -6562.9885   -6794.9901            0    7997.5488    23.144573     21.16446    21.337336    10451.932    8274.5508    7671.4569    8046.6386   -453.16994   -702.75953    254.01619   -5343.9165 
 4366000    86.192968   -6802.8733   -6581.1471   -6802.8733            0    8516.4994    23.028543    21.289536    21.297233     10441.33    8239.4994    8393.8051    8916.1937    543.15373    281.80054   -745.33268   -5284.2879 
 4367000     83.18028   -6810.2716   -6596.2954   -6810.2716            0    7297.2312    23.085267    21.160315    21.466477    10486.192     7349.498    7457.9127    7084.2829   -205.14003    609.73684   -32.814133   -5480.3273 
 4368000    84.579065   -6798.1751   -6580.6006   -6798.1751            0     7392.775    22.999884    21.176378    21.508469    10475.791    7711.8793    7886.3102    6580.1355    479.11915    37.285024    -549.8401   -5451.1423 
 4369000    85.800742    -6792.252   -6571.5348    -6792.252            0    8677.2622    23.015084    21.139072    21.492444     10456.45    8907.7126    8998.4549    8125.6189    -945.0289    525.33571    13.202386   -5248.2818 
 4370000    85.997069   -6792.9769   -6571.7547   -6792.9769            0     8659.558    23.067705    21.156778     21.40352    10445.738     8658.141    9028.4512    8292.0818   -4.9539584   -565.58613    145.92233   -5252.5544 
 4371000     84.84621   -6788.6806   -6570.4189   -6788.6806            0    9123.3319    22.936581    21.236683    21.401097    10424.408    10250.014    8398.1211    8721.8606   -354.24139   -589.72539   -657.09618   -5183.4052 
 4372000    91.175531   -6796.0602   -6561.5167   -6796.0602            0    7442.1385    23.205683    21.104181    21.443919    10501.879    7122.7772    7543.1524    7660.4858   -1042.7513    841.97797    458.40904   -5421.6852 
 4373000    84.250792   -6798.4062   -6581.6761   -6798.4062            0    6459.1564    23.103837    21.238277    21.445812    10523.153     5661.892    6957.0489    6758.5284    340.71845    361.47224    -29.53612   -5590.3934 
 4374000    87.284696   -6792.8776    -6568.343   -6792.8776            0    7385.9644    23.084304    21.178147    21.435212    10479.306    7362.8929    7904.1055    6890.8949    410.49325    528.54226    670.10616   -5439.5466 
 4375000    88.981638   -6786.6359    -6557.736   -6786.6359            0    8381.6166    23.038765    21.156292      21.4241    10442.425    8497.0064    8721.8708    7925.9727   -589.52974   -561.24882   -376.34087   -5281.2824 
 4376000    88.303785   -6801.2531    -6574.097   -6801.2531            0    7992.5487    22.970095    21.250098    21.448994    10469.613    7981.1318    8209.5022    7787.0121   -242.09827    193.98317    238.36121   -5353.7261 
 4377000    85.324373   -6794.5322   -6575.0404   -6794.5322            0     7333.763    23.102665    21.165407    21.426784    10477.211    7377.6002    7186.3059     7437.383   -1302.9128     340.7564    832.46725    -5454.446 
 4378000    86.292888   -6793.4912    -6571.508   -6793.4912            0    7934.5923    23.021565    21.193528    21.445871    10463.616    7562.2928    8103.1498    8138.3343    1447.1608    180.43338    -45.00341   -5360.6805 
 4379000     85.39619   -6775.7959   -6556.1194   -6775.7959            0    8117.8778     23.10261     21.13918    21.439245    10470.289    8566.0547    7353.6033    8433.9752   -162.60446    248.80354    -147.8112   -5316.5323 
 4380000    84.225793   -6800.6616   -6583.9959   -6800.6616            0    8793.5858    23.045929    21.179429    21.368353    10429.885     8509.004    9219.3815    8652.3718    636.48645   -750.69605   -1178.4842   -5246.4108 
 4381000    83.336454   -6792.9214   -6578.5434   -6792.9214            0    8720.1657    23.011494    21.273701    21.304517    10429.406    9077.3093    8082.3249    9000.8628    168.46263   -670.43761   -431.37112   -5252.1872 
 4382000    88.286292   -6784.4142   -6557.3031   -6784.4142            0    9230.1024    23.070007    21.194839    21.345753    10437.328     9019.568    8986.5273    9684.2119   -483.43429   -308.51338    356.82723   -5152.3179 
 4383000    86.841355   -6792.9867   -6569.5926   -6792.9867            0     7994.066    23.080348    21.185609     21.44245    10484.741    7972.2237    7943.6289    8066.3455    508.56216    388.24475    120.97423   -5347.2265 
 4384000    83.494304   -6802.5263   -6587.7423   -6802.5263            0    6983.6996    23.091327    21.151697    21.518077    10509.875    7164.1174     6945.488    6841.4935    255.50803    382.96796    1312.8986   -5517.3104 
 4385000     84.94447   -6798.3222   -6579.8078   -6798.3222            0    7785.7806    23.074874    21.150932    21.432085    10460.039    7367.5218    7821.6196    8168.2005    277.25778    99.750666    91.222213   -5392.0952 
 4386000    87.241486   -6782.1646   -6557.7412   -6782.1646            0    8549.5973    23.034993    21.187265    21.391396    10440.039    8381.5961    8868.2019     8398.994    33.575267    830.62153   -440.51238    -5256.003 
 4387000     88.65971   -6801.1801   -6573.1084   -6801.1801            0    8077.2506    23.090031    21.121203    21.455322     10463.53    7421.2957    9330.1584    7480.2977    248.72651    320.05423   -625.38058   -5340.5212 
 4388000    84.169776   -6795.2728   -6578.7512   -6795.2728            0    8473.3763     23.02803    21.188075    21.421411    10451.927    9131.3092     8528.303    7760.5166    496.86807   -577.41234    -799.9569   -5287.1491 
 4389000    85.046209   -6794.0537   -6575.2775   -6794.0537            0    8229.4268    23.067967    21.150418    21.440625    10460.819    8505.2834    8654.9796    7528.0172   -380.76364   -131.90655   -177.71731   -5319.7935 
 4390000    85.234816   -6794.8447   -6575.5833   -6794.8447            0    7506.7743    22.980789    21.262613    21.473373    10492.569     6966.708    7831.1788    7722.4359    297.22896    341.38279    200.95013   -5426.8715 
 4391000    84.290395    -6794.783   -6577.9511    -6794.783            0    7824.2542    23.042111    21.120176    21.534285    10479.734    8858.3614    7451.4701    7162.9312    274.56476    -360.4189    538.02126   -5382.1221 
 4392000    86.765894   -6791.5738   -6568.3738   -6791.5738            0    8245.4475    22.976373    21.151541    21.502439    10449.878    8443.3585    8688.4147    7604.5692   -146.15496    750.05545   -207.23874   -5311.7614 
 4393000    84.787563   -6783.5395   -6565.4287   -6783.5395            0    8478.0677    23.017217    21.130265    21.467212    10440.791    8832.9576    8854.8642    7746.3813    55.084837   -7.2213514   -110.01397   -5274.4884 
 4394000    90.309909   -6805.9763   -6573.6596   -6805.9763            0       7884.2    23.078096    21.189754    21.403541    10466.742      8009.44    8072.4581     7570.702   -1055.4116     149.8585   -247.83008   -5370.1625 
 4395000    89.035487   -6791.8153   -6562.7769   -6791.8153            0    7712.6257    23.021863    21.274217    21.410567    10486.298    7585.8186    7556.8499    7995.2084    415.88865    674.98169     82.25224   -5383.2704 
 4396000     85.21767   -6793.6782   -6574.4609   -6793.6782            0    8326.1672    23.139291    21.140398    21.384031    10460.508     7927.061    8854.1372    8197.3033    140.32281   -658.52338   -692.41349    -5304.256 
 4397000    85.028991   -6795.7728   -6577.0409   -6795.7728            0    8475.1791    23.009501    21.204034      21.4022     10442.01    8585.3972    8892.6256    7947.5144   -390.25639     712.2845    236.00289   -5286.3897 
 4398000    82.430362   -6794.4084   -6582.3613   -6794.4084            0    7591.1863    23.149389    21.118363     21.41028    10466.998    8021.8353    7253.6946     7498.029    350.57513   -344.90822    705.38576   -5423.5635 
 4399000    84.089728   -6777.3885   -6561.0728   -6777.3885            0    7761.5426    23.049481    21.195165    21.447737    10478.025    7134.4427     8702.904    7447.2813    892.65897     695.7002   -195.45166   -5375.0217 
 4400000      83.9935   -6790.4426   -6574.3744   -6790.4426            0     8174.217     23.09162     21.15739    21.421178    10465.497     8443.815     8389.527    7689.3091   -67.624428    238.97179   -314.31201   -5326.7557 
 4401000    90.087539   -6795.1405   -6563.3958   -6795.1405            0    8005.0019     23.04637    21.282407    21.361754     10477.56    8243.5204    7901.6026    7869.8826   -444.76177   -593.19769    851.80101   -5340.1958 
 4402000    85.653022   -6800.1008   -6579.7637   -6800.1008            0    8282.7861    23.046256    21.243309    21.334566     10444.95    8701.8233    7481.3009    8665.2341   -578.44881   -261.28468    245.51181   -5318.0561 
 4403000    89.401718   -6783.6195    -6553.639   -6783.6195            0    9006.7704    23.122757    21.108593    21.326251    10409.106    8429.8846     9246.502    9343.9248   -122.77606    400.92942    86.718093    -5186.356 
 4404000    86.799767   -6791.3874   -6568.1002   -6791.3874            0    8428.1805    23.052496    21.214505    21.368036     10449.98    8241.1587    7954.7332    9088.6497    558.37377    300.73552   -14.166754   -5283.6266 
 4405000    82.478067   -6792.4246   -6580.2548   -6792.4246            0    8304.3857    23.134996    21.103057    21.446149     10470.42    8254.3361    8689.3207    7969.5002    741.59509    21.238061    94.939919   -5312.1723 
 4406000     82.02021   -6801.0913   -6590.0993   -6801.0913            0    7447.7609    23.044729    21.233609    21.411589    10477.178    7392.3625     7372.713    7578.2073    823.13837   -217.23456    998.32027   -5452.0896 
 4407000    86.007269   -6792.7006   -6571.4521   -6792.7006            0     9115.991    23.062902    21.151436    21.372851    10425.965    8829.5337     8763.605    9754.8343    84.639622    302.48253    249.17499   -5185.3473 
 4408000    87.853819   -6800.4911   -6574.4925   -6800.4911            0    8840.1925    23.094506    21.144523     21.34957    10425.471    8262.1498    9335.3682    8923.0595    719.36502   -455.67624    -359.3963   -5230.3872 
 4409000    87.141385   -6793.6074   -6569.4415   -6793.6074            0    8066.1657    23.066927    21.302905    21.279325    10456.502    8361.5473     7035.096    8801.8536    396.47814    751.60162    209.63872   -5339.3726 
 4410000    84.653904   -6790.0953   -6572.3283   -6790.0953            0    7685.0206    23.181977    21.154578     21.33452    10462.554    6851.1996    7744.8897    8458.9724    639.48772   -174.20775    787.97281   -5399.7046 
 4411000    83.471267   -6793.6025   -6578.8777   -6793.6025            0    8586.0994    22.992456    21.234097    21.377961    10437.234    9064.5983    8597.3291    8096.3708    598.98839   -1085.0532     -417.771   -5271.9329 
 4412000    85.625361   -6788.5882   -6568.3221   -6788.5882            0    8492.2908    23.100584    21.115188    21.418242    10447.244    8562.4182    9181.7913    7732.6628   -570.72128   -498.05478     218.8917   -5274.4169 
 4413000     84.85915   -6790.2097   -6571.9147   -6790.2097            0    8389.7893    23.034412    21.195086    21.407014    10451.254    8963.9843    8129.8909    8075.4928   -315.23601    408.97659   -105.30238   -5293.1361 
 4414000    87.785293   -6805.5853   -6579.7629   -6805.5853            0    7856.1412    23.088664    21.149778     21.44657    10472.792     7322.277    8424.8737    7821.2729     956.3989   -405.23767    124.89626   -5379.8558 
 4415000    84.744283   -6790.1894   -6572.1899   -6790.1894            0    7662.2919    23.083908    21.168884    21.442335    10478.024    7830.2925    7363.2771     7793.306   -4.8587876    35.407954   -168.04778   -5401.3057 
 4416000    90.045071   -6792.6048   -6560.9694   -6792.6048            0    8190.0964    23.054405    21.220523    21.369516    10454.534     7546.988    8965.8036    8057.4975   -808.75358    907.82841   -225.68305   -5312.2364 
 4417000    85.376425   -6788.3354   -6568.7098   -6788.3354            0     8813.156    23.102822    21.179175    21.308373    10426.159    9126.6713    8027.5995    9285.1971    277.85755   -1108.6112    129.00057   -5228.6268 
 4418000    85.722577   -6781.7813   -6561.2652   -6781.7813            0      7879.06    23.036692    21.239818    21.409594    10475.611    8262.0478    7869.6671    7505.4651   -235.50312    81.756772   -309.34259   -5357.5337 
 4419000    88.139232   -6778.7178    -6551.985   -6778.7178            0    8411.9622    23.105901     21.16718    21.407358    10470.056    8462.7678    8620.1531    8152.9658     252.6988    192.41625    -489.6946   -5267.5203 
 4420000    85.459408   -6794.6176   -6574.7785   -6794.6176            0    7447.4222    23.133299    21.171888    21.377087    10469.976     7420.806    7184.7595    7736.7012    332.52806   -629.94609    332.50735   -5437.6029 
 4421000    83.786432   -6786.9363   -6571.4008   -6786.9363            0    7628.4178    23.081571    21.189611    21.415257    10473.977     7686.663    7679.2869    7519.3034   -22.982399    290.78387   -189.01728   -5406.1431 
 4422000    84.582446   -6789.6128   -6572.0296   -6789.6128            0    7739.1135    23.132183    21.180472    21.386768    10478.459    7439.0211    7629.3958    8148.9237   -3.9599652    619.48475    319.66804    -5389.357 
 4423000    84.418771    -6791.791   -6574.6288    -6791.791            0    7841.1702    23.100793    21.236008    21.337106    10467.315    7643.1322    7854.2903    8026.0882    548.33886   -687.77906   -253.50536   -5377.6346 
 4424000    83.716423   -6792.6253   -6577.2699   -6792.6253            0    8445.7497    23.091235    21.180102    21.340015    10436.862    7787.2119    9125.5603    8424.4769    104.19029   -214.49718   -50.414546   -5291.7346 
 4425000    85.784596   -6786.6455   -6565.9699   -6786.6455            0    8024.0832    23.115808     21.15371     21.36826     10448.76    8290.1478     7154.467     8627.635   -586.37016    375.17058    133.15035   -5343.2244 
 4426000    84.728574   -6798.7518   -6580.7928   -6798.7518            0    6787.0596    23.135121     21.19573    21.399407    10493.537    6470.0374    7089.1448    6801.9965    673.73325    900.80337    116.57872   -5542.1183 
 4427000    88.748841   -6782.6177   -6554.3168   -6782.6177            0    8187.5966    23.158466    21.131331    21.367758    10456.723    7376.4788    9065.9893    8120.3217    197.93177    339.91219   -336.05563   -5305.7035 
 4428000    87.085216   -6783.8666   -6559.8452   -6783.8666            0    9324.2143    22.938776    21.288497    21.320189    10411.332    9697.2968     8660.337    9615.0091    417.20757    282.78947     598.9799   -5144.0696 
 4429000    83.339295   -6787.0603    -6572.675   -6787.0603            0    7742.8181    23.113564    21.126851     21.43669    10467.896    7813.6363    7594.0654    7820.7527   -750.15874   -31.542166    259.35635   -5390.6291 
 4430000    88.667221   -6797.5385   -6569.4475   -6797.5385            0    7657.3067    23.047447    21.205061    21.450648    10483.415    7784.5841    8085.6892    7101.6467    116.60606    258.06588   -728.35114   -5398.7231 
 4431000    86.297485   -6795.1798   -6573.1848   -6795.1798            0    8077.9154    23.009465    21.196439    21.470111    10471.375    8398.7475    8387.5619    7447.4368    255.56003    80.200684   -464.78688   -5339.5718 
 4432000    87.837171   -6789.7429   -6563.7871   -6789.7429            0    8222.8062    23.130559    21.088377    21.436906    10456.622    8393.3698    8360.0251    7915.0238    134.52891   -457.60832   -190.25096   -5309.8166 
 4433000    87.578404   -6802.5391    -6577.249   -6802.5391            0    8118.3619    23.003896     21.22547    21.388181    10443.175    8223.4027    8421.6252    7710.0579   -67.183869    313.71176   -551.25373   -5340.7981 
 4434000    84.551609   -6793.4095   -6575.9057   -6793.4095            0    7827.2761    23.127147     21.13758    21.386979    10455.065    7433.5091    7704.1231    8344.1962   -134.46584    61.433229    1251.6603   -5382.4307 
 4435000    86.715453   -6784.4534   -6561.3832   -6784.4534            0    8470.9312    23.025078    21.290352    21.315131    10448.933    7678.2302      8646.22    9088.3433     301.1359   -37.276968    512.55501   -5270.5236 
 4436000    87.506076   -6786.4169   -6561.3128   -6786.4169            0    8620.8373    23.141547    21.164495    21.332792    10448.357    8425.4918    8011.8169    9425.2033   -584.63825    83.969612    286.99644    -5247.682 
 4437000    83.723051   -6793.0297   -6577.6572   -6793.0297            0     8783.339    23.061174     21.23413    21.280132     10420.54    8351.6004    9153.2169    8845.1997    309.60641    399.53942   -1106.8442   -5242.8278 
 4438000    86.340237   -6781.5335   -6559.4285   -6781.5335            0    8612.4744    23.108823    21.219176    21.308037      10448.4    8241.1252    8832.8761    8763.4221    678.18178    -343.7781   -685.76478   -5247.0666 
 4439000    82.982471   -6799.2504    -6585.783   -6799.2504            0    8126.7493    23.142662    21.165019    21.357488    10461.215    7203.1262    9268.9979    7908.1238   -355.60598    134.89466   -293.11138   -5345.9166 
 4440000    89.562881   -6782.0332   -6551.6381   -6782.0332            0    8221.8635    23.078994    21.274719    21.339271    10477.563    8116.9242    7924.9147    8623.7517   -127.81744    317.39118    590.46969   -5295.3003 
 4441000    88.363542   -6789.4906   -6562.1807   -6789.4906            0    7582.9015    23.191144    21.142688     21.37211     10479.24    6581.0159     8226.193    7941.4955    231.23023    109.12874    124.58216   -5403.2938 
 4442000    84.950429   -6782.7125   -6564.1827   -6782.7125            0    8384.7244    23.056842     21.22959    21.336093    10443.746    9037.5643    7340.8928    8775.7162   -394.03455     402.9366    98.382875   -5287.0942 
 4443000    87.913773   -6800.6212   -6574.4684   -6800.6212            0    7804.5316     23.18033    21.116605     21.36153    10456.252    8349.7052    6963.0388    8100.8508    139.03193   -512.57729    756.37594   -5384.3264 
 4444000    87.045484    -6795.418   -6571.4988    -6795.418            0    7350.9268    23.068403    21.294905    21.330592    10478.428     6983.197    7636.4261    7433.1573    614.74182   -332.82426   -235.88681   -5448.1513 
 4445000     87.62358   -6786.7581   -6561.3518   -6786.7581            0    8367.0086    23.085679    21.176836    21.356013    10440.562    7690.5856    8776.1599    8634.2802   -648.32066    536.83035    210.38241   -5287.3501 
 4446000    84.593367   -6790.4236   -6572.8124   -6790.4236            0     8922.598     23.09473    21.187617    21.314317    10429.571     8661.761    9362.2343    8743.7987   -337.74356    323.39057   -190.17113   -5215.6443 
 4447000    83.914573   -6784.8679   -6569.0027   -6784.8679            0    8529.6811     23.07887    21.190151    21.357015    10444.536    8433.7163    8292.2417    8863.0852    851.83251   -500.31727   -552.48704   -5269.7375 
 4448000     87.95075   -6793.6696   -6567.4216   -6793.6696            0     8078.878    23.137166    21.137597    21.399839    10465.893    7876.5456    8445.7431    7914.3452    106.86807   -29.418844   -316.93715   -5334.3077 
 4449000    89.318534   -6796.6928   -6566.9263   -6796.6928            0    7285.3956    23.026492    21.214725    21.462957    10484.669     8007.074    6470.2014    7378.9115   -405.41647    413.31793    753.33271     -5452.93 
 4450000    82.996526   -6791.0399   -6577.5364   -6791.0399            0    7866.8715    23.059639    21.170528    21.452727    10472.894    7802.2548    7392.3263    8406.0332    342.23924    147.95479    599.03368   -5375.9786 
 4451000    89.029791   -6798.7466   -6569.7229   -6798.7466            0    7879.2622    23.003672    21.245734     21.43546     10476.15    7666.3229    8333.5114    7637.9524    131.26676   -655.57426    356.80995   -5365.8984 
 4452000    89.187112   -6800.8171   -6571.3887   -6800.8171            0    7859.8739    23.063753    21.161811     21.44173    10465.082    7889.8164    8443.1484    7246.6568   -133.03639   -105.41749    122.07043   -5371.7952 
 4453000    82.675994   -6799.2941   -6586.6151   -6799.2941            0    8570.6113    23.093328    21.137761    21.384772    10438.789    8746.4918    8547.7661    8417.5761    -145.0206   -528.23377    39.145797   -5281.8336 
 4454000    87.315955   -6799.2188   -6574.6038   -6799.2188            0    8236.3248    23.090837    21.137285    21.413721    10451.557    8236.8881    8747.3915    7724.6949   -83.654048    -20.03298   -104.73889     -5319.18 
 4455000    86.518918   -6798.6455   -6576.0809   -6798.6455            0    8033.7566    23.000683     21.32305    21.313936    10453.307    8561.0573    6969.1274    8571.0851   -391.27251   -50.455612    409.15841   -5351.3286 
 4456000    82.496539   -6793.9646   -6581.7473   -6793.9646            0    8260.2985    23.163942    21.161453    21.310093    10445.838    8494.7232    7919.2472     8366.925   -962.68228    7.5983141   -465.55177   -5323.3583 
 4457000    84.083869   -6798.3239   -6582.0233   -6798.3239            0    7890.1384    22.995604    21.349774    21.314747    10464.495    8058.9039    6798.1813      8813.33    76.762208    435.99987    620.85393   -5377.8783 
 4458000    84.260315   -6782.4664   -6565.7119   -6782.4664            0    8736.5046    23.181319    21.087711     21.35348    10438.455    8017.2974    9047.5693     9144.647   -15.572773   -62.507694    157.60408   -5235.7174 
 4459000    86.247739   -6785.4722   -6563.6051   -6785.4722            0    8413.8319     23.12969    21.148608    21.366209    10451.511    7865.5498    8636.3026    8739.6433    672.58224   -376.36777    679.80301   -5281.1305 
 4460000    84.227735   -6790.2023   -6573.5316   -6790.2023            0    7929.0346    23.031407    21.308339    21.308151     10457.21    7674.5693    7653.8171    8458.7173   -141.89406    688.35037    590.03868   -5364.2929 
 4461000    86.467354   -6784.6701   -6562.2381   -6784.6701            0    8299.3213    23.210493    21.074022    21.329575    10433.115    8034.9658    8050.0436    8812.9545    -723.7877     169.7576    20.616299   -5299.4443 
 4462000    85.158931   -6798.4795   -6579.4133   -6798.4795            0    7345.9113    22.990182    21.350008    21.357848    10483.298    7153.4625    7409.2692    7475.0021    255.48006    25.455735   -93.937267   -5456.3105 
 4463000    84.714685   -6790.0156   -6572.0922   -6790.0156            0    8569.4689    23.147907    21.124112    21.387909    10458.238    7991.8658    9022.0727    8694.4682   -211.28441   -174.28919  -0.59372858   -5265.0539 
 4464000    84.677031   -6786.1194   -6568.2929   -6786.1194            0    8710.2261    22.951383    21.296485    21.365621    10443.169    9024.0016    8114.1636     8992.513   -450.22535    661.16922   -302.38974   -5241.7002 
 4465000    82.763002   -6800.2891   -6587.3863   -6800.2891            0    7605.5394    23.051241    21.200834    21.435902    10475.844    8578.5795     7704.459    6533.5797   -602.94861   -484.18366   -476.73831   -5425.4163 
 4466000    84.435534   -6789.6449   -6572.4397   -6789.6449            0    8297.0531    23.088576    21.127556    21.430552    10453.934    8344.9355    9019.2452    7526.9786    64.701055   -531.08356   -411.50464   -5307.4717 
 4467000    86.486402   -6796.7468   -6574.2658   -6796.7468            0    7874.3083    22.974571     21.24286    21.441157    10464.262    8698.0432    7206.7321    7718.1496   -276.37318    601.43683    1105.5753   -5372.5635 
 4468000    89.127019    -6791.419   -6562.1452    -6791.419            0    8364.8978    23.184224    21.072114    21.393558    10451.622    7665.8191    9132.6952     8296.179   -111.77133   -50.715311    230.57233   -5287.1157 
 4469000     84.46014   -6790.1041   -6572.8356   -6790.1041            0     8418.206    22.966892    21.303943    21.368605    10455.345    8972.6812     8103.235    8178.7017   -74.443848   -326.79709   -593.62546   -5289.2234 
 4470000    83.764162   -6805.2881   -6589.8099   -6805.2881            0    6994.1722    23.231447    21.145856    21.380271    10503.034     6289.539    7693.2594    6999.7182   -65.910255   -81.523454   -407.60689   -5518.4708 
 4471000    85.567202   -6797.8067   -6577.6903   -6797.8067            0    7725.4309    23.040836    21.257579    21.384095    10473.767    7909.8915    7415.9981     7850.403   -274.60056   -141.26497   -614.07464   -5397.6373 
 4472000    83.604035   -6796.5245   -6581.4582   -6796.5245            0    8187.1417    23.061648    21.170682    21.427261    10461.449    8857.9136    7741.8768    7961.6348    354.04969    279.30923   -190.83765     -5332.35 
 4473000    84.733238   -6801.0302   -6583.0591   -6801.0302            0    7383.7303    23.067874    21.142424    21.497911    10484.763    7256.6499    8042.6307    6851.9102    137.30308    148.20044    158.42437   -5454.0165 
 4474000     88.39878    -6784.381   -6556.9805    -6784.381            0    8735.0281     22.93339    21.174602    21.519934    10450.196    10027.545    7948.8532    8228.6864     525.6306   -170.18741    430.52121   -5225.7151 
 4475000    84.683484   -6794.1538   -6576.3107   -6794.1538            0    8159.7625    23.096916    20.999235    21.584164    10468.699    8491.6297    9107.1789    6880.4788   -1264.6284    14.887381   -129.13911    -5330.517 
 4476000    85.386043   -6793.5087   -6573.8583   -6793.5087            0    7843.4759    22.964135    21.320455    21.377904    10466.747    8395.2908    7565.2338    7569.9032   -346.34848   -310.41903   -402.79142   -5376.5771 
 4477000    89.515631   -6781.4979   -6551.2244   -6781.4979            0    8394.3816    23.147494    21.097841    21.402637    10452.238    8438.7742     7666.718    9077.6526     32.69821    -292.8111   -185.62663   -5271.6255 
 4478000    89.865954   -6789.2803   -6558.1056   -6789.2803            0    7818.7137    23.047187    21.249057    21.403018    10481.721    7214.7867    8220.0958    8021.2587    502.68718    328.48716   -233.98763   -5362.8968 
 4479000    87.598406    -6792.647   -6567.3054    -6792.647            0    7969.3747    23.040093     21.22001    21.411038    10468.092    8267.3943    8147.4771    7493.2526   -228.26381    -146.4536   -160.89778   -5350.6498 
 4480000    89.478124   -6792.2643   -6562.0873   -6792.2643            0    7912.8589    23.047488    21.184472    21.471451    10483.412     8105.643    8199.7607     7433.173    293.27544   -830.34747   -312.25916   -5352.2918 
 4481000    88.618303   -6786.4083   -6558.4431   -6786.4083            0    8128.1315    23.000411    21.210308    21.463479    10470.868    8522.1711    7905.7141    7956.5092    -630.6653    538.18119    163.60831   -5317.2216 
 4482000    86.868173   -6787.7909   -6564.3279   -6787.7909            0    9050.7305    23.108792    21.071679    21.418447    10429.521    9543.1669    9091.6008    8517.4237   -929.42783 -0.030015294    173.26264   -5187.6768 
 4483000    83.255358   -6792.1449   -6577.9756   -6792.1449            0    7637.2308    23.049089    21.213564    21.408167    10467.594    7408.0318    7594.0538    7909.6067    88.899809   -47.536165   -515.34152   -5412.0826 
 4484000    85.733565   -6790.9309   -6570.3866   -6790.9309            0    8052.8802    23.062203    21.220995    21.388502    10467.595    7971.1327    7821.1526    8366.3551   -1438.7457   -613.75969   -612.02129   -5341.0408 
 4485000    86.457366   -6793.4332   -6571.0269   -6793.4332            0    8455.9067    23.011844    21.234486    21.396147    10455.113    9150.3623    8310.5318    7906.8261   -287.27935   -582.11021   -658.60366   -5281.6947 
 4486000    85.277837   -6794.4305   -6575.0585   -6794.4305            0    8363.7345    23.041931     21.20587    21.428476    10470.471    7799.0752     8255.476    9036.6523   -713.76107    828.68282    103.58906   -5297.9072 
 4487000    82.293101   -6791.9604   -6580.2664   -6791.9604            0    7718.5322    23.101017    21.104834    21.487114    10475.895    7429.6467    8697.6922    7028.2578    593.22428   -8.2911437   -613.38733   -5401.0276 
 4488000     85.79104   -6779.1878   -6558.4956   -6779.1878            0     8235.463    22.978662    21.186449    21.504898    10469.364    8267.6672    8237.0023    8201.7195    183.55195    846.32775    282.22456   -5301.0644 
 4489000    82.014059   -6787.3648   -6576.3887   -6787.3648            0    7158.9682    23.093585    21.133449    21.490903    10488.573    7211.3455    7117.1735    7148.3856   -559.20251   -423.92552     923.0316   -5481.3166 
 4490000    87.308002   -6786.6552   -6562.0607   -6786.6552            0    8683.5989    23.003986    21.256442    21.345985    10437.821    8987.0216    7794.9072    9268.8679     334.5775    9.3929348    244.20793   -5240.2005 
 4491000    85.818166   -6796.2917   -6575.5297   -6796.2917            0    8792.5817    23.090108    21.178699    21.358164    10444.537    8477.0147    8796.0534    9104.6769   -59.644015   -232.60767    214.15347   -5236.2185 
 4492000    85.449403   -6796.9898   -6577.1764   -6796.9898            0    8373.2478    23.142849    21.175955    21.339175    10457.731    8493.7536    8611.2147     8014.775    133.20817   -202.69143    12.673228   -5300.1282 
 4493000    87.278261   -6792.5104   -6567.9924   -6792.5104            0    8032.1148    23.014396    21.263403    21.385325    10465.216    8394.3408     7849.782    7852.2216    435.76524   -36.607137    481.35853   -5342.0953 
 4494000    88.048189    -6800.196   -6573.6974    -6800.196            0      7069.76    23.156517    21.117301    21.425785    10477.276    6767.4823    7470.1868    6971.6109  -0.70625739   -135.60384     405.7154   -5493.4358 
 4495000    91.246041   -6791.7636   -6557.0387   -6791.7636            0    7560.4626    22.968974    21.323274     21.39568    10479.042    8163.9125    7350.2529    7167.2225    278.92459    572.79253    185.13281   -5401.6029 
 4496000    86.565201   -6801.2947    -6578.611   -6801.2947            0    7663.4982     23.11433    21.128434    21.447915     10474.51    7582.1051    8084.4554     7323.934    176.77468   -381.04966    861.81408   -5407.9352 
 4497000    84.025507    -6787.344   -6571.1935    -6787.344            0    8283.5208    22.972488     21.24678     21.41972    10454.781    9073.3387     8407.704    7369.5195    113.09259   -119.18834   -475.88741   -5308.1865 
 4498000    84.318523   -6783.7842     -6566.88   -6783.7842            0    7880.2688    23.103064    21.198538    21.377823    10469.814    8499.9409    7252.3129    7888.5526   -791.55059    49.434494   -326.36857   -5363.6299 
 4499000     85.19802   -6791.5516   -6572.3848   -6791.5516            0    8782.2938    23.115263    21.161848    21.340015    10438.718    8404.2529    9393.6545     8548.974     -91.8265   -67.094641   -954.72191   -5235.3861 
 4500000    91.762955   -6790.5685   -6554.5139   -6790.5685            0    7996.0833    23.073327    21.237659    21.364828    10469.267    8380.4579    6624.6729     8983.119    627.54359   -456.92069    798.18836   -5333.6438 
Loop time of 670.714 on 64 procs for 250000 steps with 1296 atoms

Performance: 64.409 ns/day, 0.373 hours/ns, 372.737 timesteps/s
193.3% CPU use with 32 MPI tasks x 2 OpenMP threads

MPI task timing breakdown:
Section |  min time  |  avg time  |  max time  |%varavg| %total
---------------------------------------------------------------
Pair    | 38.07      | 49.221     | 59.714     |  83.5 |  7.34
Bond    | 0.75362    | 1.0393     | 1.5894     |  17.5 |  0.15
Kspace  | 348.35     | 361.8      | 374.34     |  35.4 | 53.94
Neigh   | 0.87493    | 0.95115    | 1.031      |   3.9 |  0.14
Comm    | 95.48      | 101.15     | 108.21     |  31.8 | 15.08
Output  | 0.84911    | 0.84944    | 0.85144    |   0.0 |  0.13
Modify  | 124.1      | 128.24     | 131.56     |  16.3 | 19.12
Other   |            | 27.47      |            |       |  4.10

Nlocal:        40.5000 ave          50 max          29 min
Histogram: 1 2 2 4 6 4 4 2 4 3
Nghost:        3175.75 ave        3206 max        3148 min
Histogram: 5 0 3 2 5 6 4 5 1 1
Neighs:        13344.3 ave       16486 max        9606 min
Histogram: 1 2 2 5 5 5 3 2 4 3

Total # of neighbors = 427019
Ave neighs/atom = 329.48997
Ave special neighs/atom = 2.0000000
Neighbor list builds = 1758
Dangerous builds = 0

unfix		3
unfix		2
unfix		1

write_data	data.final.${pid}
write_data	data.final.0
System init for write_data ...
PPPM initialization ...
  extracting TIP4P info from pair style
  using 12-bit tables for long-range coulomb (../kspace.cpp:340)
  G vector (1/distance) = 0.36954871
  grid = 30 40 32
  stencil order = 5
  estimated absolute RMS force accuracy = 0.0040886141
  estimated relative force accuracy = 1.231274e-05
  using double precision FFTW3
  3d grid and FFT values/proc = 7752 1200
Last active /omp style is kspace_style pppm/tip4p/omp
WARNING: Not all mixed pair coeffs generated from mixing. Use write_data with 'pair ij' option to store all pair coeffs. (../write_data.cpp:312)

write_restart   restart.lmp.${pid}
write_restart   restart.lmp.0
System init for write_restart ...
PPPM initialization ...
  extracting TIP4P info from pair style
  using 12-bit tables for long-range coulomb (../kspace.cpp:340)
  G vector (1/distance) = 0.36954871
  grid = 30 40 32
  stencil order = 5
  estimated absolute RMS force accuracy = 0.0040886141
  estimated relative force accuracy = 1.231274e-05
  using double precision FFTW3
  3d grid and FFT values/proc = 7752 1200
Last active /omp style is kspace_style pppm/tip4p/omp
Total wall time: 0:11:10
