LAMMPS (30 Jul 2021)
  using 1 OpenMP thread(s) per MPI task
package omp 0
using multi-threaded neighbor list subroutines
echo both

include		in.partitions
variable        pid world 0
include		in.temp
variable        temperature equal 248.83
variable	tempDamp equal 100.0
include		in.pressure
variable        pressure equal 4625.0
variable        pressureDamp equal 1000.0 # This is 1 ps
include		in.seed
variable        seed world 745823

units		real
atom_style	full
box tilt large
read_restart	restart.lmp.${pid}
read_restart	restart.lmp.0
Reading restart file ...
  restart file = 30 Jul 2021, LAMMPS = 30 Jul 2021
  restoring atom style full from restart
  triclinic box = (-10.761615 -9.3454280 0.11016338) to (12.741615 12.335426 21.749836) with tilt (-9.2341038 2.2663456 2.9380219)
  4 by 4 by 4 MPI processor grid
  restoring pair style lj/cut/tip4p/long/omp from restart
  restoring bond style harmonic/omp from restart
  restoring angle style harmonic/omp from restart
  1296 atoms
  864 bonds
  432 angles
Finding 1-2 1-3 1-4 neighbors ...
  special bond factors lj:    0        0        0       
  special bond factors coul:  0        0        0       
     2 = max # of 1-2 neighbors
     1 = max # of 1-3 neighbors
     1 = max # of 1-4 neighbors
     2 = max # of special neighbors
  special bonds CPU = 0.219 seconds
  read_restart CPU = 0.445 seconds
include 	in.setup
variable	out_freq equal 1000
variable	out_freq2 equal 10000
variable	out_freq3 equal 1000

timestep	2.0

neigh_modify    delay 7 every 1

include		in.tip4p
# This is TIP4P/Ice

# create groups ###
group ox type 2
432 atoms in group ox
group hy type 1
864 atoms in group hy

# set charges - beside manually ###
set group ox charge -1.1794
Setting atom values ...
  432 settings made for charge
set group hy charge 0.5897
Setting atom values ...
  864 settings made for charge

# ### TIP3P Potential Parameters ###
pair_style lj/cut/tip4p/long/omp 2 1 1 1 0.1577 8.5
pair_coeff 1 1*2 0.000 0.000
pair_coeff 2 2 0.21084 3.1668
bond_style  harmonic
bond_coeff  1 450 0.9572
angle_style harmonic
angle_coeff 1 55 104.52
kspace_style pppm/tip4p/omp 1.0e-5
pair_modify tail yes

thermo          ${out_freq}
thermo          1000
thermo_style    custom step temp pe etotal epair emol press lx ly lz vol pxx pyy pzz pxy pxz pyz enthalpy

restart 	${out_freq3} restart.lmp.${pid} restart2.lmp.${pid}
restart 	1000 restart.lmp.${pid} restart2.lmp.${pid}
restart 	1000 restart.lmp.0 restart2.lmp.${pid}
restart 	1000 restart.lmp.0 restart2.lmp.0


include         in.dump
dump            myDump all atom ${out_freq2} dump.water.${pid}
dump            myDump all atom 10000 dump.water.${pid}
dump            myDump all atom 10000 dump.water.0
dump            myDump2 all dcd ${out_freq2} dump.dcd
dump            myDump2 all dcd 10000 dump.dcd
dump_modify     myDump append yes
dump_modify     myDump2 append yes


variable natoms 	equal  "count(all)"                        # NUMBER ATOMS
variable H      	equal  "enthalpy/v_natoms"                 # ENTHALPY-per-atom
variable Vol      	equal  "vol/v_natoms"                 # volume-per-atom
fix AVG all 		ave/time ${out_freq} 1 ${out_freq} v_Vol v_H file vol_enthalpy.dat
fix AVG all 		ave/time 1000 1 ${out_freq} v_Vol v_H file vol_enthalpy.dat
fix AVG all 		ave/time 1000 1 1000 v_Vol v_H file vol_enthalpy.dat


timer           timeout 10:00:00 every 1000
New timer settings: style=normal  mode=nosync  timeout=10:00:00

fix 		1 all shake 1e-6 200 0 b 1 a 1
       0 = # of size 2 clusters
       0 = # of size 3 clusters
       0 = # of size 4 clusters
     432 = # of frozen angles
  find clusters CPU = 0.002 seconds
fix             2 all nph tri ${pressure} ${pressure} ${pressureDamp}
fix             2 all nph tri 4625 ${pressure} ${pressureDamp}
fix             2 all nph tri 4625 4625 ${pressureDamp}
fix             2 all nph tri 4625 4625 1000
fix             3 all temp/csvr ${temperature} ${temperature} ${tempDamp} ${seed}
fix             3 all temp/csvr 248.83 ${temperature} ${tempDamp} ${seed}
fix             3 all temp/csvr 248.83 248.83 ${tempDamp} ${seed}
fix             3 all temp/csvr 248.83 248.83 100 ${seed}
fix             3 all temp/csvr 248.83 248.83 100 745823


run             250000
PPPM initialization ...
  extracting TIP4P info from pair style
  using 12-bit tables for long-range coulomb (../kspace.cpp:340)
  G vector (1/distance) = 0.37751306
  grid = 30 40 36
  stencil order = 5
  estimated absolute RMS force accuracy = 0.0025921351
  estimated relative force accuracy = 7.8061378e-06
  using double precision FFTW3
  3d grid and FFT values/proc = 5472 750
Last active /omp style is kspace_style pppm/tip4p/omp
Neighbor list info ...
  update every 1 steps, delay 7 steps, check yes
  max neighbors/atom: 2000, page size: 100000
  master list distance cutoff = 10.8154
  ghost atom cutoff = 10.8154
  binsize = 5.4077, bins = 7 5 5
  1 neighbor lists, perpetual/occasional/extra = 1 0 0
  (1) pair lj/cut/tip4p/long/omp, perpetual
      attributes: half, newton on, omp
      pair build: half/bin/newton/tri/omp
      stencil: half/bin/3d/tri
      bin: standard
Per MPI rank memory allocation (min/avg/max) = 9.446 | 9.459 | 9.466 Mbytes
Step Temp PotEng TotEng E_pair E_mol Press Lx Ly Lz Volume Pxx Pyy Pzz Pxy Pxz Pyz Enthalpy 
14750000     255.1272   -6299.4727   -5643.1736   -6299.4727            0    3681.2563    23.503231    21.680854    21.639672     11026.93    2231.4221    3355.7708    5456.5761   -178.32232   -924.80653    194.86031   -5051.1669 
14751000    247.10327   -6322.6193   -5686.9612   -6322.6193            0    4994.5896    23.348865    21.447654      21.8339    10933.945    5151.2033    4716.7795     5115.786   -1021.9724   -421.58155   -230.41986   -4890.5221 
14752000    252.43322   -6329.0191   -5679.6501   -6329.0191            0    5220.9274    23.347053    21.458195    21.836212    10939.628    4605.0774     6287.474    4770.2307    1231.1536   -140.25123    423.65136   -4846.6863 
14753000    248.36822   -6320.8282   -5681.9161   -6320.8282            0    6122.3894    23.356009     21.50399    21.693076     10895.29    6201.5536    4895.6322    7269.9825   -409.48466    930.83782    945.59266    -4709.089 
14754000    243.26464   -6346.5403   -5720.7569   -6346.5403            0     3055.386    23.356843    21.541866    21.867783    11002.774    3875.8322    3338.9193    1951.4064     1285.156   -193.61233    515.49341   -5230.4769 
14755000    240.31418   -6312.4286    -5694.235   -6312.4286            0    2973.2334    23.504003    21.610935    21.747733     11046.62    2361.5912     3606.959    2951.1499   -741.09848    840.45065   -1329.9505   -5215.2364 
14756000    256.57211   -6329.8563   -5669.8401   -6329.8563            0    4469.8797    23.390053    21.561556    21.760329    10974.298    4857.3751    3456.6059    5095.6581      715.722   -896.19673   -782.46706   -4954.4409 
14757000    243.70193    -6327.967   -5701.0586    -6327.967            0    5362.7663    23.474561    21.391883    21.751583    10922.885    4918.9739    6698.6843    4470.6405   -367.45493   -980.15114     16.57505   -4846.7749 
14758000    254.91034   -6327.7811   -5672.0398   -6327.7811            0     5769.768    23.275068     21.51126    21.789306    10909.383    4946.1722    6694.4159    5668.7159    420.00247   -17.210545   -379.79211   -4754.0572 
14759000    268.82081   -6332.4692   -5640.9441   -6332.4692            0    4365.0772    23.375623    21.556925    21.780908    10975.543    4432.4898    4066.9216    4595.8202   -703.42754   -432.40146   -882.35779   -4942.2391 
14760000    251.48799   -6318.0789   -5671.1414   -6318.0789            0    4096.8528    23.430891    21.565152    21.691981    10960.757    5274.6933    3415.5631    3600.3019   -297.85697   -1103.6897   -975.91016   -5016.2538 
14761000    255.26134   -6341.6976   -5685.0534   -6341.6976            0    3666.0169    23.455636    21.508515    21.722061     10958.69    3622.0963    3383.9917    3991.9628    26.506697   -216.17673     876.6036    -5099.146 
14762000    250.49853   -6282.8044   -5638.4122   -6282.8044            0     4085.218    23.294127    21.484813    21.954514    10987.575    4855.3623    5158.5485    2241.7432    443.98102     -1022.01    1212.3907   -4983.7867 
14763000    251.94832   -6312.0452   -5663.9235   -6312.0452            0    4500.1899    23.440903    21.571428    21.654294    10949.575     3710.414    3889.1875     5900.968    951.49082   -249.41828    316.23118   -4945.2957 
14764000    243.14802   -6345.4415    -5719.958   -6345.4415            0    4548.6419    23.439287    21.462432    21.743746    10938.499    4250.1075    4929.1448    4466.6736     1228.991   -838.95485    227.97295   -4994.3278 
14765000    265.06189   -6364.5238   -5682.6682   -6364.5238            0    4856.2314    23.284534    21.642996    21.742407    10957.022    5736.3813    3992.3283    4839.9845    6.6631879   -1044.8136   -50.694518   -4906.6573 
14766000    251.71723   -6339.6096   -5692.0824   -6339.6096            0      3501.33    23.588705    21.208922     21.99218    11002.489    2943.1022    4066.0491    3494.8388    670.20366   -234.59585    902.89037   -5130.2589 
14767000    249.33914   -6320.5218    -5679.112   -6320.5218            0    6304.7509    23.176339    21.656894    21.647409     10865.43    6978.5011     4606.932    7328.8196    195.62483   -546.14739    1528.6185    -4680.054 
14768000    247.70702   -6355.2069   -5717.9957   -6355.2069            0    3153.4825    23.557359    21.433455    21.778214    10996.159    2294.6902    4175.1146    2990.6427    659.20159    -183.1101    346.56431   -5212.2789 
14769000    256.19885    -6353.242    -5694.186    -6353.242            0    4573.5134    23.360941     21.43898    21.915666    10976.127    4549.2662    4974.4923    4196.7817    239.25003   -886.01255   -366.32205   -4962.0784 
14770000    242.78262   -6327.3912   -5702.8477   -6327.3912            0    4670.1434    23.213178    21.693172     21.71327    10934.096    5857.1244    3938.7999    4214.5058   -506.10371    348.62318   -207.62562   -4958.1346 
14771000    240.17273   -6337.4453   -5719.6155   -6337.4453            0    4261.8723    23.683641    21.330261    21.663274    10943.815    2751.4201    5294.5855    4739.6112    474.04487   -813.41926   -117.86144   -5039.4024 
14772000    246.84837   -6313.0045   -5678.0021   -6313.0045            0     5125.976    23.312648    21.580065    21.739089    10936.685    5202.0137    5772.9595    4402.9548   -471.72163   -232.76273   -1163.3807   -4860.4072 
14773000    252.63511   -6349.1045    -5699.216   -6349.1045            0    4299.1801    23.410271    21.384882     21.86651    10946.941    3470.9774    4968.1969     4458.366   -133.23283     630.9762   -777.74553   -5012.8523 
14774000    262.96082    -6292.898   -5616.4473    -6292.898            0    3799.6834     23.53568    21.620559    21.638608    11010.904    1717.8244    4428.2364    5252.9895   -381.83657    1569.7675    341.45454   -5006.2837 
14775000    257.02056   -6310.7674   -5649.5976   -6310.7674            0    3978.9428    23.469326    21.633808    21.634195    10984.349    3258.9878    3227.2585     5450.582    307.78066    150.84034   -772.34784    -5012.189 
14776000    258.48726   -6320.9482   -5656.0055   -6320.9482            0    4870.4614    23.475875    21.251351     21.97671     10964.05    4915.2901     6313.157    3382.9371    69.909805    621.24181    733.29022   -4877.2215 
14777000    241.69396   -6289.4726   -5667.7297   -6289.4726            0    5802.5883    23.155056    21.611012    21.782659    10900.134    6723.6299    5539.7327    5144.4024    558.95538    116.76075    672.73467    -4745.308 
14778000    238.67843   -6323.7027    -5709.717   -6323.7027            0    5120.7816    23.578016     21.40505    21.637205    10920.051    3515.5875     5022.098    6824.6593    235.58696   -412.45054   -379.29029   -4894.1929 
14779000    247.06761   -6342.7849   -5707.2186   -6342.7849            0    4123.6494    23.354719    21.492922    21.829003    10957.311    4387.7437    4129.5821    3853.6224   -667.88058    -327.3245   -330.50578   -5048.2547 
14780000     271.1321   -6344.1532   -5646.6824   -6344.1532            0    3368.4074    23.217714    21.557581      22.0649    11043.874    4929.8273    2518.9086    2656.4863    1219.1889    107.65414    1467.0979   -5104.1546 
14781000    252.24524   -6298.1675    -5649.282   -6298.1675            0    2202.6499    23.549037    21.602697    21.726269    11052.646    1443.9417    2406.6491     2757.359   -415.11121   -272.09452    572.14893   -5294.2335 
14782000    255.23088   -6331.6536   -5675.0877   -6331.6536            0    3894.4705    23.550607    21.553742    21.650705    10989.978    2887.7746    4309.9061    4485.7307   -558.22222    1741.7987     562.1525   -5050.8915 
14783000    256.39779   -6342.9659   -5683.3982   -6342.9659            0    4388.4654    23.205259    21.537387    21.865907    10928.157    5290.3641    4023.3579    3851.6743   -188.76583    502.93635    -328.0802   -4983.9823 
14784000    254.75493   -6363.3167   -5707.9752   -6363.3167            0    3920.6557    23.268156    21.391312    22.070297     10985.19    4102.8717     4435.299    3223.7962   -171.25749   -759.22991   -326.58536   -5079.8559 
14785000    243.24107   -6338.7095   -5712.9867   -6338.7095            0    5207.6348    23.360432     21.57164    21.641076    10905.432    4796.0505    5299.3763    5527.4776    886.34554   -1058.4444   -80.296362   -4884.7408 
14786000    245.27503   -6332.9849   -5702.0299   -6332.9849            0    5578.9665    23.384004    21.466309    21.624938    10855.033    5803.2946    5227.4976    5706.1072   -220.66915   -290.45321    66.038417   -4818.8264 
14787000      253.209   -6325.6577    -5674.293   -6325.6577            0    3929.9078    23.383021    21.311941    21.991211    10959.047    4118.9454    4416.3069    3254.4712      227.384    104.84051    156.00036   -5046.1897 
14788000    249.01857   -6320.6597   -5680.0746   -6320.6597            0    5691.1761    23.329903    21.551037    21.680605    10900.653     5371.027    5992.3187    5710.1827    1020.0754    355.94186      878.855   -4775.3208 
14789000    242.54281   -6307.7347   -5683.8081   -6307.7347            0    4534.5616    23.294896    21.563989    21.813145    10957.416    4267.6761     5061.288    4274.7206   -493.59802   -27.706758   -599.72557   -4959.1731 
14790000    251.38218   -6345.8523   -5699.1869   -6345.8523            0    4604.1163    23.461135    21.294876    21.916161    10949.357    3668.2676    5197.1632    4946.9182   -706.40225   -73.056142   -573.95603   -4963.9779 
14791000    255.39614   -6360.6138   -5703.6228   -6360.6138            0    3380.6246    23.350354    21.614812    21.785532    10995.452    3138.2165    4430.8083    2572.8491   -854.49989    652.78901   -762.55981   -5161.5147 
14792000    249.64761   -6338.6618   -5696.4585   -6338.6618            0     3472.474    23.427547    21.593164    21.717606    10986.391    3452.9686    2333.1641    4631.2894   -224.52405    595.40339    1337.0128   -5140.0805 
14793000    260.54101   -6339.4381   -5669.2122   -6339.4381            0    5030.7875    23.391347    21.311706    21.896534    10915.631     6032.433    5331.7369    3728.1926    -724.6403   -1128.9359    -521.9055   -4868.3447 
14794000    252.16797   -6315.9536   -5667.2669   -6315.9536            0    6819.0669    22.996174    21.606112     21.83141    10847.109    7967.5002    6136.5453    6353.1553   -374.15196   -550.89385    481.42141   -4588.5317 
14795000    235.28635    -6359.573   -5754.3132    -6359.573            0    4912.4449    23.592713    21.416408     21.65872    10943.527    3594.0415    6072.9908    5070.3023   -682.42771    328.32693   -966.08033   -4970.2864 
14796000    241.49333   -6296.0888   -5674.8619   -6296.0888            0    5818.8186    23.237411    21.597463    21.783882    10932.658    6833.0799    5229.8214    5393.5546     -738.633    1124.1223     -616.139   -4747.1001 
14797000    243.62907    -6334.889   -5708.1681    -6334.889            0    4788.7012    23.295366    21.419673    21.898241    10926.765    6100.5728    5117.5995    3147.9315   -860.45094   -138.52807   -861.60107   -4945.0614 
14798000    249.94423     -6309.62   -5666.6536     -6309.62            0    5909.0748    23.593949    21.300797    21.678114    10894.768    3586.1431    8122.4865    6018.5948   -876.85953    986.03711    184.51005   -4727.7665 
14799000    255.59315   -6322.0854   -5664.5876   -6322.0854            0    4307.2786    23.134287     21.67335    21.822245    10941.619     5392.271    3758.9487    3770.6162   -2247.9143    721.20837   -24.745167   -4977.2652 
14800000    256.84062   -6342.0841   -5681.3773   -6342.0841            0    5124.3536    23.487957    21.323031    21.847154    10941.807    4617.5986    5887.2464    4868.2158   -291.74409    759.19673    150.46489   -4863.6584 
14801000    243.99531   -6280.5435   -5652.8805   -6280.5435            0    4261.5939    23.376145      21.6604    21.630631    10952.381    4931.6965    3523.3527    4329.7324   -37.814185   -364.17218    613.15696   -4972.1793 
14802000    247.87492   -6354.7206   -5717.0775   -6354.7206            0    4712.1605    23.389759    21.533327    21.683345    10921.018    4318.9011     4494.899    5322.6814    669.68288   -144.37554    97.591386    -4966.563 
14803000    248.93531    -6347.236   -5706.8651    -6347.236            0    4643.7176    23.474365    21.385865    21.801098    10944.579    3766.9905    5626.8171    4537.3452    291.97415    272.61505   -924.18928    -4965.656 
14804000    251.15623   -6314.5301    -5668.446   -6314.5301            0    4516.0812    23.209272    21.645851    21.816052    10960.045     5962.961    3417.9648    4167.3179   -259.97212    571.85662   -1126.7264    -4946.591 
14805000    249.82202   -6317.2869    -5674.635   -6317.2869            0    5553.4258    23.475864    21.442969    21.703302    10925.273    4056.5008    5875.2868    6728.4899    1121.0472    720.07838    1555.8367    -4789.786 
14806000    254.46806   -6303.6473   -5649.0437   -6303.6473            0    4300.8531    23.339792    21.461873    21.896695    10968.397    6070.9765    4909.6415    1921.9414   -237.74506   -966.03593     66.56394   -4961.0671 
14807000    251.06197   -6332.7482   -5686.9065   -6332.7482            0    5486.5121    23.214384    21.516794    21.887152    10932.613    5231.1515    5488.5604    5739.8244     714.8083   -461.62924     186.4571   -4812.1319 
14808000    249.49439   -6329.6678   -5687.8587   -6329.6678            0    5405.3709    23.483139    21.517233     21.61252    10920.637    5873.3388    6459.6301    3883.1439    -660.6372   -730.37124    -884.1692   -4826.9653 
14809000    254.19578   -6332.5943   -5678.6912   -6332.5943            0    5314.4863    23.323925    21.580043    21.725923    10935.337    5872.7441    4669.4789    5401.2359   -1096.2568    435.29948   -854.66718   -4831.1333 
14810000    241.43084    -6344.222   -5723.1559    -6344.222            0    3549.7617     23.21933    21.456713    22.092596    11006.764     3765.594    3365.0174    3518.6738   -61.481826    98.407667    324.82919   -5153.3398 
14811000    245.71004   -6319.5124   -5687.4383   -6319.5124            0    3902.0779    23.491164    21.358868     21.90869    10992.568    3712.1203    4789.6952    3204.4182    650.15753   -36.666167   -1606.2155   -5061.8754 
14812000    250.74942   -6311.7854   -5666.7478   -6311.7854            0    4578.9197    23.330583    21.636686    21.626448    10916.955    4711.8382    4076.9766    4947.9444    513.15273   -37.320321   -490.88611   -4937.7261 
14813000    257.60762   -6296.0866   -5633.4067   -6296.0866            0     4180.746    23.573428    21.377529    21.801588    10986.728     3483.794    4055.8326    5002.6114    863.88172   -489.32213   -78.858053   -4963.5251 
14814000    240.50132   -6321.0488   -5702.3738   -6321.0488            0    4214.7782    23.310858    21.495994    22.012003    11029.996    5164.8621    3670.3835     3809.089   -836.54743    50.943157    727.15237   -5024.3796 
14815000    229.73595    -6330.524   -5739.5422    -6330.524            0    4552.3573    23.310476     21.45987    21.865607    10938.047    4776.7333     4667.433    4212.9056    143.02907    65.676028    357.67424   -5013.3493 
14816000    253.30527    -6310.226   -5658.6136    -6310.226            0    3985.1033    23.485178    21.556999    21.733631    11003.084     4274.124    3002.1482    4679.0378     1171.928   -535.15154    1079.1854   -5019.1293 
14817000    238.73566   -6332.4666   -5718.3337   -6332.4666            0     5359.108    23.461257    21.557917    21.523318    10885.974    4121.2741    4860.6749    7095.3749    242.37355   -307.49582   -423.65355   -4867.5176 
14818000    242.12832   -6337.0382   -5714.1778   -6337.0382            0    4144.7012    23.360169    21.402485    21.922081    10960.288    3780.2223    5210.5283     3443.353    311.83584   -411.32077    1265.2967   -5051.6699 
14819000     237.5708   -6345.2621   -5734.1257   -6345.2621            0    6426.6093    23.347776    21.416798    21.716254    10858.878    7445.0889    5879.6482    5955.0909    1256.7747    335.41419   -53.749455   -4716.3719 
14820000    243.95296   -6314.3403   -5686.7862   -6314.3403            0    5206.2917    23.488373    21.500749    21.598984    10907.867    6139.1266    4232.1485    5247.5998    634.44799   -710.36103   -560.65882    -4858.569 
14821000    243.19071    -6305.979   -5680.3857    -6305.979            0    3333.3206    23.413178    21.411474    21.942252    10999.884    3510.4334    3558.8734    2930.6551   -888.43979   -846.19897    187.28155   -5145.6476 
14822000    260.52524   -6289.9658   -5619.7805   -6289.9658            0    4219.8419    23.256547    21.613096    21.863722    10989.712    4288.8194    3430.2115    4940.4949    422.10867   -95.876533    1117.0385   -4943.4509 
14823000    251.14046   -6363.7649   -5717.7214   -6363.7649            0    4459.9756      23.4595    21.478855    21.671146    10919.726    3803.9937    5235.1894    4340.7438   -216.74324   -304.41122    642.00418   -5007.4568 
14824000    249.87806   -6331.5132   -5688.7171   -6331.5132            0    4915.9051    23.405402    21.455768    21.712488    10903.596    3993.1335    5186.5868     5567.995   -161.10863    459.50807    97.211158   -4907.0009 
14825000    249.42994   -6328.1005   -5686.4572   -6328.1005            0    4873.7057      23.4672    21.484389    21.750365    10966.065    3437.5461    6215.6199     4967.951     282.3954    637.59432   -1703.6161   -4907.0112 
14826000    254.59886   -6340.2532   -5685.3131   -6340.2532            0    4796.5239    23.507846    21.487649    21.643092    10932.539    4217.2269     4009.619    6162.7258    577.85423    69.204789   -194.36512    -4920.556 
14827000    249.31008   -6354.9628   -5713.6278   -6354.9628            0    3821.4772    23.368235    21.613058    21.678969    10949.159    3421.0222    3357.7061    4685.7034    726.26997     452.5042    620.93371   -5103.4057 
14828000    252.16573   -6294.0656   -5645.3847   -6294.0656            0    3546.2839    23.473501    21.321327     22.11213    11066.816    4385.3996    4552.3781    1701.0741    431.59567   -478.29867   -131.05311    -5073.021 
14829000    249.22003   -6351.4588   -5710.3555   -6351.4588            0    4919.3597    23.234227    21.620614    21.766014    10933.901    5194.7719    4399.1569    5164.1501   -1118.1048    807.48764    323.39365   -4925.9157 
14830000    261.35414   -6326.1702   -5653.8526   -6326.1702            0    5224.9927    23.480363    21.530948    21.647577     10944.03    4534.1505    5662.8062    5478.0215   -921.70576    1922.1796   -276.77237   -4819.9049 
14831000    253.17824   -6362.6469   -5711.3613   -6362.6469            0    4815.6555    23.340307    21.377969    21.867564    10911.223    5095.6397     4664.003    4687.3238    15.545979    1.5589632    1519.0702   -4945.0509 
14832000    261.02577   -6375.2065   -5703.7336   -6375.2065            0    4897.9867    23.263247    21.596486    21.736151    10920.338    4646.5685    6150.5602    3896.8314   -1635.8321    1294.2515   -1338.5613   -4923.6708 
14833000    248.94554   -6333.7162    -5693.319   -6333.7162            0    4504.0235    23.530694    21.414889    21.767631    10968.866    3928.8286    5150.6519    4432.5899    814.22017    1015.8327    -56.89222   -4972.8119 
14834000    259.44695   -6300.9527   -5633.5412   -6300.9527            0    4537.4733    23.326063    21.657316    21.798487    11012.158    4966.9263    3817.5765    4827.9172    1136.5143    238.61957   -887.59066   -4904.8183 
14835000    252.39261   -6351.9531   -5702.6885   -6351.9531            0    4640.3545      23.3993    21.330914    21.947044    10954.394    4310.3803    5295.4893    4315.1938    626.14063    1115.0859    420.90353    -4961.352 
14836000    248.40429   -6346.7493   -5707.7444   -6346.7493            0    4036.4664    23.305994    21.600111    21.743576    10945.978    4765.2876    2486.2908    4857.8208   -211.58003    131.67758    371.15861   -5063.3796 
14837000    239.32239   -6334.4533    -5718.811   -6334.4533            0    4844.1353    23.288029    21.537299    21.774161    10921.075     5460.655    4092.1233    4979.6274   -1502.5491   -1223.7393   -521.95636   -4947.2727 
14838000    253.73594   -6332.7594   -5680.0392   -6332.7594            0    3850.6106    23.431577    21.426407    21.850532    10970.158    3491.4138    4558.9219    3501.4962   -1005.8174    531.92499    243.37084   -5063.9858 
14839000    240.81078   -6352.9199   -5733.4488   -6352.9199            0    4972.4099    23.127754    21.628571    21.773972    10891.782    5973.9393    4074.3457    4868.9446     -10.7237    1063.2766    310.86599    -4943.604 
14840000    251.37557   -6352.7794   -5706.1311   -6352.7794            0     4758.702    23.440122    21.306567    21.836028    10905.535     4138.514    5729.6257    4407.9661    148.10777    522.71783   -264.79957   -4949.2783 
14841000    240.12797   -6347.3485    -5729.634   -6347.3485            0    4021.2809    23.409105    21.440114    21.844904    10963.823    3938.2375    3388.8606    4736.7445    630.51259    1585.8625   -72.030949   -5086.6468 
14842000    249.71331   -6333.8579   -5691.4857   -6333.8579            0    4536.8587    23.226751    21.651461    21.761264    10943.589    4886.8155    5045.4827    3678.2779   -281.68505   -556.92249   -1159.3126   -4967.3984 
14843000    251.23486   -6335.4024    -5689.116   -6335.4024            0    3653.4355    23.512208    21.394626    21.790789    10961.527    3154.1548    4410.2914    3395.8604   -1031.0156    18.661728     -80.3326   -5105.0682 
14844000    263.39078   -6365.0009   -5687.4442   -6365.0009            0    4523.8927    23.314097    21.509834    21.799646    10932.138    4758.3874    4529.5463    4283.7444   -537.85925    587.16568    344.06646   -4966.1818 
14845000    247.44186   -6366.6192   -5730.0901   -6366.6192            0    6653.2968    23.251306     21.43347    21.718903    10823.749    7586.5225    5529.5393    6843.8288    91.206788   -159.85044     707.5998   -4679.8454 
14846000     249.1039   -6293.7943   -5652.9896   -6293.7943            0    4765.2769    23.463126    21.449221    21.739957    10940.976    3522.0436    5259.4209    5514.3662    509.42869    393.99569     1298.431   -4892.6282 
14847000    245.75469   -6330.9622   -5698.7733   -6330.9622            0     4008.184    23.368533    21.534696    21.839316    10990.292    3952.9679     5244.215     2827.369    804.53176   -761.47556    -515.4199    -5056.333 
14848000    244.67563   -6354.2518   -5724.8386   -6354.2518            0    4694.2295    23.269939    21.387007    22.006235    10951.939    4836.7273    6040.5273    3205.4339    326.61025    653.64907   -739.85112   -4975.0632 
14849000     246.0981   -6319.5864    -5686.514   -6319.5864            0    3494.2491    23.472378    21.512856    21.771592    10993.737    3043.5445    3452.3367    3986.8663   -83.955255   -535.92387    839.42619   -5126.2727 
14850000    251.07955   -6366.3412   -5720.4543   -6366.3412            0    4330.7463    23.410006    21.576547    21.677508    10949.463    4618.1948    3586.2335    4787.8107    160.35899    145.23337     441.4198   -5028.8918 
14851000    245.91146   -6350.2644   -5717.6722   -6350.2644            0    5300.8147    23.395541    21.253533    21.910855    10894.908    5179.3193    6112.7478    4610.3771    284.78004     325.1533   -454.96039   -4875.4202 
14852000    247.27841   -6331.7134   -5695.6048   -6331.7134            0    3827.6734    23.250511    21.617783     21.87352    10994.167    5381.1983    3276.3448    2825.4773   -46.608118   -609.91221    -235.8777   -5081.8808 
14853000      259.521   -6333.0786   -5665.4767   -6333.0786            0    4101.2563    23.561611    21.544313    21.713184    11022.019     4385.705    3578.1746    4339.8892    393.91858   -1310.0673   -352.05426   -5006.2209 
14854000    244.32019   -6310.8632   -5682.3644   -6310.8632            0    4522.3374    23.459045    21.547617    21.690966    10964.491     4640.354    3726.6732     5199.985     334.6946    79.896159   -510.59382   -4959.2162 
14855000    248.30242   -6309.0161   -5670.2733   -6309.0161            0    4361.1867    23.278207    21.531984    21.868455    10961.038      5726.99    2998.5764    4357.9937   -515.66176   -809.50761   -27.852016   -4973.1137 
14856000    242.85515   -6333.7879   -5709.0579   -6333.7879            0    4635.5783    23.480733     21.48902    21.643617    10920.891      5049.37    4320.9482    4536.4167    817.84029   -1166.0714   -191.00134   -4970.7493 
14857000    250.13638   -6342.6289   -5699.1683   -6342.6289            0    3745.5044    23.409504    21.588509     21.72529    10979.447    3625.7626    3296.0276    4314.7231     527.9455   -482.56261   -255.30569   -5099.4232 
14858000    252.84293   -6336.4243   -5686.0012   -6336.4243            0    5312.6114    23.331488    21.457198    21.817224    10922.321    6654.5773    4673.6839    4609.5731    25.248989   -1997.5371    119.42699   -4839.7509 
14859000    247.84035   -6350.0748   -5712.5206   -6350.0748            0    3735.1226    23.340364    21.541938     21.84331    10982.744    4254.6069    3872.1046    3078.6561    1111.5083   -17.615004    637.98459   -5114.2584 
14860000    251.25011   -6351.6652   -5705.3396   -6351.6652            0      4382.42    23.489767    21.533807    21.596946    10924.256    3968.9345    3587.1822    5591.1433    620.20574    36.489861   -446.38281   -5007.1365 
14861000    248.47671   -6327.6608   -5688.4696   -6327.6608            0    3690.4427    23.428427    21.598252    21.785888    11023.944    4159.8265     3002.457    3909.0445   -656.17272    128.03461    292.66928   -5095.1463 
14862000    242.18168   -6311.5315   -5688.5339   -6311.5315            0    4257.1877    23.404261     21.50541    21.870626    11007.884    3678.6005    5539.1523    3553.8103   -845.75456    1048.5979   -364.50819   -5005.0905 
14863000    250.12118   -6328.4416   -5685.0201   -6328.4416            0    5837.4001     23.38087    21.453407    21.702497    10885.958     5671.144    6030.9805    5810.0758    444.49771   -345.07894   -279.45585   -4758.2714 
14864000    251.61124   -6316.9749   -5669.7203   -6316.9749            0    5154.8061    23.411083    21.505778    21.598904    10874.477    5107.9347     4434.036    5922.4476    1244.2733   -660.33142    462.27078   -4852.2037 
14865000    248.90222   -6306.6057   -5666.3199   -6306.6057            0    4951.5108    23.331858     21.41373    21.887203    10935.331    6020.4323    5381.6227    3452.4774     637.4647   -696.91313    97.028719   -4876.6501 
14866000    239.58615   -6343.8219   -5727.5011   -6343.8219            0    3393.5032    23.296494     21.65114    21.796424    10994.021    4196.7855    3254.5635    2729.1605    460.28648    126.87873   -997.41782   -5183.3986 
14867000    237.30274   -6375.3214   -5764.8745   -6375.3214            0    2940.5762    23.609654    21.484956    21.672113    10993.231     1573.707    3047.5382    4200.4835   -605.12672   -104.52965     618.0702   -5293.4267 
14868000    237.18114   -6336.5924   -5726.4584   -6336.5924            0    4357.9476    23.350575      21.5779     21.77729    10972.626    5473.0472    2942.0508    4658.7447   -116.98944   -602.08348     506.3775     -5029.08 
14869000    252.61184   -6354.1751   -5704.3466   -6354.1751            0    4416.4773    23.450449    21.352603    21.794868    10913.304    2651.9145    6796.8315    3800.6859     714.5511   -443.46998   -237.05359    -5001.423 
14870000    245.67315   -6327.4677   -5695.4885   -6327.4677            0    4820.5416    23.386244    21.609039    21.641445    10936.597    4529.6869    4628.2801    5303.6578    234.47617    631.13343    39.904532   -4926.6167 
14871000     254.8242   -6345.9139   -5690.3942   -6345.9139            0    4116.8857    23.353056    21.492369    21.849753    10966.665    4698.3391    3242.4049    4409.9131    651.07508   -357.69345    697.60547   -5031.9496 
14872000    252.51109   -6300.4237   -5650.8543   -6300.4237            0    4936.0236    23.488943    21.484628    21.705714    10953.815    4578.6879    4745.5949    5483.7881   -90.697509   -841.52129   -537.31013   -4862.3237 
14873000    256.91797   -6368.2798    -5707.374   -6368.2798            0    5015.8216    23.224399     21.75717    21.654085    10941.749    6054.4403     3895.565    5097.4594   -401.39936   -188.27342    543.83263   -4906.9784 
14874000    243.11831   -6306.8877   -5681.4807   -6306.8877            0    6195.8933     23.37761    21.312408    21.886965    10904.812    7146.1391    6767.9171    4673.6238   -2489.1148   -1405.6424   -524.43559   -4696.1137 
14875000     260.8034   -6333.1143   -5662.2135   -6333.1143            0    5537.3621    23.268492    21.523269    21.777433    10906.443    4254.3381    6965.3072     5392.441    1069.0187   -64.420673   -312.05322   -4781.4446 
14876000    249.64792   -6325.8425   -5683.6384   -6325.8425            0     5973.589    23.348205    21.452365    21.727873    10882.931    6149.8002    5715.9682    6054.9987    146.11031   -439.13784    46.742867    -4735.532 
14877000    245.29488   -6325.5911    -5694.585   -6325.5911            0    4105.4188    23.488366    21.458292    21.752257    10963.577    3491.9973    4786.8483    4037.4109    1073.6055     467.4876   -973.52097   -5038.1592 
14878000    241.00658   -6309.3857   -5689.4109   -6309.3857            0    4203.1902    23.208315    21.631576    21.902863    10995.948    4143.5672    4629.3567    3836.6467    380.85335     1211.614   -1135.1301   -5015.3679 
14879000    258.20271   -6316.4343   -5652.2236   -6316.4343            0     3220.171    23.703697    21.264308    21.899452    11038.259    2628.6974    3536.6592    3495.1565    -589.8252   -205.45571   -137.99532    -5133.835 
14880000    238.54904     -6357.14   -5743.4871     -6357.14            0    4529.2674    23.268073    21.709452    21.647205    10934.806    4892.4224     3684.062    5011.3179   -435.02047    30.687784   -77.597235   -5021.1915 
14881000    245.47188   -6367.4105    -5735.949   -6367.4105            0    4240.8958    23.442206    21.451059    21.758233    10941.348    2969.7281     3547.572    6205.3873   -258.79918     508.7022    753.19602   -5059.2363 
14882000    246.65438   -6283.7278   -5649.2244   -6283.7278            0    4207.7367    23.140766    21.673542    21.897425    10982.486    3796.8749    3336.4058    5489.9295   -1290.3199   -324.04764    1467.6038   -4975.2784 
14883000    259.47507   -6347.0862   -5679.6025   -6347.0862            0    3428.3668    23.525356    21.410437    21.801652    10981.234    2374.4076    4617.1506    3293.5422   -176.00043    650.49782    1133.0815   -5130.5494 
14884000    236.03892   -6341.8329   -5734.6372   -6341.8329            0    4002.6495    23.407374    21.478622    21.782052    10951.103    4497.0817    4442.2655    3068.6012   -628.34244    630.86161    -554.0676   -5095.3716 
14885000      244.393   -6357.2338   -5728.5477   -6357.2338            0    5282.6967    23.175551    21.554784     21.81422    10897.162    6287.1519    4465.0036    5095.9345   -789.59002   -25.946941   -1855.7742   -4889.0007 
14886000    255.42463    -6321.344   -5664.2797    -6321.344            0    4199.8888    23.605705    21.347989    21.690628    10930.653    3000.4903    4676.5647    4922.6115   -270.18023    1649.1771   -710.47443   -4994.7655 
14887000    241.55088   -6326.0605   -5704.6856   -6326.0605            0    4804.1292    23.273629    21.599377    21.726719    10921.932    4505.6038    3807.4201    6099.3638     346.4692    912.36684    1145.7103    -4939.459 
14888000    242.80965   -6344.9498   -5720.3367   -6344.9498            0    3994.5068    23.349972    21.555824    21.805678    10975.406    4520.8372    4265.5536    3197.1297    -45.12772    788.94502   -194.76692   -5080.9558 
14889000    250.00894   -6348.6275   -5705.4947   -6348.6275            0    6046.4821    23.316786    21.312298    21.823118    10844.655    6181.9491    7194.3168    4763.1804    717.72733   -242.51427    61.723103   -4749.1942 
14890000    247.71936   -6329.4623   -5692.2194   -6329.4623            0    4515.5183     23.24761     21.65388    21.750193    10949.068    6289.9223    2741.0196    4515.6131   -104.52803   -1103.7976    627.44302   -4971.1772 
14891000    245.07012   -6346.1453   -5715.7173   -6346.1453            0    4582.1938    23.431126    21.494251    21.726858    10942.396     3686.602     4262.821    5797.1583    1283.0518   -63.819641    625.55276   -4984.4742 
14892000    254.50993   -6344.7887   -5690.0774   -6344.7887            0     4713.605    23.450473    21.527525      21.6236    10916.256    4244.6974    3660.0402    6236.0775    1101.5257    1365.6923    41.240902   -4939.6602 
14893000    243.41058   -6317.4652   -5691.3064   -6317.4652            0    3352.4955    23.405264    21.472583     21.95938    11036.158    4221.2935    2706.8249    3129.3682   -143.93505   -357.33073   -505.33013   -5151.7187 
14894000    242.83348   -6323.3761   -5698.7018   -6323.3761            0    5305.6322     23.39885     21.45118    21.745494     10914.78    5551.3004    4610.4249    5755.1713   -179.02049   -200.63588    230.06768   -4854.1466 
14895000    257.17241   -6305.6393    -5644.079   -6305.6393            0    4866.3632    23.460185    21.578439    21.578294     10923.67    4282.5409    3613.0199    6703.5287   -344.13473    390.74511    459.14328   -4868.8161 
14896000    243.56994    -6332.419   -5705.8502    -6332.419            0    5898.2266    23.328031    21.489329     21.70514    10880.868     6208.371    6687.6073    4798.7014   -1173.1229   -197.59453    356.67615   -4769.8824 
14897000     244.4615   -6340.2847   -5711.4224   -6340.2847            0    5110.7515    23.072347    21.474173    22.071441    10935.507    5312.9289    6621.9256       3397.4   -924.40874   -726.72969    485.31103   -4896.3436 
14898000    245.48918   -6350.0554   -5718.5494   -6350.0554            0    4604.6616     23.48209    21.425927    21.722405    10929.097    3626.1031    6191.9727     3995.909     559.8755    179.20145   -389.43078    -4984.614 
14899000    249.41123    -6303.139   -5661.5439    -6303.139            0    3430.6318    23.414345    21.667599    21.714711    11016.581    2684.4456    4174.0058     3433.444    1220.9678    1556.9869    563.82119   -5110.3596 
14900000    251.79487   -6361.1491   -5713.4221   -6361.1491            0     4251.635    23.440043    21.429078    21.799722    10949.968    3203.5162    4549.9351    5001.4537    944.40749    941.37479    542.00852   -5034.4613 
14901000    252.23533   -6310.8914   -5662.0314   -6310.8914            0    4018.5218    23.377202    21.399042    21.979737    10995.358    5192.5747    3669.8209    3193.1698   -674.46551    -266.6637   -565.35223   -5017.6373 
14902000    239.11818   -6344.2179    -5729.101   -6344.2179            0    3507.7451    23.436902    21.653755    21.639779    10982.121    4015.8754    2056.6078     4450.752   -209.65835   -374.79038    543.74479   -5167.2901 
14903000    258.75352   -6330.6991   -5665.0715   -6330.6991            0    3671.7958    23.531655    21.455488    21.710177    10961.102    1406.0537    4568.9607    5040.3732    -657.7015    147.18277   -425.50026   -5078.1113 
14904000    250.18188   -6335.4297   -5691.8521   -6335.4297            0    6471.9427     23.26832    21.324668    21.912326    10872.659    8197.0442    6517.2312    4701.5527   -1222.6789   -195.99271    1278.9819   -4665.6182 
14905000    244.70523   -6335.3005   -5705.8113   -6335.3005            0     6444.144    23.286063    21.661056    21.484566     10836.83    6783.6575     5342.986    7205.7884   -563.37823    785.18285    785.18563   -4687.3526 
14906000    237.58814   -6358.2023   -5747.0213   -6358.2023            0    4207.0599    23.531036    21.488389    21.610323    10927.132    2413.8401    4683.0878    5524.2517    223.57053    496.61222   -94.100719     -5076.58 
14907000    233.01077    -6311.425    -5712.019    -6311.425            0    3659.5196    23.373594    21.490941    21.921828    11011.784     4774.194    3717.1005    2487.2642    37.265679   -532.73423   -670.38601   -5124.3164 
14908000    241.62481   -6338.5763   -5717.0111   -6338.5763            0    3496.9692    23.402615    21.508051    21.878136    11012.242    5068.5249    3971.3044    1451.0782   -205.09054   -741.99776   -205.24749     -5155.39 
14909000    247.65899   -6327.0824   -5689.9947   -6327.0824            0    6253.2464     23.41451    21.534782    21.565778    10874.034    5309.1061    5290.8954    8159.7376    385.71452    1585.8462    402.49548   -4698.3135 
14910000    241.11193   -6319.6637    -5699.418   -6319.6637            0    6384.2337    23.552603     21.28702    21.687161    10873.178    5216.8791    6929.3217    7006.5004    1303.0451   -86.594055    -89.15842   -4687.0435 
14911000    248.58192    -6358.697   -5719.2352    -6358.697            0    4421.0296    23.214038    21.546627    21.872707    10940.382    4596.2969    4287.4841    4379.3077    1225.7176   -130.92402    727.09545   -5013.8411 
14912000    247.20397   -6328.0609   -5692.1437   -6328.0609            0    3403.0655    23.421045    21.515931    21.878226    11024.998    2375.9932    4343.2306    3489.9726   -274.17872   -275.24638    321.58764   -5144.9707 
14913000    246.53382   -6333.7613   -5699.5681   -6333.7613            0    3972.2792    23.463334    21.705059    21.564495    10982.216    3881.4286    2680.4208    5354.9882   -551.31706   -220.12368   -138.55136   -5063.3505 
14914000    243.15423   -6339.2988   -5713.7993   -6339.2988            0    4624.6541     23.56803    21.561306    21.512743    10931.862     3020.902    4267.2315    6585.8289   -333.02392   -1190.1186    192.84401   -4976.4907 
14915000    243.79455   -6324.0369   -5696.8903   -6324.0369            0    4907.2929    23.263008    21.494984    21.886307    10943.985     6863.849     2965.387    4892.6428   -308.28208   -1532.4978    999.68356    -4913.653 
14916000    251.61997   -6307.5455   -5660.2685   -6307.5455            0    5578.5621    23.317305    21.348621    21.986332    10944.627    5454.4964    7266.6691     4014.521    -536.0738    449.18573   -394.31488   -4769.8399 
14917000    243.16633    -6336.466   -5710.9354    -6336.466            0    4448.6358     23.42405    21.643445    21.589666    10945.467    3354.9833    3998.7632     5992.161    339.19637     2105.089    1451.1803   -5000.8068 
14918000    248.73026   -6305.2876   -5665.4442   -6305.2876            0    4971.6834    23.598877    21.426992      21.6456    10945.161    3537.4259    5367.8083    6009.8159    1199.7583   -595.91658   -913.66076   -4871.8444 
14919000     254.7305   -6298.9883   -5643.7096   -6298.9883            0    4300.8843    23.424998    21.582104    21.815937    11029.281    3844.3496    3926.9872    5131.3162    216.53945   -267.05102    -442.2185   -4951.9092 
14920000    248.02975   -6330.4056   -5692.3642   -6330.4056            0    4309.1107    23.217855    21.630362    21.757654    10926.925     3792.422    5085.9016    4049.0084    1028.0587    323.55893   -1047.7353    -5005.673 
14921000    249.08642   -6334.5504   -5693.7908   -6334.5504            0    5885.0495    23.599234     21.22274     21.74852    10892.538    5949.7001    5406.8713     6298.577    1438.5438   -932.71701    1442.6197   -4758.9125 
14922000    263.19894   -6365.7812    -5688.718   -6365.7812            0    5040.4499    23.257819    21.580959     21.72196    10902.817    5022.3468    3484.3121    6614.6907   -822.25259    750.52291    448.29281   -4887.2542 
14923000    236.35735   -6316.7249     -5708.71   -6316.7249            0    5210.3835    23.224005    21.534794    21.831075    10918.248     6570.994    4381.1123    4679.0442    778.65049   -1944.7786     843.9683   -4879.0531 
14924000    233.27434   -6308.1684   -5708.0844   -6308.1684            0    4097.8706    23.669792    21.536705     21.53432    10977.535    2419.1504    3385.4684    6488.9928    1148.2459   -406.28486     474.5423   -5052.0313 
14925000    243.69957   -6318.1817   -5691.2795   -6318.1817            0    4861.4975    23.335054    21.592627    21.686134    10926.887    3815.1904    5565.3817    5203.9205   -40.795919   -23.577174    875.59293   -4916.5637 
14926000    233.73296   -6317.9901   -5716.7263   -6317.9901            0     5765.401    23.334946    21.298954    21.870399    10869.806     5857.913    7172.7037    4265.5862   -461.02509    214.33952   -230.07409   -4802.7663 
14927000    251.78771   -6295.7706    -5648.062   -6295.7706            0    6455.3911    23.136099    21.528022    21.811917    10863.958    6877.4956    6661.1789    5827.4987    266.37528    708.75956   -597.14504   -4625.2719 
14928000     248.1765    -6320.208   -5681.7891    -6320.208            0    4201.5406    23.463386    21.509749    21.699875    10951.743    3675.3858    4417.2748    4511.9611   -170.35219   -608.52813    118.27238   -5010.7193 
14929000    241.57814   -6308.1196   -5686.6745   -6308.1196            0    3845.3792    23.557825    21.490883    21.746805    11009.939    4506.3339      2751.37    4278.4338    684.48232   -1326.8696    130.18652   -5069.2271 
14930000    251.99309   -6338.3053   -5690.0685   -6338.3053            0     2877.461    23.311919    21.693761    21.898872    11074.768    3928.1304    2510.8609    2193.3917    1362.6662   -243.03343   -1064.7708   -5225.3179 
14931000     251.0914   -6344.3794    -5698.462   -6344.3794            0    5917.3474    23.381576    21.524052    21.578588    10859.775    5600.5557     5701.556    6449.9306   -483.14767   -321.23861     791.8654   -4761.2803 
14932000    255.08041   -6327.2046   -5671.0258   -6327.2046            0    6021.8409    23.375662    21.467456    21.647036    10862.829     5046.043    7394.2799    5625.1997    79.092192    191.84442    444.23333   -4717.0263 
14933000    243.78795   -6342.2639   -5715.1342   -6342.2639            0    5796.9238    23.266989    21.396474    21.890946    10898.003    6420.2612    6801.9539    4168.5562   -1021.7763    693.15976   -87.660315   -4793.7933 
14934000    253.11303   -6361.1521   -5710.0342   -6361.1521            0    4580.0674    23.430906    21.569695    21.657747    10945.771    3838.7842    4270.8108    5630.6073    476.19043   -740.84326   -746.39225    -4978.905 
14935000     264.6488   -6346.8374   -5666.0445   -6346.8374            0    4522.4484    23.573046    21.374037    21.747915    10957.712    2950.3692    5888.5631    4728.4127   -465.60362    119.15744    88.233468   -4943.3256 
14936000    257.05811   -6328.0582   -5666.7919   -6328.0582            0    3870.0121    23.372944    21.562249     21.79125    10982.207    3920.2047    3824.8104    3865.0211     1277.586    1546.6853   -228.01269   -5046.9544 
14937000    233.68935   -6331.7423   -5730.5907   -6331.7423            0    4203.1682    23.462636    21.462568    21.752034    10953.637    3499.9409    4687.5344    4422.0293    1257.8702   -417.27532    195.98531   -5059.1448 
14938000    251.07003   -6305.5646   -5659.7023   -6305.5646            0    5938.9646    23.452135    21.432028    21.648919    10881.328    6707.6576    5638.8076    5470.4286   -576.51037    -867.6111   -748.19757   -4717.2301 
14939000    240.40986   -6354.7484   -5736.3087   -6354.7484            0    4544.9511     23.20917    21.622391    21.823896    10952.055    4732.2134     3208.909     5693.731    133.90967   -1341.0295    1247.9078   -5010.3687 
14940000    256.84234   -6294.7715   -5634.0603   -6294.7715            0    5052.4652    23.689121    21.254847    21.738333    10945.438    3702.5115    6170.6365    5284.2477   -280.85115   -793.52256   -110.91074   -4827.5454 
14941000    258.54947   -6329.0113   -5663.9085   -6329.0113            0    4186.0376    23.211276      21.6781    21.832885    10985.792    5718.9126    3454.1943     3385.006    986.43802   -937.25112   -29.815138   -4993.2362 
14942000    250.37539   -6323.3369   -5679.2614   -6323.3369            0    5401.3609     23.46094    21.330544    21.837639    10928.311    5394.1805    6172.6604    4637.2418    1196.4175   -1127.9932    331.17643   -4818.4022 
14943000    248.39262   -6347.4116   -5708.4367   -6347.4116            0    4835.8042    23.481528    21.492478    21.624535    10913.389    3560.2021     4471.105    6476.1053     326.8649    532.54559    459.89739   -4938.7673 
14944000    246.66245   -6330.4808   -5695.9567   -6330.4808            0    5158.2636    23.236616    21.583839    21.812759     10939.87    6317.0107    4991.4292    4166.3509    1174.9643   -641.60334    222.29891   -4872.9723 
14945000    254.35657   -6322.6987    -5668.382   -6322.6987            0    5240.1081    23.657045    21.166617    21.843166    10937.738    3855.0644    6966.6877    4898.5723   -193.48159    98.394261    -684.5609   -4832.5025 
14946000    252.08289   -6348.4407   -5699.9729   -6348.4407            0    4486.0114    23.196922    21.865466    21.595541    10953.507    5950.1279    2066.6783    5441.2279     727.3721   -156.38074    77.687713    -4983.352 
14947000     253.4795   -6344.0103   -5691.9498   -6344.0103            0    3587.6372    23.647839    21.401244    21.724204    10994.471     3387.156    4141.7865    3233.9692    55.146649   -391.33514   -365.67661    -5116.697 
14948000       261.81   -6348.6889   -5675.1987   -6348.6889            0    4740.7956    23.241694    21.588582    21.835073    10955.862    4415.4327    4276.7568    5530.1973    1207.1202    573.73419   -150.38483   -4917.7143 
14949000    256.38924   -6332.7971   -5673.2514   -6332.7971            0    4427.2995    23.378697    21.477426    21.804243    10948.221    4599.2313    3605.2121    5077.4551   -295.05669     764.9228    860.33526   -4966.3508 
14950000    247.19221    -6340.934   -5705.0472    -6340.934            0    5337.2521    23.561711      21.3963    21.571176    10874.752     4194.496    6346.6228    5470.6376    935.28918   -182.71386    327.41015   -4858.5745 
14951000    256.79665   -6339.5192   -5678.9255   -6339.5192            0    5537.8432    23.291009     21.53868    21.755068    10913.595    6545.0542    5136.9967    4931.4787    -923.3405    409.24547    53.828119   -4797.5025 
14952000    252.26855   -6333.2538   -5684.3083   -6333.2538            0    5614.7302    23.505203    21.283082     21.82902    10920.255    5018.5088    5937.6798     5888.002    643.60727   -502.76065   -753.41076   -4790.1024 
14953000    237.10231   -6350.6117   -5740.6804   -6350.6117            0    4291.2497    23.183307     21.76132    21.651441    10923.138    4047.0513    4044.0957    4782.6022    101.53531   -96.296472    461.03227   -5057.0725 
14954000    235.68748   -6307.8098   -5701.5182   -6307.8098            0    4002.0565    23.546036    21.406805    21.742009     10958.96    2539.4224    4485.3934    4981.3537     17.19313   -407.65089     988.8013   -5061.8887 
14955000     241.8364   -6337.5318   -5715.4224   -6337.5318            0    4613.2397    23.218022    21.539781    21.908369    10956.618    6289.8809     3648.541    3901.2971     768.2256   -1018.0609    1018.9693    -4978.268 
14956000    235.23076   -6338.5046   -5733.3878   -6338.5046            0    4719.0223    23.341978    21.487346    21.816734    10942.339    5569.9479    5172.0336    3415.0852   -227.59718   -62.873882    355.24659   -4980.3131 
14957000    237.37647   -6333.0369   -5722.4004   -6333.0369            0    5038.5697    23.470254    21.372047     21.77036    10920.173    5315.1023     5573.734    4226.8729   -820.64318   -513.33228   -619.60833   -4919.9602 
14958000     246.7473   -6321.2944    -5686.552   -6321.2944            0    4080.9444    23.331067    21.653353    21.696262    10960.861    3548.0652    3640.4003    5054.3675    722.71042   -149.59392   -1148.7348   -5034.2011 
14959000    256.33387   -6330.5406   -5671.1373   -6330.5406            0    3944.1308    23.574118    21.362712    21.801025    10979.151    3040.1726    4346.9686    4445.2512    575.98489    489.98737    -191.1245   -5039.6045 
14960000    247.49049   -6334.4108   -5697.7566   -6334.4108            0     4377.665    23.381007    21.470023    21.812639    10949.743    2995.9025    4780.1875    5356.9049    1215.1701   -126.11226    527.56751   -4998.6839 
14961000    244.61266   -6310.5088   -5681.2576   -6310.5088            0    4186.6649    23.416862     21.57283    21.733572    10979.104     4099.066    3432.9396    5027.9891    622.40269    674.86094    775.68716   -5010.8931 
14962000    240.26326   -6330.4395   -5712.3769   -6330.4395            0    5208.6673     23.30204    21.434276    21.850186    10913.345    5617.5856    5436.5778    4571.8386    175.81617   -810.05603    36.983125   -4883.3657 
14963000    248.65877   -6343.7397   -5704.0802   -6343.7397            0    4810.8358    23.369208    21.539413    21.736307    10941.166    4075.9855    4517.2561    5839.2657   -250.80956   -6.9906486   -109.79482   -4936.4359 
14964000    244.43484   -6318.3152   -5689.5215   -6318.3152            0     6108.232    23.438358     21.42101    21.699754    10894.867    5808.1393    6442.6628    6073.8941   -1079.5417   -267.40827    740.93312   -4718.9817 
14965000    243.67436   -6359.9566   -5733.1192   -6359.9566            0     5217.929    23.248054    21.540301    21.749251    10891.374    5631.5877    5384.7185    4637.4809   -282.35105   -119.84414   -914.29171   -4904.3059 
14966000    239.91095   -6316.8028   -5699.6464   -6316.8028            0    5282.8957    23.388224    21.470274    21.746307    10919.943    4903.6581    5120.3318    5824.6973    1413.6509   -94.095145   -74.992647   -4858.3127 
14967000    253.05375   -6343.1842   -5692.2189   -6343.1842            0    4707.5942    23.584712     21.41409    21.633218    10925.752    4583.8038    3954.3265    5584.6522    -121.7387   -447.23285   -759.67642   -4942.1067 
14968000    254.78264   -6327.0811   -5671.6683   -6327.0811            0    3834.4461    23.206083    21.752083    21.754002    10980.999    4772.7284    2640.8238    4089.7861    418.25956     61.73483   -465.67642   -5057.5947 
14969000    242.19903   -6321.5053   -5698.4631   -6321.5053            0    4052.1783     23.60081    21.333082    21.836969    10994.434    3116.2466    5141.8061    3898.4821    161.84383    -893.9738   -454.75149   -5048.7265 
14970000    232.20817   -6338.9628   -5741.6214   -6338.9628            0    3840.8708    23.314965    21.647953    21.771141    10988.357    3964.4073      3849.77    3708.4352   -429.44868   -131.90343   -362.58326   -5126.1068 
14971000    245.82128   -6346.4479   -5714.0876   -6346.4479            0    5302.8987    23.398886     21.42623    21.796198    10927.523    6122.8783    5215.0813    4570.7366   -141.33118   -1515.2213    327.46076   -4868.9821 
14972000    237.26723   -6319.9651   -5709.6096   -6319.9651            0    4107.1978    23.264803    21.379097    22.051977    10968.223    4787.5186    3768.5527    3765.5221     202.4283    -284.2204    1121.9304   -5052.6211 
14973000     251.2352   -6362.9223   -5716.6351   -6362.9223            0     4280.702    23.335893    21.651649    21.685968    10957.064    3735.6365    3227.6484     5878.821    1488.9602   -757.87148    1277.3241   -5032.5894 
14974000    253.32404    -6319.172   -5667.5113    -6319.172            0    4073.3995    23.585261    21.372404    21.762732    10970.021    4254.2288    4494.8294    3471.1402   -402.80367    427.25569   -149.11074   -5015.8224 
14975000    243.76708   -6344.5289    -5717.453   -6344.5289            0    3239.7396    23.214297     21.65825    21.880852    11001.278    5439.0882    2254.7633    2025.3674   -151.41858   -438.52046   -11.005071   -5197.6615 
14976000    239.23232   -6314.5831   -5699.1725   -6314.5831            0    5492.6358    23.447492    21.332651    21.792828    10900.711    5199.4725    5891.2902    5387.1448    87.909726    1257.2553    771.42301    -4825.977 
14977000     255.3605   -6290.3249   -5633.4256   -6290.3249            0    5183.0459    23.303474    21.547545    21.789094    10941.016    5689.8136    4589.6212    5269.7028    18.035231    626.43872    517.90793   -4806.4007 
14978000    256.22573   -6302.0739   -5642.9489   -6302.0739            0    5282.0732     23.31307    21.465012    21.827958    10923.044    3821.6413    6389.6623    5634.9159    164.94725     236.9876   -357.07079   -4801.5072 
14979000    242.53948   -6297.5675   -5673.6495   -6297.5675            0    4264.9551    23.589136    21.431451    21.713367     10977.18     3440.913    4826.7603     4527.192    279.25602    226.01576    372.85368   -4990.8689 
14980000    246.42097   -6288.8835   -5654.9805   -6288.8835            0    3874.3107     23.25097    21.839434    21.658819    10998.089    5535.7849     1969.195    4117.9521    598.39427   -282.58901   -373.63181   -5033.5572 
14981000    255.27481    -6318.483   -5661.8041    -6318.483            0    5390.3233     23.67805    21.191426    21.736535    10906.777    4547.8372    6623.4338    4999.6988    231.42016   -80.059797   -368.53859   -4804.3969 
14982000    259.78909   -6344.9841   -5676.6925   -6344.9841            0    6095.6049    23.117163    21.594651    21.776722    10871.093    6217.8919    6030.2664    6038.6563   -423.61261    339.41864    659.40107   -4710.2725 
14983000     244.3254   -6330.6143   -5702.1021   -6330.6143            0    6550.3667    23.397341    21.278151    21.793911    10850.146    6243.8735    7525.0398    5882.1866   -653.65912    1092.0462   -806.27716   -4665.5836 
14984000    245.17549   -6316.5835   -5685.8845   -6316.5835            0    5309.1321    23.445241    21.526624    21.601528    10902.224    4617.5429    4736.2929    6573.5606   -859.91553    -602.8948   -218.14177   -4841.7444 
14985000    252.45322    -6351.741   -5702.3205    -6351.741            0    4622.8407    23.381021    21.640763    21.641676    10950.324    3962.1473    2802.1976    7104.1772   -764.51778    395.05941    308.51291   -4964.0564 
14986000     239.1326   -6308.5822   -5693.4282   -6308.5822            0    5355.4388    23.501511    21.329658    21.828309    10942.077    3921.0773     6831.026    5314.2131   -1236.7334    1224.0504   -601.67681   -4838.8128 
14987000    241.74012   -6332.0554   -5710.1937   -6332.0554            0    4131.1176    23.085948    21.694421    21.913887    10975.269    5251.6967     4895.325    2246.3311    987.35939    728.32346   -745.15543   -5048.9544 
14988000    255.10214   -6315.5871   -5659.3524   -6315.5871            0    4633.5876    23.528682    21.252135    21.846696    10924.107     5753.489    3951.4245    4195.8492   -1311.5491    135.30447    647.34938   -4921.1436 
14989000     241.0434   -6321.0154    -5700.946   -6321.0154            0    3324.3316    23.280908    21.667975    21.791023    10992.484    4671.1561    1779.9454    3521.8935   -864.54908    144.97826    677.88592   -5168.0087 
14990000    249.39458   -6320.3869   -5678.8345   -6320.3869            0    4260.1793    23.466573    21.503734    21.699387    10949.922    1895.0037       4757.3    6128.2342   -585.25298    234.81722    503.90749   -4998.5121 
14991000    244.10022   -6328.7449    -5700.812   -6328.7449            0    5390.2028     23.48038    21.427891    21.735103    10935.692    5059.2519    5123.4955     5987.861   -1561.7159    812.05679    693.22173   -4841.1509 
14992000    241.63503   -6326.2843   -5704.6929   -6326.2843            0    4066.2406    23.286462     21.64892    21.733892    10956.637    4639.7214    3140.0762    4418.9241    724.93942   -258.49081    771.42726    -5054.943 
14993000    247.92706    -6309.273   -5671.4958    -6309.273            0    4889.1267    23.536973    21.290036    21.901862    10975.089    5026.6304    5365.7496         4275   -333.60767    -639.3624    217.01188   -4888.9401 
14994000     248.7792   -6332.2682   -5692.2989   -6332.2682            0    2906.9682    23.199164    21.765783    21.783264    10999.415    4124.7017    2384.8934    2211.3095    417.06364   -271.70672   -591.99334    -5225.977 
14995000     262.9435   -6324.7327   -5648.3265   -6324.7327            0    3475.7366    23.521923    21.412697    21.830641    10995.391    2336.8024    4671.6432    3418.7641   -189.72933    764.22224   -423.54211   -5090.9696 
14996000    238.27335    -6323.191   -5710.2473    -6323.191            0    4213.4728    23.416757    21.568121    21.685612    10952.436    3759.4965    3326.3683    5554.5536   -383.95942    1685.5686     738.5697   -5037.2291 
14997000    255.96008   -6354.3228   -5695.8811   -6354.3228            0    4295.1032    23.535298    21.267835    21.898834    10961.348     3569.025    5691.7744    3624.5103    -267.7657    297.65756    231.13319   -5009.2658 
14998000    252.59654   -6327.7986   -5678.0094   -6327.7986            0    4880.7501    23.227407    21.611898     21.82788    10957.341    5566.0902     5497.644    3578.5161   -340.59645    475.90943    -557.9258   -4898.0579 
14999000    242.65039   -6329.1723    -5704.969   -6329.1723            0    4772.0059    23.446316    21.497721    21.681906    10928.599    4665.6692    5505.5691    4144.7794    516.21065    789.55951   -155.39374   -4944.3952 
15000000    253.51067   -6292.8492   -5640.7085   -6292.8492            0    4020.2531    23.343478    21.533411    21.875652    10996.118    4878.0189    3617.0724    3565.6681   -1211.1583    1344.9083    1133.2146   -4995.9921 
Loop time of 643.798 on 64 procs for 250000 steps with 1296 atoms

Performance: 67.102 ns/day, 0.358 hours/ns, 388.321 timesteps/s
99.3% CPU use with 64 MPI tasks x 1 OpenMP threads

MPI task timing breakdown:
Section |  min time  |  avg time  |  max time  |%varavg| %total
---------------------------------------------------------------
Pair    | 28.846     | 38.058     | 46.834     |  95.5 |  5.91
Bond    | 0.26495    | 0.27435    | 0.28406    |   0.8 |  0.04
Kspace  | 339.5      | 357.39     | 375.52     |  44.7 | 55.51
Neigh   | 4.1029     | 4.8414     | 5.8916     |  18.7 |  0.75
Comm    | 97.472     | 111.53     | 125.5      |  62.1 | 17.32
Output  | 1.2415     | 1.2482     | 1.2665     |   0.6 |  0.19
Modify  | 115.23     | 121.95     | 128.37     |  30.1 | 18.94
Other   |            | 8.512      |            |       |  1.32

Nlocal:        20.2500 ave          28 max          14 min
Histogram: 5 7 11 4 5 13 5 10 3 1
Nghost:        2527.88 ave        2559 max        2494 min
Histogram: 2 2 8 7 11 8 12 7 4 3
Neighs:        6348.41 ave        8751 max        4446 min
Histogram: 5 9 9 5 9 8 6 9 3 1

Total # of neighbors = 406298
Ave neighs/atom = 313.50154
Ave special neighs/atom = 2.0000000
Neighbor list builds = 9111
Dangerous builds = 0

unfix		3
unfix		2
unfix		1

write_data	data.final.${pid}
write_data	data.final.0
System init for write_data ...
PPPM initialization ...
  extracting TIP4P info from pair style
  using 12-bit tables for long-range coulomb (../kspace.cpp:340)
  G vector (1/distance) = 0.36926368
  grid = 30 40 32
  stencil order = 5
  estimated absolute RMS force accuracy = 0.0040506085
  estimated relative force accuracy = 1.2198287e-05
  using double precision FFTW3
  3d grid and FFT values/proc = 5168 640
Last active /omp style is kspace_style pppm/tip4p/omp
WARNING: Not all mixed pair coeffs generated from mixing. Use write_data with 'pair ij' option to store all pair coeffs. (../write_data.cpp:312)

write_restart   restart.lmp.${pid}
write_restart   restart.lmp.0
System init for write_restart ...
PPPM initialization ...
  extracting TIP4P info from pair style
  using 12-bit tables for long-range coulomb (../kspace.cpp:340)
  G vector (1/distance) = 0.36926368
  grid = 30 40 32
  stencil order = 5
  estimated absolute RMS force accuracy = 0.0040506085
  estimated relative force accuracy = 1.2198287e-05
  using double precision FFTW3
  3d grid and FFT values/proc = 5168 640
Last active /omp style is kspace_style pppm/tip4p/omp
Total wall time: 0:10:46
