LAMMPS (30 Jul 2021)
Processor partition = 1
  using 2 OpenMP thread(s) per MPI task
using multi-threaded neighbor list subroutines
variable        pid world 0 1
variable        phase world IceIII Liquid

shell cd ${phase}
shell cd Liquid
include Restart.lmp
echo both
log log.lammps
#include		in.partitions
include		in.temp
variable        temperature equal 264.08
variable	tempDamp equal 100.0
include		in.pressure
variable        pressure equal 5250.0
variable        pressureDamp equal 1000.0 # This is 1 ps
include		in.seed
variable        seed equal 745823

units		real
atom_style	full
read_restart	restart.lmp.${pid}
read_restart	restart.lmp.1
Reading restart file ...
  restart file = 30 Jul 2021, LAMMPS = 30 Jul 2021
  restoring atom style full from restart
  orthogonal box = (0.42639160 1.5937643 0.52019676) to (17.781181 22.035414 21.692999)
  2 by 4 by 4 MPI processor grid
  restoring pair style lj/cut/tip4p/long/omp from restart
  restoring bond style harmonic/omp from restart
  restoring angle style harmonic/omp from restart
  864 atoms
  576 bonds
  288 angles
Finding 1-2 1-3 1-4 neighbors ...
  special bond factors lj:    0        0        0       
  special bond factors coul:  0        0        0       
     2 = max # of 1-2 neighbors
     1 = max # of 1-3 neighbors
     1 = max # of 1-4 neighbors
     2 = max # of special neighbors
  special bonds CPU = 0.002 seconds
  read_restart CPU = 0.011 seconds
include 	in.setup
variable	out_freq equal 1000
variable	out_freq2 equal 10000
variable	out_freq3 equal 1000

timestep	2.0

neigh_modify    delay 7 every 1

include		in.tip4p
# This is TIP4P/Ice

# create groups ###
group ox type 2
288 atoms in group ox
group hy type 1
576 atoms in group hy

# set charges - beside manually ###
set group ox charge -1.1794
Setting atom values ...
  288 settings made for charge
set group hy charge 0.5897
Setting atom values ...
  576 settings made for charge

# ### TIP3P Potential Parameters ###
pair_style lj/cut/tip4p/long/omp 2 1 1 1 0.1577 8.5
pair_coeff 1 1*2 0.000 0.000
pair_coeff 2 2 0.21084 3.1668
bond_style  harmonic
bond_coeff  1 450 0.9572
angle_style harmonic
angle_coeff 1 55 104.52
kspace_style pppm/tip4p/omp 1.0e-5
pair_modify tail yes

thermo          ${out_freq}
thermo          1000
thermo_style    custom step temp pe etotal epair emol press lx ly lz vol pxx pyy pzz pxy pxz pyz enthalpy

restart 	${out_freq3} restart.lmp.${pid} restart2.lmp.${pid}
restart 	1000 restart.lmp.${pid} restart2.lmp.${pid}
restart 	1000 restart.lmp.1 restart2.lmp.${pid}
restart 	1000 restart.lmp.1 restart2.lmp.1


include         in.dump
dump            myDump all atom ${out_freq2} dump.water.${pid}
dump            myDump all atom 10000 dump.water.${pid}
dump            myDump all atom 10000 dump.water.1
dump            myDump2 all dcd ${out_freq2} dump.dcd
dump            myDump2 all dcd 10000 dump.dcd
dump_modify     myDump append yes
dump_modify     myDump2 append yes


variable natoms 	equal  "count(all)"                        # NUMBER ATOMS
variable H      	equal  "enthalpy/v_natoms"                 # ENTHALPY-per-atom
variable Vol      	equal  "vol/v_natoms"                 # volume-per-atom
fix AVG all 		ave/time ${out_freq} 1 ${out_freq} v_Vol v_H file vol_enthalpy.dat
fix AVG all 		ave/time 1000 1 ${out_freq} v_Vol v_H file vol_enthalpy.dat
fix AVG all 		ave/time 1000 1 1000 v_Vol v_H file vol_enthalpy.dat


timer           timeout 23:50:00 every 1000
New timer settings: style=normal  mode=nosync  timeout=23:50:00

fix 		1 all shake 1e-6 200 0 b 1 a 1
Finding SHAKE clusters ...
       0 = # of size 2 clusters
       0 = # of size 3 clusters
       0 = # of size 4 clusters
     288 = # of frozen angles
  find clusters CPU = 0.001 seconds
fix             2 all nph iso ${pressure} ${pressure} ${pressureDamp}
fix             2 all nph iso 5250 ${pressure} ${pressureDamp}
fix             2 all nph iso 5250 5250 ${pressureDamp}
fix             2 all nph iso 5250 5250 1000
fix             3 all temp/csvr ${temperature} ${temperature} ${tempDamp} ${seed}
fix             3 all temp/csvr 264.08 ${temperature} ${tempDamp} ${seed}
fix             3 all temp/csvr 264.08 264.08 ${tempDamp} ${seed}
fix             3 all temp/csvr 264.08 264.08 100 ${seed}
fix             3 all temp/csvr 264.08 264.08 100 745823

run             250000
PPPM initialization ...
  extracting TIP4P info from pair style
  using 12-bit tables for long-range coulomb (../kspace.cpp:340)
  G vector (1/distance) = 0.37399927
  grid = 24 24 25
  stencil order = 5
  estimated absolute RMS force accuracy = 0.0031010995
  estimated relative force accuracy = 9.3388691e-06
  using double precision FFTW3
  3d grid and FFT values/proc = 3822 576
Last active /omp style is kspace_style pppm/tip4p/omp
Neighbor list info ...
  update every 1 steps, delay 7 steps, check yes
  max neighbors/atom: 2000, page size: 100000
  master list distance cutoff = 10.8154
  ghost atom cutoff = 10.8154
  binsize = 5.4077, bins = 4 4 4
  1 neighbor lists, perpetual/occasional/extra = 1 0 0
  (1) pair lj/cut/tip4p/long/omp, perpetual
      attributes: half, newton on, omp
      pair build: half/bin/newton/omp
      stencil: half/bin/3d
      bin: standard
Setting up Verlet run ...
  Unit style    : real
  Current step  : 13000000
  Time step     : 2
  Walltime left : 23:49:59.94
Per MPI rank memory allocation (min/avg/max) = 10.20 | 10.20 | 10.22 Mbytes
Step Temp PotEng TotEng E_pair E_mol Press Lx Ly Lz Volume Pxx Pyy Pzz Pxy Pxz Pyz Enthalpy 
13000000    271.58895   -3825.2659   -3359.7717   -3825.2659            0    3145.0132    17.354789    20.441649    21.172802    7511.2742    3714.0054    2673.3059    3047.7283    112.44448   -1250.3243    619.23048   -3015.2536 
13001000    268.19769    -3878.099   -3418.4174    -3878.099            0    4478.8341    17.404736     20.50048    21.233737     7576.313    2935.3439    7329.4957    3171.6626    1119.7806   -17.754487   -449.43777   -2923.5387 
13002000    257.95629   -3866.0323    -3423.904   -3866.0323            0    5066.9207    17.346875    20.432328    21.163147    7501.0033    5888.4651    4156.5735    5155.7234   -271.12874    676.69181   -611.80542   -2869.6111 
13003000    255.39623   -3885.5685   -3447.8281   -3885.5685            0    3329.0521    17.312385    20.391703     21.12107    7456.3504    3762.5601    3195.8312    3028.7649   -708.19863    1176.0104   -789.11345   -3085.8163 
13004000    258.17394   -3916.1589   -3473.6576   -3916.1589            0     7137.367    17.214349    20.276229    21.001465     7330.395    5727.4298    7929.6953    7754.9758    -439.4214   -793.87289    503.12131   -2710.6282 
13005000    265.69702   -3883.3225   -3427.9269   -3883.3225            0    6082.2879    17.308684    20.387344    21.116554    7451.5695    6708.9063    5517.2802    6020.6773   -1262.8663   -526.90571    773.42021   -2766.9434 
13006000    262.43203   -3871.9515    -3422.152   -3871.9515            0    3397.9494    17.338645    20.422634    21.153106    7490.3317    3768.8262    3556.5517    2868.4704    23.098704    630.11226   -840.49071    -3050.964 
13007000     265.3875   -3870.9252   -3416.0601   -3870.9252            0    5388.8123    17.252282    20.320909    21.047743    7378.9608    6666.2433    4964.3783    4535.8154   -645.45474   -21.111107   -509.52404   -2836.1454 
13008000    271.45914    -3886.275   -3421.0034    -3886.275            0    5569.9662    17.275051    20.347728    21.075522    7408.2151    7127.8366    5653.7838    3928.2783   -826.83014   -1424.6978   -86.875599   -2819.2174 
13009000    268.08224   -3845.3712   -3385.8874   -3845.3712            0    3643.3507    17.302108    20.379598    21.108531    7443.0794    4084.4343      4308.78    2536.8377    216.62058   -929.50088   -108.19633   -2990.4028 
13010000    279.99819   -3879.8861   -3399.9787   -3879.8861            0    4763.3733    17.235722    20.301404    21.027541    7357.7331    4352.8381    5162.5173    4774.7646    1182.2582    8.9461001   -205.87267    -2888.845 
13011000    256.05598   -3842.7497   -3403.8785   -3842.7497            0    4662.2056    17.229748    20.294367    21.020252     7350.085    5108.9327    5418.6228    3459.0611    439.47765    304.80357    360.85967   -2904.1206 
13012000    272.04928   -3832.1229   -3365.8397   -3832.1229            0    4001.3705    17.376698    20.467455    21.199531    7539.7571    2881.8766    4894.4814    4227.7535   -1082.6727   -510.05248   -1355.6139   -2925.8505 
13013000    272.94439     -3840.29   -3372.4727     -3840.29            0     4628.916     17.28851    20.363581    21.091942    7425.5444    5011.7415    2911.0162    5963.9905   -96.535945   -602.56416   -124.32119   -2871.1891 
13014000    258.40085   -3865.9864   -3423.0962   -3865.9864            0    4387.6564    17.224009    20.287607     21.01325    7342.7423    4892.5808     3316.403    4953.9853     224.8844    1907.6659   -99.602642    -2953.238 
13015000    270.80199   -3886.7461   -3422.6007   -3886.7461            0    5120.5202     17.33279    20.415737    21.145963     7482.746    5709.5248    4057.7896    5594.2463    1046.8661   -287.54969    558.34623   -2863.8077 
13016000    267.42424   -3857.7221   -3399.3661   -3857.7221            0    5199.3355    17.286009    20.360636    21.088891    7422.3226    6254.6168    3725.8915    5617.4982    1037.7884      557.154    617.79635   -2836.5538 
13017000    273.38048   -3897.8799   -3429.3151   -3897.8799            0     5432.962    17.348216    20.433906    21.164783    7502.7422    5478.9659    5117.3256    5702.5945    678.76738   -729.06528    1531.0778   -2834.8415 
13018000    256.76056   -3881.6375   -3441.5587   -3881.6375            0    4501.3104    17.352117    20.438502    21.169542     7507.805    3353.5066    7149.8224    3000.6022   -638.00966   -1677.5188   -291.20533   -2948.6938 
13019000    268.34948    -3847.272   -3387.3302    -3847.272            0    6112.5531    17.229115    20.293622     21.01948    7349.2751    4298.3109    6252.0058    7787.3427    1374.3679    1678.9076   -922.54381   -2732.1767 
13020000    261.35383   -3852.9933   -3405.0418   -3852.9933            0    5028.4598    17.267856    20.339253    21.066744    7398.9627    3055.5298    5355.7811    6674.0686    1312.1396    146.11225   -1638.5747   -2862.4394 
13021000    243.96907   -3819.0991   -3400.9445   -3819.0991            0    3698.3868    17.342702    20.427412    21.158056    7495.5907    4561.5129    5063.0422    1470.6053    1750.7368   -922.03425    1014.0041   -2996.6535 
13022000    272.43174   -3819.1551   -3352.2164   -3819.1551            0    6120.7065    17.223756     20.28731    21.012942    7342.4194    8513.4437    5529.8257    4318.8501   -371.95308    1771.5534   -1168.2575    -2696.801 
13023000    257.24293   -3878.9212   -3438.0156   -3878.9212            0    3668.1408    17.314272    20.393925    21.123371    7458.7881    3770.6222     2974.571    4259.2291    1201.2585   -136.73692   -656.66857   -3038.9998 
13024000    274.94642   -3831.1376   -3359.8888   -3831.1376            0     4972.248    17.300476    20.377675     21.10654    7440.9729    7211.9525    3240.2348    4464.5567   -375.50738     1295.755   -651.87792   -2820.3056 
13025000    249.55054   -3814.0523   -3386.3312   -3814.0523            0    5739.8397     17.35863    20.446173    21.177488    7516.2626    6226.2741    6685.8515    4307.3935    784.54237   -785.66088   -39.532556   -2757.1473 
13026000    266.36839   -3830.5277   -3373.9814   -3830.5277            0    7382.6488    17.323724    20.405058    21.134902    7471.0103    7284.5772    7855.1374    7008.2317   -466.06984    737.92418    207.51712     -2569.59 
13027000    258.35773   -3833.5462   -3390.7299   -3833.5462            0    4614.7079    17.396538    20.490824    21.223736    7565.6121    5057.4383    5049.7187    3736.9665    2138.3535    578.37927    1575.8713   -2881.5583 
13028000    252.00749    -3840.579   -3408.6468    -3840.579            0    6700.1154    17.216792    20.279107    21.004446    7333.5168    8687.8193    6479.1918     4933.335   -130.34333   -1222.1049     1435.361   -2692.0573 
13029000     259.0854   -3898.0139   -3453.9504   -3898.0139            0    3800.0547    17.276158    20.349032    21.076872    7409.6392    5548.3133    2915.5702    2936.2805    1071.3427   -1315.1392    1056.4246    -3043.309 
13030000    268.69442   -3809.3689   -3348.8358   -3809.3689            0    4728.7887     17.24595    20.313451    21.040018    7370.8392     4297.346    5918.7926    3970.2277    228.62618    3.5398575    465.17538   -2840.5093 
13031000    280.54113   -3820.5246   -3339.6867   -3820.5246            0    4747.3458    17.220127    20.283035    21.008514    7337.7787    5425.2184    5091.3155    3725.5035    1363.1924    567.66494   -159.59627   -2831.6544 
13032000    273.63898   -3855.4542   -3386.4464   -3855.4542            0    4764.1406    17.321907    20.402918    21.132686    7468.6596    5639.8124    3029.3897    5623.2197    938.71847    1302.7847    1803.5354   -2867.5231 
13033000    257.38957   -3808.2091   -3367.0521   -3808.2091            0    5991.5948    17.199918    20.259231     20.98386    7311.9752    4530.1159     8732.413    4712.2554    1013.9927     1195.282    843.54839   -2728.1225 
13034000    270.27981   -3896.3533    -3433.103   -3896.3533            0    5255.6166    17.208598    20.269456     20.99445    7323.0511    5063.9929     5462.551    5240.3059    175.38156    158.60447   -364.59494   -2871.8074 
13035000    251.22897   -3863.3004   -3432.7025   -3863.3004            0     4326.471    17.188869    20.246217     20.97038    7297.8926    2520.2061    5964.7037    4494.5032   -551.17769   -1983.3854    521.48367   -2972.2264 
13036000    257.57913   -3862.5401   -3421.0583   -3862.5401            0    7762.7026    17.175153    20.230061    20.953646    7280.4363    7785.6613    7914.5635    7587.8829   -210.98139     822.2885     92.46907   -2596.8324 
13037000    260.34069   -3846.8823   -3400.6673   -3846.8823            0    3920.9258    17.298765     20.37566    21.104453    7438.7657    4127.4394    3384.6469    4250.6911    381.21212   -527.61832    742.57612   -2975.2988 
13038000    273.05138   -3870.2066   -3402.2059   -3870.2066            0    5013.3991    17.262703    20.333183    21.060457    7392.3403    5493.5875    3233.2388    6313.3711    1160.5561    296.39233    878.38553   -2861.7128 
13039000    266.15036   -3840.7881   -3384.6155   -3840.7881            0    7546.4469    17.182624    20.238861    20.962761    7289.9412    7846.1371    7159.2505     7633.953   -454.00523    328.07074   -455.75009   -2582.3051 
13040000    262.74421   -3852.7525   -3402.4179   -3852.7525            0    4638.4477    17.269401    20.341074    21.068629    7400.9496    6005.0553    3559.2216    4351.0661   -833.41139   -668.20615    -700.3233   -2901.7659 
13041000    261.30905   -3868.1071   -3420.2323   -3868.1071            0    4866.6557    17.241375    20.308062    21.034437    7364.9752    5747.8251    5426.7078    3425.4342     66.39071   -43.985587   -617.10462   -2897.5018 
13042000    259.74371   -3869.2445   -3424.0527   -3869.2445            0    4301.4989    17.213829    20.275617    21.000831    7329.7312    4869.0567    3394.0276    4641.4125   -489.37762    267.69868   -269.06083   -2964.2371 
13043000    265.03211   -3840.7533   -3386.4974   -3840.7533            0    4563.4807    17.230911    20.295738    21.021672     7351.574    5207.4694     2898.201    5584.7719    1176.3806    954.73676    1126.4213    -2897.223 
13044000    283.12327   -3878.3055   -3393.0419   -3878.3055            0     5361.186    17.215833    20.277977    21.003275    7332.2907    6450.7132    4055.3511    5577.4937   -227.30845   -726.54471    -814.2926   -2819.7491 
13045000    256.60938   -3904.4997     -3464.68   -3904.4997            0    4876.2222    17.242876     20.30983    21.036268    7366.8984    3620.9696    5171.9556    5835.7413    -792.3602   -542.12332    536.32474   -2940.7852 
13046000    270.71073   -3861.8028   -3397.8139   -3861.8028            0    5733.7699    17.251108    20.319526    21.046311    7377.4548    5312.1842    6621.2713    5267.8543    1005.2013     441.7839    808.45039   -2780.9026 
13047000     254.7112   -3874.7594   -3438.1931   -3874.7594            0     5349.345    17.259513    20.329426    21.056565     7388.243    5499.1199    5722.0531     4826.862    849.05998   -24.162163    280.04498   -2861.8015 
13048000    264.14132   -3885.8299   -3433.1007   -3885.8299            0    5575.8297    17.259037    20.328866    21.055985    7387.6325     8053.569    3747.0215    4926.8988    1265.6658    855.64868   -113.84903    -2832.355 
13049000    279.38156   -3888.6733   -3409.8229   -3888.6733            0    5771.1591      17.2603    20.330354    21.057526    7389.2547    6354.7899       5803.2    5155.4875    1261.8003    211.32728   -1477.8277   -2787.8956 
13050000    260.08278   -3882.3323   -3436.5593   -3882.3323            0    4271.5274    17.313778    20.393344    21.122769    7458.1508    6393.6749    2779.6624    3641.2448    1692.4609    441.05593   -1065.2179   -2971.9475 
13051000    274.60168   -3892.5755   -3421.9177   -3892.5755            0    4395.9764     17.26289    20.333404    21.060686    7392.5813    1479.9987    6514.0584     5193.872   -156.11114    -289.2867    1561.3893   -2947.9733 
13052000      262.178   -3888.0668   -3438.7027   -3888.0668            0    4756.4679    17.197645    20.256554    20.981087    7309.0768    4023.9902    5358.5721    4886.8413    -1150.882     397.7172   -1190.7252   -2931.6852 
13053000    262.99061   -3897.8368   -3447.0799   -3897.8368            0    6203.5449    17.171248    20.225462    20.948883    7275.4723    7137.6252      5576.87    5896.1396   -159.58066   -930.87684   -365.15854   -2788.8509 
13054000    262.52184   -3831.3693   -3381.4158   -3831.3693            0    5910.2052    17.252341    20.320979    21.047816    7379.0369    4957.6125    6281.6501    6491.3529    219.50057   -2298.3744    1086.6744    -2745.385 
13055000    258.92293   -3873.4075   -3429.6224   -3873.4075            0    6696.3234    17.327806    20.409867    21.139883     7476.293    6765.8041     6085.223     7237.943   -763.10297     231.8482    677.95909   -2699.4951 
13056000    263.86734   -3824.6831   -3372.4236   -3824.6831            0    4633.9433    17.333391    20.416445    21.146696     7483.524    4536.0517    4168.3911    5197.3871    1829.4947    1428.8747    452.37221   -2866.6772 
13057000    265.93945   -3870.8115   -3415.0004   -3870.8115            0    6754.9493    17.295364    20.371654    21.100304    7434.3795    6288.8134    6886.6558    7089.3787    538.61141     1010.592   -542.97572   -2682.6099 
13058000    267.28461   -3839.6889   -3381.5722   -3839.6889            0    5769.3754    17.302387    20.379926    21.108871     7443.439     6159.054    6376.8066    4772.2657   -1624.2861    148.40285   -150.20618   -2755.2781 
13059000    259.43457   -3839.5675   -3394.9055   -3839.5675            0    5398.7921    17.215493    20.277577    21.002862    7331.8575    5063.4716    4866.4671    6266.4375   -511.35357   -76.193244    1116.5705   -2817.6255 
13060000    255.71272   -3874.9204   -3436.6376   -3874.9204            0    5653.9971    17.238575    20.304765    21.031022    7361.3878    5146.2499    5426.5668    6389.1748    239.85706   -1173.6289    1171.4552   -2829.6341 
13061000    267.09745   -3869.8017   -3412.0058   -3869.8017            0     5235.014    17.328518    20.410706    21.140752    7477.2152    7899.3346    4599.0221    3206.6853     1457.951    1648.8453     188.7839   -2841.1406 
13062000    267.45684   -3850.1225   -3391.7106   -3850.1225            0    3065.2663    17.333917    20.417065    21.147338    7484.2058    2394.5462    4001.6855    2799.5671    607.11676    500.54986    1063.4503   -3057.1385 
13063000    271.68957    -3843.865   -3378.1983    -3843.865            0    4959.7352    17.380938    20.472449    21.204704    7545.2779    5586.4862     5184.173    4108.5463   -492.10954   -936.76993    758.99456   -2832.4284 
13064000    255.60707   -3857.2179   -3419.1162   -3857.2179            0    5873.4248    17.352192     20.43859    21.169633    7507.9021    6331.2998    6385.9096    4903.0649    1812.9675    774.21247   -234.37976   -2776.0052 
13065000    252.55461   -3892.0921   -3459.2221   -3892.0921            0    4212.8144     17.34679    20.432227    21.163043    7500.8921    6063.1703    4827.2746    1747.9983    429.45909   -1711.0106    794.08161   -2998.3705 
13066000     275.7349   -3869.7402     -3397.14   -3869.7402            0    5113.7498    17.306197    20.384414     21.11352    7448.3573    7255.9314    4559.1567    3526.1614    118.59724   -262.97736    1289.4039   -2841.6505 
13067000    252.14292   -3891.1931   -3459.0288   -3891.1931            0    4476.5906    17.270128    20.341929    21.069515    7401.8833    4763.4496    3525.0635    5141.2586    233.45918   -882.59854   -1700.8574   -2975.7859 
13068000    262.68301   -3883.1386   -3432.9089   -3883.1386            0    4809.1005    17.316515    20.396567    21.126108    7461.6875    5091.2759    6290.5437     3045.482    103.63939    1040.1858   -361.72827   -2909.5774 
13069000    250.23152   -3908.3691   -3479.4808   -3908.3691            0    6095.1898     17.24381    20.310931    21.037408    7368.0962    6608.5003     6307.047     5370.022   -785.05084   -578.28592   -433.19302   -2824.5154 
13070000    268.89989   -3889.7608   -3428.8756   -3889.7608            0    5129.6548    17.254535    20.323563    21.050493    7381.8527     4319.239    5118.7591    5950.9665   -792.96534   -1078.5494   -1075.2194   -2876.6337 
13071000    256.20835   -3861.4292   -3422.2969   -3861.4292            0    5215.5424    17.176034    20.231099    20.954721     7281.557    4992.3938    3698.3476     6955.886    247.07998   -1579.2002   -147.60677   -2868.4373 
13072000    281.40512   -3811.2439   -3328.9251   -3811.2439            0     5481.282    17.197402    20.256268     20.98079     7308.767    6227.8682    5890.8309    4325.1469   -878.19405   -968.54842   -765.22874   -2744.6705 
13073000    258.42328   -3856.9853   -3414.0566   -3856.9853            0    6064.1574    17.190614    20.248272    20.972508    7300.1154     5446.403    7239.9161     5506.153    730.37092   -425.97614   -1536.3131    -2768.438 
13074000    268.98556   -3863.5647   -3402.5326   -3863.5647            0    4369.6083    17.237444    20.303432    21.029641    7359.9383    3933.9644    3429.6143    5745.2464    85.635904   -786.03178   -567.53057   -2933.5113 
13075000    267.30597   -3868.8985   -3410.7452   -3868.8985            0    6166.8733    17.287714    20.362643     21.09097    7424.5183    5365.9782    7092.8985    6041.7433   -1264.2225    271.37934   -1170.8212   -2743.0024 
13076000    258.69712   -3857.5717   -3414.1737   -3857.5717            0    5415.9354    17.258627    20.328383    21.055485    7387.1059    6712.3238     5418.169    4117.3135    720.90774    479.83814    892.13912   -2830.6968 
13077000    249.36909   -3869.3244   -3441.9144   -3869.3244            0    3401.3007    17.315432    20.395292    21.124787    7460.2882    3860.8527    2845.3239    3497.7254   -778.45715   -835.71145    933.66815   -3071.8506 
13078000    279.38153   -3829.3536   -3350.5032   -3829.3536            0     4275.149    17.332363    20.415235    21.145443    7482.1936    4212.4452    3463.3947     5149.607    774.87387    135.39835   -1023.9584   -2883.9984 
13079000    261.46262   -3882.8319   -3434.6939   -3882.8319            0    5762.3435    17.240765    20.307344    21.033694    7364.1939      6265.38    6959.4922    4062.1582    893.90492    -1212.447    -391.6812   -2815.8228 
13080000    281.38524   -3859.8217    -3377.537   -3859.8217            0    3957.9382    17.268875    20.340454    21.067988    7400.2732      3822.24    2753.1112    5298.4635    -621.4023   -604.44564    407.56312    -2950.375 
13081000    265.72207   -3849.9345    -3394.496   -3849.9345            0     6175.027    17.242824     20.30977    21.036205    7366.8327    6418.3183    5381.8178    6724.9449    -985.7566   -1030.7097   -834.89835   -2731.0653 
13082000    257.62406    -3875.319   -3433.7602    -3875.319            0    4788.4391     17.29515    20.371403    21.100043    7434.1039    4039.9611     5481.915    4843.4412      478.124    -1117.704   -105.91055   -2914.6035 
13083000    270.33564   -3862.6118   -3399.2658   -3862.6118            0    6307.1027    17.330583    20.413137     21.14327    7479.8878    6239.7575    6410.5103    6271.0404   -1181.4851    1904.9831   -1326.9787   -2711.2461 
13084000    261.38581   -3803.4408   -3355.4345   -3803.4408            0    4349.5621    17.359847    20.447606    21.178972    7517.8427    3494.4161    2941.7289    6612.5414    -1047.694    418.97403    474.40284   -2878.5484 
13085000    264.47245   -3847.6589   -3394.3622   -3847.6589            0    5659.1394    17.234119    20.299515    21.025584    7355.6798    6368.8916     5472.912    5135.6145    -583.8989    1013.7651    1206.5408   -2787.2778 
13086000    262.90948   -3863.1309   -3412.5131   -3863.1309            0    5615.9901    17.280295    20.353905    21.081919    7414.9637    6389.2815    5404.6421    5054.0468   -823.87375   -112.56258   -1005.3576   -2805.2019 
13087000    260.18099   -3871.1771   -3425.2358   -3871.1771            0    5871.8875    17.246388    20.313967    21.040553    7371.4008    6346.8047      4291.95    6976.9079    997.92143   -747.20591   -155.55798   -2793.9825 
13088000    275.53045   -3840.6994   -3368.4496   -3840.6994            0    6675.1644    17.203061    20.262934    20.987695    7315.9851    7581.8451    8326.6156    4117.0324   -803.23663   -1447.7391     1265.293   -2656.2353 
13089000    251.47724   -3899.9387   -3468.9153   -3899.9387            0    5344.8606    17.207364    20.268002    20.992944    7321.4763    5323.7228    4495.9114    6214.9475    1144.6063    782.44316    -1547.296   -2898.2113 
13090000    254.26039    -3842.932   -3407.1384    -3842.932            0    7939.4581    17.195324     20.25382    20.978255    7306.1173    7716.4824     8500.365    7601.5267    608.94713    246.74796    1246.6728   -2561.1714 
13091000    269.39103   -3913.4282   -3451.7011   -3913.4282            0    4446.5259    17.271346    20.343364    21.071001    7403.4493    4660.7422    4387.5445    4291.2909    1089.7588     652.5955    673.75699   -2971.6021 
13092000    273.93848   -3867.0635   -3397.5423   -3867.0635            0    3338.8885    17.297547    20.374226    21.102967    7437.1947    2177.6741    3854.7114    3984.2801   -482.54696   -567.66233   -286.11592   -3035.3936 
13093000    265.13269   -3903.5204    -3449.092   -3903.5204            0    5471.0877    17.257418    20.326959     21.05401    7385.5536    4017.7134    6463.8014    5931.7481   -1518.5565    76.529082   -486.32284   -2859.7972 
13094000    255.29248    -3872.775   -3435.2125    -3872.775            0    5062.1625    17.335907    20.419409    21.149766    7486.7839    5858.9429    5580.9204    3746.6243   -117.56856    -1059.917   -337.46422   -2882.4898 
13095000    256.62896   -3877.8885   -3438.0353   -3877.8885            0    5294.5975    17.234534    20.300005    21.026092    7356.2121    5935.9027    6147.2565    3800.6331    555.99324   -511.59778   -874.25541    -2870.016 
13096000     266.8863   -3869.6803   -3412.2463   -3869.6803            0    4310.8402    17.324008    20.405393     21.13525    7471.3784    3898.5489    4998.7806    4035.1911    373.77003   -6.5850999    1249.9804   -2942.5269 
13097000    259.17586   -3867.2786     -3423.06   -3867.2786            0    5325.7306    17.361098     20.44908    21.180499    7519.4685    4388.8634    4874.4818    6713.8467    1849.5493     -268.476   -359.83094   -2839.0205 
13098000    253.76078    -3889.048   -3454.1107    -3889.048            0    5280.7922    17.292746     20.36857     21.09711    7431.0035    5246.7024    5427.6948    5167.9795   -282.49726   -1620.0131   -146.44462   -2881.8124 
13099000    270.61099   -3878.3111   -3414.4931   -3878.3111            0    5544.9813    17.306405    20.384659    21.113773    7448.6256    7252.4626    4953.3223     4429.159    1064.7524   -193.95209    389.39647   -2812.1387 
13100000    244.08508   -3849.5447   -3431.1912   -3849.5447            0    5400.2588    17.323688    20.405016    21.134859    7470.9644     5491.416    5968.2291    4741.1312   -338.52035    1156.8628    364.95082   -2842.7987 
13101000    259.45454   -3906.1546   -3461.4584   -3906.1546            0    4554.4348      17.3341     20.41728    21.147561    7484.4429    4965.5928    4659.9576     4037.754   -1041.9993   -811.97672    -1086.354   -2964.3285 
13102000    272.50879   -3897.1708   -3430.1001   -3897.1708            0     5136.309    17.302642    20.380227    21.109183    7443.7684    4084.6812    4893.3305    6430.9152    159.05806    148.91959    68.576543   -2872.5038 
13103000    274.08447   -3889.8218   -3420.0504   -3889.8218            0    5529.0061    17.248673    20.316658    21.043341    7374.3312    5580.4681    5589.2354    5417.3147   -29.828636    388.32251   -488.95634   -2825.4221 
13104000    257.46748   -3858.1627   -3416.8723   -3858.1627            0    5551.9207    17.232987    20.298182    21.024203    7354.2306     6066.466    5767.1672    4822.1288    245.24425    737.72799   -1243.5959   -2821.4071 
13105000    264.38264   -3849.2558    -3396.113   -3849.2558            0    2880.8012    17.279061    20.352452    21.080414    7413.3757     2466.771    2689.7684    3485.8642    1326.4669      938.253   -1391.4592   -3084.6509 
13106000    251.81642   -3873.2827    -3441.678   -3873.2827            0    4036.9302    17.277522    20.350639    21.078536    7411.3946    2983.8495    4818.9742    4307.9668    122.00275   -496.52816   -799.88774    -3005.336 
13107000    252.68069   -3877.6073   -3444.5213   -3877.6073            0      4712.56    17.218136     20.28069    21.006086    7335.2346    4833.2961    4070.1218     5234.262    -889.1467   -264.73498   -195.34715   -2940.3864 
13108000    268.12046   -3872.2416   -3412.6923   -3872.2416            0    5075.7273    17.260866    20.331021    21.058217    7389.9815    5092.3287    4104.3673    6030.4858   -703.83443   -1838.7996   -661.36463   -2865.6542 
13109000     264.7195    -3882.408   -3428.6879    -3882.408            0    4597.3912    17.272672    20.344926     21.07262    7405.1556    5294.7342    4014.4116    4483.0278    386.14297    2041.8624    1251.3281   -2932.1853 
13110000    259.62266    -3845.202   -3400.2177    -3845.202            0    5426.1715    17.221418    20.284555     21.01009    7339.4295    5913.2604    5795.3842    4569.8699   -40.529799   -2378.0986    1418.3911   -2819.4108 
13111000    257.95222   -3824.3997   -3382.2785   -3824.3997            0    4261.5391    17.293645     20.36963    21.098207    7432.1632    4086.4435    3809.2475    4888.9261   -76.382842   -95.803916    1336.1039   -2920.3682 
13112000    263.43102   -3863.1805   -3411.6688   -3863.1805            0    4009.1884    17.278598    20.351906    21.079849    7412.7798    4593.4349     5325.772    2108.3583    911.14816   -1033.6877   -780.29726   -2978.2443 
13113000    262.17132   -3870.0741   -3420.7215   -3870.0741            0    2367.6769      17.3297    20.412098    21.142194    7478.7451    1845.6062    1689.4017    3568.0228   -487.85316   -115.42922    2502.6216   -3162.4794 
13114000     278.3344   -3844.7067   -3367.6511   -3844.7067            0    6094.3595    17.274619     20.34722    21.074995    7407.6603    7412.0027    4824.1354    6046.9405   -469.43678    707.96184    402.80255   -2709.2584 
13115000    271.48175   -3853.7446   -3388.4342   -3853.7446            0    3504.0004    17.431373    20.531855    21.266235    7611.1521    4697.7393    4008.6252    1805.6367   -116.75937   -493.64295    201.94377   -2999.4872 
13116000    263.64885    -3888.054   -3436.1688    -3888.054            0    5374.6211    17.311786    20.390997    21.120338    7455.5761    5923.9577    6233.1936    3966.7121    545.37677   -1461.2134    250.03419   -2851.7759 
13117000    258.07814   -3896.4477   -3454.1106   -3896.4477            0    5404.9614    17.304246    20.382117     21.11114    7445.8394    4403.2034    5198.4242    6613.2566   -310.18418   -477.31031    -1648.178   -2867.1862 
13118000    257.36254   -3908.2588   -3467.1482   -3908.2588            0    5334.6221     17.33716    20.420885    21.151295    7488.4078    6578.1237    5376.1941    4049.5487   -719.08021   -655.58757    1191.8493   -2884.5502 
13119000    266.45449   -3875.3099    -3418.616   -3875.3099            0    5764.5525    17.284038    20.358313    21.086486     7419.783    5835.5419    5263.9208    6194.1948    1200.3393   -1894.6564   -135.51638   -2794.8342 
13120000    258.64579   -3858.4798   -3415.1697   -3858.4798            0    4886.3304    17.300697    20.377936     21.10681     7441.259    3837.0591    3980.9435    6840.9886   -50.791155    607.24434    336.91388   -2884.8899 
13121000     249.4005   -3858.6887   -3431.2248   -3858.6887            0    6827.8188    17.220744    20.283762    21.009267    7338.5677    6038.1819    7736.8779    6708.3965    -569.7986    566.29453    2150.2223   -2700.4742 
13122000    266.44517    -3835.068   -3378.3901    -3835.068            0     6368.431    17.203326    20.263246    20.988018    7316.3227    6073.2094    5791.8181    7240.2654   -707.68981   -449.68746   -100.53018   -2698.8717 
13123000    255.67731   -3869.8598   -3431.6376   -3869.8598            0    5816.0668     17.19526    20.253745    20.978177    7306.0359     8864.242    5324.8554    3259.1031   -1261.7568   -182.72216   -514.49417   -2811.9297 
13124000    283.29682   -3854.3192   -3368.7582   -3854.3192            0    6816.8142    17.225821    20.289741    21.015461    7345.0602    5252.7866    6399.9497    8797.7062   -194.77671    635.28508    577.83567   -2638.5399 
13125000    278.13928   -3835.5128   -3358.7916   -3835.5128            0    5633.0139    17.197944    20.256906    20.981451    7309.4577    5635.8205    5306.5072    5956.7139    420.98968   -2559.4116    595.45085    -2758.307 
13126000    262.71992   -3875.3541   -3425.0612   -3875.3541            0    6805.1699    17.230974    20.295811    21.021748    7351.6537    8177.8686    6248.5303    5989.1108    866.53558    869.80142    61.046804   -2695.4358 
13127000    267.41056   -3859.2692   -3400.9367   -3859.2692            0    5235.0146    17.186276    20.243163    20.967217     7294.591    3899.7663    6985.7379    4819.5398    658.91633    1535.7568   -633.47437   -2844.0142 
13128000    274.18843   -3896.8117   -3426.8621   -3896.8117            0    6035.3917    17.171223    20.225433    20.948852    7275.4404    5857.0537    4313.7754     7935.346    354.99051   -589.43968     750.4859   -2786.4779 
13129000    271.18009   -3857.7956   -3393.0022   -3857.7956            0    4043.5427    17.253302    20.322111    21.048988    7380.2702    5173.8633    1848.2812    5108.4836    358.31252     67.96668    380.79638   -2957.7809 
13130000    258.62564   -3892.0776   -3448.8021   -3892.0776            0    3880.6558    17.236707    20.302564    21.028742    7358.9944    3592.5782    3682.1614    4367.2279    1153.9967   -699.62198   -299.49477   -3032.3169 
13131000     254.1026   -3851.9425   -3416.4193   -3851.9425            0     4495.967    17.194817    20.253223    20.977636    7305.4714    5364.9985    5163.9773    2958.9253    282.99666    1710.4073    1474.7887   -2937.4064 
13132000    260.47818   -3817.9271   -3371.4764   -3817.9271            0    5617.4058    17.170571    20.224665    20.948057    7274.6115    5208.6433     6831.454    4812.1203    1311.1256   -852.12019   -1471.5609   -2775.5104 
13133000     259.6225   -3852.2555   -3407.2714   -3852.2555            0    5312.2661    17.231265    20.296154    21.022103     7352.027    4207.1017    6365.9981    5363.6986    579.64271   -125.06767    451.88914   -2837.6808 
13134000    256.60368   -3871.3864   -3431.5765   -3871.3864            0    4535.0465    17.159035    20.211077    20.933983     7259.959      3789.21    6123.9442    3691.9855   -5.9820971    -113.9375   -1439.8474     -2951.41 
13135000    256.62591   -3889.3627   -3449.5146   -3889.3627            0    5017.7113    17.240472    20.306999    21.033336    7363.8185    4484.2504    6591.7634    3977.1199    143.13336    756.91276    467.72536   -2910.6439 
13136000    261.48048   -3833.8226    -3385.654   -3833.8226            0    5794.5329    17.219087     20.28181    21.007246    7336.4494    5614.5369    5180.1661    6588.8957   -644.03713   -471.69349    886.54705   -2765.6704 
13137000    259.59272   -3882.5687   -3437.6357   -3882.5687            0    6165.8737    17.269328    20.340987     21.06854    7400.8552     5224.019    7681.2111    5592.3909    48.268919    1327.8259   -562.63582    -2772.129 
13138000    274.56583   -3883.2612   -3412.6647   -3883.2612            0    6945.5112     17.23212    20.297161    21.023146    7353.1214    7687.9466    6789.8024    6358.7848   -469.67746   -754.30787   -1237.1384   -2667.8439 
13139000    249.31594   -3878.9283   -3451.6093   -3878.9283            0    4122.7767    17.314191     20.39383    21.123273     7458.684    2529.3241    5814.4332    4024.5728    405.87605   -356.59455   -278.62973   -3003.1449 
13140000    263.95304   -3858.2634   -3405.8569   -3858.2634            0    3584.5679    17.326287    20.408078     21.13803    7474.3277    3186.0294    3724.2208    3843.4534     30.55534     610.9765   -365.94597   -3015.1197 
13141000    265.09251   -3884.5047   -3430.1452   -3884.5047            0    5975.7923      17.2281    20.292427    21.018242    7347.9768    4921.5836    7256.6288    5749.1644    221.54742   -118.31899    949.30622   -2789.7631 
13142000    268.09728   -3878.7686    -3419.259   -3878.7686            0    5657.7563     17.27317    20.345513    21.073228    7405.7963    7767.5113    5088.7389    4117.0187    133.13431   -18.418044   -1320.5678   -2808.1877 
13143000    253.63186   -3850.7164   -3416.0001   -3850.7164            0    5103.8186    17.288979    20.364134    21.092514    7426.1489    6188.7557    5795.0179    3327.6821    362.92791   -968.70921     387.9392   -2863.2424 
13144000    252.70011   -3836.9439   -3403.8246   -3836.9439            0    4339.5391    17.222208    20.285487    21.011054    7340.4402    3768.7392    5352.1937    3897.6843   -489.85648    721.90292   -38.485291   -2939.2648 
13145000    264.99244   -3812.0873   -3357.8993   -3812.0873            0    6193.6828    17.202953    20.262806    20.987563    7315.8469    8260.2822    4306.0248    6014.7415   -602.67096    751.31736   -207.66844   -2697.0697 
13146000    272.65816   -3913.0855   -3445.7587   -3913.0855            0    6164.5011    17.231617    20.296568    21.022532    7352.4769    4627.3027    6597.3062    7268.8944    384.20671    1944.5893     270.6849   -2784.7495 
13147000    253.19552    -3865.553   -3431.5845    -3865.553            0    4696.7053     17.22652    20.290565    21.016314    7345.9546    4834.9298     3399.556    5855.6301   -1088.3915    727.94631   -481.02553   -2928.4114 
13148000    259.76086   -3878.5942    -3433.373   -3878.5942            0    5857.9924    17.166782    20.220201    20.943433    7269.7961    4291.4705    7412.1699    5870.3369     571.2133    186.17529    -658.0856   -2812.2939 
13149000     283.1154   -3839.7469   -3354.4968   -3839.7469            0    5536.3953    17.226119    20.290092    21.015824    7345.4412    2694.4418    6869.1089    7045.6351    1493.4835     1260.646    432.84887   -2761.4064 
13150000    255.71978   -3847.0016   -3408.7067   -3847.0016            0    4952.0052    17.277497    20.350609    21.078506    7411.3624    5121.7721    4897.3623    4836.8812    226.26701    241.91451   -1629.8424   -2873.4587 
13151000     271.7078   -3834.8446   -3369.1467   -3834.8446            0    3713.3321    17.357576    20.444932    21.176203    7514.8938    4057.8701     3206.556      3875.57   -817.00008    147.96406    -867.9072   -2962.1766 
13152000    246.74153   -3853.2274   -3430.3208   -3853.2274            0    4728.7192    17.320089    20.400777    21.130468    7466.3092    4680.0377    4279.9072    5226.2129    583.02352    190.88805    263.06375   -2915.4179 
13153000    262.19305   -3850.6387   -3401.2488   -3850.6387            0     5401.286    17.330473    20.413008    21.143136    7479.7455    5734.6216    6005.7727    4463.4637    -488.3776    1038.2553    192.16212   -2812.0527 
13154000    256.58937   -3868.6871   -3428.9018   -3868.6871            0    5318.0468    17.264518    20.335322    21.062672    7394.6729    4593.5364    5310.3807    6050.2233    140.97745   -1764.7264    1569.8508   -2855.3838 
13155000    262.87301   -3878.8189   -3428.2636   -3878.8189            0    5419.7831    17.335292    20.418684    21.149015    7485.9866    6456.2211    4914.6512    4888.4771    320.46247    229.09208   -253.84319   -2836.5564 
13156000    235.64966   -3873.3523   -3469.4568   -3873.3523            0    4422.7035    17.286877    20.361658     21.08995    7423.4407    4393.3525    5342.6885    3532.0695   -872.01595    1549.7316    971.22155   -2990.6405 
13157000    249.57228   -3847.1256   -3419.3673   -3847.1256            0    5983.7183    17.273966     20.34645    21.074198    7406.8197    5855.5976    5459.7237    6635.8335   -223.38216    186.15156    1281.2794   -2773.0008 
13158000    265.52225   -3873.8864   -3418.7903   -3873.8864            0    5772.2994    17.182263    20.238437    20.962321    7289.4827    4857.9366    6939.3046     5519.657    434.28642   -1060.6849    2168.8401   -2805.1393 
13159000    259.90775   -3878.0532   -3432.5802   -3878.0532            0    5801.1798    17.228666    20.293093    21.018933     7348.701    5969.7139     5633.758    5800.0677    634.48962    452.87835   -2272.5551   -2810.8488 
13160000    276.91501   -3850.3559    -3375.733   -3850.3559            0    6542.2254    17.265172    20.336092    21.063469    7395.5131    5488.6783    6259.0237    7878.9742    733.53793    324.83363    623.22642   -2670.1149 
13161000    258.25107   -3902.0889   -3459.4554   -3902.0889            0    2643.0952    17.328061    20.410167    21.140194    7476.6228    2414.1659    3978.5085    1536.6113    934.42804    635.08829    620.12361   -3171.2553 
13162000    260.06492   -3868.4402   -3422.6978   -3868.4402            0    4859.6111    17.256924    20.326378    21.053408    7384.9199    5412.6772     3258.762     5907.394    969.08628   -545.60548   -436.04385   -2899.3105 
13163000    273.08597   -3896.9305   -3428.8705   -3896.9305            0    4662.4262    17.294478    20.370611    21.099223    7433.2373     6828.383     3743.278    3415.6177    1144.9035   -838.12267   -469.27827   -2923.4348 
13164000    258.27919   -3884.6654   -3441.9837   -3884.6654            0    6233.0208    17.152487    20.203364    20.925994    7251.6512    5829.7185    8128.1401     4741.204    843.75642   -665.68221   -44.777658   -2782.7926 
13165000    261.32654    -3869.742   -3421.8372    -3869.742            0    5954.9163    17.116725    20.161242    20.882365    7206.3881    7308.2199    5327.6656    5228.8635    178.07129   -34.919399    212.07113   -2795.9888 
13166000    267.35784   -3844.7341   -3386.4919   -3844.7341            0    7472.2193    17.144655    20.194139     20.91644    7241.7224    7353.2436    8163.3018    6900.1126   -123.45477    433.78136    99.910503   -2597.3277 
13167000    236.75133   -3843.9844   -3438.2007   -3843.9844            0     5237.468    17.244592    20.311852    21.038362    7369.0986    5164.7035    5691.6957    4856.0047   -544.17909    1671.8099   -1041.4272   -2875.3261 
13168000    276.64926   -3837.7106   -3363.5432   -3837.7106            0    5072.2516    17.230649    20.295429    21.021352    7351.2382    4062.9003     3555.628    7598.2265    567.92998    973.87654    2051.6711   -2819.7457 
13169000    279.42231   -3841.1638   -3362.2436   -3841.1638            0    3546.7209    17.336337    20.419916    21.150291    7487.3415    3795.7804    3258.9942    3585.3881   -400.66833    1743.6763    457.35338   -2974.9587 
13170000    262.39091    -3815.921   -3366.1919    -3815.921            0    5158.9349    17.335371    20.418777    21.149112    7486.0888    5035.4855    4467.2148    5974.1044   -1174.8784    509.74883    38.081481   -2802.9553 
13171000    256.72133   -3832.7219   -3392.7103   -3832.7219            0    5981.4191    17.259466    20.329372    21.056509    7388.1836    4804.0578    6636.2785    6503.9211   -243.05531    142.54895     130.3539   -2748.2179 
13172000    270.39467   -3848.4031   -3384.9558   -3848.4031            0      5032.74    17.262236    20.332634    21.059888    7391.7412     5072.136    6026.4177    3999.6662   -502.03021    372.17892   -498.57717   -2842.4216 
13173000     263.1347   -3847.6308    -3396.627   -3847.6308            0    6153.2247    17.263612    20.334255    21.061566    7393.5088    5898.7012    5884.5705    6676.4024    321.04552   -927.59433    1553.0719   -2733.1448 
13174000    256.26575   -3867.7182   -3428.4875   -3867.7182            0    6300.1654    17.212338    20.273861    20.999012    7327.8266    6649.4609     6908.393    5342.6423    1838.8772    884.50212   -871.19305   -2755.1961 
13175000    274.17205   -3870.0934   -3400.1718   -3870.0934            0    5185.6593    17.180451    20.236302    20.960111    7287.1766    6218.7967    4688.9604    4649.2208    1884.6357    747.52626   -32.676633   -2849.0607 
13176000    265.70691   -3868.5397   -3413.1272   -3868.5397            0    3482.5161    17.274786    20.347416    21.075199    7407.8749     2473.804    4469.3982    3504.3462   -490.43701    301.84369   -620.54943   -3036.8892 
13177000    281.85395   -3851.4884   -3368.4003   -3851.4884            0     6597.794    17.245702    20.313159    21.039716    7370.5218    7991.2833    6359.2651    5442.8334   -808.32877   -27.995323   -192.55288   -2659.1936 
13178000    263.97772   -3839.4788     -3387.03   -3839.4788            0    5544.9503    17.285569    20.360117    21.088354     7421.755    6051.1347    4837.7527    5745.9636   -480.73355   -1197.1656    197.09933   -2786.8519 
13179000    251.81656   -3846.9105   -3415.3055   -3846.9105            0    4883.4446    17.216461    20.278717    21.004042    7333.0939    5081.3745     5106.558    4462.4013     414.7642    137.59844    109.11958   -2893.0423 
13180000     264.1529    -3864.946   -3412.1969    -3864.946            0    4222.8236     17.23774    20.303781    21.030003    7360.3178    3834.9303     4305.508    4528.0324   -439.99776   -468.63377   -1017.8894   -2958.9077 
13181000    266.57583    -3858.334   -3401.4322    -3858.334            0    6717.4546    17.131339    20.178455    20.900194    7224.8619    5780.7291    6806.1725    7565.4623    425.88078    534.99775    617.66927   -2693.6328 
13182000    283.82416   -3869.0217   -3382.5568   -3869.0217            0    6055.1322    17.165073    20.218189    20.941349    7267.6259    6780.7724    5728.2988    5656.3254    301.52873   -1009.2934   -369.76536   -2740.7681 
13183000     260.5031   -3884.1538   -3437.6604   -3884.1538            0    3192.0086    17.278577    20.351881    21.079824    7412.7526    2881.7444    1745.4725    4948.8089   -964.57901   -304.60739    223.54602   -3092.5807 
13184000    269.00189   -3887.2504   -3426.1904   -3887.2504            0    6467.0411    17.193361    20.251509    20.975861    7303.6166    5537.0827    6037.3419    7826.6987    678.62855    685.10272    728.62723   -2737.3486 
13185000     265.0037   -3862.8997   -3408.6924   -3862.8997            0     4571.721    17.252654    20.321348    21.048198    7379.4388     4645.102    2953.6587    6116.4021     653.8146    1358.0865   -1587.1039   -2916.6768 
13186000    260.05365   -3800.4491    -3354.726   -3800.4491            0    5592.6245    17.259711    20.329659    21.056807    7388.4972    6818.7186    3104.8037    6854.3512     639.5402   -957.31484    1061.6299   -2752.1003 
13187000    254.81256   -3817.9141   -3381.1741   -3817.9141            0    6316.5167    17.213752    20.275526    21.000738    7329.6331    6734.4379     4660.382    7554.7301    1693.2865    -313.6365   -1005.9116   -2705.9689 
13188000    260.84004   -3806.8292   -3359.7583   -3806.8292            0    7570.9984    17.217139    20.279516     21.00487    7333.9604     8655.763    6052.5995    8004.6326   -1321.8268   -2097.6067    461.27886   -2549.9773 
13189000     259.7731     -3866.31   -3421.0678     -3866.31            0    6348.4293    17.233575    20.298875    21.024921    7354.9834    7040.9781    6778.7346    5225.5752   -711.92076    1003.8214   -223.02137   -2740.1042 
13190000      258.427   -3807.5091    -3364.574   -3807.5091            0    5158.9682    17.325117    20.406699    21.136602    7472.8126    4620.2894    5472.0905    5384.5247   -862.90171   -962.56074    431.47795   -2802.3326 
13191000    264.58631    -3863.042   -3409.5502    -3863.042            0    4513.2082    17.339131    20.423206      21.1537    7490.9621    3527.8394    5583.0845    4428.7007   -507.09239    2154.2858    1742.4401   -2916.4912 
13192000    252.31026   -3827.8922   -3395.4411   -3827.8922            0    3983.1153    17.337107    20.420822    21.151231    7488.3392    5717.0598    2475.3274    3756.9588    307.59136     -86.6406   -1164.1563    -2960.446 
13193000    259.18917   -3842.3717   -3398.1304   -3842.3717            0    6939.9324    17.238652    20.304855    21.031115    7361.4862    5520.6733    8548.5164    6750.6075    1027.8311    208.31145   -835.55962   -2653.0611 
13194000    279.87313   -3865.8241   -3386.1312   -3865.8241            0    7187.9096    17.245174    20.312537    21.039072    7369.8448     7270.464    6872.5251    7420.7397    728.19537    320.54586    63.555908    -2613.563 
13195000    251.27317   -3848.3597   -3417.6861   -3848.3597            0    5261.5093    17.266976    20.338217     21.06567    7397.8315     5413.417    3693.0614    6678.0496   -448.86511   -339.49243    357.68704    -2850.023 
13196000    261.33393   -3845.7835   -3397.8661   -3845.7835            0    4107.0504    17.357615    20.444977    21.176249    7514.9433    3678.5384    4279.0566    4363.5561   -735.24852   -883.36004   -829.91821   -2947.7426 
13197000    257.92415   -3846.8149   -3404.7417   -3846.8149            0     3364.689     17.33346    20.416526    21.146781    7483.6139    2348.0688    4456.3445    3289.6538    121.45379    110.44571     321.8795   -3037.5167 
13198000    261.11438   -3850.6342   -3403.0931   -3850.6342            0    4374.5048    17.341532    20.426034    21.156629    7494.0744    3854.3079    4252.8436     5016.363    1120.2905   -423.50484   -1573.1266   -2924.9886 
13199000    276.12377   -3876.8012   -3403.5345   -3876.8012            0    5135.2542     17.33834    20.422274    21.152734    7489.9363    5318.1651    7206.4123    2881.1852     773.2826    1361.7869    -977.8768   -2842.5951 
13200000    275.67473   -3900.4578   -3427.9607   -3900.4578            0    3225.2143    17.369031    20.458424    21.190177    7529.7808    1461.0469    4406.0728    3808.5231   -161.11335    1982.6976    580.18632   -3073.7866 
13201000    266.05964   -3878.3404   -3422.3233   -3878.3404            0    5496.3483    17.255994    20.325282    21.052273    7383.7256     4369.989    6845.6426    5273.4133    480.19966    710.79034     -644.188   -2830.4542 
13202000    260.28004   -3861.2467   -3415.1356   -3861.2467            0    4728.9868    17.328938      20.4112    21.141264    7477.7582    4485.3287    4246.0484    5455.5833   -982.06907   -638.22894     1685.376   -2899.4139 
13203000    260.16685   -3877.0534   -3431.1363   -3877.0534            0    6559.9125    17.328776    20.411009    21.141066    7477.5485    6092.9843     7211.375    6375.3782   -681.30372    315.43209     1481.711   -2715.7623 
13204000    254.64247     -3863.13   -3426.6815     -3863.13            0    4042.7522     17.37182    20.461709    21.193579    7533.4087    4915.4165     2949.409    4263.4311    415.71042    231.88748    1448.6347   -2982.5163 
13205000    256.52076   -3905.7082   -3466.0403   -3905.7082            0    4733.6072    17.352312    20.438732     21.16978    7508.0585    5120.1554    4684.2111    4396.4553   -1101.0235      511.651   -221.71143    -2947.723 
13206000    254.19524   -3877.9669    -3442.285   -3877.9669            0    5176.9772    17.292208    20.367937    21.096454    7430.3108    4976.3013    3657.2539    6897.3763    112.87911   -589.79261    425.24673   -2881.2898 
13207000    260.84483   -3897.4559   -3450.3768   -3897.4559            0    5338.6208    17.323556    20.404861    21.134698    7470.7937    5990.2289    5435.5585    4590.0751   -62.104987   -1052.1618    404.88819   -2868.7134 
13208000    271.32563   -3856.1508    -3391.108   -3856.1508            0    4622.8879    17.298382    20.375209    21.103985    7438.2714    3918.4846    4185.6577    5764.5215    1105.8394    689.82213    506.29847   -2889.6191 
13209000    262.54206   -3863.5975   -3413.6094   -3863.5975            0    5853.8772    17.322023    20.403055    21.132827    7468.8097    7066.2794    4522.3921    5972.9601    917.98272    94.536267   -594.56395   -2775.9762 
13210000    270.17607   -3837.9824   -3374.9098   -3837.9824            0    5388.3895    17.347704    20.433304    21.164159     7502.079    6418.4013     5005.586    4741.1813    532.47673    1292.1491    1713.9033   -2785.3654 
13211000    260.97386   -3864.9013    -3417.601   -3864.9013            0    5427.9305    17.314802     20.39455    21.124018    7459.4734    5487.3088    5733.7936     5062.689    823.28049    -560.0769    977.38721   -2827.1032 
13212000    266.07353   -3849.1014   -3393.0604   -3849.1014            0    4357.3109    17.271898    20.344014    21.071675    7404.1595     4960.125    5229.1442    2882.6635   -32.767007   -2256.4925     499.9403    -2922.549 
13213000    274.33678   -3839.6382   -3369.4343   -3839.6382            0    4075.9272    17.327389    20.409375    21.139374    7475.7533    2626.5996    5440.5502    4160.6318   -43.399627    118.42584    782.78497   -2925.0515 
13214000    262.83648   -3879.9489   -3429.4561   -3879.9489            0    4607.6457    17.302669    20.380258    21.109216     7443.803    4944.4506    4690.7345     4187.752   -2873.6544   -1240.9974   -287.44832   -2929.2491 
13215000    257.46531   -3907.0508    -3465.764   -3907.0508            0    4149.2511    17.210964    20.272242    20.997336    7326.0716    2936.5288    4675.5996    4835.6249    471.29252    -319.9905   -20.301709   -3022.4446 
13216000      260.532   -3866.1412   -3419.5983   -3866.1412            0    4056.9941    17.301822    20.379261    21.108183    7442.7104    3454.9801    4654.9743    4061.0278    65.638628   -2015.0563    412.19376   -2979.2347 
13217000    264.50849   -3890.2264   -3436.8679   -3890.2264            0    4991.9764    17.286629    20.361365    21.089647    7423.1206     4167.157    6040.1193    4768.6529    1323.8351   -1423.3852   -618.56086   -2896.4435 
13218000    280.95072   -3909.2664   -3427.7265   -3909.2664            0    4482.9375    17.342926    20.427676    21.158329    7495.8814    4630.2916    4131.4943    4687.0265    1387.2721    471.19115   -80.784804   -2937.6529 
13219000    271.31064   -3877.3774   -3412.3602   -3877.3774            0    5577.5321    17.260489    20.330577    21.057757    7389.4974    5411.4921     5598.162    5722.9422   -992.30233    574.59755    873.53766   -2811.2794 
13220000    256.53978   -3858.7085   -3419.0081   -3858.7085            0    5476.3134    17.201718    20.261352    20.986056    7314.2717    5425.3479    5536.3418    5467.2506   -217.01221   -28.496566   -215.46483   -2834.8435 
13221000    265.03278   -3844.1588   -3389.9017   -3844.1588            0     4985.384    17.316031    20.395997    21.125517    7461.0615    4121.7998    4927.9382    5906.4141    -555.0035   -140.41856   -1319.2763   -2847.4324 
13222000    264.36576   -3882.6352   -3429.5213   -3882.6352            0    4404.4049    17.282034    20.355954    21.084042    7417.2034    3890.5331    4931.3841    4391.2976   -226.84325   -267.12001    538.48031   -2953.0867 
13223000    256.40189   -3856.9129   -3417.4489   -3856.9129            0    5229.1284    17.305641    20.383759    21.112842    7447.6397    4935.1831    4777.5795    5974.6227    380.11712   -536.73934    674.17023   -2849.4809 
13224000    260.65611    -3835.107   -3388.3514    -3835.107            0    4275.5711    17.320033    20.400711    21.130399    7466.2359    3102.4392    3625.1266    6099.1475    -1417.501    1218.2462    1325.9553   -2922.7956 
13225000    260.27901   -3868.4047   -3422.2954   -3868.4047            0    6708.9345    17.215748    20.277877    21.003172    7332.1829    8416.1876    4295.3215    7415.2944   -714.94371   -588.72211   -413.07155   -2704.8932 
13226000    257.68161    -3831.878   -3390.2206    -3831.878            0    4899.4402    17.207641    20.268328    20.993282    7321.8291    5437.1657    4883.2509     4377.904   -1269.8274   -866.38793    746.66154   -2867.0516 
13227000    258.61144   -3763.1307   -3319.8795   -3763.1307            0    5048.5503    17.343397    20.428231    21.158904    7496.4925    5868.6137    3865.3248    5411.7126   -1413.1553    556.17877    1630.5769   -2767.9283 
13228000    261.51483   -3810.6436   -3362.4161   -3810.6436            0    5325.7352    17.311273    20.390392    21.119712    7454.9129    5572.4017    6215.6821    4189.1219    1200.7529   -312.98055    64.881497   -2783.3902 
13229000    260.78604   -3834.4211   -3387.4427   -3834.4211            0    6113.7949    17.312382    20.391699    21.121065    7456.3459    6846.7294    5334.8797    6159.7755    833.34489    635.61546   -193.53966   -2722.6094 
13230000    271.53303   -3816.5391   -3351.1408   -3816.5391            0    6169.5651    17.245338    20.312731    21.039273    7370.0553    5756.0996    6542.9329    6209.6629   -1255.6511    280.27131   -292.93598   -2688.0069 
13231000    266.84426   -3832.1163   -3374.7544   -3832.1163            0     6772.277    17.225428    20.289279    21.014982    7344.5575    7213.3662    6145.2548    6958.2099   -1043.7664    335.38541   -160.54922   -2649.3566 
13232000    271.94005   -3861.7285   -3395.6325   -3861.7285            0    5270.7513    17.228871    20.293334    21.019182    7348.9627    4720.8288    6622.4485    4468.9764   -312.00282    279.41836   -1162.2892   -2830.7288 
13233000    269.16264   -3883.3765    -3422.041   -3883.3765            0    4019.8493      17.2865    20.361214    21.089489    7422.9544    3732.5743    2776.3367    5550.6368   -289.12917    123.80014   0.80558061   -2986.8675 
13234000    271.19764   -3864.5913   -3399.7679   -3864.5913            0    5976.5074    17.279307    20.352741    21.080714     7413.692     5738.961    5707.2174    6483.3439   -1133.4561   -435.31935   -112.79147   -2753.5814 
13235000    248.81615   -3878.7903   -3452.3279   -3878.7903            0    4631.0345     17.26947    20.341154    21.068713    7401.0373    4349.5815    4861.4529     4682.069     35.93889    -128.0329    1587.5117   -2952.4701 
13236000    255.82799   -3880.5604     -3442.08   -3880.5604            0    4791.8372    17.349914    20.435907    21.166854    7504.9455    4313.5101    4806.3871    5255.6143   -104.85536    -668.5761   -1358.5898   -2917.6041 
13237000    261.45288   -3864.0825   -3415.9612   -3864.0825            0    3176.1763    17.285223     20.35971    21.087932    7421.3097    2145.3395    4296.0066    3087.1828   -770.64471    1107.9466    661.85258   -3072.1967 
13238000     263.9784   -3856.9182   -3404.4682   -3856.9182            0    4706.4059    17.308768    20.387442    21.116656    7451.6776    5386.1159    3363.4327    5369.6692    670.27004    1090.1043    557.93512   -2892.9992 
13239000    263.88205   -3861.1477   -3408.8629   -3861.1477            0    4291.3131    17.249819    20.318008    21.044738     7375.801    4011.1489    3507.4564    5355.3338   -1127.3161    101.32818   -450.29394   -2947.2528 
13240000    266.70817    -3831.109   -3373.9803    -3831.109            0    6793.8733    17.163872    20.216774    20.939883    7266.1001    6657.4529     6882.734    6841.4331   -1905.7685   -763.41535   -60.356577    -2654.043 
13241000    250.03552   -3836.9204    -3408.368   -3836.9204            0    5288.9936    17.179057    20.234661     20.95841    7285.4031     5345.371    6374.5093    4147.1003   -994.63411    786.56747   -878.64714   -2846.4118 
13242000    260.37075   -3840.7756    -3394.509   -3840.7756            0    4712.8496    17.232944    20.298132    21.024151    7354.1759    5118.0998    3861.7727    5158.6762    -412.2663    455.39887    685.77598   -2889.0413 
13243000    266.75549   -3812.1438    -3354.934   -3812.1438            0    6662.0495    17.205801    20.266161    20.991037     7319.481    5229.7968    7091.5498    7664.8019    120.71317    261.35446   -2062.7639   -2643.7794 
13244000    276.06364   -3873.7912   -3400.6276   -3873.7912            0    5801.6628    17.301292    20.378637    21.107536    7442.0264    6151.0822    6230.4408    5023.4654    220.42919   -804.12512   -1126.0738   -2770.9481 
13245000    277.35532   -3837.9859   -3362.6084   -3837.9859            0    3919.8166     17.35834    20.445831    21.177134    7515.8851    4042.4343    4198.4549    3518.5605   -1392.8937    1316.6088   -113.40351   -2932.9515 
13246000    256.30041   -3835.3844   -3396.0943   -3835.3844            0    5667.2695    17.245947    20.313448    21.040015    7370.8361    6058.8456    6074.3531    4868.6098    722.38678   -324.09312   -1019.8041    -2786.885 
13247000    262.15577   -3842.0312   -3392.7051   -3842.0312            0    5671.9393    17.240886    20.307486    21.033841    7364.3485    5029.5541    6764.4017    5221.8622    701.86395   -15.543514   -633.79988   -2783.5305 
13248000     267.6499   -3813.9024   -3355.1597   -3813.9024            0    4715.4808    17.233377    20.298641    21.024679    7354.7301     3585.261    5350.5563     5210.625    1152.8177    225.48951   -1303.7343   -2849.3716 
13249000    253.85015   -3857.6727   -3422.5823   -3857.6727            0    4878.9991    17.257338    20.326865    21.053912    7385.4506    5741.1504    5108.4488    3787.3982    194.09179    988.28646    489.40622   -2897.0691 
13250000    270.07594   -3837.2415   -3374.3406   -3837.2415            0    5164.6447    17.260628     20.33074    21.057926    7389.6759    5293.7856    4978.8521    5221.2965    1264.0529   -264.06872     933.9579   -2817.7425 
Loop time of 345.409 on 64 procs for 250000 steps with 864 atoms

Performance: 125.069 ns/day, 0.192 hours/ns, 723.781 timesteps/s
194.5% CPU use with 32 MPI tasks x 2 OpenMP threads

MPI task timing breakdown:
Section |  min time  |  avg time  |  max time  |%varavg| %total
---------------------------------------------------------------
Pair    | 25.286     | 31.514     | 37.476     |  57.8 |  9.12
Bond    | 0.84016    | 1.0898     | 1.3462     |  11.9 |  0.32
Kspace  | 154.37     | 162.55     | 171.27     |  34.6 | 47.06
Neigh   | 3.5829     | 3.9896     | 4.3208     |  13.7 |  1.16
Comm    | 65.265     | 69.151     | 75.527     |  29.5 | 20.02
Output  | 0.5386     | 0.5389     | 0.54043    |   0.0 |  0.16
Modify  | 63.457     | 65.966     | 70.075     |  18.2 | 19.10
Other   |            | 10.61      |            |       |  3.07

Nlocal:        27.0000 ave          33 max          21 min
Histogram: 3 2 1 1 5 10 5 3 1 1
Nghost:        2520.59 ave        2557 max        2468 min
Histogram: 2 0 1 3 4 5 6 5 4 2
Neighs:        8347.44 ave       12205 max        6284 min
Histogram: 3 6 3 7 8 2 2 0 0 1

Total # of neighbors = 267118
Ave neighs/atom = 309.16435
Ave special neighs/atom = 2.0000000
Neighbor list builds = 14360
Dangerous builds = 2

unfix		3
unfix		2
unfix		1

write_data	data.final.${pid}
write_data	data.final.1
System init for write_data ...
PPPM initialization ...
  extracting TIP4P info from pair style
  using 12-bit tables for long-range coulomb (../kspace.cpp:340)
  G vector (1/distance) = 0.37444695
  grid = 24 24 25
  stencil order = 5
  estimated absolute RMS force accuracy = 0.0030513917
  estimated relative force accuracy = 9.1891755e-06
  using double precision FFTW3
  3d grid and FFT values/proc = 3822 576
Last active /omp style is kspace_style pppm/tip4p/omp
WARNING: Not all mixed pair coeffs generated from mixing. Use write_data with 'pair ij' option to store all pair coeffs. (../write_data.cpp:312)

write_restart   restart.lmp.${pid}
write_restart   restart.lmp.1
System init for write_restart ...
PPPM initialization ...
  extracting TIP4P info from pair style
  using 12-bit tables for long-range coulomb (../kspace.cpp:340)
  G vector (1/distance) = 0.37444695
  grid = 24 24 25
  stencil order = 5
  estimated absolute RMS force accuracy = 0.0030513917
  estimated relative force accuracy = 9.1891755e-06
  using double precision FFTW3
  3d grid and FFT values/proc = 3822 576
Last active /omp style is kspace_style pppm/tip4p/omp
Total wall time: 0:05:45
