LAMMPS (30 Jul 2021)
  using 1 OpenMP thread(s) per MPI task
package omp 0
using multi-threaded neighbor list subroutines
echo both

include		in.partitions
variable        pid world 0
include		in.temp
variable        temperature equal 246.97
variable	tempDamp equal 100.0
include		in.pressure
variable        pressure equal 6625.0
variable        pressureDamp equal 1000.0 # This is 1 ps
include		in.seed
variable        seed world 745823

units		real
atom_style	full
read_restart	restart.lmp.${pid}
read_restart	restart.lmp.0
Reading restart file ...
  restart file = 30 Jul 2021, LAMMPS = 30 Jul 2021
  restoring atom style full from restart
  orthogonal box = (-0.089622672 -0.12643185 -0.15806407) to (24.819624 24.856433 22.968064)
  4 by 4 by 4 MPI processor grid
  restoring pair style lj/cut/tip4p/long/omp from restart
  restoring bond style harmonic/omp from restart
  restoring angle style harmonic/omp from restart
  1920 atoms
  1280 bonds
  640 angles
Finding 1-2 1-3 1-4 neighbors ...
  special bond factors lj:    0        0        0       
  special bond factors coul:  0        0        0       
     2 = max # of 1-2 neighbors
     1 = max # of 1-3 neighbors
     1 = max # of 1-4 neighbors
     2 = max # of special neighbors
  special bonds CPU = 0.981 seconds
  read_restart CPU = 1.272 seconds
include 	in.setup
variable	out_freq equal 1000
variable	out_freq2 equal 10000
variable	out_freq3 equal 1000

timestep	2.0

neigh_modify    delay 7 every 1

include		in.tip4p
# This is TIP4P/Ice

# create groups ###
group ox type 2
640 atoms in group ox
group hy type 1
1280 atoms in group hy

# set charges - beside manually ###
set group ox charge -1.1794
Setting atom values ...
  640 settings made for charge
set group hy charge 0.5897
Setting atom values ...
  1280 settings made for charge

# ### TIP3P Potential Parameters ###
pair_style lj/cut/tip4p/long/omp 2 1 1 1 0.1577 8.5
pair_coeff 1 1*2 0.000 0.000
pair_coeff 2 2 0.21084 3.1668
bond_style  harmonic
bond_coeff  1 450 0.9572
angle_style harmonic
angle_coeff 1 55 104.52
kspace_style pppm/tip4p/omp 1.0e-5
pair_modify tail yes

thermo          ${out_freq}
thermo          1000
thermo_style    custom step temp pe etotal epair emol press lx ly lz vol pxx pyy pzz pxy pxz pyz enthalpy

restart 	${out_freq3} restart.lmp.${pid} restart2.lmp.${pid}
restart 	1000 restart.lmp.${pid} restart2.lmp.${pid}
restart 	1000 restart.lmp.0 restart2.lmp.${pid}
restart 	1000 restart.lmp.0 restart2.lmp.0


include         in.dump
dump            myDump all atom ${out_freq2} dump.water.${pid}
dump            myDump all atom 10000 dump.water.${pid}
dump            myDump all atom 10000 dump.water.0
dump            myDump2 all dcd ${out_freq2} dump.dcd
dump            myDump2 all dcd 10000 dump.dcd
dump_modify     myDump append yes
dump_modify     myDump2 append yes


variable natoms 	equal  "count(all)"                        # NUMBER ATOMS
variable H      	equal  "enthalpy/v_natoms"                 # ENTHALPY-per-atom
variable Vol      	equal  "vol/v_natoms"                 # volume-per-atom
fix AVG all 		ave/time ${out_freq} 1 ${out_freq} v_Vol v_H file vol_enthalpy.dat
fix AVG all 		ave/time 1000 1 ${out_freq} v_Vol v_H file vol_enthalpy.dat
fix AVG all 		ave/time 1000 1 1000 v_Vol v_H file vol_enthalpy.dat




fix 		1 all shake 1e-6 200 0 b 1 a 1
       0 = # of size 2 clusters
       0 = # of size 3 clusters
       0 = # of size 4 clusters
     640 = # of frozen angles
  find clusters CPU = 0.269 seconds
fix             2 all nph aniso ${pressure} ${pressure} ${pressureDamp}
fix             2 all nph aniso 6625 ${pressure} ${pressureDamp}
fix             2 all nph aniso 6625 6625 ${pressureDamp}
fix             2 all nph aniso 6625 6625 1000
fix             3 all temp/csvr ${temperature} ${temperature} ${tempDamp} ${seed}
fix             3 all temp/csvr 246.97 ${temperature} ${tempDamp} ${seed}
fix             3 all temp/csvr 246.97 246.97 ${tempDamp} ${seed}
fix             3 all temp/csvr 246.97 246.97 100 ${seed}
fix             3 all temp/csvr 246.97 246.97 100 745823


run             250000
PPPM initialization ...
  extracting TIP4P info from pair style
  using 12-bit tables for long-range coulomb (../kspace.cpp:340)
  G vector (1/distance) = 0.37430449
  grid = 30 30 30
  stencil order = 5
  estimated absolute RMS force accuracy = 0.0032861292
  estimated relative force accuracy = 9.8960804e-06
  using double precision FFTW3
  3d grid and FFT values/proc = 3600 512
Last active /omp style is kspace_style pppm/tip4p/omp
Neighbor list info ...
  update every 1 steps, delay 7 steps, check yes
  max neighbors/atom: 2000, page size: 100000
  master list distance cutoff = 10.8154
  ghost atom cutoff = 10.8154
  binsize = 5.4077, bins = 5 5 5
  1 neighbor lists, perpetual/occasional/extra = 1 0 0
  (1) pair lj/cut/tip4p/long/omp, perpetual
      attributes: half, newton on, omp
      pair build: half/bin/newton/omp
      stencil: half/bin/3d
      bin: standard
Per MPI rank memory allocation (min/avg/max) = 9.331 | 9.339 | 9.345 Mbytes
Step Temp PotEng TotEng E_pair E_mol Press Lx Ly Lz Volume Pxx Pyy Pzz Pxy Pxz Pyz Enthalpy 
13750000    250.44027   -9137.1289   -8182.3364   -9137.1289            0    7911.0901    24.909246    24.982865    23.126128     14391.49    8257.8758    8303.6547    7171.7399    104.88483   -623.20231    631.18606   -6521.9163 
13751000    249.60329   -9163.8691   -8212.2675   -9163.8691            0    7359.5897    24.855621    25.034262    23.095491    14370.988    9130.6649    6546.6362    6401.4681   -202.21559   -1930.3324    482.28603   -6669.7996 
13752000     247.4555   -9158.1572    -8214.744   -9158.1572            0     7334.768    24.965386    25.097114    22.942309    14374.713    7406.8631    7308.5707    7288.8703    141.21375   -743.90826     424.6155   -6677.0799 
13753000    243.88667   -9136.4256   -8206.6183   -9136.4256            0    7885.4236    24.957219    25.006116    23.006759     14358.13    8179.6659    6007.8421    9468.7628   -459.60297   -591.15608   -1417.4054   -6555.4217 
13754000    248.89845   -9206.0842   -8257.1698   -9206.0842            0    6360.0137    24.945702    24.990996    23.121979    14414.657    7421.7532    5712.5282    5945.7597    846.05615   -410.13775    964.39532   -6920.1488 
13755000    246.54355   -9129.2712   -8189.3348   -9129.2712            0     7494.149     24.82556    25.023644    23.178357    14398.998    8656.9961    6969.8486    6855.6023   -412.68021   -437.85296   -550.29682   -6615.6039 
13756000    247.50551   -9111.5831   -8167.9792   -9111.5831            0     7312.041    24.856089    25.187978    23.027192    14416.741    7533.9808    5985.4753     8416.667    483.72448   -930.06268    578.44096   -6630.5979 
13757000    246.00887   -9177.3045   -8239.4065   -9177.3045            0    5686.3023    24.915748    25.102299    23.076999    14433.337    6224.1875    5889.2331    4945.4863   -269.45604   -49.754089    -569.6862   -7042.4659 
13758000    244.62233   -9165.1694   -8232.5575   -9165.1694            0    5165.2573    24.954165     25.19632    23.013782    14469.987    5811.4468    3383.7693    6300.5559    12.401686   -1.4010296    701.73109   -7142.5337 
13759000    250.15146   -9112.1562   -8158.4648   -9112.1562            0    5334.8567    25.008971    25.080579    23.128431    14507.065    5351.7297    5376.3066    5276.5337   -208.95165   -540.96654    700.16593   -7029.7656 
13760000     249.6179    -9134.368   -8182.7108    -9134.368            0    6923.4878    25.025376    25.025241    22.982823    14393.362    6779.9406    6527.1746    7463.3484     107.2277   -272.98214   -333.75408   -6729.3847 
13761000    242.86442   -9148.6926   -8222.7827   -9148.6926            0      6696.28    24.981398    25.055584    23.024891     14411.82    7207.7381      6630.38    6250.7219   -356.09191   -346.11246    725.85247   -6815.3478 
13762000    246.79827   -9116.9527   -8176.0452   -9116.9527            0    4495.1697    24.917105     25.13749    23.215198     14540.92    4436.7548    5246.6456    3802.1087   -72.974241    13.932399   -183.99417   -7222.7797 
13763000    246.41212   -9127.5875   -8188.1521   -9127.5875            0    5848.6049    24.919338    25.060483    23.218649    14499.829    6597.1672    5940.8666     5007.781    50.987502   -215.23873   -424.41022   -6951.3761 
13764000    239.98163   -9174.2186   -8259.2992   -9174.2186            0    6981.3406    24.975151    24.981859     23.07029    14394.147    6693.3189    8079.6278    6171.0752   -58.548444    27.712229   -416.97388   -6793.7492 
13765000    257.32167   -9192.3214   -8211.2939   -9192.3214            0    7369.5342    24.941009    24.907769    23.084631    14340.747    7270.6871    7683.5275     7154.388    -51.82192   -922.04698   -734.48902    -6669.992 
13766000    249.09053   -9147.0674   -8197.4207   -9147.0674            0    7155.6275     25.03314    25.029709    22.950574    14380.192    7854.1534    6904.8567    6707.8724   -59.805031    133.48695    140.87158     -6696.74 
13767000    258.55236   -9181.5918   -8195.8722   -9181.5918            0    8148.9046    24.935186    25.019525    22.935696    14308.813    7079.5681    7723.2725    9643.8731   -503.60014   -420.69284    1093.3887    -6495.364 
13768000    249.55732   -9198.5015   -8247.0752   -9198.5015            0    6598.9935    24.987154    25.014152    23.028068     14393.29    6936.4274    6481.5692     6378.984    -380.7995   -31.518162    385.94226   -6861.8714 
13769000    247.76072   -9179.7134   -8235.1365   -9179.7134            0    7053.2658    24.897845    25.031337    23.092446    14391.821      8187.54    6258.0943    6714.1632   -22.567417   -743.24461   -638.36529   -6754.7269 
13770000      238.778    -9159.737   -8249.4064    -9159.737            0    5537.5336    24.928868    25.035065    23.120921    14429.671    6404.0234    6053.5032     4155.074    295.41967   -1071.7097   -22.956509    -7084.077 
13771000    241.15017   -9156.4423   -8237.0678   -9156.4423            0    5626.4437    24.944902     25.08738    23.167105    14498.026    6350.3052    5186.1476    5342.8782   -908.42613   -1263.3483     599.3173   -7047.4192 
13772000    254.59164   -9159.7514    -8189.132   -9159.7514            0     6954.556    24.922894    25.096106    23.063962    14425.761    6026.4282    6869.8851    7967.3546   -312.85091   -510.34796    1075.6431   -6725.9982 
13773000    242.89203   -9185.9955   -8259.9803   -9185.9955            0    7077.0389    24.901802    25.020341    23.015837    14340.054    7682.6136    6172.7488    7375.7542   -409.97919   -396.06362   -1147.6693   -6779.9239 
13774000     250.9065   -9100.8246   -8144.2545   -9100.8246            0    8019.3317    25.078718    24.980206    22.978246    14395.218    6728.1811     8535.743     8794.071   -330.39841   -163.24338    325.65006   -6460.6802 
13775000    243.68305   -9139.6914   -8210.6605   -9139.6914            0    5394.3821    25.021423    25.050071    23.067454    14458.413    5483.8194    6296.5469    4402.7798    798.23138    96.303015    136.15442   -7073.1951 
13776000    249.29462   -9126.1387   -8175.7139   -9126.1387            0    6615.5903    24.963602    24.980272    23.151605    14437.284    6610.2374    7199.4408    6037.0927   -523.22771    7.6423408   -1273.6365   -6782.7816 
13777000    241.52865    -9120.781   -8199.9637    -9120.781            0    5581.3457    24.998532    25.028086    23.189871      14509.1    5971.8522    5877.3725    4894.8124    131.51733    244.53574    -17.89003    -7018.949 
13778000    246.43881   -9170.7398   -8231.2027   -9170.7398            0     6167.997     25.00887    25.066249    23.016142    14428.326    5632.0652    6236.6385    6635.2873   -713.53804   -103.01679   -356.61349   -6933.3184 
13779000    237.57531   -9144.6188   -8238.8733   -9144.6188            0    5402.9086    24.960695    25.259256    22.949265     14469.25    6351.4083    3885.0888    5972.2288   -362.34816    -30.46965     469.7905   -7098.7561 
13780000    253.40848   -9144.5289   -8178.4202   -9144.5289            0    6785.3668    24.957589    25.014166    23.105071     14424.34    7074.4612    6322.7636    6958.8755   -1053.4552   -226.12867      631.647   -6751.0219 
13781000    256.71753   -9146.9166   -8168.1923   -9146.9166            0    6301.5432    24.880626    24.978883    23.237013    14441.577    7426.5134    6526.1256    4951.9906   -685.47595    216.84657   -116.78278    -6840.989 
13782000    252.67639   -9143.6044   -8180.2868   -9143.6044            0     5628.043    25.038585    25.113254    22.990027    14456.137     5670.491    4102.7647    7110.8732     1226.855   -907.50715    887.33103   -6993.7381 
13783000    253.68074   -9170.2851   -8203.1385   -9170.2851            0    5508.9408    25.126629    25.199339    22.900493    14500.007     4846.311    4958.0888    6722.4227   -282.54799   -962.21694    263.28575   -7038.1752 
13784000    242.82666   -9185.1083   -8259.3423   -9185.1083            0    5606.4718    24.991371    25.074318     23.10099    14476.041    5142.7957    5652.0266    6024.5933    783.76537   -1082.2668    1063.9132    -7075.714 
13785000    241.01121   -9187.4798   -8268.6351   -9187.4798            0    6044.4945    24.862177     24.97036    23.250261    14434.169    6505.9948    6500.3168     5127.172     360.9754    421.99061    272.79712   -6996.2234 
13786000    245.44238   -9160.4318   -8224.6935   -9160.4318            0    6513.6356    24.941115    25.070998    23.063774    14421.746    7244.4769    5628.4068    6668.0232     227.2096    383.42827    495.16579   -6854.7041 
13787000    244.93468   -9149.5552   -8215.7525   -9149.5552            0    5849.5562    25.016336    25.148824     22.94048    14432.577    6945.2724    4666.2883     5937.108    603.74627   -433.01392    1442.5044   -6984.5125 
13788000    251.73734   -9143.1989   -8183.4613   -9143.1989            0    7069.9186    24.939591    25.078323    23.015478    14394.872    7158.0783    7109.2815    6942.3958   -362.02991    585.87919    208.61171   -6699.2419 
13789000    246.73896   -9180.9281   -8240.2467   -9180.9281            0    5858.6066    24.965642    24.977835    23.106221    14408.755    6182.4627    6474.1053    4919.2519    155.73007   -324.68652   -215.39231   -7009.1372 
13790000    244.81368   -9152.5461   -8219.2047   -9152.5461            0    7464.6936    24.977411    24.889391    23.089385    14354.037    6759.5373    7825.7077    7808.8358   -447.54332  -0.11821531    218.95044   -6656.5539 
13791000    234.95768   -9159.7676   -8264.0017   -9159.7676            0    6822.8425    25.123234    25.001281     22.90518    14387.042    4939.0964    7762.1205    7767.3107    439.72282     753.2715   -949.59328   -6832.4312 
13792000    246.37263   -9164.4277   -8225.1429   -9164.4277            0    6578.1261     25.09368    24.964707    23.025382    14424.398     6487.358    6943.8889    6303.1312   -353.95223    510.94854   -372.45113   -6841.3351 
13793000    244.77093   -9130.1212   -8196.9428   -9130.1212            0    7289.7042    25.037398    24.850354    23.151346    14404.494    6790.5979    7203.3703    7875.1443    463.72706    456.56176   -219.44887   -6665.5598 
13794000    251.45247   -9184.5567   -8225.9052   -9184.5567            0    6607.5629    25.009423    24.927321    23.062881    14377.813    6675.0264     6760.793    6386.8695   -195.66768   -61.401546    279.10211    -6840.394 
13795000    238.75565   -9189.1532   -8278.9078   -9189.1532            0    6728.3213     25.07555    24.986323    22.959732    14385.324    6123.8081    6642.2385    7418.9172    22.953442   -246.71716    46.151682   -6867.3383 
13796000    259.73861   -9163.0738   -8172.8318   -9163.0738            0    6585.3437    25.034303    25.033428    22.939882    14376.296    5027.0462    7470.7755    7258.2095   -724.36644   -304.66048    687.63107   -6792.1254 
13797000    242.29664   -9154.3317   -8230.5864   -9154.3317            0    7999.0478    24.901415    24.912626    23.119111    14342.163     8473.063    8444.4018    7079.6788   -581.59409    856.02155   -17.055619   -6557.4597 
13798000      254.873   -9201.4583   -8229.7661   -9201.4583            0    6377.8141     24.81734    25.042717    23.195526    14415.871    7296.1844    5954.6121    5882.6456   -1054.1248   -1439.9837    91.783222   -6888.8901 
13799000     247.6141   -9136.7831   -8192.7653   -9136.7831            0    6180.9307     25.04691     25.03227    23.019038      14432.5    5963.2566    5458.7402    7120.7952   -500.75484   -525.70163    649.74889   -6891.7832 
13800000    250.08287   -9128.3708   -8174.9409   -9128.3708            0    6420.0069    24.982492    25.143253     22.95503    14418.998    7717.2696    4988.1827    6554.5683   -609.97047   -739.08718   -524.23247   -6824.9014 
13801000      238.593   -9121.0598   -8211.4345   -9121.0598            0    5567.0938    24.978679    25.172988    23.033541    14483.214    6078.2053    4811.5178    5811.5582   -24.805898   -1590.4225   -136.85037   -7035.5372 
13802000    248.88533   -9171.4553   -8222.5909   -9171.4553            0    6055.8401    24.876935     25.09571    23.162423    14460.401    7306.1112    5728.9034    5132.5058    455.26542    77.633396   -893.75526   -6945.4741 
13803000     243.0998   -9155.9463    -8229.139   -9155.9463            0    7526.8038    24.873638     25.00984    23.145858    14398.707    7937.7236     7666.238    6976.4499   -435.79256    -310.5264    270.24899   -6648.5826 
13804000    255.50455   -9180.9891   -8206.8892   -9180.9891            0    5037.7406    25.024859    25.115773    23.023854    14470.922    4760.7845    4852.9294    5499.5078    58.247403    -72.96038     383.7355   -7143.7066 
13805000    252.17583   -9145.6396   -8184.2304   -9145.6396            0    7448.1128    25.043611     25.06155     22.87208    14355.243    6896.9231    6848.4808    8598.9343   -437.87117   -21.076311    1281.1606   -6624.9196 
13806000    252.76935   -9145.2218   -8181.5498   -9145.2218            0    7264.3864    24.969197     25.00398     23.09078    14416.251    6688.2719    7746.4258    7358.4615    656.26567    1096.6894   -117.89938   -6654.2399 
13807000    246.54598   -9160.1031   -8220.1574   -9160.1031            0     4895.189    24.893648    25.037858    23.282838    14511.812    6197.2007    4614.9906    3873.3757   -690.82526    169.94989   -181.39657   -7184.1401 
13808000    244.17441   -9167.7931   -8236.8889   -9167.7931            0     6316.295    25.002622     25.05308    23.055218     14441.62    6565.1787    6976.4876    5407.2186   -1410.1703     321.8037     359.1453   -6906.5748 
13809000    241.01317    -9128.611   -8209.7589    -9128.611            0    7894.6441    25.000869    25.089894    22.889689    14357.996    8356.2514    7481.2834    7846.3975   -523.72762    814.72244    54.509284    -6556.647 
13810000    238.88689   -9174.2031   -8263.4573   -9174.2031            0    6404.0553     24.91052    25.028106     23.08493    14392.603    6567.6816    5498.3956    7146.0886   -547.80774   -316.54822     1129.902   -6919.2374 
13811000    246.29279   -9168.3648   -8229.3843   -9168.3648            0    7128.0636    24.892637    25.016168    23.087499     14377.01    7974.7371    5669.3385    7740.1153    84.773949   -1113.0124   -855.27013    -6734.815 
13812000    250.09306     -9158.31   -8204.8412     -9158.31            0    7522.4705    24.847201     24.98491    23.141355     14366.27    8387.9599    7506.9718    6672.4798   -175.24768    411.04725     681.7045   -6628.7533 
13813000    254.40075   -9139.1124   -8169.2207   -9139.1124            0    6822.6891    25.027066    25.043738    22.953846    14386.811    7263.0541    6448.7719    6756.2413    411.66356    911.65295   -114.36277   -6737.7053 
13814000    250.30517   -9154.1212   -8199.8437   -9154.1212            0    7808.4907    25.036587    25.010902    22.950931    14371.589    6824.0369    9016.9206    7584.5146    232.01182   -926.17148    -340.2776    -6563.224 
13815000      236.112    -9165.663   -8265.4963    -9165.663            0    6528.4039     24.96138    25.053597    23.084906    14436.662    7262.6258    6085.0399    6237.5461    -502.1158    -523.9615   -875.38019   -6890.9806 
13816000    251.05392   -9108.5767   -8151.4446   -9108.5767            0     6504.984     24.98749    25.001077    23.131618     14450.65    6265.6974    7661.9786    5587.2759   -516.07526     507.2002     -452.117   -6780.5329 
13817000     241.5978   -9177.2944   -8256.2134   -9177.2944            0    6097.5362    25.096938    25.060183    22.948193    14432.896    4425.9359    7102.8465    6763.8262    1361.6605   -133.92848    1281.9016   -6972.7492 
13818000    246.93503   -9180.5681   -8239.1391   -9180.5681            0    7912.6049    24.978857    24.963925    23.004164    14344.714    8407.2834    7854.0116    7476.5197    316.82683   -68.282734   -39.464918   -6583.7989 
13819000    250.60765   -9206.8404   -8251.4097   -9206.8404            0    6758.0781     24.92409    24.944585    23.124341     14376.89    7536.2353    6726.7075    6011.2914   -441.63992   -325.73241   -366.66695   -6834.4286 
13820000    243.61174   -9166.1514   -8237.3924   -9166.1514            0    6671.6641    25.120727    24.991662    22.895042    14373.707    6493.5528     6755.252    6766.1873    763.31549    270.63096   -469.96897   -6838.8396 
13821000    258.72376   -9189.6188   -8203.2458   -9189.6188            0    6604.0552    25.075391    25.052796    22.905813     14389.63    5732.6831    7027.9527    7051.5299    749.31108    380.16118   -55.510909    -6817.332 
13822000    253.13501   -9138.0607   -8172.9945   -9138.0607            0    7521.2102    25.000559    24.891389    23.118211    14386.431    6638.3473    8188.2115    7737.0719   -345.72157   -818.58001    -695.0613   -6594.9593 
13823000    238.27168   -9191.5667   -8283.1664   -9191.5667            0     7546.709    24.972015    24.882412    23.058637    14327.806    7194.1739    8208.2737    7237.6795    189.59158    129.18915    -346.6295   -6706.2336 
13824000    252.79032   -9143.8774   -8180.1254   -9143.8774            0    7621.1393    24.994752    24.927292    23.072082    14375.095    7607.3103     6928.701    8327.4066    431.06846   -260.24892   -619.74596   -6582.3839 
13825000    253.89224   -9137.6481   -8169.6951   -9137.6481            0    7462.2326    25.093317    25.007063    22.879481    14357.106    7101.4766    7178.0656    8107.1557   -324.89538   -275.74392     115.5034   -6607.2254 
13826000    250.90921   -9164.4353    -8207.855   -9164.4353            0    7944.8729     24.95015    24.976821    23.041599    14358.958    8147.4767    8529.3722    7157.7698    509.87956   -313.02374    101.01414   -6544.1138 
13827000    244.36795   -9187.0419   -8255.3998   -9187.0419            0    7249.8979    24.915198     24.87298    23.179328    14364.582    7036.0384    8446.1931    6267.4623    289.85207    306.96336     9.297839   -6736.5991 
13828000    247.56533   -9123.2559    -8179.424   -9123.2559            0    6746.1841    24.955783    25.045997    23.075271    14423.024    7157.8806    6120.2602    6960.4115   -121.49557    401.62051     326.5218   -6760.3978 
13829000    240.38558   -9149.6461   -8233.1867   -9149.6461            0    6741.5794    25.055281    25.060132    22.936905    14401.822    5804.9329    6795.2188    7624.5864    605.73767   -1109.4524   -187.29387   -6817.2136 
13830000    244.68426   -9145.0923   -8212.2444   -9145.0923            0    6496.5243    25.018221    25.012952    23.056758    14428.448    6408.4267    6776.9511     6304.195   -341.02794     384.5015   -1117.1054    -6845.219 
13831000    261.08712    -9175.478   -8180.0948    -9175.478            0    6648.0814     24.98672    25.054893    23.000667    14399.328    6000.1113    7043.3352    6900.7978   -466.56469    143.00368   -88.752447   -6784.0015 
13832000    241.74411   -9137.0776   -8215.4388   -9137.0776            0    7783.8369    24.830482    25.094663    23.069746    14375.049    8195.7315    7443.7618    7712.0174    941.54807    -237.1544   -284.64032   -6583.5937 
13833000    234.24018   -9157.7286   -8264.6982   -9157.7286            0    6648.4276    24.794706    25.067342    23.167888    14399.708    8349.2487    6291.5721    5304.4619    141.32975   -522.10138    448.85314   -6868.4953 
13834000    252.46207   -9135.6783   -8173.1777   -9135.6783            0    6270.6688    24.969723    25.046883    23.087768    14439.407    5764.1176    6701.2632    6346.6255   -1137.9926    1016.4662     -734.643   -6852.6756 
13835000    245.19597   -9168.5832   -8233.7843   -9168.5832            0    6256.4389    25.130161    25.065573    22.903471     14426.94    4659.2316    7353.8279    6756.2572    285.89389   -320.27945    186.45021   -6917.4163 
13836000    249.98488   -9166.4544    -8213.398   -9166.4544            0    5692.5205    25.103729    25.061932    22.985436     14461.24    4854.7643    6033.6319    6189.1651   -166.17853   -682.03224   -132.25284    -7012.832 
13837000     245.4699   -9156.8542   -8221.0109   -9156.8542            0    7450.9755    24.935703    24.896894    23.173568    14386.651    7297.1037    8291.9455    6763.8773   -295.27563    331.11809    -38.05955   -6657.6879 
13838000     253.0072   -9145.4636   -8180.8848   -9145.4636            0    7251.2504    24.946798    24.917905     23.18046    14409.483    6557.5419    7111.6004    8084.6089    699.96185    222.54066    57.396508   -6657.0524 
13839000    232.72751   -9161.1322   -8273.8688   -9161.1322            0    7737.2114    25.044698    24.945892    22.954331    14341.002    7541.1808    7396.1924    8274.2611    -608.9794    45.532521    9.4436525   -6655.6403 
13840000    249.77548   -9157.9272   -8205.6691   -9157.9272            0    6615.9577    25.077294    25.036586    22.976461    14425.767    5294.3684    7673.5802    6879.9245     -733.111    268.33724    44.190771   -6813.7707 
13841000    234.68207   -9149.9373   -8255.2223   -9149.9373            0    7150.0064    25.066326    24.931707    23.062845    14413.039    6085.6638    7598.4495    7765.9058    1559.3731    685.69149   -795.07724   -6752.2952 
13842000    247.30351   -9153.0514   -8210.2176   -9153.0514            0    6470.5915     24.98128    24.927636    23.174677    14431.433    7164.3601    7227.5195     5019.895   -35.217261   -1081.4314   -481.41494   -6848.3675 
13843000    245.32395    -9142.412   -8207.1253    -9142.412            0    6453.1785    25.014442    25.058032    23.032665    14437.166    5016.1762    7582.2563    6761.1028   -447.87998   -646.54551   -172.56203   -6848.4004 
13844000    237.32358   -9119.3433   -8214.5575   -9119.3433            0    6507.9454    25.041597    25.109216    22.964317    14439.386    5842.9564    6727.2568    6953.6231   -399.13745    -675.2725    986.70018   -6844.0907 
13845000    238.95459   -9190.2842   -8279.2803   -9190.2842            0    7323.4302    24.850115    25.060629    23.039901    14348.317    7413.8553    7524.8922    7031.5432    15.376912   -8.9216786   -127.86764   -6746.8124 
13846000    247.33289   -9161.3971   -8218.4513   -9161.3971            0    6174.3311    24.919511    25.034139    23.164494    14450.903    7735.1241    5394.0444    5393.8248   -357.28572   -83.733533   -44.221634   -6917.2012 
13847000    250.35064    -9155.898   -8201.4472    -9155.898            0    5770.7002    25.044583    25.116551    23.017514    14478.789    5784.4869    5984.8712    5542.7424   -38.767648    1304.9139    1066.0821    -6982.916 
13848000    232.58287   -9170.8908   -8284.1788   -9170.8908            0    4987.9219    24.977386     25.14954    23.084004    14500.673    4561.6204    5027.2081    5374.9371   -206.52691   -860.17908   -758.23605   -7229.3458 
13849000    249.37708   -9148.8001    -8198.061   -9148.8001            0    5266.2506    25.049296    25.033267    23.162065    14524.137    4787.4771    5834.9699    5176.3047    1192.3599   -513.16078   -311.63115   -7082.5657 
13850000    245.63604   -9192.5963   -8256.1197   -9192.5963            0    5527.9422    25.053834    24.955264    23.134696    14464.391    5710.7358    5749.9404    5123.1502   -288.74307   -833.99086   -133.60939   -7090.0097 
13851000    246.84156   -9165.8955   -8224.8229   -9165.8955            0    6128.0687    25.042615    25.012542    23.057922    14443.008    6286.8913    6069.3758    6027.9389   -129.92369    -497.8402    434.39451   -6934.0282 
13852000    243.62454   -9104.4292   -8175.6213   -9104.4292            0    7156.3231    24.847886    25.072646    23.141733    14417.351    8399.7278    7095.8907    5973.3508    69.105625   -1769.7532    83.736598   -6670.9165 
13853000    249.40096   -9155.3883   -8204.5581   -9155.3883            0     6403.817     24.91012    25.095777    23.029206     14396.45    7802.3672    5154.6372    6254.4466    52.523494    1075.7369   -23.598235    -6860.029 
13854000    245.01497   -9149.1007   -8214.9919   -9149.1007            0    6286.6735    24.876394    25.134013    23.089463    14436.539    8179.2334    5210.4344    5470.3528   -1075.5848   -1246.8498   -631.47371   -6891.3824 
13855000    245.65908   -9134.8298   -8198.2653   -9134.8298            0    6760.7807    24.906195    25.072475    23.083768    14414.889    7281.2474    6874.8286    6126.2662    269.45103   -842.66405   -721.04679    -6776.971 
13856000    252.95419   -9208.5516   -8244.1749   -9208.5516            0    6525.4197    25.009531    25.013087    23.019002    14399.895    7654.1209    6240.1613    5681.9768   -137.56666   -323.92954   -941.38103   -6873.7865 
13857000    248.61807   -9166.4858   -8218.6403   -9166.4858            0    6737.8492    24.995703     25.02818     23.00697     14393.09    7008.5124    5966.4529    7238.5821    290.89064   -1095.4243    255.49747   -6804.3088 
13858000    251.21207   -9175.8991   -8218.1641   -9175.8991            0    7123.7811    24.995345    24.875215    23.149912    14393.795    6850.3683    7693.1314    6827.8436     38.71573    713.06296   -457.31195    -6722.749 
13859000    243.85322   -9159.9253   -8230.2456   -9159.9253            0    6118.6155     25.03799    24.969524    23.098924     14441.14    5311.9017    7335.0074    5708.9373   -353.02226    281.51815   -275.44307   -6941.6088 
13860000    239.87944   -9148.9946   -8234.4648   -9148.9946            0     6844.672    25.065189    24.984734    22.978929    14390.487    6479.9889    6687.1002    7366.9268    180.57906   -248.29208   -902.06977   -6797.9701 
13861000    246.93524   -9153.8377   -8212.4079   -9153.8377            0    6395.7409    25.171318    24.889261    23.039748    14434.299    4976.7309    8054.3648     6156.127     715.2159   -664.17607   -377.00643   -6866.0441 
13862000    247.29865   -9156.8036   -8213.9884   -9156.8036            0    5361.5986    25.034499    24.965005     23.21948    14511.859    5363.5345    6611.3979    4109.8635    947.46657   -1594.4076    59.080259   -7079.2566 
13863000    248.81836   -9163.0057   -8214.3966   -9163.0057            0    6441.9577    25.016972    25.016745    23.103942    14459.445    6008.2672    6841.5471    6476.0588    109.92311   -348.01272    -32.16082   -6855.9412 
13864000    255.85193    -9132.857   -8157.4327    -9132.857            0    5855.1681    25.145013    24.949656    23.050659    14461.048    3994.5545     7103.551    6467.3989     260.6914   -103.92963    563.51317   -6922.5804 
13865000    252.61848   -9123.6916   -8160.5948   -9123.6916            0    7450.6119    24.958145    24.949065    23.081842    14372.656     6948.994    8200.6201    7202.2216   -374.92588   -676.63792   -350.61328   -6598.8687 
13866000    247.50393   -9176.1919   -8232.5941   -9176.1919            0    8320.4164    24.800732    25.004569    23.114945    14334.308    9045.5201    7878.6964    8037.0327    509.70118   -1259.8778    1140.8827   -6493.2012 
13867000    241.10635   -9197.1756   -8277.9683   -9197.1756            0    7515.4233    24.839768    25.078652    23.046473    14356.752    8997.7388    6153.9037    7394.6272   -456.04005    149.16808    45.196175   -6704.4002 
13868000    234.24643   -9164.7467   -8271.6925   -9164.7467            0    6498.4667    24.937675    25.111618    22.991456    14397.833    6959.1427    5985.2447    6551.0125   -610.24685   -36.128138    30.549679   -6907.1599 
13869000    246.90696   -9159.8348   -8218.5129   -9159.8348            0    7214.4212    24.836744     25.09186    23.070871    14377.769     7697.742    6847.7577    7097.7638   -624.34997   -590.30572    599.73432   -6705.7569 
13870000    248.69081   -9172.5315   -8224.4087   -9172.5315            0    7582.7683     24.77446    25.087784    23.058051    14331.416    8897.0134    6568.1564     7283.135   -762.57578     1505.148   -524.65834   -6639.5419 
13871000    253.00629    -9203.923   -8239.3476    -9203.923            0    5803.5595    24.840459    25.064578    23.143309    14409.386    7076.6295    4574.4518    5759.5972    610.93879   -289.96601     751.6533   -7019.7522 
13872000    244.34684   -9131.2374   -8199.6758   -9131.2374            0    6133.1763    24.958314    25.105565    23.125173    14490.062     6971.431    4284.1751    7143.9228     603.3124   -1423.9979    -386.6302   -6903.5966 
13873000    239.22336    -9169.625   -8257.5965    -9169.625            0     4815.514    24.986803    25.127466    23.110403    14509.984     5165.463    4413.2147    4867.8644    46.241046   -328.32885   -1101.4915     -7238.57 
13874000    255.45133   -9151.9587   -8178.0617   -9151.9587            0    7315.7076    24.907654    25.145209    22.938277     14366.43    8533.6463    6360.7869    7052.6897    -150.8321    99.693923    535.01856   -6645.2773 
13875000    253.13163   -9135.6717   -8170.6184   -9135.6717            0    7389.8617    24.907247    25.037356    23.093074    14401.109    8663.1184    5834.4372    7672.0296    465.36511    195.03322    156.69089   -6618.5597 
13876000    245.29809   -9160.2182     -8225.03   -9160.2182            0    6476.7759    24.970443    25.084768    22.989419    14400.061    6266.5649    6456.2706    6707.4923   -471.24856    413.84969   -444.64574   -6864.8415 
13877000    241.90812   -9119.7887   -8197.5247   -9119.7887            0    7950.6407    24.866324    25.006694    23.086177    14355.552    8842.1695    7072.8692    7936.8835    194.38346   -2444.1627    832.48454   -6532.9706 
13878000    241.89629   -9150.3034   -8228.0844   -9150.3034            0    7248.6301    24.804568    24.939997    23.259762     14389.09    7766.8663       7665.1     6313.924    232.01358    74.882823     479.7344   -6706.9585 
13879000    250.46979   -9158.7241   -8203.8191   -9158.7241            0    7285.4462    24.977257     25.02589    23.053399    14410.174    7402.9335    7775.7088    6677.6962   -1454.5015    442.49907    60.562577   -6672.7272 
13880000      253.816   -9227.8105   -8260.1481   -9227.8105            0    6368.6649    25.004375    25.016737    22.989747    14380.728    6210.9224    6289.4483    6605.6238   -836.62398    23.972998   -1105.0591   -6924.4597 
13881000    246.28355   -9194.0474   -8255.1022   -9194.0474            0    6852.9696    25.060582     24.95979    22.922737    14338.329    5698.7676    7781.7741    7078.3669   -143.76257   -154.85791   -898.54952   -6822.0789 
13882000    248.86966   -9169.9488   -8221.1441   -9169.9488            0    5508.0481    25.008107    24.976835    23.158549    14465.371     4501.374    6239.9098    5782.8605    854.89338   -986.94668   -541.80917    -7059.152 
13883000    247.25201    -9164.322   -8221.6846    -9164.322            0    6207.2251    24.966265    24.963098    23.139175    14421.151    5867.6484     6295.377      6458.65    74.232541    -308.2271   -835.66364   -6916.1953 
13884000    244.36984   -9195.0596   -8263.4103   -9195.0596            0    4318.9809    25.156345     25.01511    23.032053    14493.812    3444.1999    5668.1556    3844.5872   -513.04931   -275.60885    386.30718   -7350.4754 
13885000    238.34413   -9188.0587   -8279.3822   -9188.0587            0    6014.2641    25.058711    24.993296    23.005452     14408.31    5528.3098     6063.385    6451.0976   -513.68366   -599.73237    505.78362   -7015.6023 
13886000    247.74233   -9163.8952   -8219.3884   -9163.8952            0    5840.1488    25.092879    24.994961    23.043448    14452.747    5429.4005    5953.5895    6137.4565   -398.16311   -880.70942    690.76959   -6988.4106 
13887000    241.66354   -9161.6536    -8240.322   -9161.6536            0    6329.5121    24.985227    24.960379    23.111136    14413.045    6411.3477    6479.0661    6098.1225     781.9114   -842.45253   -597.23348   -6909.8618 
13888000    251.57384   -9179.3067   -8220.1925   -9179.3067            0    4974.3787    25.021913    25.022383    23.149801    14494.273    5331.6466    4317.3524     5274.137   -72.662513   -1237.8405    470.68509   -7168.6879 
13889000    250.37575   -9214.6487   -8260.1021   -9214.6487            0    5727.3859    25.005992    25.014521    23.043192    14413.814    5496.1332    6326.1364    5359.8881    488.56966   -262.35379    -413.9371   -7056.1443 
13890000    245.46626   -9148.4724   -8212.6431   -9148.4724            0    5742.3579    25.139515    24.980927    23.050528    14475.925     5330.307    5829.2231    6067.5435    595.67309   -1036.4706     713.3918   -7000.3365 
13891000    244.00572   -9189.4711     -8259.21   -9189.4711            0    5082.2886    24.925243     25.02852    23.207442    14477.775     6592.492    4140.6076    4513.7662    176.34323    1027.7549     1311.177   -7186.1178 
13892000     244.7219   -9184.5337   -8251.5422   -9184.5337            0    5478.9946    24.938995    25.092929     23.08885    14448.828    6926.2527    4441.5802     5069.151    166.52537   -1738.5027   -379.34237   -7097.0011 
13893000    251.11534   -9172.0271   -8214.6609   -9172.0271            0    5889.1174     24.99702    25.136908    22.929077    14407.435    6251.0315    5057.0453    6359.2754    338.07093    386.69375   -599.62426   -6977.2533 
13894000    244.45347   -9160.9283   -8228.9602   -9160.9283            0    5491.5817    25.083972    25.020803    23.060153     14473.04     5820.135    5038.7714    5615.8387    484.14399   -720.93892    1072.5298   -7069.8277 
13895000    256.58157   -9140.0946   -8161.8887   -9140.0946            0    6045.9243    24.981107    24.985615    23.189423    14474.104    5705.6078     6341.065       6091.1    298.14596    345.58615    443.34195   -6885.6548 
13896000    245.08912   -9165.8054   -8231.4139   -9165.8054            0    5228.4529    25.054454    25.038028    23.063289    14467.927    6006.5998    4595.3122    5083.4467   -1486.4828    -76.84913   -742.37618   -7128.2111 
13897000    245.92662   -9167.2867   -8229.7023   -9167.2867            0    7174.2526    25.044674    25.073397    22.896801    14378.162    6141.3822    6818.8163    8562.5594    262.97115    -21.70504    1478.0592   -6725.3279 
13898000    240.13097   -9172.1868   -8256.6981   -9172.1868            0    8071.7371    24.949728    24.955415    23.027685    14337.746    8466.3029     8133.017    7615.8914    358.96424   -899.61417    204.27379   -6568.8872 
13899000    244.50765   -9148.2703   -8216.0956   -9148.2703            0    6606.1698    24.876597     25.00353    23.188705    14423.438    6271.5419    7391.2536     6155.714    115.27784    401.95323   -795.18606   -6826.4808 
13900000    241.67718   -9163.6595   -8242.2758   -9163.6595            0    6247.3939    24.884751    25.086297    23.141124    14446.223    6564.4265    5857.4356    6320.3196   -449.11669    101.97285    326.92155    -6926.054 
13901000    248.14558   -9155.6168   -8209.5727   -9155.6168            0    6747.1431     24.97521    25.100217     22.99225    14413.455    7525.7988    5881.5326    6834.0977   -989.03588   -208.90727   -946.90584   -6791.2864 
13902000    245.06792   -9179.8369   -8245.5263   -9179.8369            0     6072.265    25.014236    25.165816    22.913444    14424.097    5322.8857    4979.9249    7913.9844   -191.89149   -1769.1426    302.50722   -6968.1606 
13903000    247.35423   -9149.6009   -8206.5738   -9149.6009            0    5833.1225     25.00277    25.056762    23.068874    14452.383    5574.1487    6168.3026    5756.9163   -822.74033    44.238167    870.04222    -6977.108 
13904000    239.73556   -9173.2423    -8259.261   -9173.2423            0    5839.7846    24.979333    25.040588    23.129155    14467.221    6238.5941    5241.2047     6039.555   -406.77357   -340.05239    576.97616   -7027.1273 
13905000    248.66217   -9174.6347   -8226.6211   -9174.6347            0    5318.9474    24.997373    25.000273     23.16812    14478.711    4867.0114    6158.3496    4931.4813    654.21003   -605.31085   -331.04105   -7103.4874 
13906000    236.46804   -9212.1753   -8310.6513   -9212.1753            0    6603.7053    25.058414    25.060941    22.874874    14365.134     6392.003    5948.4392    7470.6738   -456.59489   -156.33165   -406.01802   -6927.1701 
13907000    254.56685   -9207.1309    -8236.606   -9207.1309            0    6462.4728    25.084603    24.990848    22.992892     14413.91      6454.86    6299.3335    6633.2249    635.56942      154.246    -735.8842    -6878.116 
13908000    248.99954   -9165.0954   -8215.7956   -9165.0954            0    5630.0745    24.980869    24.977886    23.148033    14443.662    6642.1475    5734.0561    4514.0198    845.12149    78.077699   -1880.2208    -7029.843 
13909000    254.19726   -9160.8892   -8191.7733   -9160.8892            0    6573.8636    24.918175    24.968076    23.194691    14430.783    7677.7511    6260.6664    5783.1732    -58.51315   -681.05534   -670.02409     -6808.25 
13910000    252.70303   -9189.6426   -8226.2234   -9189.6426            0    6592.8046     24.99471     24.99999    23.025046    14387.602    6679.9096    5844.8866    7253.6175   -448.32659   -165.93456    1047.2257   -6842.8656 
13911000    248.53342   -9219.1378    -8271.615   -9219.1378            0    6828.6587    25.048799    25.049966    22.872498    14351.842    6773.4134    5639.4389    8073.1239   -467.66248    680.26116     -191.807   -6842.3296 
13912000    253.63918   -9195.5433    -8228.555   -9195.5433            0    6400.5293    24.921834    25.000252    23.125859    14408.616    6709.0553    7625.8174    4866.7152   -253.27452   -234.61649    687.85164   -6883.5806 
13913000     252.8188   -9170.9904   -8207.1299   -9170.9904            0    6005.3176    24.966091    25.055265    23.094817    14446.548    5607.4475    6222.1918    6186.3136   -140.44144    1025.9964    27.240209    -6941.881 
13914000    239.06765   -9165.2579    -8253.823   -9165.2579            0    5436.0101     25.06595    25.032142    23.066844    14473.393    5666.8216    5090.4978    5550.7108   -815.99726   -849.22491    296.38742   -7106.3922 
13915000    249.24339   -9169.7526   -8219.5231   -9169.7526            0    6202.9657    25.051733     25.03471    23.004019    14427.267    6481.3245    5553.1356    6574.4372   -666.54114   -226.22753   -600.44205   -6914.3764 
13916000    252.88412   -9152.5532   -8188.4436   -9152.5532            0    5731.1682    25.048064    25.044996    23.075071    14475.654    5618.6937    6167.7595    5407.0513   -483.74224   -237.88236   -1103.0457    -6978.522 
13917000     240.7271    -9209.108   -8291.3465    -9209.108            0    4663.9087    25.105372    25.008863    23.058492    14477.432    4337.8892    4283.6868    5370.1499    272.13817   -749.47041   -209.64292   -7306.6159 
13918000    246.72602   -9109.9982   -8169.3661   -9109.9982            0    6477.3827    25.018826    24.945085    23.166235    14457.972    6808.3803    5908.6332    6715.1345   -632.01007    439.87676   -363.12942   -6803.5796 
13919000    243.52534   -9149.4959   -8221.0662   -9149.4959            0    5173.4441    24.981562    25.023083    23.188076    14495.231    5500.4862    4975.8234    5044.0229   -31.617855   -569.95901    449.91976   -7127.4101 
13920000    238.24637   -9137.4348    -8229.131   -9137.4348            0    6965.2973    25.041406     25.12039    22.895564    14402.452    7002.9367    6298.6168    7594.3386   -561.01291    124.01734   -532.81157   -6766.1052 
13921000    252.09406   -9196.0046    -8234.907   -9196.0046            0     5858.069    24.972284    25.022133    23.069347    14415.108    5864.7557    5188.7183     6520.733   -77.734859    444.63955    275.08961   -7003.3678 
13922000    249.13802   -9171.2316   -8221.4039   -9171.2316            0    7049.3957    24.970493    24.845086     23.20236    14394.606    6762.7591    7767.5079    6617.9203    379.50751   -99.573623    730.49534   -6741.5203 
13923000    248.83255   -9165.7558   -8217.0926   -9165.7558            0    8114.5546    25.040893    24.965946    22.953582    14349.882    7438.1145    8571.6248    8333.9245   -590.39838    -141.3191   -229.40007   -6518.8924 
13924000    243.43927   -9160.1717   -8232.0702   -9160.1717            0    8503.7258    25.047663    24.859745     22.95952      14296.4     7092.568    8488.4207    9930.1886   -229.77061   -222.92629   -418.94744   -6459.0576 
13925000    246.36873   -9168.6733   -8229.4033   -9168.6733            0    7298.9062    25.007003     24.90881     23.09329    14384.688    6880.2507    7069.1768    7947.2909    223.86825    904.14185    585.38863   -6698.1956 
13926000    242.18032   -9174.1123   -8250.8105   -9174.1123            0    7118.9066    24.927147    25.039357    23.008269    14360.835    6357.0685    6593.0193     8406.632    852.28891    568.12774   -1420.8198   -6759.8406 
13927000    239.49006   -9131.7924   -8218.7471   -9131.7924            0    4824.1033    24.885531    25.097109    23.230614    14508.793    5178.5221    6100.7444    3193.0434   -332.25504   -636.91798    899.36358   -7197.9868 
13928000    242.96751   -9161.5163   -8235.2133   -9161.5163            0    5148.0054    24.996203    25.099649    23.103115      14494.8    5282.1258     5539.497    4622.3932    16.750041   -284.63201    528.38156   -7146.9673 
13929000     244.6893   -9169.7454   -8236.8782   -9169.7454            0    4832.8437    25.068568    25.220573    22.915671    14488.288    4536.9655    4304.8296     5656.736   -933.52141   -860.45514    777.45462   -7215.7137 
13930000    234.86064   -9152.2105   -8256.8147   -9152.2105            0    6024.0145    25.005072    25.072491    23.063133    14459.187    5403.2626    6536.8973    6131.8836    142.01416   -308.61829    707.06772   -6986.5162 
13931000    249.23981   -9168.3861   -8218.1703   -9168.3861            0     7353.978    24.895434    25.037816    23.033368    14357.327    8421.9422    6570.9664    7069.0254    749.26926    246.17544   -80.494531   -6678.3437 
13932000    254.48662   -9154.1771   -8183.9581   -9154.1771            0    7991.4725    24.916029    25.045119    22.954263    14324.032    9382.3329    6449.6762    8142.4086   -452.26121   -724.49648    298.28982    -6514.529 
13933000    246.12328   -9166.3021   -8227.9679   -9166.3021            0    7633.6022    25.056306    24.957549    22.996928     14380.99    6116.4536    8544.9154    8239.4375    42.616265   -380.03847   -254.67502   -6626.9573 
13934000    245.43178   -9145.9113   -8210.2134   -9145.9113            0    7291.3135    25.026845    24.917794    23.041149    14368.778    6494.1372    8044.2855    7335.5178    396.67802    549.56323    835.11614   -6682.2903 
13935000    251.31046   -9113.1785   -8155.0685   -9113.1785            0    10470.137    24.899015    24.782527    23.062236    14230.795    9865.0242    12164.631     9380.756   -756.62594    170.05716     826.2084   -5982.0799 
13936000    252.57683   -9149.8934   -8186.9553   -9149.8934            0    6536.1312    25.061485    25.000052    23.043699    14437.763    6056.5298    7554.4252    5997.4386   -77.253438    184.59797   -686.51828   -6810.7078 
13937000    241.25972   -9194.3592   -8274.5671   -9194.3592            0     4366.098    25.161624     24.96263     23.08081    14497.064    3497.3831     5422.886    4178.0247   -47.398987    167.27888    -871.2094   -7351.4657 
13938000    240.58079   -9106.4607    -8189.257   -9106.4607            0    6974.2488    25.005285    24.947163     23.08612    14401.374    6057.2176    7788.0257    7077.5032    294.09996   -1362.7437    -602.2504   -6724.4606 
13939000    235.14431   -9173.5375   -8277.0602   -9173.5375            0    5460.1833    25.044635    24.945145    23.108616    14436.923    5241.5947    6086.7066    5052.2487    494.05341    55.486879   -405.76998    -7127.431 
13940000    249.05151    -9128.009   -8178.5111    -9128.009            0    6355.9039    25.069332    25.008917    23.058282    14456.548    4908.1806    7082.8495    7076.6815   -633.36777    360.36809   -169.67141   -6838.4709 
13941000     249.4434   -9166.1752   -8215.1831   -9166.1752            0    5207.7925    25.201244    24.915952    23.037744    14465.699    3825.3489    5906.6163    5891.4125   -101.41491   -1080.9087    1031.1362   -7116.5088 
13942000    252.01503   -9160.0399   -8199.2436   -9160.0399            0    5994.7072    25.129553    24.945247    23.027709    14435.217    6026.7537    6925.3874    5031.9805    191.02771   -831.45085    313.32945   -6937.2209 
13943000    242.48746   -9152.8274   -8228.3546   -9152.8274            0    6751.3549    25.014109    24.969407    23.068902    14408.547    5542.6963    7059.2617    7652.1068   -218.14564    292.53238    936.32441   -6809.6662 
13944000    247.31998   -9170.5781   -8227.6815   -9170.5781            0    5942.5327    24.852671     25.16343    23.053675    14417.271    6098.0245    5023.7239    6705.8496    -482.9048   -680.49538   -637.34797    -6978.198 
13945000    249.93766   -9166.4229   -8213.5465   -9166.4229            0    7152.2109    24.947417    25.094033    22.960495    14373.989    7912.9967    5684.9172    7858.7189   -215.79497    668.74141   -645.36363   -6714.2293 
13946000    248.41922   -9145.2581   -8198.1707   -9145.2581            0    7467.0675    24.917348    25.098255    23.000667    14384.202    8009.4484    6132.8751     8258.879    445.78928    174.66388    196.98488    -6631.738 
13947000    252.95637   -9188.2744   -8223.8893   -9188.2744            0    5821.8098     24.95602    25.003548    23.119419    14426.264     6739.763    5643.6226    5082.0438   -218.48597   -517.29203   -797.10762   -6999.0256 
13948000    250.09062   -9152.5675    -8199.108   -9152.5675            0    6303.9609    24.972066    24.954967    23.169482     14438.69    6368.9124    7481.3821    5061.5884    317.39888    356.86148    628.65213    -6871.661 
13949000    252.34963   -9145.3026   -8183.2307   -9145.3026            0    7869.2363    25.005341    24.930582     23.03131    14357.666    7511.3437    8725.1655    7371.1997   -241.82252   -1114.7918    283.61583   -6535.4769 
13950000    245.56762   -9157.1515   -8220.9358   -9157.1515            0     8752.816    25.024217    25.018913    22.834423    14296.146     7555.848    8610.7926    10091.807    219.61134   -690.93714   -205.08182   -6396.0207 
13951000    250.83241   -9143.5757   -8187.2881   -9143.5757            0     6582.543     25.03012    25.001706    23.025925    14409.525    5787.1278    6553.4315    7407.0696    155.91536    126.90373    156.27688    -6803.979 
13952000    247.94801   -9172.3429    -8227.052   -9172.3429            0    6615.3181    24.968221     24.91633    23.118139    14382.174    7258.1011    6159.4054    6428.4478   -286.03402   -101.47028   -1816.2259    -6839.494 
13953000    242.91017   -9205.0541   -8278.9698   -9205.0541            0    5738.0505    24.976923    24.950466    23.128112    14413.113    5067.4333    7106.1833    5040.5347   -1120.2168   -949.81259   0.64248457   -7072.8289 
13954000    251.16725   -9160.3784   -8202.8143   -9160.3784            0    6398.4334    25.033384    25.045165    23.002137     14421.54    6895.5805    5228.6236    7071.0963    510.06302   -1203.6566    196.84323   -6857.0742 
13955000     240.9686   -9173.3968   -8254.7146   -9173.3968            0    6062.1046    25.020508    25.096922    22.966141    14421.306    6214.3723    4752.9761    7218.9654    841.27341    -154.9414    974.74562    -6979.733 
13956000    235.33296   -9198.8596    -8301.663   -9198.8596            0    6073.7668     24.90323     25.11055    23.027129    14399.642    6702.4434    5695.5852    5823.2717   -664.11809   -180.46053   -473.06732   -7026.1477 
13957000     246.9982   -9160.0659   -8218.3962   -9160.0659            0    7019.5597    24.839797    25.044793    23.143224    14397.575     7596.644    6107.8793    7354.1558   -115.92068   -271.91332   -295.21931   -6744.4721 
13958000    240.73727   -9136.4991   -8218.6988   -9136.4991            0    5850.4047    25.068085    24.996306    23.098674    14473.849    6096.9564    6186.9823    5267.2755   -417.39211     422.1873     940.0982   -6983.7589 
13959000    248.13623    -9131.477   -8185.4686    -9131.477            0    6590.0833    25.126012    25.008858    22.982704    14441.707    6601.5199    6454.3584    6714.3716    -420.2003   -0.1578535   -553.20163   -6797.4818 
13960000     251.0531   -9162.8001   -8205.6711   -9162.8001            0    6724.2804     25.07468    24.958682    23.014937     14403.46      5503.72    6830.2184    7838.9029   -405.92396    263.50382   -286.62472   -6793.1708 
13961000    248.91702     -9137.78   -8188.7948     -9137.78            0     6609.827    24.994004    24.950583    23.173067    14451.072    6572.3539    7222.4218    6034.7053   -184.65798    -86.81097   -765.30258   -6795.7469 
13962000    241.17329   -9152.6155    -8233.153   -9152.6155            0    6082.0272     25.01537    24.901655    23.190606    14445.988    5116.2869    8183.8704    4945.9243   -376.46641   -601.67392     698.2332    -6951.792 
13963000    249.96422   -9184.5505   -8231.5729   -9184.5505            0    6050.4042    25.022369    25.015632    23.047704    14426.719    5950.5323    6315.8465    5884.8339   -464.05312    277.86747    323.57144   -6958.5745 
13964000    250.87009    -9154.626   -8198.1948    -9154.626            0     6746.806    25.040273    24.997442    22.982543    14385.757    6270.1977    6745.1127    7225.1075   -387.55072    366.47624    1629.6893   -6782.7048 
13965000    246.61127   -9177.0847   -8236.8901   -9177.0847            0    6662.6035    24.945383    24.989903    23.090804    14394.408    6451.0103    6255.9105    7280.8897    257.50471   -967.17651   -68.925211   -6838.2252 
13966000     241.2716   -9177.5458   -8257.7085   -9177.5458            0    6352.1246    24.928701    25.023676    23.107491    14414.631    6850.6384    6432.3598    5773.3756    598.95591    537.80303   -1113.0418   -6922.3483 
13967000    256.99402   -9170.6769   -8190.8985   -9170.6769            0    6648.4084    24.850895    25.107741    23.059753    14388.129    7951.1846    6048.6174    5945.4232   -163.69334   -661.06853   -627.48095   -6795.8224 
13968000    246.95495   -9149.3026   -8207.7977   -9149.3026            0    7017.5791    24.889824    25.102602    23.002937     14372.22    7710.3895    6663.0311    6679.3168    532.73832   -819.14425   -170.37477   -6736.8844 
13969000    237.51841   -9165.0628   -8259.5343   -9165.0628            0    7161.4965     24.93893    25.026995    23.054878    14389.621     7212.602    7494.6886     6777.199    -718.5266   -1286.4953   -480.33088    -6756.638 
13970000    248.13079   -9177.6498   -8231.6621   -9177.6498            0    6589.3332    24.851616    24.994951    23.219313    14423.023    7042.3262    6147.6353    6578.0382    264.01051    756.81234   -822.91385   -6845.6288 
13971000    252.33777   -9179.0624   -8217.0358   -9179.0624            0    7093.3919    24.931626     25.03476    22.997097    14353.806    7111.3718     7657.035    6511.7688   -272.75998    822.31902    49.197552   -6732.1368 
13972000    241.57445   -9162.5799   -8241.5879   -9162.5799            0    8704.7716    24.969666    25.056708    22.846031    14293.793     8207.657     8202.182    9704.4758    129.03066   -1090.3897   -110.82534   -6426.9885 
13973000    246.26679   -9172.1746   -8233.2933   -9172.1746            0    7583.6352    24.901827    25.073856    23.026633     14377.48      8690.58    6794.5722    7265.7533   -2.0398189   -96.220018   -636.47143   -6643.1506 
13974000    257.86734   -9143.9437   -8160.8358   -9143.9437            0    7266.4075    24.947413    25.038753    23.031366    14386.592     7946.975    6422.7976    7429.4499   -896.26565   -509.77426   -918.22608   -6636.2441 
13975000    238.71563   -9157.6163   -8247.5234   -9157.6163            0    7456.8614    25.017519    24.997098    22.969257    14364.178    7203.8913    6982.0772    8184.6156   -322.05164   -1103.9374   -93.887687   -6685.4094 
13976000     243.6961    -9150.159   -8221.0784    -9150.159            0    7609.2282    25.021525    24.902508    23.013552    14339.715    7511.4569    9140.1447    6176.0829    83.787123   -53.521231    898.82156   -6629.7602 
13977000    247.62478    -9137.654   -8193.5954    -9137.654            0    6965.1132    24.999529    24.956354    23.122952    14426.343    6390.2019    7068.2787    7436.8591    95.628631   -430.68278    427.32012   -6728.1815 
13978000    247.19991   -9145.3203   -8202.8815   -9145.3203            0    5848.5583    25.087707    25.065819    23.018395    14474.978    5246.4738    5281.2219    7017.9793   -403.63536    -434.0635   -112.29185    -6968.235 
13979000    250.91783   -9195.5236   -8238.9104   -9195.5236            0    6282.5033    25.117496    25.021639    22.906847    14396.516    4730.6286    7321.0348    6795.8465    -246.5183   -25.767466   -70.085584   -6919.8459 
13980000    239.61496   -9117.9611   -8204.4396   -9117.9611            0    6266.8219    25.003706    24.952487    23.140555    14437.499    7912.9979    6113.8989    4773.5688    845.00827    774.75227   -1612.5099   -6884.9219 
13981000    255.02503   -9158.7363   -8186.4646   -9158.7363            0    5618.9501    24.990945    24.919862     23.23985    14473.103     5233.089    6570.1659    5053.5953    263.84668    332.26385    132.99902   -7000.4427 
13982000    241.93422   -9124.8863   -8202.5228   -9124.8863            0     6511.145    25.080997    24.990739    23.034014    14437.551    5860.5353    6504.2462    7168.6534   -1005.8497   -856.87578    102.35571   -6831.5565 
13983000    248.54004   -9142.7684   -8195.2204   -9142.7684            0    5894.8128    25.101761    25.075624    22.961363    14452.854    4602.3818    5920.6308    7161.4257    496.43594    55.250163   -1113.7206   -6952.7115 
13984000    250.13422   -9157.7986   -8204.1728   -9157.7986            0    6029.7725    25.062635    25.022462    23.053032    14457.221    5949.8792    5891.1196    6248.3189   -50.026176   -424.89342    -175.2689    -6932.833 
13985000    236.48754   -9166.6464   -8265.0481   -9166.6464            0    4309.6183    25.059533    25.060293    23.169623    14550.505     3827.144    5586.1248    3515.5861   -546.97389   -429.62573    44.820906    -7350.529 
13986000    252.57448   -9171.3258   -8208.3967   -9171.3258            0    6083.6092    25.005871    25.061826    23.033755    14435.089    5121.9342    5899.1222    7229.7713    560.97313     356.0829    523.49384   -6927.6694 
13987000    244.63829   -9174.6466   -8241.9739   -9174.6466            0    5420.8979    24.945817    25.125498     23.05356     14449.42    4599.0379    6040.3814    5623.2745    647.74801     262.1798   -393.82612   -7099.6283 
13988000    247.28522   -9102.6195   -8159.8555   -9102.6195            0    7030.4136    24.895981    24.974973    23.234289    14446.534    6460.8893    7278.4532    7351.8984   -750.51131    980.34008    205.24711   -6678.6325 
13989000    241.67151   -9131.9373   -8210.5753   -9131.9373            0    6119.6385    24.958014    25.012593    23.165832     14461.61    7258.6617    5875.0268     5225.227    -4.798443    232.82298   -793.05468   -6919.8961 
13990000    256.15429   -9162.8232   -8186.2462   -9162.8232            0    6367.1509    25.082611    25.041668    23.018224    14457.986    6201.8442     5605.761    7293.8474    82.560959    -451.8277    531.85088   -6843.7012 
13991000    255.06471   -9182.1755   -8209.7525   -9182.1755            0    5689.9823    25.052312    25.138374    22.982815    14473.988    5446.6478    5708.8184    5914.4808   -995.60103     168.8762   -28.607731   -7008.6639 
13992000    245.78712   -9123.5939   -8186.5413   -9123.5939            0    6734.6879    24.924116      25.0378    23.089643    14408.977    8112.7251    7030.4159    5060.9227   -268.05642   -298.02345    1084.5398    -6771.313 
13993000    244.69376   -9151.9101   -8219.0259   -9151.9101            0    6463.3215    24.803569    25.032746    23.197221    14403.188    8680.6614    5569.9715    5139.3316   -244.48116   -178.42101    170.20588   -6861.3682 
13994000    244.47883   -9179.5511   -8247.4863   -9179.5511            0    6888.5057    24.914996    25.056844     23.02868    14376.601    7252.0285     6505.963    6907.5256    -602.3987    561.14941   -252.01845   -6803.1872 
13995000    251.80077   -9157.8598   -8197.8804   -9157.8598            0    6948.4754    24.806287    25.143904    23.071902    14390.566    9323.5631    5382.2339     6139.629    744.00408    -308.9751    1123.5078   -6739.5925 
13996000    246.56527   -9175.3133   -8235.2941   -9175.3133            0    7238.6478    24.879344    25.016011    23.053825    14348.284    8678.0355    6386.8623    6651.0455     3.079481   -516.49184   -316.94903   -6720.5708 
13997000    252.90114   -9129.5467   -8165.3722   -9129.5467            0    7338.1517    24.933368    25.091235    22.993914    14385.199    7662.7388    7160.6597    7191.0566   -781.23677    66.124719    1101.6197   -6625.8766 
13998000    245.06206   -9195.0638   -8260.7755   -9195.0638            0     6528.535    24.850954    25.014779    23.154857    14394.011     7388.857    6350.5496    5846.1985    939.97471   -922.86938    196.08721   -6890.2931 
13999000    241.42546   -9188.3058   -8267.8818   -9188.3058            0    7245.4817    24.984779     24.85423    23.158773    14381.076    7390.6379    7716.3811    6629.4261   -620.91368   -975.12767   -97.459372   -6748.2635 
14000000    252.72801   -9155.3534   -8191.8389   -9155.3534            0    6867.2059    24.994934    25.004954    23.031744    14394.775    7203.3312    6595.6413    6802.6452   -456.83495   -125.60208   -593.06949   -6750.1856 
Loop time of 547.171 on 64 procs for 250000 steps with 1920 atoms

Performance: 78.952 ns/day, 0.304 hours/ns, 456.896 timesteps/s
99.2% CPU use with 64 MPI tasks x 1 OpenMP threads

MPI task timing breakdown:
Section |  min time  |  avg time  |  max time  |%varavg| %total
---------------------------------------------------------------
Pair    | 62.256     | 64.903     | 66.482     |  12.8 | 11.86
Bond    | 0.2734     | 0.28279    | 0.29317    |   0.9 |  0.05
Kspace  | 236.76     | 243.08     | 252.45     |  20.7 | 44.42
Neigh   | 5.0239     | 5.4039     | 6.3304     |  11.6 |  0.99
Comm    | 94.124     | 106.55     | 115.25     |  36.9 | 19.47
Output  | 1.9834     | 1.9849     | 1.9942     |   0.1 |  0.36
Modify  | 107.62     | 116.22     | 120.51     |  33.2 | 21.24
Other   |            | 8.746      |            |       |  1.60

Nlocal:        30.0000 ave          36 max          27 min
Histogram: 2 11 17 11 10 8 3 1 0 1
Nghost:        2787.56 ave        2812 max        2755 min
Histogram: 1 3 5 8 6 11 12 6 8 4
Neighs:        10547.9 ave       12864 max        9380 min
Histogram: 3 13 15 10 11 8 2 1 0 1

Total # of neighbors = 675065
Ave neighs/atom = 351.59635
Ave special neighs/atom = 2.0000000
Neighbor list builds = 9485
Dangerous builds = 0

unfix		3
unfix		2
unfix		1

write_data	data.final.${pid}
write_data	data.final.0
System init for write_data ...
PPPM initialization ...
  extracting TIP4P info from pair style
  using 12-bit tables for long-range coulomb (../kspace.cpp:340)
  G vector (1/distance) = 0.37424674
  grid = 30 30 30
  stencil order = 5
  estimated absolute RMS force accuracy = 0.0032960728
  estimated relative force accuracy = 9.9260254e-06
  using double precision FFTW3
  3d grid and FFT values/proc = 3600 512
Last active /omp style is kspace_style pppm/tip4p/omp
WARNING: Not all mixed pair coeffs generated from mixing. Use write_data with 'pair ij' option to store all pair coeffs. (../write_data.cpp:312)

write_restart   restart.lmp.${pid}
write_restart   restart.lmp.0
System init for write_restart ...
PPPM initialization ...
  extracting TIP4P info from pair style
  using 12-bit tables for long-range coulomb (../kspace.cpp:340)
  G vector (1/distance) = 0.37424674
  grid = 30 30 30
  stencil order = 5
  estimated absolute RMS force accuracy = 0.0032960728
  estimated relative force accuracy = 9.9260254e-06
  using double precision FFTW3
  3d grid and FFT values/proc = 3600 512
Last active /omp style is kspace_style pppm/tip4p/omp
Total wall time: 0:09:09
