LAMMPS (30 Jul 2021)
Processor partition = 1
  using 1 OpenMP thread(s) per MPI task
using multi-threaded neighbor list subroutines
variable        pid world 0 1
variable        phase world IceII IceIII

shell cd ${phase}
shell cd IceIII
include Restart.lmp
echo both
log log.lammps
#include		in.partitions
include		in.temp
variable        temperature equal 137.11
variable	tempDamp equal 100.0
include		in.pressure
variable        pressure equal 9668.8
variable        pressureDamp equal 1000.0 # This is 1 ps
include		in.seed
variable        seed equal 745823

units		real
atom_style	full

read_restart	restart.lmp.${pid}
read_restart	restart.lmp.1
Reading restart file ...
  restart file = 30 Jul 2021, LAMMPS = 30 Jul 2021
  restoring atom style full from restart
  orthogonal box = (0.23642438 0.079239056 0.17545626) to (19.763577 19.920762 20.524542)
  4 by 4 by 4 MPI processor grid
  restoring pair style lj/cut/tip4p/long/omp from restart
  restoring bond style harmonic/omp from restart
  restoring angle style harmonic/omp from restart
  972 atoms
  648 bonds
  324 angles
Finding 1-2 1-3 1-4 neighbors ...
  special bond factors lj:    0        0        0       
  special bond factors coul:  0        0        0       
     2 = max # of 1-2 neighbors
     1 = max # of 1-3 neighbors
     1 = max # of 1-4 neighbors
     2 = max # of special neighbors
  special bonds CPU = 0.008 seconds
  read_restart CPU = 0.019 seconds
include 	in.setup
variable	out_freq equal 1000
variable	out_freq2 equal 10000
variable	out_freq3 equal 1000

timestep	2.0

neigh_modify    delay 7 every 1

include		in.tip4p
# This is TIP4P/Ice

# create groups ###
group ox type 2
324 atoms in group ox
group hy type 1
648 atoms in group hy

# set charges - beside manually ###
set group ox charge -1.1794
Setting atom values ...
  324 settings made for charge
set group hy charge 0.5897
Setting atom values ...
  648 settings made for charge

# ### TIP3P Potential Parameters ###
pair_style lj/cut/tip4p/long/omp 2 1 1 1 0.1577 8.5
pair_coeff 1 1*2 0.000 0.000
pair_coeff 2 2 0.21084 3.1668
bond_style  harmonic
bond_coeff  1 450 0.9572
angle_style harmonic
angle_coeff 1 55 104.52
kspace_style pppm/tip4p/omp 1.0e-5
pair_modify tail yes

thermo          ${out_freq}
thermo          1000
thermo_style    custom step temp pe etotal epair emol press lx ly lz vol pxx pyy pzz pxy pxz pyz enthalpy

restart 	${out_freq3} restart.lmp.${pid} restart2.lmp.${pid}
restart 	1000 restart.lmp.${pid} restart2.lmp.${pid}
restart 	1000 restart.lmp.1 restart2.lmp.${pid}
restart 	1000 restart.lmp.1 restart2.lmp.1


include         in.dump
dump            myDump all atom ${out_freq2} dump.water.${pid}
dump            myDump all atom 10000 dump.water.${pid}
dump            myDump all atom 10000 dump.water.1
dump            myDump2 all dcd ${out_freq2} dump.dcd
dump            myDump2 all dcd 10000 dump.dcd
dump_modify     myDump append yes
dump_modify     myDump2 append yes


variable natoms 	equal  "count(all)"                        # NUMBER ATOMS
variable H      	equal  "enthalpy/v_natoms"                 # ENTHALPY-per-atom
variable Vol      	equal  "vol/v_natoms"                 # volume-per-atom
fix AVG all 		ave/time ${out_freq} 1 ${out_freq} v_Vol v_H file vol_enthalpy.dat
fix AVG all 		ave/time 1000 1 ${out_freq} v_Vol v_H file vol_enthalpy.dat
fix AVG all 		ave/time 1000 1 1000 v_Vol v_H file vol_enthalpy.dat


timer           timeout 02:55:00 every 1000
New timer settings: style=normal  mode=nosync  timeout=02:55:00

fix 		1 all shake 1e-6 200 0 b 1 a 1
Finding SHAKE clusters ...
       0 = # of size 2 clusters
       0 = # of size 3 clusters
       0 = # of size 4 clusters
     324 = # of frozen angles
  find clusters CPU = 0.001 seconds
fix             2 all nph aniso ${pressure} ${pressure} ${pressureDamp}
fix             2 all nph aniso 9668.8 ${pressure} ${pressureDamp}
fix             2 all nph aniso 9668.8 9668.8 ${pressureDamp}
fix             2 all nph aniso 9668.8 9668.8 1000
fix             3 all temp/csvr ${temperature} ${temperature} ${tempDamp} ${seed}
fix             3 all temp/csvr 137.11 ${temperature} ${tempDamp} ${seed}
fix             3 all temp/csvr 137.11 137.11 ${tempDamp} ${seed}
fix             3 all temp/csvr 137.11 137.11 100 ${seed}
fix             3 all temp/csvr 137.11 137.11 100 745823


run             250000
PPPM initialization ...
  extracting TIP4P info from pair style
  using 12-bit tables for long-range coulomb (../kspace.cpp:340)
  G vector (1/distance) = 0.37268588
  grid = 24 24 24
  stencil order = 5
  estimated absolute RMS force accuracy = 0.0034478225
  estimated relative force accuracy = 1.0383015e-05
  using double precision FFTW3
  3d grid and FFT values/proc = 2197 216
Last active /omp style is kspace_style pppm/tip4p/omp
Neighbor list info ...
  update every 1 steps, delay 7 steps, check yes
  max neighbors/atom: 2000, page size: 100000
  master list distance cutoff = 10.8154
  ghost atom cutoff = 10.8154
  binsize = 5.4077, bins = 4 4 4
  1 neighbor lists, perpetual/occasional/extra = 1 0 0
  (1) pair lj/cut/tip4p/long/omp, perpetual
      attributes: half, newton on, omp
      pair build: half/bin/newton/omp
      stencil: half/bin/3d
      bin: standard
Setting up Verlet run ...
  Unit style    : real
  Current step  : 30500000
  Time step     : 2
  Walltime left : 2:54:59.89
Per MPI rank memory allocation (min/avg/max) = 9.227 | 9.229 | 9.232 Mbytes
Step Temp PotEng TotEng E_pair E_mol Press Lx Ly Lz Volume Pxx Pyy Pzz Pxy Pxz Pyz Enthalpy 
30500000    141.01753   -4940.4843   -4668.5202   -4940.4843            0    9211.5462    19.527152    19.841523    20.349085    7884.2214    9251.9615    8238.6499    10144.027   -874.58303    190.76465    1091.7042   -3609.3464 
30501000    132.75778   -4954.3465    -4698.312   -4954.3465            0    9466.9554    19.689664    19.670462    20.399198    7900.7074    8506.5898    10689.011    9205.2656   -154.13867   -987.93976    368.44681   -3607.4942 
30502000    133.93722   -4947.1368   -4688.8276   -4947.1368            0    9459.5685    19.714045    19.553425    20.414479    7869.3142    8326.1222    10929.413    9123.1701   -482.58978    107.85212    1105.2127   -3603.1919 
30503000    134.61017   -4949.2047   -4689.5977   -4949.2047            0    9959.8721    19.566845    19.602402    20.463984    7849.1077    9533.5085    10775.427    9570.6813   -182.77472    -504.7686    351.76342   -3549.4793 
30504000    130.72303   -4955.2787   -4703.1684   -4955.2787            0     10418.34    19.533234    19.777969    20.249772     7823.048    11072.164    10214.486    9968.3714   -677.14924    1245.4976    1787.3376   -3514.5282 
30505000     138.5782   -4958.7569   -4691.4972   -4958.7569            0    9940.5401    19.740253    19.749882    20.235192    7889.0471    9681.7173    9526.1862    10613.717   -179.67539   -974.24946    670.77027   -3547.8017 
30506000    142.37115   -4955.9922   -4681.4175   -4955.9922            0    10127.537    19.651513    19.658484    20.352737    7862.6482    10031.238     10448.78    9902.5935   -726.59475   -37.261124    344.81086   -3520.1064 
30507000    140.38763   -4962.1459   -4691.3966   -4962.1459            0    9230.6747    19.706715    19.615317    20.403389    7887.0005    8306.5574    11105.922    8279.5445    -948.1337   -128.22286    889.48176   -3629.6492 
30508000    141.16826   -4951.5063   -4679.2514   -4951.5063            0    11389.665    19.598825      19.6026    20.319853    7806.6421    10098.578    12931.659    11138.757    86.785823    854.07433   -216.61686   -3382.5168 
30509000    149.07978   -4958.0034   -4670.4905   -4958.0034            0    11085.322     19.64638     19.70728    20.216821    7827.4819    10872.203    10664.626    11719.138   -437.12712    115.74593   -525.72141   -3405.0367 
30510000    140.57019   -4950.1165    -4679.015   -4950.1165            0    9632.7369    19.803928    19.533757    20.334329    7866.2357    9250.1662    10355.785    9292.2592   -714.70549   -73.856495    760.36342    -3573.938 
30511000    136.21333   -4954.6471   -4691.9483   -4954.6471            0    9821.1846    19.781193    19.538454    20.336811    7860.0542      8686.39    10026.127    10751.037    186.66427    1843.6372    569.89184   -3566.1377 
30512000    140.19046    -4939.369   -4668.9999    -4939.369            0    9067.5605    19.642775    19.639012    20.442107    7885.8434    9224.9127    8901.1524    9076.6165   -22.176841   -1355.9039   -740.07605   -3626.1675 
30513000    146.48068   -4953.1611   -4670.6608   -4953.1611            0    9635.3721    19.590918    19.693737    20.394812    7868.6934    9351.7354    9463.8678    10090.513    1157.0117    102.98144    299.86716   -3564.9361 
30514000    132.11466   -4955.6385   -4700.8442   -4955.6385            0    9376.4941     19.69211    19.775994    20.284176    7899.2877    8617.8937    10262.012    9249.5766   -288.93669    1131.4396    314.98002   -3620.6439 
30515000    135.04282   -4953.8443   -4693.4029   -4953.8443            0    9201.9558    19.783426     19.66359    20.205013    7860.0161    7754.5346    10550.456    9300.8771     243.7764    735.09513   -74.766593   -3638.5802 
30516000     133.8245   -4947.1478    -4689.056   -4947.1478            0    9670.6853    19.709337    19.681034    20.263967    7860.3953     8615.438    10546.838    9849.7802   -184.96129    149.78571    198.97415   -3580.4492 
30517000    146.46535   -4974.9886   -4692.5178   -4974.9886            0    9029.3695    19.693502    19.798078    20.240461    7891.6239    9059.3482     7322.949    10705.811   -253.89227   -209.22426    124.41974   -3653.3165 
30518000    130.60963     -4962.19   -4710.2983     -4962.19            0    8990.1093     19.82213    19.637671    20.354875    7923.3482    8114.1281    10085.998    8770.2018   -378.63575    985.41754   -544.26962   -3671.4561 
30519000    134.31807   -4946.9613   -4687.9176   -4946.9613            0    9567.7467    19.499932    19.874404    20.231165    7840.5785    11114.845    8143.7327    9444.6627    48.187869    312.12948    -485.8495   -3593.8764 
30520000     135.7296   -4954.7665   -4693.0005   -4954.7665            0    9625.6257    19.672762    19.765734    20.287952    7888.9008    9175.4667    10544.626    9156.7844    148.22362    -632.7687    883.52066   -3585.5576 
30521000    143.44306   -4985.6318   -4708.9898   -4985.6318            0    8476.1826    19.708508    19.775429    20.255549    7894.4826    7365.4471    8442.3038    9620.7969    -126.1737   -321.20033   -1313.3028    -3733.102 
30522000    137.29367    -4958.258   -4693.4756    -4958.258            0    9342.3275    19.685072     19.73102    20.353563    7905.4572    8674.6796    9461.6518     9890.651   -625.91848     1816.456    -254.7699   -3616.3707 
30523000    141.36768    -4978.834   -4706.1946    -4978.834            0    10211.736    19.684571    19.768059    20.267835    7886.7373     10049.38    10158.557    10427.272    138.92026    877.27638    431.92103   -3531.6409 
30524000    148.38921   -4947.0801    -4660.899   -4947.0801            0    9728.2439     19.59609    19.732109    20.299519    7849.2598     8027.345     10164.35    10993.036   -589.63902    1526.7081    2183.6335   -3547.2738 
30525000    138.43537   -4946.3448   -4679.3606   -4946.3448            0    9469.9135     19.64656    19.721977    20.422137     7912.945    10225.701     8468.275     9715.764    317.64603   -1023.7533   -838.07174   -3586.5119 
30526000    142.73386   -4949.0243   -4673.7501   -4949.0243            0     10939.03    19.688911    19.612256    20.379921    7869.5835    10581.838    10803.314    11431.938   -358.71654   -1254.3226   -578.60716   -3418.2797 
30527000    147.27786   -4956.1128   -4672.0751   -4956.1128            0    10222.511    19.474867    19.689146    20.497593    7859.6687    10090.284    10435.664    10141.586    479.62167   -148.92026   -461.63352   -3500.3177 
30528000     135.4043   -4961.4469   -4700.3083   -4961.4469            0    8696.2692    19.523049    19.722663    20.491147    7890.0445    8800.7722    8977.9912    8310.0443   -312.61984    250.56642   -66.189966   -3699.6442 
30529000    138.92819    -4953.182   -4685.2473    -4953.182            0     10105.26    19.572618    19.697674    20.436277     7878.901    11014.596    9630.2107    9670.9743   -1052.3563    123.72007   -32.214948   -3524.0954 
30530000    141.02911   -4956.0382   -4684.0517   -4956.0382            0    9776.7124    19.603896    19.624119    20.532847     7899.175     9616.428    11106.346    8607.3631   -692.84776     378.6444   -286.45335    -3557.761 
30531000    142.42574   -4950.5015   -4675.8214   -4950.5015            0    10551.316    19.538125    19.642135    20.546693    7885.2147    10879.454    11393.975    9380.5178      1.97836    907.46047    184.67807   -3462.4437 
30532000    140.00544   -4955.3291   -4685.3168   -4955.3291            0    8848.9021    19.560329    19.701066    20.478978    7891.7654    8688.1436    9499.6545    8358.9083   -8.5014282    141.52157    1432.9669   -3666.8674 
30533000    136.84839   -4955.6617   -4691.7381   -4955.6617            0    8304.6116    19.615465    19.837099    20.348983    7918.0726    8431.2231    7231.0009    9251.6109   -421.50149    390.57906   -3.4577393   -3732.7467 
30534000    135.86695   -4970.6225   -4708.5916   -4970.6225            0    9398.8119    19.657006    19.697368    20.452311    7918.9564    9014.6966    10050.388    9131.3513    687.46995    1173.7964    696.31944   -3623.1242 
30535000    133.48708   -4976.0556   -4718.6145   -4976.0556            0    9284.1013    19.572884    19.712265    20.487319    7904.5376    8981.6342    10367.861    8502.8082   -386.72348    -553.0131    -629.3426   -3648.3473 
30536000    136.49683   -4968.2116    -4704.966   -4968.2116            0    8922.1391    19.620844     19.75592    20.315939    7875.0235    8589.6656    9411.6581    8765.0936    141.52946   -640.28245    132.91281    -3680.266 
30537000    140.01889   -4954.7452    -4684.707   -4954.7452            0    11538.076    19.415212    19.829257    20.321985    7823.7454    11451.075    10243.157    12919.996   -140.78893    1063.4227    933.81893   -3368.1975 
30538000    142.57191        -4969   -4694.0381        -4969            0    8385.7927    19.596684    19.863524     20.42072    7948.9533    8391.4922    9482.1097    7283.7762   -217.56897   -631.91569    504.52478   -3721.8955 
30539000    131.74293   -4957.1661   -4703.0888   -4957.1661            0     9880.599    19.663493    19.658762    20.443411    7902.6039    10593.171    9766.6627    9281.9631   -145.92928   -674.15005   -181.94494   -3564.3362 
30540000    129.70354   -4948.5423   -4698.3981   -4948.5423            0     9085.967    19.633087    19.897995    20.238027    7906.1688    8671.8018    8304.8723    10281.227    -487.6734    269.83952   -221.99458   -3650.7556 
30541000    137.77053   -4952.0115   -4686.3094   -4952.0115            0    10222.809    19.578129    19.827168     20.23684    7855.5133    10479.264    8694.0952    11495.067    53.159181    584.34377    566.85558   -3515.1374 
30542000     139.2965   -4962.1808   -4693.5358   -4962.1808            0    9381.7114    19.479387    19.753115    20.435234      7863.04    9368.0099     9371.501    9405.6233    349.48801   -338.06135     374.7044    -3617.694 
30543000    138.72319   -4949.4951   -4681.9557   -4949.4951            0    9358.7132    19.547764    19.673993    20.481182    7876.7057    9542.8963    10975.695    7557.5489   -476.03065    176.63761    1794.1325    -3606.886 
30544000    132.15986   -4962.5263   -4707.6449   -4962.5263            0     8259.024    19.464813    19.755886    20.517354    7889.8381    8700.3511    7577.5481    8499.1727   -325.22114   -626.69197    1013.4615   -3757.3187 
30545000     137.0722   -4975.1125   -4710.7573   -4975.1125            0    9760.9814    19.655252    19.609896    20.419623    7870.4875    9093.5261    11180.966    9008.4517   -361.07656   -159.99215    165.50483   -3590.3627 
30546000    132.79408   -4960.8738   -4704.7692   -4960.8738            0    9421.3485    19.679941    19.793318    20.292045    7904.3875    9014.3588    8828.5348    10421.152   -158.89779   -525.83766   -334.82282   -3618.7008 
30547000    140.08962   -4964.0922   -4693.9176   -4964.0922            0    10005.834    19.557107    19.720696     20.41048    7871.9089    10665.603    9911.3067    9440.5925    663.09767    99.401939    413.47713   -3545.2107 
30548000    126.28791    -4960.366   -4716.8092    -4960.366            0    8234.2497    19.770725    19.744742    20.333763    7937.6475    5956.0388    9942.2077    8804.5027   -292.57661    257.61454    730.19202   -3763.5923 
30549000    137.14729   -4944.2072   -4679.7071   -4944.2072            0    9456.7117    19.586535    19.787952    20.233274    7841.9599    8632.7691    9691.9011    10045.465   -160.35747    967.07894    1029.3783   -3598.1719 
30550000    135.02575   -4960.7889   -4700.3804   -4960.7889            0    10177.992    19.588391    19.724768    20.286832    7838.3545    9663.6868    10639.442    10230.847    568.77239    1034.6438    360.83461   -3536.8898 
30551000    147.76753   -4931.5191    -4646.537   -4931.5191            0    9951.8261     19.41342     19.66662    20.510523    7830.8429    9437.4335    10474.579    9943.4656    -200.2794    871.01645    43.284202   -3509.9906 
30552000    134.01647   -4963.3251   -4704.8631   -4963.3251            0    10118.465    19.447022    19.681326    20.544837    7863.3965    10712.731     9619.512    10023.152   -202.61894    114.74662    -742.4817   -3544.4818 
30553000    130.57654   -4962.9561   -4711.1283   -4962.9561            0    9761.2285    19.489025    19.775372    20.406239    7864.6203    9901.7631    9802.2052    9579.7173   -330.61357    448.42752   -495.08257   -3591.5405 
30554000    137.99726   -4945.3262   -4679.1869   -4945.3262            0    9634.4263    19.524502    19.754679    20.485311    7901.1903    9229.7875    10618.726     9054.765    589.52508   -601.77529     702.8149   -3569.0047 
30555000    139.70236   -4958.8015   -4689.3737   -4958.8015            0    9130.5426    19.660674    19.722236    20.292646    7868.5234    9179.1704    8485.1324    9727.3249    83.318708   -794.13918    439.81296   -3641.6043 
30556000    142.37034   -4938.0273   -4663.4541   -4938.0273            0    9897.7651    19.573297    19.796248     20.31075    7869.9655    10908.196    7965.7867    10819.312   -851.64052   -318.28629    1593.6103   -3527.4344 
30557000    133.31865   -4962.8155   -4705.6993   -4962.8155            0    9933.3978    19.726623    19.791153    20.108258    7850.5173    10754.073    8305.6925    10740.428    268.57373    965.46126   -25.967388   -3568.4073 
30558000     138.2085   -4958.6661   -4692.1194   -4958.6661            0    8423.0283    19.552871    19.707394    20.431878    7873.1412    9115.8572    7982.7608    8170.4671   -418.78395   -2.2437445    733.40283   -3724.9731 
30559000    132.54475   -4951.7784   -4696.1547   -4951.7784            0    9779.3651    19.833834    19.676634    20.153635    7865.2198    8155.4929    10235.917    10946.686   -113.61549     808.7147   -40.768174   -3574.4013 
30560000    139.56436   -4966.6781   -4697.5164   -4966.6781            0    10128.862    19.687617    19.779106    20.293905     7902.517    10435.399    10136.681    9814.5069   -163.93587   -1132.0813   -95.923149    -3530.164 
30561000    135.77428   -4954.7986   -4692.9465   -4954.7986            0    8307.7798    19.705025    19.591245    20.583865    7946.3179    6359.2874    10238.675    8325.3768   -374.72481    333.57061    595.29342   -3730.1671 
30562000    146.20827   -4951.4079    -4669.433   -4951.4079            0    9267.6354     19.56364    19.703127    20.500255    7902.1284    9460.7812    9733.4086    8608.7164    283.73294    184.65624    94.559262   -3601.3896 
30563000    140.10945   -4951.3588   -4681.1459   -4951.3588            0    7821.7345    19.508761    19.822565    20.458923     7911.745    8008.6796    8478.0831    6978.4409   -1192.8417    214.77839    3.9948383   -3778.6375 
30564000    137.23183   -4961.7847   -4697.1216   -4961.7847            0    8400.2806     19.63465    19.872704    20.302229    7921.7997     8984.832    7409.1407    8806.8692   -542.17936    669.72838    308.62432   -3726.6261 
30565000    142.53208   -4966.9013   -4692.0162   -4966.9013            0    10791.535    19.622018    19.578189    20.431638     7849.091    10626.347    10741.453    11006.806     293.7618   -428.95854     1102.941    -3456.699 
30566000    143.95049   -4950.8781   -4673.2575   -4950.8781            0    9522.0058    19.664937     19.70763    20.368526    7893.8081    10274.353    8891.3623    9400.3018   -201.55912    931.16275   -334.95645   -3577.0547 
30567000    133.96592    -4957.504   -4699.1395    -4957.504            0    9638.9616    19.670145    19.702905    20.309931    7871.2964     10705.08    9135.5391    9076.2656    100.91707    1023.7596    358.11977   -3592.6369 
30568000    137.87461   -4955.4208    -4689.518   -4955.4208            0    10171.788    19.457472    19.632583    20.521171    7839.0963    9953.4573     10235.74    10326.166   -24.224697    956.58122    378.52596   -3526.6266 
30569000    131.14165    -4963.425   -4710.5073    -4963.425            0    9962.2546     19.57193    19.730434     20.37455    7867.8904    9157.1299    10305.007    10424.627    358.52714    336.40215    127.11743   -3567.3873 
30570000    136.94975   -4950.5387   -4686.4196   -4950.5387            0     10255.87    19.638839    19.791093    20.288512    7885.6189    10917.728    9998.1182    9851.7637    134.53777   -561.36128    1202.4865   -3506.9569 
30571000    142.96138   -4963.8566   -4688.1435   -4963.8566            0    8994.4003    19.668018    19.843464    20.179246    7875.5884      10009.1    7713.3903    9260.7108   -828.49465   -942.66713   -581.34333   -3655.0703 
30572000    148.13784   -4942.1484   -4656.4521   -4942.1484            0    10330.085     19.57345    19.682491    20.370587    7847.8556    10750.215    9380.0684     10859.97   -38.098838    121.34169   -193.27864   -3474.1437 
30573000    134.48836   -4968.5032   -4709.1311   -4968.5032            0    9428.6711    19.815897    19.532297    20.334706    7870.5476    8662.7913    9798.5727    9824.6492   -172.19768    288.20009    98.428861   -3626.8718 
30574000    131.07864   -4964.1261   -4711.3299   -4964.1261            0    8181.1485    19.746854    19.740676    20.382017    7945.2416    8088.8028    7211.3935    9243.2493   -478.16585   -340.27875    685.58728    -3763.354 
30575000    133.67347   -4948.3659   -4690.5654   -4948.3659            0    11258.687    19.547547    19.585152    20.452453     7830.051    10646.635     13254.95    9874.4766   -163.10103    73.593601   -344.09269   -3404.8992 
30576000    132.10585   -4947.8181   -4693.0409   -4947.8181            0    9295.4524    19.553442    19.740675    20.431595    7886.5577    11221.378    8751.7573    7913.2217   -544.79835    1209.8044    855.69162   -3623.9026 
30577000    129.35288   -4963.6596   -4714.1917   -4963.6596            0    10099.281     19.64576    19.671787    20.366994    7871.1751    10608.259    10341.899    9347.6852   -312.40504    364.23494    -759.1982   -3554.8648 
30578000    137.45304    -4934.983   -4669.8933    -4934.983            0    10038.872    19.708269    19.644053    20.329165    7870.4419    9526.8575     10674.78    9914.9801    127.16064    370.80164   -1197.9794   -3517.6082 
30579000      132.831   -4954.6137   -4698.4379   -4954.6137            0    10149.646     19.66914    19.690051    20.250095    7842.5858    9190.9651    9799.1525    11458.821    101.16777   -77.440182   -648.90021   -3537.5613 
30580000    134.39897    -4930.658   -4671.4583    -4930.658            0    10183.694    19.610026    19.743484     20.22763    7831.5361    9184.7009    10190.665    11175.715    247.80991    572.96237    368.93013   -3508.3285 
30581000    137.01099   -4954.3152    -4690.078   -4954.3152            0    8835.3509    19.495998    19.821967    20.469482    7910.4116    6953.9244    10547.522    9004.6059   -463.93997   -461.08067    97.305024   -3670.7856 
30582000    137.89651   -4968.1217   -4702.1767   -4968.1217            0    9730.4041    19.625045    19.782509    20.246113    7860.2019    10153.882    9963.0349    9074.2953    315.88893    -240.2881    183.98517   -3586.7515 
30583000    130.60932   -4935.7402   -4683.8492   -4935.7402            0    10613.036    19.704637    19.744211    20.263074    7883.3997    10107.478    10883.606    10848.023   -354.23905   -27.910344   -355.67643   -3463.6547 
30584000    135.47762   -4934.7091   -4673.4291   -4934.7091            0    9289.6312    19.822717    19.625012     20.31503    7902.9749     7716.941      10688.3    9463.6526    308.92143   -770.33512    685.88427   -3602.7361 
30585000    142.95186   -4984.3988   -4708.7041   -4984.3988            0    7619.0766    19.833202     19.68583    20.324424     7935.327    6524.5408    8631.3097    7701.3792   -728.18348   -129.01722   -417.25488    -3826.959 
30586000     135.7359   -4964.1245   -4702.3464   -4964.1245            0    9904.5779    19.841573    19.661722    20.234532    7893.8853    8817.5418    11010.745    9885.4472   -76.622705   -1117.7603    116.86802   -3562.0896 
30587000    135.27551   -4954.7056   -4693.8154   -4954.7056            0      10152.6    19.820854     19.44936     20.36187    7849.5604    9601.8609    10761.096    10094.845   -662.57474    342.31465   -1048.2255   -3531.5682 
30588000    140.11637    -4964.842   -4694.6158    -4964.842            0    9092.9867    19.654418    19.594227    20.541962    7910.9793    9591.5092    8826.5303    8860.9206    168.75455    141.45682   -237.17967   -3645.5259 
30589000    126.05877   -4956.6566   -4713.5417   -4956.6566            0    8774.2677    19.674247    19.588877    20.390037    7858.2471    8921.3576    8126.1491    9275.2963   -747.02283    681.15721    496.68067   -3707.9714 
30590000    135.76281   -4949.0164   -4687.1864   -4949.0164            0    11302.476    19.582182    19.536328      20.4249    7813.8302    11316.344    11571.308    11019.776   -828.51547    461.41756   -889.83339   -3399.1935 
30591000    131.77523   -4951.6697   -4697.5301   -4951.6697            0    9170.8772    19.685014    19.575551     20.42009    7868.7792    8270.5342    9504.1527    9737.9446    532.15383   -242.40291   -647.30839   -3645.0979 
30592000    134.46443   -4948.7188   -4689.3928   -4948.7188            0    10501.745     19.70512     19.71641    20.169356    7836.0818    12177.734    8391.2622     10936.24   -386.46893    22.259486    838.02205   -3489.2406 
30593000    138.63237   -4947.5814   -4680.2172   -4947.5814            0    11406.789    19.646649    19.620673    20.437927    7878.4217    12081.823    10813.987    11324.556    213.28578   -14.882054   -162.92193    -3369.592 
30594000    138.79884   -4955.0065   -4687.3213   -4955.0065            0     10479.18    19.736778    19.510715    20.388686    7851.2474    11296.259    10414.323     9726.958    275.02971    645.70008    897.21522   -3487.4302 
30595000    132.65266   -4969.3147   -4713.4829   -4969.3147            0    9858.6051    19.717601    19.650736    20.357151    7887.6912    12319.149    8329.5625    8927.1037    110.48542    1091.4181   -349.98914   -3579.4092 
30596000    142.70328   -4957.2719   -4682.0566   -4957.2719            0    10236.426    19.849184    19.433618    20.411171     7873.435    9649.3222    9017.5646     12042.39    168.11337   -69.111933   -1309.6891   -3506.6491 
30597000      136.619   -4946.4624   -4682.9811   -4946.4624            0    10860.524    19.632598    19.498845    20.443894    7826.1879    11475.328    10915.864     10190.38   -691.87839    472.20986   -495.85854   -3443.3943 
30598000    138.83825   -4957.8392    -4690.078   -4957.8392            0    9137.2772     19.66632    19.596467     20.40784    7864.9854     9417.641    8502.3401    9491.8506    133.00819    864.41436    543.86077   -3642.0072 
30599000    136.46591   -4950.8393   -4687.6533   -4950.8393            0    11087.596    19.660299    19.513786    20.421576    7834.6735    12141.796    10636.829    10484.163   -279.56743   -342.29976   -813.76344    -3420.777 
30600000    136.71874   -4954.8482   -4691.1746   -4954.8482            0    10140.518    19.748125    19.448117    20.483667    7867.0361    11048.357    11216.785    8156.4124   -190.80611   -40.585775    1042.4876   -3527.7261 
30601000    135.96895   -4959.9919   -4697.7644   -4959.9919            0    11455.761     19.73627    19.433526     20.28484    7780.1554    9740.9755    12932.367    11693.941   -169.15667    741.42118   -179.24561   -3397.9297 
30602000    140.19548   -4963.2992   -4692.9204   -4963.2992            0    9748.7869    19.787838    19.509325    20.433798    7888.4136    9373.9548    10169.809    9702.5969   -602.00403   -163.56344   -415.73064   -3571.3769 
30603000    138.98902   -4943.2507   -4675.1986   -4943.2507            0    9635.0868    19.680333    19.477388    20.442736    7836.1398    10132.988    8474.4533    10297.819   -390.89651    1288.0407   -338.19315   -3574.0811 
30604000    138.06321    -4953.271   -4687.0045    -4953.271            0    10386.005    19.886465    19.522189    20.348632    7899.8951    8608.1444    12222.413    10327.457   -939.48989    143.36507   -872.79431   -3490.4135 
30605000    146.25333   -4947.8944   -4665.8326   -4947.8944            0    9449.5429    19.854445     19.40367    20.436991    7873.3323    8587.3198    11468.812    8292.4972   -717.88874   -654.19202   -1640.9642   -3580.7938 
30606000    133.16277    -4969.276   -4712.4604    -4969.276            0    8337.5542    19.862568    19.572245    20.414257    7936.1455    7488.9669    8838.1069    8685.5889    215.56566    405.88079   -556.78877   -3747.4673 
30607000     142.3432   -4959.7585   -4685.2376   -4959.7585            0    10733.254    19.829485    19.580689    20.259553    7866.2775    9741.1288    11450.298    11008.336     103.5118    1174.5497   -153.29275   -3453.9017 
30608000    139.08764   -4945.4721   -4677.2299   -4945.4721            0    9401.1255    19.772684    19.674031    20.246709    7876.1399    10590.321     7006.435    10606.621   -505.58039   -278.64673    373.63482   -3597.3657 
30609000    134.42259    -4945.208   -4685.9627    -4945.208            0    10778.448    19.715925    19.501836      20.4001    7843.7718    11020.759    10257.137    11057.449   -327.96947    438.87554    221.39537   -3452.9797 
30610000    144.56812   -4953.0145   -4674.2028   -4953.0145            0    9975.0833     19.73132    19.428946    20.496769    7857.6158     9752.117    11141.969    9031.1638   -365.30185    338.15169   -795.51627   -3531.1054 
30611000    142.42161   -4949.4892   -4674.8172   -4949.4892            0     10856.26    19.804273    19.521064    20.369761    7874.9591    10081.133    12026.907    10460.741    68.993048    414.00542    593.74005   -3427.9952 
30612000    137.69737   -4948.7034   -4683.1424   -4948.7034            0    8954.5731    19.848225     19.41705    20.464363    7886.8419    9407.7769    7847.3902    9608.5522    322.73807    78.889095     618.0645    -3653.174 
30613000    134.37528    -4961.764     -4702.61    -4961.764            0    10570.637    19.800926    19.731102    20.141023    7868.9783    10454.903    10455.667    10801.342   -272.56796    962.50105   -287.45919   -3489.5134 
30614000     137.9865   -4956.9323   -4690.8137   -4956.9323            0    8958.1759    19.704264    19.707683    20.390008    7917.9581    9009.5054    9961.8634    7903.1588    19.726067   -526.82731   -301.39092   -3656.3657 
30615000    142.26269   -4968.3234   -4693.9578   -4968.3234            0    9757.7167    19.566524    19.735314    20.441307    7893.4412    9868.6844    10357.312    9047.1532   -296.72012   -486.08234    147.60995   -3570.6715 
30616000    130.22424   -4948.2396   -4697.0912   -4948.2396            0    10659.683    19.539464    19.707796    20.300617    7817.3571    12419.522    8621.7313    10937.796   -195.60737    469.39569    103.10542   -3481.8006 
30617000    129.89559   -4949.1109   -4698.5963   -4949.1109            0    11250.075    19.354656    19.830309    20.351506    7811.0871    12181.754    10487.417    11081.055    -310.6434    1980.6778   -759.68679   -3417.0249 
30618000    134.50119   -4952.6646   -4693.2678   -4952.6646            0    9715.2573    19.382868    19.715907     20.48204    7827.2282    10951.047    9345.9173    8848.8081    93.732405   -74.336114   -891.14625   -3584.2508 
30619000    137.17719   -4965.4322   -4700.8745   -4965.4322            0    9640.6339    19.648271    19.798515    20.237449    7872.5008    10803.128    8139.9687    9978.8049    286.67337   -687.73758    1557.1752   -3594.0107 
30620000    134.65514   -4952.5126   -4692.8189   -4952.5126            0    9734.6234    19.671181    19.830775    20.294437    7916.7536    9195.4021    10176.903    9831.5648   -416.24261      1131.77    125.88597   -3568.8813 
30621000    137.76058   -4966.2632   -4700.5804   -4966.2632            0    10554.221     19.54067    19.650513       20.344     7811.774    10390.327     9805.667    11466.668    624.57741   -810.14373    454.09335   -3498.1727 
30622000    143.14573   -4953.0076   -4676.9391   -4953.0076            0    10623.294    19.585918    19.664172    20.428947    7868.0223    10694.871    10817.119    10357.892   -620.83087    211.23871   -37.291395   -3457.9476 
30623000    140.63775   -4964.6401   -4693.4084   -4964.6401            0    9319.3729    19.688398    19.746726    20.322336    7900.9463    9679.6364    8027.6075    10250.875    310.20434    48.059794    453.27993   -3619.5632 
30624000    142.48802   -4962.7862   -4687.9861   -4962.7862            0    9721.4435    19.716788    19.527836    20.495549    7891.3236     10255.68    9399.2877    9509.3627    -693.6555    132.13948   -279.85041   -3569.1756 
30625000    135.27263   -4930.3183   -4669.4337   -4930.3183            0    10738.824    19.485885    19.686262    20.347273    7805.3002    11309.202    9830.7663    11076.503   -451.31989    544.53248    303.53204   -3447.0087 
30626000    129.51693    -4952.791   -4703.0068    -4952.791            0    10960.757    19.439192    19.719158    20.356778    7803.2516    11903.962    11212.871    9765.4377    558.66842   -545.71822    102.49166   -3455.6461 
30627000    137.03596   -4960.0198   -4695.7344   -4960.0198            0    8305.9628    19.416854    19.847831    20.452062    7881.8655    9076.3201    7198.6262    8642.9421   -574.85618   -819.97201    919.38099    -3740.973 
30628000    139.30193   -4965.5435   -4696.8881   -4965.5435            0    11139.953     19.52705    19.770325    20.377611    7866.9012    10754.485    11435.312    11230.062    68.396694      2160.08    768.86829   -3418.7937 
30629000    147.52703   -4956.7434   -4672.2251   -4956.7434            0    9954.8489    19.571018    19.759112     20.42184    7897.2469    11314.332    8747.2937    9802.9208    206.20899    764.68494    583.10191   -3525.6929 
30630000    129.96727   -4969.3412   -4718.6884   -4969.3412            0    8316.6991    19.600265    19.810806    20.357383    7904.7112    9762.0684    6282.5712    8905.4577   -545.34377   -939.15013   -186.92533   -3759.9218 
30631000    126.66129   -4954.8262   -4710.5492   -4954.8262            0    10575.326    19.526398    19.749434    20.353884    7849.1761    10630.909    9928.3947    11166.675   -1021.9853   -142.00905    139.05923   -3499.9685 
30632000    138.02571   -4940.3433   -4674.1491   -4940.3433            0    9299.4205    19.598137     19.70817    20.374023     7869.332    9643.4782    8934.4239    9320.3595   -445.71394    513.35419     31.04662   -3606.8905 
30633000    140.38252   -4936.6568   -4665.9173   -4936.6568            0    9557.3164    19.586623    19.609634    20.407702    7838.3231    9319.8567    9152.4373    10199.655    268.73791    543.05248    -337.9173   -3573.3832 
30634000    136.04343   -4964.7483   -4702.3771   -4964.7483            0     8544.726     19.65926    19.905932    20.176735    7895.8806    9107.1634    7425.2778    9101.7369    234.94927    95.343812   -912.30292   -3718.4236 
30635000    138.30087   -4958.8802   -4692.1553   -4958.8802            0    10008.231    19.665767    19.590707    20.380005    7851.7285    11033.583    8724.5725    10266.538   -145.39218     494.1509    170.86871   -3546.1187 
30636000    138.51138   -4959.2347   -4692.1039   -4959.2347            0    9404.3872     19.79837    19.599736    20.348717    7896.1737     7843.366    10278.483    10091.313    -476.9047   -159.79098   -1053.4282   -3609.1173 
30637000    134.75201   -4963.8789   -4703.9983   -4963.8789            0    9238.8811    19.704519    19.805716    20.243293    7900.1905    9494.7485    8336.3706    9885.5242   -272.57818   -58.703738   -370.33896   -3639.5297 
30638000    132.12236   -4962.1643   -4707.3552   -4962.1643            0    8753.6012       19.737    19.661402    20.403171    7917.5952    8127.9616    8918.4144    9214.4276   -941.02767    342.76743   -655.50983   -3696.5768 
30639000     132.4388   -4967.9529   -4712.5335   -4967.9529            0     9878.779    19.466542    19.782376    20.337167    7831.7302    10745.141    8697.1511    10194.045   -1001.0645    648.09643    54.198838   -3584.2016 
30640000    134.66964   -4939.9579   -4680.2361   -4939.9579            0    10962.967    19.541118    19.656789    20.421082    7844.0567    11169.991    11786.974     9931.936    -637.3513   -379.35963    135.69165   -3426.0999 
30641000    134.10784   -4948.5687   -4689.9304   -4948.5687            0    9931.4433    19.689767    19.390345    20.551183    7846.2644     11132.46    10255.886    8405.9835    93.849155   -639.91389    103.92703   -3553.4782 
30642000    136.26093   -4954.2976   -4691.5069   -4954.2976            0    9405.2912    19.720945    19.495013    20.456923    7864.8701    9224.2344     9103.191    9888.4482     145.3206   -276.23804    1178.8622     -3612.71 
30643000    137.48479   -4970.4297   -4705.2787   -4970.4297            0    8851.1625    19.920302    19.726405    20.157213    7920.8969    7025.9676    9630.0499      9897.47    28.368158    161.60341   -371.62637   -3682.8087 
30644000    140.44891   -4964.2979   -4693.4304   -4964.2979            0    9545.1586    19.856648    19.432524    20.453113    7892.1362    9679.7503    9738.0027    9217.7229    274.50475    -593.1222   -122.78478   -3594.7949 
30645000    137.19493   -4961.0524   -4696.4605   -4961.0524            0    9636.1327    19.758125    19.469878    20.478876    7877.9834    9468.8352    10651.489    8788.0737    490.68935   -935.77205    219.12058   -3589.3429 
30646000    139.32007   -4973.3715    -4704.681   -4973.3715            0    9506.9562    19.811093    19.461497    20.424407    7874.7023    9109.4627     9260.198    10151.208    317.11927    231.52304   -383.71362   -3612.8598 
30647000     128.6936   -4960.6128   -4712.4163   -4960.6128            0    8993.6186    19.729265     19.52448    20.482986    7890.1207    10676.082    7263.0239    9041.7495    296.62849    520.72258   -1273.4445   -3677.5268 
30648000    134.55861   -4957.6799   -4698.1723   -4957.6799            0    9596.3968    19.690679    19.496014     20.44791    7849.7428    9442.2851    9956.6649    9390.2404   -577.33829    687.72029    126.15691   -3599.5725 
30649000    139.51042   -4951.2081   -4682.1505   -4951.2081            0    9498.4222      19.7155    19.666097    20.372558    7898.9893    8809.1521    10184.209    9501.9053   -194.93646    1140.2102    298.83398    -3587.945 
30650000    137.33855   -4964.7078   -4699.8388   -4964.7078            0    9303.7086    19.453948    19.817225    20.456102    7886.3031    10785.632    6974.0746    10151.419   -113.87003    675.59484    1389.5638   -3629.7854 
30651000    142.52569    -4949.425   -4674.5523    -4949.425            0    8567.0291    19.532956    19.696752    20.502996    7888.2363    8871.8309    8831.8381    7997.4184   -841.24288   -522.79278     880.8185   -3688.9855 
30652000    138.11837   -4947.7191   -4681.3462   -4947.7191            0    10088.545    19.345799    19.882261    20.436474    7860.6492    12156.989    8706.1593    9402.4877   -353.34311   -885.76818   -718.01117   -3524.8003 
30653000     138.5211    -4961.322   -4694.1725    -4961.322            0    10175.058    19.428259    19.742325    20.529185    7874.1537    11459.648    9053.7272    10011.797   -518.91417    743.34355    944.95058   -3525.7049 
30654000    132.66188   -4944.3061   -4688.4565   -4944.3061            0    10614.418    19.417018    19.663063    20.572738    7854.6316    11256.275    9932.8915    10654.086   -358.53951   -1033.2724    46.499058   -3472.5564 
30655000    136.74172   -4962.9084   -4699.1905   -4962.9084            0    9078.8319     19.61414    19.737014    20.435169    7910.9557    7911.2635    10588.151    8737.0813   -197.70914    47.988626   -1670.0265   -3651.7369 
30656000    132.87429   -4965.3429   -4709.0837   -4965.3429            0    9553.3106     19.53024    19.686728    20.569591    7908.7305    10368.687    9766.4961    8524.7486     71.95075    627.47119    190.42105    -3607.198 
30657000    137.06133   -4954.8331   -4690.4988   -4954.8331            0    9621.3707    19.474768    19.689718    20.566543    7886.2962    9990.6037    9613.5148    9259.9936   -339.06933    1085.9486   -159.47225   -3583.9108 
30658000    130.87389   -4963.9868   -4711.5855   -4963.9868            0    10298.706    19.581468    19.763848    20.364649    7881.2241    11177.169    9328.3536    10390.594    -997.5001    1460.9836    245.49876   -3527.8567 
30659000    134.62348   -4966.7701   -4707.1373   -4966.7701            0    8812.8417    19.626586    19.765288    20.399575    7913.5079     10136.67    8568.6445    7733.2111     112.9659   -1305.6214   -1120.5686   -3690.0438 
30660000    132.97349   -4941.9935   -4685.5429   -4941.9935            0    10931.334    19.612626     19.69101    20.328512     7850.717    11597.441    11053.047    10143.513    363.79129    761.63222   -383.86027   -3433.9637 
30661000    132.89154   -4962.8534   -4706.5609   -4962.8534            0    9903.4412    19.629153    19.805603    20.329283    7903.3587    10682.324    8370.5935    10657.406   -321.03943    419.89967    418.94592   -3565.0667 
30662000    132.57305   -4951.4795   -4695.8012   -4951.4795            0    9250.4414    19.524267    19.808517     20.48527    7922.6122    9908.6322    8698.5164    9144.1755   -454.70745   -47.250219   -883.04309   -3626.9759 
30663000    136.84192   -4953.1996   -4689.2885   -4953.1996            0    9444.4191    19.417369    19.832861    20.463946    7880.7062    10310.233    8705.6687    9317.3556   -91.635014    544.87549   -889.33845   -3603.8223 
30664000    131.52435   -4948.7286   -4695.0728   -4948.7286            0    10978.868    19.514101    19.719035    20.371826    7839.0632    10429.443    11027.181     11479.98    249.84952    1186.2473   -1038.8869   -3439.9171 
30665000    140.10453   -4968.2365   -4698.0332   -4968.2365            0    10517.002    19.555368    19.791684    20.434595    7908.8765    10040.713    10845.624    10664.669   -683.53945     917.4862    120.72576   -3484.9722 
30666000    138.91913   -4949.8196   -4681.9023   -4949.8196            0    9605.7713    19.594362    19.658585    20.436448    7872.0669     9786.949    9671.9749    9358.3901   -208.52635   -727.35047   -749.98317   -3579.1019 
30667000    137.46188   -4953.7808    -4688.674   -4953.7808            0    9319.0362    19.469449    19.792819    20.427771    7871.9493    9609.8138    8187.7734    10159.521   -5.2279783    117.10216    1010.9308   -3618.8085 
30668000    142.15449   -4956.7727   -4682.6158   -4956.7727            0    8091.1643    19.578126    19.836122    20.436494     7936.596    8524.6705    8044.9803    7703.8423   -247.64335    720.38117    456.01382   -3746.0869 
30669000    143.01402   -4952.7353   -4676.9207   -4952.7353            0    10566.855    19.613876    19.678484    20.450527    7893.3175     10506.31    10605.384    10588.872   -346.89302    551.14679    151.80749   -3460.5072 
30670000    140.78899   -4961.7798   -4690.2564   -4961.7798            0     8974.724    19.600079    19.691054    20.418914    7880.6025    8023.1777    9973.4039    8927.5905   -573.05346    1112.4648   -112.72375   -3658.7869 
30671000    140.99437   -4946.6889   -4674.7694   -4946.6889            0    11114.892     19.59956    19.646315    20.328697    7827.7507    11275.409    10969.443    11099.823   -565.45264    764.89929    1338.0406   -3405.8965 
30672000    131.36104     -4952.92   -4699.5792     -4952.92            0     8636.914    19.527293    19.746132    20.436013    7879.8922    9569.7618    7867.3433    8473.6368    105.56624   -144.77993    519.61361   -3707.0238 
30673000    131.65975   -4951.1543   -4697.2374   -4951.1543            0    11742.996    19.429482    19.813281    20.304193    7816.3385    12783.587    10753.992    11691.409   -65.928123    -172.6557    729.71319   -3358.6148 
30674000    138.68242    -4958.218   -4690.7573    -4958.218            0    10673.367    19.382157     19.85923    20.428828    7863.3567    11532.325    10046.565    10441.212    135.41311    684.45149    680.62115   -3466.7464 
30675000    129.09562   -4941.7776   -4692.8059   -4941.7776            0    10776.617    19.438535    19.763795    20.435936    7851.0616    11473.358    9570.9261    11285.568     484.9874    125.47237   -2.5701044   -3458.8867 
30676000    130.54974   -4962.9737   -4711.1976   -4962.9737            0     8249.104    19.546238    19.797484    20.453061    7914.6461    9550.9743    7749.6817     7446.656   -86.279204   -478.48978   -438.84779   -3759.0283 
30677000    139.11283   -4948.2765   -4679.9857   -4948.2765            0     11976.29    19.592467    19.643309    20.299542    7812.4996    12130.137    11994.773     11803.96    634.35108    325.87296    -33.04134   -3315.4396 
30678000    136.63309   -4951.7118   -4688.2034   -4951.7118            0     9281.119    19.504431    19.732379    20.414945     7857.076    9117.1689    8955.7363    9770.4518   -405.33121    1061.7771    45.373748   -3624.7042 
30679000    134.62682   -4943.4733   -4683.8342   -4943.4733            0    8852.1829    19.593189    19.669948    20.494069    7898.3529    8549.9973     9467.462    8539.0892    245.92976    -726.9296   -976.29978   -3664.1568 
30680000    141.99047   -4952.9284   -4679.0879   -4952.9284            0    9686.2746    19.423504    19.606146    20.649159    7863.6138    10599.637    9226.2467    9232.9398   -268.29984    -117.6342    131.90214   -3568.2393 
30681000    136.40018   -4967.5119   -4704.4527   -4967.5119            0    9641.9171    19.700306    19.701064    20.411421    7922.0194    7406.1456    11340.298    10179.308   -64.119481    240.27699    292.76119   -3590.4783 
30682000    137.04279   -4959.5593   -4695.2607   -4959.5593            0    8334.2266    19.689194    19.533466    20.552535    7904.4677     7283.464    10432.868    7286.3476   -626.60651   -519.97155    157.03419   -3734.5031 
30683000    133.48847   -4963.0005   -4705.5568   -4963.0005            0    9224.2226    19.604729    19.687252    20.348351    7853.7155     9078.171    8911.6995    9682.7974   -444.99408    -84.37505    1101.2006   -3649.0292 
30684000    129.55906   -4953.9538   -4704.0883   -4953.9538            0    9087.9473    19.579223    19.766377    20.309656    7860.0461    9470.7103    8167.5245    9625.6073   -517.31121   -451.76747    695.55914   -3662.3304 
30685000     136.6147    -4939.022    -4675.549    -4939.022            0    10761.543    19.554482     19.53537    20.568056    7857.0806    12237.973    10555.385    9491.2707   -485.73131   -1475.7392    639.57118   -3442.4111 
30686000    140.02507   -4949.4852   -4679.4351   -4949.4852            0    10194.167    19.571921    19.717626    20.415092    7878.4254    10539.801    9765.2552    10277.444    33.040926    1337.1797    384.16656    -3508.138 
30687000    138.87045   -4969.6585   -4701.8351   -4969.6585            0     8838.127    19.812144     19.74065    20.123301    7870.3152    7844.5267    9056.7772    9613.0773    237.90932    -205.0157    1078.8503   -3687.3907 
30688000    140.24759   -4954.9571   -4684.4779   -4954.9571            0    10258.125    19.766865     19.59149    20.321507    7869.7544    8154.5145    11518.505    11101.355    324.95304   -432.78088   -1217.4552   -3507.1293 
30689000    133.81836   -4965.9399   -4707.8599   -4965.9399            0    8998.6864    19.796191    19.571564    20.353559    7885.8322    6697.7496      10989.6    9308.7094   -81.717137    564.58418    154.21863     -3672.95 
30690000    141.78842   -4947.2838   -4673.8329   -4947.2838            0    8686.8805      19.5142    19.700937    20.501235    7881.6597    8637.8077    9046.9925    8375.8412    -624.3666    818.86483    3.9986516   -3675.3114 
30691000    132.66478   -4943.2666   -4687.4114   -4943.2666            0    9568.0051    19.687042    19.635797    20.366399    7873.0544    9683.9674    9542.5241    9477.5237   -499.81965   -1333.6484    785.86355    -3588.809 
30692000    140.61354   -4959.8531    -4688.668   -4959.8531            0    8030.2504    19.742644    19.682361    20.330022    7899.8772    8069.4803    7739.3761    8281.8947   -374.94375   -1096.4658    733.81634     -3763.49 
30693000    136.65817   -4945.1161   -4681.5593   -4945.1161            0    10810.584     19.69426     19.58693    20.284443    7824.7256     10767.66    10282.876    11381.218   -24.386766    486.55799     388.1144    -3447.903 
30694000    138.96128     -4943.63   -4675.6315     -4943.63            0    9313.4275    19.618399    19.702943    20.360213    7870.0408    8485.0889    9714.1123    9741.0811   -7.3907969    97.068665    -632.1368   -3606.6691 
30695000    136.68833   -4952.4513   -4688.8364   -4952.4513            0    8890.7486    19.531888    19.906344    20.297107    7891.6876    9932.3446    7505.3129    9234.5884   -341.46766   -658.17543    922.26604   -3665.5808 
30696000    135.82675   -4958.8144    -4696.861   -4958.8144            0    9306.6697    19.584574    19.810323    20.336312    7890.0158     9445.303    8654.6996    9820.0063    408.48628    1085.7186    177.55126   -3625.9631 
30697000    132.66768   -4954.0329   -4698.1721   -4954.0329            0    9440.0153    19.570129    19.808812    20.388757     7903.926    9809.2842    9171.6407    9339.1212   -973.09899    464.01137   -218.79469   -3610.0154 
30698000    139.43219    -4952.903   -4683.9963    -4952.903            0    9757.8487    19.327537     19.80712    20.460241    7832.6475    11808.087    7846.8354    9618.6237   -320.58508    120.09029    497.54821   -3569.3463 
30699000    137.77587   -4946.0872   -4680.3748   -4946.0872            0    9161.4647    19.473487    19.794495    20.440236    7879.0537    9713.0412    8833.7671    8937.5859   -747.36495   -33.798631   -72.151421     -3627.65 
30700000    134.95243   -4964.4953   -4704.2282   -4964.4953            0    9846.0354    19.628257    19.792834    20.380999    7917.9943    10029.085    9600.1652    9908.8563    82.683349    -957.2164   -55.303597   -3567.2491 
30701000    137.00751   -4956.4499   -4692.2194   -4956.4499            0    10391.607    19.536587    19.764665    20.321253    7846.7289      11015.4    9888.1177    10271.303    6.7204842   -279.23332    207.72547   -3503.0404 
30702000    136.05751   -4939.6086   -4677.2103   -4939.6086            0    10493.149    19.500869    19.701225    20.284002    7792.9312    12082.264    8670.9342    10726.248   -155.55128   -353.55281    774.86491   -3484.6439 
30703000    132.26751   -4956.9271   -4701.8381   -4956.9271            0    10333.072    19.686678     19.55352    20.389562     7848.837    8536.4073    11605.914    10856.895    430.73368    251.34557    252.59407   -3519.0399 
30704000    134.98026   -4967.1016   -4706.7808   -4967.1016            0    9748.1822    19.757892    19.618955    20.303094    7870.0718    10647.127     9203.938    9393.4817   -337.48136    359.91686     496.1724   -3587.9144 
30705000    133.19645   -4968.6022   -4711.7217   -4968.6022            0    9332.1503    19.521362    19.697286    20.464417    7868.9338    10816.327    8572.7874    8607.3364   -46.769346    170.21996    44.536588    -3640.761 
30706000    131.86231   -4959.2014   -4704.8938   -4959.2014            0    10756.189    19.597732    19.649992    20.399358    7855.6964     11733.21    10530.174    10005.184    307.75907   -832.52238   -1047.8073   -3472.5865 
30707000    131.01089   -4948.3578   -4695.6923   -4948.3578            0    8786.5233    19.533598    19.788443    20.429552    7896.8285    8851.8203     9173.307    8334.4425    662.64187    1084.2134   -213.86084   -3683.7735 
30708000    142.71795    -4965.777   -4690.5335    -4965.777            0     9714.117    19.603037    19.742302    20.363631    7880.9099    10446.085    8606.1245    10090.142   -709.49378   -236.02344   -74.380615   -3574.0416 
30709000    135.71776   -4960.4474   -4698.7043   -4960.4474            0    8078.8504     19.63188    19.627505    20.526075    7909.2061    8880.7351    7956.5701    7399.2462    162.31993   -283.97642   -655.23989   -3766.8278 
30710000    143.18079   -4948.5414   -4672.4052   -4948.5414            0    10333.335    19.620864     19.67599    20.335044    7850.5457     9962.768    10058.088    10979.149    377.81803    395.85325    -49.79097   -3489.3194 
30711000    136.00927   -4949.6985   -4687.3932   -4949.6985            0    10030.356    19.532748    19.684965    20.479752    7874.4945    9505.2923    10607.575    9978.2021   -106.98595   -386.35333    1234.1155   -3535.4928 
30712000    137.75801    -4960.753   -4695.0751    -4960.753            0    9267.1838    19.660646    19.641586    20.461668    7901.6062    7434.7141    10521.666    9845.1716    489.90588    -204.5669    30.082633   -3627.1542 
30713000    140.19681   -4950.1488   -4679.7675   -4950.1488            0    9668.6309    19.594999    19.829792    20.302309    7888.7617    11532.041    7993.5955    9480.2557    41.306809   -939.52085    121.89721   -3567.3963 
30714000    143.15264   -4964.7415   -4688.6596   -4964.7415            0    8679.6538    19.540629    19.836032    20.376364    7898.0529    8173.3268    8501.3734    9364.2612   -114.43348    82.254058    678.35845   -3688.8937 
30715000    131.91991   -4965.1867    -4710.768   -4965.1867            0    10069.584    19.509981    19.744423    20.352287    7839.9723     11590.56    9623.8393    8994.3523    53.896382   -107.46678    860.84246   -3559.4324 
30716000    127.53181   -4952.9661   -4707.0103   -4952.9661            0    8444.3622    19.689944    19.935389    20.192818      7926.22    8589.9931    7787.0219    8956.0716    215.61227    504.57527    576.44826   -3730.8776 
30717000    127.15113   -4950.6296   -4705.4079   -4950.6296            0    10644.636     19.60479    19.668235    20.314876    7833.2459    9392.2282    11894.155    10647.524   -106.15641    599.45283    1088.3592   -3489.3663 
30718000    140.50219   -4953.0207   -4682.0504   -4953.0207            0    9978.8424    19.683395    19.738486    20.288654    7882.5564    8250.5412    11085.166     10600.82    46.932847    581.87716   -626.03488   -3534.8926 
30719000     134.2688   -4947.9972   -4689.0485   -4947.9972            0    9017.3196    19.656612    19.745493    20.304745    7880.8701     8951.157    8749.3892    9351.4127   -261.91759    292.14059    245.60945   -3652.6482 
30720000    134.71797   -4964.3978   -4704.5828   -4964.3978            0    9171.8426    19.523406    19.657736    20.503406    7868.9191    10234.915    8470.3265     8810.286   -421.09742    364.40316    107.69935   -3652.0211 
30721000    134.78649   -4963.8705   -4703.9235   -4963.8705            0    8363.0962    19.570537    19.713422    20.557879    7931.2762    10833.712    8128.8972    6126.6794   -411.70919    438.63918    169.91885   -3736.5681 
30722000    131.12954   -4954.7251   -4701.8307   -4954.7251            0    11369.967    19.487837    19.733453     20.40601    7847.3822    11958.614    11333.547    10817.741   -79.099307    89.859058   -177.44613   -3400.5832 
30723000    133.27323   -4966.6444   -4709.6158   -4966.6444            0     9714.578    19.537162     19.79146    20.513152    7931.7995    9368.4711    11162.488    8612.7746   -743.01895    903.14377     43.27954    -3585.861 
30724000    133.94735   -4952.2837   -4693.9549   -4952.2837            0    9323.1325    19.518704    19.749232    20.432948    7876.4807    9159.9345    8985.5304    9823.9327   -295.82504    374.12946    215.36305   -3623.0031 
30725000    131.92435   -4956.8081   -4702.3809   -4956.8081            0    10847.946    19.479356    19.783255     20.37969    7853.6205    12821.894    9352.6451    10369.299    141.37829   -211.17133    183.22497   -3459.8897 
30726000    140.57373   -4966.6177   -4695.5094   -4966.6177            0    10545.439    19.585275     19.72097    20.397608    7878.3847    10217.469    10795.234    10623.614   -210.95336   -91.836583   -857.82229   -3483.8578 
30727000    145.36791   -4940.9935   -4660.6392   -4940.9935            0    10189.354    19.616193    19.720736    20.419733    7899.2872    10374.263    9869.0515    10324.747   -51.254096    828.39889    1195.3069   -3486.7951 
30728000    140.30055   -4947.5542   -4676.9728   -4947.5542            0    9561.0457    19.667346    19.768833    20.211364    7858.1878    8320.4726    9975.8238    10386.841    43.061634    438.39755    284.85447   -3581.2425 
30729000    136.92387   -4942.3124   -4678.2432   -4942.3124            0    10125.048    19.562419    19.693933    20.306304    7823.2263    10784.424    9232.0415    10358.679    222.65838   -1098.3298    1309.0068   -3523.0386 
30730000    140.53482   -4946.0906   -4675.0574   -4946.0906            0    8877.2514    19.575635    19.681621    20.449804    7878.9047    9812.1202    9057.0407    7762.5934    241.96019   -591.96515    -299.2278   -3655.0102 
30731000    141.87508   -4955.2022   -4681.5842   -4955.2022            0    9377.9442    19.555108    19.630813     20.51877    7876.7999    8800.5611    10784.779    8548.4923    -582.5462    381.27186   -231.61928   -3604.2924 
30732000    144.05127   -4971.3985   -4693.5835   -4971.3985            0    7907.2279     19.68847    19.687901    20.402213    7908.4007    8608.0631     6954.316    8159.3047    402.18081    569.36319      886.621   -3781.5962 
30733000    140.66917   -4961.1538   -4689.8615   -4961.1538            0    9707.7563     19.48981    19.626252    20.425881    7813.1431    9800.9687    9250.4092    10071.891   -211.33469    -70.75149   -1470.8822   -3583.6949 
30734000    143.73316   -4955.4195    -4678.218   -4955.4195            0    10403.438    19.465192    19.723371    20.437273    7846.2613    11003.545    10829.715    9377.0524   -359.37487    182.46467    915.56567    -3487.756 
30735000    136.10994    -4963.463   -4700.9636    -4963.463            0    9892.6638    19.480601    19.667096    20.491022    7850.6609    12013.917    8999.6332    8664.4413     637.4465   -269.15208   -583.07429   -3568.3145 
30736000    132.20328   -4962.5418   -4707.5767   -4962.5418            0    9262.4095    19.485931    19.724587    20.570975    7906.4939    10589.995    8603.2848    8593.9491    32.416054    1075.6712     54.98492   -3639.5458 
30737000    139.74152   -4964.0435   -4694.5402   -4964.0435            0    9577.5973    19.533034    19.762336    20.411829    7879.3411    8745.6997    9696.8954    10290.197   -383.25023    1651.1068     110.0786   -3593.9583 
30738000    135.99007    -4943.982   -4681.7137    -4943.982            0    10283.753    19.370903    19.628788    20.635596     7846.218    10551.894    10942.972    9356.3931   -706.26584    2103.7034   -789.19656   -3504.9537 
30739000    132.82456   -4944.5955   -4688.4322   -4944.5955            0    11603.694    19.454484    19.757402    20.406902    7843.8024    12705.736    10921.976     11183.37   -131.77511    -1190.593    244.78812   -3361.0414 
30740000     139.0564   -4958.8376   -4690.6557   -4958.8376            0    9106.0035    19.815684    19.671414    20.240692    7889.8728    7082.5129    10154.308     10081.19   -273.63655    845.80687    566.44169    -3642.867 
30741000     132.5124   -4950.7996   -4695.2383   -4950.7996            0     10076.77    19.639538    19.563124    20.355145    7820.6646    10630.493    10612.484    8987.3339    114.48383    342.20921   -16.085145   -3545.9184 
30742000    139.33133   -4952.6167   -4683.9045   -4952.6167            0    10856.049      19.7316    19.596168    20.193836    7808.2241    8828.9672    12403.983    11335.197     997.5648     1284.488   -9.6906708   -3447.6725 
30743000    139.25432   -4954.0547    -4685.491   -4954.0547            0    9951.8503    19.685165    19.689033    20.333994    7881.0871    8901.5482    10541.175    10412.827   -49.616723   -703.09094    123.97345   -3541.6495 
30744000    136.32654   -4946.9616   -4684.0444   -4946.9616            0    9703.6121    19.566818    19.650247    20.468368    7869.9403    9960.3762    10062.266    9088.1939   -504.81295   -917.90284    212.73365   -3570.3123 
30745000    142.64949   -4940.9656    -4665.854   -4940.9656            0     10168.77    19.464051    19.587795    20.543162    7832.2412    9635.0547    11672.229    9199.0263    682.45894   -594.34012   -147.92085   -3504.3242 
30746000     139.6186   -4941.8471   -4672.5809   -4941.8471            0    10132.571    19.451486    19.712218    20.341744    7799.6739    12453.195    7369.8824    10574.636    199.78426      13.2117    1088.8287   -3519.9984 
30747000    133.77344   -4962.1842   -4704.1909   -4962.1842            0    8062.1479    19.577181    19.872899    20.385989     7931.278    8661.9973     7186.324    8338.1223    93.434065    691.88275    -353.5578   -3771.6458 
30748000      137.337    -4951.639    -4686.773    -4951.639            0    7113.6481    19.608441    19.786721    20.469484    7941.8886    7335.0981    6999.5136    7006.3326   -10.874924   -714.68931   -435.02552   -3862.8397 
30749000    128.74434   -4951.7595   -4703.4652   -4951.7595            0     9546.855    19.489659    19.736581    20.512936    7890.4902    11080.485    9273.5637    8286.5169   -822.59204   -3.9650025   -199.52454   -3604.8637 
30750000    142.36943    -4945.299   -4670.7276    -4945.299            0    9429.0323    19.547459    19.871633    20.347831    7903.9101    10090.274    9182.7394    9014.0841   -725.22078   -442.02946    238.08088   -3583.8391 
Loop time of 356.606 on 64 procs for 250000 steps with 972 atoms

Performance: 121.142 ns/day, 0.198 hours/ns, 701.054 timesteps/s
99.1% CPU use with 64 MPI tasks x 1 OpenMP threads

MPI task timing breakdown:
Section |  min time  |  avg time  |  max time  |%varavg| %total
---------------------------------------------------------------
Pair    | 19.785     | 28.961     | 39.515     |  85.5 |  8.12
Bond    | 0.2574     | 0.27596    | 0.29045    |   1.3 |  0.08
Kspace  | 138.36     | 148.6      | 157.85     |  37.9 | 41.67
Neigh   | 1.0346     | 1.0495     | 1.065      |   0.7 |  0.29
Comm    | 84.141     | 85.347     | 86.13      |   4.9 | 23.93
Output  | 0.57916    | 0.58267    | 0.58544    |   0.4 |  0.16
Modify  | 85.174     | 86.367     | 87.283     |   5.4 | 24.22
Other   |            | 5.422      |            |       |  1.52

Nlocal:        15.1875 ave          19 max          11 min
Histogram: 3 4 8 9 0 9 13 9 6 3
Nghost:        2341.30 ave        2365 max        2315 min
Histogram: 1 1 6 7 13 10 13 9 3 1
Neighs:        4959.17 ave        7244 max        3286 min
Histogram: 3 7 10 6 14 13 6 2 1 2

Total # of neighbors = 317387
Ave neighs/atom = 326.52984
Ave special neighs/atom = 2.0000000
Neighbor list builds = 2916
Dangerous builds = 0

unfix		3
unfix		2
unfix		1

write_data	data.final.${pid}
write_data	data.final.1
System init for write_data ...
PPPM initialization ...
  extracting TIP4P info from pair style
  using 12-bit tables for long-range coulomb (../kspace.cpp:340)
  G vector (1/distance) = 0.37262207
  grid = 24 24 24
  stencil order = 5
  estimated absolute RMS force accuracy = 0.0034553984
  estimated relative force accuracy = 1.040583e-05
  using double precision FFTW3
  3d grid and FFT values/proc = 2197 216
Last active /omp style is kspace_style pppm/tip4p/omp
WARNING: Not all mixed pair coeffs generated from mixing. Use write_data with 'pair ij' option to store all pair coeffs. (../write_data.cpp:312)

write_restart   restart.lmp.${pid}
write_restart   restart.lmp.1
System init for write_restart ...
PPPM initialization ...
  extracting TIP4P info from pair style
  using 12-bit tables for long-range coulomb (../kspace.cpp:340)
  G vector (1/distance) = 0.37262207
  grid = 24 24 24
  stencil order = 5
  estimated absolute RMS force accuracy = 0.0034553984
  estimated relative force accuracy = 1.040583e-05
  using double precision FFTW3
  3d grid and FFT values/proc = 2197 216
Last active /omp style is kspace_style pppm/tip4p/omp
Total wall time: 0:05:56
