LAMMPS (30 Jul 2021)
  using 1 OpenMP thread(s) per MPI task
package omp 0
using multi-threaded neighbor list subroutines
echo both

include		in.partitions
variable        pid world 0
include		in.temp
variable        temperature equal 265.60
variable	tempDamp equal 100.0
include		in.pressure
variable        pressure equal 9250.0
variable        pressureDamp equal 1000.0 # This is 1 ps
include		in.seed
variable        seed world 745823

units		real
atom_style	full
read_restart    restart.lmp.${pid}
read_restart    restart.lmp.0
Reading restart file ...
  restart file = 30 Jul 2021, LAMMPS = 30 Jul 2021
  restoring atom style full from restart
  triclinic box = (-3.1864092 -0.19035486 -0.011264873) to (14.796408 22.770354 19.241263) with tilt (0.10269033 -6.0105164 0.057332054)
  4 by 4 by 4 MPI processor grid
  restoring pair style lj/cut/tip4p/long/omp from restart
  restoring bond style harmonic/omp from restart
  restoring angle style harmonic/omp from restart
  1008 atoms
  672 bonds
  336 angles
Finding 1-2 1-3 1-4 neighbors ...
  special bond factors lj:    0        0        0       
  special bond factors coul:  0        0        0       
     2 = max # of 1-2 neighbors
     1 = max # of 1-3 neighbors
     1 = max # of 1-4 neighbors
     2 = max # of special neighbors
  special bonds CPU = 1.443 seconds
  read_restart CPU = 1.744 seconds

include 	in.setup
variable	out_freq equal 1000
variable	out_freq2 equal 10000
variable	out_freq3 equal 1000

timestep	2.0

neigh_modify    delay 7 every 1

include		in.tip4p
# This is TIP4P/Ice

# create groups ###
group ox type 2
336 atoms in group ox
group hy type 1
672 atoms in group hy

# set charges - beside manually ###
set group ox charge -1.1794
Setting atom values ...
  336 settings made for charge
set group hy charge 0.5897
Setting atom values ...
  672 settings made for charge

# ### TIP3P Potential Parameters ###
pair_style lj/cut/tip4p/long/omp 2 1 1 1 0.1577 8.5
pair_coeff 1 1*2 0.000 0.000
pair_coeff 2 2 0.21084 3.1668
bond_style  harmonic
bond_coeff  1 450 0.9572
angle_style harmonic
angle_coeff 1 55 104.52
kspace_style pppm/tip4p/omp 1.0e-5
pair_modify tail yes

thermo          ${out_freq}
thermo          1000
thermo_style    custom step temp pe etotal epair emol press lx ly lz vol pxx pyy pzz pxy pxz pyz enthalpy

restart 	${out_freq3} restart.lmp.${pid} restart2.lmp.${pid}
restart 	1000 restart.lmp.${pid} restart2.lmp.${pid}
restart 	1000 restart.lmp.0 restart2.lmp.${pid}
restart 	1000 restart.lmp.0 restart2.lmp.0


include         in.dump
dump            myDump all atom ${out_freq2} dump.water.${pid}
dump            myDump all atom 10000 dump.water.${pid}
dump            myDump all atom 10000 dump.water.0
dump            myDump2 all dcd ${out_freq2} dump.dcd
dump            myDump2 all dcd 10000 dump.dcd
dump_modify     myDump append yes
dump_modify     myDump2 append yes


variable natoms 	equal  "count(all)"                        # NUMBER ATOMS
variable H      	equal  "enthalpy/v_natoms"                 # ENTHALPY-per-atom
variable Vol      	equal  "vol/v_natoms"                 # volume-per-atom
fix AVG all 		ave/time ${out_freq} 1 ${out_freq} v_Vol v_H file vol_enthalpy.dat
fix AVG all 		ave/time 1000 1 ${out_freq} v_Vol v_H file vol_enthalpy.dat
fix AVG all 		ave/time 1000 1 1000 v_Vol v_H file vol_enthalpy.dat



fix 		1 all shake 1e-6 200 0 b 1 a 1
       0 = # of size 2 clusters
       0 = # of size 3 clusters
       0 = # of size 4 clusters
     336 = # of frozen angles
  find clusters CPU = 0.090 seconds
fix             2 all nph tri ${pressure} ${pressure} ${pressureDamp}
fix             2 all nph tri 9250 ${pressure} ${pressureDamp}
fix             2 all nph tri 9250 9250 ${pressureDamp}
fix             2 all nph tri 9250 9250 1000
fix             3 all temp/csvr ${temperature} ${temperature} ${tempDamp} ${seed}
fix             3 all temp/csvr 265.6 ${temperature} ${tempDamp} ${seed}
fix             3 all temp/csvr 265.6 265.6 ${tempDamp} ${seed}
fix             3 all temp/csvr 265.6 265.6 100 ${seed}
fix             3 all temp/csvr 265.6 265.6 100 745823


run             250000
PPPM initialization ...
  extracting TIP4P info from pair style
  using 12-bit tables for long-range coulomb (../kspace.cpp:340)
  G vector (1/distance) = 0.3830496
  grid = 24 30 32
  stencil order = 5
  estimated absolute RMS force accuracy = 0.0019863119
  estimated relative force accuracy = 5.9817194e-06
  using double precision FFTW3
  3d grid and FFT values/proc = 4080 384
Last active /omp style is kspace_style pppm/tip4p/omp
Neighbor list info ...
  update every 1 steps, delay 7 steps, check yes
  max neighbors/atom: 2000, page size: 100000
  master list distance cutoff = 10.8154
  ghost atom cutoff = 10.8154
  binsize = 5.4077, bins = 5 5 4
  1 neighbor lists, perpetual/occasional/extra = 1 0 0
  (1) pair lj/cut/tip4p/long/omp, perpetual
      attributes: half, newton on, omp
      pair build: half/bin/newton/tri/omp
      stencil: half/bin/3d/tri
      bin: standard
Per MPI rank memory allocation (min/avg/max) = 9.341 | 9.346 | 9.347 Mbytes
Step Temp PotEng TotEng E_pair E_mol Press Lx Ly Lz Volume Pxx Pyy Pzz Pxy Pxz Pyz Enthalpy 
 9250000    277.95637   -4800.1107   -4244.1636   -4800.1107            0    8519.6876    17.982817    22.960709    19.252528    7949.3347    7233.6671     9269.842    9055.5536   -1120.0196   -972.17988    643.37851   -3256.4516 
 9251000    260.41778    -4796.391   -4275.5233    -4796.391            0    8700.8788    18.034488    22.834521    19.261763    7932.1653    9228.9078    8565.8796    8307.8492    227.18419   -880.71195    1147.1766   -3268.9839 
 9252000    268.18871   -4803.3854   -4266.9748   -4803.3854            0    9653.3908    17.949525    22.893441    19.281159    7923.1369    10783.587    8957.7935    9218.7919   -1777.4841   -346.84035    -408.8231   -3151.5176 
 9253000    263.02207   -4808.6023   -4282.5257   -4808.6023            0    8189.0753     18.00228    23.078192    19.155555    7958.3684    7863.7806    8002.7301    8700.7152   -1124.4781    860.21745    578.36419   -3332.0636 
 9254000    259.55411   -4837.2816   -4318.1413   -4837.2816            0    7660.0661    17.930917    23.096544    19.170883    7939.4723    6638.5494    8220.9878    8120.6612     374.2913    864.64698   -1672.1261   -3431.1894 
 9255000    266.77847   -4805.6528   -4272.0629   -4805.6528            0    8991.2328    17.696871     23.28358    19.190314    7907.3018    9131.2577    8135.6393    9706.8016   -804.46916   -330.86931    -1016.077   -3235.1949 
 9256000     268.7497   -4797.1795   -4259.6469   -4797.1795            0    8503.9506    17.806824    23.253855    19.187406    7945.0695    8315.1275    8170.7816    9025.9427   -49.420727    791.76762   -1364.1982   -3274.2883 
 9257000    267.90792   -4812.6613   -4276.8123   -4812.6613            0    10104.341    17.870187     23.04326    19.180375    7898.2361    11504.464    9447.6555     9360.904   -471.37245    761.96872    231.68239   -3112.9168 
 9258000    265.45945   -4792.3278   -4261.3761   -4792.3278            0     8393.629    17.933605    22.990627    19.194431    7913.9566    7048.4837    9160.4507    8971.9525    187.18975    1313.3217    408.52895   -3292.6091 
 9259000    274.56812   -4786.4784   -4237.3082   -4786.4784            0     10222.06    17.789474    23.034564    19.275662    7898.6416    11500.244    10283.809    8882.1288    3099.7694     719.5588    2426.4343   -3059.7924 
 9260000    278.12499    -4803.574   -4247.2897    -4803.574            0    9125.5828     18.14086    22.839566    19.175836    7945.1122    9777.1395    9185.7049     8413.904   -22.175137   -335.59224   -1996.0065   -3189.8964 
 9261000    263.75385   -4806.9995   -4279.4592   -4806.9995            0    8765.1986    18.027236    22.822377    19.279157    7931.9151    8715.7602    9841.1559    7738.6796    504.24093    1128.1621    1423.0136   -3265.5111 
 9262000    274.87834   -4772.6865   -4222.8959   -4772.6865            0    8567.5694    18.116963    22.696703    19.328965      7947.98    7343.7707    8254.4224    10104.515   -2762.8132    13.180451   -1178.2874   -3229.8021 
 9263000    268.74787   -4764.7808   -4227.2518   -4764.7808            0    9853.7725    17.911753    22.887619    19.249124    7891.3204    8812.3023    11550.446    9198.5694    1218.8183    229.32416   -422.69809   -3093.2125 
 9264000     270.3629   -4809.9685   -4269.2093   -4809.9685            0    10613.726     17.91007    22.942694    19.139103    7864.3582    9697.9881    10895.136    11248.055   -1590.6137    483.44086   -534.82148   -3051.8828 
 9265000    264.75321   -4808.3827   -4278.8436   -4808.3827            0    9628.6765    17.923089    22.987425    19.227844    7921.9805    8918.6691    9737.8226    10229.538    433.79722    256.38357   -707.04439   -3166.4044 
 9266000    266.50513   -4796.4058   -4263.3626   -4796.4058            0    7474.0318    17.873468    23.068074    19.266435    7943.6762    8308.2398    6893.7713    7220.0842    87.132263   -351.34017    1120.4564   -3397.4933 
 9267000    265.64553   -4791.6957   -4260.3719   -4791.6957            0    11767.751    17.897704    22.820015    19.204721     7843.705    12851.042    10835.529    11616.683   -386.69232   -295.51492   -524.41747   -2914.2307 
 9268000    253.37929   -4797.8723   -4291.0824   -4797.8723            0    7629.6068    17.848348    23.037826     19.26844    7922.9344    7633.9066    7679.9324    7574.9814   -1235.7886   -1189.3833   -1151.1865   -3409.4976 
 9269000    267.42138   -4805.8607   -4270.9849   -4805.8607            0    9909.3607     17.92377     22.93643     19.20097    7893.6587    9970.5882    9183.9036     10573.59    7.2693936    743.44885   -405.77062   -3130.2103 
 9270000    262.17008   -4800.4743   -4276.1017   -4800.4743            0    9754.4166    17.961789    22.965226    19.136573    7893.7703    9039.2383    10292.891    9931.1201   -1259.5301    190.26623   -742.67763   -3153.1485 
 9271000    259.73415   -4816.6717   -4297.1713   -4816.6717            0    8078.6163    17.707161    23.285007    19.246917    7935.7225    9821.8532    6662.1321    7751.8637   -684.47193   -1219.0717    580.15831   -3362.1977 
 9272000    269.85062   -4806.6534   -4266.9188   -4806.6534            0    9474.1826    17.911564    23.109912    19.078088    7897.0822    9010.1383    8411.2662    11001.143     237.6962   -1048.5191    1008.9949   -3175.7692 
 9273000    262.77902   -4837.9996   -4312.4091   -4837.9996            0    8073.1399    17.957685    22.993926    19.303962    7970.9473    8264.2019    7332.3935    8622.8244   -678.65736     807.7608    406.77476    -3373.922 
 9274000    284.27781   -4792.9019   -4224.3112   -4792.9019            0    8525.4671    17.948771    23.157368     19.10989    7942.9553    8076.6368    7978.7533    9521.0113   -1703.4323     120.4823   -132.89651   -3236.7223 
 9275000    275.23552   -4793.3996   -4242.8946   -4793.3996            0    9170.7377    17.791732    23.089163    19.253711    7909.3517    10107.369    8410.1445    8994.6996    1347.5837    242.48855    78.064911    -3185.052 
 9276000    267.32244   -4787.8041   -4253.1262   -4787.8041            0    7735.0591    18.098586    22.989309    19.154314    7969.6116    6681.3886    8188.8967    8334.8922   -836.48572    473.44455    -298.7815   -3354.0911 
 9277000    269.15828   -4777.5696   -4239.2197   -4777.5696            0    10113.324    17.900916    22.772417    19.450913    7929.1088    9795.3647    10472.313    10072.294    1388.0521    756.63936    804.86333    -3069.736 
 9278000    263.79084   -4816.1107   -4288.4964   -4816.1107            0    8404.0317    18.160299    22.854001    19.148875    7947.4628    7622.1973    8490.1996    9099.6982   -141.62933    562.02285   -1021.3805   -3314.4221 
 9279000    265.21184   -4795.1239   -4264.6675   -4795.1239            0    9468.7969    17.908255    22.698384    19.497408    7925.4712    10914.587    9021.7868     8470.017     1030.642   -448.73919   -2607.8383   -3170.2178 
 9280000    278.03106   -4803.9821   -4247.8857   -4803.9821            0    9808.7049    18.081243    22.729044    19.245577     7909.343    11101.736    9742.1755    8582.2032    923.07517   -626.41981    96.558609   -3116.4549 
 9281000    274.85571   -4786.4293   -4236.6839   -4786.4293            0    8627.1855    17.980071    22.712134    19.502725    7964.2459    9147.4518     9056.117    7677.9877   -39.106417   -23.723184   -979.90598   -3234.6332 
 9282000     274.7356   -4816.4686   -4266.9634   -4816.4686            0     8111.312    18.002406     22.90584    19.275002    7948.2439    8209.9093    8068.0078    8056.0189   -682.58492   -487.34275    409.69593   -3326.7246 
 9283000    276.66315   -4819.1161   -4265.7556   -4819.1161            0    8986.2148     18.01002    22.810915    19.234407    7901.9762    7481.4534    9863.4691    9613.7219    697.46476    129.44649    1101.1481   -3230.1643 
 9284000    254.11937   -4795.9905   -4287.7204   -4795.9905            0    11034.372    17.749698    22.966797    19.211879    7831.7938    12907.082    9528.8043    10667.229   -380.49747   -1772.8342    -351.8825    -3027.389 
 9285000     254.7783   -4818.5769   -4308.9888   -4818.5769            0    10177.977    17.802053    23.047373    19.204833    7879.5616    11187.485     10460.91    8885.5357    868.16595    679.81624    1016.2453   -3139.3833 
 9286000    258.14549   -4815.3164   -4298.9936   -4815.3164            0    9413.2347    17.883128    23.038006    19.146591    7888.2349    9765.0816     9679.677    8794.9455    199.55823   -647.37191    2572.0788    -3216.078 
 9287000    269.80413   -4802.7082   -4263.0667   -4802.7082            0    10224.969     17.81195    22.992828    19.288269    7899.4544    12556.037    8317.0453    9801.8253    842.37426   -1133.4554   -352.74755   -3085.0946 
 9288000    262.63187   -4797.5804   -4272.2842   -4797.5804            0    8383.5803    18.027332    22.899298    19.192549    7922.9387     9515.191    7655.1244    7980.4256    1171.2545   -1666.6586    1986.6467   -3303.5789 
 9289000    266.69849   -4823.3958   -4289.9658   -4823.3958            0    7842.1973    18.189778    22.570899    19.373285    7953.8888    6072.1886    8967.5846    8486.8186    219.81197     186.1003   -2065.8853   -3380.2763 
 9290000     271.7724   -4803.6658   -4260.0874   -4803.6658            0    9632.3008    18.134145    22.676966    19.281032    7928.8889    8356.8858    10696.521    9843.4955     1616.912    429.15167    178.00618   -3146.2591 
 9291000    261.64924   -4792.7672   -4269.4364   -4792.7672            0    8935.9086    18.021515    22.679443    19.411386    7933.7816    7122.2237    8794.3749    10891.127    1039.5413   -681.06209    795.10985   -3235.4976 
 9292000    267.91579   -4809.7708   -4273.9061   -4809.7708            0    9402.8056    18.019986    22.668729    19.419155    7932.5346    9991.1728    9411.7783    8805.4658    1079.3638    1345.2913   -446.31357   -3186.1155 
 9293000    274.00199   -4789.4688    -4241.431   -4789.4688            0    9984.6644    18.048062    22.813958    19.197216      7904.41        10260    10109.464    9584.5296   -2432.2536    322.34291    999.59849   -3090.4217 
 9294000    264.73988   -4833.1216   -4303.6091   -4833.1216            0     10666.08    17.815622    22.989466    19.252078    7885.1054      12978.7    9852.0243    9167.5171   -71.879877   -225.92591   -641.16717   -3077.0506 
 9295000    259.44846   -4827.9006   -4308.9716   -4827.9006            0    9986.2417    17.868819    23.137847    19.037184    7870.8477    10403.617    9762.2129     9792.895   -405.80369    1470.6528    441.38806   -3162.6685 
 9296000    268.88959   -4830.2447   -4292.4323   -4830.2447            0    9338.0961    17.795779    23.152263    19.119781    7877.5899    8576.6092     9329.775    10107.904   -673.28678   -230.20988    1664.4781   -3219.6105 
 9297000    273.87464   -4814.7439   -4266.9607   -4814.7439            0    9939.1767    17.902977    23.137272    19.074307    7901.0748    10287.763    8982.0621    10547.705   -1624.8468   -548.17102   -2103.8037   -3121.6786 
 9298000    257.20825    -4809.942   -4295.4937    -4809.942            0    8355.6441    17.848161    23.020975    19.288807     7925.425    8126.1975    7350.1317    9590.6032   -21.889223    -262.9291   -515.33708   -3329.7133 
 9299000    279.14508    -4813.233   -4254.9084    -4813.233            0    9958.2858    17.916753    23.177548    19.040595    7906.9194    11012.297    9244.5047    9618.0559   -225.95991    1358.1073   -79.416242   -3106.5755 
 9300000    270.28478    -4833.524    -4292.921    -4833.524            0    9783.1621    17.664868     23.15684    19.276341    7885.2286    9715.7651    10382.352    9251.3693   -1467.5298    1604.4458    277.95967   -3167.8773 
 9301000     272.4944   -4758.8106   -4213.7882   -4758.8106            0    9848.6745    18.094784    23.110903    19.034642     7960.036    11964.506    8615.2746    8966.2434   -310.81396   -757.44373    2015.2007   -3070.4658 
 9302000    262.09007   -4820.0273   -4295.8148   -4820.0273            0    8724.3565    17.724367    23.002018    19.370606    7897.3228    9818.3509    9639.0965    6715.6221   -200.57218    262.23621    849.47593   -3290.9927 
 9303000    261.22379   -4833.4885   -4311.0087   -4833.4885            0    10259.663    18.050891    22.928689    18.993064    7860.9114     10377.33    10344.794    10056.866    72.386545    -715.8366   -533.03843   -3134.8067 
 9304000    282.41759   -4805.2994   -4240.4293   -4805.2994            0    8580.7106    17.812687    22.811372    19.561161    7948.3226    9647.5839    8396.8813    7697.6666   -463.81436   -804.82318   -303.50735   -3245.7694 
 9305000    273.26543   -4805.6321   -4259.0675   -4805.6321            0     10554.05    18.060872    22.892202     19.12204    7906.0672    11718.286    9937.6257    10006.238     509.1818   -1063.0245    547.14106   -3042.1656 
 9306000    282.56233   -4781.8803   -4216.7207   -4781.8803            0    9413.1387    17.643048    23.188859    19.307465    7899.1121    9916.1317    9603.0659    8720.2186   -124.64753    318.17709   -959.77712   -3132.3229 
 9307000    251.59642   -4809.6015   -4306.3776   -4809.6015            0    9109.1107    17.771332    23.401482    18.978124    7892.5367    7453.4472    8301.9723    11571.912   -1359.0645   -1259.5939   -3060.2124   -3257.8775 
 9308000    264.68434   -4805.4016   -4276.0002   -4805.4016            0    8199.6587    17.780338     23.30564    19.240822    7973.0534    8964.6703    6925.8704    8708.4354    570.22105   -101.83923    355.40347   -3322.5537 
 9309000    255.02944   -4784.7408   -4274.6505   -4784.7408            0    8797.9285      17.8989    23.197221    19.014692    7894.9903    8405.7229    8048.7223    9939.3403   -766.75661    -106.6501   -1097.7413    -3261.654 
 9310000    268.95696   -4800.2115   -4262.2643   -4800.2115            0    10790.562    17.671928    23.288214    19.101778    7861.2918    11161.392     10725.14    10485.153    936.53019    611.13532   -891.42363   -3025.1386 
 9311000    278.22735   -4809.3822   -4252.8931   -4809.3822            0    10327.692    17.873431    23.089491    19.120641    7890.8674    10419.426    8587.9682    11975.681    250.07687   -1589.2889    53.675227   -3064.3802 
 9312000    281.59782   -4770.0121   -4206.7817   -4770.0121            0    8335.4551    17.829922    23.186343    19.239982    7954.0139    8978.4599    6734.1867    9293.7189   -526.54816    368.91995    1949.5708   -3239.8594 
 9313000    274.45355   -4788.4009   -4239.4599   -4788.4009            0     10935.54    17.941757    22.892538    19.199881    7886.0122    11621.663    11490.864    9694.0914    282.61042    1505.3579    1226.7911   -2981.7701 
 9314000    261.99242   -4808.4627   -4284.4454   -4808.4627            0    8591.4135    18.014056    22.996183    19.229804    7966.0335      7712.05    9767.4662    8294.7244    331.05008   -1193.8199    1477.5048   -3286.3257 
 9315000    257.01467   -4806.4464   -4292.3853   -4806.4464            0    9531.5077    17.989421    22.973184    19.132395    7906.9267    8485.0149    8465.7524    11643.756   -1341.3624   -181.48137   -1073.4276    -3193.265 
 9316000    278.89162   -4793.8216   -4236.0039   -4793.8216            0    9139.1587    17.999889    22.884864    19.285308    7944.1006    9138.1448    8690.7375    9588.5939    1299.3596    681.09483    1592.2356   -3177.1724 
 9317000     258.1387   -4802.7308   -4286.4215   -4802.7308            0     8441.999    17.929215    22.951226    19.284323    7935.4499    8368.7011    9390.9959    7566.2999   -1143.1023    89.482488    628.18154   -3309.4256 
 9318000    274.74415   -4813.4479   -4263.9256   -4813.4479            0    10360.685    17.922997    23.023779    19.065614    7867.5232    10883.604    9146.9038    11051.549    1678.9511     445.7917   -281.15868   -3075.1431 
 9319000    265.48694    -4839.956   -4308.9493    -4839.956            0    9858.8169    17.815734    22.922447    19.294161    7879.3536    8908.8445    11151.279    9516.3272   -782.54557   -241.21356    337.45898   -3176.0501 
 9320000    268.17254    -4800.325   -4263.9468    -4800.325            0    8955.2455    17.972886    22.978982    19.238414    7945.4386    9649.7817    8043.6183    9172.3364   -389.14712     151.7562    863.15293   -3226.2481 
 9321000    264.05358   -4805.0149   -4276.8752   -4805.0149            0    7899.6989    17.989725    23.076698    19.163782    7955.7186    7128.1714    7890.7612    8680.1641    725.80229    662.02842    1326.2543   -3360.3047 
 9322000    275.98105   -4779.2393   -4227.2431   -4779.2393            0    7113.4726     18.09524    23.043047    19.236129    8020.8784    7399.3286    7416.1812     6524.908   -1161.6726    775.62978    923.46884   -3395.1355 
 9323000    267.49117    -4839.466   -4304.4506    -4839.466            0    8995.5001    17.749279    23.159664    19.121218     7860.108      8973.19    8211.5694    9801.7408   -261.64179    164.20734   -620.36504   -3273.2819 
 9324000    265.01378    -4832.802   -4302.7417    -4832.802            0    8628.8252    17.713278    23.201465    19.227308    7901.9238    10353.237    8252.6111    7280.6273    1079.7113   -37.079958    499.16354   -3308.3434 
 9325000    254.28834   -4789.5459   -4280.9378   -4789.5459            0    9447.8351    17.806883    23.285028    19.152198     7941.148     11275.23    7493.4267    9574.8491   -1760.9257    50.560992    -1895.636   -3186.7509 
 9326000    271.28587   -4814.2369   -4271.6316   -4814.2369            0    8808.2617    17.894655    23.103918    19.216671    7944.8759    8549.4466    8643.4307    9231.9077    1382.0294    1037.9112    38.944203   -3251.0372 
 9327000    262.03403   -4844.3427   -4320.2423   -4844.3427            0     9123.521    18.018996    22.886359    19.099798    7876.5507    8996.0257    8558.1495    9816.3877   -306.93042    726.55731    83.593734   -3272.2105 
 9328000    281.80248   -4786.4469   -4222.8071   -4786.4469            0    9861.6745    17.847679    22.988448    19.243537     7895.439    10469.297    9119.0321    9996.6939    1858.1636   -1371.4221   -508.38909   -3087.2661 
 9329000    256.36229   -4812.4606   -4299.7044   -4812.4606            0    8448.3694     17.95331     23.00211    19.259964    7953.6717     9308.694    8151.2371    7885.1771   -292.25084   -596.45946    206.02951   -3319.7261 
 9330000    271.79158    -4788.331   -4244.7142    -4788.331            0    8519.2588    18.053214    23.179684    18.973231    7939.6861    8780.6981    7246.6252    9530.4532   -1132.6878   -242.66342    -278.2277   -3258.2507 
 9331000    272.64654   -4820.1445   -4274.8178   -4820.1445            0    6789.5937    17.748457    23.385341    19.195196    7967.0375    7981.2904    6008.7819    6378.7089    448.86327    100.35956    1448.4511   -3485.9276 
 9332000    267.32602   -4836.8309   -4302.1458   -4836.8309            0    9182.8427     17.81275    23.273875    19.052715    7898.7168    7922.1519    8379.9404    11246.436    -191.6799   -296.20627   -479.80896   -3244.3311 
 9333000      271.798   -4799.6863   -4256.0567   -4799.6863            0    7651.9868    17.823575    23.238674    19.166694    7938.7725    7990.7042    8122.7263    6842.5298   -106.75005    471.55168      1611.35   -3370.1184 
 9334000    263.87917   -4759.5895   -4231.7985   -4759.5895            0    9332.3691     17.68684     23.47735    19.018931    7897.4231    9666.5478    8502.8252    9827.7341   -607.44565     435.2665     -1085.68   -3156.9353 
 9335000    266.93672   -4828.3597   -4294.4533   -4828.3597            0    9025.8701    17.763497    23.282243    19.071359    7887.4192    9156.4496    7579.1777    10341.983   -734.67288    -542.3165     1705.419   -3256.2082 
 9336000    262.10806   -4814.8269   -4290.5784   -4814.8269            0    8748.5492    17.675732    23.269009    19.247286    7916.3467    10505.623    8190.8866    7549.1381   -1208.9957   -118.14158    -776.4179   -3280.5426 
 9337000    256.62314   -4801.4887   -4288.2108   -4801.4887            0    9614.7759    17.879511    23.190109    19.051551    7899.3032    10447.404    9154.5507    9242.3735   -1128.5556    458.33988   -413.19581   -3180.5575 
 9338000    266.12076   -4809.1082   -4276.8338   -4809.1082            0    8908.3217    17.849443    23.120281    19.167298    7910.0401     9466.996    7566.8448    9691.1243   -265.06685   -23.981911    -1284.961   -3249.1714 
 9339000    249.10806   -4823.5256   -4325.2787   -4823.5256            0    8909.8235    17.794899    23.373689     19.06148    7928.2881    8817.4841    7768.5889    10143.397   -381.25899   -159.15628    760.79301   -3295.0719 
 9340000    267.76215   -4820.7631   -4285.2058   -4820.7631            0    9482.6707    17.846737    23.224684    19.027007    7886.4055    12055.438    6557.8919    9834.6822   -5.0536509    -1071.571    1069.9539   -3194.5551 
 9341000    254.03686   -4793.1172   -4285.0121   -4793.1172            0    9183.7282    17.940259    23.113616    19.110355    7924.3811    10307.512    8443.1536    8800.5192    643.65557   -320.08416    2226.2989    -3223.658 
 9342000     259.8211    -4816.242   -4296.5677    -4816.242            0    8812.3348    17.776422    23.058968    19.373994    7941.5154    9468.9066    8468.9442    8499.1534    788.28559    737.49563   -517.13274   -3275.9332 
 9343000     276.0439    -4797.388   -4245.2661    -4797.388            0    10477.147    17.887662    23.126836    19.061348    7885.3945    10978.657    9673.7622    10779.023    187.54501    914.55254   -355.85852   -3040.3901 
 9344000    267.85718   -4804.8971   -4269.1497   -4804.8971            0     10371.41    17.856899    23.185233    19.063845    7892.7437    10796.645     9714.941    10602.643    203.46039    1455.2475    265.86113   -3075.3219 
 9345000    261.48221   -4836.2073   -4313.2106   -4836.2073            0    10283.341    17.965205    22.991917    19.009357    7851.9003    9139.5447    9884.0229    11826.456    41.228086    423.77481    47.264979   -3135.6455 
 9346000    257.67743   -4769.0005   -4253.6138   -4769.0005            0    10902.297    17.641172    23.117743    19.261211     7855.186    12474.882    11434.156    8797.8531    1502.8378    354.62407    778.04738   -3004.6485 
 9347000    266.27441   -4800.6028   -4268.0211   -4800.6028            0    9592.2187     17.91118    23.133766    19.033363    7886.5318     10425.59    8086.2026    10264.863    850.90657   -717.09272    267.03385   -3164.7531 
 9348000    265.45413   -4817.2307   -4286.2896   -4817.2307            0    7300.2474    17.858363    23.342805    19.188995    7999.2066    7263.6195    6959.1985    7677.9243    876.25384    1099.7056    173.81783   -3434.6412 
 9349000    259.34896   -4804.5957   -4285.8658   -4804.5957            0    10981.977    17.890525     23.03321     19.08982    7866.4608    11201.635    10151.698    11592.598   -830.80319    120.81289    1905.0954   -3025.9666 
 9350000    273.27751   -4813.9826   -4267.3939   -4813.9826            0    10728.656    17.976556    22.916077     19.07713    7858.8649     9702.898    11646.455    10836.615    24.794506    1408.7179    1512.5748   -3037.7452 
 9351000    247.63234   -4816.4476   -4321.1523   -4816.4476            0    6949.6266    17.956082    23.018843    19.344874    7995.7828    6329.2553    7026.6688    7492.9558   -1001.7007    519.14473    82.704005   -3510.7543 
 9352000    269.71298   -4815.0571   -4275.5979   -4815.0571            0    9791.6832    17.971265    22.949526    19.236963    7933.9396     12018.23    8133.6113    9223.2079   -1907.1477   -1276.0523   -1638.6615   -3142.6182 
 9353000    264.09703   -4787.0482   -4258.8215   -4787.0482            0    11392.929    17.950582    22.707021    19.327113    7877.8134    10720.651    12520.385    10937.752    380.74383   -34.907394   -339.85965   -2949.8898 
 9354000    274.14376   -4805.3237   -4257.0023   -4805.3237            0    8864.5345    18.157974    22.705735    19.237183    7931.3009     7939.807    8558.0499    10095.747    402.14267   -1666.7866    1459.8761   -3231.6426 
 9355000    282.27767     -4792.95   -4228.3598     -4792.95            0    9060.6404    17.988128    22.697031    19.424964    7930.7684    9294.6273    9962.4363    7924.8577   -1183.4715   -741.75206    921.61902   -3180.3869 
 9356000    259.25456   -4831.1295   -4312.5883   -4831.1295            0    7663.9482    18.204559     22.73395    19.249372    7966.5745    6765.8298    8588.5214    7637.4933   -586.02743   -803.65894    465.44503   -3422.1577 
 9357000    258.90889   -4787.6111   -4269.7614   -4787.6111            0    9523.2571    17.816042    22.895051    19.462214    7938.6212    10601.304    9709.1971    8259.2699   -276.63402    211.48619      1497.89   -3167.1906 
 9358000    263.36345   -4782.0252   -4255.2658   -4782.0252            0    8757.2911    18.196317    22.798633    19.179193    7956.5104    7661.0834    8574.6002     10036.19   -249.36138   -735.55784     33.26137   -3239.0912 
 9359000    263.25421    -4806.625    -4280.084    -4806.625            0    10167.401    18.018413    22.670598    19.374284    7914.1668      8050.73      10778.3    11673.173    -169.6485   -236.40896    868.38398   -3106.5626 
 9360000    272.09069   -4788.7903   -4244.5753   -4788.7903            0    8671.1251    18.059578    22.668981    19.349145    7921.3898    9988.4443    8540.1204    7484.8106   -187.16936   -209.42567   -412.33514   -3242.8405 
 9361000    273.84822   -4782.2487   -4234.5185   -4782.2487            0    8650.7569    18.225117    22.438409    19.478734    7965.6846    7274.4829     10329.45    8348.3373    338.09245    -743.8702    646.85144   -3229.5484 
 9362000    256.36644   -4780.7447   -4267.9802   -4780.7447            0     10872.21    18.160925    22.372994    19.422085    7891.4702    11062.766    11259.734    10294.131    337.80581    51.286622    1392.4407   -3016.7084 
 9363000    252.09979   -4803.9072   -4299.6765   -4803.9072            0     8320.381     18.06018    22.687547    19.382334    7941.7402    8952.4394    8559.8643    7448.8394    1444.3774    510.73904    122.82244   -3335.9922 
 9364000     275.1426   -4812.2158   -4261.8966   -4812.2158            0    8940.4614    18.265441    22.504575    19.349375    7953.6764    7742.7698    9895.2039    9183.4105    1238.6258   -95.861288   -2070.3354    -3224.837 
 9365000    273.28802   -4824.6444   -4278.0346   -4824.6444            0    6550.3509    18.061495    22.711573    19.512227    8004.0121    4965.8307    7694.6047    6990.6173    1133.6212    349.58468    249.59314   -3513.4101 
 9366000    251.69025   -4812.1114   -4308.6998   -4812.1114            0    8286.1605     18.08247    22.828568    19.314686    7973.0422    8489.3768    7801.5607     8567.544    1053.8665   -184.08085    365.84758   -3345.1963 
 9367000    247.48942   -4806.9563   -4311.9469   -4806.9563            0    9865.7947    17.988987    22.751431    19.212886    7863.3574    8833.2499    10760.487    10003.647     300.8893    626.85737   -478.71378   -3180.5474 
 9368000    254.84819   -4809.1673   -4299.4394   -4809.1673            0    10117.496    17.839376    22.691993    19.491573    7890.4029    12153.887    9959.7998    8238.8011   -1003.4102   -777.06925   -198.54705   -3135.1844 
 9369000    264.67296   -4828.6622   -4299.2836   -4828.6622            0    8937.8122     18.07811    22.890039    19.067229    7890.1842    9096.4161    8774.9761    8942.0445   -2325.2526   -17.014445   -1411.3426   -3270.8073 
 9370000    260.29101   -4805.1632   -4284.5491   -4805.1632            0    8518.9274    17.903142    22.905569    19.372338    7944.2405    9104.3728    8755.2065    7697.2028   -211.95472   -731.15829   -769.64172   -3297.5581 
 9371000    270.61088   -4851.1772    -4309.922   -4851.1772            0    6362.7223    18.133824    22.877246    19.309439    8010.5584    6329.1386    6939.2778    5819.7504   -1453.4091    1005.3623     80.86297   -3566.5921 
 9372000    267.45173   -4777.1498   -4242.2133   -4777.1498            0    10597.593    17.995947    22.680983    19.331055     7890.275    9751.4235    11796.208    10245.147   -390.49913    798.61653    1803.6331   -3022.7316 
 9373000    266.40863   -4813.4963   -4280.6461   -4813.4963            0    8349.6715    18.060403    22.801592    19.277941    7938.7706    8769.9412    7597.8481    8681.2252     85.13825   -854.59966   -592.52797    -3313.931 
 9374000    269.83179    -4793.098   -4253.4011    -4793.098            0    10393.406    17.851018    22.839671    19.343034    7886.3752    10003.458    11010.495    10166.264   -968.62738   -893.04435   -1007.8782   -3058.0067 
 9375000    266.48099   -4773.8721   -4240.8772   -4773.8721            0    11371.172    18.160521    22.645637    19.203877    7897.7204    12718.576    10751.747    10643.192   -454.57124    1244.0621    382.74061    -2931.144 
 9376000    263.50817   -4807.0874   -4280.0385   -4807.0874            0    9704.5998    17.804965    23.073538    19.182279    7880.5318     10444.04    8415.8409    10253.919   -1701.4628    374.96939   -881.92512    -3164.694 
 9377000    257.43576   -4804.8384   -4289.9351   -4804.8384            0    7884.0554    17.813493    23.218835    19.205869    7943.7116    9394.0092    8223.1869      6034.97   -257.10371   -971.54586    884.84101   -3376.5603 
 9378000    258.78544   -4815.1633   -4297.5605   -4815.1633            0    7958.2132    17.852636    23.215318    19.216011    7964.1646    7830.9296    6739.8562    9303.8537   -238.00332    -196.8512    711.92843   -3373.2206 
 9379000    273.27455   -4772.3436   -4225.7607   -4772.3436            0    8096.3708    17.929128    23.005018    19.296635    7959.0883    6679.1962    8169.8617    9440.0546   -511.98425      1616.62    981.84462   -3285.9734 
 9380000    256.64573    -4826.034   -4312.7108    -4826.034            0    8007.2224    17.914119    22.865364    19.296781    7904.2094    9443.2288    8233.4955    6344.9429    1289.5873   -440.13062    525.49006   -3389.6799 
 9381000    254.89888   -4825.0509   -4315.2216   -4825.0509            0    11934.726    18.060303    22.593331    19.217845    7841.6959    10657.238    12502.566    12644.373   -879.45729   -406.66068   -747.00138   -2950.3295 
 9382000    281.07886   -4813.4816   -4251.2891   -4813.4816            0    7683.5254    18.027227    22.648073    19.523625    7971.1437    7856.9377    8937.1592    6256.4794     1377.953    401.15555    518.64333    -3358.072 
 9383000    273.36317   -4808.2091    -4261.449   -4808.2091            0    8709.0906     18.10466    22.878844    19.237525    7968.4465    7917.4769    9323.3062    8886.4887   -551.45816    407.49374   -2786.8907   -3249.3515 
 9384000    256.51132   -4815.7198   -4302.6655   -4815.7198            0    8578.9892     17.92581    22.924373    19.225532    7900.5008    8806.8151    9239.5244    7690.6282    2551.0497   -462.84516    426.39446   -3314.1884 
 9385000    272.73714   -4833.4289   -4287.9209   -4833.4289            0    10243.049    17.967175    22.735791    19.244201    7861.2162    10776.671    10162.556    9789.9187   -125.50943    570.77677    365.90112   -3113.5781 
 9386000    272.00545   -4792.2628   -4248.2183   -4792.2628            0    10907.586    18.010146    22.835465    19.237499    7911.8073     12551.74     9527.935    10643.081    840.88721   -1359.3362   -218.28408   -2989.6401 
 9387000    270.23058    -4831.823   -4291.3285    -4831.823            0    8820.5547     18.03269    22.728817    19.368155    7938.2651    8641.5222    8838.7682    8981.3735    1411.1844    61.551977    23.581514   -3270.1601 
 9388000    272.07267   -4829.7925   -4285.6136   -4829.7925            0      10440.5    17.929609     22.88598    19.215375    7884.7729    9001.9647    11461.779    10857.755    463.16735   -573.59836   -1214.3154   -3085.0467 
 9389000     253.3149   -4820.2662   -4313.6051   -4820.2662            0    9017.1583    17.980551    22.825342    19.266428    7907.1779    9409.8869    8687.6362    8953.9516    464.10714    775.71877   -852.90076   -3273.7637 
 9390000    267.96715   -4797.5477   -4261.5803   -4797.5477            0    8918.6974     18.08387     22.85063    19.285702    7969.3891    6971.2199     9148.994    10635.878    544.43081   -737.13422   -1953.3428   -3225.0014 
 9391000    255.93097   -4794.1194   -4282.2258   -4794.1194            0    9322.2402    17.991458    22.852111    19.214612    7899.9494     8632.253    8434.2334    10900.234     1650.462   -284.20201    -1176.411   -3208.1857 
 9392000    277.21653   -4831.5355   -4277.0682   -4831.5355            0    10361.493    17.896618     22.74544    19.417615    7904.2596    10922.358    9572.6731    10589.449    609.12257   -1552.2149    17.536119   -3082.6417 
 9393000    253.17548   -4803.9365   -4297.5542   -4803.9365            0    8013.1774    18.233414    22.552665    19.346164    7955.3763    7474.5932    8996.0458    7568.8932    -423.2295   -1392.5043   -1053.0599   -3367.8573 
 9394000    272.19142   -4829.2448   -4284.8283   -4829.2448            0    8871.3802    18.031128    22.826527    19.246193    7921.5027     9750.629    8826.5753    8036.9363    718.74259    -960.3005    10.921068   -3259.9444 
 9395000     262.9487   -4800.5927   -4274.6628   -4800.5927            0    9631.2733    18.025959    22.521608    19.570267    7945.0116    10725.135    11176.657    6992.0284    1205.4354   -198.85845   -580.90023   -3158.6886 
 9396000    258.44171   -4810.0587   -4293.1434   -4810.0587            0    9934.4074    18.164035    22.578295    19.246389     7893.193    9571.9358    9322.7454    10908.541   -1099.6235    1340.7194   -2040.8697   -3149.5528 
 9397000    272.15472    -4850.186    -4305.843    -4850.186            0    8750.7383    17.985088    22.732221    19.312136    7895.5925    9028.3798    9152.4482    8071.3869    210.67311    432.48127    775.51493   -3298.2032 
 9398000    260.70152   -4813.0212   -4291.5859   -4813.0212            0    9250.8318    18.142359    22.605998    19.386004    7950.7071    9393.8489    9860.4204     8498.226   -2188.5956    1130.2752   -423.53077   -3218.9251 
 9399000    270.98319   -4795.9782   -4253.9783   -4795.9782            0    9051.3147    17.996271    22.761092    19.464191    7972.8202    8915.0761    9929.8108    8309.0573   -462.47835    1476.0759   -344.64469    -3201.533 
 9400000    271.22894   -4842.5436   -4300.0522   -4842.5436            0      8700.55    18.094724    22.663125    19.330524    7927.1191    9894.0693    7384.3957     8823.185    35.468715   -2056.4635   -501.61447   -3294.1912 
 9401000    276.55175    -4791.497   -4238.3593    -4791.497            0    8451.7317    18.029283    22.871022    19.307024     7961.215     9261.238    8654.1089    7439.8481     576.8042   -546.55445   -895.64353   -3257.0612 
 9402000    263.71668   -4804.3377   -4276.8718   -4804.3377            0    8232.3284    18.213231    22.494381    19.393627    7945.4787    6944.5221     9919.467    7832.9961    -504.5774   -300.71142   -509.88854   -3322.9371 
 9403000    283.30547    -4831.378    -4264.732    -4831.378            0    9579.9458    17.949216     22.61827    19.461343    7900.9202    9880.7104    10510.389    8348.7384   -495.60474    166.01255   -2236.1821   -3160.8654 
 9404000    266.88579   -4807.8054   -4274.0008   -4807.8054            0    10799.438    18.023281    22.779349    19.184306    7876.2823    10200.609    11168.594    11029.111    621.76157    219.61636    527.13101   -3033.4964 
 9405000    257.36127   -4813.3599   -4298.6056   -4813.3599            0    7171.5955    17.990844    22.680925    19.530378    7969.3511    8794.1026    6950.6047    5770.0793    117.98605   -861.17061   -1327.7131   -3465.0883 
 9406000    246.48459   -4795.5341   -4302.5345   -4795.5341            0         8603    18.233952    22.614392    19.238692    7933.0694    7453.1536    9336.1366    9019.7096    656.91194    337.53325    1233.4701   -3307.2045 
 9407000    266.60517   -4811.3049   -4278.0616   -4811.3049            0    10817.567    18.096296    22.660518     19.24784    7892.9893    12423.994    10409.936    9618.7711    309.17695    258.25079   -369.29968    -3032.839 
 9408000    253.26422   -4809.0835   -4302.5238   -4809.0835            0    8753.3079    18.110466    22.606772    19.308237    7905.1628    7078.9111    9985.1455    9195.8671   -1925.7739    423.44939    485.48486   -3293.3664 
 9409000    255.67024    -4806.189   -4294.8169    -4806.189            0     10076.66    18.025147    22.645126    19.331395    7890.7222    9462.3993    10904.349    9863.2315     487.3269   -1410.1259    435.26024   -3135.2141 
 9410000     267.6526   -4795.3558   -4260.0176   -4795.3558            0    10287.523    17.924818    22.919831    19.269744     7916.662    9574.4013    11470.198     9817.969   -156.23065    506.49919   -858.51874   -3072.2573 
 9411000    253.98938   -4814.9489   -4306.9387   -4814.9489            0    9281.1464    17.974276    22.800045    19.287986    7904.4926    8239.6048    9114.0491    10489.785   -24.564538    426.97576    613.38768   -3237.0182 
 9412000    257.72452   -4791.4055   -4275.9246   -4791.4055            0    7406.8666    18.002764    23.055693     19.25229    7990.9751    7726.3626    8257.5743    6236.6628    493.43139    684.07665   -473.33656   -3412.7271 
 9413000    266.10096   -4821.6147   -4289.3799   -4821.6147            0     10186.62    17.840743    23.062051    19.134157    7872.6364    12231.168    9610.7875    8717.9042   -182.91512    767.47971   -475.73765     -3119.81 
 9414000    261.79192   -4806.1358   -4282.5196   -4806.1358            0    9634.7522    17.867812    23.198882    19.108909    7920.8964    10801.379    8444.6654    9658.2121   -1580.2401    716.16822    82.478361   -3169.5309 
 9415000    256.65509    -4807.434   -4294.0921    -4807.434            0    8818.0796    17.925453    23.061006     19.15651    7918.8984    8354.0376     8394.552    9705.6491    1510.1809   -263.25922    1229.0118   -3275.7008 
 9416000    259.19683    -4753.207   -4234.7813    -4753.207            0    8877.3424    17.980626    23.141642    19.117525     7954.825    6633.8137    9567.6111    10430.602   -1921.5184    809.91752   -602.64396   -3204.8945 
 9417000    260.40464   -4801.5217   -4280.6802   -4801.5217            0    8897.4388    17.754362    23.160512    19.217925    7902.4132     10715.22    8337.9805    7639.1158    80.208879   -96.105261    1624.5654    -3255.263 
 9418000    261.96308   -4770.7335    -4246.775   -4770.7335            0    8868.1422    17.901107     23.14814    19.181057    7948.1948    9013.7318    8367.2244    9223.4704    163.17185   -728.79711   -1575.4043   -3218.8131 
 9419000     276.5591    -4789.756   -4236.6036    -4789.756            0    10913.579    18.002054    22.785229    19.244741    7893.8255    9518.8456     11749.69    11472.202     467.2851    1212.5891   -164.71346   -2980.1958 
 9420000    269.01956   -4807.4334   -4269.3611   -4807.4334            0    9065.2167     17.90934    23.161266    19.185961    7958.3939     9609.262    7693.3602     9893.028    756.92575    317.32614    1492.4336   -3217.2066 
 9421000    273.26976   -4804.0228   -4257.4496   -4804.0228            0    9769.0585    17.880276    22.961458     19.29425    7921.3937    9860.5939     8430.734    11015.848   -252.58676    271.77433   -413.14624   -3128.8751 
 9422000    264.89124   -4830.2175   -4300.4023   -4830.2175            0    9753.3178    18.003589    23.072607    19.059803    7917.2468    8568.1736    10051.053    10640.726   -201.15851    369.65282    2649.9047   -3174.2362 
 9423000    261.21876   -4825.9113   -4303.4415   -4825.9113            0     9849.122    17.923645    22.962131    19.202557    7903.1019     10927.06    10142.977    8477.3291   -55.067018    1367.8176    224.14819   -3168.2451 
 9424000    259.71908   -4802.0046   -4282.5343   -4802.0046            0    10499.406    17.789978    23.071472    19.206671    7883.2052    10887.883    10174.913    10435.422    714.45082   -578.14967     -346.932   -3075.4338 
 9425000    266.96621   -4813.8104    -4279.845   -4813.8104            0    10666.684     17.92921    23.061273    19.002335    7856.9034    9238.2713     11262.71    11499.072    2241.8113   -128.84619   -1669.4956   -3057.6043 
 9426000    263.43731   -4811.5553   -4284.6482   -4811.5553            0    10104.079    17.800429    22.934982      19.2899    7875.1501    9223.0499    10285.986    10803.203    147.40347   -1322.0843   -2143.2639   -3124.1847 
 9427000    266.73506   -4789.0413   -4255.5382   -4789.0413            0    8748.5489    17.833325    23.213001    19.228272    7959.8312    10972.834     7036.384    8236.4289    -154.6259   -1236.2016   -474.81366   -3239.9544 
 9428000    259.81878   -4781.1639   -4261.4942   -4781.1639            0    11597.341    17.871543    22.950856    19.187875    7870.2369    9999.2208    12645.691    12147.112    636.92697     95.87904    683.15752   -2930.3591 
 9429000    275.30767   -4809.1723    -4258.523   -4809.1723            0    8376.6197    17.925229    22.892785    19.310752    7924.3297    8811.9661    8459.1812    7858.7119   -484.29133   -286.49665   -908.19836    -3290.452 
 9430000    262.10877   -4792.8851   -4268.6352   -4792.8851            0    10684.133    18.067631    23.136835    18.929615    7913.1049     9281.926    11258.415    11512.056   -784.34426    1708.4853   -1756.7081    -3035.638 
 9431000    257.42185   -4792.6025    -4277.727   -4792.6025            0    9013.8844    17.601741    23.286304    19.283223    7903.7977    10075.581    8061.1794    8904.8931    1585.8623   -1077.4198    2573.6632   -3238.7075 
 9432000    266.61599   -4812.1192   -4278.8543   -4812.1192            0    8046.8467    17.995237    23.032091    19.210728    7962.2306    8610.9298    7054.0596    8475.5505    517.58355   -1235.1032    752.80341   -3344.4467 
 9433000    264.11121    -4833.548   -4305.2929    -4833.548            0    9768.2485    17.907004    22.872592    19.245881    7882.7203    10250.546     9212.644    9841.5555    1180.2799    259.15741   -698.73255   -3182.3215 
 9434000    256.97321   -4827.8252    -4313.847   -4827.8252            0    8367.0638    18.067695    22.868176    19.180469    7924.8946    8463.0772    7808.6381    8829.4761    592.41929    655.51588   -389.03939   -3346.8114 
 9435000    272.94802   -4791.1849   -4245.2552   -4791.1849            0    10172.479    18.053637    22.747664    19.210439    7889.3059     9142.492    9399.1777    11975.767   -1234.9499   -859.97883   -535.11147   -3074.8359 
 9436000    265.67759   -4788.0298   -4256.6418   -4788.0298            0    8920.1507    17.916525    22.954086    19.291565    7933.8001    8026.3205    8545.6768    10188.455    382.75211   -1177.5975    1236.1307   -3224.5239 
 9437000     261.1305    -4819.718   -4297.4247    -4819.718            0    7513.2269     17.92027    23.086228    19.154051    7924.2497    6962.1153     8229.169    7348.3964    257.97627   -42.965301   -1810.5704   -3429.1432 
 9438000    256.21792   -4760.8012   -4248.3337   -4760.8012            0    10739.296    17.902675    23.145061    19.092295    7911.0547    9635.1931    9277.1907    13305.503    253.47026   -426.87066    1640.8766   -3009.2916 
 9439000    262.22195   -4832.0448   -4307.5685   -4832.0448            0    8481.1864    17.887595    22.923047    19.316463     7920.487    7785.8078    9128.5356    8529.2157   -529.09959    660.22657    -523.8823   -3327.8882 
 9440000    276.72982   -4777.2799   -4223.7861   -4777.2799            0    10294.748    18.046058    22.934837    19.087787    7900.1183    9178.6781    9911.3395    11794.225   -1039.0872    41.318766   -393.89093   -3037.6755 
 9441000    268.48101   -4801.8356   -4264.8404   -4801.8356            0    7549.7284    17.918383    22.895258    19.362373    7943.3361    6855.6322    9560.5189    6233.0343    100.72627    -241.9294   -84.467863   -3390.2391 
 9442000    268.47957   -4804.6001   -4267.6078   -4804.6001            0    7775.6332    18.208186    22.830423    19.219181    7989.4251    6744.3528     7730.954    8851.5927    301.12794   -1325.4862    500.70144   -3361.6099 
 9443000    257.69314   -4800.0243   -4284.6062   -4800.0243            0    9339.6608    18.057714    22.727004    19.302571    7921.7314    7116.7774    10630.016    10272.189    953.90389     1461.362   -604.99575   -3205.5921 
 9444000    267.59954   -4804.2844   -4269.0523   -4804.2844            0    9976.4316    17.922263     22.91398    19.231696    7897.8878     10084.73    9653.1566    10191.408    1072.3286    393.96777   -1382.0931    -3119.941 
 9445000    254.52591   -4778.2775   -4269.1943   -4778.2775            0    11692.185    17.939623    22.970513    19.112256    7875.8232    12442.887     9995.762    12637.906    1336.9395   -943.90112    661.82737   -2926.2205 
 9446000    262.34787   -4809.8107   -4285.0826   -4809.8107            0    8064.2092    17.750286    23.082561    19.314443    7913.5533    6347.9685    8421.6838    9422.9752    2364.2274   -280.16879    459.30825   -3354.3836 
 9447000    254.68702    -4786.401   -4276.9955    -4786.401            0      7326.52     18.02595    23.016399    19.166112    7951.8753    6495.7901    8054.7407    7429.0292   -301.29463   -125.17766    229.58692   -3427.3393 
 9448000    266.30603   -4805.6645   -4273.0195   -4805.6645            0    8480.5532    17.947073    22.979836    19.217681    7925.7714    9158.2417     9206.238    7077.1799   -654.39196    1594.8213    142.43171   -3292.7588 
 9449000    271.08412    -4799.981   -4257.7793    -4799.981            0    8465.6745    18.090379    23.034997    19.071868    7947.4727    7655.2784    9036.8654    8704.8798   -479.02488    584.38528    1084.8063    -3276.559 
 9450000    266.20944   -4818.4995   -4286.0477   -4818.4995            0     8802.283    17.772524       22.971    19.363211    7905.0823    9325.6524    7934.9126     9146.284   -65.913455   -1418.2642   -67.384648   -3271.2544 
 9451000    262.90342   -4800.8661   -4275.0268   -4800.8661            0     9689.352    17.931116    22.906661     19.20395    7887.8683     9583.727    9846.3291         9638    57.375781   -726.45595   -1115.0304   -3160.3979 
 9452000    272.19936   -4826.9194    -4282.487   -4826.9194            0    8414.9554    17.850612    22.999196    19.341663    7940.7143     9753.594    7339.6361     8151.636    584.42574    1191.4375   -601.75889   -3307.9748 
 9453000    264.89517   -4830.7821   -4300.9591   -4830.7821            0    9936.6004    17.857548    23.183339    18.979435    7857.4402    10004.624    10547.273    9257.9039   -503.99271    1155.9835   -3.6449618   -3162.2971 
 9454000    265.39836   -4837.9613   -4307.1318   -4837.9613            0    9394.3811    17.811393    22.885737    19.437254    7923.1468    11153.509    8873.2966    8156.3378    36.109663    26.550986   -810.59578    -3221.602 
 9455000     276.2259   -4859.9327   -4307.4467   -4859.9327            0    9916.6693     17.98814    22.753093    19.319851     7907.341    11618.838     8493.543    9637.6268    1675.9174   -715.91728    402.91706   -3163.8519 
 9456000    256.94628   -4816.9466   -4303.0223   -4816.9466            0    8192.1151    18.143378     22.60988    19.423253    7967.7988    8344.6358    8767.2217    7464.4879   -2.4564236    360.24259   -1318.1854   -3351.0808 
 9457000    260.23034   -4789.1142   -4268.6214   -4789.1142            0    9188.7328    18.107135    22.595432    19.362464    7921.9305    8647.3776     9073.148    9845.6728    727.30218   -582.72831    2014.0415   -3207.0174 
 9458000    278.33375   -4808.1973   -4251.4954   -4808.1973            0    9771.4973    18.058009    22.590341     19.38215    7906.6882    9836.4742    11327.593    8150.4246   -10.490939    61.626216    712.97273   -3124.7349 
 9459000    264.91728   -4813.1038   -4283.2366   -4813.1038            0    7112.3591    18.185375     22.70813     19.29879    7969.5483    5040.8735     7322.205    8973.9987    1140.8649   -443.68705    950.08948   -3456.5835 
 9460000    263.01775   -4785.1724   -4259.1044   -4785.1724            0    7625.9423    18.055969    22.669689    19.442373    7958.2146    9171.9679     7319.376     6386.483    453.64839   -439.60719   -1057.1966   -3374.0193 
 9461000    264.85011    -4808.626   -4278.8931    -4808.626            0    9002.3561    18.148365    22.729849    19.260567    7945.1686    7962.4107    10405.308    8639.3499    1419.6613    253.18803    1390.6488   -3235.7709 
 9462000    272.69169   -4817.8321    -4272.415   -4817.8321            0    10529.696     18.03153    22.709502    19.257139    7885.5492    10970.941    10226.601    10391.545   -629.91151    -547.7907    257.26189   -3061.4722 
 9463000    261.41922     -4808.61   -4285.7392     -4808.61            0    7111.0833    18.018289    22.755635    19.437314    7969.6407    7745.9974     5976.623    7610.6296   -167.44633   -901.75197   -434.13082   -3459.2249 
 9464000    261.10323    -4804.966   -4282.7272    -4804.966            0    9382.1402    17.935123    22.821917     19.25003    7879.3047    8166.2541    9983.4763    9996.6903    19.815436   -690.04714   -158.66583   -3204.6107 
 9465000    246.96122   -4826.6608   -4332.7079   -4826.6608            0    8935.6247    18.123174    22.712876    19.280789    7936.5397    7789.2964    10129.002    8888.5759   -709.42069    1020.7759    -683.5967   -3298.4424 
 9466000    265.77717   -4810.1698   -4278.5826   -4810.1698            0    10477.931    17.795652    22.829022    19.336956    7855.7802    10240.949    10500.772    10692.072    24.830546   -564.27484   -89.741726   -3078.1418 
 9467000    260.69314   -4835.0285     -4313.61   -4835.0285            0    8812.1867    18.118645    22.857547    19.138372    7926.1141    6565.5704    9576.4607    10294.529    790.24953   -582.38443   -440.91946   -3294.9719 
 9468000    255.06412   -4773.8045   -4263.6447   -4773.8045            0    8113.0722    17.873132    22.878526    19.573744    8003.9178     9906.769    7391.6139    7040.8339   -1322.7349   -1367.5319    1267.6261   -3316.6145 
 9469000    269.71311   -4815.5037   -4276.0442   -4815.5037            0    10032.756    18.067771    22.807099     19.15849    7894.7049    9533.0494    8462.9786     12102.24   -1392.5663    -1685.513    505.99124    -3120.911 
 9470000    252.77307   -4827.1326   -4321.5553   -4827.1326            0    8862.1193     17.85658      22.9678    19.343702    7933.3622    9295.1976    8783.1867    8507.9737    -963.7967    800.73181    -372.5444   -3296.2085 
 9471000    264.46419   -4821.0854   -4292.1243   -4821.0854            0    9423.8052    17.810126      23.2404    19.087304    7900.5112    10649.426    7622.6511    9999.3387   -888.63807   -282.99734    2221.2125   -3206.3055 
 9472000    253.43415   -4837.7619   -4330.8622   -4837.7619            0     5943.907    17.822042    23.227262    19.331793    8002.5359      6839.48    5368.3275    5623.9136   -1166.5581    43.796736   -662.55566   -3637.1561 
 9473000    266.96617   -4842.5056   -4308.5402   -4842.5056            0    10181.611    17.938286    23.011355    19.018369    7850.4837     8077.191     10467.23    12000.411   -857.90297    949.41044   -97.811685   -3142.8349 
 9474000    272.07106    -4824.266   -4280.0903    -4824.266            0    7522.0324    17.906674      23.0614     19.24502    7947.2884    8164.0653    6305.9086    8096.1232    108.94331   -611.19772   -715.32167   -3408.2638 
 9475000    272.48181   -4845.9488   -4300.9515   -4845.9488            0    9265.8492    17.857955    23.027163    19.166598    7881.6506    9253.0801    9243.7288    9300.7387   -603.84487    1598.5742    -725.8151   -3235.8811 
 9476000    264.55211    -4817.891   -4288.7541    -4817.891            0    8674.0132    17.898477    22.900305    19.389329    7947.3095    8536.0395    8979.2709     8506.729    516.04476    -248.6405   -1203.9096   -3283.4069 
 9477000    277.16013   -4768.6833   -4214.3288   -4768.6833            0    9457.1848    18.102487    22.721053    19.229137    7909.0894    10676.487    8953.5401    8741.5272    -353.4035    375.05099   -83.426532   -3123.4808 
 9478000    278.29911   -4809.8648   -4253.2322   -4809.8648            0    8341.0227     17.98582    22.758287    19.407895     7944.165     8515.696    8640.0411    7867.3309   -389.98381   -786.76749   -1583.1636   -3286.8622 
 9479000    259.50393   -4781.9534   -4262.9135   -4781.9534            0    9067.1115     18.12606    22.832777    19.180678    7938.2745    6717.1485    10199.509    10284.677    1192.0714    263.41151    1114.3198   -3213.1996 
 9480000    273.46402   -4791.2721   -4244.3103   -4791.2721            0    7349.4598     18.03345    22.754102    19.484972     7995.365    7394.8217    7077.7835    7575.7742   -336.88153     949.1999    -1319.455   -3387.3324 
 9481000      265.148   -4779.6511   -4249.3224   -4779.6511            0    10905.456    18.023771    22.717037    19.252476    7882.8626    11131.631    11823.888    9760.8489    1113.6656   -811.53765    301.94606   -2995.5934 
 9482000    264.57999   -4803.3107    -4274.118   -4803.3107            0     8334.187    18.067003    22.747511     19.28747    7926.7516    8059.6338    9148.6861     7794.241   -491.49605   -207.53576   -1541.2051   -3310.6565 
 9483000    257.89908   -4805.1495   -4289.3195   -4805.1495            0    10341.274      17.8554    22.764538     19.39999    7885.5129    12584.575    9721.2836    8717.9636    1678.8676    -707.3003   -652.05626   -3100.0511 
 9484000    264.00038   -4787.5866   -4259.5532   -4787.5866            0    10272.049    18.123465    22.633111    19.270859    7904.7215    10975.251    9448.5711    10392.325    1479.1731   -1412.4433    857.03205   -3075.3682 
 9485000    265.12793   -4836.8243   -4306.5357   -4836.8243            0    9243.4531    18.022438    22.893705     19.22517    7932.3124     9789.924     8577.881    9362.5545    781.80478   -737.97605    1343.9685   -3237.2102 
 9486000    265.39522   -4822.3238   -4291.5006   -4822.3238            0    8879.5589    17.826166    23.169544    19.194222     7927.677     9238.867    8196.2349    9203.5747   -734.91994    418.53273   -1473.3077   -3264.8723 
 9487000    258.05149    -4800.825   -4284.6901    -4800.825            0    8923.0549    17.798864    22.915984    19.403504    7914.2718    7785.6087    9396.2198    9587.3361     1752.627   -379.60454   -698.23086   -3254.7774 
 9488000    279.50359   -4811.1625   -4252.1208   -4811.1625            0    10790.896    17.839689    22.931053    19.261255    7879.4492    11165.824    9568.4162    11638.449   -2031.0262   -1520.7032   -4412.1746   -3012.0992 
 9489000     275.0861   -4822.2555   -4272.0493   -4822.2555            0    10553.536    17.922244    22.998513    19.069321    7860.0873    11566.017    10578.958     9515.632    786.74535    1411.0075   -771.27274   -3062.2836 
 9490000    270.04956   -4788.4005    -4248.268   -4788.4005            0    11205.747    17.798543    23.071577    19.157744    7866.9448    12395.411    9865.2185     11356.61   -1408.4317   -1113.5297   -1261.6625   -2962.6179 
 9491000    254.09553    -4803.872   -4295.6496    -4803.872            0    10033.398    17.762311    23.165143    19.152473    7880.6005    12847.226    8774.7177    8478.2496   -808.14376    -2.700702   -301.51901   -3142.5064 
 9492000    249.92091   -4793.5017    -4293.629   -4793.5017            0    9115.8043    17.758397    23.430638    19.112729    7952.6262    11146.806     7039.812    9160.7945    404.51268   -414.52517    703.88889   -3236.3699 
 9493000    263.69642   -4764.9655   -4237.5401   -4764.9655            0    11452.137    17.705469    23.121872    19.208341    7863.5795    10804.337     10799.85    12752.223   -45.676376    176.14737    505.26425   -2924.1833 
 9494000    266.95398   -4787.8916   -4253.9507   -4787.8916            0    9324.1744    17.755346     23.47787    18.995825     7918.556    8289.7687    7702.4182    11980.336   -48.860842    515.19349    346.60556   -3177.1575 
 9495000    288.13285   -4809.6547   -4233.3534   -4809.6547            0    10123.371    17.683151    23.421746     19.06715     7897.047    10314.156    9525.7011    10530.258   -738.00477   -574.77397    2083.5164   -3067.4414 
 9496000    264.36036   -4822.6372   -4293.8839   -4822.6372            0    6750.8747    17.971835     23.14256    19.256603    8009.0955     7442.707    5755.4756    7054.4414   -1543.1683   -955.60317     -1035.27   -3505.3517 
 9497000    270.23093   -4817.5764   -4277.0812   -4817.5764            0    9244.4677    17.853497    23.042455     19.14366    7875.4798    9671.1393    8990.8951    9071.3686   -387.92352    984.03738    969.09036   -3215.3005 
 9498000    265.40583   -4788.6413   -4257.7968   -4788.6413            0    7799.6677    17.887245     23.34888     19.10953    7981.0404    10387.467    6688.6775     6322.859    814.62041    806.36465    1095.4068   -3349.9523 
 9499000    273.67121   -4843.1799   -4295.8036   -4843.1799            0    6736.9209     17.77184    23.290502     19.18025    7938.9947    7959.5711    5756.9471    6494.2445   -621.11938    10.700836   -862.76784   -3515.7888 
 9500000    278.95692   -4801.0328   -4243.0845   -4801.0328            0    8431.8008    17.876294    23.064271    19.226876    7927.3119    9298.8929    7566.7958    8429.7136    -78.70321   -845.91362   -440.56077   -3268.2695 
Loop time of 617.055 on 64 procs for 250000 steps with 1008 atoms

Performance: 70.010 ns/day, 0.343 hours/ns, 405.150 timesteps/s
99.2% CPU use with 64 MPI tasks x 1 OpenMP threads

MPI task timing breakdown:
Section |  min time  |  avg time  |  max time  |%varavg| %total
---------------------------------------------------------------
Pair    | 28.099     | 31.917     | 38.03      |  34.6 |  5.17
Bond    | 0.28004    | 0.28963    | 0.30961    |   1.2 |  0.05
Kspace  | 289.97     | 300.65     | 316.06     |  36.1 | 48.72
Neigh   | 4.7423     | 5.4621     | 6.7886     |  23.8 |  0.89
Comm    | 119.94     | 134.75     | 147.69     |  59.3 | 21.84
Output  | 1.2283     | 1.2299     | 1.2407     |   0.1 |  0.20
Modify  | 133.27     | 136.38     | 139.05     |  14.6 | 22.10
Other   |            | 6.381      |            |       |  1.03

Nlocal:        15.7500 ave          20 max          11 min
Histogram: 1 2 1 11 14 11 15 7 1 1
Nghost:        2508.08 ave        2528 max        2484 min
Histogram: 1 3 5 5 14 13 5 7 6 5
Neighs:        5270.81 ave        6736 max        3674 min
Histogram: 1 2 1 11 14 11 15 7 1 1

Total # of neighbors = 337332
Ave neighs/atom = 334.65476
Ave special neighs/atom = 2.0000000
Neighbor list builds = 10050
Dangerous builds = 1

unfix		3
unfix		2
unfix		1

write_data	data.final.${pid}
write_data	data.final.0
System init for write_data ...
PPPM initialization ...
  extracting TIP4P info from pair style
  using 12-bit tables for long-range coulomb (../kspace.cpp:340)
  G vector (1/distance) = 0.38342025
  grid = 24 30 32
  stencil order = 5
  estimated absolute RMS force accuracy = 0.0019486542
  estimated relative force accuracy = 5.8683142e-06
  using double precision FFTW3
  3d grid and FFT values/proc = 4080 384
Last active /omp style is kspace_style pppm/tip4p/omp
WARNING: Not all mixed pair coeffs generated from mixing. Use write_data with 'pair ij' option to store all pair coeffs. (../write_data.cpp:312)

write_restart   restart.lmp.${pid}
write_restart   restart.lmp.0
System init for write_restart ...
PPPM initialization ...
  extracting TIP4P info from pair style
  using 12-bit tables for long-range coulomb (../kspace.cpp:340)
  G vector (1/distance) = 0.38342025
  grid = 24 30 32
  stencil order = 5
  estimated absolute RMS force accuracy = 0.0019486542
  estimated relative force accuracy = 5.8683142e-06
  using double precision FFTW3
  3d grid and FFT values/proc = 4080 384
Last active /omp style is kspace_style pppm/tip4p/omp
Total wall time: 0:10:20
