#include		in.partitions
include		in.temp
variable        temperature equal 163.27
variable	tempDamp equal 100.0
include		in.pressure
variable        pressure equal 8297.7
variable        pressureDamp equal 1000.0 # This is 1 ps
include		in.seed
variable        seed equal 745823

units		real
atom_style	full
read_restart    restart.lmp.${pid}
read_restart    restart.lmp.1
Reading restart file ...
  restart file = 30 Jul 2021, LAMMPS = 30 Jul 2021
  restoring atom style full from restart
  triclinic box = (-3.1990210 -0.099459374 0.097256163) to (14.809020 22.679458 19.132742) with tilt (-0.039235572 -6.9809026 0.18243657)
  2 by 4 by 2 MPI processor grid
  restoring pair style lj/cut/tip4p/long/omp from restart
  restoring bond style harmonic/omp from restart
  restoring angle style harmonic/omp from restart
  1008 atoms
  672 bonds
  336 angles
Finding 1-2 1-3 1-4 neighbors ...
  special bond factors lj:    0        0        0       
  special bond factors coul:  0        0        0       
     2 = max # of 1-2 neighbors
     1 = max # of 1-3 neighbors
     1 = max # of 1-4 neighbors
     2 = max # of special neighbors
  special bonds CPU = 0.001 seconds
  read_restart CPU = 0.004 seconds

include 	in.setup
variable	out_freq equal 1000
variable	out_freq2 equal 10000
variable	out_freq3 equal 1000

timestep	2.0

neigh_modify    delay 7 every 1

include		in.tip4p
# This is TIP4P/Ice

# create groups ###
group ox type 2
336 atoms in group ox
group hy type 1
672 atoms in group hy

# set charges - beside manually ###
set group ox charge -1.1794
Setting atom values ...
  336 settings made for charge
set group hy charge 0.5897
Setting atom values ...
  672 settings made for charge

# ### TIP3P Potential Parameters ###
pair_style lj/cut/tip4p/long/omp 2 1 1 1 0.1577 8.5
pair_coeff 1 1*2 0.000 0.000
pair_coeff 2 2 0.21084 3.1668
bond_style  harmonic
bond_coeff  1 450 0.9572
angle_style harmonic
angle_coeff 1 55 104.52
kspace_style pppm/tip4p/omp 1.0e-5
pair_modify tail yes

thermo          ${out_freq}
thermo          1000
thermo_style    custom step temp pe etotal epair emol press lx ly lz vol pxx pyy pzz pxy pxz pyz enthalpy

restart 	${out_freq3} restart.lmp.${pid} restart2.lmp.${pid}
restart 	1000 restart.lmp.${pid} restart2.lmp.${pid}
restart 	1000 restart.lmp.1 restart2.lmp.${pid}
restart 	1000 restart.lmp.1 restart2.lmp.1


include         in.dump
dump            myDump all atom ${out_freq2} dump.water.${pid}
dump            myDump all atom 10000 dump.water.${pid}
dump            myDump all atom 10000 dump.water.1
dump            myDump2 all dcd ${out_freq2} dump.dcd
dump            myDump2 all dcd 10000 dump.dcd
dump_modify     myDump append yes
dump_modify     myDump2 append yes


variable natoms 	equal  "count(all)"                        # NUMBER ATOMS
variable H      	equal  "enthalpy/v_natoms"                 # ENTHALPY-per-atom
variable Vol      	equal  "vol/v_natoms"                 # volume-per-atom
fix AVG all 		ave/time ${out_freq} 1 ${out_freq} v_Vol v_H file vol_enthalpy.dat
fix AVG all 		ave/time 1000 1 ${out_freq} v_Vol v_H file vol_enthalpy.dat
fix AVG all 		ave/time 1000 1 1000 v_Vol v_H file vol_enthalpy.dat



fix 		1 all shake 1e-6 200 0 b 1 a 1
       0 = # of size 2 clusters
       0 = # of size 3 clusters
       0 = # of size 4 clusters
     336 = # of frozen angles
  find clusters CPU = 0.000 seconds
fix             2 all nph tri ${pressure} ${pressure} ${pressureDamp}
fix             2 all nph tri 8297.7 ${pressure} ${pressureDamp}
fix             2 all nph tri 8297.7 8297.7 ${pressureDamp}
fix             2 all nph tri 8297.7 8297.7 1000
fix             3 all temp/csvr ${temperature} ${temperature} ${tempDamp} ${seed}
fix             3 all temp/csvr 163.27 ${temperature} ${tempDamp} ${seed}
fix             3 all temp/csvr 163.27 163.27 ${tempDamp} ${seed}
fix             3 all temp/csvr 163.27 163.27 100 ${seed}
fix             3 all temp/csvr 163.27 163.27 100 745823


run             250000
PPPM initialization ...
  extracting TIP4P info from pair style
  using 12-bit tables for long-range coulomb (../kspace.cpp:340)
  G vector (1/distance) = 0.37914623
  grid = 24 27 32
  stencil order = 5
  estimated absolute RMS force accuracy = 0.0024846704
  estimated relative force accuracy = 7.4825112e-06
  using double precision FFTW3
  3d grid and FFT values/proc = 7875 1344
Last active /omp style is kspace_style pppm/tip4p/omp
Neighbor list info ...
  update every 1 steps, delay 7 steps, check yes
  max neighbors/atom: 2000, page size: 100000
  master list distance cutoff = 10.8154
  ghost atom cutoff = 10.8154
  binsize = 5.4077, bins = 5 5 4
  1 neighbor lists, perpetual/occasional/extra = 1 0 0
  (1) pair lj/cut/tip4p/long/omp, perpetual
      attributes: half, newton on, omp
      pair build: half/bin/newton/tri/omp
      stencil: half/bin/3d/tri
      bin: standard
Per MPI rank memory allocation (min/avg/max) = 12.46 | 12.47 | 12.48 Mbytes
Step Temp PotEng TotEng E_pair E_mol Press Lx Ly Lz Volume Pxx Pyy Pzz Pxy Pxz Pyz Enthalpy 
20000000    173.28422   -5036.0171   -4689.4273   -5036.0171            0    8883.7078    18.008041    22.778918    19.035486    7808.4263    8161.7225    9133.4027     9355.998   -1677.0164    937.91597   -2805.1155   -3677.7694 
20001000    167.32141   -5064.6336   -4729.9702   -5064.6336            0    6177.8712    18.054591    22.695999    19.211676    7872.3105    5668.1557    6155.8734    6709.5847    366.35658    25.250456   -432.41945   -4020.6914 
20002000     160.0068   -5039.3551   -4719.3218   -5039.3551            0    8594.1282    17.862424    22.725942    19.197845    7793.1813    9508.9651    8009.0785     8264.341   -617.77739    384.20653    -1143.684   -3742.5513 
20003000    153.50455   -5037.6931   -4730.6651   -5037.6931            0    7246.3318    17.861454    22.837395    19.201239    7832.3595    8329.9436    5824.3193    7584.7324   -307.73339    596.38393    336.64562   -3902.9388 
20004000    158.75576   -5061.1301    -4743.599   -5061.1301            0    9336.6427    17.870809    22.725275    19.147284    7776.0768    8179.7083    10086.526    9743.6941    1117.5225    397.75511    411.73345   -3684.7667 
20005000    160.08425   -5037.8157   -4717.6274   -5037.8157            0    8336.0212    17.876188    22.689872    19.227447    7798.8142    8580.6281    8879.9776    7547.4579   -363.31904     835.4718    648.81886   -3769.5075 
20006000    162.66255   -5036.5603   -4711.2151   -5036.5603            0    8402.9034    17.890092    22.722673    19.204066    7806.6587    8488.6228    9114.6113    7605.4761   -935.86293    989.25616   -600.90153   -3754.5268 
20007000    158.39381   -5042.5143   -4725.7071   -5042.5143            0    7390.6629    17.811372    22.832605    19.226746    7819.1332    7033.1121     7606.434    7532.4425   -554.57952    489.16393    86.032119     -3882.92 
20008000    167.18822   -5052.4544   -4718.0574   -5052.4544            0    8140.9345    17.866647    22.711852     19.22816    7802.4919    7119.2388    9034.7199    8268.8449    851.14768   -81.674554   -1157.4411   -3791.6895 
20009000    169.74058   -5034.6557   -4695.1536   -5034.6557            0    9935.3851    17.786253    23.060655    18.946721    7771.2372    8892.5798    9929.8191    10983.756   -845.07801   -159.40987   -1176.3892   -3569.1215 
20010000    168.32517   -5051.7959   -4715.1248   -5051.7959            0    6642.8854    17.841693    22.758441    19.311276    7841.3265     6700.719    6653.7897    6574.1476   -684.54313   -831.24742    642.32516   -3955.4597 
20011000    158.53718    -5038.112   -4721.0181    -5038.112            0    7655.2311     17.88725    22.659831    19.288544    7818.0723     6102.289    9100.4361    7762.9681    821.52258    410.52721     695.8685   -3848.1796 
20012000    167.88472   -5028.4866   -4692.6964   -5028.4866            0    7750.5899    17.853231    22.874283    19.175028    7830.6954    8407.9172    7141.9872    7701.8653     559.2523   -236.99172    118.34776   -3807.5584 
20013000     165.1849   -5031.7473    -4701.357   -5031.7473            0     7286.433    17.835708    22.938487    19.190038    7851.1082    6168.7816    7628.5522    8061.9652   -247.61124    168.98554   -706.21457   -3867.0579 
20014000    170.74432   -5062.3969   -4720.8872   -5062.3969            0    8418.7331    17.920143     22.51265    19.313184     7791.516    9849.4792    8675.1291     6731.591    857.22294   -431.35788    1271.3759   -3764.2558 
20015000    169.51585   -5053.7463   -4714.6936   -5053.7463            0    9498.2634    17.778529     22.68027    19.238508    7757.3865    12343.348    9070.4384    7081.0042    315.99878   -731.84431    661.94217   -3640.1216 
20016000    162.92982   -5032.5692   -4706.6894   -5032.5692            0     9946.997    17.535048    22.940854    19.204744    7725.4725    11142.884    9976.6694    8721.4373    270.99135   -473.39974    -780.5695   -3585.9802 
20017000    165.32704   -5052.8154   -4722.1409   -5052.8154            0    7910.6956     17.79316    22.633546    19.396934    7811.5778    8282.5389    8261.3571    7188.1908    204.91629   -1070.5766   -290.01347    -3820.924 
20018000    164.82212   -5056.8794   -4727.2148   -5056.8794            0    8874.9766    17.783678    22.642471    19.302229    7772.3592    9426.1052    8809.4766    8389.3478     651.7558   -317.90954   -159.82725   -3721.2194 
20019000    156.51809   -5033.4441   -4720.3886   -5033.4441            0    7671.0696    17.700671    23.054941    19.131822    7807.4655    8357.0259    6541.5731    8114.6097     1159.492   -544.06091    1228.0725   -3846.9309 
20020000     166.1794   -5055.1541   -4722.7748   -5055.1541            0    7077.3324    17.955976    22.812111    19.091449    7820.1195    7284.7628    7314.1823    6633.0521    114.75782   -1222.5892   -13.160834   -3915.6162 
20021000    160.75432   -5053.2103   -4731.6817   -5053.2103            0    9311.6214    17.996003    22.618807    19.131358    7787.3829    6924.0493    10330.912    10679.903    811.35803   -475.68843    1183.4692   -3674.1517 
20022000    167.25728   -5050.4225   -4715.8873   -5050.4225            0    8316.4103    17.856206    22.811002     19.16314    7805.4912    7619.9235    8369.3518    8959.9556   -88.298039    -870.1253    -110.1322    -3769.188 
20023000     159.5206   -5050.1911   -4731.1302   -5050.1911            0    9542.2116    17.822187    22.871805    19.033359    7758.4838    7490.3539    9687.1227    11449.158    -55.69255   -97.950926   -555.61781   -3651.4335 
20024000    175.97626   -5040.7707   -4688.7964   -5040.7707            0    7797.4985    17.901945    22.736091     19.19947    7814.5728    7900.3926    8066.3708    7425.7322   -710.80446   -395.65411    -275.7079   -3800.1348 
20025000    163.66257   -5032.1433    -4704.798   -5032.1433            0    7692.7883    17.894966    22.736572    19.287865     7847.657    6285.7389    8195.8088    8596.8173    584.64789   -365.21018   -121.77165   -3824.3581 
20026000    162.87715   -5028.7731   -4702.9987   -5028.7731            0    9957.4583    17.771049    22.852057    19.079717    7748.3686    10457.236    9345.9166    10069.223    385.35134    592.28622   -597.44216   -3577.7859 
20027000    173.74242   -5046.3401   -4698.8338   -5046.3401            0    8951.2122    18.026043    22.423765    19.307707    7804.4021    7915.8572    10064.475    8873.3041   -743.71577    75.493845   -135.55136    -3680.014 
20028000    160.65867   -5043.9718   -4722.6346   -5043.9718            0    9722.2498     17.76847    22.648961    19.300332    7767.1752     9681.321    10008.053     9477.375   -371.19627   -49.405098    217.86169   -3621.3343 
20029000    158.03497   -5032.9757   -4716.8862   -5032.9757            0    8118.0386    17.654282    23.117925    19.105701    7797.6168    9275.3445    6704.2595    8374.5117    338.75733   -98.814529   -357.13376   -3793.7009 
20030000     170.5043   -5054.1975   -4713.1678   -5054.1975            0    6959.1631    17.971377    22.683713    19.276941    7858.3909    5956.7809      7331.32    7589.3886    343.63831    7.5642646   -200.27195    -3915.602 
20031000    173.70081    -5045.316    -4697.893    -5045.316            0    9019.5599    17.966626     22.58283    19.248671    7809.9034    7794.9104    9438.6244    9825.1449   -386.81422   -553.83232    34.156846   -3670.5702 
20032000    159.72839   -5035.8604   -4716.3839   -5035.8604            0    7131.1671     17.85268    22.907667    19.218777    7859.7737    5811.3731    7145.8017    8436.3264   -502.26735    1044.6875   -1894.1192   -3898.9615 
20033000    165.30852   -5046.8043   -4716.1669   -5046.8043            0    8434.2928    17.628089    22.978772    19.225085    7787.5406     9348.253    7878.6419    8075.9836    402.12091    714.97134   -742.84812   -3758.2565 
20034000    158.81362   -5057.9424   -4740.2955   -5057.9424            0    8010.9298    17.841655    22.738106    19.251589    7810.0891    8602.4546    7420.4227    8009.9121   -845.07398   -246.65411    15.779677   -3827.8335 
20035000    168.57266   -5079.4584   -4742.2922   -5079.4584            0    8135.1664    17.929227    22.399475    19.439432    7806.9785     8432.392    9155.7263     6817.381   -61.844852    802.30057    656.66347   -3816.0484 
20036000    157.04262   -5049.1162   -4735.0116   -5049.1162            0     9113.808    17.938137    22.561973    19.257488    7793.8859    9559.9006    9117.0922    8664.4312    1099.5157    592.37878    111.73737    -3699.083 
20037000    165.68463   -5050.1127    -4718.723   -5050.1127            0     7866.889    17.865316     22.89463    19.120005    7820.4608    9076.4698    7260.1213     7264.076    677.89399    -908.0671    1266.2149   -3821.4775 
20038000    157.89227   -5038.5303   -4722.7262   -5038.5303            0    7649.0278     17.80402    22.896049    19.154992    7808.3736     7608.991    7726.8701    7611.2221    264.31278    179.30774    463.68019    -3851.677 
20039000    165.62779   -5055.9841   -4724.7081   -5055.9841            0    8753.8149    17.824165    22.639287    19.308498    7791.4885    10324.734    7920.9516    8015.7594   -1791.6765   -529.84791   -1083.9436   -3730.0045 
20040000    164.74965   -5047.3953   -4717.8757   -5047.3953            0    7757.5542    17.809475    22.666303    19.292782    7788.0127    9017.8384    7909.8144    6345.0097   -265.09603   -287.03257   -358.11261   -3836.7713 
20041000    160.50009   -5041.7741    -4720.754   -5041.7741            0     8201.927     17.84527    22.825515    19.132633    7793.2469    9603.1119    7686.4531    7316.2162   -1451.3469     334.2229    350.72656   -3788.5516 
20042000    162.22351   -5046.1885   -4721.7214   -5046.1885            0    8526.7754    17.903367     22.77035     19.09091    7782.7136    7835.0796    9167.1302    8578.1164    502.53898   -70.393845   -249.99534   -3753.9077 
20043000    171.36708   -5057.0741   -4714.3188   -5057.0741            0    7795.7896    18.055925    22.451588    19.308961    7827.5474    7656.1691    7309.0802    8422.1194    -659.4248    228.60341   -1461.8182   -3824.3768 
20044000    165.99912   -5064.3656   -4732.3469   -5064.3656            0    9273.9325    17.833266    22.720071    19.141982    7755.8155    8495.5835    9641.5747    9684.6393   -168.04368    239.70231   -546.97986   -3683.3667 
20045000    163.51633   -5067.3813   -4740.3284   -5067.3813            0    8546.6617    17.714683    22.981483    19.179571    7808.1888    8422.0129    8397.6993    8820.2729   -687.48363    618.20798   -783.14213   -3767.0822 
20046000    162.99413   -5059.3857   -4733.3773   -5059.3857            0    8872.0949    17.956068    22.591074    19.187416     7783.315    8813.3893    9115.5587    8687.3369   -612.43934    846.44888   -376.45415    -3726.291 
20047000    159.11459   -5039.9188     -4721.67   -5039.9188            0    8492.8976    18.055529    22.539255    19.157522    7796.3104    7857.6046    8751.3445    8869.7437   -522.23271   -661.47734     1077.279   -3756.0174 
20048000    160.49381   -5050.7693   -4729.7619   -5050.7693            0    7954.3569    17.937297    22.969921    18.916686    7794.0207    7898.4007    6249.9083    9714.7618    642.94742   -54.788887      653.896   -3825.6076 
20049000     166.8276   -5042.8284   -4709.1526   -5042.8284            0    8341.9918    17.942352    22.770788    19.076097    7793.7584    7337.3663    8314.5288    9374.0804    -647.2871   -438.39099   -1350.4169   -3760.9686 
20050000    161.22508   -5059.5978   -4737.1277   -5059.5978            0    8666.2087    18.012455    22.576164    19.139002    7782.9159    7644.2356    8150.1599    10204.231   -635.99823   -987.34873    1255.7981   -3753.4624 
20051000    176.77648   -5034.8246   -4681.2498   -5034.8246            0    8068.4882    17.901403    22.810989    19.145397    7817.9979    9050.9373    7216.2641    7938.2633    167.35797   -244.67243     1239.874   -3761.3011 
20052000    162.01304   -5057.9271    -4733.881   -5057.9271            0    8388.0913    17.816516    22.934249    19.035062    7777.8864    8028.7842    7906.8301    9228.6595    39.095639   -736.09215   -1255.8013   -3782.3989 
20053000    161.72168   -5071.0952   -4747.6319   -5071.0952            0    7344.9707    17.898294    22.749136    19.206097    7820.1608     8195.879    6871.2087    6967.8245   -775.66549   -688.08284   -872.86748   -3909.9452 
20054000    171.70778   -5045.1628    -4701.726   -5045.1628            0    6592.9144    17.925641    22.642147    19.287068    7828.1389     7056.735    6733.8996    5988.1085   -389.51616   -377.18356    749.98181   -3949.0434 
20055000    165.53225   -5042.1917   -4711.1067   -5042.1917            0    6897.1641    17.933589    22.706882    19.253865      7840.48    5985.2063    7504.6336    7201.6523   -383.68124   -277.38521   -632.79223    -3922.448 
20056000    169.44604    -5026.278    -4687.365    -5026.278            0    9063.7602    17.686051    23.088508    19.048869    7778.5016    8679.5723    8612.4947    9899.2137    1455.1698    857.51311   -970.65233   -3659.1588 
20057000    158.03817   -5059.2805   -4743.1846   -5059.2805            0    7670.7051    17.904959    22.707494    19.218357    7813.7369    7339.6356    8116.2024    7556.2772   -1083.1575   -327.08402   -1580.8097   -3869.0668 
20058000    160.97184   -5044.2831   -4722.3195   -5044.2831            0    8561.6611    17.973001    22.536598    19.264279    7803.0018    6981.9599    9824.0504    8878.9732   -150.04417    583.33262    1329.5023   -3748.0129 
20059000    159.78247   -5046.9664   -4727.3817   -5046.9664            0     6942.358    17.916222    22.879949    19.107746      7832.69     5619.521    6844.8208    8362.7321    194.75782    335.75845    55.719354    -3934.344 
20060000    169.66763   -5064.4551   -4725.0989   -5064.4551            0    7684.0331    17.837595    22.893266      19.1718    7829.0118    8133.1181    6911.2361    8007.7453    1695.3926    283.53338    236.35697   -3847.7505 
20061000    164.73097   -5039.1797   -4709.6975   -5039.1797            0      7128.49    18.107349    22.610336    19.183129    7853.8273    5603.1556    7555.4168    8226.8974    297.85149   -400.99688   -1043.5107   -3893.2001 
20062000    169.61107   -5022.2732   -4683.0301   -5022.2732            0    8903.3837    17.991843    22.584769     19.14991    7781.4056    7214.3383    9691.3948     9804.418   -764.48587   -272.47264    1379.4221   -3672.6401 
20063000    163.69995   -5031.8316   -4704.4115   -5031.8316            0     6993.425    17.816981    22.998016    19.210542    7871.6198    9267.6828    6342.3744    5370.2178    237.11874   -739.01285   -63.288509   -3901.5698 
20064000      160.758   -5046.0529   -4724.5171   -5046.0529            0    7753.8217    17.784334    23.059897    19.057067    7815.3968    8358.2191    6657.5452    8245.7009    905.36408   -780.83578   -1214.8576     -3840.74 
20065000      158.956    -5053.135   -4735.2033    -5053.135            0    8770.1121    17.966059    22.581096    19.220193    7797.5039    7743.7174    9954.7795    8611.8393   -426.89879    914.26856    1515.0174   -3737.8785 
20066000     172.2578   -5044.9989    -4700.462   -5044.9989            0    7926.2264    17.815927    22.829037    19.233662    7822.7238    9354.3186    7054.8391    7369.5216    29.143325     98.95075    1317.7669   -3796.1873 
20067000    156.81325   -5045.5263   -4731.8804   -5045.5263            0    7493.9822    17.754998    22.819485    19.293814    7817.0797    7612.5278    6869.5683    7999.8507     1307.553    191.89705    15.824551   -3877.5358 
20068000    166.58193   -5047.1907   -4714.0063   -5047.1907            0    8269.0058    17.685598    22.791129    19.344907    7797.4436    10522.043      7897.78    6387.1943    45.156228   -476.73822   -746.39868   -3773.6738 
20069000    149.59901   -5039.5394   -4740.3229   -5039.5394            0    8809.8722    17.736437    22.851649    19.209612     7785.787    7924.2011    9197.8946    9307.5208   -747.57877    163.86904   -1529.6424    -3739.982 
20070000    165.69242   -5045.0713   -4713.6659   -5045.0713            0    7835.3062    17.894294    22.755835    19.200808    7818.5615     7568.316    7306.4796     8631.123   -629.46108    62.095821   -296.08814   -3820.2397 
20071000    163.43138   -5050.0623   -4723.1794   -5050.0623            0    7594.4232    18.064657    22.620816    19.186057     7840.138    6563.6427     7334.198     8885.429   -1720.0462   -886.76154   -203.93643   -3854.8302 
20072000    183.50861   -5048.9511   -4681.9112   -5048.9511            0    9163.5437    17.788205    23.092248    18.976858    7795.1172    8258.9059    7957.0459    11274.679   -1002.9666    23.519993   -118.78072   -3640.1648 
20073000    159.20826   -5066.7087   -4748.2725   -5066.7087            0    7952.9672    17.830057    22.983216    19.051823    7807.2855      9561.87    7314.8477    6982.1838    202.31157    53.913383    7.8538523   -3842.7377 
20074000    154.05663   -5047.5577   -4739.4254   -5047.5577            0    9739.7841    17.916421    22.480887    19.289198    7769.2463    8429.6591    11270.077    9519.6157    20.591337    644.60702    1594.1439   -3635.8447 
20075000     168.7388   -5064.1303   -4726.6319   -5064.1303            0    8545.6799    17.960111    22.683092    19.117703    7788.3773    7150.1466    8710.5483    9776.3449    603.04369   -563.27608    1145.3753   -3755.9666 
20076000    169.12161    -5055.407   -4717.1429    -5055.407            0    7504.6443    17.797531     22.97115    19.107505    7811.7163     8097.494    7149.6851    7266.7538    -256.3223     63.01227    1341.9239   -3862.1698 
20077000    155.38067   -5053.1231   -4742.3426   -5053.1231            0    9372.3116    17.824194      22.8037    19.115244     7769.536    9071.1138    8523.0114     10522.81     254.3542   -464.14734    329.47913   -3680.3593 
20078000    173.78546    -5040.156   -4692.5636    -5040.156            0    8084.5947     17.93834    22.576735     19.30585    7818.6599    7629.2504    8379.0893    8245.4443    1398.6338    582.73838    1920.4237   -3770.7004 
20079000    159.50533   -5050.0918   -4731.0615   -5050.0918            0    8723.7765    17.798462    22.798368    19.234639    7804.9526    8492.5429    8710.6663    8968.1202    159.63298    90.293043     316.1037   -3738.0582 
20080000    175.60568   -5052.8691    -4701.636   -5052.8691            0     8460.467     17.68824    22.865891    19.302096    7806.8749    10062.147    7677.9357    7641.3187   -49.374808    284.42576    1192.6923   -3738.3673 
20081000    166.95237    -5049.467   -4715.5416    -5049.467            0    8552.8112    17.848717    22.571337    19.424452    7825.5171    9496.4742    10028.147    6133.8125    25.819332    858.86235    1256.3239   -3739.4338 
20082000    157.18758   -5058.3396    -4743.945   -5058.3396            0    6114.2703    17.917587    22.861649    19.177818    7855.7249    6411.2738    6278.4024    5653.1346    42.000701    811.68787   -890.48587   -4043.4472 
20083000    163.20712   -5038.2124    -4711.778   -5038.2124            0    7469.3873    17.958746    22.820026    19.079412    7819.1066    7670.3794    7090.3316    7647.4507   -667.05226    764.11244   -317.78099   -3860.0165 
20084000    173.44768    -5034.872   -4687.9552    -5034.872            0    10846.866    18.010045    22.606376    19.059797    7760.0411    9469.5148    10971.896    12099.188    973.77953    416.60605   -625.80209    -3460.391 
20085000    167.01799    -5071.385   -4737.3284    -5071.385            0    6933.2522    17.987224    22.763396    19.187164    7856.1905    7470.8713    6697.1821    6631.7033    160.24968     113.0963    -672.0096   -3942.9546 
20086000    165.32984   -5060.1614   -4729.4813   -5060.1614            0    7648.9465    17.878211    22.868363    19.095877    7807.2618    7792.9016    7525.9884    7627.9495     161.4613    53.636438    1144.1538   -3858.5653 
20087000    164.04277   -5047.8089   -4719.7031   -5047.8089            0    10790.656    17.846136    22.590216    19.150426    7720.4569    9593.1674     11087.91    11690.891    320.82658     179.0836    642.30034   -3504.7298 
20088000    161.23686   -5048.7551   -4726.2614   -5048.7551            0    6154.2654    17.974286    22.690234    19.253848    7852.5036    6254.5525      6321.59    5886.6537   -158.17089    386.63447    -807.0971   -4021.4706 
20089000     154.9796   -5063.1858   -4753.2074   -5063.1858            0     8015.682     17.91683     22.72254    19.138494    7791.5847    8142.1355    7373.3755    8531.5349   -73.183279   -1556.9859   -1292.6665   -3842.3673 
20090000    159.16759   -5045.8845   -4727.5296   -5045.8845            0    8306.4959    17.806893    22.848444    19.128103    7782.4563    7439.6558    8108.9077    9370.9241    203.69837   -655.89846    1048.5548   -3784.7495 
20091000     162.0638   -5052.2869   -4728.1392   -5052.2869            0     8877.233    17.950509    22.731017    19.102037    7794.2676    8390.3817    8927.7346    9313.5828   -980.24525   -690.65515    77.590251   -3719.0517 
20092000    159.81213      -5043.7    -4724.056      -5043.7            0    7860.6966    17.783799    22.897375    19.175917    7808.4776     7381.581    7742.0333    8458.4755    605.43344   -392.06025   -1198.2286   -3828.8906 
20093000    168.12213   -5038.0154   -4701.7503   -5038.0154            0    9334.1761    17.839576    22.850592    19.067939    7772.9477    9070.4074    8841.3461    10090.775    1226.6748   -1111.9125   -473.28487   -3643.6237 
20094000    157.91562   -5037.2762   -4721.4254   -5037.2762            0    7699.5583    17.770984    22.747859    19.330738    7814.4865    8290.3327    7923.1153    6885.2269    735.72142   -915.81036     499.5095   -3843.9355 
20095000    156.83197   -5061.4115   -4747.7282   -5061.4115            0    8356.5276    17.805461    22.738247    19.221189    7781.9859    7781.4296    8989.7822    8298.3709   -524.57069    215.78149    -974.2446   -3799.3268 
20096000    162.92294   -5037.9199   -4712.0539   -5037.9199            0    7636.6956    17.703697    22.934731    19.283468    7829.6573    9518.1441    5788.4939    7603.4488   -812.63198   -750.44183    117.34783   -3840.0385 
20097000    161.48859   -5040.0526   -4717.0555   -5040.0526            0    8362.9527    17.823554    22.703522    19.259125     7793.348    9512.9596    8262.4565    7313.4419    442.25819   -470.35286     99.15101   -3766.5391 
20098000    166.13102   -5059.5289   -4727.2463   -5059.5289            0    6745.9657    17.865945    22.720881    19.315862    7840.8883    7922.4554    6216.4645    6098.9773   -604.89408   -314.21664    1136.1172   -3955.8363 
20099000    158.94541    -5042.627   -4724.7165    -5042.627            0    9098.9475    17.803018    22.698405    19.225808    7769.1508    9448.1103    9180.8372    8667.8951   -688.02939   -1022.1956    312.38619   -3693.7594 
20100000    161.88873   -5041.3759   -4717.5784   -5041.3759            0    8686.5881    17.743965    22.978105    19.041083    7763.4816    8227.1463    8204.8453    9627.7726    551.15601    13.063796     246.5372   -3734.0619 
20101000    155.06646   -5062.7744   -4752.6223   -5062.7744            0     6580.415    17.874257    22.631086    19.332832    7820.3982    6367.8574    7009.1265    6364.2612     277.0181   -806.72481   -993.17663   -4002.1096 
20102000    163.73985   -5051.0783   -4723.5784   -5051.0783            0    7283.4469    17.958363    22.547337     19.39028    7851.3817    9422.8615    7864.7815    4562.6976   -317.92492     867.6715   -326.55316   -3889.5921 
20103000    173.52516   -5048.8996   -4701.8278   -5048.8996            0    9229.1079    17.678461    23.000073    19.077786    7757.1403    9351.2665    8925.9873    9410.0698   -114.69166    259.68252    1067.7289   -3657.7394 
20104000     170.2949    -5041.302   -4700.6911    -5041.302            0    10680.172    17.789176    22.803805    19.042076    7724.6257    8427.0042    10901.657    12711.854   -432.67689     -1130.09    -1475.097   -3497.5085 
20105000    163.17602   -5019.8643   -4693.4921   -5019.8643            0    8236.8567    17.965643    22.696133    19.180913    7821.0292    8941.6053    7624.4493    8144.5154   -368.82677   -999.21077    32.986187   -3753.9823 
20106000    160.45113   -5057.6113   -4736.6892   -5057.6113            0     8136.476    17.893189    22.618651    19.222348    7779.6649    9629.7568    7760.8178    7018.8532   -833.62171   -1830.8247    578.53903   -3813.5374 
20107000     164.4227   -5046.8023   -4717.9366   -5046.8023            0    7426.4386    17.873928    22.903308     19.10515     7821.115    6634.1597    8088.2869    7556.8693   -998.93829    911.90553   -1548.4778   -3870.8551 
20108000    156.50236   -5017.9084   -4704.8844   -5017.9084            0    9456.7364    17.838854     22.84756    19.079261    7776.2165    10492.055    8689.2205    9188.9337   -1363.7329   -1069.9796   -522.94324   -3632.4135 
20109000    156.30293   -5039.3768   -4726.7517   -5039.3768            0    8823.0949    17.909786    22.604115    19.224512    7782.7526    9098.4562    9332.3727    8038.4558   -907.59728   -402.70993   -649.50708   -3725.2998 
20110000    168.56603   -5045.6711   -4708.5182   -5045.6711            0    8029.2093    17.919613    22.703766    19.236093     7826.064    8122.6664    7708.0005    8256.9611    1085.7943     346.0093    159.55558   -3792.1035 
20111000    173.70643   -5045.1535   -4697.7192   -5045.1535            0    7418.9975    18.031918    22.828843    19.062173    7846.9022    7315.8425    7147.1715    7793.9786    1109.3908    7.0060489    1236.5154   -3848.6964 
20112000     174.8525   -5069.3183   -4719.5917   -5069.3183            0    6979.8422    17.997149    22.776389    19.138512    7845.0686    6203.8103    6664.2461    8071.4702    215.08525    122.04937    1274.5298    -3921.012 
20113000    155.43371   -5038.7374   -4727.8507   -5038.7374            0    9469.6467    17.893268     22.76594    19.081298    7772.9016    8543.0605     9640.761    10225.119    1316.0632    833.51714     4.253016   -3654.3735 
20114000    168.91951    -5047.825   -4709.9651    -5047.825            0    8403.9956    17.844414    22.702947    19.248822    7798.0978    8743.3471    9140.9141    7327.7257    202.52836    435.08852     545.4181   -3754.2018 
20115000    168.95681   -5050.7757   -4712.8413   -5050.7757            0    9107.1461    17.858443    22.685376    19.126323    7748.5608    8454.1864    8728.6154    10138.636   -155.08065   -141.17392    1027.1349   -3683.6899 
20116000    158.99494   -5056.0412   -4738.0317   -5056.0412            0    9363.7618    17.907193    22.691549    19.108481    7764.5774     6889.155     10088.57     11113.56   -1367.9449    352.86234   -981.84783   -3677.6943 
20117000    159.28756   -5066.5322   -4747.9374   -5066.5322            0    8263.9733    17.900186    22.745583    19.183472     7810.554    7997.9316    7752.4959    9041.4924    1152.6063   -417.93901   -1358.8054   -3806.5971 
20118000    163.06808   -5068.0538   -4741.8975   -5068.0538            0    6567.0409    17.940511    22.799507    19.149351    7832.7511    5096.8331    6764.9976     7839.292    439.48605   -543.06266    709.22501   -3991.7271 
20119000     159.3724   -5056.8476   -4738.0831   -5056.8476            0    8656.5114    17.970028    22.654439    19.180111    7808.2406    8646.2256    8508.4695    8814.8392   -610.97107    704.96138   -665.04207   -3752.3213 
20120000    165.46636    -5050.243   -4719.2898    -5050.243            0    9759.5855    17.983756    22.630153    19.051864    7753.6352     7253.988    10755.213    11269.556   -778.18326   -29.176026   -934.13255   -3615.6874 
20121000    160.40739   -5059.8561   -4739.0215   -5059.8561            0    7770.7853    17.893725    22.843979    19.105546    7809.6572    6896.9303    8055.4735    8359.9521    439.21935    1609.9946     179.5785   -3853.9614 
20122000    167.76028   -5043.9737   -4708.4324   -5043.9737            0    7654.8795    17.877137    22.911982    19.152906    7845.0427     8494.899    7082.8826     7386.857   -8.7848038     971.7662   -61.100687   -3832.6231 
20123000    159.58961   -5038.3475   -4719.1486   -5038.3475            0    8807.0291    17.901026    22.654799    19.179054    7777.9531    9416.8946    8814.1844    8190.0083    1199.0184   -609.01781    39.550922   -3720.1367 
20124000    164.57202   -5045.3107   -4716.1463   -5045.3107            0    7235.6268    17.977781    22.760221    19.142901    7832.8594    7630.6164    7057.5179    7018.7461    648.22795    353.54545   -28.827748   -3889.5901 
20125000    162.59566   -5032.3663   -4707.1549   -5032.3663            0    7405.2051    17.781254    22.855457    19.257184    7826.0939     8073.099    6574.9928    7567.5236   -1658.9362    -428.0139    -551.9051   -3861.9577 
20126000    158.62644   -5050.5829   -4733.3104   -5050.5829            0    7604.3518    17.877441    22.807774    19.199785    7828.6095    7314.5015     6499.184    8999.3698   -184.26346   -396.91729    698.45969   -3865.1045 
20127000    155.03527   -5044.1872   -4734.0975   -5044.1872            0    8814.6942    17.842545    22.731821    19.216164    7793.9522    9275.5589    8884.7569    8283.7668   -448.12237   -993.84889    95.668627   -3732.1594 
20128000    158.64718   -5052.3928   -4735.0789   -5052.3928            0    8667.9538    17.742147    22.795142    19.302977    7806.7952    7240.7173    9647.5169    9115.6273    -563.8615    1136.8238    486.41408   -3748.1968 
20129000    176.18456    -5045.646   -4693.2552    -5045.646            0    7689.7779    17.991757    22.568029    19.289616    7832.3267    7688.6854    7551.4672     7829.181   -776.07886    1112.1531   -429.72528   -3814.8791 
20130000    155.74609   -5056.1925   -4744.6811   -5056.1925            0    7479.5414    17.862837    22.793493    19.173975    7806.8076    6956.5613    8256.8243    7225.2387    -617.8587    986.83241   -949.31704   -3893.1033 
20131000    153.37591   -5058.2155   -4751.4447   -5058.2155            0    7378.2763    17.751107    22.856917    19.270549    7818.7475    8909.8275    6832.2557    6392.7455    551.76155    632.02171   -193.38253   -3910.1116 
20132000    164.57418   -5027.8892   -4698.7205   -5027.8892            0    8714.1169    17.776206    22.743262    19.273371      7792.01    10391.863    9107.6051    6642.8828   -2013.2905    1462.5422   -2445.3759   -3708.4616 
20133000    169.88608   -5041.3962   -4701.6031   -5041.3962            0    8177.9052    17.933389    22.526192    19.363116    7822.1365    8892.8501    9066.2633    6574.6024   -1190.4518    849.53466    584.21786   -3768.6853 
20134000    154.71011   -5042.6669   -4733.2276   -5042.6669            0    9466.4649    17.914192    22.775338    19.081692    7785.3646    9343.3331    9320.1241    9735.9375   -1282.5129    1352.8771    148.71494   -3658.3904 
20135000    157.28004   -5039.4602   -4724.8807   -5039.4602            0    9889.9426    17.849865    23.060215    18.882067    7772.2694    9871.0851    8213.0625     11585.68   -591.26196    509.36883   -634.28008     -3603.85 
20136000    169.26601   -5047.6569    -4709.104   -5047.6569            0    8971.1746    17.945844    22.708546    19.151248    7804.5935    8414.4423    8954.5758    9544.5057    214.61371    504.94386   -825.75753    -3687.987 
20137000    160.18296   -5051.5578   -4731.1721   -5051.5578            0    7708.0481    17.994491    22.614044    19.241613    7829.9549    7989.5339     7160.301    7974.3093    231.60243   -831.70064        108.3   -3850.9758 
20138000    162.70348   -5049.8809   -4724.4539   -5049.8809            0     8428.874    17.834266     22.86517    19.129372    7800.6427    8432.7361    8452.6571    8401.2289   -1010.3052     259.8827   -1608.1658   -3765.5483 
20139000    153.31152   -5045.5062   -4738.8642   -5045.5062            0    9063.3948    17.753732    22.926952    19.117446    7781.5453    10166.543    8716.1428    8307.4987   -262.59127    536.04077    76.617943   -3710.2971 
20140000    167.34213   -5047.3733   -4712.6684   -5047.3733            0    8526.8405    17.971654    22.477192    19.324606    7806.2194    8196.8165     9790.121     7593.584    667.97403    803.45386    304.42137   -3741.9242 
20141000    160.23232   -5055.0489   -4734.5645   -5055.0489            0    7354.9291    17.911636    22.664254    19.314831    7840.9303    7676.1552    7871.2383    6517.3938    153.60896    90.258063   -425.19407   -3893.5142 
20142000    163.22043   -5046.8148   -4720.3538   -5046.8148            0    8305.8659    17.773104    22.923833    19.112996    7787.1633    9011.6575    7956.6769    7949.2634    640.86653    1011.8477   -60.972137   -3777.0749 
20143000    165.81043   -5068.2407   -4736.5994   -5068.2407            0    7159.6256    17.922847    22.775207    19.164175    7822.7501    5953.6679    7376.5489    8148.6601    1054.5335    890.49734   -477.39115   -3919.7807 
20144000    160.64493   -5038.7459   -4717.4362   -5038.7459            0    9266.3443    17.960164    22.524323    19.188023     7762.333    6919.0077    10680.001    10200.024    237.08403    333.50502    1356.9848   -3668.4335 
20145000    166.72072   -5055.3107   -4721.8487   -5055.3107            0    9973.4239    17.839028    22.758607    19.126754    7765.2984    8539.0846    10041.036    11340.151   -124.36045    252.89399    545.50231   -3592.3693 
20146000     164.1327   -5051.2901   -4723.0044   -5051.2901            0    8237.9822    17.633985    23.008786    19.211627    7794.8604    10171.205    6778.1428     7764.599   -522.60461    229.15214    -31.41838   -3786.5103 
20147000     151.4562   -5051.6614   -4748.7302   -5051.6614            0    7727.2409    17.787868    22.818677    19.197779    7792.2945    8672.3251    7848.9166    6660.4811    278.59291    386.24227   -601.34554   -3870.5863 
20148000    157.17935   -5040.4536   -4726.0755   -5040.4536            0    9052.4254    17.960799    22.630128    19.206258    7806.4832    7828.9202    10332.816    8995.5396   -695.16552    344.85083    292.53772   -3695.4609 
20149000    177.41987   -5057.4853   -4702.6237   -5057.4853            0    9670.8208    17.825736    22.829008    19.091481    7769.1612    8408.6528    9778.0082    10825.802   -66.928837    691.94634     721.1057   -3606.8689 
20150000    164.91117   -5056.2787    -4726.436   -5056.2787            0    9071.8969    17.819666    22.801184    19.146952    7779.5881    8341.8595    9804.6092     9069.222    1300.9081    401.76896    457.90503   -3697.1629 
20151000    169.69546   -5036.0429    -4696.631   -5036.0429            0    8024.9997    18.016701    22.631291    19.200756    7828.9397    7947.4029    8231.3173    7896.2791   -829.51326    1126.4506    176.75388   -3780.3602 
20152000      162.725   -5042.1591    -4716.689   -5042.1591            0    9326.4682    17.946156    22.509096    19.286399    7790.7747    9123.1217    9737.3563    9118.9265   -573.30236    55.180128    616.07431   -3657.0114 
20153000    159.97637   -5035.5998   -4715.6273   -5035.5998            0    7755.6616    17.811861    22.945548    19.114233    7812.0431    8237.7416    6454.9412     8574.302    681.21097   -327.63839    335.86208   -3832.0198 
20154000    160.82794   -5048.8582   -4727.1824   -5048.8582            0    7479.7952    17.833862    22.934529    19.063525    7797.1957    7325.3053    6674.1667    8439.9136   -305.26155    367.23836    58.311197   -3876.6243 
20155000    160.92715   -5048.6473   -4726.7731   -5048.6473            0    8970.3294    17.941273    22.560955    19.162843    7756.5871    8924.2235    9548.0478     8438.717   -145.57886    76.029117   -1665.5109   -3712.0327 
20156000    156.43679   -5056.0215   -4743.1286   -5056.0215            0    8083.5747    17.978572    22.795631    19.051566    7807.9585    8169.1406    7404.5833    8677.0002    1165.5373   -146.54671     979.0702   -3822.6433 
20157000    157.87617   -5038.4649    -4722.693   -5038.4649            0    8504.8433    17.809177     22.96431    19.014957    7776.6507    9134.3449    7414.8303    8965.3548    1710.9748   -1096.9505    914.17561   -3758.1207 
20158000    156.60032   -5055.4891   -4742.2691   -5055.4891            0    8518.0002    17.894037    22.701896    19.188356    7794.8582    9453.1096    8168.0134    7932.8777   -362.79143     -1163.93   -488.08161   -3773.9428 
20159000    156.42702   -5049.9965   -4737.1232   -5049.9965            0     7696.481    18.024474    22.662604    19.149425    7822.1862    6790.9338     8323.445    7975.0642   -277.82705    971.22568    614.76897   -3859.1197 
20160000    174.21481   -5062.3342   -4713.8831   -5062.3342            0    8043.2088    17.762287    23.041643    19.082926    7810.1127    8827.6094    6541.3124    8760.7047    474.86323     2.440335    192.02247   -3797.7416 
20161000    161.32018   -5062.4134   -4739.7531   -5062.4134            0    7526.3123     17.85026    22.789597    19.201064    7810.9973    8911.8891    6915.6361    6751.4118    888.76113   -516.03946   -137.70537   -3882.3903 
20162000    163.24616   -5045.3532   -4718.8407   -5045.3532            0     8651.079    18.018481    22.562206    19.217444    7812.5957    8370.8666    9259.0095    8323.3608     1337.988    794.43114    197.41888   -3733.1481 
20163000       154.01   -5036.8209   -4728.7818   -5036.8209            0    8319.4859    17.885989    22.664731    19.271836    7812.4385    7817.7594    8752.6059    8388.0924   -379.59041     132.7676    843.62984   -3780.8896 
20164000    156.79833   -5049.7707   -4736.1546   -5049.7707            0    5974.8593    17.748033    23.058857    19.223964    7867.3947    4804.4732    6786.5846    6333.5203    869.62262   -185.32853    812.56825   -4050.6119 
20165000    161.25083   -5055.5636    -4733.042   -5055.5636            0    7576.2338    17.885255    22.814481    19.180429    7826.4362    7615.1727    7622.1924    7491.3365    953.88723    -383.3034   -40.094857   -3868.2866 
20166000    175.36881   -5047.4489   -4696.6896   -5047.4489            0    8027.0183    18.043162    22.519836     19.26943    7829.7291    6104.1341    9096.9909    8879.9298    1580.5416    347.41637    1621.5592   -3780.0959 
20167000    161.06039   -5055.9283   -4733.7876   -5055.9283            0    6988.9691    17.971773     22.71083    19.210512    7840.8451    6720.9891    7490.1591    6755.7591    13.732127   -207.48999   -591.92212   -3934.5942 
20168000    162.21817   -5034.1081   -4709.6517   -5034.1081            0    8552.7394    17.783143    22.912543     19.18517    7817.1325    8486.4787    8165.8618    9005.8776    188.40267    949.14482   -226.96061   -3734.5979 
20169000    174.99403   -5046.4673   -4696.4576   -5046.4673            0    9156.8605    17.791963    22.727839    19.265029    7790.2555     8870.899    9784.8817    8814.8007    1072.1767    602.44183   -329.79183   -3656.1203 
20170000    159.86734   -5039.3592   -4719.6048   -5039.3592            0     8782.992    17.915919    22.599654    19.253637    7795.6735    7087.3194    10221.504    9040.1525    1807.3409    168.81717    1627.5863   -3721.0497 
20171000    168.20342   -5048.5528   -4712.1252   -5048.5528            0    8674.8599    17.781168    22.759444    19.279566    7802.2379    10109.469    7712.1357     8202.975   -1653.3648    284.89841    368.73359   -3725.0334 
20172000    158.35704   -5047.1546   -4730.4209   -5047.1546            0    8901.9598    17.756766    22.822078    19.178908    7772.1819    9346.9505     8146.874    9212.0548   -126.11669   -141.01575    231.10715     -3721.39 
20173000    162.79957   -5069.5926   -4743.9734   -5069.5926            0    7749.8315    17.902281    22.755298    19.168148    7808.5616    7029.2359    8324.4499    7895.8089    58.205758    285.93133   -926.33599   -3861.4236 
20174000    166.09613    -5064.312   -4732.0992    -5064.312            0    6788.8403    17.885812    22.822658     19.19529    7835.5512    7494.6152    5600.6039    7271.3019   -515.58375    640.80382   -999.42383   -3956.3148 
20175000    161.89286   -5050.1621   -4726.3564   -5050.1621            0    8940.1536     17.95142    22.706863     19.13969    7801.7288    8082.0728    8940.9327    9797.4554    930.63981    1248.9963    306.36314   -3709.1438 
20176000    162.69848   -5049.0887   -4723.6716   -5049.0887            0    9189.5151    17.869054    22.739448    19.122876    7770.2448    8041.1546    9054.8994    10472.491   -440.17177    880.23436    1290.8951   -3682.3061 
20177000    161.51868   -5038.4723    -4715.415   -5038.4723            0    6032.8255    17.892503    22.836375    19.281053    7878.2362    6030.4731    6242.3301    5825.6735   -448.63994    545.87668   -394.31203   -4022.2675 
20178000    165.59872   -5048.5974   -4717.3795   -5048.5974            0    8585.2072    17.866568    22.619317    19.307904    7802.8951    9944.1665    8331.0785    7480.3765    585.15632   -637.34128   -608.99584   -3740.4068 
20179000    169.65705   -5052.0265   -4712.6915   -5052.0265            0    8658.4985    17.845407    22.688041    19.287769    7809.1801    8624.9454    9007.4278    8343.1224   -2068.6711      1257.06   -1980.6839   -3726.5848 
20180000    162.38262   -5046.0593    -4721.274   -5046.0593            0    8509.3196    17.860897    22.772047     19.20355    7810.6442    8747.7328    7844.4931    8935.7329   -432.53317    21.453411   -1623.6248   -3751.9754 
20181000    161.09138   -5050.6836   -4728.4809   -5050.6836            0    9221.6434    17.863188    22.720944    19.155651    7774.6749    8304.9748    9885.3125     9474.643   -324.66737    1059.1248   -478.38283   -3682.8788 
20182000    166.20037    -5048.986   -4716.5648    -5048.986            0    8493.9689    18.022171    22.644565    19.102166    7795.6746    7042.8863    9418.4676    9020.5528   -14.410116   -445.16223    850.67904   -3750.8692 
20183000    156.63488   -5050.9561    -4737.667   -5050.9561            0    9155.4848    17.937422    22.692758    19.161109    7799.5214    7572.9084    9061.8926    10831.654    112.24167   -396.90805    1067.9416   -3696.2487 
20184000    157.41267   -5056.0502   -4741.2055   -5056.0502            0    8340.9084    17.861923    22.712985    19.218407    7796.8614    9361.8583    7547.3919    8113.4751    1724.5087    1.6523105     998.6753   -3792.7672 
20185000    171.17151   -5048.3049   -4705.9407   -5048.3049            0    8927.2197    17.805198    22.944779      19.0858    7797.2427    8531.8411    8927.7016    9322.1164    162.89528    285.52597    1324.3744   -3690.7838 
20186000    166.88038   -5045.9949   -4712.2135   -5045.9949            0    9796.0139    17.727205    22.807544    19.196819    7761.5429    10166.269     9423.029    9798.7435    928.94507    266.70656   -46.347779   -3603.3621 
20187000    155.78493   -5039.5939   -4728.0048   -5039.5939            0    9078.0791    17.950933    22.442382    19.317216    7782.1665    9279.3386     9059.324    8895.5747       183.77   -523.31491     931.1075    -3697.689 
20188000    162.19564   -5037.2246   -4712.8133   -5037.2246            0    8154.4417    17.861646    22.932189    19.078141    7814.5335    6989.5907    8051.2043    9422.5301   -926.94718   -740.09249    182.53315   -3783.4764 
20189000    161.89063   -5059.5296   -4735.7283   -5059.5296            0    8656.3024    17.754451    23.023049    18.996663    7765.1061    9924.2224    7679.0034    8365.6814    859.42826   -479.01239   -115.27109   -3755.4358 
20190000    167.91801   -5028.8917    -4693.035   -5028.8917            0    7757.8759    18.037509    22.537813    19.261249    7830.1988    7009.7361    8974.5124    7289.3793   -614.65842    757.19111    174.34437   -3807.1211 
20191000    166.41038    -5051.104   -4718.2626    -5051.104            0    8567.7313    17.996867    22.515716    19.307169    7823.5033    9003.6617    8926.0424    7773.4899   -1057.9492    136.15239   -1028.0787   -3740.7036 
20192000    160.58922   -5029.9601   -4708.7618   -5029.9601            0    10158.145    17.743251    22.956195    19.031336    7751.7966    10679.545    8735.5309     11059.36    27.667331    471.15445    1557.3057   -3560.3632 
20193000    156.25185   -5044.0904   -4731.5674   -5044.0904            0    6343.2921    17.976146    22.779343    19.184903    7855.9261    7452.5693    5746.5075    5830.7994   -1133.2993   -1148.4122     688.4511   -4004.8125 
20194000    164.03744   -5053.9421    -4725.847   -5053.9421            0     6484.322    18.092656    22.591747    19.243227    7865.5675     4887.737    7661.1153    6904.1139   -700.61725    8.1158689   -442.18213   -3982.0224 
20195000    159.81352   -5037.1985   -4717.5517   -5037.1985            0    9239.2719    17.832285    22.927352    19.016632    7774.8946    7997.9264    8384.6603    11335.229    1172.9501   -285.85573    156.58154   -3669.9212 
20196000    159.07651   -5048.9929   -4730.8202   -5048.9929            0    7664.3356    17.714296    23.012139    19.120166     7794.218     8027.235    7412.7148     7553.057    177.84006    343.61335    751.92017     -3859.61 
20197000    157.13166   -5038.6193   -4724.3366   -5038.6193            0    6730.7944    17.919721    22.758315    19.240786    7846.8282    7494.0622    6203.9999    6494.3212   -808.23906    144.76911   -82.176047   -3954.0784 
20198000    165.39857   -5050.8193   -4720.0018   -5050.8193            0    9011.5338    18.034417     22.50209    19.192196    7788.4247     8381.031    9584.4486    9069.1217   -1031.1496    211.44369   -97.946555    -3696.416 
20199000    168.45449   -5037.3085   -4700.3787   -5037.3085            0    9906.3196    18.001828    22.548988    19.131157    7765.7767    9618.1319    9756.1603    10344.667    896.67102    140.06271    258.44779   -3578.4297 
20200000    165.85792   -5055.8943    -4724.158   -5055.8943            0    8540.4076    17.702802    23.087398     19.02095    7774.0835    8626.8392    7646.0355    9348.3481   -51.590269    467.67865   -22.614765   -3755.8719 
20201000    163.53725   -5046.2411   -4719.1464   -5046.2411            0    9558.6829    17.861034     22.68761    19.205251     7782.432    9717.5949    10228.257    8730.1971    -41.72737    862.17555    1224.0323   -3634.2475 
20202000    162.34928    -5045.913   -4721.1944    -5045.913            0    9984.5073    17.829265     22.52597    19.308802    7754.8296    10591.386    10381.082    8981.0541    763.06135   -677.78006    50.339892   -3591.9842 
20203000    161.39257   -5063.3627   -4740.5576   -5063.3627            0    8506.3813    17.715104    22.982435    19.137444    7791.5465    8275.2389    8036.5394    9207.3656    597.52526    425.45599     -637.835    -3773.963 
20204000    152.29423   -5049.5525   -4744.9452   -5049.5525            0    8085.3575    17.827939    22.765326    19.226789    7803.3623    7738.7569    8071.0199    8446.2959     105.2941    41.341886    2277.6308   -3824.7989 
20205000    152.73971   -5045.6959   -4740.1976   -5045.6959            0    8917.9646    17.872275    22.588653    19.290344    7787.7165    9582.2289    8901.9804    8269.6844    1112.6227   -1201.2436    387.31266   -3727.3322 
20206000    166.74844   -5063.8624   -4730.3449   -5063.8624            0    8846.8463    17.846853     22.62248    19.260575    7776.2659    11590.004    8081.4636    6869.0717    322.48776    448.74939   -155.58967   -3727.0341 
20207000    163.36973   -5046.6598   -4719.9002   -5046.6598            0    8849.4463    17.772139      22.9282    19.097385    7781.8627    9961.4417    8249.8963    8337.0008    761.25012   -279.65861    1251.6295   -3715.5722 
20208000    168.33119   -5039.1969   -4702.5138   -5039.1969            0     9300.679    17.718126    22.975229    19.042973    7751.9755    9720.4252    8774.6136    9406.9982    539.19402   -1735.2894    423.98046   -3651.0291 
20209000    166.13404   -5050.6921   -4718.4035   -5050.6921            0    8380.7202    17.872483    22.621247    19.235636    7776.9264    8401.3362    9714.8008    7026.0235   -49.408281   -898.48261    1038.9045   -3767.8749 
20210000    165.37015   -5043.4483   -4712.6876   -5043.4483            0    8151.7456    17.757538    22.810601    19.252304    7798.3403    8908.3815    7530.0139    8016.8414    681.70053   -1258.1066   -873.01105   -3785.5831 
20211000    164.23512   -5042.8678   -4714.3772   -5042.8678            0    8596.2059    17.745707    22.714481    19.315626    7785.8299    9049.8987    8328.2428     8410.476   -1348.5613    70.975159   -1284.6017   -3738.2923 
20212000    158.04875   -5033.7589   -4717.6419   -5033.7589            0    9464.2888    17.830423    22.584761    19.339884    7788.0908      10153.9    9989.4112    8249.5551   -1712.4454   -1160.2703   -578.73735   -3642.6755 
20213000    155.80737    -5034.251    -4722.617    -5034.251            0    8554.1764    17.818083    22.875196     19.13166    7797.9146    7285.0977    9506.4576    8870.9738    1117.9729    914.67763    2739.9403   -3749.7968 
20214000    158.01095   -5039.0853   -4723.0439   -5039.0853            0    8782.5668    17.777664    22.949049    19.079042    7783.8768    7609.8231    8309.9436    10427.934    574.95703   -494.40172    1266.4667   -3726.0481 
20215000    157.17774   -5065.1264   -4750.7515   -5065.1264            0    8287.0866    17.886417    22.718736     19.20051    7802.2574    8145.7709     8150.355     8565.134     -96.0712   -137.78814    916.43537   -3807.7812 
20216000    159.55207   -5040.7138   -4721.5899   -5040.7138            0    10350.865    17.847799    22.656773    19.161451    7748.3839    10267.034    10315.134    10470.429    828.92644   -1140.6211    1138.2618    -3551.919 
20217000    160.83415   -5069.4775   -4747.7893   -5069.4775            0    7521.8453    17.849598    22.824604    19.176109    7812.5386    6611.1792    9063.4638     6890.893   -692.25368    739.21982   -1712.5673   -3890.7663 
20218000    163.62101     -5036.55   -4709.2877     -5036.55            0     8217.504    17.795066    22.775907    19.254066    7803.6489    7724.3037    8477.5002    8450.7081   -1233.9049    1004.6699   -397.94697   -3774.0683 
20219000    158.87441   -5045.5803   -4727.8118   -5045.5803            0    7635.5847    17.809277    22.648532    19.342107    7801.7161    8087.3203    8197.7583    6621.6755    -732.1161   -817.13136   -1019.3667   -3859.0348 
20220000    158.57236    -5051.275   -4734.1107    -5051.275            0    9552.9861    17.730759    22.862151    19.103695    7743.9369    10288.695     9042.833      9327.43   -1212.9082   -252.70664   -1099.4056   -3655.2215 
20221000    161.97275   -5055.7518   -4731.7863   -5055.7518            0    8728.4884    17.849695    22.723048    19.262999    7813.0619    9602.0684    7806.2463    8777.1505   -825.03771   -5.5642934   -1375.0696   -3737.2144 
20222000    158.21596   -5056.6256   -4740.1741   -5056.6256            0    9484.0576    17.921972    22.567286    19.179287    7757.0677    8280.2434    10071.724    10100.206   -72.136317   -967.80936    1079.3427   -3667.2533 
20223000    158.95067   -5068.0783   -4750.1573   -5068.0783            0    7229.9996    17.843106    22.874338    19.207265    7839.4309    5886.5884    7164.0677    8639.3427    174.97045    16.939528    214.86473   -3923.5511 
20224000    162.19264   -5042.8298   -4718.4245   -5042.8298            0    10040.031      17.6194     23.08608     19.08328      7762.37    10260.266    9139.5735    10720.254    947.34563    144.01166    71.565418   -3581.8307 
20225000    159.89034    -5050.011   -4730.2106    -5050.011            0     9154.083    17.968127    22.379259    19.297792    7759.9001    10245.126    9426.7933    7790.3296   -668.16987   -562.01551   -527.53602   -3694.2413 
20226000    159.88984    -5051.261   -4731.4616    -5051.261            0    8123.8726    17.904239    22.656685    19.255565    7811.0335    8077.3174    8929.4612    7364.8393    1487.6629    172.73978   -203.39079   -3806.0233 
20227000    174.91534   -5037.9848   -4688.1325   -5037.9848            0    6690.1899    17.817449    22.963003    19.140015    7830.9867    7638.3235     5712.068    6720.1781   -297.47075   -1588.2108    85.491003   -3924.0666 
20228000    175.84651   -5058.0144   -4706.2996   -5058.0144            0    8740.5461    17.788069    22.764697    19.266667    7801.8443    8619.2563    8521.8021    9080.5799     1196.614   -1302.0119   -605.68433   -3711.7837 
20229000    168.69589   -5045.0816   -4707.6689   -5045.0816            0    8759.7992    17.720924    22.754258    19.313928    7787.8871    10328.715    7571.9772    8378.7054   -387.84393   -721.69732    301.17669   -3712.7454 
20230000    170.58181   -5038.8799   -4697.6952   -5038.8799            0    8150.0925    17.825739    22.731286    19.279393    7812.0481    9210.8692    8119.2966    7120.1118    53.916327   -1060.5451    886.93777   -3769.1494 
20231000    164.91645    -5035.108   -4705.2547    -5035.108            0    8712.4533    17.784145    22.755645    19.289829    7806.3947    9866.9884    8669.0729    7601.2987    26.385924    -298.6022  -0.01920223    -3713.357 
20232000    164.61621    -5053.808   -4724.5553    -5053.808            0    8472.2892    17.844212    22.757878    19.248469     7816.734    9460.0154    8189.6587    7767.1935   -504.29117    281.69608   -1530.4626   -3758.7224 
20233000    156.21593   -5041.6592    -4729.208   -5041.6592            0    9006.3432    17.796773    22.949806    19.056338    7783.2273    8683.9324    8591.9882    9743.1092   -36.383661    1032.3986    1893.4847   -3706.8945 
20234000    166.55315   -5040.4025   -4707.2756   -5040.4025            0    9781.7815    17.899776    22.814506    19.032665     7772.456    9516.0728    10168.036    9661.2359   -460.62269    1568.9569   -340.16804   -3598.4784 
20235000    157.75682   -5054.1724   -4738.6393   -5054.1724            0    7803.2883    17.927671    22.749105    19.128544    7801.3562    7182.4269    8059.4919    8167.9459   -625.15718    139.32471   -282.13776   -3850.8219 
20236000     163.8905   -5053.2578   -4725.4565   -5053.2578            0    8392.6923    17.861185    22.727986    19.194031    7791.7933    8095.5851    8810.0173    8272.4745   -493.68225    1058.2841    -1682.727   -3771.7503 
20237000    158.48893   -5044.9584    -4727.961   -5044.9584            0    9015.2417    17.917007    22.685237     19.14995    7783.5268    9027.4696    9243.4343    8774.8211    125.09866    442.36853     -563.687    -3704.598 
20238000    168.40494   -5046.5114   -4709.6807   -5046.5114            0    9499.9144    17.801116    22.864083    19.099692    7773.6932    9577.6851    9666.4544    9255.6038    322.47219   -262.99961   -1591.0414   -3632.6627 
20239000    165.94035   -5047.1395   -4715.2383   -5047.1395            0     9532.371    17.862108    22.712047    19.153265    7770.1931    9591.8717    9555.8081    9449.4332   -1680.5337   -192.73715    252.46741   -3635.0272 
20240000     160.0736   -5029.3705   -4709.2036   -5029.3705            0    8774.7028    17.913032    22.690316    19.216688    7810.6681    9459.7587    8244.4173    8619.9325    618.57044    374.58262   -1134.9192    -3709.672 
20241000    160.56994   -5054.7375   -4733.5778   -5054.7375            0    8460.0564    17.877007    22.731924    19.182522    7795.3698    8506.5022    8493.5701    8380.0969    83.989831   -73.803992    82.089341   -3771.7754 
20242000    156.18574   -5042.5223   -4730.1315   -5042.5223            0    9719.2619    17.781241    22.748949     19.24062    7782.9183    10760.191    10140.121    8257.4735   -738.93576    295.48084    -309.9045   -3626.9381 
20243000    162.35764   -5029.0686   -4704.3333   -5029.0686            0    9413.9197    17.772771    22.747124    19.282484    7795.5116    11005.201    8804.4105    8432.1477    107.74256   -440.54226    406.33296   -3634.0691 
20244000    164.12815   -5037.7343   -4709.4578   -5037.7343            0    8520.4319    17.706052    22.805511    19.348913    7813.0054    9585.0619    7371.5077    8604.7262   -242.75756    343.35893    -528.5644      -3738.6 
20245000    168.10496   -5043.4894   -4707.2587   -5043.4894            0    7905.0121    17.925269    22.664588    19.257023    7823.5283    8052.8731    7837.7004    7824.4628   -100.35938    474.69529    -407.7933   -3805.3115 
20246000    165.83693   -5059.4005   -4727.7061   -5059.4005            0    8422.8079     17.83739    22.958167    19.056181    7803.7686    8580.0737     7293.719    9394.6312   -1009.3312     288.8456    232.93801   -3769.1067 
20247000    163.21507   -5048.1019   -4721.6516   -5048.1019            0    9318.9096    17.924709    22.835439    19.013032     7782.388    10423.808    8093.5388    9439.3817   -866.84244    844.30376      112.164   -3663.9727 
20248000     163.7924   -5037.4897   -4709.8847   -5037.4897            0      9010.07    17.951651    22.587435    19.275546     7815.882    9210.8187    9701.8016    8117.5896    114.76545    506.65532   -708.94999   -3682.8572 
20249000    165.00569   -5067.3466   -4737.3149   -5067.3466            0    7087.6391    17.920752    22.814665    19.172098    7838.6266    7262.1723    7083.0004    6917.7446    167.88931    750.61942    258.24137   -3927.0678 
20250000    169.19617   -5035.4555   -4697.0422   -5035.4555            0    9416.7816    17.717377    22.986212    19.059541    7762.1011     9573.311     9425.942    9251.0917   -133.98848    1308.4805   -1301.3173   -3631.0411 
Loop time of 490.636 on 64 procs for 250000 steps with 1008 atoms

Performance: 88.049 ns/day, 0.273 hours/ns, 509.543 timesteps/s
387.0% CPU use with 16 MPI tasks x 4 OpenMP threads

MPI task timing breakdown:
Section |  min time  |  avg time  |  max time  |%varavg| %total
---------------------------------------------------------------
Pair    | 41.041     | 44.014     | 48.32      |  28.5 |  8.97
Bond    | 1.6406     | 1.819      | 2.3521     |  11.8 |  0.37
Kspace  | 241.13     | 251.98     | 259.01     |  35.6 | 51.36
Neigh   | 1.6952     | 1.9875     | 2.2592     |  13.3 |  0.41
Comm    | 60.589     | 70.265     | 78.56      |  60.8 | 14.32
Output  | 0.52659    | 0.52691    | 0.52825    |   0.1 |  0.11
Modify  | 102.56     | 106        | 110.54     |  23.0 | 21.61
Other   |            | 14.04      |            |       |  2.86

Nlocal:        63.0000 ave          70 max          58 min
Histogram: 2 1 3 2 0 4 2 1 0 1
Nghost:        3460.38 ave        3478 max        3445 min
Histogram: 2 1 1 1 4 2 2 2 0 1
Neighs:        21527.2 ave       23965 max       19841 min
Histogram: 2 1 4 1 2 2 2 1 0 1

Total # of neighbors = 344435
Ave neighs/atom = 341.70139
Ave special neighs/atom = 2.0000000
Neighbor list builds = 4418
Dangerous builds = 0

unfix		3
unfix		2
unfix		1

write_data	data.final.${pid}
write_data	data.final.1
System init for write_data ...
PPPM initialization ...
  extracting TIP4P info from pair style
  using 12-bit tables for long-range coulomb (../kspace.cpp:340)
  G vector (1/distance) = 0.38405285
  grid = 24 30 32
  stencil order = 5
  estimated absolute RMS force accuracy = 0.0019014035
  estimated relative force accuracy = 5.7260201e-06
  using double precision FFTW3
  3d grid and FFT values/proc = 8400 1536
Last active /omp style is kspace_style pppm/tip4p/omp
WARNING: Not all mixed pair coeffs generated from mixing. Use write_data with 'pair ij' option to store all pair coeffs. (../write_data.cpp:312)

write_restart   restart.lmp.${pid}
write_restart   restart.lmp.1
System init for write_restart ...
PPPM initialization ...
  extracting TIP4P info from pair style
  using 12-bit tables for long-range coulomb (../kspace.cpp:340)
  G vector (1/distance) = 0.38405285
  grid = 24 30 32
  stencil order = 5
  estimated absolute RMS force accuracy = 0.0019014035
  estimated relative force accuracy = 5.7260201e-06
  using double precision FFTW3
  3d grid and FFT values/proc = 8400 1536
Last active /omp style is kspace_style pppm/tip4p/omp
Total wall time: 0:08:10
