LAMMPS (30 Jul 2021)
Processor partition = 0
  using 1 OpenMP thread(s) per MPI task
using multi-threaded neighbor list subroutines
variable        pid world 0 1
variable        phase world IceII IceIII

shell cd ${phase}
shell cd IceII
include Restart.lmp
echo both
log log.lammps
#include		in.partitions
include		in.temp
variable        temperature equal 9.41
variable	tempDamp equal 100.0
include		in.pressure
variable        pressure equal -1331.2
variable        pressureDamp equal 1000.0 # This is 1 ps
include		in.seed
variable        seed equal 745823

units		real
atom_style	full
box tilt large
read_restart	restart.lmp.${pid}
read_restart	restart.lmp.0
Reading restart file ...
  restart file = 30 Jul 2021, LAMMPS = 30 Jul 2021
  restoring atom style full from restart
  triclinic box = (-10.601772 -9.1936490 0.080374808) to (12.581772 12.183647 21.779624) with tilt (-9.1152828 1.9751128 2.9467636)
  4 by 4 by 4 MPI processor grid
  restoring pair style lj/cut/tip4p/long/omp from restart
  restoring bond style harmonic/omp from restart
  restoring angle style harmonic/omp from restart
  1296 atoms
  864 bonds
  432 angles
Finding 1-2 1-3 1-4 neighbors ...
  special bond factors lj:    0        0        0       
  special bond factors coul:  0        0        0       
     2 = max # of 1-2 neighbors
     1 = max # of 1-3 neighbors
     1 = max # of 1-4 neighbors
     2 = max # of special neighbors
  special bonds CPU = 0.010 seconds
  read_restart CPU = 0.023 seconds
include 	in.setup
variable	out_freq equal 1000
variable	out_freq2 equal 10000
variable	out_freq3 equal 1000

timestep	2.0

neigh_modify    delay 7 every 1

include		in.tip4p
# This is TIP4P/Ice

# create groups ###
group ox type 2
432 atoms in group ox
group hy type 1
864 atoms in group hy

# set charges - beside manually ###
set group ox charge -1.1794
Setting atom values ...
  432 settings made for charge
set group hy charge 0.5897
Setting atom values ...
  864 settings made for charge

# ### TIP3P Potential Parameters ###
pair_style lj/cut/tip4p/long/omp 2 1 1 1 0.1577 8.5
pair_coeff 1 1*2 0.000 0.000
pair_coeff 2 2 0.21084 3.1668
bond_style  harmonic
bond_coeff  1 450 0.9572
angle_style harmonic
angle_coeff 1 55 104.52
kspace_style pppm/tip4p/omp 1.0e-5
pair_modify tail yes

thermo          ${out_freq}
thermo          1000
thermo_style    custom step temp pe etotal epair emol press lx ly lz vol pxx pyy pzz pxy pxz pyz enthalpy

restart 	${out_freq3} restart.lmp.${pid} restart2.lmp.${pid}
restart 	1000 restart.lmp.${pid} restart2.lmp.${pid}
restart 	1000 restart.lmp.0 restart2.lmp.${pid}
restart 	1000 restart.lmp.0 restart2.lmp.0


include         in.dump
dump            myDump all atom ${out_freq2} dump.water.${pid}
dump            myDump all atom 10000 dump.water.${pid}
dump            myDump all atom 10000 dump.water.0
dump            myDump2 all dcd ${out_freq2} dump.dcd
dump            myDump2 all dcd 10000 dump.dcd
dump_modify     myDump append yes
dump_modify     myDump2 append yes


variable natoms 	equal  "count(all)"                        # NUMBER ATOMS
variable H      	equal  "enthalpy/v_natoms"                 # ENTHALPY-per-atom
variable Vol      	equal  "vol/v_natoms"                 # volume-per-atom
fix AVG all 		ave/time ${out_freq} 1 ${out_freq} v_Vol v_H file vol_enthalpy.dat
fix AVG all 		ave/time 1000 1 ${out_freq} v_Vol v_H file vol_enthalpy.dat
fix AVG all 		ave/time 1000 1 1000 v_Vol v_H file vol_enthalpy.dat


timer           timeout 10:00:00 every 1000
New timer settings: style=normal  mode=nosync  timeout=10:00:00

fix 		1 all shake 1e-6 200 0 b 1 a 1
Finding SHAKE clusters ...
       0 = # of size 2 clusters
       0 = # of size 3 clusters
       0 = # of size 4 clusters
     432 = # of frozen angles
  find clusters CPU = 0.004 seconds
fix             2 all nph tri ${pressure} ${pressure} ${pressureDamp}
fix             2 all nph tri -1331.2 ${pressure} ${pressureDamp}
fix             2 all nph tri -1331.2 -1331.2 ${pressureDamp}
fix             2 all nph tri -1331.2 -1331.2 1000
fix             3 all temp/csvr ${temperature} ${temperature} ${tempDamp} ${seed}
fix             3 all temp/csvr 9.41 ${temperature} ${tempDamp} ${seed}
fix             3 all temp/csvr 9.41 9.41 ${tempDamp} ${seed}
fix             3 all temp/csvr 9.41 9.41 100 ${seed}
fix             3 all temp/csvr 9.41 9.41 100 745823


run             250000
PPPM initialization ...
  extracting TIP4P info from pair style
  using 12-bit tables for long-range coulomb (../kspace.cpp:340)
  G vector (1/distance) = 0.3662959
  grid = 30 40 32
  stencil order = 5
  estimated absolute RMS force accuracy = 0.0047951807
  estimated relative force accuracy = 1.4440544e-05
  using double precision FFTW3
  3d grid and FFT values/proc = 5168 640
Last active /omp style is kspace_style pppm/tip4p/omp
Neighbor list info ...
  update every 1 steps, delay 7 steps, check yes
  max neighbors/atom: 2000, page size: 100000
  master list distance cutoff = 10.8154
  ghost atom cutoff = 10.8154
  binsize = 5.4077, bins = 7 5 5
  1 neighbor lists, perpetual/occasional/extra = 1 0 0
  (1) pair lj/cut/tip4p/long/omp, perpetual
      attributes: half, newton on, omp
      pair build: half/bin/newton/tri/omp
      stencil: half/bin/3d/tri
      bin: standard
Setting up Verlet run ...
  Unit style    : real
  Current step  : 13750000
  Time step     : 2
  Walltime left : 9:59:59.89
Per MPI rank memory allocation (min/avg/max) = 9.437 | 9.442 | 9.446 Mbytes
Step Temp PotEng TotEng E_pair E_mol Press Lx Ly Lz Volume Pxx Pyy Pzz Pxy Pxz Pyz Enthalpy 
13750000    10.473871   -6998.1206   -6971.1772   -6998.1206            0   -1200.6031    23.183545    21.377296    21.699249    10754.181   -848.37985   -1338.9321   -1414.4973    25.285804   -225.94334   -79.849299   -7159.4783 
13751000    9.4150557   -7001.2886    -6977.069   -7001.2886            0   -1281.9042    23.262421    21.329222    21.677617    10755.769   -1537.0371   -1163.1626   -1145.5128    -163.5092    193.20694   -108.16079   -7178.1508 
13752000    9.7691346   -7002.0487   -6976.9182   -7002.0487            0   -1332.6894    23.207505    21.346354    21.721518    10760.745   -1337.5631   -1345.2641   -1315.2409    17.707695    80.213436     46.84033   -7186.0631 
13753000    9.3039613   -7001.1611   -6977.2272   -7001.1611            0    -1378.943    23.227975    21.365314    21.684732    10761.546   -1525.1405   -1367.1276   -1244.5609    12.318619   -19.414468   -5.8273891   -7193.6469 
13754000    9.3185569    -7002.585   -6978.6136    -7002.585            0   -1238.6223    23.251172    21.354264    21.650409     10749.68    -1259.747   -1410.9728   -1045.1471   -151.99684   -29.036939   -208.49026   -7172.7962 
13755000    9.3305656   -7001.6738   -6977.6715   -7001.6738            0    -1352.373    23.182647    21.358454    21.729846    10759.435   -1314.2203   -1263.8756    -1479.023    64.908479    40.543059    171.94378   -7189.8795 
13756000    9.5929587   -7000.5883    -6975.911   -7000.5883            0   -1453.9647    23.263252    21.338521     21.68969    10766.836    -1547.473   -1461.7233   -1352.6977   -105.37917   -22.805579   -40.881056   -7204.2172 
13757000    9.0118153   -7000.7181   -6977.5358   -7000.7181            0   -1277.7446    23.166541    21.396523    21.703465    10758.048   -1018.1786     -1496.46   -1318.5951    23.726752    16.701048    27.532362   -7178.0076 
13758000    9.5931256   -7000.8978     -6976.22   -7000.8978            0   -1427.7765    23.231372    21.348524    21.698888    10761.683   -1412.6515   -1262.7749   -1607.9032   -64.560323   0.53001202    15.837628   -7200.3069 
13759000     9.775544   -7000.6597   -6975.5127   -7000.6597            0   -1345.1736    23.257556    21.320006    21.696232    10758.103   -1435.5355   -1222.8119   -1377.1736    33.759553   -153.39097    66.888982    -7186.565 
13760000    9.5476284   -7001.3953   -6976.8346   -7001.3953            0    -1362.357    23.175369    21.375534    21.727407    10763.451   -1060.5012    -1451.712   -1574.8577   -15.726096    66.332307   -44.925311   -7190.6891 
13761000    9.4395606    -7001.328   -6977.0453    -7001.328            0   -1412.4574    23.274363    21.331409    21.677949    10762.559   -1647.1295   -1143.0368   -1447.2059    10.716527    119.13147   -232.98376   -7198.7459 
13762000    9.2709139   -6999.2359    -6975.387   -6999.2359            0   -1423.5092    23.175202    21.373532    21.737527    10767.378   -1001.2771   -1486.3299   -1782.9207    117.19369    -171.7803   -39.641127   -7198.9223 
13763000    9.4922937   -7000.8945   -6976.4762   -7000.8945            0   -1305.6546    23.255202    21.334006    21.679792    10755.922    -1559.138   -1069.2273   -1288.5987    142.72548    33.370413   -213.87229   -7181.2865 
13764000    9.0229918   -7001.7646   -6978.5535   -7001.7646            0   -1345.6325    23.209524    21.364028    21.699042    10759.447   -1387.9223   -1423.0098   -1225.9655     117.3774    -138.9676    48.540095   -7189.7041 
13765000    9.6988915   -7002.1198     -6977.17   -7002.1198            0   -1387.9644    23.191459     21.38199    21.701971    10761.564   -1196.8652   -1596.2181   -1370.8098   -52.772417   -89.248371    60.707098    -7195.006 
13766000    9.6464215   -7001.6211   -6976.8062   -7001.6211            0   -1380.8205    23.261302    21.340455    21.672649     10758.45   -1633.4616   -1262.5244   -1246.4754   -169.10655    190.88011   -67.947239   -7193.4583 
13767000    9.4025201   -7001.1253   -6976.9379   -7001.1253            0   -1337.8405    23.177123    21.363291    21.731496    10760.125   -1133.9748   -1399.5719   -1479.9747    65.810412    6.1670504    262.73721    -7186.879 
13768000    9.0802616   -7001.2648   -6977.9063   -7001.2648            0   -1291.1109    23.259745    21.349941    21.661205    10756.828   -1435.9253   -1361.5949   -1075.8125   -133.51403    110.36011   -157.09698   -7180.4523 
13769000    9.3812703   -7001.7134   -6977.5806   -7001.7134            0   -1315.1139    23.187975      21.3718    21.708027     10757.82   -1214.3054   -1468.3845   -1262.6517   -66.945455    29.403528   -26.783088   -7183.9112 
13770000    9.0670848   -7001.0834   -6977.7588   -7001.0834            0   -1420.2559    23.233953    21.340024    21.711313    10764.754    -1501.838   -1369.7249   -1389.2049   -147.77859    56.568539    84.576258   -7200.7289 
13771000    9.5048862   -7002.7617    -6978.311   -7002.7617            0   -1304.9421    23.234672    21.344268    21.686647    10754.995    -1359.267   -1327.8554   -1227.7039   -147.32202   -36.310216   -26.714517   -7182.9919 
13772000     9.567979   -7001.5385   -6976.9254   -7001.5385            0    -1388.203    23.190361    21.386975    21.701988    10763.571   -1176.9365   -1642.9154   -1344.7573   -60.868593   -90.650819  -0.29147466   -7194.8395 
13773000    9.4902441   -7001.9911    -6977.578   -7001.9911            0   -1398.1728    23.258913    21.331729    21.685191    10759.169   -1671.2795   -1275.5593   -1247.6795   -63.861168    69.285797    -107.7812   -7196.9674 
13774000    10.137743    -6999.836   -6973.7573    -6999.836            0   -1394.5317    23.152557    21.356492    21.771807    10765.231    -1137.275   -1409.0047   -1637.3155    186.19902   -59.819254    185.18509   -7192.6986 
13775000    9.7037223   -7000.5014   -6975.5391   -7000.5014            0   -1330.1573    23.256883    21.349097    21.668956    10758.928    -1612.393   -1337.8544   -1040.2246   -24.942138    166.34116   -46.616295   -7184.2514 
13776000    9.4771975    -6999.998   -6975.6185    -6999.998            0   -1254.3234    23.197566    21.362704     21.70938     10758.36   -1259.8878   -1342.6933   -1160.3891    35.315051    29.381117    89.697685   -7172.4214 
13777000    9.5245009   -7000.5952    -6976.094   -7000.5952            0   -1303.8792    23.211313    21.327284    21.728827    10756.514   -1301.0777   -1323.5648   -1286.9952    101.16481    20.539515    108.63191    -7180.637 
13778000    9.0100929   -7001.2335   -6978.0556   -7001.2335            0    -1320.031    23.243202    21.329697    21.700242    10758.339   -1471.0331   -1206.1708   -1282.8891   -159.23065    131.75418   -133.91193   -7185.1675 
13779000    9.0615479   -7001.2745   -6977.9643   -7001.2745            0   -1412.0654    23.185128    21.377962    21.719101    10765.089   -1213.9291   -1626.8217   -1395.4453   -20.228916   -150.17694   -19.041617   -7199.6554 
13780000    9.6931112   -7000.3902   -6975.4553   -7000.3902            0   -1383.7004    23.270885    21.314732    21.697915    10762.441   -1631.9219   -1133.1044   -1386.0748    9.8618447    76.103604   -13.379083   -7192.6398 
13781000    9.8290049   -7001.1831   -6975.8986   -7001.1831            0     -1416.56    23.186369    21.335998    21.757673    10763.615   -1234.4376   -1312.7993   -1702.4433    126.67784   -89.810795    92.241888    -7198.265 
13782000    9.8141889   -7001.2376   -6975.9912   -7001.2376            0   -1319.5669    23.223682    21.358811    21.688074     10757.94   -1380.4235   -1257.5656   -1320.7114    107.71993    25.633595   -43.116415   -7183.0227 
13783000    9.5282117   -7001.5525   -6977.0418   -7001.5525            0   -1252.8485    23.218773    21.366402    21.681924    10756.438    -1308.258   -1217.0498   -1233.2376     120.9042   -102.48179   -58.653504   -7173.5781 
13784000     9.334903   -7001.3309   -6977.3174   -7001.3309            0   -1338.0099    23.168477    21.365213    21.739281    10760.932   -980.04816   -1460.9945   -1572.9868   -68.941608    -25.66285    141.42203   -7187.3009 
13785000     9.456685   -7002.3981   -6978.0713   -7002.3981            0   -1287.4681    23.255799    21.337122    21.668228    10752.031   -1586.6768   -1233.6438   -1042.0837   -11.025472    54.404873   -46.193013   -7179.9558 
13786000    8.8744076   -7000.3125   -6977.4837   -7000.3125            0   -1289.3184    23.167988    21.389258    21.709531    10758.073   -1160.7681   -1364.4872   -1342.6998   -151.39072   -79.596274    17.466839   -7179.7719 
13787000    9.4576101   -7001.2155   -6976.8863   -7001.2155            0   -1303.9931    23.257955    21.336318    21.675797    10756.379   -1576.4137   -1167.4524   -1168.1132   -16.609565   -42.348628   -104.91663   -7181.4447 
13788000    9.4311827   -7001.2185   -6976.9574   -7001.2185            0     -1368.94     23.20634    21.343507    21.729694    10762.819   -1372.4102   -1359.5059   -1374.9038     58.29157    69.780716    208.91989   -7191.8326 
13789000    9.2540626   -7000.5809   -6976.7754   -7000.5809            0   -1356.2417    23.203136    21.358021    21.712768    10760.263   -1181.3025   -1444.1488   -1443.2737   -5.6635981   -31.044245    24.136053   -7189.6069 
13790000    9.1020547   -7001.1795    -6977.765   -7001.1795            0   -1241.1726     23.26193    21.349046    21.649125    10751.389   -1504.7223   -1190.2124   -1028.5831    59.747344    55.278812   -199.71986   -7172.3783 
13791000    9.3913282   -7001.7543   -6977.5957   -7001.7543            0   -1412.0345    23.159286    21.378039     21.73969    10763.323   -983.16003   -1665.6932   -1587.2502    8.0914217    -120.0721    50.602215   -7199.2456 
13792000    9.6041893   -7001.8585   -6977.1523   -7001.8585            0   -1360.1315    23.250504    21.326458    21.696412    10758.186   -1611.2806   -1029.7789    -1439.335    54.629951    136.31905    35.716985    -7190.553 
13793000    9.6475649   -7001.0179   -6976.2002   -7001.0179            0   -1416.5489    23.179314    21.382753    21.721309    10765.896   -1265.8225   -1414.8893    -1568.935    154.45333   -84.615709    11.066478   -7198.6119 
13794000    9.5150126   -7001.0936   -6976.6168   -7001.0936            0   -1400.4162    23.224997    21.351484    21.700986    10761.262   -1413.3932   -1398.1167   -1389.7389    98.617548   -38.201397   -73.805897   -7196.4009 
13795000    8.9387891   -7002.5073   -6979.5128   -7002.5073            0   -1351.9902    23.249581    21.314638    21.702723    10754.923   -1405.3849   -1255.9513   -1394.6344    132.34024   -65.027597    -58.81306   -7191.5719 
13796000    9.7118908    -7001.669   -6976.6858    -7001.669            0   -1320.9788    23.184703    21.357053    21.734847     10762.16   -1064.6286   -1463.7185   -1434.5894   -99.279106    10.269594    174.95077   -7184.0201 
13797000    9.1623444   -7001.4849   -6977.9153   -7001.4849            0   -1297.7076    23.278233    21.337809    21.649483    10753.439   -1574.1762   -1217.1783   -1101.7682   -83.833914    157.10691   -318.25371    -7181.432 
13798000    9.4882376   -7000.5809    -6976.173   -7000.5809            0   -1367.5065    23.179011    21.356062    21.737781    10760.471   -1230.3041    -1320.972   -1551.2434    23.654111    42.852394    99.388198   -7190.7764 
13799000     9.815563   -7001.5437   -6976.2938   -7001.5437            0   -1334.3657    23.266874    21.319094    21.687208    10757.477   -1807.9162   -1115.5111   -1079.6698    113.69953    33.066164    81.838813   -7185.6381 
13800000    9.6670322   -7001.9906   -6977.1227   -7001.9906            0    -1241.773    23.192315    21.364029    21.706052    10754.943   -1147.5077   -1261.0573   -1316.7539    -14.19512    -34.88236   -76.725358   -7171.8946 
13801000    9.3962673   -7000.1856   -6976.0143   -7000.1856            0   -1472.4778    23.199188    21.365094    21.722571    10766.854   -1204.5162   -1536.2499   -1676.6672   -123.30912    8.5103827   -69.380402   -7207.2279 
13802000    9.5264661   -7002.5233    -6978.017   -7002.5233            0   -1324.9538    23.278288    21.309475    21.682255    10755.441   -1604.3414   -1167.5891   -1202.9308   -187.66299    122.29252   -8.2582603   -7185.8454 
13803000     9.270803   -7001.4397   -6977.5911   -7001.4397            0   -1327.0077    23.183889     21.36317    21.723652     10759.32   -1132.8328   -1464.3476   -1383.8427    39.555383   -19.944526    82.670817   -7185.8167 
13804000    9.8401153   -7001.8409   -6976.5278   -7001.8409            0   -1296.2541    23.292155    21.333798    21.640409    10753.339   -1644.3865   -1268.0791   -976.29674   -74.924665   -54.964627   -51.322095   -7179.8147 
13805000     9.610381   -7001.5049   -6976.7827   -7001.5049            0   -1339.0939    23.168224    21.362818    21.742804    10761.352    -1292.299   -1297.2028     -1427.78    74.293312   -51.347158    126.61864   -7186.9445 
13806000    9.5263805   -7000.4422   -6975.9362   -7000.4422            0   -1288.5095    23.225158    21.343479    21.698884     10756.26   -1289.0443   -1315.0595   -1261.4249   -51.276877    57.844819   -7.5676521   -7178.0634 
13807000    9.5731459   -7001.9375   -6977.3112   -7001.9375            0   -1323.7744    23.244227    21.355409    21.665632    10754.602   -1489.2869   -1267.4361   -1214.6002   -92.730428    109.09557   -187.86803   -7184.9384 
13808000     9.464843   -7001.4714   -6977.1237   -7001.4714            0   -1315.9707    23.169128    21.365072    21.732406     10757.76   -964.58426     -1541.14   -1442.1877   -84.405292   -10.976793    83.497539   -7183.5875 
13809000    9.6597612   -7001.8139   -6976.9647   -7001.8139            0    -1278.824    23.283639     21.30709    21.679848    10755.516   -1586.7068   -1173.5327   -1076.2325   -77.708507    49.663222   -28.841416   -7177.5587 
13810000    9.0438518   -7001.9221   -6978.6573   -7001.9221            0   -1338.7044    23.169852    21.366503      21.7357    10760.448   -1107.2914   -1517.5096   -1391.3121   -3.7154621   -80.620363    48.594908   -7188.7403 
13811000    9.7396821   -7002.5725   -6977.5178   -7002.5725            0   -1354.2048    23.248438    21.340466    21.685012     10758.64   -1471.8363   -1279.0908   -1311.6874    120.27861     1.033787   -131.40497   -7189.9976 
13812000    9.7197102    -7001.712   -6976.7086    -7001.712            0   -1284.7272     23.21677    21.338709    21.713018    10756.974   -1226.0064   -1275.5409   -1352.6344   -12.069204   -81.066395    81.246527   -7178.2559 
13813000     9.588669   -7000.1188   -6975.4525   -7000.1188            0   -1390.5438     23.17498    21.364557    21.739063    10763.514   -1276.2216   -1296.1791   -1599.2307    48.950988    49.502342    37.967743   -7193.7329 
13814000    9.3904574   -7001.4442   -6977.2878   -7001.4442            0   -1301.9781    23.272176    21.337056    21.655388    10753.194   -1575.0573   -1161.7163   -1169.1608   -87.585748    78.829724   -178.58653   -7181.4696 
13815000    9.0222561   -7002.1322    -6978.923   -7002.1322            0   -1266.0865    23.169575    21.364438    21.729926    10756.421   -1070.9633   -1379.0911   -1348.2051   -13.140159   -40.987956     72.11955   -7177.5358 
13816000    9.7573778    -7001.296   -6976.1957    -7001.296            0   -1297.9746    23.249974    21.318647    21.701867    10756.703   -1452.2672   -1128.2221   -1313.4344   -105.58083    160.50819   -44.392649   -7179.8161 
13817000    9.2595383   -7002.5164   -6978.6968   -7002.5164            0   -1366.6306    23.220183    21.339135    21.720747      10762.6   -1250.7032   -1395.5829   -1453.6056   -131.84872   -203.08028    58.632511   -7193.2052 
13818000    8.9951058   -7001.3834   -6978.2441   -7001.3834            0   -1371.0145    23.203062    21.361129    21.709437    10760.144   -1230.8261   -1327.0394   -1555.1779     81.58374   -79.444383   -119.48212   -7193.3914 
13819000    8.9657868   -7002.1811   -6979.1172   -7002.1811            0   -1350.5809    23.255931      21.3363    21.677302     10756.18   -1613.8527    -1191.389    -1246.501    56.622919   -45.732539   -164.08037   -7190.9799 
13820000    9.3771112    -7001.894   -6977.7719    -7001.894            0   -1329.8006    23.179874    21.349902    21.741926    10759.819   -1115.1669   -1380.1646   -1494.0702    77.263584   -73.567433    81.949267   -7186.4455 
13821000    9.4699106   -7001.5433   -6977.1825   -7001.5433            0    -1369.333    23.268203    21.331855    21.674386    10758.167   -1619.6762   -1385.3398    -1102.983   -80.746756    126.17886   -41.488497   -7192.0265 
13822000     9.736723   -7000.2989   -6975.2517   -7000.2989            0   -1317.9699    23.176306    21.382346    21.713737    10760.542   -953.96795   -1520.7986   -1479.1432    23.636057    -73.01058    8.4459083   -7182.0827 
13823000    9.5452116   -7002.8953   -6978.3408   -7002.8953            0   -1283.9109    23.233445    21.342077    21.690184    10755.077   -1379.0719   -1276.7159   -1195.9449    125.49288   -6.6863361    14.466152   -7179.7245 
13824000    9.5181133   -7001.9323   -6977.4476   -7001.9323            0   -1349.3338    23.227951    21.340482    21.700769    10756.977   -1547.4561   -1278.9917   -1221.5537    7.9586196    115.59196    193.98226   -7189.1304 
13825000    9.3880056    -7001.394   -6977.2439    -7001.394            0    -1383.356    23.172789    21.376257    21.721854    10759.866   -1159.7299   -1525.4153   -1464.9229   -89.410939   -64.979237    69.259351   -7194.3224 
13826000    9.3190736    -7001.467   -6977.4942    -7001.467            0   -1231.9084    23.283321     21.32725    21.654155    10752.787   -1643.7344   -1118.8434   -933.14729    1.3288373     60.14443   -94.611164   -7170.6801 
13827000    9.4064871   -7001.8758   -6977.6782   -7001.8758            0   -1378.2796    23.168729    21.376655    21.729928     10762.18   -896.66094    -1654.015   -1584.1629    13.057265   -44.039156    90.753313   -7194.0066 
13828000    9.7886814   -7001.0159   -6975.8351   -7001.0159            0   -1276.3534    23.253134    21.312823    21.700853    10754.724   -1508.0962   -1023.8353   -1297.1287   -115.73043    113.53441    37.120018   -7176.0268 
13829000    9.2136972   -7001.7243   -6978.0226   -7001.7243            0   -1406.7221    23.251969     21.34121    21.684078    10760.185   -1493.0602   -1387.4872   -1339.6191   -174.07732   -103.10034   -157.63763   -7198.7742 
13830000    9.8835346   -7001.0412   -6975.6164   -7001.0412            0   -1303.9818    23.178327    21.369954    21.717683    10757.198   -1205.9794   -1400.5443   -1305.4217    56.819126   -94.903421    68.029653   -7180.1886 
13831000     9.136373   -7001.6146   -6978.1119   -7001.6146            0   -1358.4511    23.277378    21.315042    21.684555    10758.972   -1668.1494   -1284.0457   -1123.1581   -44.997614    53.462464   -36.616932   -7191.2645 
13832000    9.3992699   -7001.7628   -6977.5837   -7001.7628            0   -1348.2767    23.166845    21.370187    21.736104    10761.106   -1141.3239   -1402.1623   -1501.3437    142.15451   -94.649176    88.526333   -7189.1818 
13833000    9.4477874   -7001.6399    -6977.336   -7001.6399            0   -1378.4125    23.243152    21.351985     21.67756      10758.3   -1657.9307   -1192.6488   -1284.6579   -75.037808    57.130502    -138.3051   -7193.6072 
13834000    9.8027856   -7000.5774   -6975.3603   -7000.5774            0   -1332.6352    23.202265    21.362229    21.709441     10760.33   -1197.1427    -1445.903     -1354.86    44.504688   -1.0202444     17.94669   -7184.4886 
13835000    9.3865275   -7001.6929   -6977.5466   -7001.6929            0   -1394.6863    23.205895     21.35839    21.712524    10761.608   -1267.5927   -1474.5298   -1441.9363   0.22089961    69.020761    114.38045   -7196.4384 
13836000    9.5053003   -7001.7558    -6977.304   -7001.7558            0    -1307.047    23.247848     21.35589    21.662219    10754.826   -1444.9631   -1316.5957   -1159.5823   -97.343019   -15.909904    -269.8636   -7182.3119 
13837000    9.2285472   -7002.2466   -6978.5067   -7002.2466            0   -1343.9262     23.17395    21.374976    21.718829    10758.262   -1156.8703    -1456.508   -1418.4003    15.118905  -0.38335376    149.98626   -7189.3664 
13838000    9.5166483    -7001.309    -6976.828    -7001.309            0   -1377.8234     23.27847    21.321894     21.67702    10759.195   -1725.0095   -1214.6304   -1193.8302   -162.11618   -11.893718   -14.612254   -7193.0248 
13839000    8.9408561   -7001.7241   -6978.7243   -7001.7241            0   -1302.9946    23.172832    21.357305    21.733772    10756.245   -1006.3136    -1332.776   -1569.8942    52.385068    62.084226    114.36799   -7183.1235 
13840000    9.4498545   -7002.2365   -6977.9273   -7002.2365            0   -1310.2626    23.229036    21.352997    21.685366    10756.148   -1315.2804   -1308.4766   -1307.0307    19.693794    134.96756   -123.10715   -7183.4647 
13841000    8.9980721   -7001.8237   -6978.6767   -7001.8237            0   -1275.3358     23.22957    21.349876    21.685916    10755.096   -1395.1036   -1193.9351   -1236.9686    36.737947   -36.743406   -101.80129   -7178.7158 
13842000    9.1936487   -7000.7798   -6977.1297   -7000.7798            0   -1266.1405     23.18219     21.34836    21.737415    10757.885   -1187.3494   -1239.4672   -1371.6048     143.1146    94.323234    169.24726   -7175.7779 
13843000     9.207502   -7001.2096   -6977.5238   -7001.2096            0   -1296.6714    23.288439    21.328348    21.650072    10753.676   -1732.6225   -1246.9101   -910.48148   -97.254629    72.097601   -62.702845   -7180.8825 
13844000    9.1171382   -7000.4229   -6976.9696   -7000.4229            0   -1353.4492    23.171783    21.382924    21.717906    10760.799   -1057.0729   -1601.8398   -1401.4348   -23.819856    2.5472706    16.759919   -7189.3735 
13845000    9.4056209   -7003.0562   -6978.8608   -7003.0562            0   -1362.9618    23.263697       21.323    21.685466    10757.114   -1674.1629    -1177.867   -1236.8556    -36.24383     45.68718   -71.350183   -7192.6843 
13846000    9.1840496   -6999.8248   -6976.1994   -6999.8248            0   -1213.7088    23.199305    21.350846    21.714279     10755.62   -1190.2291   -1262.1115   -1188.7857   -5.6713479   -94.036533    76.824444   -7166.5814 
13847000    9.7257121   -7002.5608    -6977.542   -7002.5608            0   -1374.2489    23.190344    21.386149    21.694158    10759.265   -1321.9745   -1534.7069   -1266.0653    47.193174    89.553859    34.056633   -7193.1793 
13848000    9.1782763   -7002.7287   -6979.1181   -7002.7287            0   -1289.6046    23.269964     21.33614    21.661333    10754.661   -1502.2695   -1167.8776   -1198.6667   -90.289455   -60.376307   -187.47199   -7181.3871 
13849000    9.4364128   -7001.1473   -6976.8727   -7001.1473            0   -1401.8581    23.159527    21.360393    21.754099    10761.679   -1068.3644   -1510.0102   -1627.1998      5.25757    16.304414    144.39512   -7196.8916 
13850000    9.0933431   -7001.7405   -6978.3485   -7001.7405            0   -1323.8165    23.253789    21.342603    21.675852    10757.647   -1522.2196   -1378.3979    -1070.832    21.593062    44.573798   -24.718323    -7186.041 
13851000    9.2672863   -7002.5713   -6978.7318   -7002.5713            0   -1306.9524    23.208609    21.378311    21.684586    10759.043   -1292.8031   -1464.5423   -1163.5119    32.374895   -28.793584    62.231719   -7183.8052 
13852000    9.3513948   -7001.8721   -6977.8162   -7001.8721            0    -1285.782    23.216454    21.345316    21.701499     10754.45   -1280.9445   -1362.9129   -1213.4886   -142.41956    81.979183   -5.4409713   -7179.4817 
13853000    9.4546983   -7000.8327   -6976.5111   -7000.8327            0   -1320.0371    23.241748    21.331381    21.696453    10756.637   -1457.1206   -1205.0248   -1297.9658   -34.209193    195.72308    45.261662   -7183.5913 
13854000    9.4462633   -7001.3961   -6977.0961   -7001.3961            0   -1327.9611    23.169674    21.392853     21.71466    10763.207   -981.11777    -1580.497   -1422.2684    35.063742   -89.732965    35.858855   -7185.5466 
13855000    8.8730506   -6999.9329   -6977.1075   -6999.9329            0   -1378.0337    23.250204    21.362633    21.662452    10759.428   -1497.2255   -1405.0692   -1231.8066    17.064498   -56.376691   -152.08353    -7193.342 
13856000    9.3826454   -7001.9344   -6977.7981   -7001.9344            0   -1394.8072    23.169038    21.364504    21.742244    10762.302   -1071.2607    -1579.098   -1534.0629   -38.414011   -58.020165    196.89742   -7196.7231 
13857000    9.2687083   -7001.5068   -6977.6636   -7001.5068            0   -1282.8185    23.247487    21.331104    21.685945    10753.942   -1550.1747   -1186.4034   -1111.8772     39.10254    39.101867    1.0593755   -7178.8547 
13858000    9.7338797    -7002.445   -6977.4052    -7002.445            0   -1255.8199    23.200738     21.37776    21.686134    10755.885   -1127.8423   -1380.3808   -1259.2365   -125.09209   -49.248369   -21.638665   -7174.3975 
13859000    9.1230451   -7001.3325   -6977.8641   -7001.3325            0   -1326.1112     23.20394    21.369755    21.696796    10758.627   -1189.3584   -1511.3476   -1277.6276    26.905233   -6.0290713     17.32357   -7185.9356 
13860000    9.1111282   -7001.8651   -6978.4273   -7001.8651            0   -1256.5129    23.266765     21.32831    21.667181    10752.139   -1541.9362   -1199.2129   -1028.3895    7.7915029    144.75933    60.423945   -7175.4597 
13861000    9.2867044    -7001.392   -6977.5025    -7001.392            0   -1305.0861    23.176265    21.372686    21.717044      10757.3   -1125.9523   -1426.6113   -1362.6945    21.116447   -74.708488    128.87678   -7182.2499 
13862000    9.6418479   -7002.0246   -6977.2215   -7002.0246            0   -1423.3346    23.272083    21.361264    21.646069    10760.718   -1651.5262   -1540.3574   -1078.1201   -51.427445     -46.9966   -134.54366   -7200.5911 
13863000    9.4479123   -7001.4799   -6977.1757   -7001.4799            0   -1333.0968    23.171415    21.376242      21.7233    10759.937   -1075.0231   -1436.2645   -1488.0027    18.074879   -55.090422    238.95993   -7186.3688 
13864000    9.7869496   -7001.9313    -6976.755   -7001.9313            0   -1321.3015    23.242304    21.336045    21.691564    10756.822   -1516.5571   -1163.1362   -1284.2112    64.945141    13.050714    146.63114   -7184.0371 
13865000     9.926163   -7002.2556   -6976.7211   -7002.2556            0   -1379.2581    23.233167    21.357188    21.685119     10760.05   -1464.8658    -1344.612   -1328.2965    100.93264    6.7668747   -63.023563   -7193.1602 
13866000    8.9563886   -7001.8377    -6978.798   -7001.8377            0   -1275.3061    23.187825    21.365538    21.714034    10757.574   -1066.9954   -1342.2707   -1416.6521     19.99216   -38.932874   -1.5273334   -7178.8784 
13867000    8.9898256   -7003.1104   -6979.9846   -7003.1104            0   -1390.1028    23.256434    21.335071    21.684592     10759.41   -1621.8549    -1212.037   -1336.4164    17.782597    121.08883    25.109773   -7198.1125 
13868000    9.1827023   -7001.8705   -6978.2486   -7001.8705            0   -1391.1403    23.177231    21.369135    21.725392    10760.095   -1189.3104   -1544.6639   -1439.4464    130.69676   -10.710806    220.25529   -7196.5532 
13869000    9.4261653   -7001.9896   -6977.7413   -7001.9896            0   -1277.7721    23.272795    21.338925    21.655274    10754.365   -1575.2579   -1234.5601   -1023.4984   -17.335623     160.4928   -127.69031   -7178.1489 
13870000    9.5070799   -7002.2859   -6977.8296   -7002.2859            0   -1393.2491    23.182232    21.361971    21.734528    10763.333   -1125.5231   -1545.1326   -1509.0915    -39.82317   -50.830649    94.809543   -7196.5309 
13871000    9.3266234   -7001.3846   -6977.3924   -7001.3846            0   -1393.6392    23.215751    21.338735     21.72122    10760.579   -1214.9959   -1424.9989    -1540.923   -92.393072   -69.864793    59.433823    -7196.099 
13872000    10.087288   -7001.6138   -6975.6648   -7001.6138            0   -1339.0959    23.253611    21.355109    21.660695    10756.341   -1547.5899   -1320.0195   -1149.6784    172.87806   -53.620325   -119.01871   -7185.7291 
13873000    9.2574907   -7002.0396   -6978.2253   -7002.0396            0   -1313.5433    23.161289    21.384116    21.719282    10757.206    -1057.759     -1386.53   -1496.3411    51.942766   -105.47903    41.561903   -7184.2976 
13874000    9.6526011   -7001.3375   -6976.5068   -7001.3375            0   -1364.0978    23.260649    21.325015    21.690443    10759.191   -1599.4258   -1159.1655    -1333.702   -134.38721     119.3801    24.376239   -7190.5497 
13875000    9.6907228   -7001.0455   -6976.1167   -7001.0455            0   -1329.6952    23.153267      21.3743    21.741183    10759.383    -963.4638   -1594.4356   -1431.1861    36.645031   -39.021307    175.34736   -7184.7653 
13876000    9.2588828   -7001.5301   -6977.7122   -7001.5301            0   -1272.6523    23.242516    21.346387    21.680724    10756.755   -1492.6132   -1321.8828    -1003.461    96.386466   -85.962877     -34.5167   -7177.3611 
13877000    9.4864639   -7002.0252   -6977.6219   -7002.0252            0   -1288.2842    23.232237    21.344201    21.688915    10754.959   -1469.0215   -1305.8266   -1090.0044    -1.778759    132.73729    22.548715   -7179.6893 
13878000    9.1361613   -7000.7344   -6977.2322   -7000.7344            0   -1294.8608    23.210061    21.339077    21.725138    10760.054   -1194.3134   -1295.0944   -1395.1745   -104.86699     65.66617   -28.340801   -7180.4274 
13879000    9.4047621   -7000.1092   -6975.9161   -7000.1092            0    -1293.516    23.273729    21.329976    21.664392    10754.813    -1612.842   -1164.5439   -1103.1622   -42.853803    218.74488   -39.884455   -7178.8014 
13880000     8.850224   -7001.3992   -6978.6325   -7001.3992            0   -1303.5749    23.158503    21.383293    21.726111     10758.88   -950.23454   -1454.1157   -1506.3744    25.792384   -101.57719     34.65034   -7183.1728 
13881000    9.0715461   -7002.1338   -6978.7978   -7002.1338            0   -1337.2549    23.263076    21.329466    21.676931    10755.854   -1631.0045   -1192.9639   -1187.7963    38.445487    22.555852   -99.443161   -7188.5637 
13882000    9.8691084   -7001.1903   -6975.8027   -7001.1903            0   -1375.4957    23.190046    21.362987    21.720245    10760.397   -1185.7158   -1414.5064   -1526.2649    44.443809   -56.661751   -20.132231   -7191.6583 
13883000    9.5034677   -7000.5298   -6976.0827   -7000.5298            0   -1402.2963    23.208171    21.359161    21.710616    10762.106   -1370.5094   -1386.1167   -1450.2627    112.59948   -58.790756     100.5623    -7196.179 
13884000    9.1496628   -7001.7364   -6978.1994   -7001.7364            0   -1332.3287     23.24295    21.345892    21.682407    10757.542   -1546.0927   -1256.3677   -1194.5258    60.086954     37.72438    8.4325263   -7187.2254 
13885000     9.143676   -7001.7338   -6978.2122   -7001.7338            0   -1382.6664    23.163621    21.372374    21.739254    10762.269   -1059.0909   -1461.6277   -1627.2805   -64.271767   -124.73077    110.57832   -7195.2309 
13886000    9.6272414   -7001.1449   -6976.3794   -7001.1449            0   -1396.3393    23.285683    21.329938     21.65835    10757.316   -1680.0572   -1287.6878   -1221.2727    -186.0487   -63.907798   -56.616735   -7195.4433 
13887000    9.0415079   -7000.8119   -6977.5531   -7000.8119            0   -1353.9047    23.188029    21.368708    21.717446    10760.956   -1107.7967   -1485.2731   -1468.6443    62.464961    9.2030825    46.947031   -7190.0315 
13888000       9.4109   -7002.2857   -6978.0767   -7002.2857            0   -1330.8127    23.243554     21.33813    21.688875    10757.117   -1561.0208   -1189.2106   -1242.2069    143.87574    95.054964   -18.625613   -7186.8566 
13889000    9.4131602   -7002.2799   -6978.0651   -7002.2799            0   -1320.1291    23.240347    21.332543    21.703058    10759.848    -1423.441   -1201.3254    -1335.621   -200.95299    8.5493708    11.900251   -7185.2216 
13890000    9.5162376   -7002.0032   -6977.5232   -7002.0032            0   -1392.1702    23.184913    21.359669    21.731965    10762.148   -1151.5322   -1554.0281   -1470.9504   -34.561146   -84.460082    28.695416   -7196.0312 
13891000    9.1132882   -7001.2171   -6977.7737   -7001.2171            0   -1332.3395    23.246851    21.341372    21.682001    10756.868   -1320.7456   -1401.3228   -1274.9501    5.3288217   -96.658464   -129.19903   -7186.7883 
13892000    9.6318105   -7001.5384   -6976.7612   -7001.5384            0   -1255.7025    23.143691    21.375733    21.745029    10757.557   -909.73637   -1316.4262    -1540.945    148.79504    -144.8895    187.75005   -7173.7657 
13893000    9.1820069   -7000.9755   -6977.3554   -7000.9755            0   -1266.5808    23.247985    21.336372    21.683964    10755.846   -1604.4972   -1190.1248   -1005.1206   -92.336435   -6.8983467   -35.568033    -7176.035 
13894000    9.3488628   -7001.3367   -6977.2873   -7001.3367            0   -1327.1538    23.197984    21.375906    21.695412    10758.276   -1319.1702    -1448.103   -1214.1881   -104.23515    46.664271    40.335302   -7185.5156 
13895000     9.805324   -7001.2974   -6976.0738   -7001.2974            0   -1213.6577    23.195703     21.36322    21.701001    10753.604   -1201.8911   -1342.1991   -1096.8829    81.614887    22.431262   -11.282518    -7166.412 
13896000    9.2393284   -7001.6069   -6977.8393   -7001.6069            0   -1307.9425    23.279085    21.311364    21.683173    10757.219   -1682.5403   -1219.4644   -1021.8228    83.462238    90.591643    41.147031   -7183.0332 
13897000    9.1811034   -7001.3868   -6977.7689   -7001.3868            0   -1321.2443    23.166444     21.36804    21.737275    10760.418   -970.89573    -1435.297   -1557.5401    41.129938   -1.4711744    48.104908   -7185.1114 
13898000    9.0153788   -7001.5206   -6978.3291   -7001.5206            0    -1384.051    23.272972    21.327966     21.67682    10759.618   -1648.5855   -1304.1489   -1199.4186   -9.5429247    128.81571   -131.72454   -7195.5116 
13899000     9.522328   -7000.0082   -6975.5126   -7000.0082            0   -1377.8115    23.199578    21.352093    21.728259      10763.3   -1275.4451   -1306.1421   -1551.8473    85.465054   -96.160328    5.5769843     -7191.79 
13900000    9.4613239   -7002.0455   -6977.7068   -7002.0455            0   -1297.9863    23.222136    21.340626     21.70709    10757.489    -1436.745   -1276.5679    -1180.646     129.0901    71.290682    13.515398   -7181.3439 
13901000    9.2600153   -7000.2391   -6976.4183   -7000.2391            0   -1317.2723    23.267932    21.326341    21.680615    10758.352   -1531.6766   -1216.5741   -1203.5663   -33.197771   -12.637145   -176.17358   -7183.0977 
13902000    9.0735276   -7001.7345   -6978.3934   -7001.7345            0   -1328.9501     23.16005    21.376758    21.737299    10761.849   -1030.8861   -1444.5983   -1511.3659   -17.581477   -24.452034    58.953652   -7186.9728 
13903000    9.7482219   -7000.9378   -6975.8611   -7000.9378            0   -1403.6769    23.271067    21.326027    21.680704    10759.687   -1798.2883   -1135.4813    -1277.261    26.149144    103.24032   -100.14578   -7196.1247 
13904000    9.5053585   -7001.3541   -6976.9021   -7001.3541            0   -1392.5262    23.179073     21.36392    21.732336    10761.763   -1127.1657   -1497.7113   -1552.7015    138.15752   -110.66717    85.122869   -7195.4581 
13905000    8.9301921   -7001.4655   -6978.4932   -7001.4655            0   -1310.9126    23.218339    21.351831    21.701688      10758.7   -1251.5295   -1228.9213    -1452.287   -102.05313   -23.237077   -184.53744   -7184.1814 
13906000    9.1251509   -7002.8986   -6979.4247   -7002.8986            0   -1332.0894    23.250085    21.331205     21.68959    10757.003    -1544.196   -1068.4869   -1383.5853   -71.794462     67.07156   -133.28294   -7188.4027 
13907000    9.1171888   -7001.3584    -6977.905   -7001.3584            0   -1361.0501    23.168764    21.361406    21.742443    10760.712   -1219.0885   -1278.4412   -1585.6206    50.705678    14.196211    4.3382118   -7191.4999 
13908000    9.0562792   -7001.5755   -6978.2788   -7001.5755            0   -1283.5539    23.277482    21.315198    21.675619    10754.665   -1680.3107   -1097.4981   -1072.8528   -41.092909    97.250524   -95.490591   -7179.5988 
13909000    9.4498481   -7001.4434   -6977.1342   -7001.4434            0   -1339.5226    23.161749    21.363344    21.748311    10761.334    -1094.713   -1344.7694   -1579.0854    57.338589   -40.300635   -22.921475    -7187.363 
13910000    9.0421718   -7000.9894   -6977.7289   -7000.9894            0   -1313.8938     23.24724    21.326438    21.697797    10757.351   -1391.9922   -1252.6568   -1297.0324   -82.638376    88.777417   -158.15839   -7183.8591 
13911000    9.3692515   -7002.6961   -6978.5942   -7002.6961            0   -1371.1994    23.225169    21.333776    21.718457    10761.073    -1195.804   -1475.3155   -1442.4786    22.527155   -156.52219    -44.70395   -7193.7892 
13912000    9.4790494    -7001.942   -6977.5577    -7001.942            0   -1321.8422    23.177584    21.359589    21.732441    10758.942   -1154.9154   -1380.0193   -1430.5921   -5.5459117   -69.089861   -17.125603   -7184.9655 
13913000    9.2796086   -7001.2081   -6977.3369   -7001.2081            0   -1339.7775    23.269435    21.331707    21.671645    10757.301   -1802.6832   -1171.3337   -1045.3157   -153.96139    107.89367   -160.04897   -7187.5268 
13914000    9.4233801   -7002.7169   -6978.4758   -7002.7169            0   -1266.8182    23.160218    21.367966    21.733666    10755.703   -1019.0901   -1364.3107   -1417.0539    82.982042   -213.86703    64.369159   -7177.1901 
13915000    9.4377264   -7001.4386   -6977.1606   -7001.4386            0   -1356.5017    23.249964    21.338873    21.687831    10759.941   -1679.6239   -1139.8275   -1250.0538    91.790687    206.74629    20.574733   -7190.0265 
13916000    9.2421458   -6999.9409    -6976.166   -6999.9409            0   -1393.5665    23.201059    21.349676    21.728365    10762.822   -1301.1236   -1321.4154   -1558.1604   -7.0292888    9.4200247   -8.2228255   -7194.9068 
13917000    9.4844024   -7002.3531   -6977.9551   -7002.3531            0   -1292.7953    23.222882    21.341915    21.702755    10756.336   -1290.3873   -1287.7672   -1300.2314   -50.792333    109.85883    16.365191   -7180.7561 
13918000    9.5130239   -7000.5269   -6976.0552   -7000.5269            0   -1424.0195    23.243922    21.342293    21.693284    10761.574   -1554.7567   -1200.8121   -1516.4896    69.198775    43.477391   -137.98804   -7199.5501 
13919000    9.7738872   -7000.1818   -6975.0391   -7000.1818            0   -1486.0869    23.172808    21.368486    21.747488    10768.656   -1063.7963   -1727.9279   -1666.5364    130.38761   -147.58894    118.92646   -7208.4287 
13920000    9.1600441   -7000.9102   -6977.3465   -7000.9102            0   -1375.7351    23.274275    21.320503    21.685199    10760.613   -1557.8289   -1246.4415   -1322.9349    24.470913   -56.350423    -76.93422   -7193.2441 
13921000    9.7741979   -7002.4799   -6977.3364   -7002.4799            0   -1332.0206    23.161225    21.371193    21.738465    10760.171   -1025.9801   -1478.7711   -1491.3107     124.3574    58.270879    135.01179   -7186.3651 
13922000    9.2380325   -7000.7427   -6976.9785   -7000.7427            0   -1310.6297    23.243363    21.353149    21.675032     10757.73   -1535.2015   -1347.7803   -1048.9072    -29.69123    26.053531    1.0669786   -7182.6037 
13923000    9.1585217    -7001.473   -6977.9132    -7001.473            0   -1308.0444    23.224946    21.364443    21.678054    10756.391   -1392.9847   -1317.7345   -1213.4141   -83.312858    66.106093   -35.093695   -7183.1074 
13924000    9.4026805    -7002.514   -6978.3261    -7002.514            0   -1315.8464    23.180841    21.362426    21.724186    10757.795   -1187.1309    -1432.974   -1327.4342    -73.69115   -75.058397    151.17969   -7184.7711 
13925000    9.3449111   -7001.5068   -6977.4676   -7001.5068            0   -1198.9474    23.274203    21.329015    21.654869     10749.82   -1627.8491   -1111.0735   -857.91974    -93.78858    179.17844      12.3285   -7165.4327 
13926000    8.9663071   -7000.8816   -6977.8163   -7000.8816            0   -1320.4995    23.169647    21.384204    21.720102    10761.539   -1097.5419   -1499.7535   -1364.2031     -10.6496    31.973066    93.267255   -7185.0634 
13927000    9.5584432   -7000.5118   -6975.9233   -7000.5118            0   -1302.4249    23.252615    21.328729    21.685564    10754.928   -1611.0074   -1204.4819   -1091.7854    25.998879    86.695674   -17.847444   -7180.2081 
13928000    9.3873734   -7000.9009   -6976.7525   -7000.9009            0   -1348.5304    23.199432     21.34223    21.732551    10760.386   -1232.1118   -1362.4964   -1450.9832    22.045291     1.052489   -77.819113   -7188.3763 
13929000     9.561562   -7002.0166   -6977.4201   -7002.0166            0   -1313.3926    23.205054    21.352434    21.709561    10756.749   -1223.1232   -1398.5027   -1318.5518    40.961968    70.240847    13.117744   -7183.4601 
13930000     9.252961   -7000.7093   -6976.9066   -7000.7093            0   -1272.6607    23.262675    21.326768    21.675965    10753.829   -1524.1474   -1085.0865   -1208.7482    140.63726    128.85001   -187.16072   -7176.5025 
13931000      9.20518   -7001.3996   -6977.7198   -7001.3996            0   -1311.0541    23.183191    21.351029    21.731281    10756.658   -1207.0336   -1308.8438    -1417.285    83.636265   -11.825067    295.53442   -7183.3912 
13932000    9.4763898   -7001.0257   -6976.6483   -7001.0257            0   -1294.2823    23.275974    21.329936    21.660216    10753.756   -1713.3224   -1147.3908   -1022.1338    89.485565    69.729361   -37.248238   -7179.6338 
13933000    9.6552264   -7002.6732   -6977.8357   -7002.6732            0   -1330.4625    23.186649    21.368101    21.712779    10757.697   -1155.2656    -1423.109   -1413.0129    99.569553    3.1476422    64.877416   -7186.5719 
13934000    9.0455492   -7001.2836   -6978.0145   -7001.2836            0   -1289.2013    23.216368    21.352784    21.694789    10754.847    -1316.328   -1395.1885   -1156.0872    51.905369   -93.522253    110.65045   -7180.2236 
13935000    9.4610278   -7001.0615   -6976.7236   -7001.0615            0   -1270.4734    23.248146    21.340671    21.672716    10752.507   -1330.6071   -1340.1564   -1140.6568    -72.40085    101.53895     44.10341    -7175.952 
13936000    9.5284943   -7000.7811   -6976.2696   -7000.7811            0   -1355.6713    23.168297     21.38374    21.715615    10758.455   -1067.0098   -1539.1804   -1460.8236    52.910176   -53.218397    63.803621   -7188.9759 
13937000    8.9981887   -7002.2837   -6979.1364   -7002.2837            0   -1362.2765    23.268106     21.34273    21.663325    10758.113   -1702.9207   -1252.8473   -1131.0613   -45.789043    60.652151    36.146575   -7192.8722 
13938000    9.5512917   -7000.8139   -6976.2437   -7000.8139            0   -1387.5729    23.145619    21.375981    21.753602    10762.819   -975.14709   -1472.6635    -1714.908    33.360395    45.542579    105.59428   -7194.0437 
13939000    9.2911759   -7002.7143   -6978.8134   -7002.7143            0   -1474.5917     23.23296    21.351249    21.697568    10763.138   -1491.9974   -1365.4849   -1566.2929    187.11237   -204.98935   -62.857648    -7210.279 
13940000    9.7875364   -7000.4597   -6975.2819   -7000.4597            0   -1345.2522    23.250561    21.343357    21.680283    10758.733     -1535.81   -1247.6314   -1252.3154    82.491487    17.894161    26.355328   -7186.3588 
13941000    9.7149365   -7001.5002   -6976.5092   -7001.5002            0   -1304.3904    23.173055    21.359247    21.736738    10758.794   -1088.4795   -1372.2867   -1452.4051    39.792252    41.146985    8.7999247   -7181.1758 
13942000     9.186625   -7000.7871   -6977.1551   -7000.7871            0   -1302.1087    23.273701    21.330685    21.664972    10755.445   -1667.8276   -1187.6085   -1050.8901   -54.487594   -38.826976    -76.29318   -7181.4001 
13943000    8.9724911   -7000.5244   -6977.4432   -7000.5244            0   -1304.8795    23.168141    21.359012    21.743088    10759.537   -1008.8028   -1301.6083   -1604.2275   -39.162279     3.135605    44.239674   -7182.2007 
13944000    9.3241812   -7000.6202   -6976.6343   -7000.6202            0    -1302.728    23.239026    21.338099    21.689129    10755.132   -1328.2024   -1332.5362   -1247.4454   -35.112425    123.54269   -108.17851   -7180.9706 
13945000    9.7348156   -7001.2877   -6976.2455   -7001.2877            0   -1293.0239    23.212657    21.351596    21.704869    10757.525   -1177.9627   -1391.2963   -1309.8127   -125.49254   -140.91877    116.30665   -7179.1047 
13946000    9.3682051   -7001.7632    -6977.664   -7001.7632            0   -1336.1149      23.1904    21.363998    21.716062    10758.998   -1220.8647   -1370.9367   -1416.5433    -11.64488    13.038901    21.826391   -7187.3124 
13947000     9.313449   -7000.9152   -6976.9569   -7000.9152            0   -1291.0959    23.256139     21.34209    21.668171    10754.663   -1439.9032   -1351.6241   -1081.7602    95.191088    69.809663   -50.104817   -7179.4598 
13948000    9.9309206    -7002.047   -6976.5003    -7002.047            0   -1359.9513    23.166439    21.366901    21.740463    10761.421   -1083.5652   -1489.7015   -1506.5874   -29.834466   -6.3729728    62.557061   -7189.9369 
13949000     9.757938   -7001.3398   -6976.2381   -7001.3398            0   -1341.5446     23.27384    21.328134    21.669649    10756.545   -1643.6288   -1117.0907   -1263.9143   -150.10536    171.82571   -96.570802   -7186.6905 
13950000    9.2800243   -7002.0621   -6978.1898   -7002.0621            0   -1299.2135    23.179702    21.360304    21.725222    10756.711   -1023.5356   -1410.2655   -1463.8395   -47.459627   -130.73957     67.77143   -7182.0047 
13951000    9.5806943   -7001.9654   -6977.3197   -7001.9654            0   -1412.6884    23.239515    21.329177    21.709964    10761.189   -1493.2566    -1383.241   -1361.5676   -7.1544693    21.887507    10.416376   -7199.0283 
13952000    9.5970557   -7002.1084   -6977.4206   -7002.1084            0   -1407.6988    23.232828    21.353183    21.690164    10760.378   -1503.3512   -1338.3474   -1381.3978   -4.2092556   -57.823149   -137.58017   -7198.3294 
13953000    8.9540944   -7002.3789   -6979.3451   -7002.3789            0   -1325.9661    23.159737    21.377415    21.731332    10759.081   -984.31469   -1420.4509   -1573.1328   -38.982568   -171.77516   -8.2268221   -7187.4026 
13954000    9.6090464   -7002.1723   -6977.4537   -7002.1723            0   -1297.6652    23.264138     21.32008    21.681082    10753.671   -1606.4844   -1020.4595   -1266.0518   -69.017539    128.38379   -94.518346   -7180.9681 
13955000    9.2052067   -7001.7076   -6978.0278   -7001.7076            0   -1338.5841     23.17767    21.373799    21.718191     10759.08   -1139.7494   -1464.4946   -1411.5082    143.44476   -72.363341   -7.8585443   -7188.0652 
13956000    9.3377236   -7002.9078   -6978.8871   -7002.9078            0   -1309.4219      23.2211    21.343642    21.704285    10757.139   -1258.7951   -1303.3612   -1366.1094   -119.98247     31.84785   -10.501815   -7184.3116 
13957000    9.5029864   -7002.7368    -6978.291   -7002.7368            0   -1356.3168    23.220434    21.348549    21.701591    10757.968   -1377.0521   -1277.2089   -1414.6893   -20.256003   -15.693594     -145.537   -7191.0888 
13958000    9.4115353   -7001.2873   -6977.0767   -7001.2873            0   -1361.2107    23.187471    21.355237    21.729901    10760.081    -1228.259   -1399.0084   -1456.3648   -133.37532    33.300231    24.843541   -7190.6843 
13959000    9.5426902   -7001.1646   -6976.6167   -7001.1646            0   -1303.8218    23.268313    21.318812    21.682021    10755.427   -1597.9848   -1171.3996   -1142.0811   -20.070551    113.67592   -120.91538   -7181.1301 
13960000    9.2944041   -7001.3426   -6977.4333   -7001.3426            0   -1332.8271    23.163418    21.373699    21.735984    10761.223   -1054.9451   -1463.5849   -1479.9513    40.832912   -131.16702    123.02587   -7186.6091 
13961000    9.5433569   -7001.0848   -6976.5351   -7001.0848            0    -1352.142    23.264168    21.328073    21.680573    10757.464   -1446.2905   -1246.2731   -1363.8623   -30.851392   -84.499292   -192.86581    -7188.668 
13962000    9.2324099   -7001.4612   -6977.7114   -7001.4612            0    -1383.067    23.188879    21.359316    21.722276    10759.013   -1228.6257   -1361.6956   -1558.8798    222.88592   -102.03128   -4.5591929   -7194.7273 
13963000    9.3959943   -7001.9586    -6977.788   -7001.9586            0   -1314.4762    23.213157    21.353581    21.700386    10756.534   -1319.5574   -1287.0307   -1336.8404    20.791033   -1.0918499   -70.772666   -7183.9938 
13964000    9.2564714   -7000.9259   -6977.1142   -7000.9259            0   -1327.3568     23.24208    21.340283    21.689013    10757.589   -1473.3935   -1232.1676   -1276.5094    39.038392   -75.133437    30.985644   -7185.3611 
13965000      9.14736   -7002.3493   -6978.8183   -7002.3493            0   -1355.5271    23.142806      21.3889    21.742628    10762.583   -876.54374   -1689.1501   -1500.8874   -28.176476   -119.55102    215.39476   -7191.5835 
13966000    9.0067097   -7000.3715   -6977.2023   -7000.3715            0   -1358.3626    23.273393    21.333259    21.667284    10757.748   -1749.4684   -1126.6899   -1198.9293    39.453665    29.528817   -162.47167   -7190.3167 
13967000    9.2485613   -7000.9907   -6977.1993   -7000.9907            0   -1437.6947    23.169638    21.384073    21.726365    10764.572   -1189.8235   -1603.1293   -1520.1314    76.404477   -53.309416   -41.828055   -7202.9033 
13968000     9.632152   -7001.0519   -6976.2737   -7001.0519            0   -1386.0393    23.261385    21.342557    21.673148    10759.795   -1709.7181   -1143.9063   -1304.4936   -46.142244    80.206968   -118.84944   -7193.7718 
13969000    9.5446755   -7002.2734   -6977.7203   -7002.2734            0   -1312.1449    23.214895    21.357063    21.694703    10756.277    -1198.602   -1387.7524   -1350.0803    59.159224   -75.109699    43.299245   -7183.5555 
13970000    9.2261194   -7002.2389   -6978.5052   -7002.2389            0   -1444.5535    23.183983    21.371982    21.726534    10765.229   -1079.6401   -1704.6689   -1549.3515   -22.769472   -46.949084    53.891332   -7205.2999 
13971000    9.0047423   -7000.8917   -6977.7275   -7000.8917            0   -1378.9775    23.270586    21.329692    21.678501     10760.22   -1787.1526   -1206.1905   -1143.5895   -86.856287    3.9272005    22.055739    -7194.126 
13972000     9.289519   -7002.0286   -6978.1319   -7002.0286            0   -1356.9346    23.160914     21.38252    21.730596    10761.832   -1069.5368   -1650.4215   -1350.8454   -43.103499   -107.63475    166.60419   -7191.1032 
13973000    9.1794892   -7001.9241   -6978.3105   -7001.9241            0   -1268.8834    23.260166    21.335368    21.665518    10751.821   -1518.9289   -1187.9052   -1099.8161    43.871471    95.111289   -69.924352   -7177.2768 
13974000    9.7295657   -7001.2939   -6976.2652   -7001.2939            0   -1300.2081    23.189207    21.364871    21.715028    10758.372   -1202.8459   -1294.3028   -1403.4757    53.629853    97.113164    111.20322   -7180.2677 
13975000    9.5368243      -7002.1   -6977.5671      -7002.1            0   -1356.2171    23.206179    21.362449    21.702838    10758.983   -1253.3582   -1404.9919   -1410.3012    64.784829   -103.46879   -127.59736   -7190.3694 
13976000    9.3087491   -7001.6776   -6977.7314   -7001.6776            0   -1311.8747    23.248025    21.332361    21.689019    10756.349    -1417.129   -1250.7657   -1267.7294    -39.01641    22.399499   -21.818512   -7183.5256 
13977000    9.8154288   -7000.6941   -6975.4445   -7000.6941            0   -1371.5956    23.178545    21.353045    21.744305    10761.964   -1155.4669   -1350.6907   -1608.6293    78.554087   -45.557393    175.66428   -7190.7195 
13978000    9.7529198   -7000.8883   -6975.7995   -7000.8883            0   -1272.6253    23.257021    21.343258    21.668048    10755.599   -1446.4422   -1274.2351   -1097.1984    106.91876    40.638499   -56.434563   -7175.4227 
13979000     9.596089   -7001.6209   -6976.9356   -7001.6209            0   -1354.5189    23.179114    21.373438    21.725686    10763.282   -1111.3234   -1461.3399   -1490.8933   -106.18134   -57.349536    70.107383   -7189.5563 
13980000    9.8414483   -7001.3523   -6976.0358   -7001.3523            0   -1305.1628    23.235835    21.327625    21.708761    10758.106   -1281.7782   -1323.7311   -1309.9791   -110.11966   -37.706014    74.554519   -7180.8105 
13981000    9.6085103   -7001.1546   -6976.4373   -7001.1546            0   -1317.2006    23.224593    21.355181    21.686127    10755.569   -1423.0984   -1251.2078   -1277.2957   -78.363216   0.43921973   -10.619839    -7183.052 
13982000    9.6793789   -7001.9559   -6977.0563   -7001.9559            0   -1359.3918    23.167198    21.391428    21.715762    10761.885    -1126.605   -1520.7794   -1430.7909   -157.75051   -169.49486   -65.693117   -7190.4143 
13983000    8.7844896   -7000.5321   -6977.9346   -7000.5321            0   -1329.8048     23.27224    21.330401    21.671369    10757.802   -1659.2075   -1143.3498   -1186.8571   -177.75205    89.170789   -173.84786   -7186.5697 
13984000    9.7437281   -7001.9171   -6976.8519   -7001.9171            0   -1457.5299    23.168551     21.37145    21.741941    10765.425    -1218.227   -1461.4438   -1692.9188   -46.327398   -167.44998    21.606291    -7205.688 
13985000    9.3581213    -7001.935   -6977.8618    -7001.935            0   -1336.8705    23.256506    21.354101    21.656481    10755.081   -1435.7667   -1323.3064   -1251.5385   -108.51908    31.076248   -211.55302   -7187.5524 
13986000    8.9565109   -7000.6973   -6977.6572   -7000.6973            0   -1376.4314    23.201061    21.363351    21.712191      10761.7   -1050.7004   -1555.2275   -1523.3662   -98.776698   -59.471864   -104.68138   -7193.6858 
13987000    9.1981178   -7002.2498   -6978.5882   -7002.2498            0   -1374.6349    23.207295    21.362456    21.705076    10760.614   -1378.3701   -1445.2766   -1300.2579    67.718837   -32.893644    90.212045   -7194.3131 
13988000    9.4657606   -7000.4328   -6976.0827   -7000.4328            0   -1367.5016    23.252816    21.339566    21.683211    10759.318   -1400.6472   -1288.4069   -1413.4508   -93.129257   -105.93341   -144.24989   -7190.6623 
13989000    9.5418153   -7002.0852   -6977.5395   -7002.0852            0   -1358.7112    23.182372    21.367002    21.721171    10759.317   -1109.3896   -1437.0914   -1529.6527   -6.2323273   -105.04925    104.01644   -7190.7398 
13990000    9.5699156   -7001.8276   -6977.2096   -7001.8276            0   -1328.3964    23.274126    21.332255    21.662394    10755.153   -1677.6224   -1187.1899   -1120.3768   -33.526907    167.75203   -124.19294   -7185.5724 
13991000    9.5041422   -7002.3062   -6977.8574   -7002.3062            0   -1306.2194     23.18025    21.367797    21.717567    10756.947   -1035.7477   -1448.0765   -1434.8341    135.68414   -66.380429    185.66815   -7182.7758 
13992000    9.3379381   -7001.9172   -6977.8959   -7001.9172            0   -1379.6406    23.225079    21.358941    21.691221    10760.214   -1428.4014   -1415.2999   -1295.2206   -127.54518    60.109144    -7.364152   -7194.3984 
13993000    9.1633305   -7000.6398   -6977.0677   -7000.6398            0   -1260.3445     23.23876    21.341189    21.681681    10752.873   -1375.9881   -1314.1731   -1090.8722   -102.50617    1.9670824   -62.859848   -7174.7144 
13994000    9.4236319   -7001.4513   -6977.2096   -7001.4513            0    -1372.378    23.175559    21.369432    21.729867    10761.685   -1090.0064   -1445.7639   -1581.3638   -34.660407    32.356559    152.15803   -7192.6017 
13995000    9.5905366   -7000.3283   -6975.6572   -7000.3283            0   -1293.9468    23.271515    21.323662    21.678032    10757.375   -1677.3327   -1132.8649   -1071.6428   -99.570987    90.296829   -147.98031   -7178.6584 
13996000    9.2059681   -7001.4129   -6977.7311   -7001.4129            0   -1333.5866    23.173114    21.364875    21.733386    10759.997   -1031.2984    -1502.463   -1466.9983   -80.305455   -68.930267    74.763414   -7187.0022 
13997000    9.6549241   -7002.5064   -6977.6697   -7002.5064            0   -1389.0939    23.238554    21.334256    21.701162    10758.943    -1539.272   -1333.1314   -1294.8783    12.176897    103.02393     79.10118   -7195.6298 
13998000    9.7491968    -7002.229   -6977.1498    -7002.229            0   -1312.6273    23.230339     21.34408    21.694319    10756.699   -1354.5912   -1322.3159   -1260.9748    43.687957    19.458043   -42.604519   -7183.0688 
13999000    9.2293645   -7001.5575   -6977.8155   -7001.5575            0   -1296.6327    23.179222     21.36314    21.726144    10758.373   -1083.0413    -1378.097   -1428.7599     74.88266    -58.00108    110.15475   -7181.2569 
14000000    9.6826381   -7000.1208   -6975.2128   -7000.1208            0   -1339.0192    23.263856    21.325237    21.685456    10758.312   -1660.7596   -1189.6033   -1166.6948   -35.499245    190.30936    32.680058   -7185.3035 
Loop time of 523.254 on 64 procs for 250000 steps with 1296 atoms

Performance: 82.560 ns/day, 0.291 hours/ns, 477.780 timesteps/s
99.1% CPU use with 64 MPI tasks x 1 OpenMP threads

MPI task timing breakdown:
Section |  min time  |  avg time  |  max time  |%varavg| %total
---------------------------------------------------------------
Pair    | 27.058     | 39.266     | 52.523     | 130.0 |  7.50
Bond    | 0.27975    | 0.28789    | 0.30125    |   0.8 |  0.06
Kspace  | 263.75     | 277.35     | 289.81     |  49.3 | 53.01
Neigh   | 0.13144    | 0.13477    | 0.13712    |   0.4 |  0.03
Comm    | 88.596     | 90.125     | 92.622     |  13.2 | 17.22
Output  | 0.55766    | 0.55859    | 0.55984    |   0.0 |  0.11
Modify  | 102.2      | 104.18     | 106.96     |  10.7 | 19.91
Other   |            | 11.34      |            |       |  2.17

Nlocal:        20.2500 ave          27 max          14 min
Histogram: 6 8 10 4 2 8 6 10 7 3
Nghost:        2608.89 ave        2624 max        2593 min
Histogram: 7 5 9 2 8 5 7 3 11 7
Neighs:        6496.12 ave        8711 max        4445 min
Histogram: 6 8 10 4 2 8 6 10 7 3

Total # of neighbors = 415752
Ave neighs/atom = 320.79630
Ave special neighs/atom = 2.0000000
Neighbor list builds = 250
Dangerous builds = 0

unfix		3
unfix		2
unfix		1

write_data	data.final.${pid}
write_data	data.final.0
System init for write_data ...
PPPM initialization ...
  extracting TIP4P info from pair style
  using 12-bit tables for long-range coulomb (../kspace.cpp:340)
  G vector (1/distance) = 0.36675878
  grid = 30 40 32
  stencil order = 5
  estimated absolute RMS force accuracy = 0.0046785794
  estimated relative force accuracy = 1.4089403e-05
  using double precision FFTW3
  3d grid and FFT values/proc = 5168 640
Last active /omp style is kspace_style pppm/tip4p/omp
WARNING: Not all mixed pair coeffs generated from mixing. Use write_data with 'pair ij' option to store all pair coeffs. (../write_data.cpp:312)

write_restart   restart.lmp.${pid}
write_restart   restart.lmp.0
System init for write_restart ...
PPPM initialization ...
  extracting TIP4P info from pair style
  using 12-bit tables for long-range coulomb (../kspace.cpp:340)
  G vector (1/distance) = 0.36675878
  grid = 30 40 32
  stencil order = 5
  estimated absolute RMS force accuracy = 0.0046785794
  estimated relative force accuracy = 1.4089403e-05
  using double precision FFTW3
  3d grid and FFT values/proc = 5168 640
Last active /omp style is kspace_style pppm/tip4p/omp
Total wall time: 0:08:43
