#include		in.partitions
include		in.temp
variable        temperature equal 21.30
variable	tempDamp equal 100.0
include		in.pressure
variable        pressure equal -1081.2
variable        pressureDamp equal 1000.0 # This is 1 ps
include		in.seed
variable        seed equal 745823

units		real
atom_style	full

read_restart	restart.lmp.${pid}
read_restart	restart.lmp.1
Reading restart file ...
  restart file = 30 Jul 2021, LAMMPS = 30 Jul 2021
  restoring atom style full from restart
  orthogonal box = (0.0071053339 0.019176484 -0.17528006) to (19.992896 19.980825 20.875278)
  4 by 4 by 4 MPI processor grid
  restoring pair style lj/cut/tip4p/long/omp from restart
  restoring bond style harmonic/omp from restart
  restoring angle style harmonic/omp from restart
  972 atoms
  648 bonds
  324 angles
Finding 1-2 1-3 1-4 neighbors ...
  special bond factors lj:    0        0        0       
  special bond factors coul:  0        0        0       
     2 = max # of 1-2 neighbors
     1 = max # of 1-3 neighbors
     1 = max # of 1-4 neighbors
     2 = max # of special neighbors
  special bonds CPU = 0.005 seconds
  read_restart CPU = 0.013 seconds
include 	in.setup
variable	out_freq equal 1000
variable	out_freq2 equal 10000
variable	out_freq3 equal 1000

timestep	2.0

neigh_modify    delay 7 every 1

include		in.tip4p
# This is TIP4P/Ice

# create groups ###
group ox type 2
324 atoms in group ox
group hy type 1
648 atoms in group hy

# set charges - beside manually ###
set group ox charge -1.1794
Setting atom values ...
  324 settings made for charge
set group hy charge 0.5897
Setting atom values ...
  648 settings made for charge

# ### TIP3P Potential Parameters ###
pair_style lj/cut/tip4p/long/omp 2 1 1 1 0.1577 8.5
pair_coeff 1 1*2 0.000 0.000
pair_coeff 2 2 0.21084 3.1668
bond_style  harmonic
bond_coeff  1 450 0.9572
angle_style harmonic
angle_coeff 1 55 104.52
kspace_style pppm/tip4p/omp 1.0e-5
pair_modify tail yes

thermo          ${out_freq}
thermo          1000
thermo_style    custom step temp pe etotal epair emol press lx ly lz vol pxx pyy pzz pxy pxz pyz enthalpy

restart 	${out_freq3} restart.lmp.${pid} restart2.lmp.${pid}
restart 	1000 restart.lmp.${pid} restart2.lmp.${pid}
restart 	1000 restart.lmp.1 restart2.lmp.${pid}
restart 	1000 restart.lmp.1 restart2.lmp.1


include         in.dump
dump            myDump all atom ${out_freq2} dump.water.${pid}
dump            myDump all atom 10000 dump.water.${pid}
dump            myDump all atom 10000 dump.water.1
dump            myDump2 all dcd ${out_freq2} dump.dcd
dump            myDump2 all dcd 10000 dump.dcd
dump_modify     myDump append yes
dump_modify     myDump2 append yes


variable natoms 	equal  "count(all)"                        # NUMBER ATOMS
variable H      	equal  "enthalpy/v_natoms"                 # ENTHALPY-per-atom
variable Vol      	equal  "vol/v_natoms"                 # volume-per-atom
fix AVG all 		ave/time ${out_freq} 1 ${out_freq} v_Vol v_H file vol_enthalpy.dat
fix AVG all 		ave/time 1000 1 ${out_freq} v_Vol v_H file vol_enthalpy.dat
fix AVG all 		ave/time 1000 1 1000 v_Vol v_H file vol_enthalpy.dat


timer           timeout 02:55:00 every 1000
New timer settings: style=normal  mode=nosync  timeout=02:55:00

fix 		1 all shake 1e-6 200 0 b 1 a 1
       0 = # of size 2 clusters
       0 = # of size 3 clusters
       0 = # of size 4 clusters
     324 = # of frozen angles
  find clusters CPU = 0.002 seconds
fix             2 all nph aniso ${pressure} ${pressure} ${pressureDamp}
fix             2 all nph aniso -1081.2 ${pressure} ${pressureDamp}
fix             2 all nph aniso -1081.2 -1081.2 ${pressureDamp}
fix             2 all nph aniso -1081.2 -1081.2 1000
fix             3 all temp/csvr ${temperature} ${temperature} ${tempDamp} ${seed}
fix             3 all temp/csvr 21.3 ${temperature} ${tempDamp} ${seed}
fix             3 all temp/csvr 21.3 21.3 ${tempDamp} ${seed}
fix             3 all temp/csvr 21.3 21.3 100 ${seed}
fix             3 all temp/csvr 21.3 21.3 100 745823


run             250000
PPPM initialization ...
  extracting TIP4P info from pair style
  using 12-bit tables for long-range coulomb (../kspace.cpp:340)
  G vector (1/distance) = 0.37214932
  grid = 24 24 25
  stencil order = 5
  estimated absolute RMS force accuracy = 0.0034384955
  estimated relative force accuracy = 1.0354927e-05
  using double precision FFTW3
  3d grid and FFT values/proc = 2366 288
Last active /omp style is kspace_style pppm/tip4p/omp
Neighbor list info ...
  update every 1 steps, delay 7 steps, check yes
  max neighbors/atom: 2000, page size: 100000
  master list distance cutoff = 10.8154
  ghost atom cutoff = 10.8154
  binsize = 5.4077, bins = 4 4 4
  1 neighbor lists, perpetual/occasional/extra = 1 0 0
  (1) pair lj/cut/tip4p/long/omp, perpetual
      attributes: half, newton on, omp
      pair build: half/bin/newton/omp
      stencil: half/bin/3d
      bin: standard
Per MPI rank memory allocation (min/avg/max) = 9.228 | 9.231 | 9.238 Mbytes
Step Temp PotEng TotEng E_pair E_mol Press Lx Ly Lz Volume Pxx Pyy Pzz Pxy Pxz Pyz Enthalpy 
12500000    27.927291   -5202.6684   -5148.8083   -5202.6684            0   -738.34483     19.98579    19.961648    21.050558    8398.1057   -540.14469   -1012.9681    -661.9217   -165.81212   -286.64646   -17.063687   -5239.2391 
12501000    21.107126    -5212.186   -5171.4792    -5212.186            0   -1472.8759    20.020227    19.981649    21.083181    8434.0557   -1992.9707   -967.31801   -1458.3391   -124.32443    128.58306    173.13864   -5352.6459 
12502000    21.502147   -5211.8642   -5170.3955   -5211.8642            0   -1046.8316    20.065292    19.946899    20.991781    8401.7576   -1338.5944   -748.33034   -1053.5702   -72.923673     112.8155    13.341992   -5298.6648 
12503000    20.816921    -5212.039   -5171.8918    -5212.039            0   -1369.1431    20.009579    19.958706    21.065216    8412.7164   -1628.2829   -1198.5316   -1280.6149    181.15941    168.45312   -21.369014   -5339.8731 
12504000    20.881106   -5212.9339    -5172.663   -5212.9339            0   -924.41489    20.031014    19.940699    21.048934    8407.6271   -1359.4741    -541.1004   -872.67022   -142.87298    221.06313    180.35152   -5286.0116 
12505000    20.925012    -5209.064   -5168.7084    -5209.064            0   -1870.2116    20.030063    20.039062    21.053193    8450.4081   -2003.4466   -1917.4622   -1689.7261   -154.83554   -37.775557    44.620983   -5399.1943 
12506000    22.518247   -5211.7126   -5168.2842   -5211.7126            0   -1010.0095    19.998102    19.995552    21.026872    8408.0802   -924.91279   -1333.3199   -771.79585   -95.025507    265.38282    330.87885   -5292.1349 
12507000    22.276871   -5212.1513   -5169.1884   -5212.1513            0   -763.46385    20.035867     19.90793    21.078406    8407.5996   -1288.9538    12.838585   -1014.2764   -286.29736    1.7307469    572.77201   -5262.8015 
12508000    21.000783    -5211.708   -5171.2062    -5211.708            0   -755.51637    19.981067    19.956462    21.062458    8398.6845   -993.94321   -389.03133   -883.57456   -183.21513   -247.11851    210.88527   -5263.7465 
12509000    21.726319   -5210.2634   -5168.3624   -5210.2634            0   -1218.6087    19.969526    20.036592    20.992316    8399.4715   -1600.4301   -1048.8661   -1006.5299   -19.847834    114.33011    5.0237212   -5317.6391 
12510000    20.798717   -5209.1234   -5169.0113   -5209.1234            0   -1530.3454    20.036868    20.040955    20.992872    8429.8546    -1239.865   -1821.0328   -1530.1386    12.315749    318.06653    40.867505   -5357.1532 
12511000    22.227713   -5213.1536   -5170.2856   -5213.1536            0   -1211.3401    20.049776     19.94503    21.017739    8404.8548   -1203.8349   -1062.0312   -1368.1543   -39.380354   -559.40275   -215.71802   -5318.7671 
12512000    22.344824   -5209.8106   -5166.7167   -5209.8106            0   -806.17352    19.989391    19.950553    21.066774    8401.4168   -914.77928   -931.43704   -572.30424   -62.093122    419.59388    -163.3263    -5265.494 
12513000    21.776237   -5209.5655   -5167.5682   -5209.5655            0   -1093.3356    20.034736    19.959904    21.029546    8409.5349   -1027.7704   -1047.0674   -1205.1689   -39.657758   -256.09266   -715.68716   -5301.6598 
12514000    21.480278   -5212.3245   -5170.8979   -5212.3245            0   -1527.9597    19.989946    20.012801    21.072769    8430.2626   -1198.3961    -1823.408    -1562.075   -156.24653    77.080696   -122.03746   -5358.7556 
12515000    21.178396   -5212.7968   -5171.9525   -5212.7968            0   -961.65674    20.005538    20.034167    20.905522    8378.8142   -961.83485   -1065.6397   -857.49562   -214.42102    197.78575    -316.1222   -5289.4635 
12516000    20.900533   -5210.8864    -5170.578   -5210.8864            0   -1171.3533    19.937787    20.060184    20.966891    8385.8269   -977.93788   -1591.9695   -944.15261    3.7996606   -177.03508   -119.88141   -5313.8329 
12517000    21.169169   -5210.6709   -5169.8444   -5210.6709            0    -1516.823    20.006401    19.977468    21.108832    8436.7194   -1259.3294   -1648.6395   -1642.5002   -111.07304    315.22488    84.210521   -5356.4757 
12518000    20.912398    -5211.446   -5171.1147    -5211.446            0   -1125.4479     20.00125    20.014081    21.070604    8434.7025   -481.28964   -1951.2589   -943.79515   -95.166975    152.39621    275.38226   -5309.5577 
12519000    20.585246   -5210.1869   -5170.4865   -5210.1869            0    -824.6241    19.979981    19.987104    21.057764    8409.2487   -1022.8981   -496.71849    -954.2557   -18.562254   -37.750544   -94.178904   -5271.6186 
12520000      21.4144   -5212.0929   -5170.7934   -5212.0929            0   -848.15579    19.946029    20.010155    21.026759    8392.2658   -569.31228   -1163.9449   -811.21017   -197.19837    456.95068    46.756184   -5274.6014 
12521000    21.182578   -5213.9424   -5173.0901   -5213.9424            0   -960.63911    19.972948    19.991578    21.012387    8390.0518   -582.36551    -1375.106   -924.44587   -173.80046    402.93254   -451.43124   -5290.6342 
12522000    21.391715   -5210.2994   -5169.0437   -5210.2994            0   -1424.1418    19.994083    19.999802    21.035726    8411.7177   -868.08791   -1627.4695    -1776.868   -147.99041    104.20198    30.243788   -5343.7521 
12523000     20.60153   -5211.0031   -5171.2713   -5211.0031            0   -1088.8831    19.997503    20.016116    21.018048    8412.9435   -1053.9138   -1374.9911   -837.74443   -129.57289   -110.23552   -105.17835   -5304.8709 
12524000    21.577165   -5207.3426   -5165.7292   -5207.3426            0   -1087.5874    20.012537     19.98454    21.019541    8406.5837   -705.90124    -1443.001     -1113.86   -321.93131    302.01457    -303.4204   -5299.0689 
12525000    21.590882   -5208.2995   -5166.6597   -5208.2995            0   -1430.1438    20.025512    19.986505    21.084706    8438.9423   -905.10396   -1814.4041   -1570.9232   -227.38565    90.961648    61.241128   -5342.6722 
12526000    22.056487   -5210.5533   -5168.0155   -5210.5533            0    -1022.767    20.001086    19.952382    21.016916    8387.2065   -1230.3175   -686.74677   -1151.2367   -164.67224    387.60905    116.96807   -5293.1191 
12527000    22.824277   -5210.5953   -5166.5768   -5210.5953            0   -854.90826    20.033121    19.961786    21.018314    8405.1577   -819.77401    -876.0446   -868.90619    162.58638    -35.30711   -43.588661   -5271.3719 
12528000      20.8025    -5211.269   -5171.1496    -5211.269            0   -1306.8714    20.097971    19.943431     21.03255    8430.3194   -1638.4715   -1416.6564   -865.48622   -103.94361      505.999    248.41072   -5331.8263 
12529000    21.348112   -5209.9479   -5168.7763   -5209.9479            0   -1404.9773    19.990693    20.011425    21.054007    8422.4922   -918.71652   -1856.9859   -1439.2296   -266.28365   -139.81182     166.8872   -5341.3544 
12530000    21.046535   -5209.2374   -5168.6474   -5209.2374            0   -1247.7905    19.995128    19.988858    21.096992     8432.041   -1421.5346    -927.6126   -1394.2242   -147.15375    428.92292    144.28017   -5322.0915 
12531000     22.78006   -5211.1852   -5167.2519   -5211.1852            0   -1270.5538    19.976357      19.9276    21.171537    8427.9834   -882.08654   -1317.2532   -1612.3217   -342.40316    165.28603    257.83148   -5323.4201 
12532000     20.98811   -5209.8705   -5169.3931   -5209.8705            0   -798.34044    19.996426    19.961106    21.042802    8399.2508   -1258.9974   -222.29319   -913.73077   -102.99419    512.51185    356.51374   -5267.1854 
12533000    21.009133   -5211.4316   -5170.9137   -5211.4316            0   -837.81284    19.990954    19.975406    21.027388    8396.8123   -1287.5105   -367.67189    -858.2561   -158.35812    383.11671    7.4150028   -5273.5113 
12534000    21.170287   -5212.5242   -5171.6955   -5212.5242            0    -1235.709    20.016997    20.004043    21.009552    8412.6629   -941.41657   -1768.4473   -997.26326   -3.7065745   -13.914749   -27.397077   -5323.3047 
12535000    20.414695   -5212.3202   -5172.9487   -5212.3202            0   -1283.3982    19.990438    19.990902     21.07032     8420.266   -1375.7648   -1333.6161   -1140.8138   -151.56715    143.23112    143.28144   -5330.5512 
12536000    20.215893   -5210.6744   -5171.6863   -5210.6744            0   -582.12848    20.013661    19.929236    20.972778    8365.1388   -299.85609   -893.71649   -552.81286    54.093015    236.49125   -312.65327   -5242.7042 
12537000     21.55343   -5212.8078   -5171.2402   -5212.8078            0   -905.55603    19.994215     19.98387    21.008408    8394.1575   -1105.8857   -932.36089   -678.42149   -289.27548    316.72865    56.166908   -5282.0985 
12538000     21.81456   -5210.0908   -5168.0196   -5210.0908            0   -1001.5725    19.968509    20.002935     21.03997    8403.9694   -689.78258   -1351.7162   -963.21858    55.593115    63.944728   -197.39666   -5290.7756 
12539000    21.008803   -5211.8761   -5171.3588   -5211.8761            0    -1368.805    19.987722    19.969833    21.114161    8427.7482   -1309.1615   -1054.2942   -1742.9594   -312.15685    442.64482    3.6161779   -5339.5987 
12540000    20.817161   -5210.0878   -5169.9402   -5210.0878            0   -868.38818     19.94267    20.005883     21.03078     8390.666   -636.20373   -1053.1463    -915.8145   -368.88166    179.40286   -160.53954   -5276.2042 
12541000    21.284397   -5211.4084   -5170.3597   -5211.4084            0   -934.05995    19.974828    19.947421    21.101227    8407.7055   -705.96525   -1115.4532   -980.76141   -50.927505    412.37864    162.50974    -5284.892 
12542000    21.328172   -5212.9907   -5171.8575   -5212.9907            0   -1030.3178    20.005767    20.038006     20.89349     8375.692   -1632.1061   -808.44568   -650.40149   -261.63406    497.31108   -122.12994   -5297.7117 
12543000    21.368467   -5209.2109   -5168.0001   -5209.2109            0   -1500.3152    20.041194    19.968065    21.073875    8433.4249    -2164.935    -764.6004   -1571.4103   -103.08242   -132.50548    488.22209   -5352.5281 
12544000    21.057499   -5213.2192    -5172.608   -5213.2192            0   -1115.9246    19.980988    19.996984    21.041295    8407.2489   -773.60039   -1481.6178   -1092.5555   -24.684906    278.01279    131.90254   -5309.4328 
12545000    19.949559   -5211.6243   -5173.1499   -5211.6243            0   -1161.9441    20.071301    19.970187    21.030856    8429.7483   -1593.0706   -1083.0936   -809.66804   -222.60194    219.81087    -103.6564   -5315.9984 
12546000    20.830342   -5211.0205   -5170.8474   -5211.0205            0   -1587.8511    19.991147    20.043968    20.989952    8410.7137   -989.42685    -2638.989   -1135.1374   -64.138126    170.63041    166.56262   -5365.6158 
12547000     21.65889   -5212.1957   -5170.4247   -5212.1957            0   -964.85526    19.992945    19.963111    21.040602    8397.7537   -856.15119    -738.8097   -1299.6049    74.069631    445.53389    190.02784   -5288.5931 
12548000    19.876352    -5210.415   -5172.0818    -5210.415            0   -1293.7622    20.027175    19.986492    21.051059    8426.1702   -1013.9057   -1790.4093   -1076.9716   -276.36949   -66.625366   -172.16808   -5331.0684 
12549000    21.881622    -5211.342   -5169.1414    -5211.342            0   -1254.7015    20.053225     19.94134    21.064714    8423.5303   -1300.9443   -1229.5058   -1233.6543   -218.11932    186.66694    33.030743   -5323.2797 
12550000    20.495129   -5212.0322   -5172.5056   -5212.0322            0   -1723.8805    20.062311    20.025207    20.960074    8420.7503   -1779.0244   -1925.9259   -1466.6913    109.04476    221.56468   -588.35273    -5384.212 
12551000    23.050062   -5208.2725   -5163.8186   -5208.2725            0   -1045.2584    20.069861    19.942402    21.063241    8430.3777   -1656.7479   -593.89503    -885.1324   -162.37602    209.91534   -461.43887   -5292.3314 
12552000    20.401686   -5211.6116   -5172.2652   -5211.6116            0   -757.85338    20.031884    19.961335    20.998075    8396.3564   -601.49901   -1005.2342   -666.82691   -70.592687    517.13567   -86.817677    -5265.066 
12553000    21.558328   -5216.1056   -5174.5285   -5216.1056            0    -1016.875     20.01836     19.92812    21.047473    8396.4321   -1499.4505   -481.17962   -1069.9951   -220.28667    213.65019   -130.19967   -5299.0483 
12554000     21.85267   -5211.5715   -5169.4268   -5211.5715            0   -962.44507    20.058394    19.931605    20.940891    8372.0844   -1374.7506   -767.04399   -745.54057   -20.618502    526.71961    355.35569   -5286.9396 
12555000    22.108458   -5212.7185   -5170.0805   -5212.7185            0   -1083.8065     20.02183      19.9362      21.0574    8405.2551   -862.40932   -1642.8531   -746.15715   -209.77518    197.31494    36.625364   -5302.9357 
12556000    22.098595   -5208.6803   -5166.0613   -5208.6803            0   -1085.4433    20.005395     19.98438    21.045517     8413.901   -764.52651   -1098.5322   -1393.2711   -176.26826    593.83746    349.73525    -5299.254 
12557000    20.717239   -5213.7633   -5173.8084   -5213.7633            0   -990.25657    20.017148     19.97005    21.040835    8410.9362   -623.31192   -1207.8141   -1139.6437    -19.09559    99.290103    66.106226   -5295.2781 
12558000    20.597538   -5210.6955   -5170.9714   -5210.6955            0   -950.57558    19.976377    20.009653    20.984198    8387.8114   -419.88039   -1623.0292   -808.81719   -175.45016     24.28489   -258.37495   -5287.2531 
12559000    20.753441   -5211.5664   -5171.5417   -5211.5664            0   -1020.7112    20.058321    19.991362    21.010959    8425.2509   -1160.1402   -1363.4327   -538.56063    50.235025    226.04029    256.82704   -5296.9601 
12560000    21.590615   -5211.6386   -5169.9993   -5211.6386            0   -1139.7623    19.973082    19.963012    21.107959    8416.2263   -1017.7835     -1067.88   -1333.6234   -161.69565    442.64043    -477.5865    -5309.896 
12561000    21.636658   -5211.1707   -5169.4425   -5211.1707            0   -1081.3857    19.978429    19.995167    21.063756    8414.3812   -1027.0583   -792.43653   -1424.6623   -187.25777    484.68654    220.00325   -5302.1449 
12562000    22.687148   -5210.7352   -5166.9812   -5210.7352            0   -1169.9647    20.027214    20.002426    21.012534    8417.4709    -1584.861   -822.70323   -1102.3299    -80.66133    295.41083   -238.84816   -5310.6062 
12563000    21.463685   -5208.6388   -5167.2443   -5208.6388            0    -1406.427    20.022485    19.967324      21.0726    8424.7291   -1035.3059   -1700.8819   -1483.0932   -414.63622   -71.791979   -96.020757   -5340.0464 
12564000    21.115835   -5211.0669   -5170.3433   -5211.0669            0   -1216.7375    20.023538    19.957089    21.007913    8395.0041   -1127.7823   -1076.6285   -1445.8016   -267.81862    409.15858   -4.8435395   -5319.3115 
12565000    22.236087   -5212.8974   -5170.0132   -5212.8974            0   -388.83719    20.031108     19.93714    21.026153    8397.0676   -857.68802    106.39539   -415.21896   -223.81662   -94.497732   -206.71026   -5217.6312 
12566000    21.624768   -5208.9828   -5167.2776   -5208.9828            0    -1029.911     20.05583    19.928085    21.061045    8417.5582   -1328.5534   -829.10682   -932.07274   -39.167513    414.55417    17.106811   -5293.7109 
12567000    21.382245   -5213.2195   -5171.9821   -5213.2195            0   -1275.6196    20.012727    20.043852    21.015242    8429.8891   -1960.1886   -1116.6431   -750.02693   -32.728085    343.31582    126.93112   -5328.8084 
12568000    21.102353   -5210.8697    -5170.172   -5210.8697            0   -1247.4234    20.006894    19.942942    21.100904    8419.1832    -1308.513   -979.24539   -1454.5118    7.5534816     307.5869    309.22421   -5323.3371 
12569000    19.860336    -5210.798   -5172.4957    -5210.798            0   -729.38629    20.029398    19.973808    21.091308    8437.8595   -871.42686   -750.99641   -565.73561   -116.77362    328.72512   -193.81568   -5262.2522 
12570000    21.765818   -5212.3288   -5170.3516   -5212.3288            0   -1185.5932    20.062589    19.987606    20.933872    8394.5478    -1696.941   -1158.8592   -700.97927   -187.66363    207.68509   -88.740304   -5315.4989 
12571000    21.726449   -5211.9076   -5170.0063   -5211.9076            0   -870.06377     20.06645    19.949153    21.062823    8431.6313   -1194.1353   -866.16763   -549.88833   -253.12985    -381.4238    380.83474   -5276.9952 
12572000    22.856791   -5209.9052    -5165.824   -5209.9052            0   -1318.2527    20.030359    20.004788    21.021382    8423.3327   -1427.8071    -1568.444   -958.50689   -231.92684    40.368507    344.56112   -5327.7656 
12573000    20.031435   -5212.1222   -5173.4899   -5212.1222            0   -1025.1147    19.948275    20.021316    21.071444    8415.7396   -596.32754    -1204.298   -1274.7186    -184.3707    400.26511    24.231472   -5299.3073 
12574000    20.823138   -5213.0143   -5172.8551   -5213.0143            0   -906.98858    20.021539     20.04467      20.8976    8386.7324   -991.56318   -1170.8042   -558.59834   -336.29888    351.71071   -284.57379   -5283.7906 
12575000    20.809988   -5211.9756   -5171.8418   -5211.9756            0   -1127.0043    19.955892    19.957996    21.141131    8420.0817   -973.91735   -1148.2134   -1258.8822    -221.0258    109.95053    64.161146    -5310.236 
12576000    21.495276   -5211.4232   -5169.9677   -5211.4232            0   -1494.7123    20.051445    19.942225    21.094333    8434.9996   -1834.9677   -1159.8656   -1489.3037    11.873172    320.86056    282.50374    -5353.841 
12577000    20.700544   -5214.4205   -5174.4977   -5214.4205            0   -1182.0164    19.943962    19.971806    21.118628    8411.9072   -786.01896   -1253.5691   -1506.4613     37.21651   -100.82823   -405.38322   -5319.5064 
12578000    22.512964   -5209.5881   -5166.1699   -5209.5881            0   -953.58095    19.994325    19.982851    21.074294    8420.0998   -740.21988   -1207.7745   -912.74843   -348.31606    66.468017   -29.657346   -5283.2683 
12579000    20.590853   -5211.8911   -5172.1799   -5211.8911            0   -629.75479    19.961667    19.931129    21.109381    8398.5475   -304.19216   -480.32899   -1104.7432   -52.174744    85.921897    257.58666   -5249.3149 
12580000    21.884951   -5210.8138   -5168.6068   -5210.8138            0   -1125.9361    20.011676    19.950558    21.075674    8414.3387   -1184.2888   -755.33118   -1438.1882   -169.46006   -53.793914    177.12791   -5306.7755 
12581000    22.063186    -5211.209   -5168.6583    -5211.209            0   -1353.5981     19.98862    20.028362    21.069698    8435.0287    -886.2097   -1764.5835   -1410.0011   -157.47508    91.857685   -242.65718   -5335.1729 
12582000     21.44678   -5213.7496   -5172.3876   -5213.7496            0   -1039.6178     20.00948    19.992824    20.965043    8386.9819    -1311.311   -736.33094   -1071.2115   -330.48698   -28.233861     72.38999    -5299.549 
12583000    21.985936   -5211.4593   -5169.0576   -5211.4593            0   -1246.8368    20.096861     19.96394    21.006459    8428.0551   -1704.2869   -1060.3851    -975.8384   -85.710686    124.21256    2.2739007    -5322.312 
12584000    22.734825    -5210.871    -5167.025    -5210.871            0   -1344.3566    19.975285    20.009253    21.072837    8422.6132   -1069.2123   -1638.8695   -1324.9879    128.86896    93.432601    80.494711   -5332.1593 
12585000    20.906869   -5211.7174   -5171.3967   -5211.7174            0   -998.28118    20.018314    19.933438    21.032554    8392.7003   -1088.7014   -906.23547    -999.9067   -40.271728   -357.46677    180.29442   -5293.5853 
12586000    20.611738   -5212.5443   -5172.7928   -5212.5443            0   -964.66188    20.043127    19.956556    20.937566    8374.8546   -869.11328   -1208.0803   -816.79204   -346.33273   -12.024927     127.3993   -5290.6154 
12587000    20.755772   -5210.9503    -5170.921   -5210.9503            0   -1269.0709    20.032768    19.964648    21.064854    8424.8285   -1288.0867   -1319.0334   -1200.0926   -258.74928   -28.119772   -43.893587   -5326.8486 
12588000    21.797771   -5212.8677   -5170.8288   -5212.8677            0    -1523.521    20.054728    19.974727    20.989089    8407.9711   -1485.1326   -1471.5111   -1613.9194   -304.29864    216.58732    288.42169   -5357.6455 
12589000    21.027205   -5213.5815   -5173.0288   -5213.5815            0   -1049.7072     19.99114    19.954083    21.121331    8425.4016    -932.3529   -1021.8277   -1194.9411   -28.091781    366.07386    213.44521   -5302.0125 
12590000    20.891955   -5212.6667   -5172.3748   -5212.6667            0   -783.52357    20.032741    20.002024    20.916408    8381.1076   -1127.2928   -917.33376   -305.94419   -34.143407    283.24851   -240.41421   -5268.1448 
12591000    20.215535   -5210.3937   -5171.4064   -5210.3937            0   -1113.1207    20.049694    19.896745    21.080141    8409.3666   -1644.6148   -256.05824   -1438.6892    7.9727753    319.02076    114.37406   -5307.9217 
12592000    21.269211   -5211.8416   -5170.8221   -5211.8416            0   -1418.0957    20.018829    19.993352    20.969814    8393.0317   -1348.7509   -1416.7164   -1488.8197   -192.01097    729.78846     78.21051   -5344.4023 
12593000    20.868831   -5207.4513    -5167.204   -5207.4513            0   -953.20638    19.981513    20.012922    21.073661     8427.114   -822.13062   -1101.9403   -935.54825   -134.93398    411.78231    -256.4274   -5284.3538 
12594000    21.676506   -5212.1028   -5170.2979   -5212.1028            0   -1206.2885     20.04253    19.976084     21.03468    8421.6816   -1504.4158   -968.88623   -1145.5635   -119.97385   -42.051671    155.61206   -5318.4561 
12595000     20.08259   -5212.3933   -5173.6623   -5212.3933            0   -1025.0084    19.991121    19.974025    21.074786    8415.2283   -907.96704   -1252.4738   -914.58426   -175.12719    502.24996   -112.00917    -5299.459 
12596000    21.482772   -5210.4214   -5168.9901   -5210.4214            0   -1413.4975    19.966257     20.02103    21.052946    8415.8105   -1575.7757    -1541.113   -1123.6037    -222.3385    266.72526    45.488957   -5342.4771 
12597000    22.037788   -5213.3084   -5170.8067   -5213.3084            0   -874.79188    20.006066    19.970668    20.959982    8374.2358   -1254.9379   -666.30587   -703.13182   -36.169491   -145.72918    216.00304   -5277.6447 
12598000    21.298651   -5211.7688   -5170.6926   -5211.7688            0   -1401.8572    20.067938    20.043364    20.944878    8424.6371   -1526.1182   -1967.3108   -712.14265   -29.821212    536.35158   -559.28769   -5342.9313 
12599000    20.256702   -5209.7784   -5170.7116   -5209.7784            0   -1246.0685    20.045342    19.956082    21.073624    8430.0076   -1387.0486   -889.39577    -1461.761   -101.62023   -97.849911   -165.40792   -5323.9071 
12600000    20.688036   -5210.2683   -5170.3697   -5210.2683            0   -1449.4971    19.985493    19.988097    21.065167    8414.9442   -1295.8381   -1581.2474   -1471.4059   -49.286343    304.85344    117.45736   -5348.2568 
12601000    19.815163   -5212.8169   -5174.6017   -5212.8169            0   -871.47895    19.982188    19.973878    20.980794    8373.8921   -910.84825   -1091.1935   -612.39514   -39.623255    196.72193   -312.54495   -5281.0307 
12602000    20.487013   -5209.0918   -5169.5808   -5209.0918            0   -1092.9433     20.05429    19.921758    21.088161    8425.0727   -1037.8234    -1149.586   -1091.4205   -77.087459   -177.14929   -235.51163   -5303.8719 
12603000    21.807674   -5211.0358   -5168.9779   -5211.0358            0   -705.58017     20.03692    19.935996    20.994348    8386.3172   -148.76102   -1012.4704   -955.50912   -282.88329   -209.83108    100.55641   -5255.2744 
12604000    21.272091   -5210.2074   -5169.1824   -5210.2074            0   -932.12973    19.998951    19.954477    21.030022    8392.4214   -1118.8964   -501.60279     -1175.89   -179.23914   -120.24694   -165.05656   -5283.2702 
12605000    22.017892    -5208.873   -5166.4096    -5208.873            0   -1130.4622    20.026104    20.042526    20.945225    8406.8625   -1106.6384   -1605.3786    -679.3697   -182.53519   -135.66655   -55.907582   -5305.0105 
12606000    20.653643   -5212.0872   -5172.2549   -5212.0872            0   -1052.6909    19.961359    20.048735     21.04791    8423.3736   -652.46115   -1646.1228   -859.48876   -284.46231    237.36763   -148.08986   -5301.5741 
12607000    21.104822    -5210.758   -5170.0555    -5210.758            0   -1147.0522    20.060257    19.958313    21.052462     8428.751   -943.63552   -1465.2849   -1032.2362   -43.343325   -140.87671   -329.65178   -5311.0566 
12608000    21.176669    -5209.516    -5168.675    -5209.516            0   -1088.4709    19.979508     19.98389    21.066215    8411.0713   -1522.6453   -413.02489   -1329.7426   -13.863319    114.86797   -579.47246   -5302.1943 
12609000    21.913657    -5212.966   -5170.7037    -5212.966            0   -1189.6109    19.975097    19.994566    21.112654    8432.2547   -829.62845   -1279.6254   -1459.5789    104.45273    329.20647    73.368106    -5316.997 
12610000    21.052907   -5208.8913    -5168.289   -5208.8913            0   -1089.0991    20.005845    19.965473    21.034407    8401.6924   -858.58975    -1315.889   -1092.8185   -17.850834    472.37832    403.29222   -5301.7364 
12611000     21.10665   -5207.4348   -5166.7289   -5207.4348            0   -1034.1517    20.003379    19.970532     21.07623    8419.4927   -1332.2348   -587.41959   -1182.8008   -179.53143    -43.93024   -201.93173    -5293.712 
12612000    21.418987   -5210.9215   -5169.6132   -5210.9215            0   -1078.7814    20.028289    20.001963    20.935208    8386.7511   -1365.4524   -1230.1116   -640.78005   -223.04858   -23.540447    175.31783   -5301.5613 
12613000    20.189611   -5210.7512   -5171.8138   -5210.7512            0   -599.21895    20.017316    19.930681    21.002567     8379.158   -416.08717   -764.86459   -616.70509   -318.20516   -155.46825   -178.35063   -5245.0392 
12614000    21.076277   -5211.6097   -5170.9623   -5211.6097            0   -713.94483    20.013003    19.942128     20.96219    8366.0489   -1068.0859   -641.97648   -431.77216   -299.19313    -401.0309   -243.06717   -5258.0709 
12615000    20.942439   -5211.5585   -5171.1692   -5211.5585            0   -1409.8864    20.006585    19.971159      21.0709    8418.9771   -1686.4477   -1217.2744   -1325.9371    13.583487   -65.134686    186.00397   -5344.2781 
12616000    20.314533   -5211.8238   -5172.6455   -5211.8238            0   -1575.1216    19.992144     19.99384    21.056481    8416.6909   -1163.5693   -2003.3054   -1558.4903   -72.723531    -36.76289    217.70294   -5365.9898 
12617000    19.804534   -5210.5052   -5172.3105   -5210.5052            0   -1146.7735    19.975153    19.995185    21.058223     8410.799   -625.35478   -1250.0412   -1564.9244   -216.62852    157.44473    451.59534    -5312.977 
12618000    21.665383   -5213.2002   -5171.4166   -5213.2002            0   -1120.9784    20.043876    19.933831    21.066266    8417.0525    -1508.176   -821.43027   -1033.3291   -169.94628   -101.08649    62.907526   -5309.0213 
12619000    19.626188   -5210.1341   -5172.2834   -5210.1341            0    -855.1928    20.007041    19.992034    21.017551    8406.6305   -511.52043   -1165.4705   -888.58742   -300.20949   -185.62165    468.03344   -5277.1318 
12620000    21.701558   -5211.6991   -5169.8458   -5211.6991            0   -884.02553    20.033331    19.946416    21.057295    8414.3512   -1051.2075   -781.07865   -819.79047   -11.463547   -411.11594    100.50607   -5278.3287 
12621000    20.914736    -5214.206   -5173.8702    -5214.206            0   -591.87938    20.031594    19.928571    21.072306    8412.0865   -161.46351   -1145.0689    -469.1057   -26.188083     72.20767   -110.03374   -5246.4829 
12622000    21.639081   -5210.0481   -5168.3153   -5210.0481            0   -1276.1733    20.075226     19.96524    21.045871    8435.3264   -1350.1391   -1112.5339   -1365.8471    70.940541    223.02901   -145.71499   -5325.3109 
12623000     21.44038   -5210.4393   -5169.0897   -5210.4393            0   -1306.9103     20.05413    19.953803    21.034301    8417.0055   -1466.9991   -1041.4117   -1412.3202   -96.922361    178.89889   -121.50416   -5329.5174 
12624000    22.137658   -5212.1912   -5169.4969   -5212.1912            0   -1184.6948    19.973681    19.998688    21.045893    8406.7279   -462.34791   -1646.6789   -1445.0575   -230.36169    157.16193    75.056026   -5314.7446 
12625000    22.869134   -5211.1603   -5167.0553   -5211.1603            0   -906.86508      20.0803     19.92788      21.0989    8442.8894    -1212.358   -681.77998    -826.4573   -176.31789    433.15483   -181.54575   -5278.7184 
12626000    21.260701   -5214.2188   -5173.2157   -5214.2188            0   -961.02093     20.06787     19.98899    20.929708    8395.6693   -981.43807   -1567.9228   -333.70193   -112.70063    283.83018   -123.55285   -5290.8853 
12627000     21.96746   -5213.4856   -5171.1196   -5213.4856            0   -722.68046    20.021312    19.933758    21.034304    8394.7906   -445.51721   -868.98581   -853.53836    56.456359     602.2549   -176.02852   -5259.5969 
12628000    20.713149   -5212.7249   -5172.7778   -5212.7249            0   -958.94756    20.004187    19.955958    20.974432      8373.05   -1224.4979   -636.64853   -1015.6963   -401.56923    552.32954    287.15806   -5289.8772 
12629000    22.532717   -5210.6772    -5167.221   -5210.6772            0   -986.08083    19.942083    20.042384    21.029027    8405.0259   -566.10197     -1506.99   -885.15047   -340.15831    41.006095   -190.37284   -5288.0934 
12630000    19.916808   -5212.4584   -5174.0472   -5212.4584            0   -1274.2002      20.0336    19.996123    20.965215    8398.5466   -1262.1242   -1694.5986   -865.87787   -181.23493    255.58284   -342.44072   -5330.1166 
12631000    20.020827   -5211.6115   -5172.9996   -5211.6115            0   -1344.3398    19.989376    20.001336    21.069587    8423.9204   -1489.6778   -1133.5605   -1409.7811   -10.367921    160.87541    336.47299   -5338.1575 
12632000    21.276717   -5208.4554   -5167.4215   -5208.4554            0   -926.49755     19.96973    19.951389    21.051034    8387.2343   -788.42486   -775.00984   -1216.0579   -71.783256     157.0996   -81.585168     -5280.75 
12633000    21.684797   -5208.9543   -5167.1334   -5208.9543            0    -1520.683    20.017363    19.990117    21.075656    8433.4118   -1236.5938    -1679.393   -1646.0622   -154.37939    280.93338   -225.68827   -5354.1662 
12634000    20.721478   -5210.6373   -5170.6742   -5210.6373            0   -1127.7019    20.049333    19.962437     20.97577    8395.2065   -1600.0085   -983.21547   -799.88177   -105.60488    434.82758   -364.13583   -5308.7449 
12635000    20.774053   -5211.1927   -5171.1282   -5211.1927            0   -1105.8726    20.033849    19.957781    21.009235    8400.1472   -1554.7332   -729.38033   -1033.5042   -132.59386    114.23992    359.27803   -5306.6059 
12636000    21.570335   -5211.0461   -5169.4459   -5211.0461            0   -1355.7031    19.977244    20.034685    21.020635    8413.2521   -654.21004   -1982.5691   -1430.3301    -200.5676    476.85455   -336.70267   -5335.7889 
12637000    20.821299    -5211.796   -5171.6404    -5211.796            0   -1194.6349    20.016783    19.951613    21.081137    8419.1123   -1270.7388   -1012.8053   -1300.3606   -37.012004    150.29122    575.26949   -5318.3226 
12638000    21.104887   -5211.5428   -5170.8403   -5211.5428            0   -792.46518    19.923934    20.011154    21.094393    8410.3536   -338.94234   -640.51684   -1397.9364   -230.79811    372.60982    16.832942   -5268.0412 
12639000    20.644893   -5213.6523   -5173.8369   -5213.6523            0   -1532.6655    20.043945    20.012501    21.034788    8437.6731   -1684.3944   -1652.8606   -1260.7417   -90.569754   -104.63719   -199.22556   -5362.4388 
12640000    22.169347   -5212.3751   -5169.6196   -5212.3751            0   -1457.3093    20.021124    19.967526    21.047419    8414.1757   -1384.4458   -1548.4353   -1439.0468     4.994229    363.39414    390.96396   -5348.4492 
12641000    22.036652   -5213.6188   -5171.1193   -5213.6188            0    -1134.512    19.988452     20.05418     20.94787    8396.9956   -637.48832   -1744.7835   -1021.2643   -16.238143    457.36875    713.37691   -5310.0534 
12642000    20.996511   -5211.5918   -5171.0983   -5211.5918            0   -987.14502    20.066102    19.972405     20.90148    8376.6507   -1229.6106   -950.95943   -780.86505    -192.9416    125.70526     213.0864   -5291.6927 
12643000    21.157756   -5212.0961   -5171.2916   -5212.0961            0    -1096.679    20.041843    20.021876      20.9287    8398.1702   -1110.6798   -1074.0323   -1105.3248    -53.06251    250.44138    650.12873   -5305.6114 
12644000    21.594384   -5213.1382   -5171.4916   -5213.1382            0   -932.63136    20.008305    19.940342     21.02415    8388.0566   -1055.0669   -883.23478   -859.59247   -233.29506    58.560346    95.043939   -5285.5816 
12645000    20.832867   -5211.4072   -5171.2293   -5211.4072            0    -839.2493    20.001568    19.956457    21.076855    8413.0468   -762.02698    -758.3025   -997.41841   -189.24963   -120.91695   -172.73747   -5274.2016 
12646000    20.806291   -5212.1681   -5172.0414   -5212.1681            0   -1000.1092    19.992551    19.959203    21.055124    8401.7394   -1638.9737   -343.33812   -1018.0158   -228.26953      313.164   -362.86231   -5294.5856 
12647000    20.285344   -5212.6538   -5173.5318   -5212.6538            0   -1036.5575    20.035235    19.911437    21.076329    8407.9866   -1384.7834   -419.76358   -1305.1255    -355.8364    129.88576   -217.49541   -5300.6364 
12648000    20.796839   -5212.2363   -5172.1279   -5212.2363            0    -1267.157    20.045772    19.968579    21.017281    8412.9145    -1636.353   -908.07016   -1257.0479   -81.471209    180.87035    626.92352   -5327.6001 
12649000    22.022366    -5211.233    -5168.761    -5211.233            0   -1212.2003    19.981458    20.000085    21.073704    8421.7024   -1502.2064    -730.9915    -1403.403   -46.915994     -251.762   -202.66945   -5317.6457 
12650000    21.079019   -5210.7578   -5170.1052   -5210.7578            0   -1459.3885    20.066705    19.995167    20.965706    8412.2193   -1780.6118   -1543.5091   -1054.0447   -48.053913    292.77069    224.06309   -5349.1482 
12651000    22.080165   -5209.1555    -5166.572   -5209.1555            0   -933.64137    20.023563    19.932537    21.059388    8405.2315   -976.19606   -498.53642   -1326.1916    -119.7343    398.83212   -95.087132   -5281.0194 
12652000    22.067829    -5211.414   -5168.8544    -5211.414            0   -1057.5941    19.994771    20.022345    20.960444    8391.3502   -887.71831   -1527.0788    -757.9851   -200.22814    114.62634     685.7732   -5298.2819 
12653000    21.064336   -5211.8919   -5171.2676   -5211.8919            0   -910.56792    19.993668    19.919682    21.159283     8427.055   -872.58167   -620.99586   -1238.1262    -124.5144   -201.91216    723.13045   -5283.1763 
12654000     21.06698   -5210.8752   -5170.2458   -5210.8752            0   -1224.4169    19.942129    20.009557    21.152698    8440.6283   -622.82368   -1796.2047   -1254.2223   -207.37887    81.055081    23.325526   -5320.9689 
12655000     21.46038   -5213.3393   -5171.9512   -5213.3393            0   -884.70043    20.078366    19.944303    21.014076    8415.0662   -1246.8125   -727.53698    -679.7518   -149.72794    124.45386   -52.066169   -5280.5261 
12656000    21.183701    -5214.022   -5173.1675    -5214.022            0   -1263.4806    19.957031    20.021478    20.978821     8382.492   -905.29822   -1695.1838   -1189.9599   -153.24571   -144.62324   -467.24044   -5327.6281 
12657000    21.858102    -5211.837   -5169.6818    -5211.837            0   -1033.3508    19.959054     20.01087    21.036485    8401.9311   -562.00109   -1412.9078   -1125.1436   -100.85672   -301.74546    177.32478    -5296.302 
12658000    20.251858   -5212.5622   -5173.5048   -5212.5622            0   -1234.0132    20.020507    20.021357    20.952015    8398.3581   -1317.0436    -1439.423   -945.57307   -140.03691    184.16363   -7.5493625   -5324.6485 
12659000    20.778627   -5211.7477   -5171.6744   -5211.7477            0   -1205.1655    20.044308    19.949245      21.0325    8410.2407   -1144.3364   -1269.1122   -1202.0479   -35.340971   -341.87958   -63.538777   -5319.4936 
12660000    20.820672   -5209.9373   -5169.7828   -5209.9373            0     -1671.47     20.04399    20.004942    20.994888    8418.5063   -2078.2461   -1642.0365   -1294.1274   -155.95803    121.75816   -294.58059    -5374.998 
12661000     20.39802   -5210.7985   -5171.4592   -5210.7985            0   -1174.2875    19.958495    20.010385    21.090527    8423.0749    -818.5579   -1402.1203   -1302.1843   -68.647486   -58.737696   -264.10786   -5315.7109 
12662000     21.72922   -5212.9157   -5171.0091   -5212.9157            0   -767.61416    20.017593    19.959045    20.986732    8384.8722   -885.65407   -579.03935   -838.14908     132.4302    81.783025   -367.83151   -5264.8766 
12663000    21.619102   -5212.4687   -5170.7745   -5212.4687            0   -977.50572    20.033418    19.969704      21.0009    8401.6502   -1056.0225   -910.35665   -966.13797   -189.87522    540.55029   -143.88201   -5290.5477 
12664000     20.91847    -5213.322    -5172.979    -5213.322            0    -1268.046    19.999798    19.977041    21.031966    8403.0438     -1417.92   -1226.9415   -1159.2765   -164.21642    501.90661   -288.30027   -5328.3777 
12665000     21.34349   -5213.0306   -5171.8679   -5213.0306            0   -1345.1114     20.04744    19.978321    20.957374    8393.7254   -1463.7186   -1592.7569   -978.85878   -95.653061   -297.09772    144.18904   -5336.5282 
12666000    20.944615   -5209.5399   -5169.1464   -5209.5399            0   -1360.9505    20.066239    19.948872     21.03689    8421.0426   -2095.9174   -896.83041   -1090.1036   -121.93607    230.43457    69.214805   -5336.2878 
12667000    21.671537   -5212.1225   -5170.3272   -5212.1225            0   -802.39425    20.015608    19.947663    21.053637    8405.9718   -1421.0745   -241.36116   -744.74709   -146.16649   -110.69502    94.087576   -5268.6947 
12668000    22.979163   -5212.0439   -5167.7266   -5212.0439            0   -955.50872    19.975263    20.031481    21.013707    8408.3009    -880.1591   -1093.6068   -892.76029    87.730082   -155.32609    172.61036   -5284.8973 
12669000    21.590189   -5209.0668   -5167.4283   -5209.0668            0   -1371.8484    20.061016     19.93936    21.104872    8442.0295   -1578.3324   -1078.3728     -1458.84   -183.34061   -509.96368   -24.895321    -5336.328 
12670000    20.547712   -5210.0545   -5170.4265   -5210.0545            0   -1291.0754     20.00485    19.975555    21.059451    8415.5245   -1281.9091   -1433.0753   -1158.2418   -137.27719    438.08878     67.48518   -5328.8825 
12671000     21.62551    -5209.523   -5167.8164    -5209.523            0   -1370.8907    20.030558    19.941981    21.134079    8441.9868    -1194.551   -1437.0949   -1481.0261   -145.08818    40.688718    92.718266   -5336.5973 
12672000    20.769121   -5211.8514   -5171.7964   -5211.8514            0   -816.75814     19.99493    19.951903    21.030557    8389.8652    -798.0582   -970.41453   -681.80168   -115.86769    143.70145    360.80301   -5271.7329 
12673000    20.262643   -5211.7346   -5172.6564   -5211.7346            0    -731.3211     20.00664    19.866913    21.093761     8384.141   -1230.5559    357.27091   -1320.6783   -92.201065    86.422734    34.342887    -5262.078 
12674000    21.993003   -5213.6328   -5171.2174   -5213.6328            0   -923.11678    19.999343    19.980256    20.914759    8357.3702   -1191.9333   -792.85403     -784.563    -163.5073   -104.22926   -192.95081   -5283.7303 
12675000     22.33374   -5214.5092   -5171.4367   -5214.5092            0   -824.73555    19.980365    20.005189     20.98209    8386.7719   -1145.2795   -491.62288   -837.30425    163.69116     222.5148    184.34724   -5272.3121 
12676000    20.536466   -5212.7333    -5173.127   -5212.7333            0      -823.38    20.030433    19.988346    20.982387    8400.8276    -872.3067   -887.13747   -710.69582   -226.15157    170.51403    166.18211   -5274.0054 
12677000    21.839001   -5212.2237   -5170.1053   -5212.2237            0   -1390.6125    20.005073    19.981083    21.077226    8425.0524   -1234.9921   -1501.6086   -1435.2369   -253.56002   -30.105082   -348.98473   -5340.9709 
12678000     20.99865   -5211.0841   -5170.5864   -5211.0841            0   -889.68248    19.998429    19.991936    21.026439    8406.5238   -1401.0341   -495.49099   -772.52235    -103.0814   -113.61062    174.26884    -5279.662 
12679000    22.391818   -5210.5476   -5167.3631   -5210.5476            0   -826.00793     19.98252    19.945245    21.129462    8421.2791   -1008.1202   -621.33457   -848.56897   -135.85848    76.913923    338.33559   -5268.8099 
12680000    21.781333   -5210.6441    -5168.637   -5210.6441            0   -687.56133    19.965651    19.958544     21.10229     8408.953   -676.75112   -655.42325   -730.50961   -401.28219    138.16305   -273.05586   -5252.9568 
12681000    21.286947   -5213.2949   -5172.2412   -5213.2949            0   -1105.5476    20.007737    19.902794    21.154454     8423.912   -875.70832   -1128.3072   -1312.6273   -135.42452   -92.187151    -146.4709   -5308.0623 
12682000    19.484169    -5208.435   -5170.8582    -5208.435            0   -1806.5739    20.059922    20.015285    20.966203    8418.0365   -1490.5059   -2070.6098   -1858.6058   -181.49191    314.13295    -99.40733   -5392.6484 
12683000    20.168949   -5210.2829   -5171.3854   -5210.2829            0   -982.23597    20.022073    19.992317    21.019333    8413.7786   -1016.2907   -1251.5815   -678.83565    102.80885    12.991493   -235.04799   -5291.9119 
12684000    20.606371   -5211.4623   -5171.7212   -5211.4623            0   -834.29445    20.044747    20.013352    20.968416    8411.7436   -1073.3522   -789.95064   -639.58054   -151.54566    21.188705    587.32078   -5274.0697 
12685000    20.977414   -5208.8635   -5168.4068   -5208.8635            0   -841.64944    19.961036    19.966889     21.06985     8397.595   -269.91224   -1087.7987   -1167.2374   -225.09945    -44.08462   -222.46221   -5271.4839 
12686000    21.528369   -5210.3408   -5168.8215   -5210.3408            0   -1030.8191    19.981707    19.974373    21.028037    8392.7539   -915.90675   -1208.3406   -968.21002   -252.79474    276.87445    230.23468   -5294.9935 
12687000    20.403478   -5210.6205   -5171.2707   -5210.6205            0   -1342.8266    20.013797    19.979727    21.104652    8439.1213   -1540.5912   -1535.4217   -952.46677   -188.49851    -190.9094    75.865054   -5336.5403 
12688000    22.457111   -5211.7589   -5168.4485   -5211.7589            0   -1261.9858    20.027429      19.9938    20.993874    8406.4594   -1396.7662   -1409.6779   -979.51346   -257.01411    7.2125471    414.18008   -5323.1674 
12689000    19.903513   -5211.2548   -5172.8692   -5211.2548            0   -775.81854     20.02097      19.9658    20.966499    8381.0367    -1344.982   -401.85556   -580.61809    -117.8454    345.55293    135.78018   -5267.6966 
12690000    22.534002   -5210.1231   -5166.6644   -5210.1231            0   -1137.2828    20.038408    19.966222    21.043203    8419.2023   -1116.2415   -1123.5622   -1172.0447   -177.77443    36.052966   -122.75152   -5306.3062 
12691000    21.308607   -5210.2094   -5169.1139   -5210.2094            0   -1592.7956    20.007133    19.973114    21.097582     8430.694   -1515.5065   -1523.6676   -1739.2128   -25.927275    190.76508   -53.177376    -5364.953 
12692000    20.822977   -5209.4705   -5169.3116   -5209.4705            0   -783.12025    19.973011    19.986045    21.044973    8400.7641    -536.1858   -1052.4254   -760.74954   -144.95538     280.9011    53.791647   -5265.2568 
12693000    21.866885   -5212.2003   -5170.0282   -5212.2003            0   -694.12847    20.052998    19.957985    21.003594    8406.0046    -742.0894    -771.4088   -568.88721    57.271436    493.40168    50.452443   -5255.1235 
12694000     21.99246   -5211.5518   -5169.1375   -5211.5518            0   -1214.2452    19.995462    19.973946    21.071079    8415.5419   -830.92018    -1470.836   -1340.9795    5.8872197    404.65519    282.13944   -5318.1643 
12695000    20.867058   -5209.5416   -5169.2977   -5209.5416            0   -1478.0857    20.049269      19.9856    21.032331    8427.5848   -1415.6999   -1538.1981    -1480.359   -156.95885    192.77108   -95.175471   -5350.9658 
12696000     21.16487   -5210.7238   -5169.9056   -5210.7238            0   -1136.3696    20.005916    20.026614    21.021558    8422.3033    -1094.504   -900.72418   -1413.8807   -107.18868    242.85226   -193.28011   -5309.4866 
12697000    20.663401   -5209.8098   -5169.9587   -5209.8098            0    -730.5263    19.993526    19.958435    21.072619     8408.807   -414.48064   -721.14893   -1055.9493   -247.67627    464.53963   -312.32967    -5259.546 
12698000     21.65387   -5211.7701   -5170.0087   -5211.7701            0   -944.99317    20.006857    19.959704    21.076601    8416.5392     -1012.36   -676.36075   -1146.2587    8.9481448     209.2275    30.148075   -5286.0034 
12699000    21.196302   -5209.2858    -5168.407   -5209.2858            0    -829.0738    20.010148    19.927914     21.04515    8391.9746    -1516.893     221.8763   -1192.2047    63.042491    391.17838    -33.01941   -5269.8759 
12700000    20.982007   -5213.0827   -5172.6171   -5213.0827            0   -796.42047    20.017305    19.960643    20.988285    8386.0432   -833.84362   -580.58657   -974.83121   -46.764238    363.05149    399.35305   -5270.0208 
12701000    20.218446   -5210.0678   -5171.0749   -5210.0678            0   -1644.0727    20.009028     20.02099    21.000402    8412.7726   -2008.9291   -1264.3747   -1658.9142   -245.92925    628.65762   -319.83935   -5372.7889 
12702000    20.774627   -5210.7761   -5170.7105   -5210.7761            0   -1185.0741      20.0279    19.952598    21.014811    8397.6999   -1018.2613   -1293.7803   -1243.1807    66.697943    56.993521    251.05519   -5315.8487 
12703000    19.993329   -5211.3552   -5172.7964   -5211.3552            0   -898.54939    19.985866    19.940754    21.023941    8378.7394   -920.11694   -679.65735   -1095.8739   -282.55325    452.93093   -449.00756   -5282.5949 
12704000    21.059163   -5212.7409   -5172.1266   -5212.7409            0   -1544.7568    20.085974    19.971811    20.986669    8418.8715   -2338.4132   -778.75057   -1517.1067   -158.27001    84.521889    45.641375   -5361.7928 
12705000    20.635646   -5212.5553   -5172.7577   -5212.5553            0   -1218.6913    20.052963    20.000561    20.986194    8416.9434   -1498.6562   -1186.0021   -971.41552    18.354513   -120.72152    325.40426   -5322.3551 
12706000    20.646263    -5211.318   -5171.4999    -5211.318            0   -1523.6731     19.98657    19.997017    21.102444    8434.0515   -1413.2774   -1451.1204   -1706.6214    -3.540035    204.68862    281.43557   -5358.9147 
12707000    21.482424   -5212.0465   -5170.6159   -5212.0465            0   -634.28401     19.99068    19.994105    21.011315    8398.1332   -763.29656    -694.7922   -444.76326   -55.408497   -181.48539   -343.51171   -5248.3018 
12708000    21.670545   -5211.6132   -5169.8197   -5211.6132            0   -1074.9176    20.026031    20.005988    20.959874     8397.375   -597.27259   -1504.9462   -1122.5342   -146.25702    32.242182   -452.22051   -5301.4617 
12709000     21.64846   -5213.8119    -5172.061   -5213.8119            0   -920.98574    20.052769    19.942405    21.003461    8399.2932   -1596.1876   -663.24346   -503.52615   -92.039801    212.04146    86.951701   -5284.8772 
12710000    21.014501   -5207.8193   -5167.2911   -5207.8193            0   -1359.0272    20.033947    19.962267    21.103786    8439.8895   -1810.6252   -1059.7581   -1206.6984   -184.54397    197.36285   -234.12878   -5334.5698 
12711000    20.691388   -5210.1717   -5170.2666   -5210.1717            0   -1377.3574    20.017591    19.975989    21.056885    8420.0413   -1833.9585   -811.99609   -1486.1175   0.36073223    472.32458    154.97365   -5339.4029 
12712000    21.500796   -5210.7638   -5169.2977   -5210.7638            0    -927.7646    19.991207    19.988841    21.053462    8412.9857    -773.4927    -1210.809   -798.99211   -182.48331    229.48974   -42.097954   -5283.1296 
12713000    21.321803   -5209.9013   -5168.7804   -5209.9013            0   -526.41991    19.984365    19.923979    21.052499    8382.4327   -465.46003    -397.9727   -715.82699   -39.639598    168.57963    104.51472   -5233.1348 
12714000    21.381588   -5209.7332    -5168.497   -5209.7332            0    -1215.452    20.025598    19.933542    21.215549    8468.8458   -1723.9422   -549.67147   -1372.7424   -114.46687    181.92901     55.53229   -5318.6168 
12715000    19.710868   -5212.3176   -5174.3036   -5212.3176            0   -1241.5902    19.968528    20.056182    21.032807      8423.48   -476.94753   -1719.4796   -1528.3433   -143.25022     349.2035   -127.53626   -5326.8302 
12716000    20.778136    -5211.718   -5171.6457    -5211.718            0   -946.35686    20.025792    19.980686    20.968495    8390.1043    -1239.192   -658.52178   -941.35683   -193.97754   -2.0963223    115.55906   -5287.4429 
12717000    20.253542   -5212.6142   -5173.5535   -5212.6142            0   -833.71126    20.040895    19.935742    21.007509    8393.1323   -1156.0728   -679.56995   -665.49105    14.069437   -28.868247    308.31837   -5275.6041 
12718000    21.447359   -5210.3599   -5168.9969   -5210.3599            0   -518.50602    19.967792    19.900955    21.147687    8403.6282    78.757454   -704.91841   -929.35711   -34.140485    88.577308    366.36563   -5232.5441 
12719000    20.743881    -5209.861   -5169.8547    -5209.861            0   -1253.6939    19.982834    20.012384    21.013534    8403.3997   -1089.5509   -1748.9462    -922.5845   -333.56307    147.90862    204.26812   -5323.5011 
12720000    20.589144   -5212.8299    -5173.122   -5212.8299            0   -1189.6972    20.055191    19.932801    21.001492     8395.475   -1167.0444   -1319.6367   -1082.4105   -171.52137    347.43045    73.828845   -5318.7878 
12721000    21.628376   -5212.0327   -5170.3206   -5212.0327            0   -939.99492    20.062549    19.991091    20.928887    8393.9959   -961.70191   -1473.1675   -385.11534   -22.503108    88.239042   -2.3713453   -5285.3927 
12722000     20.55201    -5212.068   -5172.4317    -5212.068            0   -1236.2567    20.042742    19.986537    20.977648     8403.331   -978.99253   -1592.6417   -1137.1357    231.06753   -85.206802    466.33567   -5323.9399 
12723000    20.871659   -5212.1445   -5171.8918   -5212.1445            0   -1185.8761    20.009796    20.035016    20.983595    8412.2514   -1344.9723   -1400.0043   -812.65169   0.65043007    217.52415    221.03811   -5317.3798 
12724000    20.750116   -5212.0089   -5171.9905   -5212.0089            0   -764.65917    19.964807    19.937875     21.07303    8388.2426   -619.79013    -583.6317   -1090.5557   -58.852139    199.09138    104.56441   -5265.5343 
12725000    21.763468   -5213.9745   -5172.0018   -5213.9745            0   -1495.1562     19.96949    20.000456    21.110958    8431.6935   -1480.9956   -1595.3279   -1409.1453   -87.841814   -383.07714    16.612468   -5355.8576 
12726000    21.034138    -5210.797   -5170.2309    -5210.797            0    -1329.358    20.011191     19.91085     21.12127    8415.5548   -1449.8146   -856.44408   -1681.8153    102.11661    287.88566   -53.019397   -5333.3859 
12727000    22.749942   -5209.2883   -5165.4132   -5209.2883            0   -1308.4512    20.022609    19.994856    20.939568    8383.1388   -1773.9752   -891.32081   -1260.0578   -47.572147   -48.941126    343.82745   -5325.3837 
12728000    21.489006   -5209.9512   -5168.5078   -5209.9512            0   -1120.1009    20.012548    19.954792    21.037797    8401.3647   -849.72546    -1304.591   -1205.9863   -212.78758     233.0883    133.27934   -5305.7485 
12729000    21.884804   -5210.3806   -5168.1739   -5210.3806            0    -1646.212    20.060453    19.983958    21.033407    8432.0247   -2140.6482   -1313.4128    -1484.575    55.260878    216.64077   -29.055381   -5370.6126 
12730000     22.07954   -5208.6003   -5166.0181   -5208.6003            0   -879.88531    20.058026    19.961696    21.042605    8425.2956    -1563.875   -501.04598   -574.73492   -180.46044    86.700578   -69.146307   -5274.1334 
12731000    22.001708   -5210.4029   -5167.9707   -5210.4029            0   -913.63794    20.055736    19.965371    20.998752    8408.3249   -1463.5514   -530.73318   -746.62921   0.85201163    474.76525   -472.34534   -5280.0072 
12732000    21.229463   -5210.7399   -5169.7971   -5210.7399            0   -724.68791    19.989771      19.9882    21.058122    8413.9737   -612.22165   -850.27304   -711.56905    -113.9764    238.58124    383.39185    -5258.723 
12733000    21.056251   -5212.6249   -5172.0162   -5212.6249            0   -1311.0452    20.008462    20.006444     20.98304    8399.4727   -1384.5611   -1591.0885   -957.48603    40.875901    366.11952    32.019221   -5332.6162 
12734000    22.410439   -5212.1366   -5168.9162   -5212.1366            0   -905.07287    19.967856     19.98027    20.996171    8376.6989   -670.36666   -1142.0343   -902.81763   -67.495812    632.09105   -110.12654   -5279.4849 
12735000    21.049378    -5213.935   -5173.3395    -5213.935            0   -1437.9796    20.037556    19.960222    21.037321    8413.9619   -1893.1253   -1306.6049   -1114.2084   -125.74376    -134.9392    87.076456   -5349.7925 
12736000    20.568774   -5212.4752   -5172.8066   -5212.4752            0   -806.92032    19.974737    19.953642     21.10131    8410.3228   -773.31673   -553.98295   -1093.4613   -170.08487    141.59871    84.983365   -5271.7802 
12737000    20.781314    -5210.685   -5170.6065    -5210.685            0   -804.99537    19.968651     19.94451    21.095195     8401.477   -563.74499   -833.36479   -1017.8763    -253.5111      167.414    184.21666   -5269.2401 
12738000    21.845736   -5211.8965   -5169.7652   -5211.8965            0    -1242.375    20.003684    20.005647    20.962182    8388.7849   -1350.1125    -1389.588   -987.42449   -181.16216    -89.98549   -438.33014   -5321.7596 
12739000    20.623705   -5210.6772   -5170.9026   -5210.6772            0   -1186.4972    20.038479     19.97959    20.969791    8395.4777    -959.1733   -1517.5675   -1082.7508   -130.45519    347.79294    319.96841   -5316.1767 
12740000    20.583184   -5208.4588   -5168.7624   -5208.4588            0   -896.29024    19.979356     20.02466    21.046876      8420.43   -791.10107   -981.31691   -916.45274    10.588536    7.8421506    233.62511   -5278.8299 
12741000    20.047977   -5211.6746   -5173.0104   -5211.6746            0   -1215.2872    19.988683    20.044435    21.036643    8428.5806   -858.46094    -1720.044   -1067.3566   -203.35814    236.40587    -38.97734   -5322.3962 
12742000     21.29082   -5212.1873   -5171.1261   -5212.1873            0   -1307.3943     20.07373    19.928455    21.085785     8435.124   -1907.6938   -943.75186   -1070.7373   -202.75994    411.75467   -85.966976   -5331.9587 
12743000    21.571537   -5210.2944   -5168.6918   -5210.2944            0   -988.30566    19.997028    20.010429    21.051405    8423.7007   -813.32561   -1232.9703   -918.62104   -100.57322    159.05117   -88.292727   -5290.1062 
12744000    21.680706   -5210.4514   -5168.6383   -5210.4514            0   -978.32861    19.979776    20.036432    21.053727    8428.3001   -1006.2985   -1287.1589   -641.52845   -146.46836    198.42387   -44.970563   -5288.8926 
12745000      22.2626   -5212.0023    -5169.067   -5212.0023            0   -802.28133    20.033447    19.982866    20.957767    8389.9326   -723.70619   -1239.3931   -443.74475    25.613877    -244.1252   -27.308389    -5267.233 
12746000    20.922893   -5209.7186   -5169.3671   -5209.7186            0   -1504.6758    19.977663     19.99363    21.073953    8417.4848   -1506.8756   -1197.0156   -1810.1361   -49.975572    308.84239    491.65345   -5354.0816 
12747000    22.129656   -5212.4683   -5169.7894   -5212.4683            0   -1722.1489    20.037267     20.02368    21.021236    8434.1365   -1852.1715   -1715.4811   -1598.7941    -3.485747   -4.0771439     193.4894   -5381.6193 
12748000    21.442692   -5209.5558   -5168.2017   -5209.5558            0   -490.21735     20.00845    19.920911    21.030408    8382.4379   -871.73022   -167.59756   -431.32427   -6.0558931   -19.934905   -258.71797   -5228.1304 
12749000    20.846133   -5213.0899   -5172.8864   -5213.0899            0   -629.39753    19.936081    19.983476    21.052227    8387.0426   -423.63095    -771.4939   -693.06775   -106.83669    561.30904    -12.01465    -5249.872 
12750000    22.701333   -5211.8871   -5168.1057   -5211.8871            0   -956.54969    20.054387    19.978323    20.914741    8379.5539   -1452.4565   -812.54027    -604.6523    57.212667    154.64522   -156.87162    -5285.003 
Loop time of 348.037 on 64 procs for 250000 steps with 972 atoms

Performance: 124.125 ns/day, 0.193 hours/ns, 718.315 timesteps/s
99.1% CPU use with 64 MPI tasks x 1 OpenMP threads

MPI task timing breakdown:
Section |  min time  |  avg time  |  max time  |%varavg| %total
---------------------------------------------------------------
Pair    | 16.675     | 26.04      | 35.403     |  89.1 |  7.48
Bond    | 0.25736    | 0.27197    | 0.28562    |   1.4 |  0.08
Kspace  | 139.68     | 148.9      | 158.68     |  37.4 | 42.78
Neigh   | 0.081967   | 0.088413   | 0.092553   |   0.8 |  0.03
Comm    | 80.792     | 81.786     | 83.027     |   5.8 | 23.50
Output  | 0.90301    | 0.90373    | 0.90538    |   0.0 |  0.26
Modify  | 80.614     | 82.14      | 85.364     |  12.0 | 23.60
Other   |            | 7.903      |            |       |  2.27

Nlocal:        15.1875 ave          20 max          11 min
Histogram: 2 5 11 8 8 11 6 11 1 1
Nghost:        2208.81 ave        2241 max        2179 min
Histogram: 2 6 3 12 10 16 5 5 2 3
Neighs:        4711.14 ave        6614 max        3120 min
Histogram: 3 6 10 7 11 10 4 8 3 2

Total # of neighbors = 301513
Ave neighs/atom = 310.19856
Ave special neighs/atom = 2.0000000
Neighbor list builds = 250
Dangerous builds = 0

unfix		3
unfix		2
unfix		1

write_data	data.final.${pid}
write_data	data.final.1
System init for write_data ...
PPPM initialization ...
  extracting TIP4P info from pair style
  using 12-bit tables for long-range coulomb (../kspace.cpp:340)
  G vector (1/distance) = 0.37220333
  grid = 24 24 25
  stencil order = 5
  estimated absolute RMS force accuracy = 0.0034322992
  estimated relative force accuracy = 1.0336267e-05
  using double precision FFTW3
  3d grid and FFT values/proc = 2366 288
Last active /omp style is kspace_style pppm/tip4p/omp
WARNING: Not all mixed pair coeffs generated from mixing. Use write_data with 'pair ij' option to store all pair coeffs. (../write_data.cpp:312)

write_restart   restart.lmp.${pid}
write_restart   restart.lmp.1
System init for write_restart ...
PPPM initialization ...
  extracting TIP4P info from pair style
  using 12-bit tables for long-range coulomb (../kspace.cpp:340)
  G vector (1/distance) = 0.37220333
  grid = 24 24 25
  stencil order = 5
  estimated absolute RMS force accuracy = 0.0034322992
  estimated relative force accuracy = 1.0336267e-05
  using double precision FFTW3
  3d grid and FFT values/proc = 2366 288
Last active /omp style is kspace_style pppm/tip4p/omp
Total wall time: 0:05:48
