#include		in.partitions
include		in.temp
variable        temperature equal 142.72
variable	tempDamp equal 100.0
include		in.pressure
variable        pressure equal 1905.5
variable        pressureDamp equal 1000.0 # This is 1 ps
include		in.seed
variable        seed equal 745823

units		real
atom_style	full
#include		in.box
read_restart	restart.lmp.${pid}
read_restart	restart.lmp.0
Reading restart file ...
  restart file = 30 Jul 2021, LAMMPS = 30 Jul 2021
  restoring atom style full from restart
  orthogonal box = (0.038461745 0.17225468 0.16755816) to (18.169111 23.456923 22.045638)
  2 by 4 by 4 MPI processor grid
  restoring pair style lj/cut/tip4p/long/omp from restart
  restoring bond style harmonic/omp from restart
  restoring angle style harmonic/omp from restart
  864 atoms
  576 bonds
  288 angles
Finding 1-2 1-3 1-4 neighbors ...
  special bond factors lj:    0        0        0       
  special bond factors coul:  0        0        0       
     2 = max # of 1-2 neighbors
     1 = max # of 1-3 neighbors
     1 = max # of 1-4 neighbors
     2 = max # of special neighbors
  special bonds CPU = 0.002 seconds
  read_restart CPU = 0.008 seconds
include 	in.setup
variable	out_freq equal 1000
variable	out_freq2 equal 10000
variable	out_freq3 equal 1000

timestep	2.0

neigh_modify    delay 7 every 1

include		in.tip4p
# This is TIP4P/Ice

# create groups ###
group ox type 2
288 atoms in group ox
group hy type 1
576 atoms in group hy

# set charges - beside manually ###
set group ox charge -1.1794
Setting atom values ...
  288 settings made for charge
set group hy charge 0.5897
Setting atom values ...
  576 settings made for charge

# ### TIP3P Potential Parameters ###
pair_style lj/cut/tip4p/long/omp 2 1 1 1 0.1577 8.5
pair_coeff 1 1*2 0.000 0.000
pair_coeff 2 2 0.21084 3.1668
bond_style  harmonic
bond_coeff  1 450 0.9572
angle_style harmonic
angle_coeff 1 55 104.52
kspace_style pppm/tip4p/omp 1.0e-5
pair_modify tail yes

thermo          ${out_freq}
thermo          1000
thermo_style    custom step temp pe etotal epair emol press lx ly lz vol pxx pyy pzz pxy pxz pyz enthalpy

restart 	${out_freq3} restart.lmp.${pid} restart2.lmp.${pid}
restart 	1000 restart.lmp.${pid} restart2.lmp.${pid}
restart 	1000 restart.lmp.0 restart2.lmp.${pid}
restart 	1000 restart.lmp.0 restart2.lmp.0


include         in.dump
dump            myDump all atom ${out_freq2} dump.water.${pid}
dump            myDump all atom 10000 dump.water.${pid}
dump            myDump all atom 10000 dump.water.0
dump            myDump2 all dcd ${out_freq2} dump.dcd
dump            myDump2 all dcd 10000 dump.dcd
dump_modify     myDump append yes
dump_modify     myDump2 append yes


variable natoms 	equal  "count(all)"                        # NUMBER ATOMS
variable H      	equal  "enthalpy/v_natoms"                 # ENTHALPY-per-atom
variable Vol      	equal  "vol/v_natoms"                 # volume-per-atom
fix AVG all 		ave/time ${out_freq} 1 ${out_freq} v_Vol v_H file vol_enthalpy.dat
fix AVG all 		ave/time 1000 1 ${out_freq} v_Vol v_H file vol_enthalpy.dat
fix AVG all 		ave/time 1000 1 1000 v_Vol v_H file vol_enthalpy.dat


timer           timeout 23:50:00 every 1000
New timer settings: style=normal  mode=nosync  timeout=23:50:00

fix 		1 all shake 1e-6 200 0 b 1 a 1
       0 = # of size 2 clusters
       0 = # of size 3 clusters
       0 = # of size 4 clusters
     288 = # of frozen angles
  find clusters CPU = 0.000 seconds
fix             2 all nph aniso ${pressure} ${pressure} ${pressureDamp}
fix             2 all nph aniso 1905.5 ${pressure} ${pressureDamp}
fix             2 all nph aniso 1905.5 1905.5 ${pressureDamp}
fix             2 all nph aniso 1905.5 1905.5 1000
fix             3 all temp/csvr ${temperature} ${temperature} ${tempDamp} ${seed}
fix             3 all temp/csvr 142.72 ${temperature} ${tempDamp} ${seed}
fix             3 all temp/csvr 142.72 142.72 ${tempDamp} ${seed}
fix             3 all temp/csvr 142.72 142.72 100 ${seed}
fix             3 all temp/csvr 142.72 142.72 100 745823


run             250000
PPPM initialization ...
  extracting TIP4P info from pair style
  using 12-bit tables for long-range coulomb (../kspace.cpp:340)
  G vector (1/distance) = 0.37197065
  grid = 24 27 25
  stencil order = 5
  estimated absolute RMS force accuracy = 0.0031197581
  estimated relative force accuracy = 9.3950588e-06
  using double precision FFTW3
  3d grid and FFT values/proc = 4410 672
Last active /omp style is kspace_style pppm/tip4p/omp
Neighbor list info ...
  update every 1 steps, delay 7 steps, check yes
  max neighbors/atom: 2000, page size: 100000
  master list distance cutoff = 10.8154
  ghost atom cutoff = 10.8154
  binsize = 5.4077, bins = 4 5 5
  1 neighbor lists, perpetual/occasional/extra = 1 0 0
  (1) pair lj/cut/tip4p/long/omp, perpetual
      attributes: half, newton on, omp
      pair build: half/bin/newton/omp
      stencil: half/bin/3d
      bin: standard
Per MPI rank memory allocation (min/avg/max) = 10.19 | 10.21 | 10.23 Mbytes
Step Temp PotEng TotEng E_pair E_mol Press Lx Ly Lz Volume Pxx Pyy Pzz Pxy Pxz Pyz Enthalpy 
22250000    147.37504   -4464.0933   -4211.4975   -4464.0933            0    1889.0485    18.130649    23.284668    21.878079    9236.1845    2883.6823    1513.8071    1269.6563    642.45559    936.68762    165.70026   -3957.0421 
22251000    143.28155   -4477.3397     -4231.76   -4477.3397            0    1751.7829    17.795618    23.608565    21.925648    9211.6008    2724.1806    344.92258    2186.2456    30.629392    464.83812    494.05312   -3996.4225 
22252000    143.27067   -4478.3868   -4232.8258   -4478.3868            0    1262.6348    17.941705    23.319078     22.07929     9237.622    1378.9998    1983.8881    425.01638    353.81039    56.451286   -79.829496   -4062.7221 
22253000    144.00538   -4484.8379   -4238.0176   -4484.8379            0    917.67235    18.053778    23.240988    22.023107    9240.6236    1272.1701    681.78762    799.05932   -986.60822     432.0555   -137.21345   -4114.3475 
22254000    137.14176   -4493.1832   -4258.1269   -4493.1832            0     1731.967    17.901328    23.493909    21.910345    9214.8816    2974.7639   -18.350812    2239.4878   -155.39961    310.87865    676.14302   -4025.3686 
22255000    145.46502   -4476.5776   -4227.2556   -4476.5776            0    2492.4229    18.061087    23.165851     21.90736    9166.0494    2243.4764    2312.1532    2921.6392   -478.57585   -105.05173    216.54916   -3894.0749 
22256000    142.08157   -4469.6788   -4226.1558   -4469.6788            0    2822.4288    17.956681    23.380282    21.832035    9165.7923    2678.8279    2297.3432    3491.1152    277.01358    211.79778   -174.72487   -3848.8714 
22257000    145.87804   -4482.7458   -4232.7158   -4482.7458            0    1972.6059    17.896935    23.470868    21.917031    9206.3937    2272.3742    997.33523    2648.1084    329.91675   -789.48196   -183.10864   -3967.8623 
22258000    142.50151   -4467.3658   -4223.1231   -4467.3658            0    2089.7589    18.098082    23.177337     21.92973    9198.7617    3267.1602    1038.0869    1964.0296   -327.90527    79.660478    505.38245   -3942.7725 
22259000    149.40658   -4470.6656   -4214.5878   -4470.6656            0    2363.5077    17.817568    23.329922    22.166778    9214.3414    3140.2596    2582.1991    1368.0643   -916.81048   -62.286935   -368.10184   -3896.9756 
22260000    139.87188   -4468.1013   -4228.3657   -4468.1013            0    2561.5255    17.976317    23.232081    22.052495    9209.7227    2046.5236    2564.6999    3073.3531    -231.1601    46.848448   -818.05261    -3884.316 
22261000    145.17333   -4485.0283   -4236.2062   -4485.0283            0    1302.9258    17.976133    23.479883    21.931266    9256.6938    1998.9628    1155.2447    754.56977   -9.8138178    347.52376   -274.29346    -4060.312 
22262000    151.86797   -4469.2951   -4208.9986   -4469.2951            0    1170.4385    18.142033    23.383549    21.778857    9239.1382    516.01803     1543.505    1451.7924    78.229236    379.76215   -635.57599   -4051.2898 
22263000    147.56827   -4471.1662   -4218.2393   -4471.1662            0    317.14446     18.02348    23.379584     21.99376    9267.7628    479.53621     1004.565    -532.6678   -494.51077    126.71922    565.98873   -4175.3738 
22264000    141.51071    -4489.272   -4246.7275    -4489.272            0    2225.8976    17.927097    23.393971    21.843352    9160.7958    3071.4791    2583.6591    1022.5548   -383.68259   -120.89853   -34.905423   -3949.3457 
22265000     146.9536   -4483.6419   -4231.7684   -4483.6419            0    2143.9274    18.030508    23.323798    21.878869    9200.9379    2341.0228    1935.8878    2154.8717    435.53554    36.500605   -316.48978   -3944.0828 
22266000    144.04942   -4477.2068   -4230.3111   -4477.2068            0    1953.7234    17.895223    23.470452    21.932949    9212.0355    1910.3747    1731.5503    2219.2452   -85.041418    147.20994    319.10654   -3967.8321 
22267000    146.72506   -4482.7875   -4231.3057   -4482.7875            0    1501.7122    17.869916    23.280123    22.160918    9219.2487    2684.6352    2155.1294   -334.62795   -110.21302   -182.29647    -125.0195   -4029.3956 
22268000    136.28615   -4485.6201   -4252.0303   -4485.6201            0    2611.1197    17.967165    23.134231    22.093778    9183.4235    2359.3614    3473.5454    2000.4522     -393.785   -125.06541   -109.43667   -3902.3209 
22269000    143.42678   -4484.1961   -4238.3675   -4484.1961            0    1013.1162    17.907293    23.668504    21.827757    9251.4509   -322.57456     866.5278    2495.3954   -985.04297    116.73676   -391.53045   -4101.6749 
22270000    141.31752   -4490.1747   -4247.9613   -4490.1747            0    1725.6478    18.097965    23.258565    21.911509    9223.2703    1821.6883    2921.6854    433.56959   -59.465051   -86.802686    987.82849    -4015.841 
22271000    141.55067   -4491.3396   -4248.7266   -4491.3396            0    2308.5169    18.029284    23.363731    21.858384    9207.4363    1371.8994     1804.945    3748.7063   -270.24818   -118.32027   -37.055352   -3938.7366 
22272000    144.56226   -4471.2945   -4223.5198   -4471.2945            0    1241.7601    17.931078     23.55372    21.864468    9234.3179    1223.2858    277.58457    2224.4099    162.41227   -231.45054    287.88385   -4056.2881 
22273000    134.19345   -4477.5795   -4247.5766   -4477.5795            0    2473.4149     17.99292    23.310871    21.886978    9180.0692    1874.4349    2373.0296    3172.7803    -53.71258   -185.00113   -76.968287   -3916.4311 
22274000    151.17222   -4464.0152   -4204.9111   -4464.0152            0    2501.0477    17.821091    23.454123    21.981173     9187.648     3177.983    2472.4212    1852.7389    199.82226   -282.23044    395.44024   -3869.7897 
22275000    146.36821   -4479.2539   -4228.3838   -4479.2539            0    1743.0809    17.970584    23.267932    22.088475    9236.0379    1763.8578    1810.6385    1654.7465   -125.31858    549.15705    451.99186    -3993.594 
22276000    145.12234   -4467.8074   -4219.0727   -4467.8074            0    1580.8846    17.809886     23.46743    22.053198    9217.1838    2094.9094     1712.313    935.43154   -697.19583   -55.947094    306.09912   -4006.5651 
22277000    151.07309   -4480.1761    -4221.242   -4480.1761            0    2039.4512    17.912034    23.397728    21.973549     9209.134    2790.3097    2199.0141    1129.0298    665.39487   -213.57751   -189.97887    -3947.332 
22278000     142.2043    -4485.698   -4241.9647    -4485.698            0    2304.3336    17.987596    23.228397    21.936417    9165.5398    1718.7639    2446.9286    2747.3082   -176.84888   -143.07101    60.760792   -3933.9444 
22279000    139.83532   -4489.9463   -4250.2734   -4489.9463            0    3299.4126    17.837118    23.346537    21.936485    9135.1189    3157.8215    3087.0778    3653.3384   -104.67308   -198.20735    850.77016   -3810.7047 
22280000    153.97925   -4487.7259   -4223.8107   -4487.7259            0    945.60012     18.16597    23.241661    21.911433    9251.1679    97.812328     1695.649     1043.339   -1118.5459     28.23149    86.575398   -4096.2315 
22281000    145.22604   -4463.9368   -4215.0244   -4463.9368            0    2135.8189    17.952656    23.503305    21.830142    9211.1573    1621.8136    2629.8663    2155.7767    1054.4309   -278.09576    458.31486   -3928.1086 
22282000      145.464   -4478.8094   -4229.4891   -4478.8094            0    1708.9935    17.990492    23.283665    22.037565    9231.1959    2339.7984    1620.3239    1166.8583    -294.2228    77.504929    659.17399   -3999.4115 
22283000    146.16532   -4482.2479   -4231.7255   -4482.2479            0    2163.4339    17.887992    23.332651      22.0148    9188.4116    2129.5206    1763.5124    2597.2686     261.7083    337.53361    198.26029   -3941.8177 
22284000     137.5096   -4486.4286   -4250.7418   -4486.4286            0    1369.6341    17.782676    23.499779     22.09289    9232.3748    1846.0016    334.79333    1928.1072    1040.3532    454.10004    183.43883   -4066.3279 
22285000    136.55949   -4487.4281   -4253.3698   -4487.4281            0    2352.8016    18.086969    23.104123    21.996182    9191.8427     1479.143    3667.5952    1911.6665   -276.00578   -306.39319    136.21519   -3937.9683 
22286000    138.50166   -4482.4744   -4245.0873   -4482.4744            0    2859.2473    17.898374    23.400453    21.923307    9182.1399    3939.8577    2951.6308    1686.2533    629.21891   -1223.8845   -8.5804935   -3862.1995 
22287000     146.9435   -4480.2858   -4228.4297   -4480.2858            0     2091.324    17.889248    23.241625    22.112603    9193.8721    2079.8528    2439.3244    1754.7949   -63.696154   -475.79218   -399.40583   -3948.0183 
22288000    145.09038   -4481.2095   -4232.5296   -4481.2095            0    2460.9944    17.945639    23.278217    21.966031    9176.1443    2720.2375    2942.2987    1720.4468    490.61725   -552.61503   -206.90625   -3903.1879 
22289000    138.03751   -4461.5193   -4224.9277   -4461.5193            0    2433.8359    17.964112    23.637903     21.67206    9202.6924    1966.0706    2296.3141    3039.1232   -277.29836   -370.92901    -22.37631   -3898.2782 
22290000    143.28987   -4485.1108   -4239.5168   -4485.1108            0     2520.587    17.994862    23.311892    21.880978    9178.9452    1341.2768    1750.1627    4470.3217   -981.19361   -118.55676   -174.31211   -3902.0972 
22291000    138.04073   -4474.4214   -4237.8243   -4474.4214            0    851.13914     17.78525    23.513505    22.089584    9237.7216     1469.604    1170.1906   -86.377138   -434.90901   -535.45763    231.86063   -4123.1565 
22292000    147.36855   -4491.2091   -4238.6245   -4491.2091            0    1454.0055    18.094012    23.315075     21.93613    9254.0475     1979.932     1949.137    432.94742     587.2039    126.28164    551.50093   -4042.3907 
22293000    146.23309   -4477.6273   -4226.9888   -4477.6273            0    1597.6857    17.966167    23.458544    21.871048    9217.7744    2821.0799      1118.97    853.00731  -0.38977054   -330.66951   -530.24697   -4012.2091 
22294000    146.49222   -4483.8216   -4232.7389   -4483.8216            0     1705.357    17.921336    23.396523    22.051014    9245.9228    1263.1277    1996.1888    1856.7544   -1161.5883    253.38288   -67.111914   -4002.7846 
22295000    137.01578   -4497.1645   -4262.3242   -4497.1645            0    2098.1049     18.01083    23.127657    22.089882    9201.5031    1638.4887    3190.3167    1465.5092   -205.84471   -229.88723   -100.35117   -3980.7701 
22296000    150.53978   -4481.2364   -4223.2163   -4481.2364            0    2322.9228    17.910125    23.436133     21.93689    9207.8796    2694.0572    1540.2323    2734.4788    476.63207   -841.93639    206.67862   -3911.2769 
22297000     143.5321   -4491.5903   -4245.5812   -4491.5903            0    1377.8079    18.180595    23.333034    21.810956    9252.3913   -48.958068    1004.8244    3177.5573    634.82702   -307.77819   -89.757629   -4059.6645 
22298000    142.67021   -4474.2832   -4229.7514   -4474.2832            0    2470.3555    18.029073    23.322955    21.884365    9202.1839    1663.2926     1551.827     4195.947   -23.627127    124.88874    354.55499   -3898.2188 
22299000    142.89347   -4469.9475    -4225.033   -4469.9475            0    1443.1657    18.073458    23.488294    21.747754    9232.2409     209.4985    1188.9815     2931.017     -30.0801    -85.28677    1101.2206   -4030.7212 
22300000    144.75224   -4491.2521   -4243.1517   -4491.2521            0    1769.8571    17.997956    23.324507     21.96094     9219.059    1150.4601    1686.8954    2472.2157   -176.29745    4.1985368   -64.087322   -4005.1935 
22301000    143.67096   -4464.8876   -4218.6404   -4464.8876            0    1880.9202    17.863077    23.249654    22.189644    9215.5888    2166.1042    2448.0795     1028.577   -196.79294   -318.16797     137.1287   -3965.8449 
22302000    142.32437   -4481.6129   -4237.6738   -4481.6129            0    2512.2624    17.971917    23.223865    21.985749     9176.354     1613.961    3450.2322    2472.5939    131.68473   -87.755819   -580.13654   -3901.4635 
22303000    141.72629   -4490.0135   -4247.0995   -4490.0135            0    1963.8027    18.019579    23.474721    21.840856    9238.7822    2023.3998    1762.1753    2105.8329   -639.08942    208.62257   -24.548172   -3982.5003 
22304000    149.58721   -4479.3482   -4222.9609   -4479.3482            0    2316.8934     18.09388    23.304084    21.808776    9195.9166    1440.2041    2748.4139    2762.0621    563.41617   -59.902547   -174.25167   -3912.2353 
22305000    135.82245   -4467.1704   -4234.3754   -4467.1704            0    1809.4619    17.962938    23.287631    21.980248    9194.6514    940.80678    2943.4845    1544.0945   -783.84692   -466.92257    793.45369   -3991.7364 
22306000    147.83135   -4464.2309    -4210.853   -4464.2309            0    3089.8784    17.663216    23.474071    22.015722    9128.3256     4561.631    2353.0655    2354.9386   -280.15934   -327.68731    -324.7213   -3799.5059 
22307000    148.08263   -4486.8808   -4233.0722   -4486.8808            0    2779.9627    17.973932    23.282085     21.87029    9152.0737    1829.1613     2602.073    3908.6539   -1404.3278   -814.14102   -449.91976   -3862.0205 
22308000    144.33079   -4481.8392   -4234.4611   -4481.8392            0    2070.7267    17.916085    23.370255    21.963461    9196.1775    2535.6694    1179.0723    2497.4385   -828.03566   -140.22611    122.43285   -3956.7419 
22309000    143.95921   -4474.0636   -4227.3225   -4474.0636            0    2120.2901    17.869882    23.253619    22.157231    9207.2034    3418.6066    1564.5696    1377.6942   -305.96132   -469.47554    343.25181    -3942.615 
22310000     138.2752   -4491.5577   -4254.5588   -4491.5577            0     2341.988    17.925732    23.327186    22.008335    9202.9367    1804.7227    2788.1781    2433.0631    170.27799   -167.75061    432.87389   -3940.2279 
22311000     143.6209   -4484.8811   -4238.7198   -4484.8811            0    1709.2592    17.909899    23.524266    21.874351    9216.0409    2609.5021    1183.4361    1334.8395   -840.81844    -62.59071    536.34821   -4008.9842 
22312000    141.51302   -4464.9628   -4222.4143   -4464.9628            0    1999.7377    18.139367    23.309764    21.767055    9203.6411    287.42853    2838.8971    2872.8875   -373.93012   -269.18976    418.97809   -3953.9982 
22313000     146.8391   -4467.8848   -4216.2076   -4467.8848            0    1277.8195     17.96254     23.41869     21.97978    9245.9956   -84.419964    1907.8793    2009.9991    509.25053    375.73184   -321.22212   -4043.9021 
22314000     145.4243   -4486.0557   -4236.8034   -4486.0557            0    2561.3904    17.891834    23.417978    21.877755    9166.5733      2519.47    2568.9362     2595.765   -254.55753    85.880293    72.881087   -3894.3838 
22315000    137.11618   -4485.4177   -4250.4053   -4485.4177            0    1444.0882    18.095827    23.185748     21.98518    9224.2177    100.38237    1407.8763    2824.0058    354.74036     52.10438    214.03447   -4056.1383 
22316000    145.28581   -4467.5741   -4218.5592   -4467.5741            0    1937.6949    17.863813    23.461494    21.989913     9216.231    2415.8228    2162.6912    1234.5708    177.64008   -348.52842   -277.95621    -3958.115 
22317000    138.47676   -4495.0494    -4257.705   -4495.0494            0    861.99445    17.967778     23.23534    22.205187    9270.3866    329.52785    1792.9262    463.52934   -255.01861   -286.69268    613.65278   -4141.1641 
22318000    141.30872   -4478.9968   -4236.7985   -4478.9968            0    2294.1313    17.919957    23.348782     21.96217    9189.1734     2164.303    2669.0809      2049.01    608.69672   -417.72371    -49.44301   -3929.3513 
22319000    138.32209   -4495.8331   -4258.7538   -4495.8331            0    1124.6886    18.043766    23.385382    21.890952    9237.1138    1711.2603    1202.4662    460.33932   -324.44529   -62.515691   -65.275939   -4107.2427 
22320000    141.53039   -4477.3812   -4234.8029   -4477.3812            0    1596.0692    18.028266    23.531038    21.751976    9227.7062     1928.421    931.69286    1928.0938    378.86887    56.056728   -41.277632   -4020.0093 
22321000    145.30491   -4484.2542   -4235.2066   -4484.2542            0    2713.4413    17.899517    23.322405    21.919391     9150.464    2885.3219    1927.5603    3327.4416   -740.52935    240.23868    7.3322042   -3873.0975 
22322000    156.03327   -4467.6944   -4200.2587   -4467.6944            0    2060.9951    17.954121    23.134203    22.182063    9213.4149    1503.5339    2737.3747    1942.0767    -731.5776   -128.34063    186.22767   -3923.3265 
22323000    141.85057   -4497.4336   -4254.3066   -4497.4336            0    1530.9235    17.935944    23.379906    21.983291    9218.4884    1719.3394    1026.8752    1846.5559    119.09657   -818.73546     70.35159   -4048.4859 
22324000    145.24264   -4490.0649    -4241.124   -4490.0649            0    730.70166    18.051443    23.410065    21.919722     9262.956    1057.3887    198.73809    935.97815   -279.37917    392.77726   -369.51535    -4142.413 
22325000    136.01421   -4472.4438   -4239.3201   -4472.4438            0    2217.4562    17.978799    23.365422     21.93916    9216.2512    3173.2907    1134.6268    2344.4512    70.952757    170.14598   -247.40721   -3941.2728 
22326000    145.05594    -4487.374   -4238.7531    -4487.374            0    1884.4224    17.728651    23.518105    22.146128    9233.7014    2815.3601    1650.6477    1187.2593   -109.64729   -94.145707    314.98825   -3984.9891 
22327000     137.3059   -4482.8457   -4247.5081   -4482.8457            0     1222.869    18.085984    23.219887    21.969238    9226.0806    197.67929    2073.3355    1397.5921   -482.57687    474.62166    634.94739   -4082.9675 
22328000    151.00708   -4469.6077   -4210.7867   -4469.6077            0    1272.0285    17.891622    23.610858    21.866659    9237.2764     2063.206    1052.6255    700.25393   -292.52656    265.62277   -812.14622   -4039.4238 
22329000    143.46783   -4483.8234   -4237.9245   -4483.8234            0     1390.407    18.098229    23.233582    22.003339     9252.111    785.17378    1429.4535    1956.5938   -228.98246   -133.87741    144.19765   -4050.3133 
22330000    156.42104   -4479.8353    -4211.735   -4479.8353            0    2507.8763    17.883027    23.443996      21.8524      9161.61    3364.8038    1607.5402    2551.2848   -423.44024    -74.61391   -497.17469    -3876.651 
22331000     147.2367   -4486.9935   -4234.6349   -4486.9935            0    2518.3675    17.938658    23.352894    21.927462     9185.843    1237.9904    2592.4408    3724.6712   -149.71925    335.21929   -377.11487    -3897.259 
22332000    143.11609   -4490.1431    -4244.847   -4490.1431            0    2672.5492    18.038014    23.149053    21.949488     9165.293    1745.3558    3798.1129    2474.1789   -182.70477   -178.51392    806.76009    -3887.617 
22333000    139.84992   -4487.2642   -4247.5662   -4487.2642            0    1187.3033    17.846765    23.616629     21.88776    9225.2625    955.70083    550.05745    2056.1516    342.09128    332.40137   -298.83202   -4087.8253 
22334000    155.15934   -4477.2325   -4211.2947   -4477.2325            0    1112.9218     18.02023    23.396897    21.964468    9260.6032    3117.5219     792.6843   -571.44077    223.30908   -54.681954   -249.00179   -4060.9875 
22335000     142.8474   -4480.5107   -4235.6751   -4480.5107            0    2999.7102    17.820983    23.372089    21.983622    9156.4772    4208.8102    2726.4102    2063.9103   -405.89114    -9.846841    604.04325   -3835.1003 
22336000    142.30998   -4480.5158   -4236.6014   -4480.5158            0    1868.1777    17.952365    23.119389     22.16146    9198.0633    1804.5535    2965.0555    834.92429   -455.36815   -396.15153    674.91844   -3985.9959 
22337000    145.64172   -4493.4119    -4243.787   -4493.4119            0    1673.2426    17.989867     23.33133    21.956964    9215.9419    1691.6505    1728.6085    1599.4686   -308.26029    207.58112     -181.342   -4018.8947 
22338000    145.63218   -4467.6189   -4218.0103   -4467.6189            0    1806.2584    18.021416    23.455471    21.903085    9258.4518    1726.0997    2086.1206    1606.5549    981.58816   -249.48377   -89.643161   -3974.1202 
22339000    133.99016   -4480.5078   -4250.8533   -4480.5078            0    2998.3435    18.023537     23.20119    21.900317    9158.0006    2557.8294    2252.1566    4185.0446    276.34474    670.77299    724.50365   -3850.3944 
22340000    141.09874   -4474.5681   -4232.7297   -4474.5681            0    1904.2426    17.896189    23.533345    21.964172    9250.3685     1602.855    804.99605    3304.8767   -452.15963   -68.185858    149.74542   -3975.8338 
22341000    132.25863   -4480.0107    -4253.324   -4480.0107            0    3062.0955    18.021477    23.386251    21.864958    9215.0917     2893.214    3153.0798    3139.9927   -17.365673   -624.96713    216.41718   -3841.8008 
22342000    145.25387   -4476.7596   -4227.7994   -4476.7596            0    1030.2974     18.02703    23.313392    22.064489    9273.0697    1647.8773    1007.1405    435.87433    748.05741   -239.83844    377.22477   -4088.4638 
22343000    139.60658    -4487.413   -4248.1321    -4487.413            0    2530.9497    17.870129    23.424274    21.976231    9199.1363    3127.0058    2373.5967    2092.2466   -76.066128   -162.52961   -60.381302     -3908.58 
22344000    143.03833   -4486.6622   -4241.4994   -4486.6622            0    1524.1895    18.003716    23.270598    22.066964    9245.1143     1834.103    1451.5951    1286.8705    102.32297    397.19454   -486.34004   -4035.9922 
22345000     138.1296   -4482.6686   -4245.9192   -4482.6686            0    1562.0755    17.803301    23.594058    22.010162    9245.4155    2256.7865    698.98386    1730.4561    708.35728   -209.98459    136.63853   -4035.2969 
22346000    136.58297   -4458.1746   -4224.0761   -4458.1746            0    2307.9569    17.960271    23.332016     21.92303    9186.8312    2560.8636    1922.6998    2440.3072   -174.45105    152.42486   -650.37909   -3914.8548 
22347000    140.01638   -4472.8983    -4232.915   -4472.8983            0    2419.8497    18.059953    23.239886    21.920809    9200.4102    2018.6321    3017.4681    2223.4489   -957.55806   -335.03807    929.21059   -3908.2231 
22348000    132.62529   -4478.9253   -4251.6101   -4478.9253            0    2229.3094    17.785067    23.406784     22.00876    9162.0537    2376.5814     1885.705    2425.6417   -641.70379   -325.10811   -299.71634   -3953.7317 
22349000    147.40138   -4484.4924   -4231.8515   -4484.4924            0    2668.2181     17.94878    23.190805    22.073957    9188.2105    3385.2653    3608.3766    1011.0125    955.06357    439.16734    434.34771   -3874.3086 
22350000     139.6374   -4485.7049   -4246.3712   -4485.7049            0    2438.5955    17.961823    23.260663    21.938486    9165.9852    2112.5393    3245.3626    1957.8845   -540.04715    549.58411    848.08834   -3920.3883 
22351000    133.12379   -4477.0791   -4248.9095   -4477.0791            0    3661.0096    17.846351    23.320169    21.934624      9128.75    4879.1442    3092.8561    3011.0285   -663.09791   -351.85764    47.463949   -3761.5067 
22352000    147.05716   -4478.1429    -4226.092   -4478.1429            0    1660.6551    18.038428    23.383142    21.886909    9231.7921    2012.2271    490.83093    2478.9073    147.23645   -45.495113    328.58097   -4002.5076 
22353000    147.20199   -4480.7788   -4228.4796   -4480.7788            0    1115.7314    18.110143    23.483527    21.765813    9256.7835     468.2677    1655.5416     1223.385   -854.74628    206.52218    49.579104   -4077.8551 
22354000    145.31245   -4483.5203   -4234.4597   -4483.5203            0    1936.8651    17.963681    23.432059    21.889182    9213.7265    3006.9678     1399.537    1404.0905   -368.47924    527.76415    387.53468   -3974.1978 
22355000    151.21699   -4480.4193   -4221.2386   -4480.4193            0    1897.7047     17.83539    23.237285    22.197221    9199.5505    2936.7877    2369.2375    387.08903   -1225.5728    680.17246    389.36628   -3966.6311 
22356000    136.15856   -4481.8596   -4248.4885   -4481.8596            0    1501.5366     17.87172    23.342284    22.085627    9213.3896    1727.1168    2109.9461    667.54697    -968.3576    253.97003   -498.53078   -4046.7303 
22357000    140.61172   -4487.3574   -4246.3538   -4487.3574            0    1553.6225    18.133735    23.390963    21.766371    9232.5441    1200.4903    829.91746    2630.4598   -783.06768    305.47055   -171.13769   -4037.1629 
22358000    139.33325   -4475.2064   -4236.3939   -4475.2064            0    2251.5732    17.933574    23.498795    21.869549    9216.2079    2041.8423    2423.1861    2289.6911    200.28607   -136.87291    -156.4504   -3933.7624 
22359000     140.0397   -4479.5389   -4239.5156   -4479.5389            0     753.9244    17.932638    23.354106    22.137773    9271.3154    1633.4914    238.02215     390.2597    173.78879    53.719441   -335.46325   -4137.5755 
22360000    138.80252   -4479.6489   -4241.7461   -4479.6489            0    842.19753    18.030737    23.319826    22.043791    9268.8335    1188.3255    195.23566    1143.0314    77.605681    671.06549   -89.382834   -4127.9009 
22361000    141.16006    -4466.696   -4224.7525    -4466.696            0    2899.8018    17.831071     23.77327    21.638574    9172.6532    2656.5798    2167.5032    3875.3225     662.8592    471.65006    257.53307   -3836.8352 
22362000     150.5621   -4494.8417   -4236.7834   -4494.8417            0    762.12743    18.094456    23.208166    22.050779    9259.9854   -219.18439    2741.3294   -235.76271    205.06306     13.21021   -174.56234   -4133.8601 
22363000    143.84247   -4484.5822   -4238.0412   -4484.5822            0    1902.3157    17.822035    23.369088    22.113087    9209.7624    2625.5779    2340.2635    741.10561    588.73011    188.18958   -162.10882   -3982.5317 
22364000    149.33913   -4470.5769   -4214.6148   -4470.5769            0    2492.6007    17.905501    23.391424    21.898722    9171.9549    2834.3357    2378.6701    2264.7964    570.38018    233.99663    20.229894   -3881.1956 
22365000    146.97651   -4472.8603   -4220.9476   -4472.8603            0    2052.0408     18.10829    23.321793    21.826051    9217.5295    183.64218    2105.0516    3867.4285    368.57343    185.84226    375.24478   -3945.0954 
22366000    142.85268   -4490.0293   -4245.1847   -4490.0293            0    2645.1663     17.85597    23.519245    21.863269    9181.6749    2583.0744     1547.656    3804.7685    -692.2928    100.90891    432.54162   -3890.9829 
22367000    139.35829   -4493.6846   -4254.8293   -4493.6846            0    2519.0821    18.097861    23.133621    21.947235    9188.6281    1989.1731    2465.5023    3102.5708    456.92659   -796.59227    305.94538   -3917.2554 
22368000    137.82165   -4486.4381   -4250.2166   -4486.4381            0    1230.6263    18.023987    23.382952    21.980446    9263.7474     1160.089    1420.3345    1111.4553   -1118.8205    560.42222   -601.09637   -4083.9562 
22369000    148.85546   -4483.6818   -4228.5486   -4483.6818            0    2539.0575    17.947725    23.528923     21.70885    9167.4443    2011.8834    1887.7751     3717.514    959.05082   -142.30964   -419.22289   -3889.0823 
22370000    139.92359   -4488.0791   -4248.2548   -4488.0791            0    1076.1696    18.084904    23.296195    21.939416    9243.2835     290.4586    1697.9584    1240.0919   -52.198964   -358.72039   -358.49765    -4103.183 
22371000    141.13296   -4486.5685   -4244.6714   -4486.5685            0    1535.8195    17.793041    23.546815    22.061409    9243.0561    1520.7362    825.06002    2261.6622   -227.47827    256.65437    25.503978   -4037.6422 
22372000    148.28859   -4472.8794   -4218.7178   -4472.8794            0    1740.3751    18.084231    23.148815    22.073333    9240.5268     1379.167    2082.5607    1759.3976    62.482193   -213.29208   -24.534513   -3984.1786 
22373000    138.86547   -4497.1634   -4259.1527   -4497.1634            0    1305.0765    18.023647    23.402487    21.917765    9244.8728     1261.536    1346.1763    1307.5171   -251.95564   -108.14273    130.21348   -4083.1932 
22374000    143.28623     -4469.72   -4224.1323     -4469.72            0    990.66268    17.911908    23.550811    21.994013     9277.954    1476.0983    1067.2241    428.66561   -843.79222    7.0194457    691.66574   -4090.0863 
22375000    149.72623   -4469.3421   -4212.7165   -4469.3421            0    2133.9248    18.051479    23.067854    22.103647     9204.155    2085.5919    2347.8586    1968.3238   -78.502037   -84.166054     292.9963    -3926.273 
22376000    149.63334    -4494.016   -4237.5496    -4494.016            0     2626.912    17.922823    23.534867     21.82395     9205.588    3132.1768     2258.003    2490.5563    790.48242   -237.50219    114.26714    -3884.876 
22377000    147.49642   -4485.1025   -4232.2987   -4485.1025            0    2276.4407    18.001913    23.440935    21.799342    9198.9225    1407.9153    2181.0052    3240.4016     374.2993   -324.14019     379.7698   -3926.8986 
22378000    149.13046   -4489.2455    -4233.641   -4489.2455            0    2326.8875    18.121436    23.321855    21.770179    9200.6327    1966.9304    1548.1847    3465.5473     165.2739   -171.58226    126.27446   -3921.4151 
22379000    148.86059   -4480.7909    -4225.649   -4480.7909            0    1240.8622    17.947053    23.413899    22.019946    9253.0127    1200.8414    1878.3435    643.40161   -266.01647    72.711274    328.03952      -4058.2 
22380000     135.0073   -4480.3261   -4248.9282   -4480.3261            0    1597.8751    17.854214    23.256652    22.185767    9212.1793    1232.0235    1974.4465    1587.1552   -795.37752   -615.49221   -108.41356   -4034.2534 
22381000    139.74844   -4496.9703   -4257.4463   -4496.9703            0    1220.8926    18.046691    23.337764    21.967927    9252.2191    922.82388    1915.7948    824.05912   -483.51652   -680.85297    444.93107   -4092.7062 
22382000    142.07335   -4462.5654   -4219.0565   -4462.5654            0    2218.2771    18.026541    23.444974      21.8429    9231.5036    1517.4416    2048.5016    3088.8882    370.19908   -583.18489   -226.69505   -3920.4054 
22383000    144.36771   -4490.8028   -4243.3615   -4490.8028            0    1815.6408    18.177908    23.127244    21.917865    9214.3781    2251.9433    2419.8651    775.11411    414.59673   -449.04577    426.29612   -3999.3716 
22384000    141.26745   -4493.3627   -4251.2352   -4493.3627            0     1518.971    17.868696    23.431747    22.018706    9219.1166    861.68616    1488.0664    2207.1605    246.34284    -26.40831    -201.8083   -4047.0075 
22385000    137.84912   -4495.3386   -4259.0699   -4495.3386            0    1858.9828    17.927419    23.337693    22.010558    9208.8789    2517.0117    1442.9282    1617.0084   -282.76565   -184.08937   -423.56497   -4009.4047 
22386000    141.75025   -4480.7621    -4237.807   -4480.7621            0    1407.2384    18.152441    23.278997    21.870198    9241.7028   -419.98189    1781.5179    2860.1791    -405.8721   -61.972922   -138.62479   -4048.1384 
22387000       144.21   -4501.2298   -4254.0588   -4501.2298            0    1035.6268     17.98633    23.483635    21.942484    9268.1633    700.15571    779.21636    1627.5082   -779.85529   -657.03672    350.49516   -4114.0766 
22388000    152.55261   -4498.4326   -4236.9627   -4498.4326            0    2032.9673    18.042561    23.370395    21.830973    9205.2866    2633.5299    697.09647    2768.2754   -276.34608   -222.11346    -156.9067   -3964.0375 
22389000    131.38598   -4486.3013   -4261.1102   -4486.3013            0    2165.2141    17.927894     23.36991    22.015619     9223.956    695.92644    2737.5597    3062.1561    142.90176    143.09315   -7.0172142   -3969.8414 
22390000    140.68392   -4478.0295   -4236.9021   -4478.0295            0      1745.83    17.889996    23.316606    22.069781    9206.0553    983.35417    1644.8727    2609.2632    949.72595    441.49191    837.22459   -4002.5054 
22391000    137.13136   -4488.5375   -4253.4991   -4488.5375            0     2813.069    17.869404    23.279314    22.064294    9178.4697    3408.3748     2993.618    2037.2143    156.45635     59.95316    -338.7882   -3876.9457 
22392000    144.02989   -4491.4548   -4244.5925   -4491.4548            0    1824.5303    17.975553    23.412421    21.888211    9211.6802    2195.3445    777.50451    2500.7418    487.58458    109.27639    166.35226   -3999.4798 
22393000    136.65135   -4481.4528    -4247.237   -4481.4528            0    3168.8772    17.963477    23.384576    21.807204    9160.5151    3132.6183    2248.4902     4125.523   -176.20215   -989.22234   -91.946805   -3823.8855 
22394000    140.73826   -4481.7857   -4240.5652   -4481.7857            0    2018.4435    18.021799    23.258408    21.929226    9191.8181    2560.9667    1722.0934    1772.2703   -1031.0343   -839.63559    197.05118   -3969.9863 
22395000    148.86393   -4480.5295   -4225.3819   -4480.5295            0    2100.7104    17.814476    23.587592    21.924094    9212.5172    2252.0945    1892.2072    2157.8295    -1165.182   -38.673132    -166.5744   -3943.1407 
22396000     146.2844   -4497.9304    -4247.204   -4497.9304            0    3060.6718    17.983011    23.171977    22.040958    9184.5094     3757.285     3388.867    2035.8634     497.1235   -283.58424   -147.83804   -3837.2372 
22397000    138.17946   -4488.7911   -4251.9562   -4488.7911            0    2579.0541    17.942481    23.263925    21.988662    9178.3432    1800.5455    3623.1055    2313.5114    207.58319    32.653556    102.34332   -3906.7325 
22398000    133.22127   -4483.4152   -4255.0785   -4483.4152            0    2305.7717    17.835474    23.320564    22.086191    9186.3823    3340.1924     2351.137    1225.9857    27.518128   -507.21131    232.82723   -3946.1651 
22399000    152.26207    -4475.578   -4214.6061    -4475.578            0    1447.1353    18.085582    23.188771    22.033146    9240.3141    1255.4002    679.02751    2406.9781    1092.9582   -76.215686    401.58832   -4019.5894 
22400000    141.27896    -4480.475   -4238.3277    -4480.475            0    2389.2545    17.898218    23.592962     21.74173    9180.9231    2307.2221    1853.3052    3007.2361   -592.55347   -237.98899   -315.70222     -3918.42 
22401000    146.29535   -4476.9403   -4226.1951   -4476.9403            0    854.67743      18.1032    23.228633    22.015663     9257.863   -844.24564     2034.803    1373.4749    310.52308    244.66081    508.48424   -4110.7996 
22402000    135.96315   -4487.5397   -4254.5035   -4487.5397            0    1944.4286    17.899903    23.454775     21.91192    9199.4612    3071.1089    1750.5737    1011.6033    147.58542   -338.79888    257.75119   -3993.6298 
22403000      138.537    -4466.708   -4229.2604    -4466.708            0    2435.3926    17.987095    23.441406    21.771533      9179.81    3133.0465    930.11486    3243.0163    334.14543   -191.22847    209.06939   -3903.2146 
22404000    133.08497   -4479.9606   -4251.8575   -4479.9606            0    1238.3313    18.074957    23.400472    21.945041    9281.9302    553.03474    23.989274      3137.97    424.40275     101.1363    943.79647   -4084.2278 
22405000    137.67929   -4475.1443   -4239.1667   -4475.1443            0    2078.6657    17.829492    23.455638    21.983605    9193.5905    1606.0903    2359.0075    2270.8991   -491.90184    441.65207    346.68131   -3960.4611 
22406000     130.4593   -4489.6836   -4266.0809   -4489.6836            0    1885.7698    17.953912    23.152724     22.14129    9203.7351    2058.2593    2679.6226    919.42759    346.76586    145.90549     147.6802   -4012.9596 
22407000     141.2449   -4487.4855   -4245.3965   -4487.4855            0    1669.4173    17.861533    23.454333    22.066379    9244.2753     2238.487    1213.7233    1556.0414   -245.29157   -107.47332     663.6614   -4020.3286 
22408000    138.78295   -4486.7173   -4248.8481   -4486.7173            0    2723.7682    17.915335    23.410037    21.921926    9194.0262    3093.0792    3098.5589    1979.6667    574.29377    149.76004    43.756336   -3883.6304 
22409000    136.18391   -4473.8312   -4240.4166   -4473.8312            0     1319.967    18.055918    23.273234    22.022249    9254.1811    1073.3964    1223.5035    1663.0012     264.3564    488.89644    1158.2483   -4062.2703 
22410000    148.15805   -4474.0342   -4220.0964   -4474.0342            0    2144.0264    17.881033    23.384467    22.031652    9212.2805    1411.4177    1943.1286     3077.533   -649.58685   -89.715704   -86.820443   -3932.0429 
22411000     138.4538   -4493.6981    -4256.393   -4493.6981            0    1746.7347    17.984061    23.192631    22.135443    9232.6422    903.84155    2032.1679    2304.1947    1090.1004   -256.01502   -216.05926   -4021.1976 
22412000    137.49977   -4480.5489    -4244.879   -4480.5489            0    1300.5708    17.971504    23.322642    22.049696    9241.9746    586.28278    2214.9186    1100.5111    1166.0063    202.58963     117.1947   -4069.5819 
22413000    143.45008   -4483.4174   -4237.5488   -4483.4174            0    2260.1359    18.055816    23.522588    21.678499     9207.282    1262.5887    881.62583    4636.1931    156.22678   -558.94238    471.41195   -3934.0606 
22414000    146.01364    -4495.158   -4244.8956    -4495.158            0    2242.6048    18.070873    23.341368    21.855534    9218.6404    1951.2987    2235.5567    2540.9591    262.62948   -716.62817   -451.19095   -3943.3899 
22415000    140.57728   -4482.0512   -4241.1066   -4482.0512            0    1543.2361     17.85208    23.441517    22.081588    9240.6993    2117.7486    549.90479    1962.0548    59.111491     301.8761    421.91447   -4033.1306 
22416000    149.93243   -4487.9489   -4230.9698   -4487.9489            0    2319.6286    17.917681     23.28919    22.067987    9208.7121    1680.9687    2688.9257    2588.9916    -231.1252   -191.24889   -301.98282   -3919.4446 
22417000    143.07067   -4498.0173    -4252.799   -4498.0173            0    1094.8025    17.903613    23.446238    22.026147     9245.968    1200.7024    249.27653    1834.4286   -32.156148    654.50297    134.71351   -4105.1726 
22418000     146.8379   -4466.6373   -4214.9621   -4466.6373            0    1268.2241    18.032777     23.37013    21.970601    9259.0341    2141.2113    1516.3637    147.09723    170.34877    728.48652    558.33086   -4043.7094 
22419000    146.84693   -4471.4635   -4219.7729   -4471.4635            0    2333.0976    18.060209    23.285621    21.866692    9195.8887    1712.6073    1535.6489    3751.0368    257.07404    232.12205   -299.42415   -3906.8751 
22420000     143.5952   -4481.8742   -4235.7569   -4481.8742            0    2904.8859    17.930711    23.316087    21.911872    9160.7843    3923.0681    3040.3588    1751.2309    269.32844   -282.15766    322.16046   -3847.6623 
22421000    133.75108   -4468.9479   -4239.7031   -4468.9479            0    1508.8135    17.842361    23.443903    22.051345    9223.9581    1408.6146    2010.8456    1106.9804    -630.9268   -107.17976    743.02842   -4036.7345 
22422000    144.85959    -4489.767   -4241.4826    -4489.767            0    1622.5542    18.094486    23.272432    21.935936    9237.2819    1780.2284     1554.127    1533.3072    1035.0866    21.797358    161.25217   -4022.8981 
22423000    138.08249   -4479.7567    -4243.088   -4479.7567            0    2876.4699    17.929886    23.357163    21.908778    9175.2051    2493.6164    3479.3387    2656.4546    708.11307    154.84047   -51.793386   -3858.1848 
22424000    145.39382   -4496.9831   -4247.7831   -4496.9831            0    2009.3585    18.016774     23.33212    21.938189    9222.1461    2469.5961    1944.0011    1614.4783    1213.4372   -485.79706    456.08885   -3977.5333 
22425000    144.92546   -4478.2276   -4229.8303   -4478.2276            0    1914.6609    17.888472    23.337541    22.100629    9226.4145    1703.9872    2022.2204     2017.775   -212.38569    94.263402    314.17249   -3972.1978 
22426000    139.59856   -4482.5765   -4243.3094   -4482.5765            0    1315.8716    17.944928    23.373943    22.047839    9247.8279    1337.3696    502.87442    2107.3708    392.77667   -49.844096   -204.53916   -4065.8376 
22427000    141.43857    -4461.546   -4219.1251    -4461.546            0     3161.319    18.096115    23.170899    21.908124    9186.1478    2287.9902    3586.5188    3609.4479    389.60345    33.384566    221.29188   -3795.6015 
22428000    146.64818   -4474.1324   -4222.7824   -4474.1324            0    2412.0074    17.787548     23.35397    22.165532    9207.7807    3659.6934     3059.842    516.48687    502.24628   -1382.4919    249.44481   -3898.8835 
22429000    142.06569   -4484.2446   -4240.7488   -4484.2446            0    1529.8232    17.972014    23.184876    22.127871    9220.2175    1873.8002    2216.3279    499.34157   -321.93084    273.23489   -213.94005   -4035.0375 
22430000    135.24206    -4475.731   -4243.9308    -4475.731            0    1429.6611     17.99755    23.503399    21.850436    9242.8126    2441.6259     406.3066    1441.0506    339.07905   -523.85763   -246.98221   -4051.2168 
22431000    138.81046   -4469.2789   -4231.3625   -4469.2789            0    1950.0015    17.954963    23.363352    21.953894    9209.3974    2436.2152    1113.9854     2299.804   -720.75026    307.19959    838.46918   -3969.4585 
22432000    145.87027   -4469.1633   -4219.1466   -4469.1633            0    1842.4977    17.985743    23.276523    22.140306    9268.9407    2695.2912    3357.3961   -525.19433    217.85712   -349.76516    97.906676   -3970.0815 
22433000    135.41148   -4478.6085   -4246.5179   -4478.6085            0    2558.1535    17.876378    23.414172    22.028382    9220.2127    3124.9813    2091.5116    2457.9675   -418.92604    411.35243    543.00057   -3902.5298 
22434000    141.38363   -4492.6394   -4250.3127   -4492.6394            0    1366.1024    17.932247    23.448477    22.022377    9260.0546    1721.4318    398.65445    1978.2209   -525.90857   -182.65736   -160.85746   -4065.8228 
22435000    145.34647   -4475.2027   -4226.0839   -4475.2027            0    1956.5321    18.095639    23.172171     21.95408    9205.6804    1341.1158    4229.1374    299.34315   -350.81732   -639.48544   -207.09302   -3963.4089 
22436000    139.19726   -4463.6366   -4225.0573   -4463.6366            0    3343.7123    17.817104    23.468064    21.887754    9151.9907    6157.9003    1868.3557     2004.881    86.634595    231.20754    58.028284    -3778.764 
22437000    140.46669   -4487.3998   -4246.6447   -4487.3998            0    1788.3882    18.029676    23.236253    22.030267    9229.4065    2204.3759    2298.0608    862.72783   -46.038922    651.78168    489.01635   -4005.9251 
22438000    151.88314   -4480.2198   -4219.8973   -4480.2198            0    1917.1873     17.98152    23.238848    22.138985    9251.2132    2617.5836    2036.5587    1097.4196    335.02381   -145.95339   -617.14812   -3961.2314 
22439000    140.68046   -4495.8105    -4254.689   -4495.8105            0    1515.4628    17.787139    23.439974    22.157714    9238.2173    1453.4847    1441.3375    1651.5663   -445.43104   -795.74076    632.16529   -4050.5108 
22440000     148.1994   -4466.7844   -4212.7757   -4466.7844            0    1926.8371    18.044386    23.362659    21.906735     9235.109    1475.7336    2376.7831    1927.9947   -748.93499   -339.55355    387.54232   -3953.2604 
22441000     141.2797   -4472.1556    -4230.007   -4472.1556            0     1691.468     18.12314    23.484289    21.737321     9251.601    774.25646    1721.4726    2578.6748    663.93176    777.63338    271.07082   -4001.7855 
22442000    143.81388   -4478.7128   -4232.2207   -4478.7128            0    2256.7275    17.938658    23.337572    22.001559    9210.8367    2718.8704    2848.1526    1203.1596   -185.16486    237.34659    218.31105   -3929.0731 
22443000    139.41856   -4472.0898   -4233.1312   -4472.0898            0    1050.8252     17.95021    23.233869    22.219278    9266.6128    1797.6003    728.24488     626.6306    458.73818    191.31651    203.05475   -4091.1184 
22444000    146.58022   -4470.3063   -4219.0729   -4470.3063            0    2086.9615    17.928153    23.402522    21.908672    9192.0896    2453.5944     2355.408    1451.8822   -369.14275    19.898283    55.694842   -3939.3006 
22445000    143.09555   -4487.9904   -4242.7295   -4487.9904            0    1472.5166    18.133716    23.339358    21.866012     9254.337    1201.6257    1454.4838    1761.4403    580.13075   -225.20579    300.90092   -4043.9913 
22446000    137.90969   -4471.6042   -4235.2317   -4471.6042            0    1041.2469    17.873633    23.455607    22.103484    9266.5964    1596.9412    1104.0314    422.76828   -332.04437   -187.99322    29.375344   -4094.5136 
22447000    141.64465   -4478.8224   -4236.0483   -4478.8224            0    1492.1065    18.014055    23.317595     21.98694     9235.492    2028.3601     1105.675    1342.2843    80.219104    143.82002    260.67135   -4035.0762 
22448000    144.52912    -4484.074    -4236.356    -4484.074            0    1211.9967    18.059358    23.367397    21.962487    9268.1739     1389.549    1347.4669    898.97429   -93.922952   -260.28625     381.8949   -4072.5343 
22449000    148.34759    -4480.541   -4226.2783    -4480.541            0    1164.8964    17.867943    23.501584    22.016149    9245.1303    1753.4222    1296.5735    444.69358   -31.161998    343.16748   -401.77184   -4069.2145 
22450000    145.96731   -4488.8546   -4238.6717   -4488.8546            0    1396.5648     18.01415    23.184131    22.114195     9235.826     2135.326    1606.6752    447.69327   -339.20775    159.00154    478.47778   -4050.5613 
22451000    141.42428   -4478.6189   -4236.2225   -4478.6189            0    772.45987    17.913467    23.548087    22.055119    9303.4638      1957.64    542.04991   -182.31028    395.21536   -30.051999    385.44833   -4131.4141 
22452000    142.64943   -4473.0079   -4228.5116   -4473.0079            0    2519.5981    18.009178     23.33854    21.832993    9176.5801         2072    2055.7267    3431.0675   -1077.4666    710.92362   -558.23427   -3891.3113 
22453000    143.71372   -4496.2385   -4249.9181   -4496.2385            0    1665.3622     17.95474    23.380716    21.922645    9203.0098    1710.2681    389.06812    2896.7503    34.486912   -115.21987    237.22777   -4026.3991 
22454000    136.48921    -4480.937   -4246.9992    -4480.937            0    1361.1303    17.928048    23.486286    21.924881    9231.7617    768.34225     1959.038    1356.0108    752.04483    417.33593    422.35277   -4063.7423 
22455000    136.20417   -4490.8014   -4257.3521   -4490.8014            0    1878.3351    18.032946    23.289546    21.973162    9228.2693     1125.597    1697.5831    2811.8251    336.62758   -20.011149    562.53465   -4004.5567 
22456000    140.23705   -4487.5097   -4247.1482   -4487.5097            0    684.97608    18.022873    23.312371    22.081443    9277.6485   -394.97786     112.1387    2337.7674   -372.35733   -395.98274   -41.490364   -4154.4675 
22457000     137.6598   -4476.1818   -4240.2376   -4476.1818            0    1363.9416    17.859693    23.525991    21.922684    9211.1881    841.26781    1100.3938     2150.163    34.203049   -295.50239   -23.303285   -4057.0115 
22458000    141.06917    -4467.568   -4225.7802    -4467.568            0    2369.1495    18.061024     23.27424    21.908874      9209.54    2764.5665    1358.0387    2984.8434    765.59777    -148.4282   -595.15618   -3907.5758 
22459000    142.63222    -4483.883   -4239.4163    -4483.883            0    1740.3612    17.916029    23.554117    21.871948    9229.8802    2532.8158    1451.0567     1237.211   -459.43725    -429.5741    13.554196   -4005.1492 
22460000    144.81064   -4471.6653   -4223.4648   -4471.6653            0    2018.5159    17.939678    23.317276    22.058078    9226.9916    772.24333    2615.1432    2668.1612    8.0278842   -86.901046   -219.81837   -3951.8407 
22461000    142.00638   -4486.4996   -4243.1055   -4486.4996            0    1452.5621     18.12397    23.125865    22.108539     9266.407    371.34526    2128.9725    1857.3687   -543.50274    448.08258   -427.20828   -4046.8047 
22462000    146.95702    -4486.447   -4234.5677    -4486.447            0    2584.8696    17.910532    23.362164    21.894896    9161.4543    2658.3608    3486.3492    1609.8987    45.379967    97.383762   -742.05149   -3889.2022 
22463000    142.75042   -4470.2212   -4225.5519   -4470.2212            0    742.23103    18.206063    23.082899     22.03386    9259.7018   -159.36579    1202.5435    1183.5154    -648.9544   -300.89159   -761.99906   -4125.3186 
22464000     150.5138   -4498.3044   -4240.3289   -4498.3044            0    1809.0435     17.90913    23.369256    21.978249    9198.4041    1097.0671    2105.5335    2224.5299    310.01153     631.7091   -250.03292    -3997.647 
22465000    133.94309   -4496.5465   -4266.9726   -4496.5465            0    1270.1406     17.90709    23.292827    22.094203    9215.6415    1869.9453    1757.4261    183.05029    9.9083434   -384.59198   -676.13548   -4096.2648 
22466000    142.33735   -4490.1254   -4246.1641   -4490.1254            0    1815.7028    18.004648    23.158131    22.143142    9232.6714    2114.7492    1755.3327    1577.0265    579.21073   -64.999631   -333.22105   -4001.6815 
22467000    134.09461   -4480.6684   -4250.8348   -4480.6684            0    3109.0007    17.925727    23.275474    21.896989    9136.0761    2692.2922    2979.4216    3655.2885    83.223364   -335.49994    279.92836   -3836.5906 
22468000    138.32053    -4469.264   -4232.1873    -4469.264            0    1433.7975    18.052789    23.354066    21.880814    9225.0831    428.53122    1008.7929    2864.0685   -85.640564    175.05363    246.00527   -4039.2865 
22469000    147.94599   -4484.8397   -4231.2653   -4484.8397            0     1961.077    17.913518    23.470428    21.954474    9230.4938    2193.1129    2020.4591    1669.6591   -183.88245    150.29134    485.11866   -3967.2705 
22470000    140.23692   -4491.5939   -4251.2326   -4491.5939            0    2483.7204    18.058761    23.248138    21.910374    9198.6884    2208.0601    2623.5845    2619.5167   -250.84913      665.312    249.23001    -3918.033 
22471000    146.81434   -4489.2625   -4237.6277   -4489.2625            0    1815.9081    17.984612    23.533705    21.810762     9231.286    1071.2383    1611.4151    2765.0709    223.30483    -33.89484   -143.01855   -3993.1541 
22472000    145.09333   -4496.9644   -4248.2794   -4496.9644            0    1397.5392    17.935401     23.48029    21.952362    9244.7633    1095.6261    1775.1855    1321.8061   -612.00749   -163.53442   -541.41877   -4059.8556 
22473000    133.43379   -4470.6657   -4241.9648   -4470.6657            0    2674.1107    17.974261    23.069038     22.15665    9187.2308    3183.0304    2968.8856     1870.416   -42.423922   -656.56329    830.75464   -3883.6705 
22474000    146.85973   -4492.5115    -4240.799   -4492.5115            0    1925.2704       17.946    23.397422    21.980321      9229.32    1723.5858    2262.3926     1789.833    560.21387   -516.06727   -209.42955   -3981.6573 
22475000    138.28091   -4481.9003   -4244.8915   -4481.9003            0    3296.2305    18.051666    23.399659    21.686191    9160.3084    1606.9683     4401.614    3880.1092    677.43414   -24.956448    907.34881   -3804.5359 
22476000    140.29998   -4474.4233   -4233.9539   -4474.4233            0    1835.3906    17.936245    23.403785    21.989399    9230.6225    1588.4449     1848.745    2068.9818   -573.30757   -347.77993   -240.10514   -3986.8752 
22477000     144.5517   -4451.9533   -4204.1966   -4451.9533            0     1547.159    17.879704    23.262979    22.167538    9220.2588    973.92263    2374.1442    1293.4101   -576.46849   -93.040461   -211.10563   -3996.1532 
22478000    144.97957   -4471.6178   -4223.1278   -4471.6178            0    1989.1819    17.899707    23.351969    22.023063    9205.4948    1552.3903     3194.357    1220.7985   -213.06742    161.23362   -549.18732   -3956.0747 
22479000    145.97542    -4477.328   -4227.1312    -4477.328            0    2319.2617    18.151564    23.249109    21.782035    9192.1867    909.57939    3206.5104    2841.6952    604.26545   -509.21913   -448.86681   -3916.2142 
22480000    144.50891   -4466.4466   -4218.7633   -4466.4466            0    1970.7626    17.986361     23.37409    21.966224    9234.9261    2175.2034    1549.2635    2187.8208   -117.13165   -26.065535   -9.5584095   -3953.3372 
22481000    141.51778   -4467.6868   -4225.1301   -4467.6868            0    1933.6663    17.872969    23.403778    21.976421    9192.6272    2147.0489    694.84845    2959.1015    211.52307   -340.57871    632.89127   -3965.8931 
22482000    140.01472   -4471.1388   -4231.1584   -4471.1388            0    2451.9702    18.027843    23.288985    21.876426     9184.821    3105.8445    1715.0969    2534.9692   -18.213917    660.51192   -789.40421   -3902.7141 
22483000    147.02019   -4494.1572   -4242.1696   -4494.1572            0    2170.9407    18.054273    23.466648     21.65388    9174.1699    1056.6898    3072.7755    2383.3567    347.89135    73.464634   -496.19917   -3951.7067 
22484000    143.88962   -4472.5913   -4225.9694   -4472.5913            0    2168.4051      18.0109    23.335754    21.941473     9221.956    2801.3025    477.42126    3226.4916   -177.34387    -290.1537    144.85329   -3934.3346 
22485000    137.18402   -4483.0923   -4247.9635   -4483.0923            0    1331.2328    17.909764    23.274775    22.215407    9260.3976    2137.6115    2002.9389   -146.85182     127.4448    25.130898     348.4471    -4068.176 
22486000    150.15823   -4498.9016   -4241.5355   -4498.9016            0    1613.0413    17.897773    23.312105    22.143525    9239.0484    2321.0636    1892.2459    625.81432    164.15895     743.8498   -312.64939    -4024.191 
22487000    142.94285   -4486.9632    -4241.964   -4486.9632            0    1697.5029    17.969081    23.261341    22.017713     9203.072    2841.2767    1477.5041    773.72796    -767.2653   -573.04876   -841.50616   -4014.1297 
22488000    145.95927   -4477.1932    -4227.024   -4477.1932            0    1338.7051    17.865423    23.533049     22.00631    9252.0665    1567.8712   -10.788659    2459.0329    424.37115   -393.16049    81.815872   -4046.3899 
22489000    140.05389   -4472.3491   -4232.3015   -4472.3491            0    1990.5914    17.986023    23.341431    21.924989    9204.5382    2471.3621    1364.6207    2135.7914   -164.27853   -1010.9054    203.18726    -3965.087 
22490000    147.92489   -4488.4181   -4234.8799   -4488.4181            0    2578.5389    17.954578     23.34686    21.978765    9213.1252     3202.532     2606.867    1926.2177   -420.11626   -408.37847    70.997559   -3888.4172 
22491000    134.18084   -4483.7812   -4253.7999   -4483.7812            0    1760.7704    18.040776    23.444231    21.835763    9235.4827    2252.6542    577.71616    2451.9409    275.79509     338.7217     77.47909   -4016.6416 
22492000    146.88938   -4488.1927   -4236.4294   -4488.1927            0    2557.4953    17.971985    23.375573    21.803078    9159.5916    2413.5952     2200.601    3058.2896   -912.33366    271.86709   -433.98722   -3894.7909 
22493000    145.01827   -4470.3912   -4221.8349   -4470.3912            0    1222.3142    17.952605      23.4854    22.007762    9279.0029     1716.106    1608.8856    341.95093   -103.76318     52.01218    302.32602   -4056.4255 
22494000    142.88035   -4473.5205   -4228.6285   -4473.5205            0    2143.1761    18.065267    23.235633    22.007075    9237.6441    2294.3153    2027.1249    2108.0881   -961.01955    44.806724    435.78341   -3939.8965 
22495000    141.98645   -4463.5134   -4220.1535   -4463.5134            0    2292.6994    17.889691    23.470528    21.970572    9225.0148    2426.3159    1913.9876    2537.7949   -700.54047    150.16526    871.10823   -3911.6997 
22496000     143.3486   -4484.7504   -4239.0558   -4484.7504            0    1211.3305    18.034531    23.372235    21.997959    9272.2999    1016.4411    1005.4216    1612.1289   -580.42749    163.16879    172.43754   -4075.2512 
22497000    141.43628   -4483.4634   -4241.0465   -4483.4634            0    1341.4875    18.132935    23.295843    21.992551    9290.1375    1625.6881    1187.1449    1211.6296    63.690213   -145.99429   -7.7096335   -4059.2922 
22498000    150.70773   -4481.0783   -4222.7704   -4481.0783            0    449.19411    17.966841     23.59638    21.927505    9296.2183    76.262478    270.10553    1001.2143    279.11899     382.8958    352.37611   -4161.8705 
22499000    140.87351   -4491.5096   -4250.0573   -4491.5096            0    3568.7607     18.06307    23.161779    21.900031    9162.3781    2891.6999    3866.5159    3948.0662    707.02619   -8.7321128   -371.11081   -3773.1856 
22500000    146.38256   -4466.8872   -4215.9925   -4466.8872            0    1603.0499    17.903378    23.545811     21.89087    9228.0866    2353.7651    25.885605    2429.4989   -434.80418   -288.87723    593.16968   -4000.2505 
Loop time of 349.483 on 64 procs for 250000 steps with 864 atoms

Performance: 123.611 ns/day, 0.194 hours/ns, 715.341 timesteps/s
195.6% CPU use with 32 MPI tasks x 2 OpenMP threads

MPI task timing breakdown:
Section |  min time  |  avg time  |  max time  |%varavg| %total
---------------------------------------------------------------
Pair    | 17.127     | 25.235     | 34.664     | 110.8 |  7.22
Bond    | 1.0447     | 1.2226     | 1.9565     |  15.7 |  0.35
Kspace  | 175.77     | 187.3      | 195.95     |  42.9 | 53.59
Neigh   | 0.7936     | 0.85616    | 0.94119    |   4.9 |  0.24
Comm    | 52.007     | 55.136     | 58.382     |  24.0 | 15.78
Output  | 0.49043    | 0.49073    | 0.49234    |   0.0 |  0.14
Modify  | 63.404     | 65.131     | 68.067     |  15.9 | 18.64
Other   |            | 14.11      |            |       |  4.04

Nlocal:        27.0000 ave          37 max          19 min
Histogram: 8 4 3 1 0 2 5 1 4 4
Nghost:        2135.16 ave        2234 max        2044 min
Histogram: 14 2 0 0 0 0 0 0 4 12
Neighs:        6583.56 ave        9071 max        4440 min
Histogram: 7 4 2 3 1 2 3 2 3 5

Total # of neighbors = 210674
Ave neighs/atom = 243.83565
Ave special neighs/atom = 2.0000000
Neighbor list builds = 3103
Dangerous builds = 0

unfix		3
unfix		2
unfix		1

write_data	data.final.${pid} nocoeff
write_data	data.final.0 nocoeff
System init for write_data ...
PPPM initialization ...
  extracting TIP4P info from pair style
  using 12-bit tables for long-range coulomb (../kspace.cpp:340)
  G vector (1/distance) = 0.37181903
  grid = 24 27 25
  stencil order = 5
  estimated absolute RMS force accuracy = 0.0031468269
  estimated relative force accuracy = 9.4765759e-06
  using double precision FFTW3
  3d grid and FFT values/proc = 4410 672
Last active /omp style is kspace_style pppm/tip4p/omp

write_restart   restart.lmp.${pid}
write_restart   restart.lmp.0
System init for write_restart ...
PPPM initialization ...
  extracting TIP4P info from pair style
  using 12-bit tables for long-range coulomb (../kspace.cpp:340)
  G vector (1/distance) = 0.37181903
  grid = 24 27 25
  stencil order = 5
  estimated absolute RMS force accuracy = 0.0031468269
  estimated relative force accuracy = 9.4765759e-06
  using double precision FFTW3
  3d grid and FFT values/proc = 4410 672
Last active /omp style is kspace_style pppm/tip4p/omp
Total wall time: 0:05:49
