LAMMPS (30 Jul 2021)
  using 1 OpenMP thread(s) per MPI task
package omp 0
using multi-threaded neighbor list subroutines
echo both

include		in.partitions
variable        pid world 0
include		in.temp
variable        temperature equal 255.60
variable	tempDamp equal 100.0
include		in.pressure
variable        pressure equal 6375.0
variable        pressureDamp equal 1000.0 # This is 1 ps
include		in.seed
variable        seed world 745823

units		real
atom_style	full
read_restart	restart.lmp.${pid}
read_restart	restart.lmp.0
Reading restart file ...
  restart file = 30 Jul 2021, LAMMPS = 30 Jul 2021
  restoring atom style full from restart
  orthogonal box = (0.54040970 1.7280625 0.65929857) to (17.667163 21.901115 21.553897)
  4 by 4 by 4 MPI processor grid
  restoring pair style lj/cut/tip4p/long/omp from restart
  restoring bond style harmonic/omp from restart
  restoring angle style harmonic/omp from restart
  864 atoms
  576 bonds
  288 angles
Finding 1-2 1-3 1-4 neighbors ...
  special bond factors lj:    0        0        0       
  special bond factors coul:  0        0        0       
     2 = max # of 1-2 neighbors
     1 = max # of 1-3 neighbors
     1 = max # of 1-4 neighbors
     2 = max # of special neighbors
  special bonds CPU = 1.346 seconds
  read_restart CPU = 1.578 seconds
include 	in.setup
variable	out_freq equal 1000
variable	out_freq2 equal 10000
variable	out_freq3 equal 1000

timestep	2.0

neigh_modify    delay 7 every 1

include		in.tip4p
# This is TIP4P/Ice

# create groups ###
group ox type 2
288 atoms in group ox
group hy type 1
576 atoms in group hy

# set charges - beside manually ###
set group ox charge -1.1794
Setting atom values ...
  288 settings made for charge
set group hy charge 0.5897
Setting atom values ...
  576 settings made for charge

# ### TIP3P Potential Parameters ###
pair_style lj/cut/tip4p/long/omp 2 1 1 1 0.1577 8.5
pair_coeff 1 1*2 0.000 0.000
pair_coeff 2 2 0.21084 3.1668
bond_style  harmonic
bond_coeff  1 450 0.9572
angle_style harmonic
angle_coeff 1 55 104.52
kspace_style pppm/tip4p/omp 1.0e-5
pair_modify tail yes

thermo          ${out_freq}
thermo          1000
thermo_style    custom step temp pe etotal epair emol press lx ly lz vol pxx pyy pzz pxy pxz pyz enthalpy

restart 	${out_freq3} restart.lmp.${pid} restart2.lmp.${pid}
restart 	1000 restart.lmp.${pid} restart2.lmp.${pid}
restart 	1000 restart.lmp.0 restart2.lmp.${pid}
restart 	1000 restart.lmp.0 restart2.lmp.0


include         in.dump
dump            myDump all atom ${out_freq2} dump.water.${pid}
dump            myDump all atom 10000 dump.water.${pid}
dump            myDump all atom 10000 dump.water.0
dump            myDump2 all dcd ${out_freq2} dump.dcd
dump            myDump2 all dcd 10000 dump.dcd
dump_modify     myDump append yes
dump_modify     myDump2 append yes


variable natoms 	equal  "count(all)"                        # NUMBER ATOMS
variable H      	equal  "enthalpy/v_natoms"                 # ENTHALPY-per-atom
variable Vol      	equal  "vol/v_natoms"                 # volume-per-atom
fix AVG all 		ave/time ${out_freq} 1 ${out_freq} v_Vol v_H file vol_enthalpy.dat
fix AVG all 		ave/time 1000 1 ${out_freq} v_Vol v_H file vol_enthalpy.dat
fix AVG all 		ave/time 1000 1 1000 v_Vol v_H file vol_enthalpy.dat


timer           timeout 23:50:00 every 1000
New timer settings: style=normal  mode=nosync  timeout=23:50:00

fix 		1 all shake 1e-6 200 0 b 1 a 1
       0 = # of size 2 clusters
       0 = # of size 3 clusters
       0 = # of size 4 clusters
     288 = # of frozen angles
  find clusters CPU = 0.377 seconds
fix             2 all nph iso ${pressure} ${pressure} ${pressureDamp}
fix             2 all nph iso 6375 ${pressure} ${pressureDamp}
fix             2 all nph iso 6375 6375 ${pressureDamp}
fix             2 all nph iso 6375 6375 1000
fix             3 all temp/csvr ${temperature} ${temperature} ${tempDamp} ${seed}
fix             3 all temp/csvr 255.6 ${temperature} ${tempDamp} ${seed}
fix             3 all temp/csvr 255.6 255.6 ${tempDamp} ${seed}
fix             3 all temp/csvr 255.6 255.6 100 ${seed}
fix             3 all temp/csvr 255.6 255.6 100 745823

run             250000
PPPM initialization ...
  extracting TIP4P info from pair style
  using 12-bit tables for long-range coulomb (../kspace.cpp:340)
  G vector (1/distance) = 0.37352619
  grid = 24 24 24
  stencil order = 5
  estimated absolute RMS force accuracy = 0.0032459337
  estimated relative force accuracy = 9.775033e-06
  using double precision FFTW3
  3d grid and FFT values/proc = 2535 216
Last active /omp style is kspace_style pppm/tip4p/omp
Neighbor list info ...
  update every 1 steps, delay 7 steps, check yes
  max neighbors/atom: 2000, page size: 100000
  master list distance cutoff = 10.8154
  ghost atom cutoff = 10.8154
  binsize = 5.4077, bins = 4 4 4
  1 neighbor lists, perpetual/occasional/extra = 1 0 0
  (1) pair lj/cut/tip4p/long/omp, perpetual
      attributes: half, newton on, omp
      pair build: half/bin/newton/omp
      stencil: half/bin/3d
      bin: standard
Per MPI rank memory allocation (min/avg/max) = 9.234 | 9.237 | 9.240 Mbytes
Step Temp PotEng TotEng E_pair E_mol Press Lx Ly Lz Volume Pxx Pyy Pzz Pxy Pxz Pyz Enthalpy 
 2500000    251.72211   -3859.9662   -3428.5231   -3859.9662            0    5981.8776    17.126753    20.173053    20.894599    7219.0607    7312.8805     6542.884    4089.8684    676.24064    2588.6161    1940.0039   -2798.7355 
 2501000     256.7299   -3880.3958   -3440.3695   -3880.3958            0    5289.8947     17.10772    20.150634    20.871378    7195.0194    4587.5988    4935.4517    6346.6336    489.51872    823.89239   -716.95501   -2885.2904 
 2502000    248.29682   -3872.9585   -3447.3862   -3872.9585            0    4130.8238    17.231463    20.296387    21.022344    7352.2797    3417.5367    4863.9784    4110.9563    42.334214     326.8134    1712.0076   -3004.4568 
 2503000      264.389   -3891.1025   -3437.9488   -3891.1025            0    6373.5046    17.082854    20.121346    20.841042    7163.6917    4839.7059    7418.9553    6861.8525    82.107899     810.8074   -201.53207   -2772.0763 
 2504000    243.58379   -3882.9152   -3465.4209   -3882.9152            0    6235.9879    17.147138    20.197064    20.919469    7244.8691    6634.5903    5202.4768    6870.8966   -1252.0118    398.36113    777.49938   -2806.5328 
 2505000    262.24955   -3883.0627   -3433.5759   -3883.0627            0    5074.4846    17.091298    20.131291    20.851343    7174.3193    3806.8909    5447.0778    5969.4852    539.21917    -445.0859    322.44332   -2902.6321 
 2506000    259.45783   -3866.6385   -3421.9367   -3866.6385            0    6664.4153    17.115724    20.160062    20.881143    7205.1229    8867.6492    4851.4827     6274.114   -1939.8865   -886.55288    161.94555   -2721.6444 
 2507000    259.89397   -3863.3293     -3417.88   -3863.3293            0    6221.4706     17.09129    20.131282    20.851334      7174.31    7656.5696    4368.0902     6639.752    31.588618   -822.11086    -42.64694   -2766.9278 
 2508000    263.77059   -3898.7807    -3446.687   -3898.7807            0    5143.8882    17.245383    20.312784    21.039328    7370.1131    5569.2201    6322.2017    3540.2427     979.6473    1077.0779   -707.96468   -2893.7934 
 2509000    277.43928   -3883.9681   -3408.4467   -3883.9681            0    6917.9535    17.097845    20.139004    20.859332    7182.5681    6552.9684    5178.7042    9022.1881   -718.99979    222.69656   -1468.7048   -2683.7884 
 2510000    254.09559   -3893.2084   -3457.6972   -3893.2084            0    6967.3231     17.13366    20.181188    20.903025     7227.798    8738.7228    6901.2107    5262.0359    -28.37594    747.67532    2229.5273   -2723.2716 
 2511000    249.14278   -3899.2786   -3472.2564   -3899.2786            0    6480.6501    17.096648    20.137593    20.857871     7181.059    4913.6547    4500.6082    10027.687    1615.7345    1936.6112   -1554.8617   -2793.5485 
 2512000    274.41936   -3909.6744    -3439.329   -3909.6744            0    4583.3483    17.197428    20.256299    20.980822    7308.8006    6300.0057    3462.3359    3987.7033    430.47814   -459.17012   -80.941953   -2950.7837 
 2513000    262.04483   -3888.7616   -3439.6258   -3888.7616            0    7535.2075    17.138977    20.187451    20.909512    7234.5289    6074.8139    7298.1535     9232.655   -896.23501    1383.9268    1170.6483   -2644.5997 
 2514000    254.69504   -3910.4573   -3473.9187   -3910.4573            0    6186.5096    17.121189    20.166499    20.887811    7212.0273    6395.2809    6056.4318    6107.8161   -33.088704    -1022.185    643.37666   -2823.2215 
 2515000    249.99112   -3885.6266   -3457.1503   -3885.6266            0    5447.6874    17.184564    20.241146    20.965128    7292.4109    4940.8446    6703.9537    4698.2638    757.08057   -814.12971   -529.71565   -2877.7761 
 2516000    261.51602   -3896.5706   -3448.3411   -3896.5706            0    6206.0656    17.169555    20.223468    20.946817      7273.32    7285.0446    5054.3043    6278.8479   -1416.1776   -1288.9514   -163.95427   -2790.0395 
 2517000    259.17382   -3880.3414   -3436.1264   -3880.3414            0    6836.8249    17.181502     20.23754    20.961392    7288.5134    6635.8936    7906.8192    5967.7621    1497.0586    770.52378   -800.28514   -2709.4027 
 2518000    254.96926   -3915.6313   -3478.6227   -3915.6313            0    5458.6735    17.196659    20.255393    20.979884    7307.8198    4378.6761    6095.5956    5901.7488   -1098.0351   -868.31173   -937.55968   -2896.8534 
 2519000    249.97964   -3889.3383   -3460.8818   -3889.3383            0    3739.1535    17.163855    20.216754    20.939863    7266.0792    2520.6646    4066.4422    4630.3536     93.38804   -201.76027     1046.147     -3064.65 
 2520000    254.38562    -3934.054   -3498.0458    -3934.054            0    6094.5113    17.149762    20.200155     20.92267    7248.1957    6249.8472    5398.9278    6634.7589    128.96687    -646.4471   -899.53961   -2853.8102 
 2521000    253.27179   -3897.8847   -3463.7855   -3897.8847            0    5237.0498    17.136105    20.184069    20.906009    7230.8936    5811.0736    5574.0575    4326.0184    536.61787    935.08925    1421.7976   -2911.5116 
 2522000    256.50137   -3853.3859   -3413.7513   -3853.3859            0    5662.5171    17.134277    20.181915    20.903778    7228.5792    6706.9312    4742.0107    5538.6093   -118.75337    81.807565    274.20953   -2816.8008 
 2523000    250.98548   -3882.3811   -3452.2006   -3882.3811            0    6818.0834    17.140087    20.188759    20.910866    7235.9351    7115.6053    7674.1356    5664.5093   -317.59615   -508.51055   -1353.6339   -2732.6972 
 2524000    272.86158   -3851.7574   -3384.0819   -3851.7574            0    6471.6834     17.12703    20.173379    20.894936    7219.4107    5669.0664    6918.5931    6827.3907   -572.00124    625.08049    398.97955   -2702.6933 
 2525000     261.4652   -3859.6628   -3411.5203   -3859.6628            0     7231.836    17.096217    20.137085    20.857345    7180.5159    6610.1704    7779.1681    7306.1696   -609.91187      -2247.3    168.73878   -2654.1992 
 2526000    264.98586   -3849.3094   -3395.1327   -3849.3094            0    6482.3411    17.139966    20.188616    20.910719     7235.782    5527.8435    7469.0046    6450.1753   -590.63715   -787.54146   -803.76621   -2711.0742 
 2527000    264.97556   -3859.4063   -3405.2473   -3859.4063            0     6468.855    17.089428    20.129089    20.849062    7171.9648    4276.4645    8486.7604    6643.3401   -915.29396   -340.17025   -428.43444   -2728.6326 
 2528000    254.59674   -3888.9832   -3452.6131   -3888.9832            0    6645.6157    17.078602    20.116337    20.835855    7158.3439    6388.2117    7013.0361    6535.5994   -652.38088   -493.40215   -93.395054     -2758.83 
 2529000    252.65076   -3894.0106   -3460.9759   -3894.0106            0     4439.049     17.09913    20.140517    20.860899    7184.1872     3761.784    5159.4592    4395.9039    711.27776   -353.78605   -136.45656    -2995.879 
 2530000    262.74391   -3883.0896   -3432.7555   -3883.0896            0    5982.8386    17.130318    20.177251    20.898947    7223.5691    6555.7882    6103.2696    5289.4581    807.79953    1109.0484     -270.218   -2802.4733 
 2531000    268.06928   -3875.0109   -3415.5493   -3875.0109            0    6040.3075    17.101774    20.143631    20.864124      7187.52     7417.935    6044.2927    4658.6947    1583.7893     514.7442   -224.65413   -2782.3885 
 2532000    250.87245   -3887.6334   -3457.6466   -3887.6334            0    6427.7662    17.055862    20.089552    20.808112    7129.7878    5564.2458    9031.2895    4687.7632   -653.22156   -762.64244    2598.4589   -2789.2834 
 2533000    241.50409   -3866.7432   -3452.8135   -3866.7432            0    4885.9969    17.119316    20.164294    20.885526    7209.6611    5028.0275    5668.0557    3961.9076    -119.9256    1106.5586    535.20501   -2939.0728 
 2534000    258.09237   -3928.6076   -3486.2461   -3928.6076            0    7087.0974    17.088275    20.127731    20.847656    7170.5141    8468.9037    8028.8112    4763.5773   -340.15811   -1445.7489   -1346.9287   -2745.1158 
 2535000    243.28443    -3922.186   -3505.2049    -3922.186            0    6263.6748    17.072858    20.109571    20.828846     7151.123    6385.2078    7018.3162    5387.5004   -555.45526   -79.348582   -339.44247    -2851.955 
 2536000    263.30164   -3941.9921   -3490.7021   -3941.9921            0    8932.9926    17.014422    20.040742    20.757555    7077.9455    9080.8566    7380.8742    10337.247     1144.536   -478.58242    1547.4928   -2568.5978 
 2537000    263.35057   -3929.9939     -3478.62   -3929.9939            0    6710.3031    17.136661    20.184723    20.906686    7231.5968     5694.998    8160.8176    6275.0938    2764.8927   -1407.1834   -292.00062   -2770.9151 
 2538000    264.14777   -3917.0768   -3464.3366   -3917.0768            0    6443.2618    17.095331    20.136042    20.856264    7179.3997    7014.2137    6662.1443    5653.4275   -320.95323   -1529.5382    1223.1224   -2789.7002 
 2539000    266.45082   -3890.9503   -3434.2627   -3890.9503            0    5808.1295    17.025932    20.054299    20.771597     7092.319    5567.4454    5888.1424    5968.8007   -604.26581    146.88728    353.49745   -2833.5035 
 2540000    252.43372   -3888.3461   -3455.6833   -3888.3461            0     6906.377     17.13952     20.18809    20.910174    7235.2164    6546.3707    7952.1237    6220.6365    2567.1973    464.31095    131.46399   -2726.9348 
 2541000    250.52537     -3849.96   -3420.5681     -3849.96            0    7187.9424    17.061522    20.096219    20.815017    7136.8879    6527.6059    7346.4209    7689.8003    226.50262    1810.8975   -725.90792   -2672.4169 
 2542000     265.2435   -3894.2244   -3439.6061   -3894.2244            0    7750.1765    17.041875    20.073078    20.791048    7112.2621    7878.2999    7185.9533    8186.2763    264.97285    978.60424   -407.99531   -2635.7187 
 2543000    254.38887   -3874.1616   -3438.1477   -3874.1616            0    5558.0254     17.18118    20.237161       20.961    7288.1044    7126.8107    4825.8386    4721.4269    59.582859   -313.07448    1237.8657   -2847.3878 
 2544000    259.61228   -3894.1354   -3449.1688   -3894.1354            0    7066.8248    17.128092    20.174629    20.896232    7220.7534     7137.162    6661.5631    7401.7493    452.80004    -537.7368   -678.92607   -2704.9807 
 2545000    239.09089   -3897.9696    -3488.176   -3897.9696            0    5832.7837    17.161271    20.213711    20.936711     7262.798    5264.0493    6025.4443    6208.8574     781.1292    117.17951    187.38284   -2870.3649 
 2546000    282.96005   -3887.4487   -3402.4649   -3887.4487            0     9207.742    17.008705    20.034008     20.75058    7070.8126    9002.3697    10018.983    8601.8733   -543.99643    97.230339      330.463   -2452.9575 
 2547000    251.61513   -3871.7226   -3440.4628   -3871.7226            0    6387.9837    17.077548    20.115096    20.834569    7157.0187     4462.701    8102.6894    6598.5606    -369.9403     2268.914    1211.5035   -2773.6993 
 2548000    256.39201   -3868.5143   -3429.0672   -3868.5143            0    7377.8945     17.05092    20.083732    20.802083    7123.5924    8142.1846    7536.0177    6455.4812    1833.4377    1141.9878    141.14175   -2662.5756 
 2549000    264.14623   -3863.4891   -3410.7515   -3863.4891            0    7098.2953    17.069827    20.106002     20.82515    7147.3159     6489.256    6460.9055    8344.7243   -204.15509    -2231.484   -660.01111   -2670.8517 
 2550000    254.97319   -3894.0882   -3457.0729   -3894.0882            0    6490.5165    17.113111    20.156984    20.877955    7201.8237    5907.0192    6314.0308    7250.4994   -818.89819   -584.95306    573.60326   -2775.3661 
 2551000    261.65926   -3882.7083   -3434.2333   -3882.7083            0    5477.9607    17.080588    20.118676    20.838277    7160.8409    8015.5532     3384.215     5034.114   -488.95718   -807.84898    817.74289   -2862.1506 
 2552000    249.89884   -3889.2645   -3460.9464   -3889.2645            0    7158.0404    17.087186    20.126449    20.846328    7169.1434    5638.1485    7407.2755    8428.6972    -186.2998   -56.865523    -1153.169   -2712.5404 
 2553000    251.81646   -3888.8091   -3457.2043   -3888.8091            0    7367.2628    17.065941    20.101424    20.820408    7142.4351     8701.951    6952.2487    6447.5887    969.43245    608.87015   -62.408391   -2689.7927 
 2554000    265.54735    -3877.991   -3422.8519    -3877.991            0    8145.1634     17.07218    20.108773     20.82802    7150.2715    7794.5539    7878.2828    8762.6535    1091.4217    1369.2192    1873.9967   -2573.4793 
 2555000    242.45134    -3860.382   -3444.8287    -3860.382            0    6106.8164     17.11717    20.161765    20.882907    7206.9493    4732.7073    5635.1532    7952.5887    664.79918   -788.94189    149.39681   -2802.9659 
 2556000    268.03843   -3866.7472   -3407.3385   -3866.7472            0    9203.3722    17.047415    20.079604    20.797807    7119.2005    7910.7387    10892.796    8806.5825    529.00271     299.6435    315.81571    -2451.787 
 2557000    259.97618    -3895.239   -3449.6487    -3895.239            0    4895.4097    17.152249    20.203083    20.925703    7251.3488    3721.6425    6894.9661    4069.6204    486.50252   -1078.2099    1484.9698   -2931.9421 
 2558000    259.17217   -3894.3557   -3450.1435   -3894.3557            0    6537.3713    17.158729    20.210716    20.933609    7259.5707    7614.7131    5010.7369    6986.6639   -697.66925     893.6036    1752.0432   -2758.0098 
 2559000    257.79144   -3878.1217    -3436.276   -3878.1217            0    6129.3062    17.097736    20.138875    20.859198    7182.4306    5767.4553     5425.207    7195.2562   -86.586035   -1132.7199   -258.18837   -2794.2411 
 2560000    244.51784   -3910.0925   -3490.9972   -3910.0925            0    6268.5455    17.116995     20.16156    20.882694    7206.7289    4150.9441    7422.8289    7231.8635   -1247.5674    129.96335    247.52448   -2832.1559 
 2561000    256.91966   -3898.7051   -3458.3536   -3898.7051            0    5440.6631    17.184425    20.240982    20.964958    7292.2338    5011.1542    4649.8432     6660.992   -1643.2287    332.95051    90.020931   -2879.7404 
 2562000    260.36265   -3888.0699   -3441.8172   -3888.0699            0     6660.181    17.149175    20.199463    20.921954    7247.4514    7962.2943    6350.9159    5667.3329   -401.97513   -520.10055   -262.77984   -2737.8585 
 2563000    273.44857   -3875.4677   -3406.7862   -3875.4677            0    4297.2402    17.183238    20.239585    20.963511    7290.7236    5436.1584    5130.0831    2325.4792   -856.56612    249.87118    750.96114   -2949.8704 
 2564000     250.3157   -3867.7128   -3438.6803   -3867.7128            0    6230.0594    17.138648    20.187063     20.90911    7234.1121    5527.8752    6447.3362    6714.9667    -738.0076   -40.063228   -282.85876   -2781.3959 
 2565000    235.14572   -3874.1586   -3471.1269   -3874.1586            0    6027.6719    17.054937    20.088463    20.806984    7128.6282    6224.1994    5922.2503     5936.566    -437.2113    172.22373   -1127.9591   -2844.4676 
 2566000    262.90848   -3849.4681    -3398.852   -3849.4681            0    4550.7447    17.077672    20.115242     20.83472    7157.1748    4769.9964    3389.3508    5492.8869    1007.1825    1052.1979   -1178.2686    -2923.845 
 2567000    252.05908   -3906.9968   -3474.9762   -3906.9968            0    6693.4924    17.059643    20.094007    20.812725    7134.5312    5287.7276    6383.3949    8409.3546   -158.35398   -2024.1032   -1322.7768   -2778.5195 
 2568000    240.34205   -3864.1978   -3452.2598   -3864.1978            0    6492.6949    17.167284    20.220793    20.944046    7270.4342    6368.2207    6662.9104    6446.9535   -1463.6931   -469.10429    51.894613   -2763.8275 
 2569000    239.24816   -3898.3135   -3488.2504   -3898.3135            0    6269.4404    17.095604    20.136364    20.856597    7179.7441    4619.1931    6828.2893    7360.8388   -139.59477   -1054.2607   -2773.8444   -2831.7822 
 2570000    253.46997   -3868.7229   -3434.2841   -3868.7229            0    5956.6977    17.069326    20.105411    20.824538     7146.686    6482.3339    4496.9573     6890.802    1979.7655    495.78848   -417.32807   -2813.4348 
 2571000    263.72162   -3916.9184   -3464.9086   -3916.9184            0    4858.5126    17.123629    20.169373    20.890788    7215.1114    3092.9499    6999.3451    4483.2429     734.2433    534.47336    1312.5421   -2953.6716 
 2572000    263.60299   -3853.7354   -3401.9289   -3853.7354            0    4956.5996    17.169771    20.223722     20.94708    7273.5946    6879.9073    3841.0631    4148.8283     201.3465    2217.2161    522.82935   -2876.1432 
 2573000    258.52255   -3925.0933   -3481.9945   -3925.0933            0    6812.8981    17.095882    20.136691    20.856936    7180.0942    5905.7193    7278.6837    7254.2915   -551.59555   -554.58302   -742.07495   -2768.5866 
 2574000    257.35077    -3894.119   -3453.0286    -3894.119            0     5923.833    17.091739    20.131811    20.851881    7174.8747    2859.6018    8315.2461    6596.6509    211.10663    2457.8197    1358.0572   -2833.1695 
 2575000    261.37681   -3889.1783   -3441.1874   -3889.1783            0    5691.2353     17.13198     20.17921    20.900976    7225.6725    6305.1179    4733.5951     6034.993   -288.07526   -2094.5772   -439.59927   -2841.4506 
 2576000    240.14111   -3850.7286   -3439.1349   -3850.7286            0    6709.6126    17.149877    20.200289     20.92281    7248.3407    6135.1407    7610.6524    6383.0449  -0.41707636   -1282.1927   -691.48187   -2729.8644 
 2577000    247.75373   -3874.2758   -3449.6343   -3874.2758            0    8393.7681    17.103542    20.145714    20.866282    7189.7501    7959.3726    9487.3896    7734.5421    1112.0853   -201.16811   -778.06943   -2569.5047 
 2578000    268.73373   -3854.4415   -3393.8411   -3854.4415            0    4727.9574    17.261256    20.331479    21.058692     7390.482    4942.4343    4824.3788    4417.0592   -952.61557     267.3625   -1440.6387   -2884.2495 
 2579000     253.5738   -3854.3453   -3419.7285   -3854.3453            0    7736.5413    17.114692    20.158846    20.879884    7203.8194    7330.7979    6415.6518     9463.174   -36.674678    202.29889   -341.61741    -2606.925 
 2580000     257.3818   -3846.4908   -3405.3472   -3846.4908            0    5131.7739    17.124143    20.169978    20.891414    7215.7605    4867.5134     6447.976    4079.8322   -492.24432    394.33242    765.71202   -2865.3077 
 2581000    258.49958   -3892.2242   -3449.1648   -3892.2242            0    5552.4437    17.161065    20.213467    20.936459    7262.5357    5927.2016    5784.0828    4946.0467    1527.0227   -646.30544    140.39757   -2861.0686 
 2582000    255.76243    -3911.026   -3472.6579    -3911.026            0    8553.3817    17.062125    20.096929    20.815752    7137.6448    9411.6795    7266.3287     8982.137   -1026.3494    1206.8973    -1059.841   -2582.2917 
 2583000    244.27068     -3914.11   -3495.4384     -3914.11            0    4643.6705    17.225026    20.288805    21.014491    7344.0434    4511.8304    5280.0342    4139.1469   -1450.1521    43.161497    88.223878   -2998.0765 
 2584000    256.50042   -3852.3421   -3412.7091   -3852.3421            0    6130.7695     17.16269    20.215382    20.938442    7264.5993    4881.5743    7706.2194     5804.515    1429.7741   -457.44899    505.72682   -2763.1741 
 2585000    255.19025   -3907.4587   -3470.0713   -3907.4587            0    6881.8838    17.115824     20.16018    20.881265    7205.2495    6514.9728    6178.1499    7952.5288    737.06778   -1473.8881    416.81453   -2746.9149 
 2586000    251.61745   -3889.2929   -3458.0292   -3889.2929            0    8267.2717    17.056888    20.090761    20.809364    7131.0748    5436.8897    9511.9908    9852.9344   -1277.5817   -800.23979   -57.585526   -2598.2378 
 2587000    262.90371   -3915.5383   -3464.9303   -3915.5383            0    6393.7984    17.089872    20.129611    20.849603    7172.5236    5404.9315    6736.8885    7039.5753   -774.51419   -735.52352    197.65483   -2796.1141 
 2588000    266.43074   -3883.3839   -3426.7307   -3883.3839            0    3818.0034    17.196435    20.255129     20.97961    7307.5341    1758.7373    5027.9227    4667.3502    716.37699   -396.98954   -288.53741   -3019.8351 
 2589000    253.10189   -3911.3159   -3477.5079   -3911.3159            0    7212.0876    17.123631    20.169375     20.89079    7215.1135    5996.1088     8298.658    7341.4961    265.80125     717.7043    873.92602   -2718.6158 
 2590000     260.1377   -3888.4863   -3442.6192   -3888.4863            0    6548.4148    17.096633    20.137576    20.857852    7181.0403    5732.0769    7402.6514    6510.5161    250.90421   -814.89589    421.71398   -2756.8161 
 2591000    233.39555   -3885.8141   -3485.7821   -3885.8141            0    6953.9422    17.113752    20.157739    20.878737    7202.6326    6070.9641    8055.7066     6735.156   -344.64126   -225.77556   -1061.9017   -2755.3191 
 2592000    261.20258   -3890.9262   -3443.2339   -3890.9262            0    7532.2601    17.117772    20.162474    20.883642    7207.7096    6026.3585    8858.5454    7711.8765   -327.49754    462.85544   -406.35499   -2651.4649 
 2593000    248.79652   -3902.9918    -3476.563   -3902.9918            0    7374.4835    17.110145    20.153491    20.874337    7198.0798    7266.1757    8006.6923    6850.5826    624.65718   -1598.1299    284.08051   -2702.4147 
 2594000    243.20224   -3880.4485   -3463.6082   -3880.4485            0    6106.8976    17.132712    20.180072    20.901868    7226.5985    6210.2918    6729.1192    5381.2819    430.44772    387.72128   -877.68486   -2819.9868 
 2595000    249.79216   -3902.9889   -3474.8537   -3902.9889            0     7758.899    17.085805    20.124821    20.844642    7167.4043    8954.7746    6128.8532    8193.0692   -711.63287    141.09578    1757.4087   -2663.8219 
 2596000     258.0769   -3876.9281   -3434.5931   -3876.9281            0    6516.0647    17.071999    20.108559    20.827798    7150.0435    7220.0105    6783.7326     5544.451   -1241.5879    192.50148    299.64035   -2755.1236 
 2597000    253.52004   -3896.1149   -3461.5902   -3896.1149            0    5343.9652     17.13738     20.18557    20.907563    7232.5069    6411.1033     4107.638    5513.1544   -479.75351   -657.86828    98.025052   -2897.9157 
 2598000    254.62442   -3930.8814   -3494.4638   -3930.8814            0    6400.9025    17.107823    20.150756    20.871504    7195.1499     6622.505    7418.7718    5161.4309   -1088.8957    957.96896    57.705752   -2822.7923 
 2599000    252.97506     -3899.67   -3466.0794     -3899.67            0    6884.1879    17.122721    20.168304     20.88968    7213.9634    7590.3268    7242.6764    5819.5604    362.59932    261.52612   -242.43098    -2741.806 
 2600000      255.791   -3926.6275   -3488.2105   -3926.6275            0    5718.6618    17.121709    20.167112    20.888445    7212.6846    7077.1499    4296.8993    5781.9363    -12.17926    490.48689   -364.62184   -2886.6667 
 2601000    266.86534   -3961.7257   -3504.3276   -3961.7257            0    6897.5117    17.062347    20.097191    20.816023    7137.9236    6166.3331    6841.8446    7684.3573   -452.52605    468.14485    612.08069   -2786.3015 
 2602000    259.48668   -3896.3225   -3451.5712   -3896.3225            0    8413.3622    17.130991    20.178045    20.899769    7224.4213    7766.4114    8212.9525    9260.7226   -245.08014    1400.0784    389.33558   -2565.1328 
 2603000     263.3002   -3910.7956   -3459.5081   -3910.7956            0    6349.8315    17.121652    20.167044    20.888375    7212.6119    6501.7967    6071.3397     6476.358    220.23468    1985.7456   -1284.4655   -2791.5785 
 2604000    255.65649   -3902.3846   -3464.1982   -3902.3846            0    8400.0237    17.054906    20.088427    20.806946    7128.5895    7238.6646     8948.646    9012.7606   -1955.2536   -555.73559    344.30678   -2590.9051 
 2605000    278.84334   -3938.0346   -3460.1066   -3938.0346            0    6844.4733    17.154839    20.206135    20.928864    7254.6349    7212.4068    5693.6368    7627.3764    93.081961    1342.5456    697.95989   -2735.9517 
 2606000    242.12054   -3938.3351   -3523.3488   -3938.3351            0    5875.6102    17.185627    20.242399    20.966425    7293.7648    6664.6209    5155.2975    5806.9121    577.23813   -97.389773    570.77687   -2898.3479 
 2607000    261.90101   -3953.2129   -3504.3236   -3953.2129            0    7972.0292    17.144184    20.193584    20.915864    7241.1245    7917.2607    8423.9184    7574.9086   -1045.0085    764.15341    1113.4756   -2662.4424 
 2608000    243.59931   -3899.6428    -3482.122   -3899.6428            0     4952.925    17.195971    20.254583    20.979045    7306.9428    4835.0098     5936.513    4087.2521    762.71955     68.76917     977.8948   -2954.3171 
 2609000    259.80966   -3947.8031   -3502.4982   -3947.8031            0    4770.3937    17.248047    20.315921    21.042577    7373.5288     5086.116    3384.4573    5840.6077   -1190.9982    1569.2648   -623.13916   -2989.5123 
 2610000    253.21808   -3927.6753   -3493.6682   -3927.6753            0    4048.3028    17.254261     20.32324    21.050158    7381.5009    2347.8139    4523.1211    5273.9734   -848.82278   -155.15296    181.23025   -3057.8618 
 2611000    263.94062   -3913.7778   -3461.3926   -3913.7778            0    7694.7243    17.150328    20.200821     20.92336    7248.9131    9116.8445    7766.7144    6200.6141   -199.08416   -1740.5322   -194.50327   -2647.9221 
 2612000    260.03596   -3919.8609   -3474.1682   -3919.8609            0     5094.291    17.197093    20.255904    20.980413    7308.3732    4545.0341    6265.8474    4471.9915   -461.20046    99.471752   -263.52336   -2931.1925 
 2613000    260.67088   -3934.4409     -3487.66   -3934.4409            0    4793.3011    17.150437    20.200949    20.923493    7249.0509    3846.2264    5633.7286    4899.9485   -1286.8587    234.36841    -565.2109   -2980.9123 
 2614000    261.16611   -3900.0649   -3452.4351   -3900.0649            0    7619.3065    17.168527    20.222257    20.945563    7272.0142    7596.2474    7969.4681     7292.204    426.43556     11.82024   -278.45968   -2644.3705 
 2615000    269.60095   -3897.8505   -3435.7637   -3897.8505            0    6785.3374    17.106055    20.148674    20.869348    7192.9198     6386.842    8050.1923    5918.9778    684.55148   -1474.9959   -1425.9208   -2723.9726 
 2616000    247.39267   -3891.4377   -3467.4151   -3891.4377            0    9796.0285    16.982441    20.003073    20.718539    7038.1083    9275.1692    11391.447    8721.4693    353.37741   -837.99725   -364.66917   -2461.9156 
 2617000    243.26217    -3895.602    -3478.659    -3895.602            0     6915.615    17.029377    20.058357    20.775801    7096.6258     6957.471    6770.5305    7018.8433    156.70006   -372.50644   -31.760743   -2762.9135 
 2618000    246.27656   -3882.0074   -3459.8978   -3882.0074            0     6869.817    17.036267    20.066473    20.784206    7105.2429    7133.6663    6820.7084    6655.0761    618.61082   -1477.2476    602.28255    -2748.029 
 2619000     266.8799   -3899.7969   -3442.3739   -3899.7969            0    8108.1044    17.056554    20.090368    20.808957    7130.6563    6423.5097     7225.805    10674.999   -348.78399   -603.10445    -1894.271   -2599.1853 
 2620000    248.80114   -3875.8904   -3449.4538   -3875.8904            0    6897.5455     17.14365    20.192955    20.915213     7240.448     6397.064    7916.7911    6378.7814   -945.53862    -497.5282    -365.0131   -2721.1108 
 2621000    246.65066   -3882.9206   -3460.1698   -3882.9206            0    7310.7647    17.148536     20.19871    20.921174    7246.6407     7639.079    7843.3849    6449.8304    1152.4423    492.83426   -15.794444   -2687.5329 
 2622000    260.19457   -3880.0734   -3434.1088   -3880.0734            0    5448.2133     17.14186    20.190846    20.913029    7238.1801    5770.0865       6177.8    4396.7533   -1158.6752   -887.73265    1003.5127   -2858.9876 
 2623000    242.09811   -3901.8095   -3486.8616   -3901.8095            0    6770.5697    17.099689    20.141175    20.861581    7184.8922    6033.9717    6419.8625    7857.8751   -1415.1048    447.87013    612.84704   -2777.4123 
 2624000     254.6374   -3864.1049   -3427.6651   -3864.1049            0    7929.6289    17.045764    20.077658    20.795792    7117.1318    7987.5447    9133.0565    6668.2854    189.83927     509.4519   -1754.5797   -2604.6008 
 2625000    261.24984   -3874.7833     -3427.01   -3874.7833            0    6800.5012    17.129697     20.17652     20.89819    7222.7842    7123.9058     7484.433    5793.1648    44.768124   -563.25529    1242.5376   -2710.6663 
 2626000    268.77999   -3902.0665   -3441.3868   -3902.0665            0    7838.5949    17.055909    20.089608    20.808169    7129.8472     9345.892    6377.4267     7792.466   -1024.0067   -1355.7637   -16.641609   -2626.3178 
 2627000    256.91046   -3876.5647   -3436.2289   -3876.5647            0    5616.8712    17.182672    20.238918     20.96282     7290.003    6026.7295    6118.0772    4705.8068   -1580.9705   -565.08151   -1573.9659   -2839.0588 
 2628000    258.82676   -3867.1634   -3423.5432   -3867.1634            0    5776.8447    17.098253    20.139483    20.859828    7183.0812    6332.0511    6888.2089    4110.2739    670.68374   -909.47149    634.71418   -2818.3733 
 2629000     261.2251   -3847.5745   -3399.8437   -3847.5745            0    7361.5559    17.131734     20.17892    20.900675     7225.361    7413.7855    6597.2294    8073.6527   -724.64604   -892.33267    888.01634   -2624.1235 
 2630000    252.26359   -3882.4337   -3450.0625   -3882.4337            0    8472.9001    17.043958    20.075531    20.793589    7114.8696    7877.8406    10303.584    7237.2752    341.89073   -535.11817    944.45511   -2570.8884 
 2631000    250.75604   -3897.7432   -3467.9559   -3897.7432            0    5578.2577    17.180421    20.236267    20.960074    7287.1382    3722.3576     6015.208    6997.2076    1412.9086    627.55008    1515.1249   -2875.1241 
 2632000     274.2064   -3861.4442   -3391.4639   -3861.4442            0    5771.0279     17.15822    20.210116    20.932988    7258.9241    6873.8932    4491.1644     5948.026   -846.27401   -2161.0129   -1062.8197     -2780.52 
 2633000    245.12769   -3854.2305   -3434.0901   -3854.2305            0     7008.901    17.198932     20.25807    20.982657    7310.7179    5088.3583     7500.668    8437.6768     2053.587    512.71973   -353.68588   -2686.8058 
 2634000     249.6795   -3881.6014   -3453.6593   -3881.6014            0    4727.7017    17.156436    20.208016    20.930812    7256.6611    5549.9489    4062.4484    4570.7077   -824.63047   -1083.4473   -584.39443   -2953.3221 
 2635000     248.8196   -3887.7847   -3461.3164   -3887.7847            0    7291.5965     17.09934    20.140764    20.861155     7184.452    7833.5789    6538.7839    7502.4267    182.92973    207.87224    19.845498   -2697.3185 
 2636000    251.47474   -3886.2622   -3455.2431   -3886.2622            0     4821.313    17.201691     20.26132    20.986023    7314.2369    7249.2626    3487.7687    3726.9078   -901.62752   -273.26164   -89.588815   -2940.9506 
 2637000    251.85116   -3898.1641   -3466.4998   -3898.1641            0    5169.4488     17.14827    20.198397    20.920849    7246.3033    6000.7424     3801.464    5706.1399   -985.48879    1046.6364   -594.55838    -2920.193 
 2638000    259.41584   -3877.8615   -3433.2316   -3877.8615            0     7922.701     17.05209     20.08511     20.80351    7125.0589    8843.9745    6762.6129    8161.5155   -736.89092   -439.13966   -324.06808   -2609.9705 
 2639000    237.26424    -3913.104   -3506.4412    -3913.104            0    5362.1163    17.159255    20.211336    20.934251    7260.2381     6861.128    6261.1228     2964.098   -69.613125   -847.63144   -722.55165   -2938.6835 
 2640000    249.52056   -3866.5066   -3438.8369   -3866.5066            0    7838.3501    17.151231    20.201884    20.924461    7250.0574    9523.9087    6739.0108     7252.131   -1608.6095   -542.37609   -1595.3517   -2610.0516 
 2641000     246.1844   -3911.1987   -3489.2471   -3911.1987            0    7387.6196    17.172013    20.226363    20.949816    7276.4443    7944.8457    7170.0918    7047.9212    214.11591    1255.6091   -1587.9246   -2705.2767 
 2642000    256.12472   -3913.6086   -3474.6196   -3913.6086            0     5529.175    17.222583    20.285928    21.011511    7340.9192    5694.3793    5873.2663    5019.8793    -963.6877    1538.8499   -515.78719   -2882.6674 
 2643000    250.57293   -3906.5238   -3477.0504   -3906.5238            0    6611.1343    17.150306    20.200795    20.923333    7248.8849    4814.1913    6525.7236     8493.488   -420.13397    -203.1671    281.95104   -2778.1375 
 2644000    246.69922   -3889.4815   -3466.6475   -3889.4815            0    5383.4599    17.179589    20.235287    20.959059    7286.0796    5057.9659     5646.088    5446.3258   -761.88507   -950.46961    4.4901635    -2894.601 
 2645000    268.23915   -3878.8529   -3419.1001   -3878.8529            0    6838.8077    17.212616    20.274188    20.999351    7328.1818    6007.3684    6241.7906    8267.2641   -491.21195   -400.89865    102.86637   -2688.2093 
 2646000      249.551   -3900.4856   -3472.7637   -3900.4856            0    6594.3131    17.125725    20.171842    20.893344    7217.7605    7110.6755    6032.4986    6639.7652    785.52749    802.24187    994.32296   -2778.6223 
 2647000    250.74401   -3909.3361   -3479.5694   -3909.3361            0    6013.9486    17.140727    20.189513    20.911647    7236.7458    6804.5092    6234.5431    5002.7934    233.52654    1472.9721   -191.41649   -2844.8542 
 2648000    237.02948   -3886.3757   -3480.1153   -3886.3757            0    7858.8202    17.141413    20.190321    20.912484     7237.615    7742.3689    8161.8774    7672.2142    483.32365    -573.1388    447.79114   -2650.5917 
 2649000    260.49336   -3859.7876   -3413.3109   -3859.7876            0    8262.1776    17.118092    20.162851    20.884032    7208.1142    7657.9103    7449.4011    9679.2214    493.07475    384.92712   -1468.9871   -2544.7664 
 2650000    257.31413   -3918.0944   -3477.0668   -3918.0944            0    4982.7886    17.172525    20.226966     20.95044    7277.0948    3799.6175    5593.1894    5555.5588   -957.98524    1413.5946   -88.720972   -2948.2486 
 2651000    248.74432   -3869.0778   -3442.7386   -3869.0778            0    4633.7038    17.244436    20.311668    21.038172    7368.8984    6091.0536    3630.9043    4179.1536     853.6098      942.898   -164.65933   -2944.7645 
 2652000    242.50621   -3906.4046   -3490.7572   -3906.4046            0    6106.9621    17.150945    20.201548    20.924113    7249.6953    4190.9712    7147.2418    6982.6734    456.56323    481.89387   -77.253013    -2845.072 
 2653000    243.83021   -3879.6297    -3461.713   -3879.6297            0    6741.6496    17.189504    20.246965    20.971154    7298.7013    6627.9518    6590.8656    7006.1315    832.75407   -250.49076   -1044.2829   -2744.1044 
 2654000    246.11609   -3886.3136    -3464.479   -3886.3136            0    7938.5565    17.098327    20.139571    20.859919    7183.1748    7952.9237    8893.3842    6969.3618   -54.127165   -267.33198   -1220.4984   -2632.8419 
 2655000    245.45086   -3889.2179   -3468.5235   -3889.2179            0     4883.273     17.22906    20.293557    21.019413    7349.2051    6131.5424    4298.2112    4220.0653    306.93067    515.10806   -2746.0022   -2945.1313 
 2656000    231.81293   -3900.8945   -3503.5751   -3900.8945            0    6656.2631    17.206524    20.267012    20.991919    7320.4033    6379.9727    6515.8353    7072.9814   -1078.9201    466.55038   -422.51585   -2792.9486 
 2657000    236.83283   -3859.4841   -3453.5607   -3859.4841            0    5120.5086    17.231832    20.296821    21.022794    7352.7519    6072.2918    4320.0651    4969.1687    568.67061    408.40401    -902.3845   -2904.4766 
 2658000    250.70944   -3898.3654    -3468.658   -3898.3654            0    7107.1234    17.161612    20.214112    20.937127    7263.2309    7104.5768    5360.3701    8856.4233   -1779.6794   -326.14459     -278.439   -2715.8234 
 2659000    253.23632   -3900.3609   -3466.3225   -3900.3609            0    6363.9388    17.182182    20.238341    20.962222     7289.379    6592.4957    7532.8638    4966.4568   -192.49949    187.11663   -458.21358   -2789.7841 
 2660000    260.20148   -3864.7572   -3418.7808   -3864.7572            0    5511.4519    17.187688    20.244826     20.96894    7296.3892    4751.3502    5403.5931    6379.4123    116.80191   -691.91438   -1296.7613   -2832.3053 
 2661000    241.14416     -3875.94   -3462.6271     -3875.94            0    7954.2948    17.099756    20.141253    20.861662    7184.9755    7182.2065    6634.3623    10046.316   -319.39695    289.04117     -13.6964   -2629.1324 
 2662000    253.00838   -3904.5117    -3470.864   -3904.5117            0     6609.237     17.17201     20.22636    20.949813    7276.4411    7673.5556    5839.9931    6314.1624    260.98659    1050.0526    466.90989   -2769.4955 
 2663000    260.05041   -3903.3212   -3457.6037   -3903.3212            0    6573.0393    17.150597    20.201138    20.923688    7249.2541    5955.9239    6644.5055    7118.6885   -209.28251    909.09364    -914.3618   -2762.6827 
 2664000    248.74553    -3916.875   -3490.5337    -3916.875            0    5599.1646    17.206718    20.267241    20.992156    7320.6511    6046.3496    5791.1931    4959.9512   -71.137088   -212.03859    1137.8384   -2892.7435 
 2665000    251.08086   -3874.8852   -3444.5412   -3874.8852            0    7104.8188    17.057052    20.090954    20.809563    7131.2798    7134.7145    6955.5576    7224.1842    135.07777   -1003.4421   -99.722729    -2705.623 
 2666000    259.33713   -3870.5739   -3426.0789   -3870.5739            0    6912.4783    17.119378    20.164366    20.885601    7209.7386     8069.392    7297.1684    5370.8744    -860.1279    1167.2672   -1143.9856    -2699.255 
 2667000    251.30555   -3889.9795   -3459.2504   -3889.9795            0    5707.0363    17.156777    20.208417    20.931228    7257.0938    6141.7133    5627.2672    5352.1283    -274.7905   -895.65846   -1231.7134   -2855.2333 
 2668000    273.15365   -3891.6878   -3423.5117   -3891.6878            0    5621.8258    17.204634    20.264786    20.989613    7317.9911    4607.3007     7379.471    4878.7057   -336.70497    -1208.794   -768.86721   -2823.5202 
 2669000    259.32631   -3866.3343   -3421.8579   -3866.3343            0    5234.6377    17.195852    20.254442    20.978899    7306.7904    5483.5426    5230.4664     4989.904   -1582.9766   -791.96475     719.2868   -2864.0442 
 2670000    266.34072   -3904.6481   -3448.1492   -3904.6481            0    6390.8707     17.19256    20.250564    20.974883     7302.595    7086.0588    5998.8075    6087.7459   -1061.5449    1041.5247     1142.154    -2767.516 
 2671000    250.91054   -3897.9698   -3467.9177   -3897.9698            0    6293.1506    17.196501    20.255207    20.979692    7307.6188    6151.5427    7982.8705    4745.0387    1218.2176   -317.39689    2692.2676   -2797.2307 
 2672000    255.09654   -3916.0819   -3478.8551   -3916.0819            0    8450.0536    17.153674    20.204762    20.927442    7253.1562    9093.8418    7336.0485    8920.2705   -384.18287   -843.76634    145.03246   -2585.0098 
 2673000    242.12153   -3888.0241    -3473.036   -3888.0241            0    5686.0199     17.20368    20.263662    20.988449     7316.774    6932.0996    4214.1003    5911.8597    1262.9667   -305.90038    1044.2382   -2866.2943 
 2674000    245.06526   -3915.4803   -3495.4468   -3915.4803            0    6562.2211    17.144287    20.193705     20.91599    7241.2553    6813.2426    6849.3529    6024.0676   -70.866661    1188.0286   -13.869286    -2802.435 
 2675000    257.13163   -3882.9077   -3442.1929   -3882.9077            0    6843.7813    17.142638    20.191763    20.913979    7239.1665    7589.5786    5988.5004    6953.2649   -572.54076    357.18908    -421.7447   -2719.6551 
 2676000    258.93277   -3925.2413   -3481.4394   -3925.2413            0    6927.1221    17.049958    20.082598    20.800909    7122.3861    6382.8958    7004.9774    7393.4932   -105.56787    859.46251   -118.33936   -2761.9005 
 2677000    256.82886   -3891.1183   -3450.9224   -3891.1183            0    6753.0335    17.110743    20.154195    20.875067    7198.8347    7267.3771    5299.4459    7692.2775    437.89641    433.17736   -385.97475   -2741.9375 
 2678000    258.17667   -3894.4206   -3451.9146   -3894.4206            0    6644.7881     17.09152    20.131553    20.851615    7174.5995    7061.6869    4077.5723    8795.1052   -678.47155    398.83122   -1748.1766   -2756.6427 
 2679000    251.11271   -3905.3648   -3474.9663   -3905.3648            0     6296.822    17.083956    20.122644    20.842387    7165.0782    5261.4458    7104.7777    6524.2426   -485.93154   -1320.9723      -903.01   -2816.9778 
 2680000    250.84477    -3900.802   -3470.8627    -3900.802            0    6610.8683    17.073519     20.11035    20.829653    7151.9535    6493.1474     7819.276    5520.1813   -614.82276    556.43288   -1323.6804   -2781.3233 
 2681000    260.35447   -3888.4099   -3442.1712   -3888.4099            0    7355.7903    17.059145     20.09342    20.812117    7133.9061    6054.1926    7365.5343    8647.6438   -600.87052    116.21744    356.96455   -2676.8696 
 2682000    271.55372   -3881.9196   -3416.4859   -3881.9196            0     6753.286    17.053968    20.087321    20.805801    7127.4127    7563.1059    6542.5424    6154.2096   -422.67773   -515.24773    556.76424   -2714.5088 
 2683000    254.14096   -3923.0964   -3487.5075   -3923.0964            0    5575.2959    17.097139    20.138171    20.858469    7181.6776     5677.598    6288.6173    4759.6725    -1594.382    1184.9841   -546.30893   -2903.5654 
 2684000    261.43269   -3946.0665   -3497.9798   -3946.0665            0    6262.0764    17.115685    20.160017    20.881096    7205.0744    8305.3079    5230.3059    5250.6153    232.74454   -321.98608   -1418.3368   -2839.9694 
 2685000    258.72452   -3896.3637   -3452.9187   -3896.3637            0    5330.1289    17.164717     20.21777    20.940915    7267.1739    5668.0939    4777.3167    5544.9762   -1290.1832   -99.670714    72.338815   -2888.0088 
 2686000    263.95792   -3902.2146   -3449.7998   -3902.2146            0    6396.0012    17.110582    20.154005     20.87487    7198.6311    6207.7622    4457.6728    8522.5687    893.93735    837.81399   -937.02958   -2778.3178 
 2687000    248.35984   -3893.1181   -3467.4378   -3893.1181            0    5355.7961    17.108078    20.151056    20.871815     7195.471    5275.0956    3925.4105    6866.8823    35.987623    351.23731   -677.49862   -2905.4083 
 2688000     266.0895   -3863.0685   -3407.0002   -3863.0685            0    6809.2129     17.17406    20.228774    20.952313     7279.047    4209.0061    8675.0888    7543.5438   -1418.4182    -139.7905   -77.773154   -2684.1516 
 2689000    255.18675   -3937.7994   -3500.4181   -3937.7994            0    5690.9207    17.072042    20.108611    20.827852    7150.0985     6948.665     3503.634    6620.4631    -744.9321    -895.8449    593.12683   -2906.9868 
 2690000    265.55229   -3876.9368   -3421.7893   -3876.9368            0    6658.1404    17.108844    20.151958     20.87275    7196.4381    7982.1995    5801.9637     6190.258   -836.19046   -40.447016    -507.2215   -2722.9997 
 2691000    266.44884   -3920.2314   -3463.5472   -3920.2314            0    6906.9432    17.124824    20.170781    20.892246    7216.6221    6052.9768     7521.432    7146.4209   -891.65398    230.47523    682.77577   -2736.6119 
 2692000    246.96637   -3875.4084   -3452.1165   -3875.4084            0    7467.4459      17.0795    20.117395     20.83695    7159.4729     7290.616      8460.42    6651.3018    3.4819518    838.88521    1553.6723   -2672.4139 
 2693000    263.53173   -3921.6364    -3469.952   -3921.6364            0    7271.7352    17.061642     20.09636    20.815163    7137.0387    4814.6443    8679.8479    8320.7134   -274.86584   -918.67659    248.51466   -2713.0634 
 2694000    272.21644   -3936.1671   -3469.5974   -3936.1671            0    7925.4558    17.110669    20.154108    20.874976    7198.7414    10330.551    6901.5791    6544.2375    -130.5769    864.00145    150.89836   -2637.5334 
 2695000     256.0554   -3929.7652   -3490.8951   -3929.7652            0    6405.1405    17.057411    20.091377    20.810002    7131.7309    7760.8774    6151.5611     5302.983   -1070.7705   -362.15411    620.01593   -2824.7029 
 2696000    261.21971   -3945.4098   -3497.6882   -3945.4098            0    2843.7487    17.177633    20.232983    20.956672    7283.5912     3192.539    2609.0127    2729.6945     1330.746    41.041195    1015.4782   -3195.6146 
 2697000    241.19948   -3903.4774   -3490.0697   -3903.4774            0    6862.7253    17.136847    20.184942    20.906914    7231.8327    8115.5617    5647.3714    6825.2429   -381.35714   -1038.4932    787.98948   -2766.2659 
 2698000    255.39565   -3911.8679   -3474.1285   -3911.8679            0    6023.5577    17.122473    20.168011    20.889377    7213.6498    4157.5029    6946.4761    6966.6943    553.62328    18.860342    -1378.115    -2840.428 
 2699000    256.05054   -3897.1512   -3458.2893   -3897.1512            0    5159.1835    17.136907    20.185013    20.906987    7231.9085    5737.6936    4294.8208    5445.0361   -160.47586   -887.32993   -910.23265   -2914.1504 
 2700000    258.05672   -3929.8612   -3487.5608   -3929.8612            0     7137.911    17.083116    20.121655    20.841362    7164.0217     9509.779    5629.5763    6274.3777   -488.83629   -650.13979   -794.97243   -2741.7925 
 2701000    247.05489   -3926.8426    -3503.399   -3926.8426            0     4378.144     17.16845    20.222167    20.945469    7271.9164    4418.8451    3912.5871    4802.9997    1132.8045   -625.74249    1651.6271   -3039.0818 
 2702000    246.73397   -3906.4143   -3483.5207   -3906.4143            0    5218.2314     17.11054    20.153956    20.874819    7198.5788    6310.6333    5186.0975    4157.9633    1921.5424    706.80306   -1227.9159   -2935.6905 
 2703000    247.67885   -3933.8413   -3509.3282   -3933.8413            0    5534.5874    17.120304    20.165457    20.886731    7210.9091    6514.0529    3771.8758    6317.8334    345.48596     51.23285   -760.96475   -2927.2905 
 2704000    250.02305   -3907.8678   -3479.3369   -3907.8678            0    6811.9873    17.078363    20.116055    20.835563    7158.0427    7913.4248    5876.3407    6646.1964   -855.58168    377.56932   -68.123959    -2768.215 
 2705000    248.30811   -3928.3103   -3502.7187   -3928.3103            0    7134.9245     17.06562    20.101046    20.820016     7142.032    7534.8847    6936.5772    6933.3118     731.3585   -1047.0749   -304.86789   -2759.5505 
 2706000    247.84182   -3940.0384    -3515.246   -3940.0384            0    4686.7379    17.147635    20.197648    20.920074    7245.4981    5904.5675    3048.9562      5106.69    453.19705   -694.42201     1328.756    -3020.007 
 2707000    249.73373   -3897.0844   -3469.0494   -3897.0844            0    6589.6433    17.106041    20.148657     20.86933    7192.9016    4801.4665    8202.8494     6764.614   -557.05501   -1511.2682    1193.8828   -2777.7886 
 2708000    257.77791   -3901.1146   -3459.2921   -3901.1146            0    7154.0475    17.142223    20.191274    20.913472    7238.6404    6394.5485    7199.8862    7867.7077   -1086.2129   -169.11913   -956.58526   -2704.0525 
 2709000    258.24352   -3892.7143   -3450.0938   -3892.7143            0    5598.6299    17.174264    20.229015    20.952562    7279.3066    5003.8147    5654.5149      6137.56   -1183.9646   -1243.4012    1455.0392   -2855.7364 
 2710000    264.38132   -3877.4312   -3424.2907   -3877.4312            0    5989.8647    17.078558    20.116286    20.835801    7158.2884    6042.0489    6514.1973    5413.3479    1514.3278    1445.4409    2034.9027    -2798.971 
 2711000    247.10941   -3882.8787   -3459.3416   -3882.8787            0    5661.3413    17.065439    20.100833    20.819795    7141.8046    4816.3336    7697.5467    4470.1437    1582.8975   -179.14446   -1625.5659   -2869.6795 
 2712000    261.72213   -3898.7155   -3450.1327   -3898.7155            0     5589.759    17.019158     20.04632    20.763333    7083.8576    4665.5739    6003.4926    6100.2104   -439.89632    654.76795   -1721.0904   -2872.6502 
 2713000    259.59723   -3880.9747    -3436.034   -3880.9747            0    6283.7953    17.087884    20.127271    20.847179    7170.0218    6402.4828    6763.1936    5685.7096    -739.6455    -580.1739    1695.9798   -2778.9538 
 2714000    270.10524   -3933.7233   -3470.7721   -3933.7233            0    5687.4341     17.10881    20.151919    20.872709    7196.3954    6411.4982    4280.1801     6370.624   -411.21436    97.278279   -370.19734   -2873.8643 
 2715000    240.28436   -3932.5985   -3520.7593   -3932.5985            0    6012.1225    17.104167     20.14645    20.867044    7190.5383    7213.0949    3986.8623    6836.4103    585.12504    208.46454   -654.22366   -2890.2883 
 2716000    260.75006   -3950.6371   -3503.7204   -3950.6371            0    4455.4708     17.20584    20.266207    20.991085    7319.5305    4617.6474    3666.5998     5082.165    224.04742    728.01825   -1033.3745   -3028.1085 
 2717000    242.88128   -3897.9047   -3481.6145   -3897.9047            0    8108.3864    17.085739    20.124744    20.844562    7167.3222    9797.2412    6476.3763    8051.5416   -995.14957   -1655.3239   -1907.8552   -2634.0608 
 2718000    255.27362    -3890.936   -3453.4057    -3890.936            0     5149.094    17.159903    20.212099    20.935041    7261.0605    5174.2696    5269.3756    5003.6368    175.02439   -268.77158    1177.3485   -2908.1418 
 2719000    255.87459   -3884.6321   -3446.0718   -3884.6321            0     4614.591    17.151563    20.202275    20.924866    7250.4784    4935.8231    3900.7708    5007.1791    1235.8087    -1871.715   -1242.2586   -2958.1213 
 2720000     249.4829   -3916.1564   -3488.5512   -3916.1564            0    5852.1882    17.083926    20.122608    20.842349    7165.0399     6005.562    5791.3557    5759.6468    1263.7169    1272.2138    390.54468   -2877.0282 
 2721000    256.35406   -3902.9303   -3463.5482   -3902.9303            0    7915.6856    17.086587    20.125743    20.845597    7168.3893     7485.136    8872.9864    7388.9344   -709.32395    1481.6326    786.83242   -2636.0139 
 2722000    251.90507   -3917.2882   -3485.5316   -3917.2882            0    6429.4549     17.08821    20.127655    20.847577    7170.4323    7760.5213    4719.0632    6808.7803   -73.918847    2026.1765    1473.4817   -2813.1816 
 2723000    265.02679   -3923.4249    -3469.178   -3923.4249            0    6294.8194    17.173573      20.2282    20.951719    7278.4274    7685.2249    4851.9264     6347.307    -665.0107    868.91817   -580.52141    -2800.993 
 2724000    250.51431   -3880.8906   -3451.5176   -3880.8906            0    5873.5867    17.151918    20.202694      20.9253    7250.9292    3402.4931    7462.2568    6756.0103    1303.6058   -548.52712   -1347.4863   -2830.4013 
 2725000    259.12096   -3914.5326   -3470.4081   -3914.5326            0     6389.805    17.105949    20.148549    20.869218    7192.7858    5235.4237    8016.6673    5917.3239    1022.8657    649.11978     533.6924   -2800.1214 
 2726000    267.43454   -3908.1019   -3449.7282   -3908.1019            0    7203.7896    17.073577    20.110419    20.829725    7152.0275    6707.5374    7503.7741    7400.0573     1935.361    81.345363    99.440171   -2698.3371 
 2727000    266.30128   -3842.2765   -3385.8452   -3842.2765            0    4774.8114    17.169208    20.223059    20.946394    7272.8791     4925.068    4084.5355    5314.8308    1294.3838   -512.09376    219.95807    -2879.393 
 2728000    256.27511   -3844.0377   -3404.7909   -3844.0377            0     7365.827     17.09311    20.133426    20.853554    7176.6017     9739.664    6307.5168    6050.3003   -254.20866   -1121.5637   -1166.9948   -2633.8586 
 2729000    273.44974   -3925.9372   -3457.2537   -3925.9372            0    5369.9672    17.172909    20.227419    20.950909    7277.5841    5006.0885    5385.2268    5718.5862    33.564491    666.76067   -455.93014   -2887.3063 
 2730000    263.36094   -3894.7445   -3443.3528   -3894.7445            0    5664.4912    17.212473    20.274019    20.999177    7327.9987    5073.8843    4999.2553    6920.3342   -59.523157   -1128.0854   -928.75058    -2837.981 
 2731000    256.57214   -3910.2063   -3470.4504   -3910.2063            0    5869.6904    17.198237    20.257251    20.981809    7309.8316    5281.2594    6045.7488     6282.063    796.89932    919.76335    419.26826   -2844.7039 
 2732000    254.36074   -3904.3856     -3468.42   -3904.3856            0    6937.0165    17.133433    20.180921    20.902748    7227.5106    8505.4571    5730.0609    6575.5314    84.149273    -927.4811    311.55815   -2737.2181 
 2733000    267.49203   -3958.0235   -3499.5513   -3958.0235            0    7517.3696    17.131115     20.17819     20.89992    7224.5774    6291.6809    6598.1785    9662.2493   -115.14592   -378.70088    169.71342   -2707.4983 
 2734000    250.69014   -3899.3268   -3469.6525   -3899.3268            0    7721.9999    17.135375    20.183209    20.905118    7229.9694    7504.9482    6237.5043    9423.5474   -156.32907    445.98391    465.26842   -2655.4318 
 2735000    255.54709   -3944.9105   -3506.9115   -3944.9105            0    6078.8506    17.164101    20.217044    20.940163    7266.3909    6107.8235    5026.5456    7102.1828   -818.05152   -144.65194   -252.65581   -2862.7183 
 2736000    241.77027    -3876.645    -3462.259    -3876.645            0    7236.6826    17.061458    20.096144     20.81494    7136.8086    6788.7449    7708.8518    7212.4512   -1189.6976   -699.76234    52.720898   -2709.0431 
 2737000    259.61396   -3923.9147   -3478.9453   -3923.9147            0    6464.5733     17.10144    20.143237    20.863717    7187.0989    7189.0212    6912.1853    5292.5134   -19.842729   -660.81726   -1942.6865   -2801.3516 
 2738000    260.25783   -3912.1756   -3466.1025   -3912.1756            0    6291.6582    17.113393    20.157317      20.8783    7202.1805     5807.536    7265.3896     5802.049    347.27388   -1965.6957    536.84993   -2805.2493 
 2739000    262.02524   -3932.2302   -3483.1279   -3932.2302            0     3476.572    17.139709    20.188313    20.910404    7235.4558    1636.5801    3870.0674    4923.0686   -243.25365    1699.9459   -283.68469   -3116.2741 
 2740000    258.30954   -3936.8281   -3494.0944   -3936.8281            0     6940.573    17.117727    20.162422    20.883587    7207.6535    4781.1702    8618.2385    7422.3102   -556.32035    1338.9002    655.69208   -2764.5275 
 2741000    241.46643   -3912.6511   -3498.7859   -3912.6511            0    5776.8688     17.10263    20.144639    20.865168    7188.5993    4333.7529    8475.0332    4521.8204   -1468.4988    415.32145    1445.6818   -2893.1485 
 2742000    257.79318   -3891.2879   -3449.4392   -3891.2879            0    5869.9912    17.139294    20.187824    20.909899    7234.9308    6860.3623    4696.6687    6052.9425   -468.08967   -809.61336   -115.91344   -2830.0727 
 2743000     256.6748   -3874.7801   -3434.8483   -3874.7801            0    7447.0402     17.10154    20.143355    20.863839     7187.225    6375.9087    7639.4877    8325.7242   -151.58239   -733.46134   -906.41283   -2654.2622 
 2744000    254.38062   -3891.6959   -3455.6963   -3891.6959            0    8995.2985    17.032569    20.062116    20.779694    7100.6161    10679.663    7957.4394    8348.7927   -482.27315    1053.7496   -1989.4379   -2524.1863 
 2745000    268.47865   -3886.3898   -3426.2266   -3886.3898            0     6074.534    17.140433    20.189165    20.911288    7236.3726    4924.1454    5959.1722    7340.2844   -509.19421   -1509.7021   -1345.0795   -2785.1502 
 2746000    254.86681   -3877.4156   -3440.5826   -3877.4156            0    4469.8284    17.096082    20.136927    20.857181    7180.3464    4316.0433    4582.6878    4510.7541   -477.93952    612.59731   -1855.7614   -2972.5112 
 2747000    247.90137   -3866.0518   -3441.1574   -3866.0518            0    6607.5073    17.040857    20.071879    20.789806    7110.9874     6015.275    6052.4132    7754.8337   -785.08012   -478.55167   -880.44633   -2755.9162 
 2748000    259.97627   -3870.7643   -3425.1739   -3870.7643            0    6748.0293     17.11203    20.155711    20.876637    7200.4593    4770.8244    9993.5083    5479.7554    -521.7086   -932.78207   -1254.8239   -2716.5545 
 2749000    243.74719   -3910.8824   -3493.1081   -3910.8824            0    5257.1422    17.126406    20.172644    20.894175     7218.622    5321.3736    3431.5712    7018.4819   -1357.6297    2602.6298   -475.68657   -2939.6562 
 2750000    261.45846   -3870.7954   -3422.6645   -3870.7954            0     8758.762    17.103548    20.145721    20.866289    7189.7573    7587.5481    6910.6991    11778.039   -562.05768     1397.295    634.33137   -2504.2625 
Loop time of 462.233 on 64 procs for 250000 steps with 864 atoms

Performance: 93.459 ns/day, 0.257 hours/ns, 540.853 timesteps/s
99.1% CPU use with 64 MPI tasks x 1 OpenMP threads

MPI task timing breakdown:
Section |  min time  |  avg time  |  max time  |%varavg| %total
---------------------------------------------------------------
Pair    | 20.889     | 26.005     | 30.205     |  45.9 |  5.63
Bond    | 0.28632    | 0.29632    | 0.31256    |   1.0 |  0.06
Kspace  | 200.92     | 208.71     | 223.49     |  38.4 | 45.15
Neigh   | 4.6293     | 5.4956     | 7.3473     |  31.5 |  1.19
Comm    | 91.341     | 108.85     | 117.67     |  63.8 | 23.55
Output  | 1.325      | 1.3276     | 1.3393     |   0.4 |  0.29
Modify  | 104.05     | 106.75     | 109.44     |  11.1 | 23.10
Other   |            | 4.794      |            |       |  1.04

Nlocal:        13.5000 ave          18 max           9 min
Histogram: 1 4 8 10 10 8 10 7 5 1
Nghost:        2218.88 ave        2251 max        2187 min
Histogram: 5 4 7 6 7 10 11 10 1 3
Neighs:        4287.31 ave        6000 max        2461 min
Histogram: 2 1 8 9 11 10 9 8 3 3

Total # of neighbors = 274388
Ave neighs/atom = 317.57870
Ave special neighs/atom = 2.0000000
Neighbor list builds = 13520
Dangerous builds = 0

unfix		3
unfix		2
unfix		1

write_data	data.final.${pid}
write_data	data.final.0
System init for write_data ...
PPPM initialization ...
  extracting TIP4P info from pair style
  using 12-bit tables for long-range coulomb (../kspace.cpp:340)
  G vector (1/distance) = 0.37363838
  grid = 24 24 24
  stencil order = 5
  estimated absolute RMS force accuracy = 0.0032328447
  estimated relative force accuracy = 9.7356158e-06
  using double precision FFTW3
  3d grid and FFT values/proc = 2535 216
Last active /omp style is kspace_style pppm/tip4p/omp
WARNING: Not all mixed pair coeffs generated from mixing. Use write_data with 'pair ij' option to store all pair coeffs. (../write_data.cpp:312)

write_restart   restart.lmp.${pid}
write_restart   restart.lmp.0
System init for write_restart ...
PPPM initialization ...
  extracting TIP4P info from pair style
  using 12-bit tables for long-range coulomb (../kspace.cpp:340)
  G vector (1/distance) = 0.37363838
  grid = 24 24 24
  stencil order = 5
  estimated absolute RMS force accuracy = 0.0032328447
  estimated relative force accuracy = 9.7356158e-06
  using double precision FFTW3
  3d grid and FFT values/proc = 2535 216
Last active /omp style is kspace_style pppm/tip4p/omp
Total wall time: 0:07:45
