LAMMPS (30 Jul 2021)
  using 1 OpenMP thread(s) per MPI task
package omp 0
using multi-threaded neighbor list subroutines
echo both

include		in.partitions
variable        pid world 0
include		in.temp
variable        temperature equal 269.87
variable	tempDamp equal 100.0
include		in.pressure
variable        pressure equal 11750.0
variable        pressureDamp equal 1000.0 # This is 1 ps
include		in.seed
variable        seed world 745823

units		real
atom_style	full
read_restart    restart.lmp.${pid}
read_restart    restart.lmp.0
Reading restart file ...
  restart file = 30 Jul 2021, LAMMPS = 30 Jul 2021
  restoring atom style full from restart
  triclinic box = (-3.1133836 -0.17322415 -0.021275291) to (14.723383 22.753223 19.251273) with tilt (-0.093949819 -6.0375825 0.17101298)
  4 by 4 by 4 MPI processor grid
  restoring pair style lj/cut/tip4p/long/omp from restart
  restoring bond style harmonic/omp from restart
  restoring angle style harmonic/omp from restart
  1008 atoms
  672 bonds
  336 angles
Finding 1-2 1-3 1-4 neighbors ...
  special bond factors lj:    0        0        0       
  special bond factors coul:  0        0        0       
     2 = max # of 1-2 neighbors
     1 = max # of 1-3 neighbors
     1 = max # of 1-4 neighbors
     2 = max # of special neighbors
  special bonds CPU = 0.461 seconds
  read_restart CPU = 0.600 seconds

include 	in.setup
variable	out_freq equal 1000
variable	out_freq2 equal 10000
variable	out_freq3 equal 1000

timestep	2.0

neigh_modify    delay 7 every 1

include		in.tip4p
# This is TIP4P/Ice

# create groups ###
group ox type 2
336 atoms in group ox
group hy type 1
672 atoms in group hy

# set charges - beside manually ###
set group ox charge -1.1794
Setting atom values ...
  336 settings made for charge
set group hy charge 0.5897
Setting atom values ...
  672 settings made for charge

# ### TIP3P Potential Parameters ###
pair_style lj/cut/tip4p/long/omp 2 1 1 1 0.1577 8.5
pair_coeff 1 1*2 0.000 0.000
pair_coeff 2 2 0.21084 3.1668
bond_style  harmonic
bond_coeff  1 450 0.9572
angle_style harmonic
angle_coeff 1 55 104.52
kspace_style pppm/tip4p/omp 1.0e-5
pair_modify tail yes

thermo          ${out_freq}
thermo          1000
thermo_style    custom step temp pe etotal epair emol press lx ly lz vol pxx pyy pzz pxy pxz pyz enthalpy

restart 	${out_freq3} restart.lmp.${pid} restart2.lmp.${pid}
restart 	1000 restart.lmp.${pid} restart2.lmp.${pid}
restart 	1000 restart.lmp.0 restart2.lmp.${pid}
restart 	1000 restart.lmp.0 restart2.lmp.0


include         in.dump
dump            myDump all atom ${out_freq2} dump.water.${pid}
dump            myDump all atom 10000 dump.water.${pid}
dump            myDump all atom 10000 dump.water.0
dump            myDump2 all dcd ${out_freq2} dump.dcd
dump            myDump2 all dcd 10000 dump.dcd
dump_modify     myDump append yes
dump_modify     myDump2 append yes


variable natoms 	equal  "count(all)"                        # NUMBER ATOMS
variable H      	equal  "enthalpy/v_natoms"                 # ENTHALPY-per-atom
variable Vol      	equal  "vol/v_natoms"                 # volume-per-atom
fix AVG all 		ave/time ${out_freq} 1 ${out_freq} v_Vol v_H file vol_enthalpy.dat
fix AVG all 		ave/time 1000 1 ${out_freq} v_Vol v_H file vol_enthalpy.dat
fix AVG all 		ave/time 1000 1 1000 v_Vol v_H file vol_enthalpy.dat



fix 		1 all shake 1e-6 200 0 b 1 a 1
       0 = # of size 2 clusters
       0 = # of size 3 clusters
       0 = # of size 4 clusters
     336 = # of frozen angles
  find clusters CPU = 0.066 seconds
fix             2 all nph tri ${pressure} ${pressure} ${pressureDamp}
fix             2 all nph tri 11750 ${pressure} ${pressureDamp}
fix             2 all nph tri 11750 11750 ${pressureDamp}
fix             2 all nph tri 11750 11750 1000
fix             3 all temp/csvr ${temperature} ${temperature} ${tempDamp} ${seed}
fix             3 all temp/csvr 269.87 ${temperature} ${tempDamp} ${seed}
fix             3 all temp/csvr 269.87 269.87 ${tempDamp} ${seed}
fix             3 all temp/csvr 269.87 269.87 100 ${seed}
fix             3 all temp/csvr 269.87 269.87 100 745823


run             250000
PPPM initialization ...
  extracting TIP4P info from pair style
  using 12-bit tables for long-range coulomb (../kspace.cpp:340)
  G vector (1/distance) = 0.37915026
  grid = 24 27 32
  stencil order = 5
  estimated absolute RMS force accuracy = 0.0024726274
  estimated relative force accuracy = 7.4462439e-06
  using double precision FFTW3
  3d grid and FFT values/proc = 3825 384
Last active /omp style is kspace_style pppm/tip4p/omp
Neighbor list info ...
  update every 1 steps, delay 7 steps, check yes
  max neighbors/atom: 2000, page size: 100000
  master list distance cutoff = 10.8154
  ghost atom cutoff = 10.8154
  binsize = 5.4077, bins = 5 5 4
  1 neighbor lists, perpetual/occasional/extra = 1 0 0
  (1) pair lj/cut/tip4p/long/omp, perpetual
      attributes: half, newton on, omp
      pair build: half/bin/newton/tri/omp
      stencil: half/bin/3d/tri
      bin: standard
Per MPI rank memory allocation (min/avg/max) = 9.314 | 9.327 | 9.339 Mbytes
Step Temp PotEng TotEng E_pair E_mol Press Lx Ly Lz Volume Pxx Pyy Pzz Pxy Pxz Pyz Enthalpy 
19000000    266.58874   -4764.4211   -4231.2107   -4764.4211            0    10768.409    17.836766    22.926447    19.272549    7881.1943    10484.777    11068.189     10752.26    74.202864   -171.29333    1125.9172   -2993.4992 
19001000    259.36971   -4796.3792   -4277.6078   -4796.3792            0    9243.6807     17.81044     22.82913    19.390742    7884.2148    9403.2902    8949.1311    9378.6207   -916.73992   -150.53782   -1030.9769   -3214.7399 
19002000    266.51928   -4806.0812   -4273.0097   -4806.0812            0    10388.834    17.924507    23.062495    19.076053    7885.7324    11072.901    8577.3705    11516.231    1097.2658    239.96564    116.52139   -3078.2386 
19003000    273.91926   -4824.0419   -4276.1695   -4824.0419            0    11325.982    17.561371    23.197583     19.17979    7813.4889    10577.471    10844.593    12555.882    447.65161   -915.94039    867.08331   -2985.5543 
19004000    256.20034   -4800.9992   -4288.5668   -4800.9992            0    13884.977    17.570263    23.250935    18.918982     7728.878    13698.991    12284.252    15671.689   -795.55474    -5.156679   -371.49764   -2723.4834 
19005000    262.58466   -4788.8757    -4263.674   -4788.8757            0    11124.049    17.692738    23.330669    19.008098    7846.2274    9983.3385     11867.95     11520.86    250.53674     598.6454    -1084.803   -2990.7581 
19006000    269.26918   -4796.2982   -4257.7266   -4796.2982            0    9823.8858    17.819256    23.311051    19.026188     7903.204    8171.6328    9310.2473    11989.777   -849.34233   -115.71536   -1216.4778   -3125.4243 
19007000     266.6389   -4803.5977    -4270.287   -4803.5977            0    11022.137    17.657595     23.17731    19.167165     7844.269    13280.361    9409.4782    10376.572    249.48452    911.56113    339.20708   -3009.3477 
19008000      272.789   -4803.4842   -4257.8725   -4803.4842            0    10586.345    17.776121    23.168347    19.083225    7859.2991    11577.875    9970.5359    10210.624    570.75967   -209.01877    1024.9367   -3044.4676 
19009000    285.34125   -4805.2547   -4234.5369   -4805.2547            0     11564.82    17.710983    23.276616    19.040285    7849.3907    11982.131    10046.211    12666.119   -2159.4399    65.378263   -2311.2332   -2910.6505 
19010000    270.45298   -4790.5252   -4249.5859   -4790.5252            0    10499.054    17.865126    22.951057    19.166964    7858.9066     12704.71    8781.5135     10010.94   -1363.9594   -316.77078    -181.6552   -3046.2463 
19011000    273.23095   -4816.0303   -4269.5346   -4816.0303            0    12751.672    17.719589    22.885053    19.207752    7789.0069    15147.749    12525.793    10581.474    1114.1826    -75.33438    605.27121   -2821.0126 
19012000    279.33802   -4780.1428   -4221.4323   -4780.1428            0    11053.153    17.906856    22.861171     19.22428    7869.8762    10545.586    11194.237    11419.637   -393.77682   -796.57675    529.20112   -2952.8169 
19013000    271.75006   -4769.9258   -4226.3921   -4769.9258            0    11349.966    17.814451    22.745936    19.431076    7873.5958    13526.772    10955.946    9567.1809   -258.03685    331.28066   -149.19107   -2923.0946 
19014000    279.97479   -4834.1856   -4274.2015   -4834.1856            0    10280.283    17.951088    23.015856    19.061313    7875.3659    10415.598    10780.727    9644.5225   -407.18734   -195.57117   -1745.3667   -3093.4685 
19015000    270.16016   -4801.5424   -4261.1887   -4801.5424            0    11899.156    17.782302    22.809244    19.297673    7827.1531    10751.275    12386.959    12559.233     462.7237    1083.2992    1052.6615   -2902.8882 
19016000    276.55726   -4796.5959   -4243.4472   -4796.5959            0    14384.529    17.761183    22.863883    19.089713    7752.1342    16633.903    12873.114     13646.57   -585.38737   -886.77253     250.8968   -2617.1766 
19017000    273.84693   -4802.0803   -4254.3526   -4802.0803            0    13727.475    17.746811    22.782383    19.191439    7759.3797    12687.703    14120.432     14374.29    519.87685    790.34355   -500.35397   -2700.9159 
19018000     271.2893   -4832.8112   -4290.1991   -4832.8112            0    10369.982    17.722931    23.388495    18.946334    7853.4958    9474.3055    10131.209     11504.43   -497.20057    956.02002   -102.74088   -3102.4714 
19019000    258.09513    -4795.458   -4279.2359    -4795.458            0    10294.591    17.757028    23.372509    19.041031    7902.5287    10691.492    9365.7938    10826.489    1102.5158   -1092.6037   -1364.2568   -3092.7814 
19020000    258.64272   -4796.6232   -4279.3058   -4796.6232            0    11273.583    17.571373    23.296626    19.193695    7857.0102     12975.13    9632.0056    11213.615    24.776859   -439.80416    763.09886   -2987.5061 
19021000    262.85432   -4824.0065   -4298.2654   -4824.0065            0    7993.6039    17.764804    23.257605    19.101629    7892.1586    9326.5579    6907.6823    7746.5715    66.343157   -1479.8901   -877.19667   -3378.2093 
19022000     271.6714    -4809.721   -4266.3447    -4809.721            0     10199.84    17.598634    23.181707    19.323725    7883.4302    9769.6584    11074.695    9755.1675    567.70772   -323.25288    1160.2192   -3093.6513 
19023000    257.37134   -4817.8828   -4303.1084   -4817.8828            0    8626.4471     17.76383    23.209274    19.159227    7899.0737    9110.4271    8513.8095    8255.1048   -1094.3432     473.5868   -1945.3815   -3309.3426 
19024000    276.79061   -4770.9863   -4217.3709   -4770.9863            0    11436.285    17.620107    23.362442    19.048004    7841.0869    10705.841    11037.257    12565.757     997.8505    -1094.469    1422.6289   -2909.5836 
19025000    268.17899   -4770.1764   -4233.7853   -4770.1764            0    11319.557    17.771221    23.199873    19.056284    7856.7166    10068.339    10618.665    13271.666   -1657.2768    870.94592   -539.75782   -2936.7661 
19026000    278.10759   -4812.2899   -4256.0403   -4812.2899            0    9179.7769    17.964534    23.015656      19.1263    7908.0657    10133.129    8684.5509    8721.6507   -1968.6723    845.00584   -504.62075   -3197.3272 
19027000    285.46158   -4793.6645   -4222.7061   -4793.6645            0    12842.534    17.710777    23.035893    19.178081    7824.3417    14913.653    11546.019    12067.929   -1072.9748     -1945.14   -2143.1589   -2757.2446 
19028000    265.59265    -4800.336   -4269.1179    -4800.336            0    14414.182    17.874084    22.798938    19.079996    7775.2915    14181.399    14082.771    14978.376    545.79157    121.22131    1252.4877   -2634.6268 
19029000    272.65653   -4802.6708   -4257.3241   -4802.6708            0     11786.96    17.695831     22.98896    19.224274     7820.603    12620.542    12801.743    9938.5934   -990.97872    620.90502   -680.62467   -2912.9568 
19030000    274.89194    -4791.479   -4241.6611    -4791.479            0    10912.551    17.908285    23.051203    19.026329    7854.2113    9923.0077    10914.103    11900.542    872.98721    468.56897    26.678781   -2991.6763 
19031000    281.69155   -4806.9023   -4243.4844   -4806.9023            0    9072.9421    17.937625    22.931012    19.297248    7937.4966    8863.1315    9145.7056    9209.9892    915.27315    340.93553   -995.38615   -3193.1984 
19032000     270.0484   -4793.1428   -4253.0126   -4793.1428            0    11315.277    17.834724    22.844734    19.292431    7860.3059      10804.4    11488.406    11653.025    499.61325    1504.7115   -1064.7064   -2955.8915 
19033000    280.10927   -4821.2999   -4261.0468   -4821.2999            0    13985.192    17.876381     22.72231    19.153003    7779.8094    12771.042    13930.574    15253.959   -354.71923   -595.84542   -801.42146   -2674.2794 
19034000    259.85802   -4819.3352    -4299.587   -4819.3352            0    10852.027    17.794648    22.826312    19.322303    7848.4523    12419.671    10243.072    9893.3374    621.30769   -757.71864   -1832.1721   -3057.4464 
19035000    257.68684   -4817.5556   -4302.1501   -4817.5556            0    12294.909    17.826314    22.827724    19.240702     7829.699     10972.64    14108.345    11803.743    316.64569    227.65899    1574.9667   -2898.2174 
19036000    270.38413   -4847.0499   -4306.2482   -4847.0499            0    10245.859    17.743697    22.996731    19.226138    7845.1683    10538.287    10800.019    9399.2716       1437.6    374.17582   -2012.3436   -3133.9812 
19037000    274.19247    -4812.563   -4264.1442    -4812.563            0    12369.526    17.775219    23.087977    19.014994    7803.6368    11796.784    13004.112    12307.683    919.19773   -337.93067    -381.1751   -2856.3927 
19038000    263.92929    -4788.656   -4260.7648    -4788.656            0    11861.016    17.686423    23.265227    18.964451    7803.4669    11230.894    10689.087    13663.067   -479.84381    -553.7416   -500.70047   -2910.9152 
19039000    271.52396   -4807.9017   -4264.8203   -4807.9017            0    11627.012    17.505203    23.321563    19.145858    7816.2714    11965.428    11036.841    11878.767   -151.47121    940.24574   -474.48661   -2939.4304 
19040000    273.23992   -4809.3442   -4262.8306   -4809.3442            0    11125.698    17.811732    23.171085    19.014499    7847.6101    9806.5873    10961.958     12608.55      43.1018    461.15203    1126.9335   -2989.5017 
19041000    268.28126   -4787.3315   -4250.7358   -4787.3315            0    11948.885    17.653587    23.098204      19.1331    7801.8303    12108.131    12020.076    11718.448   -517.51547   -117.57142   -1188.5076   -2891.1715 
19042000    288.00677   -4829.2002   -4253.1511   -4829.2002            0    11913.884    17.684213    22.978154    19.238472    7817.5639    11686.412    12510.021    11545.218   -211.21703     571.9505   -583.02119   -2894.8355 
19043000     274.9114    -4788.779   -4238.9223    -4788.779            0    10585.891    17.814405    23.111909    19.064715    7849.4181    10117.718    10759.465     10880.49    128.04706   -745.18725    295.56122   -3027.0949 
19044000    271.30222   -4825.7845   -4283.1465   -4825.7845            0    12919.362    17.565705    23.002846    19.234669    7771.9838    14947.108    12853.576    10957.403    589.45711    909.65821   -1657.1124   -2818.7832 
19045000    256.36936   -4807.5726   -4294.8022   -4807.5726            0    11564.757    17.876081    22.958208    19.078193    7829.7432    11933.911     10579.75    12180.611   -434.82522   -75.677313    224.85489   -2974.2368 
19046000    263.90305   -4810.8595   -4283.0208   -4810.8595            0    10410.723    17.745294    22.766375    19.420449    7845.7841    10928.501    12184.913    8118.7544    361.54122      327.438   -1012.4178   -3091.7976 
19047000    278.04634   -4829.2832   -4273.1561   -4829.2832            0    10141.318    17.825356    23.047829    19.173863    7877.3084    12077.692    10239.692    8106.5702    690.93494    128.60766    1523.0039   -3108.0965 
19048000    268.82976   -4807.2846   -4269.5919   -4807.2846            0    12037.879    17.658349    23.060524    19.090774    7773.9694    12271.378    11145.352    12696.908   -174.43879   -441.97927   -750.38378   -2904.7928 
19049000    279.34756   -4809.2188   -4250.4891   -4809.2188            0    11340.784    17.736694    23.150117     19.12813     7854.135    12070.664    10613.106    11338.582    613.99384   -755.25506    652.49811   -2951.4647 
19050000    266.32341   -4819.5141   -4286.8344   -4819.5141            0    12871.962    17.751273    22.887476    19.194036    7798.1882    13715.677    12639.603    12260.606   -447.77583    997.38489   -784.24138   -2822.9245 
19051000    279.66907   -4754.1151   -4194.7424   -4754.1151            0    11950.787    17.777452    22.996429    19.128733    7820.1687    11368.855    11817.073    12666.433   -465.32902   -1152.0278    1482.7488   -2831.7655 
19052000    268.44172   -4829.8667   -4292.9501   -4829.8667            0      11950.6    17.722793     22.99559    19.169435    7812.4281     12030.79    11641.533    12179.478   -1068.3091   -378.87549   -2056.0847   -2931.3435 
19053000     269.3606   -4828.6565    -4289.902   -4828.6565            0     14152.53    17.725354    22.910024    19.034568    7729.7148    12429.456    15771.445    14256.691    913.83938    1242.2187    770.40638   -2694.4878 
19054000    272.35943    -4766.888   -4222.1355    -4766.888            0    14775.096    17.645763    22.850499    19.276381    7772.5162    15806.566    14021.687    14497.033    807.37526   -548.07239    97.270907   -2547.3167 
19055000    290.13144   -4821.1559   -4240.8572   -4821.1559            0    12604.786    17.812736    23.027093    19.021138    7802.0052    12203.927    12610.549    12999.881    497.57615    621.35356    654.07867   -2806.6312 
19056000    294.96677   -4804.1638   -4214.1939   -4804.1638            0    13536.154    17.702929    23.042551    19.093099    7788.4691    13027.051    14273.017    13308.395    -330.7573   -454.06196   -245.55067   -2676.6649 
19057000    257.98866    -4823.147   -4307.1378    -4823.147            0    10688.336    17.805716    23.312105    18.942257    7862.7177    10398.402    10310.356    11356.251   -1059.9791    321.76856    -511.4686   -3081.5097 
19058000    270.38366   -4801.8663   -4261.0655   -4801.8663            0    11292.255    17.643032    23.026596    19.269593     7828.445    12005.407    10776.079     11095.28   -372.92725   -2307.6995    606.88787   -2971.8306 
19059000     262.4519   -4806.3957   -4281.4595   -4806.3957            0    9798.3609    17.810733    23.124774    19.133196    7880.3737    8820.9074    10285.915     10288.26   -334.66654   -542.76667   -1689.7211   -3155.3616 
19060000    277.58903   -4826.6417   -4271.4294   -4826.6417            0    11494.551    17.688652    23.228688    19.121835    7856.8595    12263.612    11454.962     10765.08    174.09363    1070.6188     -895.881    -2954.335 
19061000    282.12509   -4810.1034   -4245.8184   -4810.1034            0     11890.44    17.766637    23.085975    19.081555    7826.4936    11265.569      11236.9     13168.85     1018.532    258.45607   -253.47716   -2888.6272 
19062000    293.92884   -4788.9303   -4201.0363   -4788.9303            0    13309.819      17.6779    23.160627    19.038067    7794.7794    10908.315    13994.025    15027.118    1002.5593   -170.59221    1086.7421   -2687.9911 
19063000    284.57997   -4795.6253   -4226.4302   -4795.6253            0    11296.017    17.729681    23.226062    19.044765    7842.4563    9809.3063    11379.057    12699.688    606.48405   -697.80518    1721.8981   -2934.4575 
19064000    271.98265   -4819.6681   -4275.6692   -4819.6681            0    11082.311     17.86112    22.886589    19.248326    7868.3328    10415.994    10785.703    12045.237    -333.5977    861.98174   -62.772126   -3003.9567 
19065000    264.45566   -4828.4299   -4299.4859   -4828.4299            0    10267.819    17.878027    22.808908     19.31459    7876.0703      8805.82     11349.43    10648.208    -1396.651    83.122287   -306.71368   -3120.0789 
19066000    281.73974   -4785.9134   -4222.3991   -4785.9134            0      12841.3    17.828823     22.66582    19.335217    7813.4559    14390.113    13336.224    10797.564   -484.06422    117.34901   -1707.7967    -2759.117 
19067000    272.67802   -4822.3524   -4276.9626   -4822.3524            0    11401.204    17.889403    22.615192    19.354209    7830.1764    10206.011    13096.639    10900.963     1234.036   -699.91396    2211.5657    -2975.001 
19068000    280.48093    -4821.495   -4260.4985    -4821.495            0    11744.137    17.907729    22.751912    19.244141    7840.7381    9994.7561    12510.795     12726.86   -292.58018    -545.9754    1303.5276   -2917.5667 
19069000    265.37041   -4831.2541   -4300.4805   -4831.2541            0    11205.618    17.814198    22.974977     19.09335    7814.5416    9072.2174      11616.2    12928.436   -1346.4756    389.50676    276.20262    -3023.409 
19070000     274.5679   -4798.3952   -4249.2255   -4798.3952            0    12154.063    17.748777    23.004791    19.187974    7834.5826    13102.455    13160.914     10198.82   -1044.1328    -93.12651    560.36206   -2860.5102 
19071000    263.99397    -4800.162   -4272.1414    -4800.162            0     10643.65    17.812861    22.866246    19.303237    7862.4646    9636.1048    11348.352    10946.494   -1173.7342    1015.1437   -479.75363   -3051.6768 
19072000     282.5477   -4775.1863    -4210.056   -4775.1863            0    11505.035     18.06698     22.87535    19.076814    7884.2277    8812.5773    12375.138     13327.39    606.77074    848.75907    124.72282   -2887.1683 
19073000    259.89456   -4822.3751   -4302.5539   -4822.3751            0    11585.915    17.740078    22.804401    19.318845    7815.4746    12079.756    12722.615    9955.3748   -549.67911     544.2152    758.42174   -2981.9834 
19074000    266.84696   -4843.8252   -4310.0983   -4843.8252            0    10853.067    17.902499    22.902505    19.138856     7847.162    11248.378    11018.087    10292.737   -889.06418    458.48779   -217.70369   -3068.0428 
19075000    274.84256   -4810.7319   -4261.0129   -4810.7319            0    12012.235    17.578149     22.90639    19.353282    7792.6366    14816.254    11069.217    10151.235   -425.53068   -1114.3265    985.04372    -2895.851 
19076000    265.16722   -4791.5964   -4261.2292   -4791.5964            0    9817.5208    17.817092    23.126818     19.12414    7880.1523    8324.7028    10162.842    10965.017   -991.00047   -605.30688    2833.8741   -3132.9611 
19077000    250.82034   -4819.7778   -4318.1061   -4819.7778            0    12061.841     17.71842    23.131666     19.09223    7825.0761    13464.035    10632.925    12088.561    660.70677    388.81425    1653.4744   -2941.6003 
19078000    279.61003   -4768.5702   -4209.3156   -4768.5702            0    12369.453    17.583543    23.244225    19.116583      7813.25    13985.511    10949.298    12173.551    704.18719    54.877733    525.64736   -2799.8382 
19079000    257.94219   -4802.7071   -4286.7909   -4802.7071            0    10872.797     17.69559    23.119089    19.138771    7829.7843    11492.905    10570.992    10554.495   -1309.5518   -260.02869   -1851.6644    -3045.233 
19080000     271.8417   -4786.1059   -4242.3889   -4786.1059            0    11547.993    17.825798    23.009301    19.116696    7840.8878    10777.322    11003.863    12862.794    99.278154   -35.936813    61.502628   -2921.8608 
19081000    261.73401    -4789.405   -4265.9047    -4789.405            0    11915.584    17.798606    22.861742    19.280159    7845.2343    12747.117    11777.629    11222.007    -312.6531     419.1057   -114.44812   -2902.5868 
19082000    268.78018    -4832.469   -4294.8754    -4832.469            0    11741.246    17.740527    23.064587    19.115858    7821.7873    10486.202    12095.122    12642.413      692.214    -67.75818   -585.36361   -2955.5193 
19083000    279.26787     -4801.54   -4242.9698     -4801.54            0    11638.314    17.838252    23.013023    19.061421    7824.9439    9669.4772    11804.851    13440.614     77.15706   -1087.4805    640.08187   -2914.8196 
19084000    278.51399   -4783.2651   -4226.2027   -4783.2651            0    9939.6847    17.826924    22.964102    19.262877    7885.8229    9063.7821    9214.4435    11540.828    1330.5533   -1565.8609    373.30369    -3083.073 
19085000    273.20478   -4841.8875   -4295.4442   -4841.8875            0    11066.499    17.862119    22.918978    19.144497    7837.4031    11079.964    10422.929    11696.604   -600.80935    50.545726   -1469.2094    -3030.538 
19086000    258.95153   -4804.7001   -4286.7651   -4804.7001            0    11094.199    17.838023    22.877337    19.265108      7861.83    12806.591     10762.32    9713.6861    1160.8965    1242.0824    1684.2732   -3014.7405 
19087000     262.0138   -4800.1539    -4276.094   -4800.1539            0    11274.127    17.668857    23.180727    19.136131    7837.7181    13162.421    10621.725    10038.236   -321.34393   -888.70486   -773.35668    -2987.404 
19088000    277.47199   -4816.9719   -4261.9936   -4816.9719            0    10963.493    17.545221    23.217756    19.204829    7823.2919     11497.88    10527.338    10865.261   -560.79578   -1227.6708   -2627.9276   -3011.1173 
19089000    267.38685    -4845.085   -4310.2783    -4845.085            0    12141.245     17.75329    23.087797    19.052398    7809.2798    10935.938    13731.886    11755.911    1450.7465   -11.869943     2153.298   -2927.5078 
19090000    266.82737   -4809.3312   -4275.6434   -4809.3312            0    12595.145    17.679562    23.075614    19.147108    7811.3835    11713.699    13059.966    13011.769   -649.00566    347.06137    9.5488906   -2840.7917 
19091000    270.03483   -4815.4894   -4275.3864   -4815.4894            0    11343.499    17.730561    23.085609    19.062037    7802.4879    10810.042     10710.74    12509.714   -1376.8192   -537.08743   -550.06054   -2984.5951 
19092000    268.25418   -4799.5088   -4262.9673   -4799.5088            0    13204.419    17.746229    23.102526    19.008117    7792.9992     11795.41    13987.924    13829.923   -1062.0642    942.67604    1299.6009   -2762.2468 
19093000    278.30439    -4799.715   -4243.0718    -4799.715            0    11174.033    17.638452    23.174912    19.103253    7808.8287    12246.351    10161.871    11113.876   -795.92519   -881.39751    230.35261    -2970.531 
19094000    272.09203   -4820.0917    -4275.874   -4820.0917            0    11005.957    17.762453    22.982359    19.224981     7848.081    10067.114    10462.939    12487.819   -1093.8237   -276.52561    693.60774   -3016.1738 
19095000    250.01095   -4798.4928     -4298.44   -4798.4928            0    13415.029    17.926294    22.675517    19.138587    7779.6057    12741.791    14236.564    13266.733   -246.77061    35.350678   -1641.7947   -2776.4034 
19096000    278.08582   -4807.0823   -4250.8763   -4807.0823            0    10253.651    17.807757    22.613289    19.455169      7834.44    10735.906    10992.952    9032.0942    295.66653    928.12196    1330.1233   -3079.3222 
19097000    273.11036   -4814.1182   -4267.8638   -4814.1182            0    12532.001     17.88975     22.68174    19.241409    7807.5993    12804.271    12245.132      12546.6    1154.0449   -919.11517   -549.45206   -2840.8971 
19098000    272.81471   -4823.7378   -4278.0747   -4823.7378            0    10864.643    18.006829     22.56276    19.349419    7861.3545    10084.948    12474.617    10034.363    116.75172    353.37697   -560.12324   -3032.4457 
19099000    263.27324   -4811.8705   -4285.2915   -4811.8705            0    11411.752    17.859414    22.742944    19.286193    7833.5823    10204.101    12448.947    11582.208     734.9118    405.49915   -1400.1019   -2981.5586 
19100000    265.56865    -4776.225   -4245.0549    -4776.225            0    15899.322    17.797108    22.832368    18.980123    7712.5754    15747.718     16452.47    15497.779   -1223.0136    -43.35442   -1599.6649   -2456.6991 
19101000    256.39469   -4808.9481    -4296.127   -4808.9481            0    12199.341    17.674854    22.870378     19.26403    7787.1102    10911.432    12601.312    13085.278    1791.0922    1526.6471    1455.2798   -2910.6843 
19102000    253.89319   -4778.2868    -4270.469   -4778.2868            0    10438.915    17.942068    22.930199    19.173007    7888.0663    9825.3993    10199.194    11292.152   -721.98452    729.55724    -1306.088   -3069.5829 
19103000    266.89788   -4784.2537   -4250.4249   -4784.2537            0    12404.372    17.790891    22.783448    19.296048    7821.4189    11909.823    13582.064    11721.228   -1486.4907     -779.233     1426.554   -2835.4909 
19104000    277.91062   -4804.2984   -4248.4428   -4804.2984            0     12165.02    17.868007    22.754196    19.213223    7811.5609    11896.482    11719.923    12878.655   -764.33945   -2503.6674   -224.10036   -2862.5599 
19105000    273.33416   -4756.5404   -4209.8383   -4756.5404            0    13490.568    18.002176    22.717323    19.140523    7827.7324    13637.259    13194.943    13639.502    790.78337   -523.12198    438.64883   -2669.7625 
19106000    260.74219   -4818.3253   -4296.8087   -4818.3253            0    12226.243     17.85177    22.806139    19.243454    7834.5864    9720.1773    14134.675    12823.877     324.6661    720.95816   -753.54902   -2899.8455 
19107000    268.95778   -4800.1571   -4262.2083   -4800.1571            0    12314.293    17.953677    22.934892    19.071223    7852.8746    11714.263    12340.655    12887.962   -1845.5588   -247.23173   -371.83468      -2851.9 
19108000    274.56889   -4802.0573   -4252.8856   -4802.0573            0    9701.4457    17.819961    23.029406    19.212434    7884.4587    7130.3849    10025.167    11948.785    381.91796   -1394.3033   -1624.0242    -3137.348 
19109000    262.91141   -4816.3262   -4290.4709   -4816.3262            0    10485.662    17.716828    23.124387    19.229979    7878.3454    11384.427     10195.22    9877.3393   -397.00734   -654.77522   -886.63754   -3085.6936 
19110000    266.93635   -4784.7988   -4250.8932   -4784.7988            0    10913.571     17.69433    23.417313    19.024168    7882.7336    11201.799    10287.981    11250.934    857.91141    -192.2271    27.052399   -2996.2517 
19111000    269.89373   -4765.7884   -4225.9675   -4765.7884            0    11696.444    17.533846    23.323133    19.176323    7842.0465    12659.151    11134.399    11295.783    509.99648    844.60594    1169.0565   -2888.2662 
19112000    279.11875   -4818.0935   -4259.8215   -4818.0935            0    10203.717    17.745921    23.191541    19.054779    7842.0945    10244.378    10358.493    10008.279   -1194.5282   -1145.2132    -656.6545   -3092.8336 
19113000    269.59722   -4816.8634   -4277.6357   -4816.8634            0    11629.317    17.727054    22.837766    19.263287    7798.6708     12627.94    12445.179    9814.8322    1587.9647    3.2404978    3574.9032   -2954.9682 
19114000     260.7849   -4768.0786   -4246.4765   -4768.0786            0    11213.994    17.822301    23.016402    19.109252    7838.7154     11014.75    11777.386    10849.845   -430.04319   -155.01284   -539.31343    -2964.497 
19115000    267.63853    -4802.041   -4266.7309    -4802.041            0      10521.4    17.640133    23.046404    19.287106    7841.0114    10679.458    11578.231    9306.5096   -594.27362    1501.1641    1260.0189   -3063.5762 
19116000    257.89658   -4806.3702   -4290.5452   -4806.3702            0     10236.91     17.96869    22.903926    19.028194    7831.1208    10151.746    9839.0036    10719.981   -718.75693   -693.98751    743.04863   -3121.3993 
19117000    253.12029   -4806.6082   -4300.3364   -4806.6082            0    11948.226    17.724362     22.70655    19.424909    7817.7315    11326.399     12184.73     12333.55   -78.020657    385.67414   -339.40404   -2938.0761 
19118000    255.27854   -4801.7412   -4291.1526   -4801.7412            0    10779.386     17.88435    22.835254    19.240671    7857.7684    10375.273    12488.721     9474.166   -1108.1333    746.45973    -187.4432   -3055.8619 
19119000    263.93389   -4815.8294    -4287.929   -4815.8294            0    12649.142    18.080455    22.624266    19.097033    7811.7755    10630.426    14043.792    13273.208   -771.11553   -2717.6934   -1360.2448   -2846.8536 
19120000    267.94722   -4806.7658   -4270.8382   -4806.7658            0    10840.066    17.836119    22.756888    19.337516    7848.9925        10324    11409.162    10787.035   -314.19818   -921.65296   -1153.1689   -3029.9813 
19121000    260.33129   -4816.7007   -4296.0059   -4816.7007            0    10107.636    17.943296    22.885869    19.173235    7873.4493     9046.148    10431.417    10845.342    -2230.568   -568.11491   -1084.3897   -3135.3847 
19122000    273.88345   -4786.9383   -4239.1375   -4786.9383            0    11031.577    17.632574    22.929108    19.350511    7823.3957    13457.445    10854.604    8782.6802    618.22215   -97.066231   -1847.4349   -2980.4765 
19123000    266.26053   -4796.7293   -4264.1753   -4796.7293            0    12797.709    17.818753    23.083433    18.997408    7813.9754    12806.025    11377.386    14209.716    1204.1031    569.61556   -1466.9338   -2805.7636 
19124000    285.05378   -4827.0403   -4256.8975   -4827.0403            0    11659.938    17.636702    23.140701    19.226554    7846.8496    12206.789    11670.688    11102.338    668.08758    113.45541    508.42272   -2922.5545 
19125000    266.08274   -4755.2591   -4223.0607   -4755.2591            0    13230.507    17.538639    22.968378    19.290907    7771.0346    15011.674    14369.981    10309.867   -2302.7114    299.32058   -1354.5451   -2723.6133 
19126000    276.78542   -4835.3023   -4281.6972   -4835.3023            0    11750.716    17.785886    22.929424    19.124907    7799.5218    12400.594    11322.263     11529.29   -778.95069   -1139.4015    828.87525   -2945.0765 
19127000    268.64598   -4822.1922    -4284.867   -4822.1922            0    12115.132    17.791861    22.996618    19.105877      7817.22     11767.77    12114.318    12463.308   -662.92597    752.84163   -568.59705   -2903.6677 
19128000     262.3595   -4797.2845    -4272.533   -4797.2845            0    14699.925    17.495934    23.122603    19.169333    7754.9827    15390.252    13085.624    15623.899   -1010.7555    961.52235    197.96737   -2609.9941 
19129000    285.07429   -4786.1143   -4215.9305   -4786.1143            0    12815.078     17.70065    23.076508    19.102787    7802.8998    9346.1302    14225.538    14873.567   -12.872085    835.10097    1860.9613   -2757.6093 
19130000    264.84295   -4824.1026    -4294.384   -4824.1026            0    12623.358    17.608433    23.268059    18.941255     7760.498    14000.794    12052.423    11816.857    1436.7165   -517.99269    1975.8261   -2865.6861 
19131000    258.62417   -4816.2393    -4298.959   -4816.2393            0    13200.848    17.606171    23.164258    19.027904    7760.2239    14022.902    12459.272    13120.371   -431.89925   -1091.5624    517.77319   -2804.9543 
19132000    286.54596   -4809.4093    -4236.282   -4809.4093            0    10170.693    17.624883    23.195168    19.187207    7843.9628    10971.853    10263.783     9276.444   -1735.8391    275.70023   -1113.0019   -3072.7938 
19133000    272.96434   -4789.0654    -4243.103   -4789.0654            0    11442.963    17.753787    23.179539    19.104333    7861.9032    10876.125     12031.72    11421.045    698.94171    870.31155    48.481418    -2931.078 
19134000    260.39768   -4811.8978   -4291.0703   -4811.8978            0    11978.313    17.586011    23.278468    19.026396    7788.9379    12957.309    11930.835    11046.795    42.479203    183.71106    924.31079   -2930.4098 
19135000      267.613   -4809.8409   -4274.5819   -4809.8409            0    12942.881    17.440922     23.45889    19.012683     7778.938    12882.848    12700.147    13245.648   -359.86913   -606.41194   -170.90053   -2806.2401 
19136000     282.7646   -4806.8648   -4241.3006   -4806.8648            0     14312.14    17.598911     23.32644    18.907573    7761.9355    15741.958    13139.693    14054.769   -889.67099    404.61078   -2102.8849   -2621.1683 
19137000    264.14393   -4805.1735    -4276.853   -4805.1735            0    11333.492     17.70319    23.139532    19.087293    7818.9857    9007.2347    11732.699    13260.541    4.3704251    502.77516     847.6837   -2984.4736 
19138000    282.18715   -4830.4406   -4266.0314   -4830.4406            0     11793.56    17.550592    22.960892     19.36874    7805.1615    13694.935    11330.719    10355.027   -1112.9419   -566.49381   -787.57877   -2923.5672 
19139000    257.19423   -4809.8013    -4295.381   -4809.8013            0    10856.843    17.931288    23.093821    18.904262     7828.292    10769.654    10960.246    10840.628   -794.27767   -1619.2864    322.38093   -3055.8813 
19140000    277.19948   -4803.4866   -4249.0534   -4803.4866            0    12293.592    17.683028    22.879992    19.384636    7842.7821    14034.297    10874.257    11972.222   -1208.7509    246.00457   -328.56446   -2842.9255 
19141000    257.59265   -4792.9914   -4277.7743   -4792.9914            0    12574.966    18.026427     22.70888    19.118817    7826.4786    10284.043     13298.05    14142.805    1152.5083    170.94932   -467.13234    -2842.453 
19142000    274.16721   -4824.7667   -4276.3984   -4824.7667            0    11703.666    17.762171    22.771327    19.329059    7817.9897    11697.134    10907.909    12505.955   -588.89355    -278.1555    943.57723   -2941.9773 
19143000    267.76516   -4811.8646   -4276.3012   -4811.8646            0    11828.378     17.73095    23.044547    19.106992    7807.1499    12282.084    11013.276    12189.775   -185.17111   -113.35087    262.98403   -2929.5307 
19144000    274.88021   -4807.6591   -4257.8647   -4807.6591            0    11909.317    17.719095    23.074076     19.10138    7809.6322    12716.044    11934.875     11077.03   -594.26728    1033.8015   -479.04669   -2901.4474 
19145000     271.8312   -4805.2953   -4261.5993   -4805.2953            0    12743.474    17.670891    23.024469    19.192159    7808.5769    13998.499    11696.146    12535.778   -533.75881    1049.5041   -2075.5555   -2810.3714 
19146000    268.50339   -4809.1382   -4272.0983   -4809.1382            0    12471.632    17.636117    23.085318    19.139617     7792.415    12427.335    13451.197    11536.363     -456.854   -91.767057   -332.49271   -2854.7674 
19147000    270.00279   -4839.3972   -4299.3583   -4839.3972            0    11947.036    17.656764    23.103606    19.150599     7812.198    12491.948    11824.995    11524.166    2223.6503    57.660456    913.78003   -2938.1979 
19148000    263.94253   -4808.8796   -4280.9619   -4808.8796            0    11283.391    17.781683    23.055448    19.076213    7820.5735     10290.34    11780.819    11779.014    1078.8775   -654.82802   -371.49685   -2994.0343 
19149000    276.40642   -4799.2546   -4246.4076   -4799.2546            0    9634.8962     17.78457    23.366265    19.066179    7923.1216    7877.0843    9274.2701    11753.334    42.666984    230.75494   -295.41321   -3133.0896 
19150000       255.75   -4780.6779   -4269.1463   -4780.6779            0    11006.148    17.550171    23.227229    19.076533    7776.3932    12817.385    9520.3922    10680.668    902.33481   -1233.1068       364.75   -3020.9311 
19151000    270.03473   -4752.8738    -4212.771   -4752.8738            0    12610.884     17.61422    23.252964    19.048802    7802.0621    14550.569    10785.052    12497.031    1137.9621   -775.82516    2065.9599   -2777.8406 
19152000     268.3367   -4792.6272   -4255.9207   -4792.6272            0    12869.556    17.823345    23.055332    18.999374    7807.2823    11443.216    14966.872    12198.579    984.43566    563.57114   -150.63443   -2790.5776 
19153000    275.07788   -4791.5598     -4241.37   -4791.5598            0    14100.991    17.714166    22.698715    19.363648    7785.9062    13366.218    15838.531    13098.225   -32.010666    1181.6053   -590.80271   -2640.2102 
19154000    272.87643   -4822.9724   -4277.1859   -4822.9724            0    11802.524    17.735513    23.085572    19.057789    7802.9155    11787.495    11594.463    12025.614      1274.59   -1174.4577   -220.69048   -2934.0879 
19155000    272.53592    -4831.733   -4286.6275    -4831.733            0    11142.943    17.892713    22.854196    19.211071    7855.8596    11085.818    13126.234    9216.7778   -425.31856     467.1001   -1160.3562   -3009.9843 
19156000    265.94676   -4849.5723   -4317.6459   -4849.5723            0    9046.3788       17.926    22.841833    19.347201    7921.9572    7729.1664    9849.2238    9560.7461    510.17642    1095.1714   -632.09009    -3272.485 
19157000    265.90697   -4809.7828    -4277.936   -4809.7828            0     10629.02    18.064963     22.75453    19.129882    7863.5242    10316.116    10416.068    11154.876    213.66346     -720.784   -1264.2815   -3058.9848 
19158000    266.43651   -4819.8775   -4286.9715   -4819.8775            0    11619.392    17.759432    22.942295    19.275676    7853.7227    12449.791    10395.001    12013.385    650.99294   -487.92348    221.63499   -2956.1039 
19159000    262.92295   -4833.6498   -4307.7714   -4833.6498            0    9678.5849    17.925642    22.862644    19.200802     7869.018    9303.3801    9623.8899    10108.485    823.91515   -801.16796    2120.7489    -3197.042 
19160000     262.2716   -4783.9286   -4259.3531   -4783.9286            0    13531.303    17.957757    22.619017    19.278653    7830.7348    13815.458    14605.193    12173.258    336.41655    1844.9543   -53.971528   -2714.0345 
19161000     258.5389   -4821.3135   -4304.2038   -4821.3135            0    10111.055    17.885521     23.08756    19.135576    7901.7116    10131.689    9914.2431    10287.235    705.79473   -422.05664   -79.330928   -3139.0223 
19162000    264.28609   -4805.7575   -4277.1526   -4805.7575            0    9731.3429    17.744676    23.080819    19.272447    7893.2554    9132.3664    10580.342    9481.3204    1963.5743   -329.11495   -788.23881   -3156.9288 
19163000    266.71444   -4814.7133   -4281.2515   -4814.7133            0    11336.727    17.799417    23.176752     19.04083    7854.9647    11002.075    11093.476    11914.631    -160.1374    777.42603    488.50283   -2982.5545 
19164000     265.3772   -4829.1188   -4298.3316   -4829.1188            0    8889.0352    17.759094    23.135129    19.194022    7886.0352    9319.1935    7961.8195    9386.0926     319.4296   -169.14366   -451.59579    -3276.006 
19165000    274.14723   -4841.8145   -4293.4862   -4841.8145            0    9391.9054    17.711785    23.230761    19.180009     7891.773    9940.1207    8832.6407    9402.9547   -182.41398   -631.52348   -1084.4604   -3212.5398 
19166000     282.8167   -4785.2516   -4219.5833   -4785.2516            0    11592.608    17.661909    23.333096    18.944302    7807.0799    13982.153     10342.36    10453.309    85.033559   -309.75479   -1186.8397   -2899.6692 
19167000      276.691   -4826.8809   -4273.4647   -4826.8809            0    12497.649    17.520693    23.402519    19.000097    7790.5788    11408.347    12534.404    13550.195    168.83249    580.67497   -545.05983   -2853.5118 
19168000    278.20329   -4807.6081   -4251.1672   -4807.6081            0    10713.526    17.707515    23.332057    18.965919    7835.8215    11480.231    11357.849    9302.4985    620.20139    772.29815    489.36676   -3026.8531 
19169000    277.92107    -4792.033   -4236.1566    -4792.033            0    11740.627    17.680522    23.241857    19.113226    7854.1627    8982.2173    12566.919    13672.746   -412.97135   -413.86044    1072.9846   -2891.3275 
19170000    263.79985   -4784.6789   -4257.0466   -4784.6789            0     12094.13    17.723452    23.099977    19.098151    7818.9994    10935.363    13372.145    11974.882   -2304.4308    802.95388    -236.6069   -2877.9278 
19171000    268.36641    -4782.829    -4246.063    -4782.829            0    13196.851    17.616728    23.193255    19.038244    7778.8223    13157.946    13146.428    13286.178   -1675.4332    -50.20275   -1928.3089   -2748.9312 
19172000    268.25747   -4813.7545   -4277.2064   -4813.7545            0    13867.463    17.640974     22.87841    19.207527    7752.1091    14157.182    13961.334    13483.873   -649.25339    507.59773    1007.9811   -2709.3987 
19173000    256.55273    -4811.468   -4298.3309    -4811.468            0    11601.836    17.690948    23.077803    19.149206     7818.012    9655.7388    12292.871    12856.898    476.56299   -66.327775    1435.0722   -2975.5164 
19174000    269.25425   -4801.8543   -4263.3126   -4801.8543            0    12241.166    17.611815    23.001138    19.171146    7766.0738     11186.33    13261.827     12275.34    138.87348   -1065.5237    2376.2695   -2876.8754 
19175000    268.50349   -4802.7088   -4265.6687   -4802.7088            0    13682.454    17.743673    22.902789    19.053467    7742.9405    13833.552    12655.356    14558.454    2049.6249   -850.36919   -1628.5776   -2720.6071 
19176000    267.32008   -4815.9769   -4281.3037   -4815.9769            0    12234.799    17.915266    22.971412    19.055628    7842.1331    9913.8308    13727.295     13063.27    1450.0914    1175.8738    1194.9544   -2882.0163 
19177000    278.07293   -4790.2661   -4234.0859   -4790.2661            0     12194.32    17.747962    22.789299    19.253178    7787.2098    13870.647    11779.117    10933.197    1305.3439   -355.31833   -998.30691   -2849.1956 
19178000    277.25007   -4803.4057   -4248.8713   -4803.4057            0    12472.715    17.771954    22.962725    19.090623    7790.7399    11532.757    12196.314    13689.074    1510.8097   -1280.4704    514.77807   -2831.7221 
19179000    258.76392    -4771.869   -4254.3091    -4771.869            0    11494.433    17.816944    22.712937    19.426946    7861.6019    11689.278    12650.534    10143.488    2.8625489   -352.95769   -286.78381   -2936.4333 
19180000    265.85536   -4800.8184   -4269.0748   -4800.8184            0    10198.258    17.928274    22.770083    19.288513    7874.1165    10274.715     10915.85    9404.2077    -186.3646    533.90721    1761.0238   -3097.9486 
19181000    265.65114   -4818.5844   -4287.2493   -4818.5844            0    10892.786    17.938258    22.768508    19.191393    7838.2902     10442.97    10751.467     11483.92   -412.08095    965.81892   -570.64955   -3042.0577 
19182000    268.40444   -4797.1485   -4260.3065   -4797.1485            0    13128.261     17.76983    22.564673    19.466253    7805.3912     12465.29    14306.934     12612.56   -520.51159     1777.164    1339.8509   -2765.8689 
19183000    270.46872   -4831.0731   -4290.1023   -4831.0731            0    11145.242    17.789077    23.052816    19.076307    7822.9704    11586.365    10334.777    11514.583   -324.37376   -449.62445    1287.2054   -3018.5417 
19184000    269.06257   -4839.6916   -4301.5333   -4839.6916            0    11054.862    17.677124    23.012431    19.185824    7804.6706      12227.5    10156.411    10780.674     -778.183   -75.197859   0.13459643   -3043.2345 
19185000    271.34175   -4771.0191   -4228.3021   -4771.0191            0    14515.694    17.731767    23.152996    18.917647    7766.5176    13036.855    15080.909    15429.318    192.06455    342.69318   -1670.5998   -2584.1574 
19186000    269.74066   -4779.8589   -4240.3443   -4779.8589            0    12303.287    17.384351    23.312777    19.255638    7803.8772    14459.963    10727.645    11722.253    447.15431   -249.97436    2158.6563   -2840.0882 
19187000    260.79471   -4804.9029   -4283.2813   -4804.9029            0    10569.774    17.773194    23.314268    18.922428    7840.8676    11485.768    9274.2984    10949.257    99.372294    257.92251     10.54018   -3074.6169 
19188000    277.61465   -4792.6085   -4237.3449   -4792.6085            0    11740.231    17.551729    23.250768    19.079689    7786.2527    10470.401     12308.73    12441.561    952.27639    220.71312   -1220.7821   -2904.1887 
19189000    259.95992   -4829.8246   -4309.8726   -4829.8246            0    11577.425    17.685818    23.129076    19.154133    7835.1249    10956.153    11953.771    11822.352    785.02856   -65.840624   -469.48727    -2986.952 
19190000    274.55162   -4774.0166   -4224.8795   -4774.0166            0    10894.207    17.673074    23.249515      19.1321    7861.1959     11565.59    9895.1944    11221.837   -94.367904    9.2250831   -1422.4799   -2975.8861 
19191000     275.8543   -4806.3247    -4254.582   -4806.3247            0      12226.5    17.640387    23.132839    19.128801    7805.9327    12601.581    12339.325    11738.595    419.34353    319.33637    591.08658   -2862.6986 
19192000    277.90673    -4808.339   -4252.4912    -4808.339            0    12408.734    17.608494    23.314953    19.080183    7833.2016    13739.924    12324.694    11161.585    635.52206   -537.94758   -1568.5217   -2834.9272 
19193000    270.19078   -4813.0327   -4272.6178   -4813.0327            0    12392.916    17.625232    23.198029    19.067289    7796.0548    12037.385    12019.355    13122.009   -178.99216    202.13916   -1004.2778   -2863.5746 
19194000    274.59111   -4819.8838   -4270.6677   -4819.8838            0     11451.36    17.774204    23.169121    18.974248    7813.8361    9974.1161    10865.702    13514.261    -927.2108   -718.79273    633.19219   -2965.7075 
19195000    270.40607   -4801.2895    -4260.444   -4801.2895            0    11126.925    17.636634    23.406027    18.926971    7813.1208    10885.987    10065.005    12429.783    1026.1837    7.3673942    1674.5427   -2992.5714 
19196000    258.08002   -4800.5912   -4284.3992   -4800.5912            0    10386.446    17.690331    23.154814    19.147107    7842.9676    10260.995     9344.789    11553.554   -1534.1936     -530.823   -1465.5174   -3096.3806 
19197000    261.72407   -4780.5256   -4257.0451   -4780.5256            0    10347.596    17.685289    23.086525    19.190118    7835.1693    11784.101    9535.2273    9723.4588   -1668.9366   -379.63423   -725.06484    -3074.647 
19198000    265.85796   -4796.8299   -4265.0811   -4796.8299            0    12256.628    17.967954     22.77453    19.124381    7825.9208    10550.022    13869.966    12349.896    918.94919    2027.0897    678.53549   -2866.1951 
19199000    264.12262   -4777.1765   -4248.8986   -4777.1765            0    9915.5462    17.904544    22.595053    19.523204    7898.1924    8591.7593    10645.729     10509.15   -1761.0424     -579.146    106.94637   -3106.7562 
19200000    257.21739   -4782.0137   -4267.5471   -4782.0137            0    11502.466    17.867902    22.848434    19.168095    7825.4433     9661.286     12575.94    12270.173    126.93761   -778.21797    1838.6134   -2954.8159 
19201000    262.71511   -4786.9124   -4261.4497   -4786.9124            0    12094.212    17.894654    22.676572    19.255567    7813.7049    10184.169    12532.805    13565.662    1034.5095   -2218.3944   -1269.8356   -2883.2554 
19202000    268.16526    -4799.219   -4262.8553    -4799.219            0     12999.46    17.987688    22.481998    19.328187     7816.303    11945.415    13164.301    13888.663    895.10655    129.41959     457.0753    -2781.011 
19203000    264.43488   -4828.3732   -4299.4707   -4828.3732            0    11835.597    17.899615    22.660929    19.260722    7812.5711    11540.845    12292.721    11673.224    72.557947    534.61152    195.49889   -2950.9425 
19204000    258.64918   -4828.8902   -4311.5599   -4828.8902            0    11267.025     17.97321    22.684281    19.186472    7822.5039    9480.5901    12086.162    12234.322   -167.14492   -824.97493    1113.3067   -3026.1817 
19205000    277.29412   -4842.4605    -4287.838   -4842.4605            0    11165.666    17.595973    22.777803    19.422868    7784.6391    10296.631    12541.278    10659.087    382.41121   -395.08319   -634.42962   -3020.1891 
19206000    270.64255   -4837.2668   -4295.9483   -4837.2668            0    9956.7418    17.950174     22.96591    19.104667    7875.7476    10307.906    9628.2357    9934.0834   -828.11557   -784.35784    321.69543   -3152.3199 
19207000    271.97239   -4814.0691   -4270.0907   -4814.0691            0    11727.193     17.76324    22.976164    19.216158    7842.7123    13031.589    11215.304    10934.686    114.85887   -292.00975    209.30388   -2928.7589 
19208000     279.9345   -4801.0676    -4241.164   -4801.0676            0    12565.391    17.669398    23.190353    18.967678    7772.1877      11510.8    12850.092    13335.281   -1181.8056    1603.4133    -1527.184   -2816.8847 
19209000    270.43953   -4802.7095    -4261.797   -4802.7095            0    12173.481    17.592929    23.334407    19.002546    7800.9362     12345.38    12016.022    12159.043   -2.5231507   -250.83432    451.91554   -2876.8364 
19210000    269.30557   -4799.6522   -4261.0078   -4799.6522            0    10090.812    17.665075    23.330711    19.117194    7878.9367    9522.5693    9482.7592    11267.107    103.26065    -877.1362    535.12858   -3101.5108 
19211000    281.97421   -4830.7901   -4266.8069   -4830.7901            0    11129.894    17.672466    23.346698    18.947716    7817.7087    11656.581    10801.795    10931.306    2369.6395    1064.2394    351.77271   -2997.8513 
19212000    277.13919   -4814.1673   -4259.8547   -4814.1673            0    13578.832    17.763412    22.954819    19.071029    7776.3245    12507.431    15094.656    13134.409   -963.50236    435.90748   -697.95907   -2719.8832 
19213000    275.86546   -4811.7034   -4259.9384   -4811.7034            0    12612.463    17.670486    22.864657    19.258354    7780.9453    12401.941    12235.193    13200.254    200.36453   -2270.1191   -1690.7926   -2828.7127 
19214000    265.99322   -4800.7161   -4268.6968   -4800.7161            0    13786.244    17.760965    22.645706    19.345933    7781.1197    12749.518    13590.649    15018.565   -106.21363    92.467799   -928.70876   -2704.2387 
19215000    253.11042   -4816.5577   -4310.3055   -4816.5577            0    13984.363    18.009234    22.396351    19.298253    7783.7789    14521.597    14255.484    13176.006   -1172.9193    121.03639   -52.523578   -2722.8226 
19216000     262.9412   -4789.1162   -4263.2013   -4789.1162            0    12408.962    18.037453    22.492526    19.248366    7809.2141    11403.759    13621.023    12202.104   -2255.2505    177.78606     597.0647   -2849.9523 
19217000    254.24409   -4817.3935   -4308.8739   -4817.3935            0    10991.371    17.798233    22.853532    19.244083    7827.5786     12131.73     10177.29    10665.094   -1001.0893   -179.44517       813.41   -3054.1296 
19218000     265.1517   -4778.1783   -4247.8421   -4778.1783            0    12195.258    17.765198    22.886273    19.333231    7860.4888    10714.162    12584.565    13287.045   -715.13697    538.41183   -408.55687   -2849.8124 
19219000    273.80283   -4824.0963   -4276.4568   -4824.0963            0    10359.521    17.880183    22.870498    19.171421    7839.7442    10436.584    10862.524     9779.454   -311.52134   -86.338757   -43.787033   -3092.0049 
19220000    266.13635   -4839.0065   -4306.7009   -4839.0065            0    10833.359     17.67613      22.8092    19.373824     7811.107    12047.144    10730.623    9722.3098   -2116.0972     688.3158    157.64577   -3072.5973 
19221000    273.18673   -4821.9389   -4275.5317   -4821.9389            0    12832.377      17.8824    22.944088    19.008331    7799.0301    11984.252    13045.576    13467.304   -362.19681   -1468.1907    1149.9419   -2815.9662 
19222000    260.05303   -4826.5138   -4306.3756   -4826.5138            0     11465.96    17.663426    23.006037    19.226425    7812.9546    11066.836    12305.393    11025.652   -616.34707    56.849443   -818.89973    -2999.899 
19223000    253.00754    -4813.582   -4307.5356    -4813.582            0    12306.434    17.814116    23.061228    18.977998    7796.4535    11426.228    12541.472    12951.603    963.65213    885.13995    2527.5244   -2908.2537 
19224000     275.0881   -4813.4099   -4263.1997   -4813.4099            0    12183.204    17.619609    23.177661    19.060714    7784.0393    12492.502    10829.168    13227.942   -1396.5576    492.99598   -957.86259   -2880.1353 
19225000    259.52442   -4806.6728   -4287.5919   -4806.6728            0    12554.717     17.57609    23.198798     19.18029     7820.651    14771.412    11642.239      11250.5    719.65333   -686.81458    1236.8402   -2855.6489 
19226000    256.99493   -4801.2847   -4287.2631   -4801.2847            0    8754.0118    17.957035    22.943299    19.245962    7929.2137    10214.803    8077.2342    7969.9984   -1488.8587    549.46652   -2257.0962    -3274.954 
19227000    280.50042   -4780.8932   -4219.8577   -4780.8932            0    10960.982    17.942585    22.824515     19.21493    7869.1057    11743.812    10169.914    10969.219    1872.6907    367.10191    3813.5787   -2961.9444 
19228000    275.21296    -4791.348   -4240.8881    -4791.348            0    12366.504      17.7955    22.861432    19.196785    7809.8397    11411.277    14290.177    11398.057   -447.93943    151.89703    765.14267   -2832.3618 
19229000    278.38433   -4814.0103   -4257.2073   -4814.0103            0    11880.024    17.728511    22.948232    19.302672    7853.0599    12616.832    11584.425    11438.813   -1342.6007   -1042.2612    11.133739   -2896.6021 
19230000    279.61782   -4793.5311   -4234.2609   -4793.5311            0    11159.372    17.890427    22.903622    19.158472    7850.2907    11110.596    11411.507    10956.012    255.97272    588.26791   -1558.2134   -2956.6419 
19231000    277.28579   -4792.6237   -4238.0178   -4792.6237            0    13574.158    17.686151    23.068932    19.102209    7793.7129    13761.728    13613.729    13347.017   -400.65064    478.97431     325.6531   -2695.1341 
19232000    263.57597   -4784.3671   -4257.1826   -4784.3671            0    11934.413    17.696336     23.08755    19.077489    7794.3951    11701.562     12049.31    12052.367    1531.1021   -314.19701   -1188.4509    -2900.559 
19233000    272.82586   -4807.1241   -4261.4386   -4807.1241            0    13434.485    17.663482    23.074947    19.046241    7762.9415    11421.171    13672.638    15209.647    -1218.376   -499.73673   -1636.8077   -2740.4596 
19234000    267.97443   -4768.3257   -4232.3437   -4768.3257            0    13152.591    17.700568    23.006744    19.162684    7803.6667    13909.225    12846.165    12702.382    1455.0071    114.57622   -586.57373   -2735.4674 
19235000    257.20008   -4809.4953   -4295.0634   -4809.4953            0    11423.883    17.768763    23.015644    19.176396    7842.3696     12903.54    12205.261     9162.847   -1514.8244   -509.70107   -957.14689   -2988.4806 
19236000    269.05402   -4812.4179   -4274.2766   -4812.4179            0    10784.951    17.668508    23.114881    19.183716    7834.7344    10629.318    11138.768    10586.768    1949.2552    304.00507    667.21294   -3041.9712 
19237000    269.79058   -4818.4542   -4278.8397   -4818.4542            0    10587.375    17.644828    23.237359    19.101233    7831.8727    10780.139    10427.671    10554.316   -336.88356   -663.23236   -2062.4816   -3069.5515 
19238000    278.54122   -4796.5905   -4239.4736   -4796.5905            0     12565.59    17.802717    23.120055     18.95648    7802.4829    11884.308    12501.275    13311.188    2262.5304    996.40232    2034.8655   -2809.6199 
19239000    268.74749   -4810.7033   -4273.1751   -4810.7033            0    10150.187     17.68757    23.078739    19.261935    7862.8529    9623.4882    11269.432    9557.6407    2589.2147     747.4989    611.91695   -3109.2365 
19240000    268.46187   -4793.4526   -4256.4957   -4793.4526            0    10646.476    17.829522     23.13336    19.014865    7842.8092    9939.9699     11580.76    10418.699   -121.62103    680.45484    239.21166   -3038.7589 
19241000    261.67592   -4805.7235   -4282.3393   -4805.7235            0    12472.477     17.65161    22.967265    19.210866    7788.2618    12058.171    12149.493    13209.766   -243.34351    1109.3467    -1677.147   -2865.6679 
19242000    268.74991   -4821.9675   -4284.4345   -4821.9675            0     10143.89    17.981818    22.967541    19.050835    7867.9597    8957.4329    10189.718    11284.519    1947.0924   -1098.1047    1728.9208   -3120.4624 
19243000    279.60276   -4805.2415   -4246.0014   -4805.2415            0    11238.339    17.793947     22.84716    19.377927    7877.9251    10813.186    10997.129    11904.703    94.683996    125.39818   -1150.8034   -2954.8123 
19244000    271.80494   -4783.6202   -4239.9768   -4783.6202            0    12721.584    17.876714    22.721576      19.2341    7812.6441    14046.263    12806.619    11311.868    781.16151    1520.9338   -1359.0329   -2790.4872 
19245000    273.54374   -4776.2416   -4229.1203   -4776.2416            0     14473.25    17.939212    22.790666    19.089811    7804.8043    11776.473    15905.384    15737.892    157.47474    879.39059      493.175   -2581.7017 
19246000    269.60945   -4809.7489   -4270.4967   -4809.7489            0    11750.171    17.707172    22.875334    19.277319    7808.4222    12984.934    12469.541    9796.0399   -192.11441    221.90034   -1640.7539   -2932.4127 
19247000    265.80693   -4798.1394   -4266.4927   -4798.1394            0    12716.501    17.841279    22.866363     19.07053    7780.1121    10750.953    15068.238     12330.31   -812.79682    794.34709    1056.9173   -2823.6156 
19248000    269.52322   -4798.1311   -4259.0513   -4798.1311            0    9572.8856    17.920238    22.988689    19.249551    7930.0983     10863.34    9731.9053    8123.4113    364.78854    716.17631    1630.5418   -3151.9246 
19249000    272.35647   -4831.0108   -4286.2642   -4831.0108            0    11018.483    17.679648    22.920851    19.376464    7851.9741     12277.68    10208.409    10569.359   -233.45195    -605.7331    968.78392   -3024.5048 
19250000    271.67226   -4771.8032   -4228.4251   -4771.8032            0    13091.811    17.831079    22.993952    19.068768    7818.3277    13332.723    12437.375    13505.335   -406.27582   -675.91476    1304.9407   -2735.6668 
Loop time of 522.119 on 64 procs for 250000 steps with 1008 atoms

Performance: 82.740 ns/day, 0.290 hours/ns, 478.818 timesteps/s
99.1% CPU use with 64 MPI tasks x 1 OpenMP threads

MPI task timing breakdown:
Section |  min time  |  avg time  |  max time  |%varavg| %total
---------------------------------------------------------------
Pair    | 28.292     | 32.444     | 36.523     |  32.0 |  6.21
Bond    | 0.28468    | 0.29336    | 0.30413    |   0.7 |  0.06
Kspace  | 236.8      | 243.91     | 254.7      |  26.9 | 46.71
Neigh   | 4.9087     | 5.4052     | 6.1507     |  13.7 |  1.04
Comm    | 103.23     | 113.38     | 121.23     |  40.6 | 21.72
Output  | 1.1435     | 1.1447     | 1.1459     |   0.0 |  0.22
Modify  | 114.47     | 117.93     | 122.94     |  20.4 | 22.59
Other   |            | 7.619      |            |       |  1.46

Nlocal:        15.7500 ave          20 max          11 min
Histogram: 2 1 3 9 13 14 10 9 2 1
Nghost:        2523.11 ave        2547 max        2499 min
Histogram: 1 8 5 7 11 12 7 4 6 3
Neighs:        5338.88 ave        6815 max        3684 min
Histogram: 2 1 3 9 13 14 10 7 4 1

Total # of neighbors = 341688
Ave neighs/atom = 338.97619
Ave special neighs/atom = 2.0000000
Neighbor list builds = 10046
Dangerous builds = 0

unfix		3
unfix		2
unfix		1

write_data	data.final.${pid}
write_data	data.final.0
System init for write_data ...
PPPM initialization ...
  extracting TIP4P info from pair style
  using 12-bit tables for long-range coulomb (../kspace.cpp:340)
  G vector (1/distance) = 0.38351776
  grid = 24 30 32
  stencil order = 5
  estimated absolute RMS force accuracy = 0.0019516253
  estimated relative force accuracy = 5.8772616e-06
  using double precision FFTW3
  3d grid and FFT values/proc = 4080 384
Last active /omp style is kspace_style pppm/tip4p/omp
WARNING: Not all mixed pair coeffs generated from mixing. Use write_data with 'pair ij' option to store all pair coeffs. (../write_data.cpp:312)

write_restart   restart.lmp.${pid}
write_restart   restart.lmp.0
System init for write_restart ...
PPPM initialization ...
  extracting TIP4P info from pair style
  using 12-bit tables for long-range coulomb (../kspace.cpp:340)
  G vector (1/distance) = 0.38351776
  grid = 24 30 32
  stencil order = 5
  estimated absolute RMS force accuracy = 0.0019516253
  estimated relative force accuracy = 5.8772616e-06
  using double precision FFTW3
  3d grid and FFT values/proc = 4080 384
Last active /omp style is kspace_style pppm/tip4p/omp
Total wall time: 0:08:43
