#include		in.partitions
include		in.temp
variable        temperature equal 87.85
variable	tempDamp equal 100.0
include		in.pressure
variable        pressure equal 1418.8
variable        pressureDamp equal 1000.0 # This is 1 ps
include		in.seed
variable        seed equal 745823

units		real
atom_style	full

read_restart	restart.lmp.${pid}
read_restart	restart.lmp.1
Reading restart file ...
  restart file = 30 Jul 2021, LAMMPS = 30 Jul 2021
  restoring atom style full from restart
  orthogonal box = (-0.0083045736 -0.038577802 -0.0065256295) to (20.008306 20.038579 20.706524)
  4 by 4 by 4 MPI processor grid
  restoring pair style lj/cut/tip4p/long/omp from restart
  restoring bond style harmonic/omp from restart
  restoring angle style harmonic/omp from restart
  972 atoms
  648 bonds
  324 angles
Finding 1-2 1-3 1-4 neighbors ...
  special bond factors lj:    0        0        0       
  special bond factors coul:  0        0        0       
     2 = max # of 1-2 neighbors
     1 = max # of 1-3 neighbors
     1 = max # of 1-4 neighbors
     2 = max # of special neighbors
  special bonds CPU = 0.004 seconds
  read_restart CPU = 0.013 seconds
include 	in.setup
variable	out_freq equal 1000
variable	out_freq2 equal 10000
variable	out_freq3 equal 1000

timestep	2.0

neigh_modify    delay 7 every 1

include		in.tip4p
# This is TIP4P/Ice

# create groups ###
group ox type 2
324 atoms in group ox
group hy type 1
648 atoms in group hy

# set charges - beside manually ###
set group ox charge -1.1794
Setting atom values ...
  324 settings made for charge
set group hy charge 0.5897
Setting atom values ...
  648 settings made for charge

# ### TIP3P Potential Parameters ###
pair_style lj/cut/tip4p/long/omp 2 1 1 1 0.1577 8.5
pair_coeff 1 1*2 0.000 0.000
pair_coeff 2 2 0.21084 3.1668
bond_style  harmonic
bond_coeff  1 450 0.9572
angle_style harmonic
angle_coeff 1 55 104.52
kspace_style pppm/tip4p/omp 1.0e-5
pair_modify tail yes

thermo          ${out_freq}
thermo          1000
thermo_style    custom step temp pe etotal epair emol press lx ly lz vol pxx pyy pzz pxy pxz pyz enthalpy

restart 	${out_freq3} restart.lmp.${pid} restart2.lmp.${pid}
restart 	1000 restart.lmp.${pid} restart2.lmp.${pid}
restart 	1000 restart.lmp.1 restart2.lmp.${pid}
restart 	1000 restart.lmp.1 restart2.lmp.1


include         in.dump
dump            myDump all atom ${out_freq2} dump.water.${pid}
dump            myDump all atom 10000 dump.water.${pid}
dump            myDump all atom 10000 dump.water.1
dump            myDump2 all dcd ${out_freq2} dump.dcd
dump            myDump2 all dcd 10000 dump.dcd
dump_modify     myDump append yes
dump_modify     myDump2 append yes


variable natoms 	equal  "count(all)"                        # NUMBER ATOMS
variable H      	equal  "enthalpy/v_natoms"                 # ENTHALPY-per-atom
variable Vol      	equal  "vol/v_natoms"                 # volume-per-atom
fix AVG all 		ave/time ${out_freq} 1 ${out_freq} v_Vol v_H file vol_enthalpy.dat
fix AVG all 		ave/time 1000 1 ${out_freq} v_Vol v_H file vol_enthalpy.dat
fix AVG all 		ave/time 1000 1 1000 v_Vol v_H file vol_enthalpy.dat


timer           timeout 02:55:00 every 1000
New timer settings: style=normal  mode=nosync  timeout=02:55:00

fix 		1 all shake 1e-6 200 0 b 1 a 1
       0 = # of size 2 clusters
       0 = # of size 3 clusters
       0 = # of size 4 clusters
     324 = # of frozen angles
  find clusters CPU = 0.002 seconds
fix             2 all nph aniso ${pressure} ${pressure} ${pressureDamp}
fix             2 all nph aniso 1418.8 ${pressure} ${pressureDamp}
fix             2 all nph aniso 1418.8 1418.8 ${pressureDamp}
fix             2 all nph aniso 1418.8 1418.8 1000
fix             3 all temp/csvr ${temperature} ${temperature} ${tempDamp} ${seed}
fix             3 all temp/csvr 87.85 ${temperature} ${tempDamp} ${seed}
fix             3 all temp/csvr 87.85 87.85 ${tempDamp} ${seed}
fix             3 all temp/csvr 87.85 87.85 100 ${seed}
fix             3 all temp/csvr 87.85 87.85 100 745823


run             250000
PPPM initialization ...
  extracting TIP4P info from pair style
  using 12-bit tables for long-range coulomb (../kspace.cpp:340)
  G vector (1/distance) = 0.37236512
  grid = 24 24 25
  stencil order = 5
  estimated absolute RMS force accuracy = 0.0034138221
  estimated relative force accuracy = 1.0280624e-05
  using double precision FFTW3
  3d grid and FFT values/proc = 2366 288
Last active /omp style is kspace_style pppm/tip4p/omp
Neighbor list info ...
  update every 1 steps, delay 7 steps, check yes
  max neighbors/atom: 2000, page size: 100000
  master list distance cutoff = 10.8154
  ghost atom cutoff = 10.8154
  binsize = 5.4077, bins = 4 4 4
  1 neighbor lists, perpetual/occasional/extra = 1 0 0
  (1) pair lj/cut/tip4p/long/omp, perpetual
      attributes: half, newton on, omp
      pair build: half/bin/newton/omp
      stencil: half/bin/3d
      bin: standard
Per MPI rank memory allocation (min/avg/max) = 9.227 | 9.230 | 9.236 Mbytes
Step Temp PotEng TotEng E_pair E_mol Press Lx Ly Lz Volume Pxx Pyy Pzz Pxy Pxz Pyz Enthalpy 
 2500000    93.546453   -5061.2349   -4880.8227   -5061.2349            0    1352.9026     20.01661    20.077157    20.713049    8324.0902    2205.7209    331.32787    1521.6591   -508.51986    818.47376     797.7687   -4716.5826 
 2501000    87.735063   -5079.5487   -4910.3443   -5079.5487            0    1065.4674    20.006266     20.05504    20.678321    8296.6895    1244.1471    143.66437    1808.5907    -240.2702    236.85446   -886.65653   -4781.4241 
 2502000     89.23927   -5076.6608   -4904.5554   -5076.6608            0    2688.1666    20.036478    19.925716    20.701724    8264.9803    2505.0181    2948.4554    2611.0265   -243.38647   -115.57181    67.335528   -4580.5338 
 2503000    88.496994   -5080.9046   -4910.2307   -5080.9046            0    1579.3709    19.933669    20.030978     20.77706    8296.0906    809.39354    2046.4504    1882.2688   -149.85418   -262.44209    -406.1093   -4719.1426 
 2504000    84.165987   -5083.4631   -4921.1419   -5083.4631            0   -84.673996    20.033984     20.05594     20.78197    8350.2032   -73.699473   -273.90101    93.578491   -278.56318     112.9213    498.63251   -4931.4534 
 2505000    86.423358   -5076.7169   -4910.0422   -5076.7169            0    361.08679    20.016611    20.095346    20.848414    8386.0808    1376.3593   -396.68302    103.58403    106.76924    823.41583    87.616233   -4865.8804 
 2506000    91.547139   -5080.9375   -4904.3811   -5080.9375            0    977.12918    19.923352     20.02319    20.844582    8315.5095    1768.5507   -330.42202    1493.2589    193.38893     274.3056    503.27324   -4785.8816 
 2507000    88.337482   -5079.5208   -4909.1545   -5079.5208            0    1519.4284    19.909737    20.042221      20.8404    8316.0562    1937.6792    1424.7047    1195.9014    198.24145    770.28281    674.62797   -4724.8765 
 2508000    88.415159   -5076.7354   -4906.2193   -5076.7354            0    1291.6091    19.975325     19.89155    20.971399    8332.7791      1104.54    1677.7426    1092.5448    16.465539      149.658   -73.281586   -4749.2564 
 2509000    91.268824   -5071.7116    -4895.692   -5071.7116            0    1428.2724     20.05354    19.912968    20.735676    8280.2839    1316.7257    1318.2898    1649.8018   -171.12666    494.64139    957.89059   -4723.2146 
 2510000     91.74769   -5078.7085   -4901.7654   -5078.7085            0    726.14715    19.998842    19.985781    20.854516    8335.3932    422.14211    397.97253    1358.3268   -284.62085   -109.91065     -33.0289   -4813.4927 
 2511000    82.208439   -5065.8318   -4907.2859   -5065.8318            0    1189.0522    20.022888    19.894787    20.737242    8260.7027    1191.3832    1447.3254    928.44799   -85.078506   -42.072385    272.11188   -4764.0362 
 2512000    90.302594   -5063.6483   -4889.4922   -5063.6483            0    458.15816    19.980554    20.042054    20.687858    8284.4803   -143.80992    364.39571    1153.8887   -473.17277    50.888051    280.65729   -4834.1372 
 2513000    93.201544   -5074.3956   -4894.6485   -5074.3956            0    454.72641    19.990027    20.046964    20.892159    8372.3105    1395.6155   -311.86422    280.42792   -305.76365   -359.24746    691.44465   -4839.1257 
 2514000    90.103956   -5084.7133   -4910.9403   -5084.7133            0    1964.1878    19.977994    19.827551    20.769702    8227.1845    1832.2407    1894.8562    2165.4665   -269.26529    -226.9341    1051.0595   -4675.2671 
 2515000    89.228691    -5081.761    -4909.676    -5081.761            0    1932.2903    20.110551    19.838543    20.812236    8303.3338    1084.8681    2762.2748    1949.7279    53.007643    784.40614     -86.4171   -4675.6841 
 2516000    84.943855   -5070.7363   -4906.9149   -5070.7363            0    751.24378    19.970698    19.878456    21.017781    8343.7782    911.94879    1172.2933    169.48924   -83.943096     936.0204    39.321797   -4815.4995 
 2517000    90.079774   -5081.8031   -4908.0766   -5081.8031            0    1939.1602     19.99223    19.765576     20.84014    8235.1468    1310.9485    2769.3112     1737.221   -249.43467   -34.815975    610.23581   -4675.1812 
 2518000    87.216423   -5086.9349   -4918.7307   -5086.9349            0    1471.2716    19.928542    19.884316    20.975566    8311.8917    1022.5456    2138.8633    1252.4059    195.90156    373.21538   -716.89852   -4740.3825 
 2519000    83.366236   -5072.4735   -4911.6947   -5072.4735            0    1379.5305    20.018762    19.958778    20.887545    8345.6189    1585.7075    1351.3544    1201.5295   -207.59391     928.5836     480.9079   -4743.7889 
 2520000    87.056013   -5078.6826   -4910.7878   -5078.6826            0    1427.8168    19.967015    19.941227    20.850193    8301.8544    1797.2085    1017.5546    1468.6873   -89.829368   -439.12962    263.44821   -4737.9163 
 2521000    87.085599   -5086.9067   -4918.9548   -5086.9067            0    1890.4009    19.920905     20.04141    20.773763    8293.7797    2714.7749    1209.1052    1747.3227   -464.87755    114.76832    514.17312    -4690.299 
 2522000    90.693499   -5084.6958   -4909.7857   -5084.6958            0    999.89476    20.103299    19.914326    20.811099    8331.5912    -585.8823    2353.2263    1232.3402    386.31244   -7.4437461     318.9482   -4788.2908 
 2523000    85.049403   -5080.3892   -4916.3642   -5080.3892            0    2475.2072    19.931787    19.979745    20.716827    8250.1041    3225.1805    1560.2678    2640.1734    49.046726   -5.8243415   -923.03501    -4618.549 
 2524000    88.883605   -5064.4598   -4893.0403   -5064.4598            0    1541.3423    20.032531    19.919313    20.787429    8294.8965    910.38512    2706.0928    1007.5489    89.207824    771.88306   -222.94606   -4706.5802 
 2525000    88.485625    -5070.215    -4899.563    -5070.215            0    1524.6456     19.88552    19.976602    20.823606    8272.0761    1912.0506     1500.438    1161.4481   -135.68938    -81.48857    7.1379509   -4715.6301 
 2526000    89.770439   -5073.7904   -4900.6606   -5073.7904            0    1057.7831    19.988797    19.962718     20.93401     8353.313    802.95066    1696.2183    674.18026    -23.59524    827.37244   -1041.6775   -4771.7967 
 2527000    91.554522   -5072.4978   -4895.9272   -5072.4978            0    1780.1554    19.818621    20.041331    20.848192    8280.7254    2423.6494    1014.6097    1902.2072    -288.1014   -108.27097    275.99358   -4680.9451 
 2528000    86.661215   -5080.8423   -4913.7088   -5080.8423            0    1654.0992    19.937138    19.951868    20.871461    8302.3156    1777.6724    1287.6757    1896.9495   -68.860761   -697.36449    13.066606   -4713.4292 
 2529000    86.330077   -5071.0308    -4904.536   -5071.0308            0    1408.4673    19.975618    19.796182    20.964499    8290.2215    1276.4717    2328.4704    620.45972    253.05711    466.68143   -759.72403   -4734.2461 
 2530000    87.041338   -5069.3187   -4901.4521   -5069.3187            0    2491.6628    19.981923    19.973866     20.78137    8294.1823    2189.1399     2690.835    2595.0136    -175.9714    46.546611   -57.487103   -4600.0553 
 2531000    91.931543   -5074.6685   -4897.3708   -5074.6685            0    1458.3197    20.122468    19.771366    20.887047    8309.8837    279.82353    2767.8601    1327.2755   -86.951072   -29.632697    422.06705   -4720.6354 
 2532000    89.901463   -5075.7316    -4902.349   -5075.7316            0     1728.788    19.969853    19.920172    20.818154    8281.5222    1879.5288    1611.3208    1695.5144    110.71438    14.778608    681.72754   -4693.5503 
 2533000    89.751492    -5079.794   -4906.7007    -5079.794            0    1902.3707    19.935192    20.080312    20.766333    8312.8646    3218.8673   -193.35353    2681.5983    21.952658    797.78083    500.38129   -4676.0676 
 2534000    85.261017   -5077.8736   -4913.4406   -5077.8736            0    1291.9699    20.016425    19.943692    20.746042    8281.8492    -623.3932    2893.6595    1605.6436    -98.77933   -353.07916   -270.07365   -4757.3935 
 2535000    83.131766   -5084.9941   -4924.6675   -5084.9941            0    1877.4857    20.015174    19.856043    20.844977    8284.2558    1459.8114    2082.1483    2090.4974    46.916685   -278.00243    328.40913   -4697.8347 
 2536000    88.543981   -5087.2421   -4916.4776   -5087.2421            0    1639.6857    19.870291    19.997976    20.770562     8253.507    2663.0757    1204.2976    1051.6836   -168.06741    344.24537   -15.994533   -4719.1104 
 2537000    87.710698   -5078.3715   -4909.2141   -5078.3715            0    1077.1995     20.03484    19.971244    20.816697    8329.1906    296.53877    998.06602    1936.9938   -302.71336     355.7062    281.45656   -4778.3637 
 2538000     88.29477   -5072.2019    -4901.918   -5072.2019            0    735.85341    20.033438    19.968788    20.701053    8281.3215   -214.80881    1449.5308    972.83819   -17.084994    252.26212    113.86275   -4813.0456 
 2539000    85.263199   -5076.3394   -4911.9021   -5076.3394            0    2047.0686    20.017009     19.95066    20.636603    8241.2799    2317.0354    1345.6875    2478.4829    237.07248    1109.6299    37.840589   -4665.8637 
 2540000    85.300873   -5073.0272   -4908.5173   -5073.0272            0    549.18926    19.909064    20.045792    20.796303    8299.6583    881.73778    338.89807    426.93194   -64.519556    878.81204    375.60982   -4842.0423 
 2541000    88.507326   -5079.3942   -4908.7004   -5079.3942            0    1406.2742    20.067324    19.843864    20.965585    8348.7737    1650.8254    1204.8541    1363.1429   -209.73399   -366.12974    335.24322   -4737.4749 
 2542000    84.474616   -5072.8631   -4909.9467   -5072.8631            0    2168.7189    19.910519     20.01195    20.794483    8285.5267    3016.6554    1265.7674    2223.7339    -113.4425    523.03151     1078.623   -4647.8876 
 2543000    92.418876    -5079.873   -4901.6354    -5079.873            0     1284.729    20.028492    19.814715    20.960138    8318.2164    1344.5043    1785.2777    724.40492    56.626665   -8.1174077    141.79379   -4745.7815 
 2544000    86.925998   -5084.9192   -4917.2751   -5084.9192            0    1581.1912    20.039001    19.899188    20.822031    8302.9896    1306.6484    1796.1349    1640.7902   -446.86928    210.60617    500.61122   -4725.8078 
 2545000     82.58067   -5079.9205   -4920.6567   -5079.9205            0    2218.8432    19.945968    19.973311    20.687221    8241.5203    1340.2227    2799.1079     2517.199    496.92532    451.50533    249.07967   -4653.9648 
 2546000     88.00446   -5083.3908   -4913.6668   -5083.3908            0    1841.3616    20.020682    19.898958    20.674131    8236.3815    626.74829    3028.8035    1868.5329    62.346951   -224.93241    376.99254    -4692.484 
 2547000    86.916184   -5076.0183   -4908.3931   -5076.0183            0    1244.8048    19.969079    19.851347     20.87809    8276.3487    1881.0331    1153.9739    699.40748    38.469462    1111.0697    260.97625   -4758.1426 
 2548000    85.206743   -5084.2452   -4919.9168   -5084.2452            0    633.63574    20.137962    19.983326    20.618682    8297.4415    872.21162   -312.88596    1341.5815     221.9574    258.28078    818.02623   -4843.2407 
 2549000    91.933449   -5083.3442   -4906.0428   -5083.3442            0    1542.2173    19.964735    20.089101    20.765397    8328.4521    2197.4481    329.14347    2100.0604   -131.21072    462.10897   -125.52028   -4718.7221 
 2550000    85.679101   -5081.4567   -4916.2174   -5081.4567            0    1034.4377    20.008461    19.932931    20.696527    8254.3396    196.85772    1324.1266    1582.3289   -102.66979    437.52404   -330.06692   -4791.6907 
 2551000    96.964556     -5072.35   -4885.3457     -5072.35            0    1427.0027    19.999805    19.963639    20.792822    8301.9269    1115.7169    1784.1271    1381.1642   -109.78345   -169.26365   -284.11278   -4712.5713 
 2552000    85.612264   -5079.8777   -4914.7672   -5079.8777            0    1305.7178    19.933517    19.989075    20.891707    8324.3544    2418.3924    721.79131     776.9696    -110.3792    385.32839   -491.26348   -4756.2503 
 2553000    87.761645   -5087.1034   -4917.8477   -5087.1034            0    2349.1623    19.878686    19.899657    20.959252    8291.0404    2013.3933     2761.727    2272.3665   -210.52354   -406.39799     363.0697   -4633.7956 
 2554000    89.425156   -5071.7552   -4899.2913   -5071.7552            0    2104.0975    19.930281    20.006471    20.748557    8273.1671    1260.8887    2659.2165    2392.1873   -271.42796   -354.43434   -404.10535     -4645.42 
 2555000    85.640048   -5070.5032   -4905.3392   -5070.5032            0    986.47978    20.088218    19.998392    20.727919    8327.0692    605.73634    1313.5364    1040.1666    35.962852    1049.1248    174.74998   -4785.5393 
 2556000    88.990789   -5065.5028   -4893.8766   -5065.5028            0    834.92555    19.923264    19.985014    20.874858    8311.6736     558.1749    599.07093    1347.5308   -122.20415    17.927275    138.13059   -4792.6692 
 2557000    85.843281   -5085.6408   -4920.0848   -5085.6408            0    1905.8891    19.928718    19.896304    20.818981    8254.8888    2519.9572    1026.6444    2171.0656   -436.75605   -426.19853    229.23332   -4690.6365 
 2558000    87.684366   -5078.8574   -4909.7507   -5078.8574            0    875.01755     20.03549    19.968435    20.799679    8321.4813    1319.2638    244.80725    1060.9816   -109.96651   -438.71959    582.32727   -4803.5583 
 2559000    84.320894   -5072.8461   -4910.2261   -5072.8461            0    1112.7075    19.973496    19.938063    20.856269    8305.6512    539.32512    2173.3285    625.46892   -135.93229    385.32894    -7.653891   -4775.4445 
 2560000    87.127758   -5079.8501   -4911.8169   -5079.8501            0    1522.7123    19.941825    19.920698    20.920703    8310.8552    2061.2414    2044.6147     462.2807    72.740638   -299.86333   -259.32703   -4727.2561 
 2561000    89.698618   -5078.9671   -4905.9758   -5078.9671            0    1437.9965    19.952223     19.92691    20.872531    8298.6291    1636.9727    937.80649    1739.2104   -109.80331    151.98558    27.000527   -4731.9394 
 2562000    90.342153   -5067.8489   -4893.6165   -5067.8489            0    1288.8295    20.019855    19.866125    20.965693    8338.4109    769.58848    1896.8641    1200.0359   -84.240364    310.57676    395.84141   -4736.8856 
 2563000    90.289054   -5074.5567   -4900.4266   -5074.5567            0    780.15205    19.986662    19.783116    20.963012    8288.7428    245.50499    1104.5302    990.42096   -41.538671    1044.2543   -373.32993   -4806.1197 
 2564000    88.518713        -5082   -4911.2842        -5082            0    1300.2842    20.051456    19.806885     20.96269    8325.4765    1591.1955    1702.4705    607.18658    184.45359   -750.29441    177.31013   -4753.4056 
 2565000    89.929011   -5083.9078   -4910.4721   -5083.9078            0    1663.3838    19.998498    19.885548    20.949519    8331.2274    2901.0938    334.46839    1754.5892   -512.65512    560.84723   -109.86732    -4708.367 
 2566000    89.301712   -5064.6968    -4892.471   -5064.6968            0    1257.6233    19.941146    19.968777    20.849521    8302.2853    2220.3854     792.4687    760.01573   -197.53573    856.40497    639.99123   -4740.1976 
 2567000    85.745513   -5079.2966   -4913.9292   -5079.2966            0    1778.8316    20.033022    19.938566    20.766207    8294.6403    803.43168    3117.3355    1415.7275    57.540722    368.94246     529.4776   -4698.7461 
 2568000    87.427386   -5075.5623   -4906.9512   -5075.5623            0    2305.9857    19.976888    19.818864    20.883496    8268.1779     3342.821    2492.1331     1083.003    159.99859    263.40682   -741.68634   -4628.8888 
 2569000    86.583513   -5088.2033   -4921.2197   -5088.2033            0    1410.0881    19.971863    19.932737    20.849769    8300.1659     1257.336    752.69587    2220.2323   -155.81966    561.98812   -708.36632   -4750.5294 
 2570000    90.544823   -5079.8443    -4905.221   -5079.8443            0    775.89269    19.985178      19.9131    20.923886    8327.0132    400.82317    1275.3862    651.46869   -274.98725   -134.17655    14.835083   -4810.9958 
 2571000    92.729348   -5085.6571   -4906.8208   -5085.6571            0     702.7514    19.950087    19.937621    20.956499    8335.6002    698.10305    1562.6822   -152.53104   -319.96111   -76.333573     566.2655     -4821.39 
 2572000    94.863472   -5070.4144   -4887.4622   -5070.4144            0    2275.5946    19.973251    19.922249    20.729361    8248.4628    2053.7634    2223.8216    2549.1987    -707.6166    842.57314    576.62289   -4613.7188 
 2573000    84.983088   -5086.4557   -4922.5587   -5086.4557            0    1430.9871     20.00057    20.075268    20.729277    8323.1531    353.22283    2313.9006    1625.8379   -123.55215    495.08626   -345.79533   -4748.8588 
 2574000    81.257107   -5071.5045   -4914.7933   -5071.5045            0    1109.7373    20.005276    19.957615    20.711094    8269.0616    492.10665    2315.5056    521.59961    374.87574   -61.703971    184.07013   -4780.9637 
 2575000    85.809427   -5078.6354   -4913.1447   -5078.6354            0    1362.3866    20.020533    19.990768     20.64233    8261.5938    1316.3968    1632.8708    1137.8923    211.97137    521.57803    92.238187    -4748.995 
 2576000    90.826679   -5083.9627   -4908.7958   -5083.9627            0    579.75835    20.138507    19.903948    20.679665    8289.1499   -1142.4453    2309.4012     572.3192   -291.31193    201.12393   -134.92621   -4838.7095 
 2577000    81.686194   -5080.1074   -4922.5687   -5080.1074            0    1356.6038    20.023156     19.92782    20.799093    8299.2094    1113.7489    1456.2043    1499.8582    414.90887   -529.42052    822.74697   -4758.3716 
 2578000    92.734869   -5073.9896   -4895.1426   -5073.9896            0    1798.8857    20.128712    19.831506    20.762468    8288.0174    1577.2315     2269.584    1549.8417    320.10929    196.69067    20.007545   -4677.7073 
 2579000    86.047579   -5079.0756   -4913.1256   -5079.0756            0    1216.2438    19.937245    19.887747    20.944122    8304.4886    1434.4381    1663.8752    550.41812   -60.214603     -274.878   -330.00341   -4765.8234 
 2580000    87.121684   -5068.4407   -4900.4192   -5068.4407            0    1792.0976    20.017015    19.867743     20.88651     8306.417    2038.7025    2048.9146    1288.6756   -48.726189   -304.56431   -291.39848   -4683.3235 
 2581000    87.679231   -5075.4923   -4906.3956   -5075.4923            0    507.62756    20.035016     19.94517     20.95327    8372.9643     1328.188   -133.74962    328.44427    290.45613    631.30095   -61.152429   -4844.4086 
 2582000    84.202088   -5079.5029   -4917.1121   -5079.5029            0    1334.9403    19.958397    19.938144    20.969401     8344.425    891.79907    1866.9027    1246.1192   -144.86863     757.0856   -136.65647   -4754.6567 
 2583000    88.131539   -5075.0015   -4905.0324   -5075.0015            0    1358.0678     19.98752    19.942631    20.913814    8336.3241    1349.5119    1989.0022    735.68945    -299.8454   -32.013076   -366.04734    -4739.923 
 2584000    94.420459   -5076.9576   -4894.8598   -5076.9576            0    816.07739    19.868518    19.944669    21.106279    8363.8067    1898.4124    337.71976    212.09995    176.67661    625.27677    700.63346   -4795.3167 
 2585000    86.344101   -5084.0892   -4917.5673   -5084.0892            0    1197.9058    19.946562    19.946979    20.881603    8308.2397    1224.1322    1817.7532    551.83207   -583.48251    570.84446    104.88526   -4772.4205 
 2586000    87.818564   -5082.1039   -4912.7385   -5082.1039            0    1115.3711    19.878643    19.935401    20.948523    8301.6635    1439.8661    1691.3346     214.9127     65.50325    296.00033    29.391753   -4777.6991 
 2587000    87.972761   -5082.4112   -4912.7483   -5082.4112            0    1311.2593    19.905612    19.955276    20.880354    8294.1354    1556.4548    1895.8296    481.49367   -440.71491    1073.2587    152.70351   -4754.1365 
 2588000    87.803194   -5076.2153   -4906.8795   -5076.2153            0    2259.2243    19.937786     19.94282     20.80485    8272.3343    3500.1181    1109.4193    2168.1355   -21.081341    12.230386    369.02494   -4634.3187 
 2589000     86.08171    -5090.612   -4924.5962    -5090.612            0    400.13545    19.881667    20.152613      20.8668    8360.6497    601.17167    -6.374998    605.60967    23.753725    402.22371    4.9818444   -4875.8071 
 2590000    84.571861    -5073.926   -4910.8221    -5073.926            0    1014.8159    20.009309    19.945732    20.823007    8310.4689    1300.4164    375.37504    1368.6563   -79.805354   -53.182637    5.9446827   -4787.8268 
 2591000    85.889202   -5078.1171   -4912.4725   -5078.1171            0     1750.431    19.889508    20.017217    20.764977    8267.2137    2415.0433    1275.3298      1560.92   -178.82234    290.86079    78.022986   -4701.4251 
 2592000     86.46744   -5076.9879   -4910.2281   -5076.9879            0     1411.845    19.971039    20.048609    20.747931    8307.2962    1200.0902    1538.6746    1496.7703    18.202929   -150.41093    76.427633   -4739.1783 
 2593000    89.186972   -5071.2162   -4899.2116   -5071.2162            0      1676.03     19.93449    19.986678    20.825211    8297.2686    2379.0242     1286.387    1362.6789   -490.85068    203.48881     15.36653      -4696.4 
 2594000    84.638055   -5072.4472   -4909.2156   -5072.4472            0    1351.2479    20.010342    19.965362    20.798592    8309.3231     269.1459    2046.9273    1737.6703   -165.89871    955.40064   -377.05178   -4745.4674 
 2595000    83.023419   -5082.6384   -4922.5207   -5082.6384            0    1681.8549    19.816416    20.021318    20.886355    8286.6778    2257.4946    1374.4612    1413.6088   -120.98147    849.76468    80.661357    -4719.264 
 2596000    87.142687   -5072.2039   -4904.1419   -5072.2039            0    1897.6522    19.854437    19.957529    20.859279    8265.3953    1941.0618    2293.7653    1458.1294   -236.84645    128.05173   -345.37659   -4675.3945 
 2597000    87.698654   -5079.5936   -4910.4594   -5079.5936            0    1151.7623    20.096589    19.965727    20.752748     8326.895    1245.0909    -186.6245    2396.8204   -65.026837    197.26584    344.10066   -4770.5903 
 2598000    89.067226   -5080.4647    -4908.691   -5080.4647            0    1585.9186    19.975606    20.004268    20.699685    8271.5398    1760.5836    1541.9284    1455.2438   -369.57837   -97.966145   -701.58697   -4717.3786 
 2599000    87.744431   -5078.2613   -4909.0388   -5078.2613            0    1174.1291    19.910433    19.973631    20.854362    8293.4385    1710.6407      56.7127    1755.0339   -193.06901   -380.83389    -47.05044   -4767.0263 
 2600000    89.324183   -5082.6627   -4910.3935   -5082.6627            0    737.27091     20.03306    19.908605    21.012323    8380.3508    1211.2992    1078.5753   -78.061769   -267.89713    314.76788    57.635919   -4820.2851 
 2601000    85.245636   -5086.3419   -4921.9385   -5086.3419            0    1845.1268     19.96312    19.857063    20.890948    8281.3587    2576.7889    1410.2745     1548.317   -1.0389582    376.81637   -621.37283   -4699.0931 
 2602000    87.942968   -5077.4045   -4907.7991   -5077.4045            0    1532.9191    19.917018    19.898438    20.983318    8316.0571    1002.7317    3030.2209    565.80475   -392.99379   -285.60094    765.87683   -4721.8848 
 2603000    89.574947   -5073.5984   -4900.8455   -5073.5984            0    801.07091    20.079135    19.849052    20.876026    8320.1776    738.46415    1010.5527    654.19588    209.44905   -188.56866   -536.16813   -4803.6426 
 2604000    89.609252   -5074.8289   -4902.0099   -5074.8289            0    2009.7928    19.904987    19.987523    20.780326    8267.4815    1868.6953    1624.1071     2536.576    -125.7314    92.668279   -834.94683   -4659.6837 
 2605000    90.931127    -5066.265   -4890.8967    -5066.265            0     1398.546    19.985424    20.031934    20.757812    8310.3213     163.0835     2117.823    1914.7317   -732.93905   -101.26038   -1118.2419   -4721.3964 
 2606000    87.448892   -5084.0782   -4915.4257   -5084.0782            0    1969.2941    19.945382     19.91129    20.787422    8255.4813    1807.4669    2012.6935     2087.722    125.98389   -303.59997   -35.520555   -4678.3271 
 2607000    92.035738   -5083.2496   -4905.7509   -5083.2496            0    1403.9808    19.961848    19.947227    20.821247    8290.6773    677.02822    2394.8676    1140.0465    36.278438   -100.68769    489.75941   -4735.9942 
 2608000    90.466218   -5076.6471   -4902.1754   -5076.6471            0    148.77957    19.866111    20.020658    21.068498    8379.6288    1316.1386   -352.16213   -517.63772   -243.74405   -290.25373   -450.11508   -4883.9933 
 2609000    85.567261   -5073.5449   -4908.5213   -5073.5449            0    685.47554      20.0229    19.969821    20.907976    8360.1323    959.61464    464.99954    631.81244    154.64369   -18.107146   -75.964121   -4824.9454 
 2610000    90.119764   -5072.6079   -4898.8044   -5072.6079            0    1981.8484    19.877769      19.9636    20.901185    8294.2554    2694.2859    1589.5212     1661.738    -222.3477   -133.86617    -746.0819   -4659.0737 
 2611000    89.487056   -5070.3506   -4897.7673   -5070.3506            0    1781.9044    19.977156    19.987989    20.874072    8335.0833    1539.2618    1880.4848    1925.9667   -3.0786921   -258.71881    686.42896   -4681.1614 
 2612000    87.344553   -5070.5769   -4902.1256   -5070.5769            0    372.61209    20.114134    19.953999    20.729213    8319.8236    616.49574   -173.35747      674.698    6.7581617    750.14458    1342.5611   -4856.9143 
 2613000    88.437605   -5087.9588   -4917.3994   -5087.9588            0    761.74093    20.044842    19.945326    20.771437    8304.4394    698.64345    374.66291    1211.9164   -132.48827    714.13164   -797.78818   -4825.1437 
 2614000    87.420651   -5071.3494   -4902.7513   -5071.3494            0    610.77536    20.147798    19.866608    20.799263    8325.2878    65.166849    1506.9865    260.17275    89.996812   -593.37059   -250.87831   -4828.5935 
 2615000    84.382543    -5071.638   -4908.8992    -5071.638            0    2223.3665    19.955075    19.945209    20.748875    8258.2215    2523.3901    2418.8879    1727.8216   -127.01126    557.06249   -690.09309   -4641.1221 
 2616000     84.37677   -5079.3989   -4916.6712   -5079.3989            0    1315.2772    20.028422       20.007    20.671987    8283.4439     703.2405    1266.9755    1975.6155   -193.65215     552.7103   -359.27665   -4757.7784 
 2617000    85.173831    -5084.139   -4919.8741    -5084.139            0    640.84803    20.066498    19.971819    20.925932      8386.37    434.50872    979.34026    508.69511   -239.15344    629.02515    455.76236   -4841.4941 
 2618000    82.581277   -5072.3544   -4913.0895   -5072.3544            0     1459.483     19.99858    20.025056    20.707524    8292.7979    312.23152    1943.5496     2122.668   -348.21381    145.23011     145.4593   -4736.5767 
 2619000     87.39673   -5087.5373   -4918.9853   -5087.5373            0    1310.0041    19.934029    19.999034    20.824383    8301.8759    1666.3315    816.91063    1446.7701   -221.16692    400.07447   -351.18852   -4760.3775 
 2620000    88.824727   -5075.5403   -4904.2344   -5075.5403            0    1698.7221    19.950676    20.066064    20.636925    8261.6119    1078.0318    1489.2679    2528.8665    94.777497    -511.8514   -698.40816   -4699.5602 
 2621000    83.684461   -5080.9411   -4919.5486   -5080.9411            0    1598.1485    20.058765     19.94165    20.689509    8275.9046    1543.4894    1367.5806    1883.3754   -259.40293    452.80239    82.597487   -4726.6592 
 2622000    87.134698   -5066.5693   -4898.5227   -5066.5693            0    1603.3128    20.005759    20.012488    20.715957    8293.9444    1587.1542    1564.3113     1658.473   -451.36101    412.50707   -405.18852   -4704.5881 
 2623000    89.065026   -5078.9954    -4907.226   -5078.9954            0    2260.9158    19.941632    19.965647    20.800404    8281.6303    2550.3643    2563.2651    1669.1181    47.602021   -195.23303   -65.525645   -4634.1546 
 2624000    87.904629   -5075.6269   -4906.0954   -5075.6269            0    1869.9056    20.002803    19.862137     20.86304    8288.8529    1095.1845     2410.872    2103.6601   -217.63283   -313.11846    1116.1025    -4680.053 
 2625000    88.302823   -5071.5448   -4901.2454   -5071.5448            0    1338.6262    19.983206    20.020052    20.813255    8326.6512    840.16013    2093.3254    1082.3932   -518.65221    443.60016    493.84296   -4738.6884 
 2626000    87.590363   -5090.3942   -4921.4688   -5090.3942            0    431.42617    19.955795    19.948633    20.950195    8340.0806    677.25815    863.35251   -246.33216    152.67283    124.49179    -252.0712   -4868.9938 
 2627000    88.831186   -5081.6028   -4910.2843   -5081.6028            0    1137.2324    20.001531    19.928377    20.800068    8290.8664    1782.6414    140.98808    1488.0676   -81.779224    809.45991   -569.84983   -4772.7773 
 2628000    89.625541   -5088.6179   -4915.7675   -5088.6179            0     2363.928     19.98702    19.958029    20.799741    8297.0482    2592.8188    3167.1544     1331.811   -670.43644    103.15663    97.282839   -4629.7229 
 2629000    94.651334    -5074.445   -4891.9019    -5074.445            0    1969.3731     19.91886    20.009016    20.765371    8276.1795    1715.5698    1869.8884    2322.6611     124.9902   -673.28439    270.23292   -4654.1994 
 2630000    82.707251   -5084.2413   -4924.7334   -5084.2413            0     1584.021     19.95676    19.978137    20.789001    8288.5516    2533.7689    1252.3695    965.92452    217.10262    135.69199    621.61155    -4733.257 
 2631000    86.043238   -5086.2637   -4920.3221   -5086.2637            0    2585.8678    19.899304    19.844614    20.744034    8191.6946    3137.1997    2558.6611    2061.7425   -315.94478    758.56543   -84.956743   -4611.3951 
 2632000    94.482539    -5076.542   -4894.3245    -5076.542            0    1552.6605    19.864287    19.978189    20.853803    8275.8833    400.42776    3646.5168    611.03698   -541.45475   -480.94667    -9.333384   -4706.9257 
 2633000    89.846918   -5071.3609   -4898.0835   -5071.3609            0    971.02116    19.979606    19.971949    20.896629    8338.4167    239.78113    793.18137     1880.101   -497.99058    1045.2727   -704.56355   -4780.0003 
 2634000    85.707749   -5078.1806    -4912.886   -5078.1806            0    1659.7674    19.875978    19.884354    20.931791     8272.683    780.01761    2501.6042    1697.6804   -175.80433      932.007   -207.80659   -4712.6374 
 2635000    86.402637   -5075.9517   -4909.3169   -5075.9517            0    1495.3023     19.93198    19.911449    20.829588    8266.7346    1552.3097    1555.9011     1377.696   -2.3678495   -725.75075   -265.44719   -4729.0405 
 2636000    92.013382    -5086.589   -4909.1335    -5086.589            0    566.06059    19.970783    20.027165    20.907941    8362.3016    776.18917    734.12372    187.86887   -358.44881    367.23033   -474.14823   -4840.0992 
 2637000    88.889487    -5086.187   -4914.7561    -5086.187            0     1100.398    20.000454    19.867312     21.00369    8345.9268     1005.958      1761.88    533.35598   -172.08338    825.04192   -37.002192   -4780.8192 
 2638000    87.510297   -5081.2833   -4912.5123   -5081.2833            0    1295.3055    20.008905    20.058564     20.74118    8324.4705     983.2118    987.44892    1915.2556   -197.19429    550.85479    331.24266   -4755.2572 
 2639000     82.66315   -5082.4103   -4922.9875   -5082.4103            0    2270.1996     20.01903    19.941699    20.777102    8294.4991    2397.9969    1852.9065    2559.6955   -527.19848    333.97553    674.13794   -4648.3688 
 2640000    93.075507   -5082.2963   -4902.7924   -5082.2963            0    1998.9791    19.893833    19.890935    20.929115    8281.7961    3412.5545    1466.1465    1118.2364   -167.18005    197.50387    273.28171   -4661.3527 
 2641000    86.298137   -5076.1703    -4909.737   -5076.1703            0    849.86056    20.057889    20.007018    20.720717    8315.1937    1282.0947    -309.9698    1577.4567   -140.41027    611.39912    357.99746   -4806.6757 
 2642000    88.928859   -5080.9154   -4909.4086   -5080.9154            0    1601.5602    20.046735     19.87774    20.767017    8275.3196    1159.0751     2403.946    1241.6594    -350.1882    639.64783   -200.72291    -4716.121 
 2643000    87.558394   -5081.3457    -4912.482   -5081.3457            0     1184.857    19.976714     19.97398    20.763667     8285.004    447.56735    1967.7089    1139.2946    99.012744    520.04258   -127.28378   -4769.3178 
 2644000    89.190165   -5079.6514   -4907.6407   -5079.6514            0    1635.3189    20.081949    19.965907    20.623706    8269.1636    1033.4875    2002.0423    1870.4271    208.55402   -110.18512   -435.08376   -4710.4257 
 2645000    86.801798   -5076.2777   -4908.8731   -5076.2777            0    1497.6931    19.886871    20.021808    20.793392    8279.3281    2118.3062    1320.6243    1054.1489    167.82262    169.15467    114.53697   -4728.0334 
 2646000    85.139584   -5081.4573   -4917.2585   -5081.4573            0    1996.6619    19.984407    19.913641     20.81294     8282.766    2689.9972    1789.5977    1510.3907     32.41413    13.945054    149.59837   -4676.0704 
 2647000    82.613049   -5078.7511   -4919.4249   -5078.7511            0     2764.694    19.967738    19.939984    20.742859    8258.9015    3014.4188    2851.8056    2427.8575    134.77729    167.06977   -527.26271   -4586.4241 
 2648000    85.569631   -5082.0863   -4917.0581   -5082.0863            0    1777.5711    19.997065    19.958304    20.685251    8255.6389    1389.7461    2097.1227    1845.8445    106.57688    709.65325    617.97976   -4703.0385 
 2649000    88.144689    -5072.585   -4902.5905    -5072.585            0     1531.783    20.021946    19.970097    20.640376    8252.8518     2308.401    630.51322    1656.4346    294.80196    -9.107418    208.34102   -4718.2261 
 2650000    88.274656   -5083.0077   -4912.7626   -5083.0077            0    1315.9331    19.972831    20.002888    20.782394    8302.8633    1344.8141    1542.5905    1060.3946    216.68179    178.00187    243.13786   -4753.4179 
 2651000    88.603834   -5065.1183   -4894.2384   -5065.1183            0    1885.4492    20.107339    19.861122    20.730831    8278.9467    1998.3719    1762.3923    1895.5833     541.5427    570.85554    442.06173   -4666.5893 
 2652000    89.824425   -5076.2024   -4902.9685   -5076.2024            0    2025.3887    20.041618    20.120058    20.582633    8299.7106    2931.8118    649.45865    2494.8957   -3.1745006   -117.74682    128.44779   -4657.8098 
 2653000    86.195123   -5079.6478   -4913.4132   -5079.6478            0    789.76694    19.996385    20.039215    20.798372    8334.1546    1815.5726   -29.492762    583.22097    37.367055    44.128998    62.275714   -4817.4209 
 2654000    85.235477   -5074.8315   -4910.4477   -5074.8315            0    644.60319    19.944393    20.002398    20.954759    8359.6006    223.06631     1735.928   -25.184754   -262.97333    180.05883   -643.70545   -4831.8601 
 2655000    86.932693   -5079.7178   -4912.0608   -5079.7178            0    548.95426    20.041371    19.973764    20.798515    8325.6795   -50.975316    778.00892    919.82917   -206.17843    361.79238   -512.65965   -4845.4059 
 2656000    83.181745   -5075.0199   -4914.5969   -5075.0199            0    1368.5915    19.973113     19.99687    20.767104     8294.376    1054.9051     1170.427    1880.4424   -525.80781   -301.18116    1025.9666   -4749.0452 
 2657000    93.390686   -5083.1899   -4903.0781   -5083.1899            0    3160.4272    19.950706    19.812784    20.845313    8239.7148     2510.123    4006.4846    2964.6741   -33.660302    334.89496    31.240206   -4523.2965 
 2658000    83.834229   -5082.4795   -4920.7981   -5082.4795            0    652.08694    19.994866    20.058435    20.706387    8304.6221   -90.485185     1475.794      570.952    -8.372297   -464.64642    507.98387    -4841.821 
 2659000    83.706304    -5078.787   -4917.3524    -5078.787            0    1122.1547    19.990199    20.020199    20.755064    8306.3373    1324.6311    431.77589    1610.0571   -36.736648    72.184886    48.985305   -4781.4152 
 2660000    87.945266   -5078.5656   -4908.9557   -5078.5656            0    945.63215    20.041953    19.970143    20.772145    8313.8568    477.31322     469.4831    1890.1001   -199.07369    373.63967   -467.78319   -4794.2987 
 2661000    83.586595   -5076.8701   -4915.6663   -5076.8701            0    1516.8577    20.042899    20.045267    20.693366    8313.8757    935.37461    995.64902    2619.5495   -29.320129    322.64071   -5.7925122   -4731.7483 
 2662000    87.752468   -5076.3537   -4907.1157   -5076.3537            0    1753.5343    19.957068    19.875286    20.860381     8274.321    1798.0879    2419.2565    1043.2586   -195.24863    338.08557   -204.64514   -4695.5123 
 2663000    90.282587   -5080.4247   -4906.3071   -5080.4247            0    1091.2721    20.063917    19.927958    20.890365    8352.6548     1074.848     991.5705    1207.3976   -78.996307    752.25913   -497.52633   -4773.3739 
 2664000     88.07914   -5085.7431   -4915.8751   -5085.7431            0      756.492    19.988866    19.921458    20.965035    8348.4315    1722.6936    298.70304    248.07935    342.07752   -617.01622    526.02903   -4823.7697 
 2665000     90.91068   -5086.9496   -4911.6207   -5086.9496            0    1406.4908    20.019131    20.010215    20.695296    8290.2688    1428.7491    1281.5479    1509.1753   -289.88531   -666.96614   -264.37074   -4741.5688 
 2666000     90.98237   -5078.8466   -4903.3795   -5078.8466            0    1510.6359    20.034122    19.962634    20.731123    8291.0778    1604.9378    1577.2729     1349.697    45.815421   -175.23431    -223.0019   -4720.7181 
 2667000     87.36597   -5075.2447   -4906.7521   -5075.2447            0    1637.1604    19.942616    20.074385    20.670768    8275.2474    2396.3122    204.97211     2310.197   -622.18073   -391.93399    660.60415   -4709.1698 
 2668000    94.146245   -5078.1526   -4896.5836   -5078.1526            0    908.86238    19.970404    20.057762    20.678529    8283.0248    1865.0564   -687.77478    1549.3056   -52.427997    1083.3327   -241.37332   -4786.7936 
 2669000    90.789155   -5071.2982   -4896.2037   -5071.2982            0    2162.6772    20.070266    19.926712    20.735551    8292.8603    1227.4601    2722.3753    2538.1962   -247.13093   -76.669995   -91.698622   -4634.6433 
 2670000    83.981346   -5070.3328   -4908.3677   -5070.3328            0    1336.3458    19.863591    19.977481    20.998172    8332.5894    1615.2519    352.19848    2041.5871    177.23671     463.4098   -1084.3918   -4745.9719 
 2671000    91.520399    -5079.415   -4902.9103    -5079.415            0    2060.1394    19.958331    19.989943    20.916159    8344.8347    2204.8686    1512.0867    2463.4628    613.26469    305.96717    14.272865   -4652.1895 
 2672000    88.965079    -5085.391   -4913.8144    -5085.391            0    1646.6696    19.999622    19.870624    20.894129    8303.4307     1521.915    1897.5327    1520.5609    38.282074    587.05136    328.36919   -4714.4076 
 2673000     85.21618   -5082.9492   -4918.6027   -5082.9492            0    1651.8552    19.978297    19.948284    20.817454    8296.4368    1803.8422    2091.2326    1060.4907   -129.94576    936.18799    434.53922   -4718.7364 
 2674000    91.141193   -5083.8808   -4908.1073   -5083.8808            0    2171.7502    19.983209    19.936466    20.871618    8315.1393     2374.443    2186.5621    1954.2456    54.562244    39.579028   -345.77241    -4644.744 
 2675000    86.529611   -5077.7249   -4910.8453   -5077.7249            0    1497.4579    20.034472    19.890381    20.887427    8323.4997    921.96456    2041.1687    1529.2404   -252.20701   -241.64199    313.78543   -4729.0693 
 2676000     86.17327    -5087.136   -4920.9436    -5087.136            0     1153.278    19.914975    19.971914    20.963375    8337.9763    1091.3634    880.62652     1487.844    42.010585    499.37228   -29.326465    -4780.704 
 2677000    88.775724     -5076.38   -4905.1685     -5076.38            0    1431.5411    20.049179    19.841906    20.785028    8268.5736    892.02593    2260.3138    1142.2834    87.371567   -577.87691     340.9612   -4732.5409 
 2678000    87.970752   -5079.7138   -4910.0548   -5079.7138            0    1352.1343    19.989388    19.939613    20.952322    8351.1904    1715.8879     1333.958     1006.557    204.34512     537.8301    314.64742   -4745.3736 
 2679000     85.50373   -5063.9119   -4899.0108   -5063.9119            0    746.56908    19.881906    20.033003     20.89416    8322.0244    1101.9827    1091.6394    46.085081   -217.75053    270.13063    133.83516   -4808.4011 
 2680000    88.361981   -5073.4494   -4903.0359   -5073.4494            0    1084.4968    20.035711    19.907711    20.894762    8334.1924    784.74258    1071.4526    1397.2953   -425.33914   -335.97702   -252.88506     -4771.22 
 2681000    87.274388   -5079.4225   -4911.1065   -5079.4225            0    1637.1003    19.905615    19.965628    20.799911    8266.4692    917.14899     1929.249    2064.9029     -141.173   -48.368989    629.46843    -4713.741 
 2682000     87.09868   -5079.7846   -4911.8075   -5079.7846            0     768.3282    19.981477    19.914401    20.961553     8341.003    464.60629    1732.3604    108.01789   -204.00731   -212.79363    191.06154   -4818.3442 
 2683000    84.732938   -5082.4506    -4919.036   -5082.4506            0    2250.7553    20.070816    19.931751    20.729891    8292.9206    1475.3741    2313.2682    2963.6236    31.346832    716.11693    656.67154   -4646.8213 
 2684000     86.11038   -5084.8915   -4918.8204   -5084.8915            0    2666.0422    20.034876    19.861437    20.756694    8259.5331    1435.4706    3667.0609     2895.595     155.6245    541.99526    86.282653   -4597.6775 
 2685000    88.392545   -5070.3768   -4899.9043   -5070.3768            0     1975.435    19.959376    19.938311    20.734538    8251.4389    2243.3407    2380.6154    1302.3488   -65.478265    274.57971    7.0807339   -4662.1829 
 2686000    85.464353   -5066.6266   -4901.8014   -5066.6266            0    1152.5515    20.042837    19.938752    20.790495    8308.4875    366.56488    1218.3796    1872.7099   -427.44297    266.99629   -133.62794   -4762.1459 
 2687000     86.53413   -5081.5401   -4914.6518   -5081.5401            0    1268.1185    20.025917    19.961995    20.732075    8287.7973    1437.2158    1059.3601    1307.7796   -461.10975    650.22129   -864.45039   -4761.3755 
 2688000    87.875983   -5074.2426   -4904.7663   -5074.2426            0    1670.2371    19.922542    19.977531    20.849621    8298.2158    1855.4673    1678.8901    1476.3541   -304.00318    378.24434    287.62789   -4702.6326 
 2689000    85.266536    -5085.648   -4921.2043    -5085.648            0    1703.0912    19.993087    19.920098    20.855085    8305.8347    2905.4332    916.35857    1287.4817   -259.09001   -566.29165    302.43399   -4714.9053 
 2690000     91.02337   -5071.2024   -4895.6562   -5071.2024            0    1416.0134    19.896159    19.985661    20.882979     8303.864    1235.7197    1606.6907    1405.6298   -568.17415    489.03089   -201.03891   -4724.1722 
 2691000    84.728288   -5072.6171   -4909.2115   -5072.6171            0     1873.724    19.963705     19.89243    20.864825    8285.9772    2243.7247    2241.9835    1135.4638    222.03506     1065.502    376.24297    -4682.786 
 2692000     89.64671   -5077.7922    -4904.901   -5077.7922            0    1692.6035    19.962002    19.955476    20.806479     8288.287    1319.6425    1989.4637    1768.7042   -234.64893    590.71323   -224.83022   -4700.3055 
 2693000    89.070932   -5078.3596   -4906.5788   -5078.3596            0    1182.5779    19.927884    19.957631    20.906719    8314.8815     1742.267    1149.3265    656.14013   -361.75974     33.25775    1081.8871   -4763.1746 
 2694000    90.387494   -5075.5838   -4901.2639   -5075.5838            0    1430.4048    20.059499    19.906343    20.772547    8294.7123    2225.1877    926.62902    1139.3978    80.943094    524.39824   -1218.3261    -4728.228 
 2695000    90.232619   -5080.8794   -4906.8582   -5080.8794            0     1988.842      20.0322    19.952404    20.774582    8303.4038    2535.6067    1621.5271    1809.3922    -327.9182    214.98956    1432.4108   -4666.0162 
 2696000    86.695579   -5078.7226   -4911.5229   -5078.7226            0    1738.7399    20.085681    19.869171    20.778133    8292.2583    2030.9436    1661.0922     1524.184   -91.833132    44.845457   -229.36392     -4701.25 
 2697000    89.984038   -5082.5339   -4908.9921   -5082.5339            0    976.41491    20.042845    19.945916    20.858508    8338.6661    756.21516    1245.3586    927.67102    254.91615   -461.10325     506.0902   -4790.2494 
 2698000    88.861228   -5080.3927   -4909.0163   -5080.3927            0    924.54213    20.060743     19.88725     20.85504    8320.1808    999.69951    727.79076    1046.1361   -372.85644    574.45605    1129.9065   -4796.8312 
 2699000    86.265687   -5067.4323   -4901.0617   -5067.4323            0    569.33952    20.075494    19.902409    20.871114     8339.068   -96.293354    1099.4498    704.86209     51.75572   -476.48397    246.89862   -4831.8205 
 2700000     84.20536   -5077.8957   -4915.4986   -5077.8957            0     193.9596    19.906265    20.080606    20.935735    8368.6386     728.8075   -54.588985   -92.339704    94.749896   -327.23717    300.69282   -4891.8262 
 2701000    84.143937   -5074.6132   -4912.3345   -5074.6132            0    1545.2788    19.933286    19.884865    20.936121    8298.4651    1820.2269    1965.3032    850.30642   -274.40197    -83.63291    310.42608   -4725.3178 
 2702000    86.595894   -5080.4869   -4913.4794   -5080.4869            0    347.93357    20.034562    19.948472    20.942395    8369.8144    292.45839    295.15925    456.18309    -556.9657    -53.34941   -76.646309   -4871.0088 
 2703000    84.436614     -5081.33   -4918.4869     -5081.33            0    1345.7494    19.948475    19.930195    20.840563    8285.7285    1377.8987    1923.0005    736.34892   -73.544756    444.54283   -253.72434   -4755.8681 
 2704000     82.78473   -5075.4958   -4915.8385   -5075.4958            0    1402.1915    19.999152    19.906421    20.787545    8275.7617    865.91256    1474.7883    1865.8737    6.6393514    390.84815    651.64898   -4746.6031 
 2705000    84.526324   -5083.5005   -4920.4844   -5083.5005            0    1335.5513    19.906016    19.947948    20.866585    8285.7906    1665.3938    1431.6409    909.61921   -113.97486    586.93021   -49.802949   -4759.0967 
 2706000    84.918435   -5082.9939   -4919.2216   -5082.9939            0    1640.1889    19.960484    19.990112    20.795714    8297.7457    1638.1629    1704.2567    1578.1472   -294.59948     450.5356   -94.472208   -4720.7356 
 2707000    86.258983    -5075.675   -4909.3173    -5075.675            0    1817.4009    19.893186    20.007635    20.731689    8251.5361    1324.2695    2304.9125    1823.0206   -234.85096   -531.08394   -177.98943   -4690.6109 
 2708000    87.319398   -5074.5064   -4906.1036   -5074.5064            0    613.32882    19.976019    19.879234    20.932224    8312.3526     1633.243   -448.16866     654.9121   -373.42465    1207.5305   -112.80269   -4831.7515 
 2709000    85.984737     -5075.39   -4909.5612     -5075.39            0    1548.3916    19.971826    20.009164    20.859977    8336.0544    1664.1597    1589.8457    1391.1693   -453.45585   -378.36911   -30.756557   -4721.3189 
 2710000    89.466441   -5068.4105   -4895.8669   -5068.4105            0    2025.6763    19.808536    20.091467    20.834925    8291.9366    3286.7712    1196.3292    1593.9286   -90.446269    409.36637   -374.35516   -4650.9031 
 2711000    90.105612   -5082.7033   -4908.9271   -5082.7033            0    631.43668    20.070725    19.973916    20.793058    8335.7493     615.3684    1137.8478    141.09381   -125.66015    865.52136    55.066505   -4832.1644 
 2712000    88.404393    -5077.998   -4907.5027    -5077.998            0    1127.8077    20.151243    19.974999    20.647673    8311.1235    638.34931    1298.3019    1446.7718   -415.11903    163.35907    562.33326    -4770.802 
 2713000    88.127612   -5069.7898   -4899.8283   -5069.7898            0    2793.0737    20.035695    19.938467    20.680658    8261.5309    2250.1164    3144.5047    2984.6002   -497.50843    214.25434   -713.30664   -4563.3022 
 2714000    86.609633   -5072.0117   -4904.9777   -5072.0117            0    1898.9531    19.963744    19.972373    20.826143    8303.8693    2389.7787    1309.2989    1997.7817     244.8989   -208.97191    737.72614    -4675.008 
 2715000    85.107252   -5089.6606   -4925.5241   -5089.6606            0    1588.2904    20.000094    19.904104    20.777058    8271.0131    1277.5303    1848.6215    1638.7193   -238.18771   -134.69574   -141.97463   -4733.9378 
 2716000    84.469818   -5076.4464   -4913.5392   -5076.4464            0    1286.6484    19.924503    19.975774    20.869033    8306.0288    2881.4337    640.98718    337.52429    282.51038   -196.83183   -87.112151   -4757.6812 
 2717000    85.271077    -5088.008   -4923.5555    -5088.008            0    1367.3299     19.90092    19.901492    20.833801    8251.3936    1434.6863    1930.9346    736.36892    102.47021   -526.70427    126.48815   -4759.0136 
 2718000    85.932704   -5067.8818   -4902.1533   -5067.8818            0    640.77999    19.928708    20.040084    20.914206    8352.5688    571.67489    814.84176    535.82332     44.93028   -311.06827    354.01833   -4824.0976 
 2719000    90.338146   -5079.8227    -4905.598   -5079.8227            0    2040.7956    20.017642    19.960658    20.791114    8307.4081    2214.9307    1725.2668    2182.1894   -51.052176   -1007.7644    4.3401559   -4658.3454 
 2720000    86.573215   -5082.8214   -4915.8577   -5082.8214            0     1068.383    19.942039    20.011471     20.77278    8289.7836    1896.3198    1072.7989    236.03031   -116.56795   -12.046669   -372.47899   -4786.6924 
 2721000    86.992311   -5081.3528   -4913.5808   -5081.3528            0    1326.8241    20.076141    20.039884    20.663922     8313.582    799.92006    1570.8373    1609.7149    92.135551   -394.28018   -838.37592   -4752.7099 
 2722000    85.631254   -5081.0396   -4915.8925   -5081.0396            0    1990.2544    20.047697    19.903719    20.735624    8274.0059     942.2129     2879.452    2149.0982   -89.582038    555.26442   -18.359575   -4675.7327 
 2723000    86.911785   -5082.2309   -4914.6142   -5082.2309            0    646.27491    20.082916    20.003371    20.812801    8361.0436    166.58274    911.48651    860.75549    228.56311   -565.43162    83.288482   -4835.8092 
 2724000     89.37358   -5082.4806   -4910.1162   -5082.4806            0    2991.6149    19.929912     19.86103    20.765612    8219.6228    3507.7604    3258.7358    2208.3485   -165.75916   -739.73968    368.85972    -4551.497 
 2725000     88.11231    -5084.761    -4914.829    -5084.761            0    1490.6083    20.016433    19.870217    20.796518    8271.4169       1385.1    1982.3516    1104.3734  -0.70813259   -243.88454    578.47424   -4735.0167 
 2726000    87.713368   -5076.6542   -4907.4915   -5076.6542            0    1428.3299    19.871084     20.01239    20.825908    8281.7948    2314.8422    1361.2189    608.92855   -303.46942   -387.85018     466.3308   -4734.9757 
 2727000    93.173501   -5069.1198   -4889.4269   -5069.1198            0    1462.2798    20.034512    19.922306    20.851384    8322.4895    734.36343    2869.1912    783.28488    31.331056    1690.5329    76.048475   -4711.9427 
 2728000    91.307626   -5075.2582   -4899.1637   -5075.2582            0    2144.7355    19.917258    19.950758    20.791196    8261.6807    2619.8994    1523.6065    2290.7007    159.28445    535.96478    151.29333   -4640.7485 
 2729000    91.596429     -5082.17   -4905.5186     -5082.17            0    1785.2703    20.013706    20.015867    20.791688    8328.9768    2543.0977    1010.0809    1802.6322   -310.81446     329.9998    177.72453   -4688.6625 
 2730000    89.585691   -5069.1043   -4896.3308   -5069.1043            0    365.41914    20.112206    20.017742    20.793886    8371.6384   -569.11733    869.95409    795.42066   -1.9672187   -267.16855   -567.14721   -4851.7161 
 2731000    88.470696   -5069.3932   -4898.7701   -5069.3932            0    1827.5708    19.966763    20.054528    20.629608    8260.5901     2040.407     1043.624    2398.6815   -201.63948   -492.82668   -103.10637   -4678.5985 
 2732000    87.828873    -5077.674   -4908.2886    -5077.674            0    896.63343    20.065996    19.861537    20.814167    8295.3099    931.82256    1031.9251    726.15262   -385.87013    379.51277    809.60815   -4799.8152 
 2733000    89.813605   -5086.8413   -4913.6282   -5086.8413            0    1176.4535    19.938224    20.095659    20.738099    8309.1702     1154.328    995.43819    1379.5945   -62.407891    35.177576   -1237.6298   -4771.0647 
 2734000    88.674678    -5073.408   -4902.3914    -5073.408            0    1145.5155    19.994914    19.939562    20.803319    8294.0717   -64.224762    2064.2447    1436.5266   -20.637001    544.10525   -425.24112   -4763.8293 
 2735000    85.333979   -5082.0684   -4917.4946   -5082.0684            0    1582.6407    20.069507    19.909693    20.810539    8315.4278    842.27553    2623.0427    1282.6038    177.09198    1113.2463    9.8803551   -4725.5646 
 2736000    81.238654   -5073.4646   -4916.7891   -5073.4646            0    1304.5482     19.92068    19.972306     20.85045    8295.6003    1018.0428    2080.4259    815.17597   -132.62907     743.4465   -612.65308   -4758.9611 
 2737000    86.731684   -5075.9601   -4908.6908   -5075.9601            0    855.13751    19.959353    19.964289    20.860791    8312.4887     1253.165     304.3093    1007.9382     18.10033    172.40781   -655.12596   -4805.0232 
 2738000    89.277428   -5075.0979   -4902.9188   -5075.0979            0    2484.0356    20.019302    19.867118    20.824296    8282.3604    2883.8711    2161.7002    2406.5355   -391.92589    350.14452   -648.54492   -4602.8728 
 2739000    86.248976   -5074.5229   -4908.1845   -5074.5229            0    1932.9485    19.909075    19.928781    20.890134     8288.445    1230.6319    2547.9625    2020.2511   -148.97725    558.44567   -427.61693   -4674.5327 
 2740000     87.69113   -5072.0158   -4902.8961   -5072.0158            0    2392.2334    19.990058    19.901339    20.774886    8264.8503    2394.5343     2192.024    2590.1418   -245.26384     611.3505   -198.05969   -4614.5498 
 2741000      84.8553   -5078.0712   -4914.4207   -5078.0712            0     1056.598    20.043987    20.002723    20.733785    8312.8859    8.3247417    1821.2627    1340.2066   -116.43543   -419.92285   -318.62137   -4786.3241 
 2742000    89.430345   -5079.4963   -4907.0223   -5079.4963            0    1558.8986    19.994163    19.925649    20.868842    8314.0773    1095.2017    2090.6093    1490.8848   -6.8071516     1202.277    47.103211   -4718.0023 
 2743000    88.643188   -5070.9129   -4899.9571   -5070.9129            0    2173.5662    19.852255    20.099492    20.721793    8268.4147    2643.5785    1368.1893    2508.9307    -46.59093    -669.2098    223.32059   -4637.8547 
 2744000    86.034627   -5070.4564   -4904.5314   -5070.4564            0    516.60229    19.902304    19.991537    20.855198    8297.8172    29.424516    964.66399    555.71837   -232.06163    261.00678    934.56677   -4842.0147 
 2745000    89.183667   -5070.5168   -4898.5186   -5070.5168            0    1128.9252    19.843316    20.050346    20.918124    8322.5966    1649.2204    1450.1398    287.41544   -19.590556    738.07815   -321.01255   -4761.4935 
 2746000    92.432921   -5080.3536    -4902.089   -5080.3536            0    1876.5461    19.927693    19.944772    20.921598    8315.3581    1690.7392    1818.1309    2120.7682   -125.68275    743.96059    413.31089   -4674.5184 
 2747000    89.836138   -5083.1579   -4909.9013   -5083.1579            0    1608.0311    19.993638    19.876403     20.84873    8285.3188    1421.1391    1004.7632    2398.1909    63.956999    992.41382   -474.12595   -4715.5983 
 2748000    88.666731   -5073.9926   -4902.9913   -5073.9926            0    1749.6506    20.010555    19.913116    20.829732    8300.0752    1535.7482    2604.4474     1108.756   -510.83384    71.702238    97.353962   -4691.1995 
 2749000    88.109893   -5086.7198   -4916.7924   -5086.7198            0    1571.5691    19.997935    19.984301    20.738193      8287.91    1915.4466    1066.6976    1732.5632    181.49147    548.38358    726.67357   -4726.8358 
 2750000    94.965286   -5077.9007   -4894.7521   -5077.9007            0    599.29122    20.140815    19.919455     20.75386    8326.3254    101.13136    889.05837    807.68393    73.706432    590.70174   -626.02514   -4821.9796 
Loop time of 354.854 on 64 procs for 250000 steps with 972 atoms

Performance: 121.740 ns/day, 0.197 hours/ns, 704.515 timesteps/s
99.1% CPU use with 64 MPI tasks x 1 OpenMP threads

MPI task timing breakdown:
Section |  min time  |  avg time  |  max time  |%varavg| %total
---------------------------------------------------------------
Pair    | 18.083     | 27.32      | 36.726     |  87.5 |  7.70
Bond    | 0.2575     | 0.27365    | 0.28546    |   1.3 |  0.08
Kspace  | 142.43     | 151.66     | 161.46     |  37.4 | 42.74
Neigh   | 0.30668    | 0.31311    | 0.31812    |   0.5 |  0.09
Comm    | 81.559     | 82.705     | 84.021     |   5.4 | 23.31
Output  | 0.56067    | 0.56152    | 0.56308    |   0.0 |  0.16
Modify  | 82.874     | 84.228     | 87.262     |  11.5 | 23.74
Other   |            | 7.794      |            |       |  2.20

Nlocal:        15.1875 ave          20 max          11 min
Histogram: 1 7 8 13 4 11 10 7 1 2
Nghost:        2217.75 ave        2244 max        2188 min
Histogram: 2 3 10 6 8 6 12 8 4 5
Neighs:        4737.62 ave        7041 max        3400 min
Histogram: 7 10 10 10 8 8 6 3 1 1

Total # of neighbors = 303208
Ave neighs/atom = 311.94239
Ave special neighs/atom = 2.0000000
Neighbor list builds = 951
Dangerous builds = 0

unfix		3
unfix		2
unfix		1

write_data	data.final.${pid}
write_data	data.final.1
System init for write_data ...
PPPM initialization ...
  extracting TIP4P info from pair style
  using 12-bit tables for long-range coulomb (../kspace.cpp:340)
  G vector (1/distance) = 0.372359
  grid = 24 24 25
  stencil order = 5
  estimated absolute RMS force accuracy = 0.003414491
  estimated relative force accuracy = 1.0282638e-05
  using double precision FFTW3
  3d grid and FFT values/proc = 2366 288
Last active /omp style is kspace_style pppm/tip4p/omp
WARNING: Not all mixed pair coeffs generated from mixing. Use write_data with 'pair ij' option to store all pair coeffs. (../write_data.cpp:312)

write_restart   restart.lmp.${pid}
write_restart   restart.lmp.1
System init for write_restart ...
PPPM initialization ...
  extracting TIP4P info from pair style
  using 12-bit tables for long-range coulomb (../kspace.cpp:340)
  G vector (1/distance) = 0.372359
  grid = 24 24 25
  stencil order = 5
  estimated absolute RMS force accuracy = 0.003414491
  estimated relative force accuracy = 1.0282638e-05
  using double precision FFTW3
  3d grid and FFT values/proc = 2366 288
Last active /omp style is kspace_style pppm/tip4p/omp
Total wall time: 0:05:55
