LAMMPS (30 Jul 2021)
  using 1 OpenMP thread(s) per MPI task
package omp 0
using multi-threaded neighbor list subroutines
echo both

include		in.partitions
variable        pid world 0
include		in.temp
variable        temperature equal 259.33
variable	tempDamp equal 100.0
include		in.pressure
variable        pressure equal 7250.0
variable        pressureDamp equal 1000.0 # This is 1 ps
include		in.seed
variable        seed world 745823

units		real
atom_style	full
read_restart    restart.lmp.${pid}
read_restart    restart.lmp.0
Reading restart file ...
  restart file = 30 Jul 2021, LAMMPS = 30 Jul 2021
  restoring atom style full from restart
  triclinic box = (-3.2469746 -0.071016857 -0.050955335) to (14.856974 22.651016 19.280953) with tilt (-0.094829021 -6.3767530 0.28004077)
  4 by 4 by 4 MPI processor grid
  restoring pair style lj/cut/tip4p/long/omp from restart
  restoring bond style harmonic/omp from restart
  restoring angle style harmonic/omp from restart
  1008 atoms
  672 bonds
  336 angles
Finding 1-2 1-3 1-4 neighbors ...
  special bond factors lj:    0        0        0       
  special bond factors coul:  0        0        0       
     2 = max # of 1-2 neighbors
     1 = max # of 1-3 neighbors
     1 = max # of 1-4 neighbors
     2 = max # of special neighbors
  special bonds CPU = 0.293 seconds
  read_restart CPU = 0.456 seconds

include 	in.setup
variable	out_freq equal 1000
variable	out_freq2 equal 10000
variable	out_freq3 equal 1000

timestep	2.0

neigh_modify    delay 7 every 1

include		in.tip4p
# This is TIP4P/Ice

# create groups ###
group ox type 2
336 atoms in group ox
group hy type 1
672 atoms in group hy

# set charges - beside manually ###
set group ox charge -1.1794
Setting atom values ...
  336 settings made for charge
set group hy charge 0.5897
Setting atom values ...
  672 settings made for charge

# ### TIP3P Potential Parameters ###
pair_style lj/cut/tip4p/long/omp 2 1 1 1 0.1577 8.5
pair_coeff 1 1*2 0.000 0.000
pair_coeff 2 2 0.21084 3.1668
bond_style  harmonic
bond_coeff  1 450 0.9572
angle_style harmonic
angle_coeff 1 55 104.52
kspace_style pppm/tip4p/omp 1.0e-5
pair_modify tail yes

thermo          ${out_freq}
thermo          1000
thermo_style    custom step temp pe etotal epair emol press lx ly lz vol pxx pyy pzz pxy pxz pyz enthalpy

restart 	${out_freq3} restart.lmp.${pid} restart2.lmp.${pid}
restart 	1000 restart.lmp.${pid} restart2.lmp.${pid}
restart 	1000 restart.lmp.0 restart2.lmp.${pid}
restart 	1000 restart.lmp.0 restart2.lmp.0


include         in.dump
dump            myDump all atom ${out_freq2} dump.water.${pid}
dump            myDump all atom 10000 dump.water.${pid}
dump            myDump all atom 10000 dump.water.0
dump            myDump2 all dcd ${out_freq2} dump.dcd
dump            myDump2 all dcd 10000 dump.dcd
dump_modify     myDump append yes
dump_modify     myDump2 append yes


variable natoms 	equal  "count(all)"                        # NUMBER ATOMS
variable H      	equal  "enthalpy/v_natoms"                 # ENTHALPY-per-atom
variable Vol      	equal  "vol/v_natoms"                 # volume-per-atom
fix AVG all 		ave/time ${out_freq} 1 ${out_freq} v_Vol v_H file vol_enthalpy.dat
fix AVG all 		ave/time 1000 1 ${out_freq} v_Vol v_H file vol_enthalpy.dat
fix AVG all 		ave/time 1000 1 1000 v_Vol v_H file vol_enthalpy.dat



fix 		1 all shake 1e-6 200 0 b 1 a 1
       0 = # of size 2 clusters
       0 = # of size 3 clusters
       0 = # of size 4 clusters
     336 = # of frozen angles
  find clusters CPU = 0.020 seconds
fix             2 all nph tri ${pressure} ${pressure} ${pressureDamp}
fix             2 all nph tri 7250 ${pressure} ${pressureDamp}
fix             2 all nph tri 7250 7250 ${pressureDamp}
fix             2 all nph tri 7250 7250 1000
fix             3 all temp/csvr ${temperature} ${temperature} ${tempDamp} ${seed}
fix             3 all temp/csvr 259.33 ${temperature} ${tempDamp} ${seed}
fix             3 all temp/csvr 259.33 259.33 ${tempDamp} ${seed}
fix             3 all temp/csvr 259.33 259.33 100 ${seed}
fix             3 all temp/csvr 259.33 259.33 100 745823


run             250000
PPPM initialization ...
  extracting TIP4P info from pair style
  using 12-bit tables for long-range coulomb (../kspace.cpp:340)
  G vector (1/distance) = 0.37914547
  grid = 24 27 32
  stencil order = 5
  estimated absolute RMS force accuracy = 0.002462185
  estimated relative force accuracy = 7.414797e-06
  using double precision FFTW3
  3d grid and FFT values/proc = 3825 384
Last active /omp style is kspace_style pppm/tip4p/omp
Neighbor list info ...
  update every 1 steps, delay 7 steps, check yes
  max neighbors/atom: 2000, page size: 100000
  master list distance cutoff = 10.8154
  ghost atom cutoff = 10.8154
  binsize = 5.4077, bins = 5 5 4
  1 neighbor lists, perpetual/occasional/extra = 1 0 0
  (1) pair lj/cut/tip4p/long/omp, perpetual
      attributes: half, newton on, omp
      pair build: half/bin/newton/tri/omp
      stencil: half/bin/3d/tri
      bin: standard
Per MPI rank memory allocation (min/avg/max) = 9.314 | 9.327 | 9.338 Mbytes
Step Temp PotEng TotEng E_pair E_mol Press Lx Ly Lz Volume Pxx Pyy Pzz Pxy Pxz Pyz Enthalpy 
13250000    262.70134   -4789.8478   -4264.4127   -4789.8478            0      8345.98    18.103948    22.722033    19.331909    7952.3451    6787.3016    9460.0186    8790.6198    791.68181    664.70257    559.48109   -3296.4726 
13251000    257.67488   -4821.9961   -4306.6145   -4821.9961            0    8585.1176    17.983103    22.609528    19.553802    7950.3701    7860.0303    9702.2065     8193.116    1775.1967    715.64995    489.88019   -3311.1874 
13252000    260.35011   -4823.0128   -4302.2804   -4823.0128            0    8165.3481    18.283369    22.599244    19.283169    7967.6188    7337.1613    9362.3514    7796.5317   -92.219119    53.999142    327.47846   -3353.4706 
13253000    247.43472   -4812.0403   -4317.1403   -4812.0403            0    6459.5769    18.130698    22.616849    19.518065    8003.5631    6908.1662    6164.2806     6306.284    945.35874   -848.22147   -457.39244   -3563.1542 
13254000    248.81628   -4840.6546   -4342.9913   -4840.6546            0     5637.817    18.142182    22.725834    19.423785    8008.3533    5324.7511    6024.6525    5564.0475     -411.583   -387.87433    205.82051   -3684.5302 
13255000    254.61327   -4816.4894   -4307.2314   -4816.4894            0    4265.1913    18.163442    22.775271    19.451878    8046.8003     6051.541    3985.7751    2758.2578   -326.54976    511.68098   -662.50622   -3806.6927 
13256000    260.84177   -4810.3933   -4288.6775   -4810.3933            0    6175.9002    18.080499    22.818995    19.464464    8030.6258    7495.9525    6089.1674    4942.5807    -898.7898   -225.89904   -629.27026   -3565.3657 
13257000    255.58854   -4813.3864   -4302.1778   -4813.3864            0    8118.1386    18.122493    22.678886    19.391527    7969.8778    6544.2845    9150.7182    8659.4131    1138.3492   -1280.5615    1190.9425   -3358.5863 
13258000    272.60389   -4845.3406   -4300.0992   -4845.3406            0    7715.7827    17.966049    22.897502    19.356497    7962.8301    7920.9122     7617.555    7608.8808   -52.081448    107.33423    850.62284   -3404.0676 
13259000     263.0139    -4795.686   -4269.6257    -4795.686            0    8208.6429    18.190277    22.849523    19.234392    7994.5662    8375.6932     7988.423    8261.8126    347.69188    1549.7767    191.84114   -3312.5591 
13260000    260.28272   -4807.6409   -4287.0433   -4807.6409            0    8385.7212     17.94701    22.952476    19.324483    7960.3019    7062.1775    8825.5401     9269.446   -159.21413    377.20518    -360.2389   -3313.5211 
13261000    251.86744    -4808.817    -4305.051    -4808.817            0    7718.6765    17.995767    22.979407    19.240164    7956.4244    9232.1434    6701.1661    7222.7201   -125.84132   -262.40131     43.13957   -3409.4044 
13262000    261.21142   -4783.7045   -4261.2494   -4783.7045            0    5504.1707    17.809173    23.033107    19.558532    8022.9214    7274.3472    6950.8273    2287.3375   -531.78734    915.24856   -217.54225    -3617.228 
13263000    272.33408    -4810.655   -4265.9532    -4810.655            0    9487.0233    18.044795    23.007369    19.122234    7938.8488    7534.6144    10283.941    10642.514   -145.31437    1626.1983    2023.9787   -3167.5459 
13264000    262.37102    -4824.337   -4299.5625    -4824.337            0     8098.804    17.935259    22.956533    19.402933     7988.796    7795.5572    8477.5103    8023.3444   -2153.9308    1192.6001   -2415.9477   -3355.9839 
13265000    252.91664   -4814.3813   -4308.5167   -4814.3813            0    8388.5389    18.094661    22.863016    19.320593     7992.901    8897.4666    8225.3875    8042.7627    462.65052    1275.2656    936.58233   -3330.6793 
13266000    259.21474   -4795.4091   -4276.9476   -4795.4091            0    9803.3616    18.031345    22.778235    19.255587    7908.6973    9303.2184    9782.7294    10324.137   -2478.7065    1148.1128    446.38602   -3146.2256 
13267000    257.07875   -4818.1818   -4303.9925   -4818.1818            0    7139.4104    18.102237    22.755017    19.463843    8017.4822    7153.0404    8262.2334    6002.9573   -918.70522    230.66805    911.53754   -3469.2045 
13268000    250.10385   -4835.5422   -4335.3036   -4835.5422            0    5665.8752    18.112245    22.795471    19.488193    8046.2297    3177.6012    6726.2419    7093.7826   -1517.2091     1046.157   -1047.8804   -3670.4357 
13269000    257.27623   -4817.1128   -4302.5286   -4817.1128            0    8387.9154    18.214905    22.772257    19.164296    7949.2442    7911.9417    8323.2281    8928.5763    751.32454   -1223.5077    264.53398   -3330.1044 
13270000    260.48555   -4827.6415   -4306.6383   -4827.6415            0    5742.4928    18.015385    22.603758    19.663794    8007.3998    6356.1139     6943.697    3927.6675    58.431373   -493.10975    1388.5852   -3636.0316 
13271000    265.23244   -4855.9539   -4325.4562   -4855.9539            0    8249.2928    18.069827    22.844068    19.294142    7964.3972    6946.5424    8007.7699    9793.5663   -152.43212   -867.03217   -180.67464   -3367.2797 
13272000    254.47562    -4806.194   -4297.2113    -4806.194            0    7887.1781    17.964265    22.788348    19.490028    7978.7484    8006.4071     8160.473    7494.6542    893.82908    804.63812    2402.0945   -3379.4446 
13273000    244.16519   -4822.6471   -4334.2865   -4822.6471            0    8413.7393    18.184469    22.788291    19.220054    7964.6553    5956.5218    10012.839    9271.8566    719.08132    1830.7442    1603.8972   -3356.9775 
13274000    268.84219   -4790.9928   -4253.2752   -4790.9928            0    7802.6204    18.001197    22.719797    19.563805    8001.2742    7828.6067    8561.3354    7017.9192   -668.00785    877.96489   -1551.7597   -3342.7845 
13275000    262.88882    -4806.151   -4280.3409    -4806.151            0    5529.6768    18.018764    23.037142    19.355327    8034.4119    5028.5087    5769.0104    5791.5113    117.54022    -1035.364    1797.7175   -3632.4085 
13276000    255.16724   -4802.5732   -4292.2072   -4802.5732            0    7561.6381    18.013687    22.971361    19.331187    7999.2241    8018.6589    7095.6951    7570.5603   -428.23948   -375.31546   -458.78204   -3410.0629 
13277000    273.00057   -4816.8141   -4270.7793   -4816.8141            0    6772.3631    17.899051    23.306344    19.210916    8014.0529     7247.889    6067.5819    7001.6184    1237.4429     256.6509    2822.1347   -3479.2475 
13278000    257.18543   -4827.2587    -4312.856   -4827.2587            0     6703.006     17.86924    23.240687    19.294328    8012.8075    6824.0094     6368.917    6916.0916    78.259029    1320.4959   -1473.1092   -3529.5523 
13279000    261.89358   -4826.2615   -4302.4419   -4826.2615            0    6568.3937    17.866703    23.171198    19.376471    8021.7216    5365.3593     6829.594    7510.2277    1151.4785    611.25511     2222.638   -3534.0149 
13280000    276.53428   -4826.6312   -4273.5285   -4826.6312            0    6449.1377    18.022701    23.034295    19.225197    7981.1525    5947.8951    6547.8787    6851.6393   -959.72568   -1354.1272   -575.43164   -3522.8687 
13281000     264.7191   -4798.8768   -4269.4059   -4798.8768            0    8431.4742    17.938837    23.088298    19.300002    7993.6211    7440.3097    7836.4254    10017.687    158.37966    -593.7455   -220.62678   -3286.4751 
13282000    253.59076   -4801.2157   -4294.0028   -4801.2157            0    8450.9069    18.031331    22.927381    19.271701    7967.1372    9251.0616    7223.5085    8878.1506   -1241.5544   -376.48563   -754.53051   -3312.0706 
13283000    252.17686    -4808.082   -4303.6972    -4808.082            0     7828.983    17.917997    23.210121    19.174599    7974.3104    7488.5263    7520.3818    8478.0408   -811.90275    1874.8515   -76.926783   -3393.2089 
13284000    244.76515   -4819.4747   -4329.9141   -4819.4747            0     7038.294    18.005805    23.107001    19.192803    7985.3607    8693.1856     6405.162    6016.5344     885.1121   -347.71644    950.82946   -3510.2464 
13285000    253.84556   -4842.0498   -4334.3274   -4842.0498            0    7065.1103    17.827386    23.133226    19.323291    7969.0208    8299.6651    6643.5925    6252.0733     1435.911   -76.181676    2640.7004   -3513.2203 
13286000    255.94158   -4837.2452   -4325.3304   -4837.2452            0    7927.3994    17.866974    23.223966    19.116883    7932.3975    8311.5889    7704.0617    7766.5476    1739.1057    531.47554    2195.8896   -3408.2422 
13287000    258.28765   -4812.2639   -4295.6567   -4812.2639            0    9005.3945     17.80189    23.149193    19.262227    7937.9522    10752.181    8311.8998    7952.1024    366.70497    1162.5853    1269.9261   -3253.1301 
13288000    264.71479   -4840.2042   -4310.7419   -4840.2042            0    6071.9945    18.012588    23.182391    19.179201    8008.7522      6491.11    5304.9655     6419.908    862.83597    1080.5491    -693.1822   -3601.5364 
13289000    257.49172   -4831.3435   -4316.3282   -4831.3435            0    5392.2143    17.870394    23.258964    19.319922    8030.2649     5604.685    5088.3279      5483.63   -949.35976    181.67641   -1022.6013   -3684.8289 
13290000    269.77861   -4834.9532   -4295.3626   -4834.9532            0    6114.1278    17.999071    23.167793    19.192973    8003.4457    4110.0116    5266.0511    8966.3207    815.03091     232.4626    1181.7052   -3581.7091 
13291000    259.07368   -4818.4426   -4300.2632   -4818.4426            0     7307.515    17.820192    23.059365    19.450235    7992.5353    8779.6329    6576.3729    6566.5391     421.9774   -715.12717   -82.364058   -3448.4778 
13292000    264.55515   -4815.9345   -4286.7916   -4815.9345            0    10265.829     17.84251    23.045695       19.175    7884.6266    8499.4063    11627.571    10670.509   -562.47939   -379.48948   -1227.5151   -3106.3322 
13293000    259.04439   -4808.7183   -4290.5975   -4808.7183            0    5285.2068    17.965232    23.214952    19.332079    8062.6755    6260.5411    4676.1962    4918.8831    687.07516   -352.65932     1044.837    -3669.132 
13294000    251.23151   -4836.2935   -4333.7995   -4836.2935            0    7836.5078    17.906599    23.041451    19.252886    7943.6255    8286.8851    7676.7466    7545.8917    411.87329    1060.5597    -732.4977   -3425.9429 
13295000    249.50544   -4834.4472   -4335.4055   -4834.4472            0    7184.9983    18.070482    22.968855    19.234233    7983.3281     6634.155    5848.3143    9072.5257   -35.194036   -549.50779   -457.85717   -3498.8658 
13296000    262.35062   -4851.0894   -4326.3557   -4851.0894            0    6207.3696    17.978499    22.881328    19.421445    7989.4377    6372.0352    7033.0668    5217.0068   -262.05204   -769.74268    175.88441    -3603.087 
13297000     261.4521   -4818.3647   -4295.4281   -4818.3647            0    6780.1252    17.928193    22.924215    19.432363    7986.5022    6084.9051    7258.6946    6996.7758   -252.35109    548.31104    102.76524   -3505.7135 
13298000     251.8207   -4838.4997   -4334.8272   -4838.4997            0    6328.9932    18.169501    22.963466    19.238258    8026.8692    5771.4789    6560.6005    6654.9003   -797.11538   -333.57805   -2299.3592   -3593.9321 
13299000    253.40337   -4791.7391    -4284.901   -4791.7391            0    8689.1075    17.940178    22.921445    19.335941    7951.2253    11521.344    8177.3791    6368.5996    975.12045   -318.63079   -1415.1466   -3277.3081 
13300000    254.18496   -4835.1226   -4326.7213   -4835.1226            0    7173.4899    17.999563    23.031541    19.311817    8005.8619    6360.9854    6224.8522    8934.6319    -1016.579    638.41983    24.697057   -3489.1641 
13301000    273.46344   -4785.9212   -4238.9605   -4785.9212            0    7780.3882    17.871387    23.193262     19.31618    8006.4747    8632.2825    7178.4675    7530.4145    1766.7446   -151.25623    1190.0211    -3330.474 
13302000    263.72675    -4849.551   -4322.0649    -4849.551            0    6540.6617    17.836654    22.997348    19.406593     7960.502    6832.2312    6729.6321    6060.1218    691.44084     1056.111   -890.86702   -3562.7218 
13303000     249.8602   -4838.4127   -4338.6614   -4838.4127            0    7475.2623    17.904554    23.076366     19.21923    7940.8489    8614.0246    7070.4531    6741.3092   -340.34778   -250.00093    1272.2296   -3472.9578 
13304000    264.06558   -4802.6133   -4274.4495   -4802.6133            0    6435.5812    18.040705     23.01412      19.2917    8009.7395    6542.6978    5520.5735    7243.4723   -354.45314   -528.63104     967.0436   -3522.6846 
13305000    260.06716    -4801.272   -4281.1056    -4801.272            0    7049.3292    18.000869    23.148389    19.212512    8005.6834    6606.8379    6313.8841    8227.2656   -988.67599   -429.76005   -1196.8433   -3458.0634 
13306000    258.50394   -4774.5313   -4257.4914   -4774.5313            0    8880.8507    17.816608    23.102311    19.389371    7980.7584    11641.843    8514.5053    6486.2033   -542.22524    526.01933    1931.8553   -3223.8388 
13307000    253.16138   -4838.5861   -4332.2321   -4838.5861            0     7521.926    17.768984     23.51329    19.037144    7953.8574     7757.173    5784.1723    9024.4327    396.64786   -28.150266    1651.9606   -3459.6973 
13308000     251.9658   -4811.7164   -4307.7537   -4811.7164            0    7194.0614    17.874486    23.127255     19.24255    7954.6357    8161.5877    7016.5981    6403.9984   -1212.7219    79.944958    64.123464   -3473.1692 
13309000    246.79757   -4801.8046    -4308.179   -4801.8046            0    5522.6212    17.965642    23.155879    19.286095    8023.2129    7339.4017    4458.7632    4769.6988    923.05667   -1857.3444     166.1704   -3661.9752 
13310000      243.687   -4792.8213   -4305.4172   -4792.8213            0     5952.519    17.864012    23.195728    19.376179    8028.8835    5854.7063    5381.8983    6620.9524    689.59937    783.73153    438.91983   -3608.4187 
13311000    259.97577   -4801.8316   -4281.8479   -4801.8316            0    9447.2908    17.959871    22.974474    19.249716    7942.7907    8530.5778    9683.6027    10127.692    793.78904    153.60362   -500.82794   -3187.4978 
13312000    281.09847   -4808.3184   -4246.0867   -4808.3184            0    6906.2852    17.757116    23.154815    19.401573    7977.2041    7540.6602    6250.6497    6927.5458   -1129.0685    575.91523    -1085.206    -3442.614 
13313000    267.65125    -4805.896   -4270.5604    -4805.896            0    6879.8529    17.969885    23.368941    19.054074    8001.5144     6754.912     5689.281    8195.3657   -1851.0273   -2243.6753    144.65028   -3467.7237 
13314000     258.6955    -4824.602    -4307.179    -4824.602            0    6202.9867     17.78473    23.376111    19.306713    8026.5307    7654.3159    5220.9832     5733.661   -397.17017    1065.6529   -1973.5112   -3581.0654 
13315000    259.80338    -4843.625   -4323.9861    -4843.625            0    7865.2307    17.930006    23.286172    19.039911    7949.5662    6791.9713    7894.6308      8909.09   -1180.4232   -472.01392   -324.93185   -3412.1206 
13316000    259.65757   -4797.0802    -4277.733   -4797.0802            0    6495.4783    17.959627    23.204144    19.332852    8056.7299    7436.7134    5161.9782    6887.7432    150.28046    -142.0513   -548.61731   -3514.5199 
13317000     253.2554   -4831.8657   -4325.3236   -4831.8657            0    6361.5096    18.084254    22.995946    19.238548    8000.6298    4765.7478    7168.6074    7150.1735   -2542.2059    1005.9983   -803.99021   -3583.0565 
13318000    254.29581   -4808.7025   -4300.0795   -4808.7025            0    8041.7213    17.928208    23.000631    19.283022    7951.5489    9467.5289     7246.735    7410.9001    941.62796    595.04632    1772.6716   -3367.5198 
13319000    255.21395   -4850.8559   -4340.3964   -4850.8559            0    6398.5422    17.878414    23.130753    19.309382    7985.2249    5482.8248    7412.4462    6300.3557    450.06446    594.93463    468.24183   -3595.2458 
13320000    256.51136   -4799.3841   -4286.3297   -4799.3841            0     6868.169    17.929837    23.081487    19.286947    7981.8511    7337.3226     6576.214    6690.9705   -318.02438    509.29646     679.0563    -3486.826 
13321000    249.75168   -4799.2432   -4299.7089   -4799.2432            0    7228.4959    17.988504     23.00147    19.403259    8028.3317    5752.8375    7483.3055    8449.3447    917.83352     171.9381    1392.5465   -3453.3606 
13322000    262.27229   -4779.0251   -4254.4482   -4779.0251            0    7319.4651    18.151665    22.974236     19.33416    8062.7439    7797.1846    6970.9429    7190.2678   -323.57568    484.44246    1496.2607   -3393.7753 
13323000    243.74055   -4839.0786   -4351.5674   -4839.0786            0    7613.7779    17.908112    22.791254    19.495207     7956.936    6479.1947    9327.5596    7034.5796   -570.04479    729.34526   -152.52215    -3468.036 
13324000    262.86363    -4857.772   -4332.0123    -4857.772            0    9430.3157    18.219073     22.76557    19.063691    7907.0008     8339.962    9186.0264    10764.959    -856.9745   -245.75911   -1261.4494   -3244.5507 
13325000    253.90483   -4830.2522   -4322.4112   -4830.2522            0    4583.2691    17.970654    22.841503    19.653115    8067.1468    6273.9642    4182.6103    3293.2329   -2104.6986   -163.57215    1253.1761   -3783.1847 
13326000    258.45493    -4817.152   -4300.2102    -4817.152            0    5875.0404    18.286253     22.88949    19.261445    8062.1282    4460.4938    6873.1005    6291.5269    385.17617    4.7605049    872.76772   -3609.4355 
13327000    251.47673    -4854.739   -4351.7545    -4854.739            0     4898.494    18.015527    22.922914    19.454258    8033.9931    6158.5966    4465.5554      4071.33    928.12043   -346.91376   -524.99584   -3777.8099 
13328000    271.25552   -4806.2723   -4263.7277   -4806.2723            0    7562.1978    18.155658    22.767702    19.357833    8001.8045    5921.5807    8643.1158     8121.897     485.6539     185.1257    1481.4187   -3381.2335 
13329000    263.28803   -4832.6059   -4305.9974   -4832.6059            0    8259.4288    17.867687     22.80979    19.400699    7906.9137    9611.3267    7563.0946     7603.865    -988.6432   -341.29078   -343.07419   -3353.5677 
13330000    264.92978   -4795.2906   -4265.3983   -4795.2906            0    5711.8523    18.120758    22.778952    19.448713    8027.8816    5234.3848    6723.2151    5177.9571   -1067.5102     1049.209   -1944.2528   -3596.6637 
13331000    267.02787   -4834.9134   -4300.8246   -4834.9134            0    7230.1716    18.081273    22.748753    19.428182    7991.3242    7561.9331    7349.8066     6778.775    212.35935    658.59941   -97.176831   -3458.1824 
13332000    252.48675   -4842.0608   -4337.0561   -4842.0608            0    7282.1713    18.032334    22.812619    19.405958    7982.9272    7462.9196    6780.2765    7603.3179    -1415.154     356.0322   -666.02759   -3489.2453 
13333000    264.58673   -4809.9426   -4280.7365   -4809.9426            0    7863.3698    18.158623    22.707803     19.37845    7990.5574    7839.3507    8379.1173    7371.6414    1137.0838     806.3864    1562.1715   -3364.3859 
13334000    270.03072   -4803.2891   -4263.1943   -4803.2891            0    7644.2879     18.02709     22.54416    19.674756    7995.9308    6677.7917    9188.6611    7066.4108   -378.47239    426.56766   -688.20356   -3371.7752 
13335000     254.8064   -4835.3377   -4325.6934   -4835.3377            0    7154.9908     18.22938    22.728546     19.23692    7970.3812    4882.4645    7717.3413    8865.1665   -913.13299    544.11084    551.90224   -3493.9984 
13336000    256.21782   -4830.3693    -4317.902   -4830.3693            0    8284.7412    18.099875    22.752044    19.339611    7964.2287     6328.715    8345.2746    10180.234    433.22241    863.50126    910.93203   -3355.6284 
13337000    250.89547   -4826.0422   -4324.2202   -4826.0422            0    6116.8568    17.977099    22.778343    19.602228    8026.8875    5631.4351    6569.7267    6149.4087   -46.009313    307.33967    612.53953    -3608.157 
13338000    266.99698   -4845.8263   -4311.7994   -4845.8263            0    7390.0637    17.993566    22.933426    19.339577     7980.556    7348.5571     7340.004    7481.6299   -524.86091    -657.0338   -835.50269    -3451.683 
13339000    257.99416   -4857.1281   -4341.1079   -4857.1281            0    9614.7509    18.106911    22.587895     19.31604    7900.2026    8716.8594    10082.352    10045.041     770.6059    -488.2647    739.22832   -3233.3314 
13340000     262.9446   -4843.9234   -4318.0018   -4843.9234            0    7822.7408     18.11394    22.919845    19.217888    7978.6654    7010.9003    7612.7636    8844.5585   -2337.7099   -253.86694   -2293.4143   -3407.7425 
13341000    256.90993   -4825.4945   -4311.6429   -4825.4945            0    8145.2697    17.909783    22.841447    19.435706    7950.8627    10188.931    7558.8577    6688.0206   -1019.0194   -1022.0982    974.28896   -3367.1567 
13342000    247.90985   -4800.1846   -4304.3343   -4800.1846            0    7306.4684    18.100818    22.849203    19.261923    7966.5244    7599.6781    7698.0479    6621.6793    -2662.711   -106.84883    172.66151   -3455.4426 
13343000    273.56341   -4823.5766    -4276.416   -4823.5766            0     8682.632    17.816991    23.039002    19.354955    7944.9319     8330.384    9140.6826    8576.8294    571.62356    878.28544   -707.43298   -3270.3709 
13344000    253.73246   -4816.9722   -4309.4759   -4816.9722            0    7869.3476    17.952156    23.035756    19.323148    7990.9231    7643.0078    7441.1135    8523.9214    52.505261    1029.2828    776.55281   -3392.3867 
13345000    252.20461   -4850.4093   -4345.9689   -4850.4093            0    5912.2918    18.134603    23.039417    19.149891    8001.0288    5173.3105    6000.5531    6563.0119   -745.13018    1670.5471   -1908.9827   -3656.0825 
13346000    264.04022   -4821.9452   -4293.8321   -4821.9452            0     6903.926    17.836771    23.032301       19.462    7995.4152    7339.4346    6621.7877    6750.5557   -428.22413   -244.89564   -1038.2107   -3488.8003 
13347000    258.83065   -4820.8356   -4303.1423   -4820.8356            0     8012.395    17.978023    23.018917     19.22781    7957.1331     8647.599    8253.0338    7136.5523    84.207906    109.87566   -649.15745   -3373.3309 
13348000    264.97764   -4842.6064   -4312.6184   -4842.6064            0     6436.425    17.868327     23.00107    19.511791    8019.1638    7418.5477    7048.1136    4842.6137    2200.4504   -44.713202    809.92742   -3559.8703 
13349000     271.8498   -4855.4032   -4311.6701   -4855.4032            0    8273.0083    17.977171    23.159857    19.069279    7939.4697    7843.2651    7228.4804    9747.2795    201.21427   -122.60785   -2441.0909   -3353.7465 
13350000     246.7766   -4795.9998   -4302.4161   -4795.9998            0    8029.8988    17.747008    23.239738    19.285429    7954.0013    5796.0227    7754.8737      10538.8    1016.6783     146.4551    328.09872   -3370.9402 
13351000    255.54422   -4862.9155   -4351.7955   -4862.9155            0    6039.4645    18.056461    23.153546    19.176695    8017.2221    5476.2099    5690.4704    6951.7132    480.03625   -564.16785    349.88913   -3645.6434 
13352000    259.06502   -4822.4946   -4304.3325   -4822.4946            0    5671.8451    17.774066    23.241724    19.378596    8005.2966    6276.2444    5363.1706    5376.1203     332.0662   -749.72832   -1108.6637   -3642.1501 
13353000    264.24877   -4809.9396   -4281.4094   -4809.9396            0         8214    17.767313    23.222678    19.237842    7937.6221    9216.6173    7559.8355    7865.5472   -32.817554   -53.995566   -1989.8886   -3330.5397 
13354000    272.76321   -4844.3051    -4298.745   -4844.3051            0    7266.0108    17.945214    23.224448    19.155389    7983.3472    8792.6867    5817.2525     7188.093    868.04723   -1065.4783   -646.87391   -3452.7711 
13355000    278.93406   -4809.5838   -4251.6812   -4809.5838            0    7349.7999    17.730859    23.343083    19.193295    7943.9688    8006.4102    6480.1438    7562.8456    882.08321   -291.16838   -625.98046   -3400.1728 
13356000    256.02069   -4849.7459   -4337.6729   -4849.7459            0    5782.5978    17.841136    23.348028    19.219214    8005.8659    9561.8505    3013.4009     4772.542      78.5876   -1167.8575   -969.65053   -3662.5121 
13357000    262.27191    -4829.608   -4305.0318    -4829.608            0    7118.1484    17.955403    23.181265     19.19732    7990.4803     7358.391    6117.6483    7878.4059    -867.3477    195.80377    817.97277   -3475.5329 
13358000    275.42366    -4828.861   -4277.9797    -4828.861            0    7609.5716    17.981088    23.053653    19.195086    7956.9346    6764.0819    8044.8837    8019.7491   -111.77447    606.16491    29.218976   -3394.9366 
13359000    255.82305   -4826.9824   -4315.3047   -4826.9824            0     6645.049    17.891142    23.085241    19.331703    7984.4054    6114.1527    7038.6996    6782.2947    908.01236   -995.48775    714.47524   -3541.5262 
13360000    261.10887   -4802.6867   -4280.4367   -4802.6867            0    7141.7345    17.876473    23.121117    19.372404    8007.0803    6597.4679    6929.1863    7898.5494    1311.2394   -922.30499   -537.36763   -3446.4603 
13361000    283.28905      -4826.5   -4259.8869      -4826.5            0    6413.0239    17.967008    22.994653    19.341568    7990.8747    6970.1354    6176.9299    6092.0064    147.08776    -989.4357    655.93685   -3512.5214 
13362000    251.60446   -4806.8794   -4303.6394   -4806.8794            0    6161.5277    17.979513     22.97384    19.492533    8051.5554    7273.7419     6571.165    4639.6763   -277.95346   -1179.5601   -809.53628   -3580.1302 
13363000    258.79886   -4849.3059   -4331.6762   -4849.3059            0    5953.8427    18.146184    22.890787     19.28585    8010.9647    4895.1621    6551.9648    6414.4013    2236.8482    278.05501    755.63577   -3636.0786 
13364000    266.10705    -4813.096    -4280.849    -4813.096            0    5760.0218    17.958055    22.999329    19.447497    8032.2679    5126.8955    5829.3829    6323.7868   -1284.9927   -256.15746    130.71228   -3606.1063 
13365000    250.60614   -4803.6098   -4302.3666   -4803.6098            0    4576.6687    17.982635     22.98058    19.497685     8057.445    5346.2019     4018.652    4365.1523    1545.0242   -1290.3826    1823.2558   -3764.5642 
13366000    254.19265   -4843.1073   -4334.6906   -4843.1073            0    5814.8584    18.032724    22.862345     19.48926    8034.8442    6672.1418    6019.9251    4752.5081   -1440.7374   -530.92552   -1158.5127   -3653.3057 
13367000    256.34772   -4856.5966   -4343.8695   -4856.5966            0    6965.3554    18.185019    22.680223    19.356531    7983.4135    6935.5274    6976.0469    6984.4919    932.71527    244.36232    231.64373   -3532.8939 
13368000     244.2866    -4809.564   -4320.9606    -4809.564            0    8951.6331    18.120909     22.55304     19.46628    7955.5101     7524.208    9657.3074     9673.384   -167.98846    464.92537    396.72782   -3282.3657 
13369000    250.90786   -4832.7934   -4330.9467   -4832.7934            0    7302.6183    18.092059    22.719701    19.434187    7988.3481    8325.0646    7376.2746    6206.5157    970.06612   -109.55922    1353.7017   -3480.1781 
13370000    251.47053   -4817.8291    -4314.857   -4817.8291            0    6873.4463    18.066896    22.788959    19.429193    7999.4991     7498.153    7544.8388     5577.347     531.2538   -171.53072   -313.04185   -3512.9699 
13371000    250.43789   -4830.8995   -4329.9927   -4830.8995            0    6444.5366    18.082653    22.744349    19.454036    8001.0202    5341.5436    6054.0935    7937.9727   -543.08522   -1089.7259    775.19956   -3578.0012 
13372000    254.17228   -4778.7197   -4270.3437   -4778.7197            0    6414.6273    18.107835     22.58573    19.546875     7994.255    5053.9292     7747.107    6442.8456   -724.80723   -219.08875   -403.30236   -3522.4751 
13373000     259.1378   -4835.2181   -4316.9105   -4835.2181            0    6369.2547    18.183521    22.760606    19.371945    8017.4277      8059.54    6451.2337    4596.9903    148.22804    61.032103    2774.8019   -3572.1792 
13374000    257.96834   -4810.2849   -4294.3164   -4810.2849            0    8603.6066    18.086298    22.692264    19.447629    7981.6776     8461.168    9430.2532    7919.3987   -2301.6126   -264.14815   -187.06368   -3292.8172 
13375000    256.38726   -4792.0022    -4279.196   -4792.0022            0    6096.2878    18.136126    22.781006    19.530458    8069.1884    6776.7765    5910.2469      5601.84   -997.04277    1329.0825    424.60978   -3561.7797 
13376000    253.55074   -4818.4965   -4311.3637   -4818.4965            0    9183.8561    17.869082    22.892153    19.387444    7930.6617    11128.078    8517.7234    7905.7671    1675.9411   -833.47021    917.75271   -3249.1537 
13377000    258.26253   -4847.8443   -4331.2874   -4847.8443            0    7199.3622    18.141963    22.794333    19.269288    7968.5047    6171.1543    7763.0052     7663.927   -731.35095   -559.27272   -22.484216   -3494.6317 
13378000    247.03161   -4817.3487    -4323.255   -4817.3487            0    7823.2942    17.944828    22.809265    19.517002    7988.4716    8216.6654    8080.6318    7172.5853    -494.9806    2297.2367     682.0774   -3411.8125 
13379000    269.75575   -4803.8671   -4264.3223   -4803.8671            0    5954.7675    17.990304    23.072473    19.372522    8041.1623    5507.4783    6250.1198    6106.7044     579.3515   -244.83907   -602.22261   -3565.9942 
13380000    241.66986   -4815.9093   -4332.5397   -4815.9093            0    8514.5337    17.908263    22.916208    19.300284    7920.6335    8566.1409    9631.0626    7346.3975    595.36918    782.64267   -32.545819   -3348.9892 
13381000    244.35278   -4839.5847    -4350.849   -4839.5847            0    4775.0346    17.932459     23.09461    19.400515    8034.5903    4812.5421    4321.3833    5191.1784    208.63165   -657.12336    2076.1778   -3791.3283 
13382000    271.48996   -4816.2868   -4273.2733   -4816.2868            0     8279.356    18.019283    22.886018    19.215708    7924.3591    8319.3881    7929.1241    8589.5558   -1630.6062    126.47431      556.196   -3316.4394 
13383000    260.06552   -4794.6001    -4274.437   -4794.6001            0    9214.1244    17.854853    22.799542    19.537277     7953.283    10358.479    9518.2465     7765.648   -35.968421   -282.78922    574.69244   -3205.6863 
13384000    243.10455   -4821.9588   -4335.7197   -4821.9588            0    6850.8922     18.20366    22.845609    19.241981    8002.2339    5847.2506    7069.2238    7636.2022   -821.69016    161.28499   -694.86749   -3536.1906 
13385000    249.44127   -4819.8996   -4320.9862   -4819.8996            0    7720.1793    17.921441     22.87081    19.437138    7966.8527    7688.5996    7855.4314    7616.5069   -710.97381   -133.11239    436.81102   -3423.9912 
13386000    271.35247   -4829.9083   -4287.1699   -4829.9083            0    7864.8936    18.055992     23.16789    19.056859    7971.8504    7102.8416    6226.0082    10265.831   -475.17346    564.42492    320.97324   -3372.7874 
13387000    258.27248   -4831.6252   -4315.0483   -4831.6252            0    9917.4816    17.844809    22.921831    19.343089    7912.0138    9813.7153    9476.4804    10462.249     1130.037    458.00077    1854.7748    -3170.684 
13388000    253.66872   -4813.6439   -4306.2751   -4813.6439            0    7284.6925    18.043923    23.071901    19.137323     7967.013    6274.2472    7224.1417    8355.6887   -1055.3261   -140.16335    -1402.518   -3459.8615 
13389000    256.30664    -4845.426   -4332.7811    -4845.426            0    8833.6149    17.940787    22.963351    19.246111    7929.0242    8048.2995    9289.5282    9163.0171   -349.39935     1123.295   -249.61066   -3311.2911 
13390000    267.76076   -4829.8694   -4294.3148   -4829.8694            0    6133.3452    17.908008    23.179859     19.30979    8015.5924    5623.7663    6206.1253    6570.1439   -962.28174   -1219.8871   -353.76571   -3577.3317 
13391000    248.27015   -4802.1066   -4305.5357   -4802.1066            0    8729.9066    17.835634      23.2614    19.072349     7912.771     9249.437     7625.373    9314.9098    773.72308    996.27702    204.39951   -3298.1075 
13392000    254.52448   -4809.2198   -4300.1394   -4809.2198            0    6832.0265    17.889017    23.126136    19.355233    8007.3343    7685.2135    6408.3575    6402.5084    1141.7011    597.77747    2056.1474   -3502.3038 
13393000    263.38014   -4851.6659   -4324.8731   -4851.6659            0    6329.0284    18.042925    23.004307    19.241315    7986.3963    5805.3292    6581.8586    6599.8973    243.81458    607.66649   -56.362699   -3587.7097 
13394000    259.15608   -4822.1596   -4303.8154   -4822.1596            0     7330.958    17.838185    23.020626    19.442889    7984.1479    7139.7818    7407.5559    7445.5362    -774.7436   -418.10282   -1263.6039   -3450.1942 
13395000    267.02847   -4838.5407   -4304.4508   -4838.5407            0    7409.0497    17.999094    22.948508    19.256714    7954.0311    7413.3311    7590.5771     7223.241   -844.45561   -1053.6621   -51.936653   -3444.9908 
13396000    252.12292   -4817.3881   -4313.1111   -4817.3881            0    8130.9125     17.94551    22.829048    19.444038    7965.8127    7635.3511    7307.9702     9449.416   -1018.6811   -618.61814    793.17981   -3368.5169 
13397000    243.88141   -4836.1647   -4348.3717   -4836.1647            0    5634.9113    18.195512    22.857204    19.364405    8053.6277    5986.6252    4888.4687      6029.64   -11.701145    5.2691604   -674.70294   -3686.5294 
13398000    252.58804   -4826.3162   -4321.1089   -4826.3162            0    8566.6099    18.075636    22.845643    19.290881    7966.1604    7897.4557    8312.3133    9490.0607    375.72361    452.66875    1166.6857   -3325.8549 
13399000    271.18963   -4819.0526   -4276.6398   -4819.0526            0    8126.1887    18.045257     22.81256    19.358113    7968.9318     7478.148    8460.0774    8440.3409    -1673.816   -1488.1264   -876.11483   -3332.2248 
13400000    255.81744     -4827.57   -4315.9035     -4827.57            0    7130.3549    17.923295     22.74293    19.498271    7948.0462    6871.2683    8093.9939    6425.8025   -276.47578   -1213.3262    -69.01442   -3489.3948 
13401000    269.59438   -4800.7305   -4261.5085   -4800.7305            0    5449.6469    17.972364     22.99532    19.438753    8033.6527    5602.6131     5151.129    5595.1984    -468.1108   -975.79039   -654.81886   -3623.0138 
13402000    244.02978   -4790.5257    -4302.436   -4790.5257            0    9533.8051    18.016209    23.020289    19.176533    7953.2435    9057.3731      9940.71    9603.3324    257.30684    1251.8655    512.62394   -3196.6109 
13403000    254.90172   -4803.1529    -4293.318   -4803.1529            0    7166.3585    17.833665    23.227716    19.261944    7978.9774    6778.9356    6622.7685    8097.3715    116.42248    81.624213    43.693401   -3459.4032 
13404000    260.21542   -4831.8712   -4311.4082   -4831.8712            0    7820.5301    17.928967    23.132632    19.204716    7965.0445    8185.7207    7535.1735     7740.696   -39.237831    1237.6393    424.36698   -3402.9598 
13405000      256.605   -4826.0623   -4312.8206   -4826.0623            0    8850.9217    17.943362    23.165462    19.117349    7946.4372    6864.3538    9211.8286    10476.583   -1007.8572    186.20729    39.747293   -3287.0817 
13406000    245.19065   -4833.3347   -4342.9231   -4833.3347            0    5053.6132    17.898712    23.129116    19.447729    8050.9977    4439.3806    5465.3223    5256.1369   -465.26927    104.72825    116.56807   -3749.5503 
13407000    260.03881   -4842.5843   -4322.4746   -4842.5843            0    6118.7131     18.01603    23.105331    19.240602    8009.2149    5114.6722    5747.7813    7493.6856   -56.447299    961.42708     223.1174   -3607.7711 
13408000    249.65933   -4842.1638   -4342.8143   -4842.1638            0    7738.5989    17.812211    23.119743    19.284576    7941.6533    8555.4934    6942.4371    7717.8661    579.25441     891.9569     3121.398   -3446.5231 
13409000     259.4789   -4852.4972   -4333.5074   -4852.4972            0    5484.3972    17.913192    23.256602    19.233516    8012.6819    4709.7401    5779.2974    5964.1541    -1150.066   -33.935286   -2281.7545   -3692.6186 
13410000    272.87559   -4836.8609    -4291.076   -4836.8609            0    8231.5817    17.800574    23.184654    19.215379    7930.1897    8401.7259    7929.2468    8363.7725    780.21578   -219.24349    -356.3595   -3339.0633 
13411000    257.79542   -4851.6003   -4335.9776   -4851.6003            0    6405.1395    17.833155      23.3081    19.278536    8013.2578    5948.0481    6277.1529    6990.2174   -37.153146   -95.424413   -802.92852   -3587.4401 
13412000    248.44325   -4805.4818   -4308.5646   -4805.4818            0    6906.7596    17.932638    23.250307    19.165386    7990.8035    7273.4818    5762.5747    7684.2224   -58.789257    764.60363   -27.053042   -3503.6669 
13413000     244.7478   -4796.7349    -4307.209   -4796.7349            0    7305.2051    17.912541    22.977899    19.349973     7964.305    7666.9338    7434.0549    6814.6267   -111.95465   -292.37055   -249.92132   -3458.7006 
13414000    255.13471   -4824.3502   -4314.0492   -4824.3502            0    6740.4423    18.140843    22.831298    19.256849    7975.7823    7186.4851    5430.7906    7604.0511   -503.51617   -1063.1209   -724.05854   -3530.0104 
13415000    256.48041   -4823.3637   -4310.3712   -4823.3637            0    8003.8585    17.882877    22.627412    19.575555    7921.1156    8390.0732    9486.5355    6134.9667    462.07615    1445.3758   -552.05812   -3385.7547 
13416000    274.33014   -4811.6349   -4262.9407   -4811.6349            0     7567.557    18.070761    23.004699    19.300302    8023.3755    7560.7895    7883.6255     7258.256   -747.65012   -406.42468   -1282.9388   -3377.4404 
13417000    255.43974   -4825.8221    -4314.911   -4825.8221            0    7722.3552    17.896842    22.888659    19.446269    7965.8668     7761.086    9330.4238    6075.5557    1263.3878    972.24955    960.41645   -3417.7742 
13418000    257.10275   -4800.6352    -4286.398   -4800.6352            0    6686.9602    18.083585    22.996076    19.176601     7974.618    5926.2973    6017.4792     8117.104    507.50187   -605.25898   -537.37236   -3508.6936 
13419000    266.26412   -4791.9682   -4259.4071   -4791.9682            0    9355.0817    17.818674    23.069174    19.279164    7924.9335    9886.0729    8089.7511    10089.421    135.27452   -108.10573   -508.14923   -3178.1746 
13420000    264.46843   -4828.3567   -4299.3871   -4828.3567            0     6838.644    17.864715    23.063884    19.407745    7996.5675    7383.1534    6338.1919    6794.5866   -533.89033   -887.04234   -603.16622   -3501.8526 
13421000    265.23715   -4828.8747   -4298.3676   -4828.8747            0    5982.6544    18.031415    23.159619    19.247402    8037.7289    5407.1073    4770.3273    7770.5285     1073.729   -496.65432    395.58736   -3597.0687 
13422000    253.75493   -4835.0197   -4327.4785   -4835.0197            0    7664.1354    17.857012    23.043384    19.280669     7933.725    9268.0362    7084.9168    6639.4532   -556.25546    62.613215   -1218.1441   -3440.6979 
13423000    251.18655   -4839.1732   -4336.7691   -4839.1732            0    6191.3457    17.945422    23.152054    19.277493    8009.2853    5650.8941    6372.8491    6550.2938    175.90949   -6.3039845    672.60826   -3613.5753 
13424000    266.37379   -4852.8976   -4320.1171   -4852.8976            0    6898.3436    17.922412    23.085762    19.255738    7967.1109    6979.8408    7394.7778    6320.4123   -515.17613   -120.40243   -962.60918   -3518.5838 
13425000    253.24897   -4818.4942    -4311.965   -4818.4942            0    8863.6571    17.861876    23.209757    19.164911    7945.1931     9014.342    7630.2084     9946.421   -252.39884   -1430.0322    1027.6903   -3284.9109 
13426000    264.40709   -4851.9469   -4323.1001   -4851.9469            0    6573.2239    17.930466    22.984695    19.339428    7970.2866    7232.4281    6643.5011    5843.7426    427.64785   -318.62435   -1349.8168   -3559.0387 
13427000    261.63756   -4814.4006   -4291.0931   -4814.4006            0    6922.1226    18.066793    23.024847      19.2045    7988.7869    4588.4499    7325.1558    8852.7622   -403.35962    998.38042    140.82973   -3484.6086 
13428000    249.19367   -4789.5759   -4291.1578   -4789.5759            0    6639.1295     17.84195    23.008341    19.510392    8009.2827     7850.051    6873.9245    5193.4132   -295.66275    186.14994   -1353.3357   -3515.6599 
13429000    275.49613   -4840.5585   -4289.5322   -4840.5585            0    7352.6227    18.146458    22.900001    19.197228    7977.4832    5140.6447    8869.0666    8048.1568    341.50864   -26.184775   -456.70358    -3434.103 
13430000    257.09425   -4814.4657   -4300.2454   -4814.4657            0    7048.7202    17.991608    22.907296    19.397192    7994.3409    7788.1287    7422.9982    5935.0336   -648.43401    741.83501    1172.9389   -3478.4403 
13431000    264.80735   -4837.3236   -4307.6762   -4837.3236            0    9153.2348    17.904288     23.00435    19.199001    7907.6175    8767.4347     9730.769    8961.5008    1032.8005   -790.97903     2476.878   -3252.0841 
13432000    266.29913   -4826.4942   -4293.8631   -4826.4942            0    7606.4645    17.996965    22.860039    19.359906    7964.8843    8100.7488    7283.0694    7435.5754   -286.59116    317.70287    1462.5803   -3410.2987 
13433000    253.80508   -4837.7715     -4330.13   -4837.7715            0     7279.049    17.947636    22.942876    19.353694    7969.2778    7101.9319    8171.1093    6564.1059     841.9825     407.5752    163.55897   -3484.1316 
13434000    252.53091   -4846.0477   -4340.9546   -4846.0477            0    5593.4629    17.988544    23.208659    19.273148    8046.3465    6022.2363    5433.3028    5324.8497   -327.25587   -92.374392   -510.52604   -3684.5746 
13435000    266.37964    -4811.283   -4278.4908    -4811.283            0    7070.7443    17.848388    23.179704    19.298027    7983.9863    7192.0933    7015.3725    7004.7671     1142.501     1202.458    749.79709   -3455.1857 
13436000     265.0164   -4816.5632   -4286.4976   -4816.5632            0    6618.8742    17.829478    23.444336    19.062866    7968.2831    5346.1842    6832.2658    7678.1726   -611.12114   -261.16281    1880.0401   -3517.3233 
13437000    255.79239   -4833.3557   -4321.7394   -4833.3557            0     7407.056    17.829207    23.083195    19.328086    7954.5717    8672.0936    6233.1515    7315.9229   -377.55737   -465.31422    1278.4591   -3462.4522 
13438000    258.99363   -4808.5976   -4290.5783   -4808.5976            0    8111.9004    18.006861    22.999178    19.296628    7991.5635    6933.4591    8253.5553    9148.6869    456.69959    988.16276    101.75562   -3345.1464 
13439000    257.46004   -4865.0731   -4350.1212   -4865.0731            0    5713.8384    18.006186     22.89978    19.416222    8006.0401      5963.21    6704.0746    4474.2304    878.35766    979.02479    521.46751   -3682.9741 
13440000    279.82106   -4821.5718   -4261.8951   -4821.5718            0    6745.0864    18.074726    22.796927    19.368613    7980.8024    7518.4789    6747.8645    5968.9158    89.837057   -88.988549   -309.47556   -3476.8223 
13441000    260.66844   -4817.3132   -4295.9441   -4817.3132            0     8614.498    17.970882    22.827757    19.392615    7955.5281    9563.2148    9346.3079    6933.9712   -603.36791    966.41978    2006.9731   -3296.4624 
13442000    263.27753   -4814.8482   -4288.2606   -4814.8482            0    7518.9707    18.118703    22.852956    19.255179    7972.9133    6594.5695    5969.1769    9993.1656   -465.65619   -929.34128    1157.1462   -3413.9791 
13443000    264.68867   -4846.3886   -4316.9786   -4846.3886            0    5083.1033    18.041661       22.808    19.535773    8038.8572     5826.922    5855.2444    3567.1434   -2178.4037   -1320.4354    1526.1302   -3721.0432 
13444000    272.15179   -4841.6466   -4297.3094   -4841.6466            0    6067.8524    18.085557    22.983852    19.286344    8016.8654    6728.9683    5955.0112    5519.5778     23.92134   -248.20152    331.46714   -3587.8697 
13445000    257.78221   -4811.6839   -4296.0876   -4811.6839            0    6488.8396     18.00029    22.819383    19.538985    8025.7459    6935.0766    7449.2495    5082.1927   -1245.8821    1008.3528    501.50872   -3536.5867 
13446000    252.57551    -4825.964   -4320.7818    -4825.964            0    7831.0289    18.015136    22.990921    19.338028    8009.5128    7569.4235    7676.4073    8247.2559   -1567.7704    1343.2889    587.89253   -3406.0352 
13447000     261.4887   -4835.2353   -4312.2256   -4835.2353            0    6150.5892    18.040335    22.907264    19.393466    8014.4412    6355.0415    6934.1035    5162.6225    986.98861    657.02174    991.03695   -3593.3299 
13448000    259.22151   -4819.4508   -4300.9757   -4819.4508            0    6242.8831     18.00925    22.877272    19.513931    8039.7883    6646.7364    5635.4231    6446.4898    397.67314   -1059.6065    1804.3388   -3568.9848 
13449000    266.50861   -4818.1141   -4285.0639   -4818.1141            0    8150.1393    18.022544    22.830005     19.33179    7954.1571    9318.2421    8723.2626    6408.9131   -1439.9243    108.20464    1136.2629   -3339.6215 
13450000    248.07957   -4801.0034   -4304.8136   -4801.0034            0    9149.6458    17.945259    22.870167    19.330651    7933.5133    10014.119     8363.701    9071.1172    181.39977     34.99127    232.69866   -3246.1799 
13451000    259.06171   -4826.2946   -4308.1392   -4826.2946            0    6912.1811    18.062811    22.790283    19.448449    8006.0815     8775.736    6607.8251    5352.9822   -398.20714   -371.82899   -1434.5816   -3501.0696 
13452000    264.71695   -4835.2144   -4305.7478   -4835.2144            0     8977.946    18.122809    22.562446    19.395424    7930.6898    8567.1166    10048.072    8318.6489   -45.954433    154.14765    433.56342   -3267.3498 
13453000    257.01671   -4851.0569   -4336.9917   -4851.0569            0    8066.7318    18.047982    22.836124    19.265039    7940.0078    9062.7401    9253.5134     5883.942    1291.6829    586.14837   -119.44302   -3402.8894 
13454000    242.86563   -4829.4481   -4343.6868   -4829.4481            0    6929.5533    17.946376    22.913725    19.393143    7974.8157    5593.6704    7160.7331    8034.2565     1065.063   -666.93772    3460.9182   -3537.7485 
13455000    248.48625   -4837.5089   -4340.5057   -4837.5089            0    7669.5635    17.916073    23.049326     19.31013     7974.184    9157.7718    6268.9815    7581.9372   -962.91265   -968.14025   -1043.9189   -3448.5716 
13456000    255.27395   -4837.6512   -4327.0717   -4837.6512            0    9110.7243    17.912984    22.982906    19.217602    7911.7411     9931.054     8250.778     9150.341    499.00895    -388.7317    685.64053   -3275.8342 
13457000    269.36536   -4842.9381   -4304.1741   -4842.9381            0    6666.1713    18.002904    22.957067    19.378143    8008.8674      7112.73    6301.1374    6584.6465    443.90903   -145.33279    1243.9801   -3525.5578 
13458000    261.37822   -4807.6093   -4284.8206   -4807.6093            0     7621.098    17.980359    22.848866    19.404655    7972.0299    7024.6004    7893.4943    7945.1994   -2006.6356   -53.575879   -875.99884   -3398.7622 
13459000    258.99494   -4830.9081   -4312.8862   -4830.9081            0    3704.3721    18.089386    23.059755    19.344719    8069.3944    3932.5432     3198.934    3981.6391    605.25406   -231.00464    90.936273   -3876.9414 
13460000    263.69884   -4812.8485   -4285.4182   -4812.8485            0     6957.081    17.963231    22.813475    19.473837    7980.4506    6282.3988    7409.0037    7179.8405   -1232.7843   -149.98718    655.19673   -3475.7066 
13461000     268.3432   -4835.4978   -4298.7783   -4835.4978            0    8355.8227    18.013417    22.827198    19.329352    7948.1492    7357.0118    9229.4805     8480.976   -589.40013    177.55052    416.84035    -3330.208 
13462000    264.79367   -4836.7752   -4307.1551   -4836.7752            0     7100.291    17.978516    22.954884    19.351577    7986.2939    6732.0726    8011.8819    6556.9185    340.31897    296.82491    1219.6155   -3480.1707 
13463000    245.83476   -4801.1967   -4309.4968   -4801.1967            0    5420.5806    18.233141    22.924868    19.212634    8030.7339    5351.7363    4900.9845    6009.0209   -76.292146   -66.000327   -454.25826   -3674.6383 
13464000    255.93235   -4826.9514    -4315.055   -4826.9514            0    6788.5117    18.083787    22.848836    19.530342    8069.8099    9164.8646    7173.6787    4026.9916    139.97872    1031.5437   -107.08598   -3516.1158 
13465000    242.62043   -4844.8051   -4359.5343   -4844.8051            0    6073.8675     18.13361    22.810113    19.314906    7989.2187    4727.6034    6324.7227    7169.2765    526.59828   -200.45276   -455.91339   -3651.8403 
13466000    258.03366   -4818.7998   -4302.7006   -4818.7998            0    7607.5549    17.938652    22.824796    19.411506    7947.9652    7884.3532    8053.8158    6884.4958    121.74156   -81.640898    -256.0034   -3420.8867 
13467000    250.66596   -4849.0456   -4347.6827   -4849.0456            0     8262.815    17.992878    22.817866    19.391939    7961.5366      7572.66    9130.1431    8085.6421   -1346.0087   -402.37783   -812.16537   -3388.2803 
13468000    254.12287    -4801.813   -4293.5359    -4801.813            0    6638.8238    18.084543    22.815918    19.486133    8040.2794    7679.9159    6462.1356    5774.4198   -548.24438    209.67668    1620.4164   -3515.0725 
13469000    250.25528   -4815.2176   -4314.6761   -4815.2176            0    6955.5306    18.117988    22.830736     19.35391    8005.6873    8495.5141     6992.221    5378.8566   -1346.7492     912.1165    959.32976   -3502.5849 
13470000    249.91252   -4838.1783   -4338.3224   -4838.1783            0     8871.068    18.086625    22.663181    19.314504    7917.0239    8294.6366    10357.797    7960.7708     1459.042    569.35201    46.352557    -3314.054 
13471000    249.93453   -4818.1052   -4318.2052   -4818.1052            0    5529.3295    17.997433    22.671877    19.677213    8029.0031    5873.1851     7211.614    3503.1894   -1818.2121   -251.17311   -1200.6682   -3670.7497 
13472000    242.20642   -4830.6119   -4346.1691   -4830.6119            0    8784.5962    18.002456    22.808226    19.267585     7911.349     9729.473     8412.776    8211.5395   -671.74559   -957.15196   -991.17913    -3332.612 
13473000    252.74978   -4851.9183   -4346.3875   -4851.9183            0    6932.3307    17.991792    22.788339    19.505673    7997.3858    8754.4268    7598.7698    4443.7956    189.07239   -100.35579   -907.38183   -3537.8443 
13474000    255.25724   -4820.3519   -4309.8059   -4820.3519            0    5558.8843    18.232165    22.882698     19.27382    8041.0594    5490.1549    6530.1289     4656.369   -2017.6208    1015.9476    744.76551   -3657.9122 
13475000    262.47511   -4860.9396    -4335.957   -4860.9396            0      8248.67    17.967111    22.808797    19.397675     7949.326    9653.2842    8463.1286    6629.5972    1888.1615    856.56495     779.7622   -3379.6658 
13476000    255.96952   -4823.7865   -4311.8159   -4823.7865            0    8521.4915    18.110526    22.738293    19.295041    7945.7454    7908.3113    9067.7823    8588.3807    120.75109   -317.80855   -874.97238   -3324.3408 
13477000    276.18815   -4788.0623   -4235.6519   -4788.0623            0    9621.7007    18.088906    22.753429    19.314014    7949.3516     10662.24    9259.4114    8943.4509   -710.44737   -601.77617   -1669.2483   -3120.1779 
13478000    270.77015   -4817.5207   -4275.9469   -4817.5207            0    8914.3851    18.055407    22.633554    19.421023    7936.5573    9853.6833    7798.8454    9090.6265    1462.6723   -1254.4966    639.24074   -3244.1377 
13479000    271.51076   -4836.2285   -4293.1735   -4836.2285            0    6431.1691     18.37081    22.532698    19.459445    8055.1188    6796.6416    6384.6969    6112.1688    146.41093    1885.2022    199.91474   -3537.6677 
13480000    267.97641   -4812.3484   -4276.3625   -4812.3484            0    4227.0066    18.113231    22.820963    19.595928    8100.1996    5263.3924    4790.6474    2626.9801     149.6479    65.007298    54.165839   -3777.0131 
13481000    259.44165   -4790.5808   -4271.6655   -4790.5808            0     7622.965    18.066293    22.922179     19.22767    7962.5398    6013.5932    8372.7529     8482.549   -745.19663   -1307.2647   -1941.1414    -3386.445 
13482000    257.88362   -4822.1589   -4306.3598   -4822.1589            0    6209.2102    17.835103    23.096405    19.413345    7996.8765    8790.5435    4767.6097    5069.4774    1838.5328    470.56385   -66.057028   -3582.2029 
13483000    260.33115   -4848.5221   -4327.8276   -4848.5221            0    5960.5784    18.052119    22.985396    19.278174    7999.1912    4585.7987    5974.8647    7321.0718   -742.88412    464.93817    274.46094   -3632.4665 
13484000    257.10365   -4806.4055   -4292.1665   -4806.4055            0    7265.9895    17.843021    23.134603    19.373692    7997.2898    10621.817    6662.3535    4513.7983    642.22691   -846.08335    371.31401   -3444.7176 
13485000    258.69294   -4836.9322   -4319.5144   -4836.9322            0    9159.9352    17.769675    23.256318    19.087091    7887.8781    8816.9334    8452.4372    10210.435     508.5759    121.10193    2134.9788   -3265.7865 
13486000    249.29802   -4828.0967   -4329.4699   -4828.0967            0     5293.982    18.016096    23.155386     19.31516    8057.6984     5820.468    4179.4031    5882.0748   -265.83608   -461.69801    1617.1063   -3707.3568 
13487000     248.9638    -4814.007   -4316.0486    -4814.007            0    7213.6677    17.685388    23.251956    19.372262    7966.2589    7267.9947    8051.3925     6321.616    367.71594    913.77162     748.5799   -3477.9667 
13488000    263.67901   -4814.4168   -4287.0262   -4814.4168            0      7894.08     17.99004    23.091894     19.17862    7967.2612    7425.7623    6870.0937    9386.3841     -615.057     4.917825   -968.29357   -3369.7788 
13489000    271.76873   -4846.9013   -4303.3302   -4846.9013            0    8313.6314    17.884177    22.992574    19.326326    7947.0485    9241.1615    8350.3983    7349.3345   -110.40317      449.082   -985.76401   -3339.7841 
13490000      259.973   -4809.3436   -4289.3655   -4809.3436            0    8678.6652    17.853006    23.155855    19.247584    7956.9825    8442.8635    8857.0134    8736.1186    559.89337     513.4412    1052.8014   -3282.2547 
13491000    254.50769   -4838.3262   -4329.2794   -4838.3262            0    8513.0189    17.987892    23.129758    19.085992    7940.8336    5475.8009    9021.2687    11041.987   -97.129439   -521.37508    173.39845   -3343.3959 
13492000    248.84197   -4802.4652   -4304.7505   -4802.4652            0    8189.9597    17.873347      22.9748    19.387835    7961.3542    9253.0431     7443.522     7873.314   -164.73285   -1867.7681   -527.60835   -3353.8292 
13493000    273.10761   -4826.3885   -4280.1395   -4826.3885            0    7873.1375    18.073974    22.888622    19.282431    7976.9173    9654.4195    6859.2359     7105.757    35.575855    105.02163   -397.03904   -3364.2168 
13494000    260.71641   -4809.6903   -4288.2253   -4809.6903            0    7931.1254    17.984845    22.816471     19.42601     7971.477    8314.7388    7980.9818    7497.6557   -437.20019    883.70336    1074.6032   -3366.1858 
13495000    262.43464   -4796.4976   -4271.5959   -4796.4976            0    6884.3064    18.148342    22.849999    19.353862     8025.845     7879.437    5124.7419    7648.7402   -237.66729   -1199.2778   -1094.1601   -3465.7966 
13496000    262.62277   -4828.4969   -4303.2189   -4828.4969            0    6180.7093    18.211802     22.55571    19.460365    7993.9309    4386.2529    6685.6479     7470.227     116.5023   -1021.9851   -226.03729   -3582.6515 
13497000    256.16162   -4824.1431   -4311.7882   -4824.1431            0     6485.339    18.143677    22.712837      19.4297    8006.8698    6916.0181    6834.0993    5705.8996    749.45602   -1341.3574    12.953805   -3554.4823 
13498000    261.58755   -4801.5778   -4278.3704   -4801.5778            0    7723.4577    18.138837    22.644928    19.451752     7989.859    7330.7935    7155.7016    8683.8779   -1429.8368   -1799.1736   -1778.3965    -3378.403 
13499000    253.04035   -4826.5992   -4320.4872   -4826.5992            0    6519.6112    18.071766    22.658035    19.531051    7997.3932    5770.7668    7943.6844    5844.3824    805.99472    -1115.213     784.9516   -3560.0803 
13500000     257.8796   -4795.1569   -4279.3659   -4795.1569            0    7723.2299    18.202521     22.67212    19.409899     8010.266    7034.6496    8918.8677    7216.1722   -339.56121    726.28926   -265.65395   -3377.1265 
Loop time of 481.9 on 64 procs for 250000 steps with 1008 atoms

Performance: 89.645 ns/day, 0.268 hours/ns, 518.779 timesteps/s
99.1% CPU use with 64 MPI tasks x 1 OpenMP threads

MPI task timing breakdown:
Section |  min time  |  avg time  |  max time  |%varavg| %total
---------------------------------------------------------------
Pair    | 28.57      | 32.217     | 35.892     |  32.0 |  6.69
Bond    | 0.27344    | 0.28211    | 0.29204    |   0.7 |  0.06
Kspace  | 220.34     | 228.21     | 238.03     |  27.1 | 47.36
Neigh   | 4.4999     | 4.9771     | 5.5791     |  13.5 |  1.03
Comm    | 91.955     | 100.9      | 107.63     |  37.4 | 20.94
Output  | 0.74637    | 0.74802    | 0.75331    |   0.1 |  0.16
Modify  | 104.21     | 107.21     | 110.96     |  20.7 | 22.25
Other   |            | 7.367      |            |       |  1.53

Nlocal:        15.7500 ave          20 max          11 min
Histogram: 1 2 6 6 9 19 10 8 2 1
Nghost:        2503.91 ave        2523 max        2476 min
Histogram: 1 2 5 3 8 15 9 8 7 6
Neighs:        5226.06 ave        6652 max        3599 min
Histogram: 1 2 6 6 9 19 10 6 3 2

Total # of neighbors = 334468
Ave neighs/atom = 331.81349
Ave special neighs/atom = 2.0000000
Neighbor list builds = 9478
Dangerous builds = 0

unfix		3
unfix		2
unfix		1

write_data	data.final.${pid}
write_data	data.final.0
System init for write_data ...
PPPM initialization ...
  extracting TIP4P info from pair style
  using 12-bit tables for long-range coulomb (../kspace.cpp:340)
  G vector (1/distance) = 0.37887819
  grid = 24 27 36
  stencil order = 5
  estimated absolute RMS force accuracy = 0.0024894315
  estimated relative force accuracy = 7.4968489e-06
  using double precision FFTW3
  3d grid and FFT values/proc = 4050 480
Last active /omp style is kspace_style pppm/tip4p/omp
WARNING: Not all mixed pair coeffs generated from mixing. Use write_data with 'pair ij' option to store all pair coeffs. (../write_data.cpp:312)

write_restart   restart.lmp.${pid}
write_restart   restart.lmp.0
System init for write_restart ...
PPPM initialization ...
  extracting TIP4P info from pair style
  using 12-bit tables for long-range coulomb (../kspace.cpp:340)
  G vector (1/distance) = 0.37887819
  grid = 24 27 36
  stencil order = 5
  estimated absolute RMS force accuracy = 0.0024894315
  estimated relative force accuracy = 7.4968489e-06
  using double precision FFTW3
  3d grid and FFT values/proc = 4050 480
Last active /omp style is kspace_style pppm/tip4p/omp
Total wall time: 0:08:02
