#include		in.partitions
include		in.temp
variable        temperature equal 182.72
variable	tempDamp equal 100.0
include		in.pressure
variable        pressure equal 1750.7
variable        pressureDamp equal 1000.0 # This is 1 ps
include		in.seed
variable        seed equal 745823

units		real
atom_style	full
#include		in.box
read_restart	restart.lmp.${pid}
read_restart	restart.lmp.0
Reading restart file ...
  restart file = 30 Jul 2021, LAMMPS = 30 Jul 2021
  restoring atom style full from restart
  orthogonal box = (0.12991112 0.067431737 0.13402747) to (18.077661 23.561746 22.079168)
  2 by 4 by 4 MPI processor grid
  restoring pair style lj/cut/tip4p/long/omp from restart
  restoring bond style harmonic/omp from restart
  restoring angle style harmonic/omp from restart
  864 atoms
  576 bonds
  288 angles
Finding 1-2 1-3 1-4 neighbors ...
  special bond factors lj:    0        0        0       
  special bond factors coul:  0        0        0       
     2 = max # of 1-2 neighbors
     1 = max # of 1-3 neighbors
     1 = max # of 1-4 neighbors
     2 = max # of special neighbors
  special bonds CPU = 0.002 seconds
  read_restart CPU = 0.007 seconds
include 	in.setup
variable	out_freq equal 1000
variable	out_freq2 equal 10000
variable	out_freq3 equal 1000

timestep	2.0

neigh_modify    delay 7 every 1

include		in.tip4p
# This is TIP4P/Ice

# create groups ###
group ox type 2
288 atoms in group ox
group hy type 1
576 atoms in group hy

# set charges - beside manually ###
set group ox charge -1.1794
Setting atom values ...
  288 settings made for charge
set group hy charge 0.5897
Setting atom values ...
  576 settings made for charge

# ### TIP3P Potential Parameters ###
pair_style lj/cut/tip4p/long/omp 2 1 1 1 0.1577 8.5
pair_coeff 1 1*2 0.000 0.000
pair_coeff 2 2 0.21084 3.1668
bond_style  harmonic
bond_coeff  1 450 0.9572
angle_style harmonic
angle_coeff 1 55 104.52
kspace_style pppm/tip4p/omp 1.0e-5
pair_modify tail yes

thermo          ${out_freq}
thermo          1000
thermo_style    custom step temp pe etotal epair emol press lx ly lz vol pxx pyy pzz pxy pxz pyz enthalpy

restart 	${out_freq3} restart.lmp.${pid} restart2.lmp.${pid}
restart 	1000 restart.lmp.${pid} restart2.lmp.${pid}
restart 	1000 restart.lmp.0 restart2.lmp.${pid}
restart 	1000 restart.lmp.0 restart2.lmp.0


include         in.dump
dump            myDump all atom ${out_freq2} dump.water.${pid}
dump            myDump all atom 10000 dump.water.${pid}
dump            myDump all atom 10000 dump.water.0
dump            myDump2 all dcd ${out_freq2} dump.dcd
dump            myDump2 all dcd 10000 dump.dcd
dump_modify     myDump append yes
dump_modify     myDump2 append yes


variable natoms 	equal  "count(all)"                        # NUMBER ATOMS
variable H      	equal  "enthalpy/v_natoms"                 # ENTHALPY-per-atom
variable Vol      	equal  "vol/v_natoms"                 # volume-per-atom
fix AVG all 		ave/time ${out_freq} 1 ${out_freq} v_Vol v_H file vol_enthalpy.dat
fix AVG all 		ave/time 1000 1 ${out_freq} v_Vol v_H file vol_enthalpy.dat
fix AVG all 		ave/time 1000 1 1000 v_Vol v_H file vol_enthalpy.dat


timer           timeout 23:50:00 every 1000
New timer settings: style=normal  mode=nosync  timeout=23:50:00

fix 		1 all shake 1e-6 200 0 b 1 a 1
       0 = # of size 2 clusters
       0 = # of size 3 clusters
       0 = # of size 4 clusters
     288 = # of frozen angles
  find clusters CPU = 0.001 seconds
fix             2 all nph aniso ${pressure} ${pressure} ${pressureDamp}
fix             2 all nph aniso 1750.7 ${pressure} ${pressureDamp}
fix             2 all nph aniso 1750.7 1750.7 ${pressureDamp}
fix             2 all nph aniso 1750.7 1750.7 1000
fix             3 all temp/csvr ${temperature} ${temperature} ${tempDamp} ${seed}
fix             3 all temp/csvr 182.72 ${temperature} ${tempDamp} ${seed}
fix             3 all temp/csvr 182.72 182.72 ${tempDamp} ${seed}
fix             3 all temp/csvr 182.72 182.72 100 ${seed}
fix             3 all temp/csvr 182.72 182.72 100 745823


run             250000
PPPM initialization ...
  extracting TIP4P info from pair style
  using 12-bit tables for long-range coulomb (../kspace.cpp:340)
  G vector (1/distance) = 0.37175355
  grid = 24 27 25
  stencil order = 5
  estimated absolute RMS force accuracy = 0.0031535963
  estimated relative force accuracy = 9.4969615e-06
  using double precision FFTW3
  3d grid and FFT values/proc = 4410 672
Last active /omp style is kspace_style pppm/tip4p/omp
Neighbor list info ...
  update every 1 steps, delay 7 steps, check yes
  max neighbors/atom: 2000, page size: 100000
  master list distance cutoff = 10.8154
  ghost atom cutoff = 10.8154
  binsize = 5.4077, bins = 4 5 5
  1 neighbor lists, perpetual/occasional/extra = 1 0 0
  (1) pair lj/cut/tip4p/long/omp, perpetual
      attributes: half, newton on, omp
      pair build: half/bin/newton/omp
      stencil: half/bin/3d
      bin: standard
Per MPI rank memory allocation (min/avg/max) = 10.19 | 10.21 | 10.23 Mbytes
Step Temp PotEng TotEng E_pair E_mol Press Lx Ly Lz Volume Pxx Pyy Pzz Pxy Pxz Pyz Enthalpy 
14000000    189.88363   -4373.4827   -4048.0286   -4373.4827            0    2130.2967     17.94775    23.494314    21.945141    9253.6094    2450.9848    1279.5288    2660.3764    120.51181   -538.54577   -512.75926   -3760.5357 
14001000    187.68401   -4406.5961   -4084.9122   -4406.5961            0    2649.6553    18.069715      23.1435    22.020829    9209.0325    3136.8358    1732.7343    3079.3956    209.64668   -295.26788    1307.4408   -3729.0521 
14002000    179.50533    -4391.074    -4083.408    -4391.074            0    2023.8784    17.989387    23.493327    21.923374    9265.4877    1497.7775    3487.1691    1086.6887   -50.708566    -254.8475   -126.67236   -3809.9261 
14003000    187.99526    -4413.369   -4091.1515    -4413.369            0    1960.3117    17.995075     23.34603    22.048043     9262.682    1105.8433    1991.8215    2783.2703   -322.86882    330.92466    301.71848   -3826.3395 
14004000    165.80934   -4397.6703   -4113.4787   -4397.6703            0    1773.6141    17.960444    23.370364    21.992326    9231.1055    2723.2616    1030.5558     1567.025   -89.013048    369.69792   -529.60587   -3874.7038 
14005000    185.50308   -4394.4007   -4076.4547   -4394.4007            0     2152.365    17.979168    23.431111    21.922633    9235.3888    2610.0438     1023.582    2823.4693   -178.50697    -519.7591   -637.47138   -3786.5555 
14006000    174.95492   -4370.3312   -4070.4644   -4370.3312            0    1902.6891     18.10366    23.101681    22.091773    9239.3312    641.96077    3676.2784    1389.8281   -105.53097    -585.6161    92.283647   -3814.0843 
14007000    181.67415   -4395.3579   -4083.9746   -4395.3579            0    2033.6955      17.8587    23.620323       21.928    9249.8505    2380.4972    2043.7034    1676.8859    246.81526    -180.9857     183.3223   -3809.6299 
14008000    183.27747   -4387.2129   -4073.0816   -4387.2129            0    2068.9587    18.103403    23.161529    22.119527     9274.773     1928.987    1232.9297    3044.9594    779.09457    99.685718    630.41164   -3793.2279 
14009000    189.02611    -4387.487   -4063.5027    -4387.487            0    1789.7783    18.022274     23.43004    21.977283    9280.1845    2444.3423    1945.1405    979.85224     1357.434   -13.543504    316.47324   -3821.2706 
14010000    171.24701   -4373.6093   -4080.0978   -4373.6093            0    1877.9038     18.17129    23.203098    22.008106    9279.2825    963.62004    2447.2051    2222.8863    355.96444   -551.95801   -9.9970324   -3825.9633 
14011000    186.61632   -4406.6338   -4086.7798   -4406.6338            0     1496.998    17.966974    23.375231    22.066023    9267.3364    556.13447     1373.827    2561.0325    920.86182   -494.31653    552.59087   -3884.4536 
14012000    189.80269   -4374.4068   -4049.0914   -4374.4068            0    2923.2902    17.873789    23.479527    21.811689    9153.6704    3116.6534    2975.0988    2678.1185    386.96408   -40.234489   -364.10716   -3658.8413 
14013000     182.1447    -4379.461   -4067.2712    -4379.461            0    679.65477    18.157185    23.329202    22.090026    9357.1728   -596.39903     1948.591    686.77231    966.82893    869.60286    264.88254   -3974.5223 
14014000    180.63407   -4409.9296    -4100.329   -4409.9296            0    2134.3569     17.87584    23.675418    21.796449    9224.6492    1786.9606      1179.33      3436.78     -1044.19    167.73965     357.3237   -3813.1896 
14015000    180.14141   -4391.5763   -4082.8201   -4391.5763            0    2197.6682    18.043286    23.224896    22.010596    9223.6164    2512.4578    3323.3795    757.16721   -162.75146    -72.65737   -917.21601   -3787.1964 
14016000    185.59528   -4401.4796   -4083.3756   -4401.4796            0    2136.7213    17.982365    23.451738    22.020106    9286.2684    3148.5176     293.5268    2968.1194    551.80769    78.016384   -814.30177    -3793.998 
14017000    183.38353   -4395.6744   -4081.3613   -4395.6744            0    2556.6371     18.19359    23.348758    21.735736    9233.2909    930.64112    2301.8171    4437.4529   -1443.6679    1.8923132    176.94822   -3737.0895 
14018000    167.97747   -4395.9938   -4108.0862   -4395.9938            0    2402.0686    17.907562    23.299272    22.125468    9231.4791    2763.8215     3600.274    842.11034   -1156.0842   -709.19038    -371.0881   -3784.6917 
14019000    187.86991    -4410.295   -4088.2924    -4410.295            0    1893.9955    18.064568    23.369938    21.893379    9242.6803     2549.762    1061.8768    2070.3478   -268.53001   -244.69843    118.58074   -3832.9913 
14020000    176.97376   -4404.7669   -4101.4399   -4404.7669            0    2022.0979    18.008074    23.343267    22.010029    9252.2959    702.59481    3696.0693    1667.6296   -315.72713    451.45366    589.84914   -3828.5876 
14021000     178.8927   -4409.0241   -4102.4082   -4409.0241            0    2519.4436     17.84161    23.467806    22.080258    9245.0803    2266.5957    3290.9932    2000.7417    62.604345   -24.401143   -252.38776   -3762.7116 
14022000    190.48774   -4396.1232   -4069.6338   -4396.1232            0    2535.4111    18.036293    23.354785    21.879066    9216.2009    2371.0318    2344.1557    2891.0459   -276.95724   -187.57835    18.336056   -3728.8521 
14023000    177.64328   -4404.2766   -4099.8021   -4404.2766            0    948.59865    17.922216    23.322342    22.178358    9270.2887    1047.4188    1103.7784    694.59878   -434.96397    191.66463    348.47467   -3971.5538 
14024000    198.36759   -4386.3228   -4046.3275   -4386.3228            0    1337.1944    18.074291    23.591971    21.769244    9282.5828    1155.5293    1255.6909     1600.363    17.382135   -588.37701    223.24654   -3865.3022 
14025000    185.18269   -4391.2731   -4073.8763   -4391.2731            0    2174.5456    17.931432    23.324207     22.12727    9254.4305    1889.9938    2344.6074    2289.0356    484.91355    375.53028    353.37903   -3780.3858 
14026000    184.49001   -4377.2651   -4061.0555   -4377.2651            0    2806.2228    17.961131    23.306985     21.94394    9186.1683    2465.5409    2702.2235     3250.904    364.70798   -332.44764    -238.4782   -3685.1035 
14027000    181.35343   -4374.9121   -4064.0785   -4374.9121            0    2911.4407    18.070668    23.316149    21.834315    9199.6352    2366.7532    2710.5728     3656.996   -70.035064   -348.13185   -25.104307   -3673.4585 
14028000    176.26147   -4395.6066   -4093.5005   -4395.6066            0    1852.6952     17.79126     23.30126    22.222668    9212.6019    2343.5173    2158.5726    1055.9958   -889.14817   -237.42593   -63.501731   -3844.5791 
14029000    169.22954   -4403.0186   -4112.9649   -4403.0186            0    1122.3912    18.157341     23.41492     21.81103    9273.0176    483.27008    714.91058    2168.9931   -195.17678   -354.38455   -301.25182   -3961.1756 
14030000    192.03363   -4397.9894   -4068.8504   -4397.9894            0    2250.3126    17.960378    23.262235    22.097334    9232.2339    1569.4743    2554.7749    2626.6886    170.48746   -724.79911    587.80318   -3765.8623 
14031000    190.12278   -4387.1309    -4061.267   -4387.1309            0    1699.7336    18.017768    23.467957    21.924837    9270.7025    1266.9713    1623.8097    2208.4199    12.049392     344.5765    79.525172   -3831.4567 
14032000    190.81787   -4401.5879   -4074.5326   -4401.5879            0    2386.9877    18.052068     23.27915    21.948323    9223.4929    1905.6027    3961.3331    1294.0272   -812.18505   -366.35493    395.95901   -3753.4465 
14033000    179.75202   -4388.0436   -4079.9547   -4388.0436            0    1592.4298    17.872009    23.525682    22.063859    9276.7762    2920.8608    1568.6483    287.78025   -319.76923   -209.95084    605.54628   -3864.5113 
14034000    170.85057   -4400.1979   -4107.3659   -4400.1979            0    798.09329    18.270601     23.26455    21.935411    9323.8069    496.90024    930.39681    966.98283    278.20346    -375.8452   -99.073538   -3998.8426 
14035000    181.21372   -4421.5233   -4110.9292   -4421.5233            0    1541.3434    17.881131    23.317411    22.165759     9241.829    1960.6131    1695.1518    968.26541    5.3930724    -402.6229    274.49184   -3903.1829 
14036000    182.56982   -4413.3566   -4100.4382   -4413.3566            0    1324.7235    17.982032    23.456697    21.979054    9270.7447    1856.1761    1294.2002    823.79421   -324.41836    336.45956    -226.7213   -3921.3299 
14037000    191.06538   -4407.8851   -4080.4056   -4407.8851            0     1775.788     18.09234    23.419238    21.834877    9251.6301    1100.3792    1433.7736    2793.2113    260.62009   -58.704267   -586.11522   -3840.8064 
14038000    187.56833   -4405.5847    -4084.099   -4405.5847            0    2341.7287    17.795662    23.444209    22.144793    9238.9236    4487.3195    1782.8196    755.04688    91.319732   -595.43835    22.289551    -3768.574 
14039000    182.17653   -4394.8802   -4082.6358   -4394.8802            0    950.32521    18.080776    23.461256    21.967941    9318.7507    861.37328    827.22373    1162.3786   -1122.8312   -439.43655    710.56626   -3953.4825 
14040000    178.48458   -4402.0482   -4096.1318   -4402.0482            0    616.47185    18.121446    23.437308    22.001167    9344.2897    185.61079    1491.7882    172.01654   -1096.7922    18.767126    254.83281   -4012.1209 
14041000    179.79734   -4399.2422   -4091.0757   -4399.2422            0    3037.3055    17.893001     23.25697    22.184189     9231.662    2971.1664    3401.0831    2739.6669   -487.39231   -574.39221    56.093502   -3682.1501 
14042000    187.32826   -4413.7525   -4092.6783   -4413.7525            0    2040.5815    18.071255    23.567796     21.77669    9274.6844    724.41568    1403.7476    3993.5813    996.87419    383.83848    397.95128   -3816.6656 
14043000    190.23776   -4402.9245   -4076.8635   -4402.9245            0    854.84976    18.017916    23.454152    22.041026    9314.4263    560.79188     1163.448    840.30939    488.72231    -645.1718    346.43914   -3960.7395 
14044000    185.61649   -4398.2662   -4080.1259   -4398.2662            0    2684.7267    18.032651    23.334603    21.871287    9203.1042    3294.3963    3097.4451    1662.3386    560.58094   -327.96305   0.56111269   -3719.7877 
14045000    183.60128   -4435.8442   -4121.1579   -4435.8442            0    923.40759    18.044321    23.445383    21.870929    9252.6283    271.12296    978.74315    1520.3567    540.85953   -730.12051   -792.80962   -3996.5532 
14046000    193.07504   -4403.5782   -4072.6542   -4403.5782            0    1793.4694    17.996987    23.324612    22.148326    9297.2631    2018.2346    1839.0983    1523.0753    77.253278    -224.4772    230.96636   -3829.4758 
14047000    184.01829    -4413.445    -4098.044    -4413.445            0    1984.7841    18.153896    23.222279    21.893278    9229.6551    1023.8493     1417.354     3513.149    576.98764   -242.01918    1187.6932    -3830.882 
14048000    183.72207   -4401.4143   -4086.5209   -4401.4143            0    384.03954    17.877244    23.610202    22.118063    9335.7097    607.06629    138.13629    406.91603   -62.890126   -352.86576    80.873318   -4034.2333 
14049000    185.36232   -4393.5457   -4075.8411   -4393.5457            0    2659.8858    18.016129    23.323006    21.979436    9235.5455    1477.8484    3486.4389      3015.37   -198.10334    86.476133   -425.48274   -3717.5785 
14050000    188.17661   -4415.2577   -4092.7295   -4415.2577            0    854.72341    18.008632    23.589007    21.832901    9274.7419    427.32446    969.13156    1167.7142    645.91712    66.750011    87.290281   -3977.1173 
14051000    173.65963   -4368.0003   -4070.3536   -4368.0003            0     1468.561    18.040295    23.236317    22.146487     9283.586    1060.8953    2584.3406    760.44723   -240.91885    -404.9509     346.1202   -3871.5229 
14052000    178.75088   -4397.2716   -4090.8987   -4397.2716            0     894.6413    18.085501    23.419818    21.917807    9283.4874   -398.22924     1072.761    2009.3922   -422.84665   -82.182747    277.45744   -3969.7731 
14053000    178.62689   -4400.7602   -4094.5998   -4400.7602            0    461.48836    17.984885    23.528309    22.018858    9317.3662    1400.5152   -596.62481    580.57464    -711.9263   -115.13337    215.99166   -4031.8909 
14054000    180.07923   -4378.7596   -4070.1099   -4378.7596            0    967.77336    17.987779    23.271043    22.248106     9312.932    645.95081    2659.1152   -401.74597   -431.66839   -674.10119    514.44941   -3938.6674 
14055000    183.62991   -4405.9527   -4091.2173   -4405.9527            0    647.45521    18.074773    23.533638    21.867987    9301.8797   -319.13062   -279.39098    2540.8872    787.71963    127.40821    698.40237   -4003.3846 
14056000    195.05976    -4396.013   -4061.6872    -4396.013            0    2448.3486    17.925419    23.300549    22.143891    9248.8858     1666.146    3098.1761    2580.7238    218.87472   -455.18228   -345.32785   -3731.4405 
14057000    192.42417   -4421.7457   -4091.9372   -4421.7457            0    997.91731    18.069967    23.559877    21.838476     9297.211    695.01582    53.878208    2244.8579    596.07503    225.25678   -148.86758   -3956.6294 
14058000    184.74405   -4397.5022   -4080.8572   -4397.5022            0     2198.327    18.168694    23.180371     21.89826    9222.6075     2297.961    1623.0741     2673.946    820.01028    338.30032   -315.45334   -3785.1773 
14059000    175.35346   -4383.2401   -4082.6903   -4383.2401            0    2081.5812    17.801565     23.51289    22.042596    9226.2864    3358.1005    975.24461    1911.3986    -259.6994   -28.379661    167.08932   -3802.6012 
14060000    163.99216   -4393.5937   -4112.5168   -4393.5937            0    533.30062    18.228648    23.362912    21.905941    9329.1776   -692.88485    1605.2311     687.5556    413.26591   -499.08993   -70.683446   -4039.9578 
14061000    182.49794   -4397.5805   -4084.7852   -4397.5805            0    1925.0018    17.918054    23.465381    22.073554    9280.9136    3233.2005    1274.7723    1267.0327   -50.310988    93.150922    384.35295   -3824.2312 
14062000    188.56038   -4398.4036   -4075.2175   -4398.4036            0    717.50096     17.98439    23.450193    22.120518      9329.05     917.6574    1415.5629   -180.71746   -228.44356   -259.53113     -2.71541   -3977.5982 
14063000    199.64114   -4395.3235   -4053.1454   -4395.3235            0    2259.2549    18.145321    23.264801    21.886679    9239.4022    2034.0532    1761.5605    2982.1511   -29.311545    514.59488     287.5479   -3748.7171 
14064000    185.82402   -4405.9024   -4087.4064   -4405.9024            0    1715.3821    17.917538    23.400915    22.087408    9260.9585    765.40684    2325.6221    2055.1174   -236.30155   -210.01129   -29.370734   -3855.7242 
14065000    180.80621   -4418.2373   -4108.3417   -4418.2373            0    1941.7232    18.277893    23.288061    21.773323    9267.9608    1265.7184    2114.4529    2444.9983   -733.26752    46.710426    29.671707   -3845.8912 
14066000    192.19091   -4398.6971   -4069.2884   -4398.6971            0    953.52499    17.921448    23.542627    22.113305    9330.0009    1596.9214    1173.0336    90.619944   -764.68419    453.01741   -132.23711   -3939.5437 
14067000    170.46937   -4407.5917   -4115.4131   -4407.5917            0    1049.4555    18.182574    23.482806    21.779408    9299.3251    115.22344   -170.07665    3203.2196   -186.80537   -232.44966    179.82517   -3973.0847 
14068000    182.43027   -4403.6321   -4090.9528   -4403.6321            0    1854.5035    17.921985    23.458444    22.041975    9266.9287    2375.0366    1608.6065    1579.8674    1374.8778   -626.38427    115.79225   -3840.3192 
14069000    174.47757   -4419.0735   -4120.0249   -4419.0735            0    541.96204    18.050385    23.375994    22.116214    9331.8409    373.20798    1912.3706   -659.69243     86.03358    155.40749    593.46617   -4046.2664 
14070000     181.2627   -4398.0497   -4087.3716   -4398.0497            0    2487.2093    17.941951    23.480497    21.937934    9242.1429    3386.9142    2613.7027     1461.011    184.19731   -833.81676   -393.90795   -3752.1277 
14071000    172.98045   -4388.0092   -4091.5266   -4388.0092            0    995.72932    17.939669    23.325119    22.129582    9260.0113    1301.6969    1178.2517    507.23928   -607.28707    126.21164    291.54818   -3957.0556 
14072000    191.38794   -4371.5349   -4043.5025   -4371.5349            0    2365.4239    18.048749    23.430478    21.824988    9229.5873    2898.4502    3030.7801    1167.0415    -17.39818   -164.03017   -1106.5135   -3725.1068 
14073000    173.65962   -4409.7492   -4112.1026   -4409.7492            0    295.56735    18.031497    23.475194    22.100172    9354.8456    128.84513    109.57112    648.28581    100.03519    374.35284   -278.77122   -4071.7781 
14074000    185.89063   -4410.5145   -4091.9043   -4410.5145            0    760.57064    18.179406     23.37945    21.944523      9326.96   -178.76535    315.08042    2145.3969    61.656118   -403.78587    163.77468   -3988.4484 
14075000    182.10554   -4403.2946   -4091.1719   -4403.2946            0    1298.5103    17.999077    23.456704    22.005904    9290.8712    1409.6387     463.6453     2022.247   -444.81914    140.20542   -436.01746   -3915.2266 
14076000    180.51602   -4403.4353    -4094.037   -4403.4353            0    1371.7457    17.961534    23.522148    22.061177    9320.7118    1848.6214    1167.3833    1099.2325    38.595689    268.03043   -469.58846   -3907.5714 
14077000    178.26204   -4408.5361   -4103.0011   -4408.5361            0    1474.3812    18.171116    23.252538    21.970086    9282.9015    1258.7484    1614.3742    1550.0209   -1166.7859    17.992001   -88.755383    -3903.397 
14078000    196.86165   -4388.6776   -4051.2634   -4388.6776            0    2048.8004     17.77184    23.604586    22.034892    9243.5694    2997.9616    1358.7221    1789.7174   -131.24237    744.57008    97.991055   -3775.0688 
14079000    182.26998   -4402.2205    -4089.816   -4402.2205            0    2679.0898     18.02084    23.330589    21.856548    9189.2974    1625.2216    3207.8046    3204.2431   -243.81962   -723.08914     205.7732   -3730.7738 
14080000    193.13373   -4386.0641   -4055.0395   -4386.0641            0    800.21659    17.895237    23.545592    22.134741    9326.5606    1089.5204    737.19972    573.92968    345.09273   -157.18993    227.14575   -3946.1954 
14081000    184.27936   -4401.8456   -4085.9971   -4401.8456            0    2550.3848    17.985572     23.40899    21.930348    9233.2043    1773.7361    3658.7515    2218.6667   -757.21123   -392.32515   -154.26953   -3742.5704 
14082000    174.89168   -4400.6675   -4100.9091   -4400.6675            0     1560.065     18.10318    23.373816     21.92788     9278.572   -472.06461    1890.0217    3262.2379   -1271.1409    480.96392   -313.10359   -3889.8035 
14083000     172.2843   -4399.1194     -4103.83   -4399.1194            0    2006.9874    17.900773    23.583972    21.884182    9238.8746    2156.1988    2672.2451    1192.5182    906.98573    415.67142    446.01481   -3833.4095 
14084000    188.63085   -4378.4229   -4055.1161   -4378.4229            0    2710.9965    18.037055    23.260434    21.918341    9195.8337    1799.9845    3196.8436    3136.1615   -827.20955   -348.95606   -761.47056   -3691.5394 
14085000    181.31626   -4398.3896   -4087.6198   -4398.3896            0    511.63172    17.884463    23.699553    22.052915    9347.2115    1262.4946    970.19072   -697.79012   -242.39065   -659.42924   -119.03426   -4017.8744 
14086000    185.88728   -4403.2832   -4084.6787   -4403.2832            0     1618.586    18.174615    23.125639    22.020873     9255.364     1968.943    2787.6248    99.190003    429.15885    447.24709    503.31164    -3866.202 
14087000    183.08694   -4414.8294   -4101.0247   -4414.8294            0    2336.3954    17.979039     23.39337    21.974097     9242.092     1725.181    3750.2534    1533.7519   -561.65449    -275.8834    633.63993   -3786.1103 
14088000    191.72403   -4392.1654    -4063.557   -4392.1654            0    1343.2761    17.987897    23.494098    22.110577    9344.1384    2214.9309    1056.1475     758.7498    90.020704    429.01553    452.83651   -3880.5025 
14089000    175.46338   -4410.0566   -4109.3183   -4410.0566            0    2386.8449    18.087531    23.102654    22.117344     9242.174    2317.2249    3028.2412    1815.0685    517.67092   -229.01941   -461.32547   -3787.6012 
14090000    180.10435   -4391.6042   -4082.9115   -4391.6042            0    1129.9988    17.993195    23.471154    22.007615     9294.279    1249.4206    1979.3602    161.21572   -607.71485   -473.20967     1209.548   -3929.7429 
14091000    180.27313   -4418.9211   -4109.9391   -4418.9211            0    1046.2555    18.211598     23.17145    22.093758    9323.3257    247.21628    1917.3633    974.18705   -118.91041   -731.03117    31.986378   -3967.6785 
14092000    190.41683   -4398.2282   -4071.8603   -4398.2282            0    1627.3798    17.819844     23.61009     22.09516    9296.0551    1668.6795    1906.1862    1307.2739   -486.21247   -87.124074    187.14974   -3851.2308 
14093000    176.97076   -4410.3912   -4107.0694   -4410.3912            0     1862.197    18.144862    23.220658    22.032825    9283.2145    2241.4719    2470.7202    874.39892   -955.24494   -207.58829   -220.85106   -3854.9537 
14094000    183.40642   -4407.5399   -4093.1876   -4407.5399            0    1796.3641    17.900788    23.535204    21.945072    9245.4303    2462.2782    1219.0691    1707.7451   -92.032597    -854.9603    544.02007   -3850.9746 
14095000    174.93319   -4400.5383   -4100.7088   -4400.5383            0    1627.2239    18.048186    23.348649    22.028113    9282.6631    950.66831    3386.4604    544.54294   -564.88286    206.80757    414.41954   -3880.4183 
14096000    182.22906   -4384.9526   -4072.6183   -4384.9526            0    1571.4663    17.884084    23.380709    22.186714    9277.2093    2607.9667    2282.7731   -176.34084    496.86686    80.709682   -563.37503   -3860.0011 
14097000    183.35168   -4396.9057   -4082.6472   -4396.9057            0    1762.7584    18.011052     23.54191     21.85307    9266.0197    571.56383    1931.1863     2785.525   -593.50067   -284.53094   -77.032483   -3844.4362 
14098000    175.57862   -4408.6395   -4107.7038   -4408.6395            0    2589.4094     18.00158     23.22023    22.093189    9234.9711    2833.7363    2549.9899     2384.502    452.74351   -693.76101    454.93617   -3758.9554 
14099000    181.42834   -4394.6343   -4083.6724   -4394.6343            0     1936.409    17.923713    23.445538    22.054455    9267.9678    1946.5242    1906.9654    1955.7374    360.06961    348.55104    -26.31417   -3821.9399 
14100000    181.16194   -4411.1081   -4100.6027   -4411.1081            0    1741.8223    18.257939    23.128397    21.914294    9253.8994    335.87277    2781.9082    2107.6859    18.415175    901.78418       31.828   -3865.5287 
14101000    179.49499   -4418.1074   -4110.4591   -4418.1074            0    2311.1561    17.795603    23.563051    22.009884     9229.156    2870.6334    907.50908    3155.3258   -1166.0016    383.44867    783.65756   -3799.3827 
14102000    188.16294   -4400.8573   -4078.3525   -4400.8573            0    2048.1604    18.142004    23.214004    21.970966    9253.0404    1543.3463    3069.1767    1531.9583    778.35457    684.37365    278.75802   -3801.9612 
14103000    186.81895   -4395.2952   -4075.0939   -4395.2952            0    2517.6513    17.883178    23.583073    21.933217    9250.1214    1424.7803    2705.8283    3422.3454    378.22857    139.61892    526.11142   -3735.4539 
14104000    171.28465   -4386.9533   -4093.3773   -4386.9533            0    1563.6994    18.116111    23.238284    22.021459    9270.7555    1278.5532    1039.7929     2372.752   -282.25118    297.13284     107.3722   -3881.9582 
14105000    192.21445   -4402.2224   -4072.7734   -4402.2224            0    386.78205    18.043009    23.466094    22.055816    9338.4094   -130.93487   -329.92896      1621.21   -181.05266   -442.74721    216.17014   -4020.0971 
14106000    176.54176   -4410.1249   -4107.5384   -4410.1249            0    489.97041    18.032088    23.440139    22.036917    9314.4459    902.60732    471.33591    95.967992    373.20743    288.72681    390.80197     -4040.98 
14107000    188.86054   -4427.0502   -4103.3497   -4427.0502            0    2041.8701    18.208094    23.248232    21.822095    9237.4234    847.27498     2411.125    2867.2102     660.5483    1109.9049    206.16662   -3828.2724 
14108000    178.59346   -4393.4711   -4087.3681   -4393.4711            0    1676.5902    17.772795    23.449121    22.164718    9237.2886    3204.8145    818.92893    1006.0271   -184.66953    74.707195   -135.16635   -3861.5039 
14109000    184.06943   -4410.1208   -4094.6321   -4410.1208            0    1647.5166    18.060409      23.2036    22.052263    9241.3648    1066.9004    2461.1693    1414.4801    570.11327   -678.49624   -151.99829   -3872.5867 
14110000    182.33114   -4411.2946   -4098.7852   -4411.2946            0     1012.053    17.999386    23.643148    21.785111     9270.919    1139.0863     964.1899    932.88293    1641.4606    57.066382   -515.36124   -3961.9487 
14111000    180.67035   -4393.0921   -4083.4293   -4393.0921            0    2220.0313    17.948619    23.303572     22.11715    9250.8728    2038.3427    2421.4856    2200.2656   -537.06265    286.39151    312.93163    -3783.915 
14112000    187.45856   -4408.1604   -4086.8628   -4408.1604            0    278.91759    18.177648    23.482517     21.94065    9365.5184   -1386.6422   -143.84693    2367.2419    -219.4495   -244.09111   -357.24715   -4048.7664 
14113000    180.88355   -4405.5073   -4095.4791   -4405.5073            0    1348.5804    17.972579    23.546826    22.000695    9310.6325    443.08413    2571.2511     1031.406   -247.98502    243.48427   -156.06924   -3912.3607 
14114000    197.85337   -4398.0364   -4058.9225   -4398.0364            0    1828.5672    18.113341    23.254624    22.021322    9275.7978    596.96258    3060.3302     1828.409   -276.07491    510.03627    6.0856194   -3811.5576 
14115000    180.41559   -4378.3566   -4069.1304   -4378.3566            0    2471.0278    17.906226    23.613893    21.932799    9273.9707    2363.0588    2487.3412    2562.6834    177.15775     995.7573   -15.701209   -3734.9206 
14116000    181.03726   -4408.5623   -4098.2707   -4408.5623            0      2316.32    18.004128     23.35415    21.994692    9248.1325    2744.8065    2044.1856     2159.968    771.02357   -369.13858    182.06875   -3785.8581 
14117000    173.61879   -4406.9184   -4109.3418   -4406.9184            0    2336.0584     18.07606     23.34608    21.891926    9238.5059    972.05185     2617.932    3418.1914    158.78409    228.15229   -118.60667    -3794.595 
14118000    171.73943   -4396.5848   -4102.2292   -4396.5848            0    1034.6701    17.870827    23.603182    22.044343    9298.4885    1509.8215    983.23747    610.95129   -972.59317   -62.181456   -257.59105   -3961.9188 
14119000    188.11254   -4399.9272   -4077.5088   -4399.9272            0    1611.6517    17.983155    23.372295    22.042058    9264.4451     2560.903    1604.1189    669.93312    1469.0801    293.90226    473.35696   -3859.7546 
14120000    190.17985   -4423.9219   -4097.9602   -4423.9219            0    1757.4252     18.04471    23.235712    22.073233    9254.9026    2141.1678    1627.1118     1503.996   -574.56753    221.13459   -93.012623   -3860.7548 
14121000    177.12186   -4398.6494   -4095.0686   -4398.6494            0    1817.3921    18.097628    23.568246    21.776295    9288.2289    2565.5975    1550.1951    1336.3838    472.08481    198.91627    246.19331    -3848.886 
14122000    194.48545   -4402.9526   -4069.6112   -4402.9526            0    1359.3803    17.996025      23.3878    22.031028    9272.5829    1905.4303    1056.0351    1116.6755   -988.94578   -228.23352   -238.71523   -3885.7807 
14123000    172.40529   -4406.6258    -4111.129   -4406.6258            0    2759.1842     17.92466    23.362272    21.995315    9210.7757    2792.0123    3072.1354    2413.4048    427.53423    153.95653    107.45563   -3740.4886 
14124000    180.44776   -4383.8766   -4074.5953   -4383.8766            0     921.4202    18.155085    23.457688    21.844175    9302.9171    143.70426    1595.1927    1025.3637    691.87824    539.86886    289.92947    -3949.583 
14125000    188.87362   -4381.1364   -4057.4134   -4381.1364            0    1917.8323    17.900344    23.405116    22.173406    9289.7617    2422.1259    2138.6916    1192.6796   -476.97733    195.18552   -388.28551   -3797.5824 
14126000    181.37941    -4397.217   -4086.3389    -4397.217            0    1992.6906    17.950158    23.448133    21.998707    9259.2048    2035.2632    1180.0664    2762.7421   -646.50547    546.48193    69.466161    -3817.254 
14127000    180.74303   -4390.2416   -4080.4542   -4390.2416            0    1017.0603    18.187543    23.389356     21.80448    9275.5149   -208.46651    916.54508    2343.1024    245.01729   -344.86802   -372.67928   -3942.8725 
14128000    191.55363   -4412.0504    -4083.734   -4412.0504            0     1586.466    17.697859    23.547549    22.212566    9256.8915    3090.9319     1292.184    376.28201    359.22748   -476.11155   -399.24182   -3869.5575 
14129000    186.99448   -4384.6291    -4064.127   -4384.6291            0    1655.4999    18.037838    23.292178    22.020151    9251.5578    1207.5043    1268.7248    2490.2705     71.40608   -270.00589    614.25589   -3840.7596 
14130000    176.06216   -4412.6561   -4110.8916   -4412.6561            0    1626.2347    17.806533     23.68351    22.014633    9284.0375    1582.4368    1460.6268    1835.6404    235.83405   -26.843173   -449.15693   -3890.7024 
14131000     178.1925   -4415.7491   -4110.3333   -4415.7491            0    1578.2594    18.129775    23.346029    21.942469    9287.3312    2189.3199     1139.448    1406.0104   -236.66342    646.40572   -155.41153    -3896.564 
14132000    179.53312   -4372.9834   -4065.2698   -4372.9834            0    3136.5719    17.994296    23.432146      21.9123    9239.2111    3083.6881    3840.2147     2485.813    639.90069   -563.43453    114.32769   -3642.6342 
14133000    183.33014   -4408.6054   -4094.3839   -4408.6054            0      1753.98    17.923007    23.352415    22.012241    9213.1244    1527.4185    1742.6668    1991.8548    128.99634   -10.782631    300.46975   -3858.7121 
14134000    182.01174   -4420.0916   -4108.1297   -4420.0916            0    1900.8928    18.083739    23.397965    21.855707    9247.6456    2187.8301    1467.3202    2047.5282   -812.09386   -416.47336    191.69544   -3851.7612 
14135000     172.1074   -4409.1818   -4114.1956   -4409.1818            0    1808.1138    17.839225    23.516698     21.99214    9226.1351    1687.2389    2229.7054    1507.3972    -942.5041    80.918439    553.22833   -3870.9072 
14136000    187.95646   -4409.3327   -4087.1818   -4409.3327            0    2340.8354    18.141238    23.312364    21.848939    9240.2477     2119.679    2810.0714    2092.7559    108.02768   -642.50263    521.78199   -3771.7319 
14137000    182.20027   -4415.5208   -4103.2358   -4415.5208            0    1679.9833    17.851021    23.524246    22.073888    9269.5273    1824.0946    2068.7202     1147.135    270.86173    -244.0443    303.26853   -3876.1246 
14138000    173.74929   -4381.9812   -4084.1809   -4381.9812            0    1464.1598    18.013747    23.327584    22.040847    9261.9432    770.70864    2222.0928     1399.678   -260.65911    397.91486    53.897066   -3886.4081 
14139000    167.56439   -4411.1478   -4123.9481   -4411.1478            0    1759.6717    18.043729    23.455857    21.794053    9223.9216    1303.0951    1655.1777    2320.7422    1190.6177   -303.06837   -19.920858   -3887.2346 
14140000     185.0807   -4410.2039   -4092.9819   -4410.2039            0          936    17.907856    23.386254    22.181733    9289.6581    1188.0625    488.49849     1131.439   -815.58024    214.47684    641.87027   -3966.1725 
14141000    179.69212   -4419.4398   -4111.4537   -4419.4398            0    2187.2349    18.065162     23.34879    21.916206    9244.2488    1606.0501    1720.8138    3234.8409    16.219503    272.37554   -611.26693   -3816.5753 
14142000    191.66519   -4429.0985   -4100.5909   -4429.0985            0    1529.4121    17.865802    23.431923    22.196085    9291.9495    2333.9049    1520.9135    733.41789   -646.95001   -353.46817    461.51385   -3893.3348 
14143000    184.38671   -4418.6687   -4102.6362   -4418.6687            0    963.71604    18.055783    23.392416    22.031641    9305.4691    66.975313    2074.7219    749.45087   -1451.0839    81.951225   -310.40646   -3971.8496 
14144000    177.65048    -4397.206   -4092.7191    -4397.206            0    2313.1464    18.018284    23.326876    21.988932    9242.1741    2428.8229    1611.6953    2898.9212    1010.8755   -102.08549    250.22884   -3780.9356 
14145000    199.09483    -4405.231   -4063.9893    -4405.231            0    2069.5009    17.865931    23.650582    21.896676    9252.2142    3298.5104    632.13432    2277.8581   -123.31711   -468.07065     -424.434   -3784.7432 
14146000     184.7326   -4417.8053     -4101.18   -4417.8053            0    1164.5589     18.02612    23.284305    22.163226    9302.4747    987.56958    2020.9847    485.12253    711.52721    23.950114   -45.442812   -3943.1877 
14147000    170.69727   -4404.2282   -4111.6589   -4404.2282            0    1198.4215    18.048477    23.477124    21.945605    9298.9307    894.62116    1636.2485    1064.3948    894.85702   -312.37063   -472.28323   -3949.1346 
14148000    173.23781   -4406.5486    -4109.625   -4406.5486            0    1330.8057    17.946594    23.367132    22.118255    9275.5212    2067.7833    1555.4666    369.16734    552.62901   -249.10653   -255.89431   -3929.6016 
14149000    192.71901   -4392.5019   -4062.1881   -4392.5019            0    1575.4139    18.089749    23.289728    22.036896    9284.2616    740.31179    1343.1522    2642.7777   -133.80801   -405.15342   -191.34192   -3848.8748 
14150000    181.08724   -4407.8366   -4097.4593   -4407.8366            0    1347.3171    17.999171    23.588403    21.854438    9278.7755    1691.0465    781.51981    1569.3851   -1036.7116    302.25124    51.673278   -3915.1384 
14151000    185.41821    -4390.243   -4072.4425    -4390.243            0    2208.1579    17.996557    23.179862    22.151377    9240.6174    3036.1783    2605.5435    982.75177    455.49769   -317.61456   -76.164755   -3774.8603 
14152000    175.87143   -4414.6308   -4113.1932   -4414.6308            0    942.32958    18.137437    23.440112    21.896858     9309.308    619.02947    873.82249    1334.1368   -49.787827    290.38464    33.625898   -3985.2562 
14153000    180.05612   -4395.7682   -4087.1582   -4395.7682            0    1576.5419    17.911203    23.492448    22.080447    9290.9664    1334.8922    1142.0947    2252.6389    426.38844    91.589844    844.51412    -3873.538 
14154000    172.75275   -4400.8625   -4104.7702   -4400.8625            0    1178.6392    18.150299     23.21856    21.998677    9270.7659     575.5359    1619.2597    1341.1221    880.16593   -95.685614    576.27643   -3945.4127 
14155000    187.16321   -4415.0063   -4094.2149   -4415.0063            0    1755.3194    17.991816    23.512528     21.86408    9249.2288    2524.6348     1793.496    947.82735   -899.65893   -831.34411    680.10066    -3857.439 
14156000    171.12928   -4420.2896   -4126.9799   -4420.2896            0    1683.8467    17.934147    23.213158     22.21375    9247.7663    2090.4611    1650.9823    1310.0966   -50.832992   -29.036573   -373.72462   -3899.8809 
14157000    174.69661   -4400.5228   -4101.0988   -4400.5228            0     1684.811    18.020006    23.424388    21.968022    9272.8691    1778.2244    2336.0659    940.14283   -610.36345    442.00629   -36.497949   -3873.2529 
14158000    183.31689   -4415.5849    -4101.386   -4415.5849            0    26.471041    18.093363    23.487994    22.066899    9377.9202   -248.67474    26.667598    301.42026    -660.4347   -728.04763    37.016266   -4097.7657 
14159000    172.90738   -4390.8311   -4094.4738   -4390.8311            0    1731.9783    17.939616    23.427271    22.102666    9289.2256    3028.7207      1267.46    899.75423   -52.544356   -542.90186    903.22485    -3859.836 
14160000    194.11242   -4400.0465   -4067.3445   -4400.0465            0    2208.7208    18.132378    23.523137    21.711319    9260.5379    2652.1692    2293.7115    1680.2818    785.27024   -262.29949   -496.29083   -3769.0447 
14161000    174.99401   -4413.7525   -4113.8188   -4413.7525            0    2053.2781    18.023053    23.242278    22.105697    9260.0061    967.66252    2894.5089    2297.6629   -181.44841    866.56009   -514.39926   -3836.5283 
14162000    174.96575   -4401.2255   -4101.3402   -4401.2255            0    1811.7739    17.885118    23.722112    21.817934    9256.7554    3768.9332   -401.83107    2068.2195   -517.75893    359.75056    142.77226   -3856.7502 
14163000    177.05821   -4390.3074   -4086.8357   -4390.3074            0    1934.1537    18.114504    23.260717    22.018445    9277.6121    1638.8033    2714.3153    1449.3425   -273.18259    266.82529    468.47965   -3825.1361 
14164000    178.14696   -4399.3275   -4093.9897   -4399.3275            0    2230.2414    17.723977    23.507246     22.19602    9247.7916    3596.3627    750.85753    2343.5038    8.5643823   -667.71629    384.53602    -3793.198 
14165000    175.41984   -4393.5213   -4092.8577   -4393.5213            0    1819.4946    18.111412    23.371827    21.937334    9286.0031    985.12197    1968.5699    2504.7919   -251.21143     23.34787   -273.68732   -3846.4493 
14166000     180.8756   -4389.1487   -4079.1342   -4389.1487            0    900.66875    17.894811    23.582326    22.062267    9310.3046    1228.1969    840.09152    633.71779    71.622288    420.75457    -292.7414   -3956.8402 
14167000    176.95556   -4416.3612   -4113.0654   -4416.3612            0    2090.1737    17.957677    23.329706    22.116776    9265.7643    2023.8377    804.44221    3442.2412     60.27689   -45.325795   -130.89412   -3830.6168 
14168000    192.82687   -4389.8745   -4059.3758   -4389.8745            0    1991.9711    18.024541    23.457683    21.908331    9263.1484    1670.1357    1377.7235    2928.0541   -976.95259   -154.79231    581.19428   -3790.2734 
14169000    189.58822   -4391.3758   -4066.4281   -4391.3758            0     1361.926    17.966388    23.529124    22.011653    9305.0602     662.2435    1735.9033    1687.6312     555.7136   -219.45919    486.64222   -3881.6082 
14170000     186.1092   -4406.9203   -4087.9355   -4406.9203            0    1919.0524    18.118781    23.054444    22.096616    9230.1635    1178.7346    2086.5266    2491.8959    597.38005    525.25459    368.61379   -3829.6071 
14171000    181.04198   -4405.0712   -4094.7715   -4405.0712            0    2093.9011    17.919117    23.573131    21.943436    9269.1201    2941.3493    2074.4052    1265.9489   -138.01568   -222.75029     260.5181   -3811.7166 
14172000    181.77935   -4403.1617   -4091.5981   -4403.1617            0    1894.2397    18.087569    23.218351     21.99263    9236.1025    2667.7523    414.68852    2600.2782    441.70694    666.07631    212.62017   -3836.4457 
14173000    181.95509   -4414.0386   -4102.1738   -4414.0386            0    1104.9734    17.921797    23.686535     21.95693     9320.833    1733.6651    146.96298    1434.2921   -288.21837   -485.24197    359.56297   -3951.9694 
14174000    173.54123   -4400.4715   -4103.0277   -4400.4715            0    1732.4718    18.055536    23.308933    22.073363    9289.6909    2540.3901    1953.6562    703.36909    444.25158   -260.48663   -789.44566   -3868.3114 
14175000     185.8211   -4396.7618   -4078.2708   -4396.7618            0    2305.4863    17.977959    23.389177    22.059673    9275.8646    3265.2084    2540.8639    1110.3866   -685.07949   -334.31026    193.78354    -3766.387 
14176000    181.67296   -4407.4687   -4096.0875   -4407.4687            0    1366.8185     17.92757     23.57211    22.029007    9309.2525      1783.83    861.45753    1455.1679      319.931    199.91812   -426.66697   -3910.5202 
14177000    183.77067   -4384.5653   -4069.5886   -4384.5653            0    1741.8171    18.089891    23.270869    22.036785    9276.7695    1299.2209    3047.2235    879.00677   -497.16747   -453.41071   -665.76903   -3833.9344 
14178000    179.70274   -4384.8595   -4076.8551   -4384.8595            0    2161.4874    17.825686    23.585688    21.953897    9230.1004    999.57863    3060.7898    2424.0937   -622.64357    -49.97552    36.573438    -3785.894 
14179000    185.39495   -4411.0292   -4093.2686   -4411.0292            0    799.01322    18.086853    23.300592    22.076478    9303.7869   -249.35589    1559.9836    1086.4119     -586.448    217.48243    10.380895   -3984.8535 
14180000    175.32944   -4392.3327    -4091.824   -4392.3327            0     1642.044    17.987342    23.407555    22.079817    9296.4794    1524.3979     1750.736    1650.9983    -56.10971    1133.3625    230.80468   -3869.1963 
14181000    187.95406   -4405.7974   -4083.6506   -4405.7974            0    1847.7381    18.020104    23.596871     21.82389    9279.9122     1711.354    932.31396    2899.5464   -488.08366   -162.09911   -385.86973   -3833.5814 
14182000    193.37558   -4398.2652   -4066.8261   -4398.2652            0    3091.4665    17.965687    23.106025    22.237046     9230.945    2518.1854    3078.8741    3677.3401   -359.91622   -258.27832    550.68327   -3650.6409 
14183000    182.83377   -4414.1102   -4100.7394   -4414.1102            0    2308.0982    17.963054    23.435316    22.003692     9262.891    3014.7305     1460.965    2448.5991    264.93234    309.21907    729.61619   -3788.9389 
14184000    182.96134   -4417.8418   -4104.2523   -4417.8418            0    1656.0765    18.152001    23.299969    21.842523    9238.0998    1202.3641    380.53043     3385.335    152.72554    71.590856   -129.59624   -3881.1321 
14185000    186.70014   -4390.6315   -4070.6338   -4390.6315            0    2978.4228    17.801544    23.283559     22.15192    9181.6008    3773.4758    2081.3748    3080.4179   -131.69021    398.75072    632.23236   -3671.8104 
14186000    192.06261   -4400.3821   -4071.1933   -4400.3821            0    1512.5163    18.105822    23.394311    21.892264    9272.9771    650.43497    2552.6763    1334.4376   -226.88181   -431.39284   -576.53149   -3866.6454 
14187000    184.10869   -4412.6719   -4097.1159   -4412.6719            0    1988.7058    17.810475    23.335867    22.222005    9235.9734    2634.3631    1735.7055    1596.0487   -999.46764   -231.35034    456.44192   -3829.2428 
14188000    182.04688   -4378.6452   -4066.6231   -4378.6452            0    1596.7049    17.996438     23.41587    22.025026    9281.3959    2586.2586    917.08273    1286.7733    10.473838    870.14932    521.89357   -3850.4937 
14189000    176.55755   -4413.1584   -4110.5448   -4413.1584            0    2180.6273    18.100544    23.323784    21.906313    9248.2577    3001.2401    1217.3085    2323.3334    27.917634     178.4005     898.2484   -3816.4298 
14190000    183.29641   -4371.1047   -4056.9409   -4371.1047            0    1999.4298    17.696899    23.550682    22.182855    9245.2381    2852.8104    1540.4365    1605.0425    5.5978393   -234.29738    144.73793   -3787.3532 
14191000    188.92865   -4402.7147   -4078.8974   -4402.7147            0    1577.6416    18.076441    23.442109    21.803303    9239.1475    168.34426    3245.8008    1318.7797     1058.693    -100.1017    731.26625   -3866.3205 
14192000    184.52275   -4400.9604   -4084.6947   -4400.9604            0    2184.0222    17.975624     23.29488    22.186872    9290.5309    2163.5095    2749.6357    1638.9215    189.71075   -164.12273   -136.65981   -3788.7753 
14193000    183.53458   -4400.3809   -4085.8089   -4400.3809            0    1648.7848     18.11903    23.564248    21.764386    9292.5506    1364.9351    879.34064    2702.0786   -230.55824   -410.80441   -769.49249   -3862.3617 
14194000    181.60968   -4380.3543   -4069.0815   -4380.3543            0    1567.2187    18.036427    23.374858    22.083643    9310.4401    1283.9871    1361.7017    2055.9672    251.61661   -425.14506    6.4852332   -3856.2795 
14195000    182.85271   -4407.1004   -4093.6972   -4407.1004            0    1174.5108    17.975307    23.367321    22.088717     9278.029    469.60912    1585.2881    1468.6351     22.21331   -388.04514   -441.69823   -3934.7735 
14196000    184.61034   -4407.0415   -4090.6257   -4407.0415            0    1132.4881    18.128506    23.415013    21.854748    9276.8856    781.10533    634.32964    1982.0294    -852.2573    72.531564   -17.383196    -3937.407 
14197000    178.56531     -4389.92   -4083.8652     -4389.92            0     2086.977    17.943009    23.216044      22.1662    9233.6784    668.96132    3547.8839    2044.0857    701.23249    102.83679    188.64133   -3802.8251 
14198000    181.35173   -4390.5849   -4079.7543   -4390.5849            0    1089.9138    18.035629    23.587188    21.836107     9289.293    1304.9996    1078.0766    886.66532    134.80139   -297.43785    167.38732   -3932.0984 
14199000     196.4837   -4411.0721   -4074.3058   -4411.0721            0    2273.5531     17.94152    23.377407    22.074691    9258.7045    1588.6444    3012.8863    2219.1286   -530.65859   -137.72351    239.66143   -3767.3109 
14200000    181.01028   -4401.7653   -4091.5198   -4401.7653            0    840.86115    18.101185    23.376918    22.052128    9331.3563   -931.30346    1887.7656    1566.1213   -96.730992   -155.95866    267.05822   -3977.0885 
14201000    184.40907   -4403.0354   -4086.9646   -4403.0354            0    2093.1929    17.972934    23.443301    21.913744    9233.2445    1762.8227    2207.7357    2309.0204   -154.32459   -331.28821   -87.735032   -3805.1006 
14202000    184.61471   -4397.4217   -4080.9984   -4397.4217            0    578.11034     17.97411    23.392242    22.265134    9361.4804    -591.3277    802.21917    1523.4396   -360.09139    500.59689    11.705341   -4002.0704 
14203000    178.63306   -4414.1004   -4107.9294   -4414.1004            0    1585.4608    18.116198    23.417163    21.843666    9266.7378    2273.9325    592.89113    1889.5588   -300.97561   -335.14651    -632.0835   -3893.6609 
14204000    173.08634   -4400.9725   -4104.3084   -4400.9725            0    346.70873    17.904214    23.384569    22.263543    9321.3523    356.79194    825.45233   -142.11809   -300.52861   -1253.4343   -118.87645    -4057.176 
14205000    174.96818   -4410.9634   -4111.0739   -4410.9634            0    2070.9496    18.084808    23.396116    21.853573    9246.5586    2077.2309     2092.879    2042.7388   -881.81781   -40.465255    360.81742   -3831.8031 
14206000    184.39034   -4419.9316   -4103.8929   -4419.9316            0    870.09669    17.939768    23.584957    22.015301    9314.8646    539.55084    737.57059    1333.1686     297.4116    189.48851   -170.97078   -3985.6922 
14207000    189.12196   -4416.6264   -4092.4778   -4416.6264            0    1271.5414    18.138765    23.162689    22.054849    9266.1812   -1057.8232    3587.3469    1285.1006   -856.62737   -804.57223    -42.70196   -3920.6445 
14208000    191.55898   -4408.1052   -4079.7796   -4408.1052            0    1140.4373    17.998236    23.551316    21.872277    9271.2678     1073.224    250.67657    2097.4113   -570.80671    320.17119    532.23976   -3925.5789 
14209000    181.61375   -4400.6794   -4089.3997   -4400.6794            0    2524.9614    17.919873    23.320251    22.063881    9220.4064    2182.6936    2437.2255    2954.9652     795.0354   -62.663935    534.24016   -3749.8677 
14210000    192.79722   -4397.1236   -4066.6757   -4397.1236            0     2220.224    17.931641    23.462179    21.943072    9231.7874     2838.336    2075.6616    1746.6744    -284.1293   -542.30887   -562.47438   -3767.7533 
14211000    186.97685   -4419.3152   -4098.8433   -4419.3152            0    1711.7993    18.129043    23.256132    21.948785    9253.8582      1713.43    2429.8175    992.15032   -91.122123    107.05642   -248.26033   -3867.8222 
14212000    183.17126   -4406.0632   -4092.1139   -4406.0632            0    1898.5917    17.840647    23.487447    22.143887    9278.9808    3091.1754    1654.1769    950.42295   -1307.1783     427.0518    228.10336   -3835.1881 
14213000    188.32633   -4399.7436   -4076.9587   -4399.7436            0    2286.7438    18.226682    23.191916    21.849498    9236.0381    1532.2578    3411.6008    1916.3727     585.5249   -271.41293    139.89766   -3768.9385 
14214000    180.80083    -4408.784   -4098.8975    -4408.784            0    1308.3387    17.943295    23.349991    22.213896     9307.084    1584.0386    2058.3191    282.65844    93.606354    198.66923    425.90878   -3921.3111 
14215000    176.21787   -4432.7184    -4130.687   -4432.7184            0    1173.0632    18.022852    23.489851    22.012542    9319.1002    1863.2231    404.19889    1251.7677   -568.44078   -321.94761   -198.58034   -3971.2565 
14216000    176.24323   -4404.9722   -4102.8974   -4404.9722            0    1103.2094    18.113611    23.598959    21.695419    9273.9745    1080.8731   0.75534778    2227.9997    -273.3064    186.38162    82.781708   -3953.6867 
14217000    176.20656   -4414.3023   -4112.2903   -4414.3023            0    1160.2891     18.09726    23.318383      22.0874    9320.8573    1268.5099    2123.7841    88.573313   -38.621484    294.87576    142.19354   -3954.5662 
14218000    176.90953   -4385.4325   -4082.2156   -4385.4325            0    649.56504    18.032602    23.462598    22.081039    9342.3042     1021.485    846.57082    80.639256    69.863324   -790.24872   -709.60193   -3993.7137 
14219000    186.21107   -4393.8658   -4074.7064   -4393.8658            0    1387.0521    18.050471    23.548845    21.901906    9309.7937    937.63933    959.64447    2263.8726   -761.49947   -399.26339    387.27837   -3886.3811 
14220000    179.67291   -4414.8708   -4106.9176   -4414.8708            0    1786.5707    17.915546    23.182286    22.358956    9286.1953    1991.6362    2230.9436    1137.1324   -75.449128   -5.0801738   -64.363877    -3864.963 
14221000    181.28025   -4398.7806   -4088.0724   -4398.7806            0    2690.5829    18.067971    23.513969    21.737878     9235.331    2934.7995    3280.7977    1856.1516    65.146308   -262.38138   -66.211832   -3725.6837 
14222000    182.73354   -4416.9044   -4103.7054   -4416.9044            0    1841.7284    17.978153    23.324375    22.124812    9277.5792    1828.2045    2549.8636    1147.1172   -525.12602   -776.63623    305.98456   -3854.5122 
14223000    177.09343   -4399.7784   -4096.2463   -4399.7784            0    1422.7002    18.050244     23.32854    22.008265    9267.3687    2094.8189    281.51484    1891.7669   -1062.4682   -249.25595    37.514302   -3903.9612 
14224000    181.56445   -4403.0617   -4091.8664   -4403.0617            0    2048.1297    17.931201    23.493926    21.939756    9242.6557    1911.5989    2762.5779    1470.2123   -382.34273   -50.976001    212.49401   -3815.7895 
14225000    179.31866   -4407.8431    -4100.497   -4407.8431            0    1890.2321    17.961405    23.227436    22.209775    9265.8603    2985.8466     1877.645    807.20489    52.173337    30.562474    -47.15325   -3845.0642 
14226000    185.12139   -4403.8616   -4086.5699   -4403.8616            0    1317.4612    18.137729    23.518566     21.77038    9286.6645    466.06405   -171.52175    3657.8414    894.40618    143.97667     656.0693   -3908.1376 
14227000    191.67421   -4378.9832   -4050.4602   -4378.9832            0    1909.3423    18.001744    23.429163     21.99252    9275.6928    1727.6288    2376.1428    1624.2552    164.95509   -186.12199    1233.5602   -3792.1711 
14228000     185.0535   -4386.5566   -4069.3812   -4386.5566            0    2344.4057    18.058009    23.300623    22.005335    9259.0281    2818.3111    2981.2833    1233.6228    256.77861     219.1725    -481.3575   -3752.8081 
14229000    194.80147   -4413.6879   -4079.8048   -4413.6879            0    2291.8075    17.913339    23.359539    22.168718     9276.441    3189.7849    925.90952     2759.728    632.06733    534.19836   -257.05536   -3769.7522 
14230000    188.14487   -4387.2389    -4064.765   -4387.2389            0    1553.8144    18.067508    23.582342    21.850653    9309.9986    509.22355    1784.7429    2367.4766    316.55306    156.87768   -485.65685   -3853.7931 
14231000    185.85199   -4393.5651   -4075.0212   -4393.5651            0     1662.752    18.076278    23.287055    22.180907    9336.9034    1556.8551     3508.424    -77.02307    293.48351   -105.94776    1300.3546   -3848.6057 
14232000    184.42022   -4403.4743   -4087.3844   -4403.4743            0    2637.0865    17.876872    23.514323    21.988731    9243.2387    3212.6295    3064.2973    1634.3325   -521.83253   -610.36482    -99.57605   -3731.8968 
14233000    175.65111   -4401.0774   -4100.0174   -4401.0774            0     1127.896    18.204856    23.223782    21.960713    9284.6734     785.3451    1056.1038     1542.239   -436.28674    -379.2932    171.28539   -3947.2919 
14234000    176.55851   -4377.6629   -4075.0476   -4377.6629            0    87.961061    17.998006     23.57817    22.062923    9362.6231     221.7107     297.7679   -255.59542    349.54081    143.48356    62.620131    -4063.037 
14235000    190.25409   -4431.7158   -4105.6269   -4431.7158            0    1565.1587    18.092645    23.460363    21.835285    9268.2058    381.78724    1689.3028    2624.3862    793.01759    602.97802     2.825662   -3894.0686 
14236000    182.22097   -4407.8025    -4095.482   -4407.8025            0    2466.8714    17.995469    23.280241    22.068754    9245.4585     3083.753    2716.4145    1600.4465   -154.34961   -253.87462    722.38273   -3762.8601 
14237000    183.56456    -4406.234   -4091.6106    -4406.234            0    1342.5017    17.838988     23.52303    22.131032    9286.7799     1918.417    1457.1819    651.90622    416.47975    95.969854   -265.77836   -3909.7847 
14238000    183.00985   -4392.2812   -4078.6085   -4392.2812            0    1827.7851    18.212831    23.276031    21.889919    9279.6271    2766.5947    1992.5799    724.18076    365.71708    256.21093   -65.875836   -3831.2474 
14239000    178.90995   -4395.8564   -4089.2108   -4395.8564            0    1392.3871    17.853662    23.501001    22.123862    9282.7065    1981.8595    1750.4686     444.8332    659.20782    -842.1836   -522.05584   -3900.7112 
14240000    180.50945   -4394.1946   -4084.8076   -4394.1946            0    579.99631    18.230724    23.323749    21.952865    9334.5523   -1124.4799    1934.9962    929.47262    201.49217    222.27205    706.54935   -4005.8499 
14241000    183.43258   -4423.4701   -4109.0729   -4423.4701            0    1873.4445    17.928624    23.456894    21.992115    9248.7803    1095.7063    1661.3289    2863.2982   -667.20145   -234.14043   -161.09459   -3856.3753 
14242000    173.09659   -4381.2324   -4084.5508   -4381.2324            0    2766.3782    17.987609    23.231317    22.103352    9236.4569    2222.2882     4092.043    1984.8033   -405.96854   -1012.0737   -317.01918   -3711.9079 
14243000     189.7459   -4401.1765   -4075.9585   -4401.1765            0    1095.3246    18.072697    23.375538    22.015191    9300.5161    3.3404381    1778.5887    1504.0448   -31.875561   -404.75195    -524.4581   -3927.3904 
14244000    184.72285   -4394.8426    -4078.234   -4394.8426            0    1304.7535    17.884715    23.564221    22.121875    9323.0292    1913.6833    558.43614     1442.141    574.84761    188.81167   -19.775413   -3900.8308 
14245000    187.60737   -4391.6069   -4070.0542   -4391.6069            0    779.50145    18.260698    23.261587    21.994184    9342.5316    954.82879    421.48754    962.18801   -120.23456    551.39715   -306.33079   -3963.8462 
14246000    180.35584   -4404.5611   -4095.4373   -4404.5611            0    261.85317    17.987775    23.504786    22.082232    9336.3411    133.27133    1223.3988   -571.11062   -264.04172    243.25832   -462.38069   -4059.7831 
14247000    181.79326   -4409.5033   -4097.9159   -4409.5033            0     904.7319    18.087874    23.426141    22.050333    9343.3675    1273.1805    1393.2085    47.806631    261.69342    60.570839    864.02364    -3974.634 
14248000    188.63078   -4390.2032   -4066.8965   -4390.2032            0    1381.4623     18.22474    23.363433    21.914601    9331.0729    565.57131    1240.4152    2338.4005     582.6384    704.89952     596.4974   -3878.9015 
14249000    182.55302   -4418.1495   -4105.2599   -4418.1495            0    2456.2105    17.848478    23.442008    22.057473    9228.9385    1858.0589    3114.4644    2396.1083    601.27749   -765.38606   -477.49138   -3774.6672 
14250000     195.0907   -4394.3421   -4059.9633   -4394.3421            0    1468.3601    18.118884    23.240646    21.989975    9259.8592    1288.8149    1617.6897    1498.5757    317.61113   -308.86498   -108.04897   -3861.6678 
Loop time of 343.103 on 64 procs for 250000 steps with 864 atoms

Performance: 125.910 ns/day, 0.191 hours/ns, 728.643 timesteps/s
195.4% CPU use with 32 MPI tasks x 2 OpenMP threads

MPI task timing breakdown:
Section |  min time  |  avg time  |  max time  |%varavg| %total
---------------------------------------------------------------
Pair    | 16.685     | 25.049     | 33.853     | 104.7 |  7.30
Bond    | 0.98546    | 1.2275     | 2.0103     |  19.0 |  0.36
Kspace  | 171.45     | 180.92     | 191.3      |  41.8 | 52.73
Neigh   | 1.0073     | 1.1229     | 1.2883     |   7.1 |  0.33
Comm    | 49.084     | 55.021     | 58.451     |  31.7 | 16.04
Output  | 0.56909    | 0.56941    | 0.57088    |   0.0 |  0.17
Modify  | 62.222     | 64.691     | 68.643     |  20.3 | 18.85
Other   |            | 14.5       |            |       |  4.23

Nlocal:        27.0000 ave          38 max          17 min
Histogram: 5 3 3 5 2 3 2 1 3 5
Nghost:        2134.62 ave        2261 max        2022 min
Histogram: 9 4 3 0 0 0 1 6 5 4
Neighs:        6563.09 ave        9209 max        3970 min
Histogram: 2 3 5 6 0 4 3 0 5 4

Total # of neighbors = 210019
Ave neighs/atom = 243.07755
Ave special neighs/atom = 2.0000000
Neighbor list builds = 3873
Dangerous builds = 0

unfix		3
unfix		2
unfix		1

write_data	data.final.${pid} nocoeff
write_data	data.final.0 nocoeff
System init for write_data ...
PPPM initialization ...
  extracting TIP4P info from pair style
  using 12-bit tables for long-range coulomb (../kspace.cpp:340)
  G vector (1/distance) = 0.37183804
  grid = 24 27 25
  stencil order = 5
  estimated absolute RMS force accuracy = 0.0031381637
  estimated relative force accuracy = 9.4504867e-06
  using double precision FFTW3
  3d grid and FFT values/proc = 4410 672
Last active /omp style is kspace_style pppm/tip4p/omp

write_restart   restart.lmp.${pid}
write_restart   restart.lmp.0
System init for write_restart ...
PPPM initialization ...
  extracting TIP4P info from pair style
  using 12-bit tables for long-range coulomb (../kspace.cpp:340)
  G vector (1/distance) = 0.37183804
  grid = 24 27 25
  stencil order = 5
  estimated absolute RMS force accuracy = 0.0031381637
  estimated relative force accuracy = 9.4504867e-06
  using double precision FFTW3
  3d grid and FFT values/proc = 4410 672
Last active /omp style is kspace_style pppm/tip4p/omp
Total wall time: 0:05:43
