#include		in.partitions
include		in.temp
variable        temperature equal 190.77
variable	tempDamp equal 100.0
include		in.pressure
variable        pressure equal 8315.3
variable        pressureDamp equal 1000.0 # This is 1 ps
include		in.seed
variable        seed equal 745823

units		real
atom_style	full
read_restart    restart.lmp.${pid}
read_restart    restart.lmp.1
Reading restart file ...
  restart file = 30 Jul 2021, LAMMPS = 30 Jul 2021
  restoring atom style full from restart
  triclinic box = (-3.1111421 -0.17158894 0.0016199561) to (14.721141 22.751588 19.228378) with tilt (-0.16530208 -6.1950432 -0.024302872)
  2 by 4 by 2 MPI processor grid
  restoring pair style lj/cut/tip4p/long/omp from restart
  restoring bond style harmonic/omp from restart
  restoring angle style harmonic/omp from restart
  1008 atoms
  672 bonds
  336 angles
Finding 1-2 1-3 1-4 neighbors ...
  special bond factors lj:    0        0        0       
  special bond factors coul:  0        0        0       
     2 = max # of 1-2 neighbors
     1 = max # of 1-3 neighbors
     1 = max # of 1-4 neighbors
     2 = max # of special neighbors
  special bonds CPU = 0.001 seconds
  read_restart CPU = 0.005 seconds

include 	in.setup
variable	out_freq equal 1000
variable	out_freq2 equal 10000
variable	out_freq3 equal 1000

timestep	2.0

neigh_modify    delay 7 every 1

include		in.tip4p
# This is TIP4P/Ice

# create groups ###
group ox type 2
336 atoms in group ox
group hy type 1
672 atoms in group hy

# set charges - beside manually ###
set group ox charge -1.1794
Setting atom values ...
  336 settings made for charge
set group hy charge 0.5897
Setting atom values ...
  672 settings made for charge

# ### TIP3P Potential Parameters ###
pair_style lj/cut/tip4p/long/omp 2 1 1 1 0.1577 8.5
pair_coeff 1 1*2 0.000 0.000
pair_coeff 2 2 0.21084 3.1668
bond_style  harmonic
bond_coeff  1 450 0.9572
angle_style harmonic
angle_coeff 1 55 104.52
kspace_style pppm/tip4p/omp 1.0e-5
pair_modify tail yes

thermo          ${out_freq}
thermo          1000
thermo_style    custom step temp pe etotal epair emol press lx ly lz vol pxx pyy pzz pxy pxz pyz enthalpy

restart 	${out_freq3} restart.lmp.${pid} restart2.lmp.${pid}
restart 	1000 restart.lmp.${pid} restart2.lmp.${pid}
restart 	1000 restart.lmp.1 restart2.lmp.${pid}
restart 	1000 restart.lmp.1 restart2.lmp.1


include         in.dump
dump            myDump all atom ${out_freq2} dump.water.${pid}
dump            myDump all atom 10000 dump.water.${pid}
dump            myDump all atom 10000 dump.water.1
dump            myDump2 all dcd ${out_freq2} dump.dcd
dump            myDump2 all dcd 10000 dump.dcd
dump_modify     myDump append yes
dump_modify     myDump2 append yes


variable natoms 	equal  "count(all)"                        # NUMBER ATOMS
variable H      	equal  "enthalpy/v_natoms"                 # ENTHALPY-per-atom
variable Vol      	equal  "vol/v_natoms"                 # volume-per-atom
fix AVG all 		ave/time ${out_freq} 1 ${out_freq} v_Vol v_H file vol_enthalpy.dat
fix AVG all 		ave/time 1000 1 ${out_freq} v_Vol v_H file vol_enthalpy.dat
fix AVG all 		ave/time 1000 1 1000 v_Vol v_H file vol_enthalpy.dat



fix 		1 all shake 1e-6 200 0 b 1 a 1
       0 = # of size 2 clusters
       0 = # of size 3 clusters
       0 = # of size 4 clusters
     336 = # of frozen angles
  find clusters CPU = 0.000 seconds
fix             2 all nph tri ${pressure} ${pressure} ${pressureDamp}
fix             2 all nph tri 8315.3 ${pressure} ${pressureDamp}
fix             2 all nph tri 8315.3 8315.3 ${pressureDamp}
fix             2 all nph tri 8315.3 8315.3 1000
fix             3 all temp/csvr ${temperature} ${temperature} ${tempDamp} ${seed}
fix             3 all temp/csvr 190.77 ${temperature} ${tempDamp} ${seed}
fix             3 all temp/csvr 190.77 190.77 ${tempDamp} ${seed}
fix             3 all temp/csvr 190.77 190.77 100 ${seed}
fix             3 all temp/csvr 190.77 190.77 100 745823


run             250000
PPPM initialization ...
  extracting TIP4P info from pair style
  using 12-bit tables for long-range coulomb (../kspace.cpp:340)
  G vector (1/distance) = 0.37937973
  grid = 24 27 32
  stencil order = 5
  estimated absolute RMS force accuracy = 0.0024451239
  estimated relative force accuracy = 7.363418e-06
  using double precision FFTW3
  3d grid and FFT values/proc = 7875 1344
Last active /omp style is kspace_style pppm/tip4p/omp
Neighbor list info ...
  update every 1 steps, delay 7 steps, check yes
  max neighbors/atom: 2000, page size: 100000
  master list distance cutoff = 10.8154
  ghost atom cutoff = 10.8154
  binsize = 5.4077, bins = 5 5 4
  1 neighbor lists, perpetual/occasional/extra = 1 0 0
  (1) pair lj/cut/tip4p/long/omp, perpetual
      attributes: half, newton on, omp
      pair build: half/bin/newton/tri/omp
      stencil: half/bin/3d/tri
      bin: standard
Per MPI rank memory allocation (min/avg/max) = 12.45 | 12.47 | 12.48 Mbytes
Step Temp PotEng TotEng E_pair E_mol Press Lx Ly Lz Volume Pxx Pyy Pzz Pxy Pxz Pyz Enthalpy 
14500000      198.002   -4964.7106   -4568.6822   -4964.7106            0    8265.8119    17.832283    22.923177    19.226758    7859.3716    8988.1445    8220.4193    7588.8721    1751.5869    98.506723    1159.2653   -3621.2476 
14501000    194.26322   -4990.3616   -4601.8112   -4990.3616            0    9270.9273     17.74118    22.948917    19.125515    7786.7789    10519.941    8134.8692    9157.9715   -304.98161   -956.03408   -405.32087   -3548.9845 
14502000    195.20911   -5000.3749   -4609.9325   -5000.3749            0    6869.6586    17.839188    22.900295     19.29876    7883.9806    7187.3089    6710.4003    6711.2665   -407.59384   -520.44584   -2539.2596   -3820.0608 
14503000    185.46516    -4985.775   -4614.8218    -4985.775            0    9440.8086    17.773006    22.832268    19.286695    7826.5027    8670.0121    8761.5162    10890.897   -230.27421     48.77492   -99.592145   -3537.2336 
14504000    195.61528     -5027.17   -4635.9153     -5027.17            0    8092.5828    17.787526     22.88851    19.220389    7825.1962     9544.522    6747.3881    7985.8383    1021.0636   -1515.8623    969.68658   -3712.3699 
14505000    178.48385   -4963.0201   -4606.0303   -4963.0201            0     8307.574    18.046334    22.754139    19.126325    7853.8197    6503.8681    9095.2156    9323.6382    1570.0342     768.6636    621.95184   -3654.4816 
14506000     194.1906   -4973.2736   -4584.8684   -4973.2736            0    9955.8451    17.988459     22.56032    19.228618    7803.4613    9098.6536    10570.332     10198.55   -1644.2128    320.21474    42.149378   -3451.8386 
14507000    185.08631   -4978.1319   -4607.9364   -4978.1319            0    7632.7122    17.772055    22.870979    19.294983    7842.7221    8650.2552    7688.7536    6559.1278    40.917831   -511.76275   -459.28594   -3734.9216 
14508000    186.46151   -4973.6426   -4600.6965   -4973.6426            0    8412.5911    17.748032    22.984614     19.23462    7846.4106     10141.47     7095.351    8000.9523    1124.4253    579.83028     574.8894   -3638.0281 
14509000    198.85066   -4978.8339    -4581.108   -4978.8339            0    9284.9988    17.755649    22.951302    19.215251    7830.5078    10790.773    9436.9776     7627.246   -647.99881    888.02977    296.80514   -3520.7618 
14510000    189.33916   -4972.8988   -4594.1971   -4972.8988            0    9570.7598    17.939392    22.721591    19.245305    7844.6085    9221.5756      10818.9    8671.8035   -1501.9943    1369.3502   -127.28101   -3499.2489 
14511000    190.02523   -4994.0451   -4613.9711   -4994.0451            0    8804.9415     17.99027    22.673251    19.211683    7836.4051    9231.2825    8732.3859    8451.1561   -1167.3329   -79.064179   -375.67205   -3607.6902 
14512000    197.59682   -4972.7934   -4577.5753   -4972.7934            0    8290.4083    18.010864    22.653924    19.309574    7878.6295    7669.0461    8309.4869     8892.692    -1162.564    932.17743   -1080.3907   -3624.9931 
14513000    198.01214   -4969.1686   -4573.1199   -4969.1686            0    8770.0174    17.935758    22.700369     19.23769    7832.5934    7512.6878    9569.0062    9228.3581    618.66753    1152.5799   -864.10794   -3571.3178 
14514000     193.6343   -4998.2661   -4610.9736   -4998.2661            0    8030.7462    18.028174    22.708277    19.197724    7859.3326    7906.6479    9073.0621    7112.5284     945.4357    1157.3208    1671.4356    -3690.487 
14515000    192.42984   -4986.1639   -4601.2805   -4986.1639            0     9059.448    17.918675    22.810481    19.130502    7819.2788    8543.0876    9182.1973    9453.0591   -691.28121    437.24021   -973.94287   -3568.1758 
14516000    188.06759    -4974.941   -4598.7825    -4974.941            0     9501.068    17.924859    22.711384    19.228098    7827.7273      10330.4    9252.5173    8920.2873    594.68029    941.96987    898.38375   -3514.1466 
14517000    186.46466    -4973.674   -4600.7216    -4973.674            0     9699.037    17.897409    22.703543    19.246574    7820.5488    8713.5672    10034.872    10348.672    522.56453    791.98656   -14.277816    -3494.501 
14518000    180.25318   -4985.0562   -4624.5276   -4985.0562            0    7204.5798    17.861381    23.028611    19.102149    7857.1492    8751.6313    5798.0232    7064.0849   -392.37856    261.89703   -1756.0509   -3798.9658 
14519000    185.36786   -4977.0734   -4606.3148   -4977.0734            0    7279.0027    17.850369     22.89657    19.240157    7863.6876    7783.2774    7312.5672    6741.1635    515.19617    444.30783     686.6653    -3771.531 
14520000    190.16601   -4988.0741   -4607.7186   -4988.0741            0    9025.4154    17.877564    22.891307    19.129237    7828.4646    10190.741    8124.0338    8761.4714   -50.035843    451.30464   -110.59556   -3577.2858 
14521000    190.56109   -5007.0286   -4625.8829   -5007.0286            0    7777.6815    17.984264    22.714398    19.234479    7857.3181    8322.9211    7538.7066    7471.4168   -1068.2623   -715.63005   -217.54769   -3734.6311 
14522000    190.60321   -4983.4542   -4602.2242   -4983.4542            0    7488.6718    17.941999    22.709834    19.296042     7862.362    6405.9649    8815.8209    7244.2295   -868.89577   -109.76585   -703.64787   -3743.5395 
14523000    193.82554   -5011.7639   -4624.0888   -5011.7639            0    9327.7486    17.831742    22.773224    19.211296    7801.4435    8793.1968    9263.3419    9926.7072   -275.25209   -939.93086   -1942.9794   -3562.8144 
14524000    199.34705   -4977.1932   -4578.4745   -4977.1932            0     5965.581    17.937483    22.874101    19.261937    7903.2457    6453.7884    6073.6646    5369.2902    518.66484   -1281.6362   -75.854576   -3890.8773 
14525000    193.37333   -4961.5578   -4574.7873   -4961.5578            0    9382.1925    17.981798    22.649515    19.225725    7830.2343    9515.8412    9379.2988    9251.4376    23.939537   -1335.6833    611.82981    -3503.379 
14526000    193.89985   -4977.2317   -4589.4081   -4977.2317            0    7004.5865    18.081451    22.622861    19.216116    7860.4322    7362.6494    6139.0824    7512.0277   -829.47195   -1075.2651   -413.88639   -3786.4279 
14527000     195.8945   -4971.5827   -4579.7695   -4971.5827            0    7117.8981    17.827275    22.848147    19.307279     7864.245    8220.0361    6372.0417    6761.6166    37.943555   -470.62616   -1963.3297   -3763.4039 
14528000    187.89406   -4993.3275   -4617.5161   -4993.3275            0    7885.7505    17.754469    22.948544    19.255105    7845.2847    7796.8162    8077.6377    7782.7977    37.197479   -1127.5004   -1349.1574   -3715.2646 
14529000    189.98663   -4980.4382   -4600.4415   -4980.4382            0     7533.541    17.752321    23.000634    19.211781    7844.4517    8861.1552    6623.1855    7116.2822   -417.70922   -789.34602   -817.71445   -3738.5797 
14530000    192.61709   -4972.4859    -4587.228   -4972.4859            0    7754.7762    17.974974    22.720451    19.275055    7871.9231    8035.3506    8171.2533    7057.7247   -678.60293   -54.746966    763.41201   -3696.9492 
14531000    196.21414   -4971.8751   -4579.4225   -4971.8751            0     7300.376    17.988974    22.837974    19.207217    7890.9338    8299.7959    7882.3416    5718.9906   -1547.1835    159.89528    532.53707   -3739.2867 
14532000    194.22713   -4979.5753    -4591.097   -4979.5753            0    8027.6787    17.854954    22.909251    19.208689     7857.192    7723.6793    8520.1982    7839.1584   -916.20188    114.77187    760.31928   -3671.2127 
14533000    195.84399   -4993.6039   -4601.8917   -4993.6039            0    7567.5458    17.887713    22.749864    19.255937    7836.0698    8005.8817    7250.6888    7446.0669   -385.75566   -1169.1757   -550.74462   -3737.0647 
14534000     192.5083   -5005.0852   -4620.0448   -5005.0852            0    9873.4357     17.81221     22.75273     19.21668    7788.0672    11799.953    8843.1719     8977.182    248.72662   -1792.5461   -1164.8521   -3498.6104 
14535000    192.33099    -5015.795   -4631.1092    -5015.795            0    7689.4694    17.893171    22.791298    19.232006    7842.9774    7769.7764    6911.5309    8387.1007    1317.9307   -1130.0262   -318.98113   -3751.5741 
14536000    189.75156   -5005.7496    -4626.223   -5005.7496            0    8821.1083     18.06106    22.631514    19.196531    7846.5651     9066.395    8201.6511     9195.279     595.4583   -1343.8994   -204.39284   -3616.7874 
14537000    192.15175   -4991.9649   -4607.6376   -4991.9649            0    6894.8136    18.005192    22.775956    19.248955    7893.7164    6011.8056    7208.8669    7463.7682   -810.38077    55.547925   -451.58607   -3813.8946 
14538000    184.25239   -4975.1533   -4606.6257   -4975.1533            0    8945.6012    17.855803    22.714905    19.310639    7832.2575    10326.625    8043.7558    8466.4228   -829.64465   -738.02219    821.13973   -3584.8105 
14539000     193.8616   -5002.6018   -4614.8546   -5002.6018            0    6013.3436    17.885081    22.869094    19.317084    7900.9886    6477.7661    5490.6872    6071.5774    -736.8467   -168.11973    -1027.062   -3921.9502 
14540000    187.93521   -4975.0263   -4599.1326   -4975.0263            0    8509.9165    17.988975    22.559898    19.305827    7834.8727    7657.7924    9474.3054    8397.6518    33.086914   -2.8604348   -1410.6834   -3626.7591 
14541000    187.46651   -4979.9741   -4605.0179   -4979.9741            0    7717.2387     18.00394    22.639415    19.284468    7860.3238    5186.3826    9177.3722    8787.9614    962.47694    408.83091    568.70304   -3720.3541 
14542000    188.47964   -4979.4934   -4602.5108   -4979.4934            0    8698.5015    17.937311    22.808699    19.107357    7817.3305    9176.5157    8540.6401    8378.3486    -717.5789    53.792663    1021.6212   -3610.8142 
14543000    195.41065   -4991.9354   -4601.0899   -4991.9354            0    6452.2736    17.862357    22.964779    19.278276    7908.0467    6022.8535    6523.8402     6810.127   -1089.2057    15.060383    1564.3498   -3856.9444 
14544000    191.52917   -5008.2833   -4625.2013   -5008.2833            0    8301.8705    17.757814    23.017556    19.111978    7811.8584    8211.4062     7540.354    9153.8512   -823.32665    213.74637   -597.24736   -3679.3863 
14545000    188.18541   -4997.6421    -4621.248   -4997.6421            0    9265.3434    17.902951    22.694639     19.23418    7814.8668    9535.9929    9565.6346    8694.4026    1264.5691   -197.34689     2733.672     -3565.26 
14546000    187.74509   -4992.0016   -4616.4882   -4992.0016            0    7948.5807    17.893112    22.746539    19.289435    7850.9228    7568.2209    7902.8149    8374.7064    244.34931   -836.39729   -477.11338   -3706.3944 
14547000     198.6448    -4995.512   -4598.1979    -4995.512            0    10164.122    17.821523    22.681412    19.253376    7782.5477    8270.6676    11630.736    10590.961   -854.71392    1203.7129   -1537.7445   -3444.5653 
14548000    191.79543   -4999.7583   -4616.1437   -4999.7583            0     9000.459    17.832206    22.664203    19.316279    7806.7266    10188.648     9152.428    7660.3008   -522.37667    204.89081   -1773.4325   -3591.4136 
14549000    201.84509   -4997.0186   -4593.3035   -4997.0186            0    7190.7555      17.8425    22.715204    19.425513     7873.083     8647.447     6849.463    6075.3566   -306.24233    564.91388    454.03582   -3767.6549 
14550000     187.5168   -4995.6619   -4620.6051   -4995.6619            0     9160.551    17.904272    22.605462    19.291451     7807.913    8066.6597    10004.394    9410.5996   -198.90695    1354.7948    638.23563   -3577.4895 
14551000    203.22815   -4963.0925   -4556.6111   -4963.0925            0    7481.8364    18.016014    22.648549    19.270029    7862.8768    7181.2628    8522.7308    6741.5157   -1619.0311   -1522.2853   -271.18567    -3698.654 
14552000    191.83266   -5001.6783   -4617.9892   -5001.6783            0    8228.3128    17.819964    22.930197    19.144377     7822.685    9373.9786    7122.8695    8188.0903    382.48982   -418.86263    885.69999   -3679.2553 
14553000    196.84486   -5022.2197   -4628.5057   -5022.2197            0    8386.7531    17.652393    23.006721    19.254016    7819.5119    10488.454    7573.6202     7098.185   -672.27583   -730.19361   -1667.4431    -3672.084 
14554000    195.52893   -4969.3335   -4578.2514   -4969.3335            0    8189.1264    17.828012    22.643966    19.442161    7848.7402    7663.6295    9083.7534    7819.9962   -572.03429    -625.9961    1133.3687   -3640.8763 
14555000    194.25925   -4979.5077   -4590.9652   -4979.5077            0    7908.3894    17.957996    22.806691    19.206434    7866.2345    6742.7526      8150.71    8831.7055   -661.03479   -215.94121   -515.36265   -3683.7072 
14556000    198.63618   -4964.0271   -4566.7302   -4964.0271            0    8768.9302    17.904707    22.951089    19.124046    7858.6924    7902.0666    9185.3294    9219.3947   -487.97616    589.39751    454.51683   -3561.7146 
14557000    182.24172   -4999.9978   -4635.4918   -4999.9978            0    8124.7171    17.866192    22.707396    19.421205    7879.0799    7915.5977    7804.8522    8653.7016    392.29365    979.69092     582.5075   -3701.8944 
14558000    195.73399   -4998.9056   -4607.4134   -4998.9056            0    8687.2712    17.862005    22.807267    19.262657     7847.289     8305.625    8562.5319    9193.6567    552.27377    175.31873   -822.59325   -3613.2016 
14559000    188.28169    -4985.451   -4608.8644    -4985.451            0    8154.5136    18.041627    22.768306    19.081223    7838.1333    6989.4084    9289.6592    8184.4732   -487.77218    1312.9314   -127.91141   -3676.7127 
14560000    187.63181   -4984.4456   -4609.1588   -4984.4456            0    8876.5582    18.013035     22.74258    19.125604    7835.0501    7306.5429    9093.6269    10229.505    255.33847    1012.1577   -823.70707   -3594.8685 
14561000    195.00164   -4977.0819   -4587.0545   -4977.0819            0    9008.3475    17.916912    22.597717    19.385271    7848.7339    8441.8076    9612.7302    8970.5046    316.38815    1714.4442   -292.26732   -3555.9074 
14562000    209.74485   -4988.6787   -4569.1631   -4988.6787            0    7596.3817    17.919444    22.696228    19.415187    7896.2302    7148.8891     8638.313    7001.9429   -103.44682    544.77272    779.34282   -3694.3758 
14563000    194.45267   -4967.4004    -4578.471   -4967.4004            0    9799.5606    17.944124    22.664619    19.215598    7814.9209    10676.055    9610.9397    9111.6876    268.79076    649.61255    1910.6063   -3461.5896 
14564000    186.15663   -4985.7867   -4613.4505   -4985.7867            0    7356.2539    17.897082    23.061189    19.029837    7854.1466     7833.314    6707.3004    7528.1473   -649.45681     545.4461    476.72521   -3770.8308 
14565000    195.81385   -5018.2391   -4626.5872   -5018.2391            0    6903.5969    17.835553    23.150384    19.049423    7865.5048    8122.1968    6330.9919     6257.602   -600.99711    901.54594    690.67403   -3834.6734 
14566000    193.71046   -4974.3066   -4586.8618   -4974.3066            0    6024.0111    17.928351    22.893986    19.285692    7915.8396    5702.5803    6431.3519    5938.1011   -185.57247    567.49465   -721.82745   -3891.4234 
14567000    188.43235   -4990.8596   -4613.9716   -4990.8596            0     8429.847    17.950096    22.698499    19.232377    7836.0441    7787.3052    8761.8418    8740.3939    230.66614    137.87102    710.33618   -3650.6031 
14568000    191.64245   -4976.3766   -4593.0681   -4976.3766            0    9445.3668    18.012741     22.49589    19.264009    7806.0204    10479.769    10002.575    7853.7568    226.47346   -538.49168   -37.032051   -3517.7811 
14569000    182.03824   -4991.4135   -4627.3145   -4991.4135            0    7540.3192    18.017183     22.73663    19.112901    7829.6002     6259.087    7187.7383    9174.1325    1975.0394   -65.599323    1192.1955   -3766.3104 
14570000    193.27247   -4987.2306   -4600.6618   -4987.2306            0    7297.4513     17.81258    22.903025    19.264617    7859.2311    6192.6579     7098.854    8600.8421    561.46261   -992.89516    222.29136   -3764.2365 
14571000    201.39514   -5002.5558   -4599.7406   -5002.5558            0      7154.52    17.762611    22.929371    19.296883    7859.3406    8068.2436    6301.2934     7094.023   -651.30368   -959.16075    454.86248   -3779.6866 
14572000    204.31166   -4965.4229   -4556.7744   -4965.4229            0    8151.5111    17.866001    22.942201    19.112594     7833.973    7885.6512    7558.1896    9010.6925   -293.55886   -2016.8838    798.66388   -3625.4605 
14573000    184.64641   -4995.1951   -4625.8795   -4995.1951            0    9960.1224    17.953924    22.723566    19.070478    7780.3198    9532.7134    9188.0832    11159.571    582.44677   -375.22815   -534.92663   -3495.7244 
14574000    184.63054   -5002.8118   -4633.5279   -5002.8118            0    8036.8768     18.06575    22.426663    19.371744    7848.5488    9134.0038    8594.0974    6382.5293    363.82707     1015.473    14.030985   -3713.6026 
14575000    191.35363   -4983.7034   -4600.9725   -4983.7034            0    11401.512    17.854453    22.635294    19.186146    7753.9042    10588.379    11356.926    12259.232    1357.7621   -372.92025   -89.308071   -3311.6583 
14576000    190.77543   -4976.0237   -4594.4493   -4976.0237            0    8975.5227    17.961125     23.00888    18.938178    7826.4934    9420.5716     7856.809    9649.1876   -421.07113     86.67615   -814.58508   -3569.9707 
14577000    180.47077   -5002.0382   -4641.0743   -5002.0382            0    8238.9472     17.98096    22.859038     19.06252    7835.2191    7637.3717    7243.2572    9836.2126    41.101955    738.06085   -33.125058   -3699.6211 
14578000    207.37815   -4979.9211   -4565.1392   -4979.9211            0    9800.3039    17.930257    22.519174    19.351458    7813.6266    8520.5987    10269.992    10610.321     656.4043     186.1321    770.86545    -3448.358 
14579000    193.29583   -5002.4948   -4615.8792   -5002.4948            0    9745.2935    17.896763    22.586897    19.265199    7787.6164    8776.7108    11050.932    9408.2375    1154.0771    1407.7782    801.95598   -3509.0634 
14580000    197.95617   -4981.7594   -4585.8226   -4981.7594            0    7450.9601     18.07698    22.789704    19.109542    7872.5396    5933.4916    8238.5711    8180.8176    532.14875    366.19374   -1427.4613   -3730.3562 
14581000     188.2638   -4977.1304   -4600.5796   -4977.1304            0    7386.3914     18.00006    22.900323     19.12014    7881.4592    8420.9738    6980.6696    6757.5309    581.14085    401.58377    1393.3193   -3751.5656 
14582000    191.02515   -5015.6413   -4633.5674   -5015.6413            0    6185.6617     18.02667    22.681314     19.29434     7888.849    6968.4838    5795.4756    5793.0259   -713.34539    123.97372   -746.10663   -3921.9023 
14583000    195.81243   -4987.6315   -4595.9824   -4987.6315            0    8343.8545    17.917653    22.745888    19.253963    7847.0092    9915.8839    8315.3562    6800.3233   -1802.6885    705.62464    238.56796   -3641.1069 
14584000    201.16035   -4979.8238   -4577.4782   -4979.8238            0    6996.5669    17.901094    23.068111    19.091699    7883.8105    7347.4054    6082.3863     7559.909    26.852245   -198.91297    227.09739   -3773.0319 
14585000    187.07297   -4992.0701    -4617.901   -4992.0701            0    8114.3391    17.988003    22.906459    19.048441    7848.7476    7413.7713    8613.4536    8315.7924    476.57198    350.39443   -95.645212   -3689.0856 
14586000    187.54269   -4987.5956    -4612.487   -4987.5956            0    7320.2191    17.930506    22.831494    19.159724    7843.6124    6986.3998    6848.3952    8125.8623   -418.18902   -4.3116237   -1157.3655   -3775.1195 
14587000    187.46605   -4984.4581   -4609.5028   -4984.4581            0     9831.615    17.974078     22.56466    19.225849    7797.5998    8558.7524    10205.263     10730.83   -1283.3026   -200.63048   -1815.5912   -3491.4516 
14588000    187.78721   -4988.0815   -4612.4839   -4988.0815            0     6414.245    17.960994    22.699735    19.386475    7904.0558     4845.664    7322.0476    7075.0235   -89.187585    360.91854   -452.46252   -3873.0975 
14589000    181.66296   -4999.7238   -4636.3754   -4999.7238            0    8734.5205    17.850477    22.720825    19.254645     7809.252     9121.314    9209.6496    7872.5978     2051.588    1035.7769    1438.0519   -3641.6015 
14590000    182.31231   -4973.6132   -4608.9661   -4973.6132            0    9689.3809    17.787719    22.933581    19.105108    7793.6632     10174.01    9556.2651     9337.868    992.51586    247.18847    1491.5332    -3507.646 
14591000    190.48073    -4995.536    -4614.551    -4995.536            0    8792.1892    17.766447     22.88822    19.190108    7803.5109    9896.3267    8006.5053    8473.7355     346.3989    836.26887   -486.04966   -3613.9453 
14592000    190.12944   -4983.4885   -4603.2062   -4983.4885            0    10214.464    17.870243    22.688633     19.13679    7759.0379    7218.8027    11738.019    11686.571   -385.62063    402.13907   -1162.1913   -3447.3618 
14593000    204.68598    -4997.215   -4587.8177    -4997.215            0    8423.0935    17.891908    22.775643    19.214085    7829.7339    8973.2904    7463.1852    8832.8049    886.56641   -1027.0194    402.36679   -3625.9962 
14594000    194.75336   -5004.4036   -4614.8728   -5004.4036            0     8023.425    17.960381    22.715029    19.292394     7870.729    7566.0799    8544.8791    7959.3159    855.88044   -118.32374    978.89913   -3693.8918 
14595000    184.45738   -4997.7096   -4628.7721   -4997.7096            0     11068.62    17.815472    22.690259    19.192486    7758.3262    11394.755     11476.82    10334.286   -1080.7292   -136.56146    253.03724   -3376.3884 
14596000    192.84323   -4978.8331   -4593.1228   -4978.8331            0    7814.3892    17.901854    22.806412    19.257319    7862.3219     7660.023    8188.4276    7594.7169   -1365.8289    252.53536     1156.422   -3697.0944 
14597000    185.92211   -4976.1575   -4604.2903   -4976.1575            0    9224.2081    17.847987    22.851511    19.152006    7811.2117    9019.4803    9656.1687    8996.9752    1561.9503   -392.18927    723.27698   -3553.4822 
14598000    184.04031   -4973.1344    -4605.031   -4973.1344            0    9516.5388     17.72512    22.985987    19.174395    7812.2115     10781.25    9285.6232     8482.743    786.84832    516.82295   -560.47821   -3520.7823 
14599000    193.34117   -5001.5608   -4614.8546   -5001.5608            0     8315.493    17.850197    22.766639     19.28573    7837.5082    8557.4285     9216.671    7172.3794    394.56573    773.49843   -1513.4933    -3664.377 
14600000    185.88768   -4984.5104    -4612.712   -4984.5104            0    8970.5332    17.947721    22.533649    19.416672    7852.6385    9920.4891    10038.875    6952.2356    702.97822     2073.165   -1351.2254   -3585.3826 
14601000    185.75426   -5009.9635    -4638.432   -5009.9635            0    8582.1388    17.953716    22.627179    19.250882    7820.5158    7491.0959    9546.8884    8708.4321   -927.40849    661.30325   -1492.7958    -3659.603 
14602000    185.91716   -4971.2973     -4599.44   -4971.2973            0    7057.6407    17.930665     23.00759    19.062113    7863.9101    6898.7071    5569.2711    8704.9439    743.03736   -791.59868   -301.27615   -3790.0199 
14603000    200.69823   -4996.3301   -4594.9088   -4996.3301            0    8011.3815    17.832768    23.027219    19.132666      7856.62    9699.1953    6468.3257    7866.6234    1454.5135   -123.01041    267.87563   -3676.9588 
14604000    185.46264   -4965.5611   -4594.6129   -4965.5611            0    9221.2665    17.809832    22.653614    19.415783    7833.4348    8871.6544    10562.524    8229.6215   -24.570458    488.05523   -251.67099   -3541.1513 
14605000    202.94816   -4977.3423   -4571.4209   -4977.3423            0    8037.7343    17.750944    22.915316    19.314945    7856.7109    8003.2054    6887.6408    9222.3568    543.02576   -1179.5671    1305.7574   -3650.4406 
14606000    181.25206   -4984.4521   -4621.9256   -4984.4521            0    9356.9982    17.772956    22.940246    19.124063    7797.1859    8432.2994    8631.3847     11007.31   -788.00261   -1353.7614    1610.5085   -3557.9043 
14607000     187.3174   -4975.0018   -4600.3439   -4975.0018            0    8342.6514    17.915427    22.733677    19.298166    7859.8252    7556.5627    9025.1381    8446.2536   -1186.7537   -541.49568   -1133.8875   -3644.0467 
14608000    187.40775   -4961.7574   -4586.9188   -4961.7574            0    8987.7091    17.954266    22.602464    19.260821    7816.2464    9500.4719    9858.2874    7604.3681    2450.5953    301.46587    666.95365   -3562.3924 
14609000    182.94711   -4986.9996   -4621.0828   -4986.9996            0    7098.9764    17.843661    22.969861    19.244709    7887.7599    8095.6571    5634.1421      7567.13    146.09141   -554.54349   -984.80718   -3804.4529 
14610000    192.14939    -4968.393   -4584.0705    -4968.393            0    8176.6648    17.726474    22.964321    19.225479    7826.2398    8266.4806    8122.9713    8140.5427    -1636.248    704.50404   -275.74355   -3650.8049 
14611000    197.30785   -4969.7758   -4575.1357   -4969.7758            0    7816.7562    17.956784    22.718613    19.249331    7852.8266    8542.2863    7270.2584    7637.7238   -212.51302    236.02758   -1127.3293   -3679.9184 
14612000    190.62125   -4987.4005   -4606.1345   -4987.4005            0     6955.628    17.919161    23.024081    19.123848    7889.9678    7923.9343     5827.594    7115.3557   -1442.9366   -1009.3668    119.50036   -3805.7706 
14613000    193.92402   -5005.5229   -4617.6509   -5005.5229            0    7692.1494    17.856188    22.996425    19.100128    7843.0566     8251.735    6878.9178    7945.7955    181.68586   -159.99424    32.565155   -3737.8002 
14614000    188.90021   -4978.8528    -4601.029   -4978.8528            0    6908.7289    17.803013    22.993059    19.251162    7880.3805    7525.5406     6201.303    6999.3431    240.96803    18.310516   -691.14546   -3807.0277 
14615000    196.80296   -5001.2645   -4607.6342   -5001.2645            0    8547.8578    17.976105    22.768865    19.200733     7858.774    9648.0491    7408.4889    8587.0355   -118.21492    659.46197   -1781.6769   -3627.9458 
14616000    183.85381   -4995.2874    -4627.557   -4995.2874            0    9276.3581    17.959204     22.54444    19.287679    7809.1994    8275.3852    9652.9788    9900.7102   -31.038645    271.35115    606.44923   -3571.0804 
14617000    188.49342   -5008.7058   -4631.6957   -5008.7058            0    7145.3442    18.028221    22.502677    19.411678    7874.9924    6583.7327    7749.7898    7102.5101    479.68796    483.99606    599.84695   -3811.0623 
14618000    182.93392   -4981.7202   -4615.8297   -4981.7202            0    9566.9919    17.921661    22.739155    19.082281    7776.4764    8233.3925    9859.5123    10608.071    345.27615   -404.37909   -253.24232   -3530.8187 
14619000    193.74415   -5011.4645   -4623.9523   -5011.4645            0    8436.2398    17.701948    23.199452    19.026602    7813.7592    7699.5511    8253.2074    9355.9607    1694.2537    412.93797     1028.498    -3662.595 
14620000    192.28282   -4996.6008   -4612.0114   -4996.6008            0    7756.4143    17.930913    22.864524    19.112916    7835.9472    9224.3024    6969.2556    7075.6848    1341.9717    82.571714    210.59687   -3725.6141 
14621000    189.92755   -5001.3836    -4621.505   -5001.3836            0    9180.7455    17.936953    22.534921    19.355738    7823.7406     7673.212     9705.829    10163.196   -90.063062   -113.11122    395.94804   -3573.9707 
14622000    191.30453   -4965.6031   -4582.9704   -4965.6031            0    8138.1862    17.992263    22.638952    19.283334    7854.6027    9474.7134     7682.947    7256.8981   -355.43355   -440.79506   -405.37445   -3650.7304 
14623000    186.99548   -4990.0706   -4616.0566   -4990.0706            0    6500.3304    17.888436    22.982392    19.174758    7883.1082    4359.8865    7576.8694    7564.2354    630.76416    680.01824 -0.059395925   -3868.7328 
14624000    193.19725    -4973.364   -4586.9456    -4973.364            0    10484.342    17.724561    22.895853    19.149582    7771.2631    12313.642    8855.4144    10283.968   -297.74497   -355.44403   -935.87917   -3398.6933 
14625000    197.09912   -4981.6942   -4587.4716   -4981.6942            0    8270.2382    17.906393    22.742815    19.286493    7854.2658    8171.2755    7863.9802     8775.459   -78.586563    476.71665    -1104.467   -3640.1455 
14626000    193.74983   -5003.6189   -4616.0953   -5003.6189            0    8043.0567    17.969405    22.691404    19.251503      7849.82    7825.8689    8656.9869    7646.3143   -371.91156    255.90819   -102.55744   -3695.3135 
14627000    185.02322    -4990.878   -4620.8087    -4990.878            0    7085.7801    18.139118    22.651083    19.175977    7878.8467    6521.4029     8221.943    6513.9943   -96.340971    989.47905   -1731.9733   -3806.6179 
14628000    193.22986   -5005.6222   -4619.1386   -5005.6222            0    8341.5907    17.906543    23.004616    18.999358    7826.4653    7479.6863    7484.0777    10061.008      842.431    704.06555    673.31776   -3667.0214 
14629000    200.62055   -4974.8994   -4573.6335   -4974.8994            0     8944.628     17.88753    23.034913     19.06578    7855.8198    8674.5478    8317.3415    9841.9947     1172.546    699.26996    1223.2945   -3548.8558 
14630000    185.18729   -5002.6296   -4632.2322   -5002.6296            0     8881.739    17.830418    22.817715    19.213492    7816.9974    10221.045    7939.1132    8485.0585    1104.3409    421.74815    1873.5094   -3619.6883 
14631000    182.82266   -5005.7667   -4640.0988   -5005.7667            0    6762.3412    17.872952    22.769938    19.375804    7885.2935    7243.5538    6401.1411    6642.3289   -795.83065   -169.42558   -256.89644   -3862.4368 
14632000    196.36037   -4976.8714   -4584.1264   -4976.8714            0    8629.0836    17.868236    22.885041    19.259911    7875.6725    8276.7814    8721.0467    8889.4227   -42.076477    150.99212    485.94726   -3593.0019 
14633000    186.19281   -4959.9599   -4587.5513   -4959.9599            0    8406.5605    17.953296    22.804936    19.114685    7826.0064    8230.6029    8462.1162    8526.9624     791.4461    53.128474    -157.7147   -3628.0746 
14634000    187.47244   -4999.4293   -4624.4613   -4999.4293            0    8484.6079    18.041539    22.727722    19.128144    7843.3631    8967.3878    8173.2394    8313.1965    585.78877    482.84845    712.62542    -3653.929 
14635000    188.72151   -4996.8202   -4619.3539   -4996.8202            0    8429.3941     17.92398     22.63019    19.329731    7840.5847    9086.7016    8330.9613    7870.5192    721.32868    306.32112    808.12465   -3655.4789 
14636000    196.05109   -4984.2507   -4592.1243   -4984.2507            0    8258.7515    17.876325    22.827284    19.304908    7877.7143    7922.0345    9005.3469     7848.873    -1010.178    984.98183    839.44696   -3643.2897 
14637000     194.2269   -5012.4962   -4624.0184   -5012.4962            0    7846.7804    17.887022    22.908995    19.185706     7861.798    9623.2326     7270.069    6647.0397   -1021.8555   -1043.1066    -1625.787   -3724.3359 
14638000    189.02613   -4980.1046    -4602.029   -4980.1046            0    9333.6237    17.828366      22.6551    19.303778    7796.8618    8707.2499    10382.883    8910.7387    600.85704    -321.0329     -505.066   -3540.7098 
14639000    179.67555   -4989.3276   -4629.9543   -4989.3276            0    8944.8857    17.990965    22.590305    19.263401    7829.0584    7295.7237    9536.5231     10002.41    1250.1506   -707.42265    273.12342   -3608.6381 
14640000    190.32686   -4975.8793   -4595.2021   -4975.8793            0    8238.0268    17.979082    22.793967    19.191314    7864.8807    8010.7704    7673.3176    9029.9925    1496.8391    170.06223   -1267.5707   -3650.2904 
14641000    187.07246   -4982.4959   -4608.3279   -4982.4959            0     8809.831    17.853984    22.803057    19.216949    7823.7082    8967.3384    9554.4843    7907.6703    303.17089    362.13098   -2400.8171   -3603.1195 
14642000    189.79667   -4983.5347   -4603.9179   -4983.5347            0    9377.4393    17.781034    22.721481    19.364948    7823.6603    9920.2061    9706.9345    8505.1772    144.71906    395.65878   -327.36799   -3533.9515 
14643000    182.41744   -4978.1351   -4613.2777   -4978.1351            0    9129.0912    17.925637    22.857763    19.112853    7831.2998    7055.4859    10073.173    10258.615    402.68566    1352.2708    625.34489   -3570.6307 
14644000    203.85494   -5009.8276   -4602.0925   -5009.8276            0    9068.8838    17.859125    22.978583    19.088807    7833.6146    7743.7257    9085.9073    10377.018     390.2466    617.34572    1447.0408   -3566.0158 
14645000      192.334   -4991.8664   -4607.1747   -4991.8664            0    8473.4605    17.851343    22.928046    19.159025    7841.7201    8674.0398    8586.9891    8159.3527    560.05469    502.44637   -910.90644   -3638.1205 
14646000    193.47229     -5010.04   -4623.0715     -5010.04            0    6236.2635    17.999934    22.700825    19.324804     7896.373    6845.9701    5091.9673     6770.853    48.477899   -831.94817    786.43629   -3904.9003 
14647000    176.83972   -4989.6287   -4635.9274   -4989.6287            0    7713.1477     18.00621    22.576699    19.358723    7869.7231    7394.1679    7810.0695    7935.2058   -912.60878   -264.40627   -601.57875   -3750.6753 
14648000    193.42484   -4992.0841   -4605.2106   -4992.0841            0    8834.1255    17.931182    22.954654    18.967929    7807.2772    8352.1045    8498.9029    9651.3693     308.8092    900.88499    1767.9283    -3599.347 
14649000    197.59806   -4970.5382   -4575.3176   -4970.5382            0    10286.978     17.79925    23.064583    18.959882    7783.6435    9457.3523     10397.02    11006.562   -211.52178   -560.76902   -652.66995   -3407.5763 
14650000    188.60426   -4999.7405   -4622.5087   -4999.7405            0    8409.0744    17.784608    22.940704    19.183321    7826.6307    10211.738    7105.9525     7909.533   -245.81343   -338.92771   -914.61965   -3662.6685 
14651000    202.74201   -4979.0411    -4573.532   -4979.0411            0    7792.8305    17.860823    22.779053    19.330391    7864.6205    8721.2369    7642.6024    7014.6522   -393.03165    61.935749   -485.17012   -3679.7145 
14652000    189.74334   -4983.8942   -4604.3841   -4983.8942            0    7724.3619    17.820543    22.789445    19.349796    7858.3445    8341.4297    7959.8213    6871.8347   -123.07563   -352.62452    444.37884   -3719.1267 
14653000    190.07393   -4971.9683    -4591.797   -4971.9683            0    8003.5919    17.773062    22.993933    19.195702    7844.7574     9184.172    6774.5013    8052.1022    824.59259   -306.85677   -237.42887   -3676.1241 
14654000    186.53621   -4984.1171   -4611.0216   -4984.1171            0    8397.2113    17.896873    22.821637    19.169235    7829.4045    8586.5569    7640.6262    8964.4507   -624.23586   -783.46259    1341.6655   -3652.1958 
14655000    187.82698   -4989.6703   -4613.9931   -4989.6703            0    8758.2633    17.975702    22.605897    19.261998    7827.2449    9383.2008    8990.9922    7900.5971   -353.55843   -662.08709      1666.82   -3614.2169 
14656000    180.29288   -4990.8296   -4630.2216   -4990.8296            0    6113.0961    18.058429     22.61915    19.278837    7874.7559    5760.6009    6586.2564    5992.4309   -573.51607   -583.49271    57.195475   -3928.1616 
14657000     192.1775   -4993.9213   -4609.5425   -4993.9213            0    8319.2346    17.881789    22.863316    19.179493    7841.2863     6248.165    9464.0843    9245.4546    430.87195   -71.312235   -880.93282   -3658.1788 
14658000    182.21245   -4991.6869   -4627.2395   -4991.6869            0    8379.4254    17.624729    23.128818    19.212778    7831.8806    11000.616    6985.0957    7152.5644   -240.37356   -304.54649   -770.36258    -3670.142 
14659000    183.36068   -4991.4212   -4624.6772   -4991.4212            0    7047.8686    17.884925    22.903366    19.190271    7860.8143     6102.217    7398.0491    7643.3397    991.72716    201.64494   -865.27725    -3816.696 
14660000    189.13644   -4985.0018   -4606.7056   -4985.0018            0    7753.4141    18.085517    22.654329    19.254455    7888.8439    7032.1432    8610.4876    7617.6115     23.70694   -360.80517    1913.4258   -3714.6699 
14661000    187.43562   -4999.0933   -4624.1989   -4999.0933            0    7752.9348    17.917855    22.665334     19.27588    7828.2081    6790.1029    8537.5417    7931.1596     -1085.81    565.18305   -210.52896   -3739.0744 
14662000    179.82786   -4966.1606   -4606.4826   -4966.1606            0     7726.532    17.686083    23.237638    19.189474    7886.5438    9568.8882    5558.7757    8051.9322     936.1754    318.25252     -882.738   -3717.7989 
14663000    194.94922   -5005.6571   -4615.7346   -5005.6571            0    8182.0739    17.919641    22.891609    19.095352    7833.0932    8628.5025    8201.9387    7715.7806    666.06486    698.54348   -1765.5498   -3681.0339 
14664000    189.20669   -4996.4273   -4617.9906   -4996.4273            0    8285.0603    17.933366    22.706179    19.215851    7824.6603    8352.1286    8251.3662     8251.686    45.446983   -397.90284   -850.07082   -3672.5439 
14665000    191.28655   -4993.6328   -4611.0361   -4993.6328            0    8487.8804     17.90237    22.685914    19.246437     7816.587     7339.494     9035.325    9088.8223    532.35303   -1536.4662    458.29688    -3643.444 
14666000    193.24603   -4961.6917   -4575.1758   -4961.6917            0    8145.1441    17.858787    22.815838    19.310053     7868.136    8356.9422    7497.8019    8580.6881   -574.25123   -182.98691    836.48597   -3640.5312 
14667000     188.3096   -4992.6359   -4615.9934   -4992.6359            0    7701.2716    17.955766    22.755598    19.190963    7841.3161    6600.0859    8500.0055    8003.7236   -739.99298     639.8322   -106.88398   -3735.2949 
14668000    194.86344   -4980.5712   -4590.8203   -4980.5712            0    9147.3404    17.994689    22.681152    19.124567    7805.5058    7760.8705    9660.6017    10020.549   -123.91205   -299.40966    618.32271   -3549.5301 
14669000    202.66376   -4980.8209   -4575.4683   -4980.8209            0    8715.8058    17.865729     22.85723    19.242989     7858.088    9747.5357    8122.7243    8277.1574    1452.0108   -679.78633    620.41508   -3576.6182 
14670000    186.89004   -4973.1854   -4599.3823   -4973.1854            0    9483.0665    17.887029    22.685527    19.283896    7824.9555    11067.741     9383.959    7997.4997    394.13266   -83.499896   -1417.7559   -3517.1847 
14671000     192.3308   -4987.3828   -4602.6975   -4987.3828            0    6322.4812    17.933824    22.812351    19.342351    7913.2012    5569.2656    6035.7163    7362.4618    236.74848    69.112503   -207.23673   -3873.0457 
14672000    188.31751   -4994.5668   -4617.9085   -4994.5668            0    7343.8108    17.863941    23.142268     19.00909     7858.588    9142.7571    5390.4481    7498.2271    -227.9779    41.832214    1211.5405   -3776.2384 
14673000    187.12872   -4995.4616    -4621.181   -4995.4616            0    10044.524    17.686514    23.080458    19.069086     7784.246    10191.692     9418.046    10523.835   -2367.0946   -650.04666   -1319.7815    -3480.874 
14674000    188.12653   -4993.0621   -4616.7858   -4993.0621            0    7825.4576    17.854822    22.872713    19.207651    7844.1786     9282.975    7995.1661    6198.2317   -453.27998   -62.858722    101.52804   -3721.5589 
14675000    184.83403   -4984.6709     -4614.98   -4984.6709            0    7803.1693    18.033522    22.527215    19.356566    7863.5087    8664.6432    8239.2439    6505.6206   -355.23839   -925.74928   -1409.7111   -3720.1032 
14676000    192.01505   -5002.3432   -4618.2893   -5002.3432            0    7356.5432    17.945344    22.801816    19.202285    7857.3144    7539.2767    7761.8101    6768.5429   -551.46746    275.70222    694.62364   -3775.2966 
14677000    186.72242   -4966.0326   -4592.5647   -4966.0326            0    6672.4771    17.943583    23.122886    19.023682    7893.0671    6351.3808    6428.4078    7237.6427    1823.8198    1292.7681    534.03031   -3824.4806 
14678000    190.58489   -4982.8389   -4601.6456   -4982.8389            0    6550.7396    17.936902    22.980546    19.138079    7888.7123    8048.1086     4729.305    6874.8054    625.95199   -303.39086     43.17843    -3847.991 
14679000    197.24265   -4985.6416   -4591.1319   -4985.6416            0    8618.9303    17.822709    22.925184      19.1676    7831.6684    9619.2444    7847.2564    8390.2902   -189.31028   -160.41613    205.95916   -3606.7049 
14680000    191.63692   -4988.6268   -4605.3293   -4988.6268            0    8140.9045    18.019322      22.7161    19.228943    7870.9587    8422.5784    8431.9091    7568.2259   -376.37482    455.46104    66.745192    -3670.836 
14681000    186.35097   -4991.7821   -4619.0571   -4991.7821            0    8481.8732    18.014206    22.431178     19.41064    7843.4488    8749.7371    9629.2894     7066.593   -277.51557    1218.1914   -701.44198   -3648.8271 
14682000    188.53267   -4979.5101   -4602.4215   -4979.5101            0    8613.5107     17.86105    22.643791    19.363106    7831.2513    9905.2877    8961.3002    6973.9441    636.83311   -65.222033   -181.92652   -3618.6658 
14683000    187.70032   -4999.0681   -4623.6443   -4999.0681            0    8899.0508    17.775982     23.06754    19.058127    7814.7502    9379.4636    7349.0845    9968.6043    1102.0259    788.32569     845.5137   -3609.4184 
14684000    179.87226   -4995.5231   -4635.7564   -4995.5231            0    8161.6306    17.924907    22.976604    19.047504    7844.7809    7524.3348    7844.3609    9116.1962    9.8502357    480.97248   -760.83965   -3701.9999 
14685000    199.41227   -4990.8778   -4592.0287   -4990.8778            0    6895.7921    17.930868    22.714293    19.326024    7871.2377    7144.2733    6959.4123    6583.6908    97.652409    219.72664   -464.60491   -3800.4336 
14686000    196.02071   -4984.3581   -4592.2925   -4984.3581            0    8967.8964    18.141311    22.315158    19.305257    7815.2739    9202.4999     9507.886    8193.3033    647.67949   -622.50174   -669.02175   -3570.1518 
14687000    192.18441   -5000.8689   -4616.4764   -5000.8689            0    8619.8251    17.809732    22.941554     19.14126    7820.7919    8836.2409    8537.0753     8486.159    158.36721   -169.05147   -1221.0357   -3633.3144 
14688000    192.13611   -4973.9865   -4589.6905   -4973.9865            0    7704.1342    17.726241    23.028741    19.199988    7837.6852    8180.3884    6900.0314    8031.9827    1537.5973   -960.89086      1125.46   -3709.0725 
14689000    190.48057   -5007.3405   -4626.3559   -5007.3405            0     8758.039    17.710059    22.935878    19.189555    7794.7157    9584.0401    9428.1286    7261.9483    447.49883    664.70209    159.96952   -3630.7601 
14690000    200.20477   -4973.8998   -4573.4655   -4973.8998            0    9098.2104    17.861858    22.761825    19.295254    7844.8423    8302.0181    9293.9083    9698.7047   -941.31191   -415.82978    99.595374   -3532.5485 
14691000    190.77752   -4981.4591   -4599.8805   -4981.4591            0     8777.893     18.01349    22.459585     19.40703    7851.6091    7398.1761    9949.1123    8986.3908   -10.750852    1102.7151    1534.2455   -3594.7445 
14692000     193.4981   -4987.3742   -4600.3541   -4987.3742            0    8522.6199     18.03163    22.585609      19.2541    7841.3353    8854.5903    8805.2772    7907.9923   -166.78293   -609.09643    259.68026   -3625.7258 
14693000    189.30768   -4987.9044   -4609.2657   -4987.9044            0    7914.5372    17.870269    22.888321      19.1558    7835.1143    8709.2043    7373.5236    7660.8838    71.946221   -364.84344   -1197.5076   -3704.8944 
14694000    184.24545   -4970.6382   -4602.1246   -4970.6382            0    8212.7388    17.858828    22.890114    19.190522    7844.9049     8212.811    7419.0775     9006.328    101.42145   -128.45919    1326.4862    -3662.506 
14695000    186.43199    -4979.354    -4606.467    -4979.354            0    7924.3729    17.906313    22.839685    19.189886    7848.1749    8950.0991    7396.0846    7426.9349   -294.00817    59.346568    294.65676   -3699.4625 
14696000    185.43211   -4992.9919   -4622.1048   -4992.9919            0    8023.7046     17.85274    22.893278    19.243334    7864.8995    6818.7017    8554.6404    8697.7715    198.16758    574.32887    949.36824   -3701.7739 
14697000    192.40809   -4988.5923   -4603.7524   -4988.5923            0     8651.892    17.878908    22.750896    19.275231    7840.4154    8930.0088    8910.2994    8115.3679    281.10059   -205.58377    349.56355   -3614.4568 
14698000    184.01409    -4976.123   -4608.0721    -4976.123            0    8715.5985    18.003476    22.666952    19.203012    7836.4406    8507.8664    8617.1975    9021.7317   -835.33031   -96.402284   -499.46029   -3611.9973 
14699000    193.71985   -4980.6902   -4593.2266   -4980.6902            0    7248.8665    18.044747    22.700449    19.194128    7862.3728    6329.7128    8211.6923    7205.1943    870.46953   -548.84932    1055.2661   -3762.0379 
14700000    182.65355   -4981.8039   -4616.4742   -4981.8039            0    8708.4555    18.058202    22.614978     19.22037    7849.3271    8733.3781    9132.8705    8259.1181   -569.52626   -632.11972   -494.68376   -3619.5792 
14701000    197.30118   -5004.9823   -4610.3555   -5004.9823            0    7375.0023    17.993861    22.833831    19.094609    7845.3791    6456.1133    6825.2127     8843.681   -629.23271   -564.11654    1642.0632   -3766.5313 
14702000    180.89597   -4976.1041   -4614.2898   -4976.1041            0    6990.9595    17.796261    22.878347    19.389522    7894.4251    6916.0846     6463.754    7593.0399    72.644288   -709.38028    148.24152    -3809.406 
14703000    191.35162   -5006.4019    -4623.675   -5006.4019            0    9500.7461     17.68842    22.852123    19.261821    7785.9739    8406.0649    9852.5639     10243.61    489.57349    773.35453   -197.93144   -3544.8611 
14704000    182.35592   -4997.4154    -4632.681   -4997.4154            0    8063.1264    17.999927    22.807372    19.110202    7845.3314    7236.1935    8709.5513    8243.6343    772.25817    837.95996   -7.0225204   -3710.1295 
14705000    189.68563    -5007.103   -4627.7083    -5007.103            0    8106.1222    17.978339     22.73855     19.15088    7828.9054     8107.244    8027.1292    8183.9933    333.77032   -350.40061    1028.9386   -3702.1792 
14706000    182.11669   -4980.8613   -4616.6054   -4980.8613            0     9040.677    17.957111    22.685666     19.25109    7842.2976    8516.3572    9226.6678    9379.0061   -534.33037     958.1909   -160.12605   -3582.6063 
14707000    191.42021   -4976.8837   -4594.0197   -4976.8837            0    11158.564    17.814242    22.764906    19.073424    7735.0274    10681.534    11225.002    11569.157   -697.35573    242.69187    532.39606   -3335.2506 
14708000    197.45581    -4984.034    -4589.098    -4984.034            0    8890.6631    17.803927    22.927783    19.165407    7823.4071    8595.0375    8337.5887    9739.3631    541.10366   -411.82488     1262.803   -3574.7056 
14709000    192.76312   -4997.7507   -4612.2006   -4997.7507            0    7503.1444     17.88794    22.882606    19.263225    7884.8749    8251.3348    7229.1163    7028.9822    723.62292    710.53762     1242.405   -3749.3929 
14710000    195.91233   -4989.1978   -4597.3489   -4989.1978            0    8555.1862    17.945414    22.694676    19.250455    7840.0435      9964.21    8025.7273    7675.6214    477.37092    -453.7279   -1672.1741   -3619.1575 
14711000    194.93795   -4994.1947   -4604.2947   -4994.1947            0    7885.0023    17.966847    22.627537    19.279044    7837.8087    9470.1843    7272.2446    6912.5781    481.39048    157.76757    1231.2063   -3702.9885 
14712000    186.73656   -4986.0458   -4612.5496   -4986.0458            0    8479.0496    18.052395    22.662231    19.203502    7856.2974     6695.657    9338.6125    9402.8793    1296.1022   -76.433764    720.72862   -3641.0537 
14713000    188.89287   -4988.6715   -4610.8625   -4988.6715            0    7436.2122    17.856643    22.827644     19.31239     7872.215    6966.7857     7516.552     7825.299    -147.8529   -397.61774   -762.61198   -3757.1245 
14714000    177.88518   -4961.0643   -4605.2719   -4961.0643            0    9405.1709    17.692888    23.009245    19.162267    7800.9589    10687.642    8456.5844    9071.2865    288.14544   -277.19856   -985.29167   -3535.2552 
14715000    184.11186    -5011.592   -4643.3456    -5011.592            0     7141.766    17.849775    23.100424    19.052379    7856.0075    7966.6191    6613.5491    6845.1297    992.93134    58.234979     56.61995   -3825.1005 
14716000    184.60303   -4980.2396   -4611.0107   -4980.2396            0    8771.7335    17.978615    22.537015    19.325689    7830.4662    8736.2343    9954.9544    7624.0118   -1636.0062    506.41231   -773.22829   -3609.2847 
14717000    184.57877   -5002.8435   -4633.6631   -5002.8435            0    8006.1201    17.896852    22.529112    19.411527    7826.7313    9671.5394    8364.9122    5981.9087    522.62327    31.288459     176.7571   -3719.8058 
14718000    191.89155   -4977.2224   -4593.4156   -4977.2224            0    9911.9333    17.793152    22.746172    19.282212    7804.0145    10285.102    10051.437    9399.2601   -291.02496    616.65837   -74.515406   -3465.3033 
14719000    187.02235   -4984.2939   -4610.2261   -4984.2939            0    8496.1617    17.793829    23.043592    19.129227    7843.6281    5473.3622    10018.229    9996.8942   -589.83232    878.95996    -385.5074   -3638.3394 
14720000    181.54933   -4997.3853   -4634.2642   -4997.3853            0    8613.3238    17.937056    22.943449    19.054822    7841.7823     9668.522    7267.9428    8903.5066   -20.643642   -218.80275   0.99860581    -3649.207 
14721000    189.42622   -4997.4658     -4618.59   -4997.4658            0    7136.7784    18.066165     22.56083    19.265008    7852.1802    6054.8596    8669.4202    6686.0553    3.9973519    385.69713     630.3641   -3801.3147 
14722000    179.84389   -4992.7653   -4633.0553   -4992.7653            0    9534.8545    17.942497    22.535553    19.263451    7789.0627    9857.9057    9487.7099    9258.9479    -901.7654   -423.37344   -1202.4021   -3549.9388 
14723000    182.45735   -4997.6076   -4632.6703   -4997.6076            0    7616.9365     17.80733    22.718756     19.44761    7867.7327    9150.2324    7485.9443    6214.6328   -1738.8841    565.78023    -779.0495   -3758.6816 
14724000    190.85706   -4993.3095   -4611.5718   -4993.3095            0    7635.5499    17.833746    22.828156    19.258118    7840.2022    8251.2899    7254.4236    7400.9361    425.98272   -784.61923    994.13404   -3738.5131 
14725000    188.94236   -4993.0579   -4615.1498   -4993.0579            0    10535.884    17.913815    22.783598     19.04974    7774.9828    11715.713    9006.6253    10885.313    267.20431   -1809.8418   -169.87407   -3420.4844 
14726000    184.99559     -4983.38    -4613.366     -4983.38            0    8048.9677    17.990478     22.79489    19.192249    7870.5677    8327.7915    7592.2912    8226.8203    1043.3926    -1633.379    844.25067    -3689.472 
14727000    200.09455   -4961.6588    -4561.445   -4961.6588            0    8202.9735    17.839489    22.766815    19.343815    7856.4585     8290.567    8065.3159    8253.0375   -451.57598   -186.65884    1045.7464   -3621.5615 
14728000    186.09465    -4960.631   -4588.4187    -4960.631            0    8526.3045     17.83185    22.789788    19.288269    7838.4455    8886.7246    8901.2672    7790.9217   -1188.8849    -377.7291   -2370.1217   -3613.7283 
14729000    189.83934   -4970.8944   -4591.1923   -4970.8944            0    9497.9846    17.864544    22.984155    19.067141    7828.9957    8302.6766     9018.796    11172.481    1244.9007   -555.34063   -948.39368   -3506.7326 
14730000    200.04987   -4979.4351   -4579.3106   -4979.4351            0    7478.5999    17.987951    22.942502    19.052234    7862.6396    6178.6922    6954.7293    9302.3783    619.04251    52.821285    2709.0585   -3721.7505 
14731000    201.10119   -4995.4437   -4593.2165   -4995.4437            0    8493.2054    17.891465    22.786704    19.291797    7865.0248    10649.395    8187.5075    6642.7136    487.53595    546.82353    1648.6385   -3619.0176 
14732000    185.99478   -4976.4775    -4604.465   -4976.4775            0    9402.8027    17.752968    22.682124    19.422484    7820.9492    8508.7568    10042.076    9657.5752   -1258.0041    710.04173   -1594.5795   -3531.9764 
14733000    186.72268   -4993.8306   -4620.3622   -4993.8306            0    7491.4115    17.826368    22.574999    19.520349    7855.5788    8948.5189    8447.2062    5078.5093    494.73012    543.80772     90.07599   -3762.1044 
14734000     200.6191   -4995.1077   -4593.8447   -4995.1077            0    8059.6871    17.990017    22.690033    19.246158    7856.1677    6941.5721    9405.1413    7832.3477     158.8819    1029.7712    615.06573   -3670.4129 
14735000    185.61933   -5004.8563   -4633.5947   -5004.8563            0     6604.203    18.001398    22.822704     19.16541    7873.9283    6096.6438    7292.2546    6423.7105    528.37305    470.00044    754.82153   -3875.2132 
14736000    189.08501   -4993.3027   -4615.1093   -4993.3027            0    9857.3643    17.877753    22.904107    19.054511    7802.3262    9465.9296    8590.5431     11515.62     388.6089   -244.15513    -435.6321   -3493.4504 
14737000      184.857    -4991.051   -4621.3142    -4991.051            0    7767.3567    17.980362    22.762573    19.250319    7878.7572    7271.4443    8252.2746    7778.3513   -697.87453    797.44549    793.00616    -3728.817 
14738000    191.39838   -4978.4625   -4595.6421   -4978.4625            0    8103.7126    18.081958    22.689995    19.149459    7856.6314    8384.3198    8299.0215    7627.7966     36.89138    2.7374573      945.191   -3667.1113 
14739000     190.3065   -4994.1172   -4613.4807   -4994.1172            0    5964.3682    18.106093    22.816656    19.119139    7898.5079    5732.3454    5960.9513    6199.8077   -1435.2285    271.48307   -1227.3502   -3926.4354 
14740000    191.20189   -4977.3851   -4594.9576   -4977.3851            0    9931.5857    17.862276    22.799376    19.203688    7820.6775    10271.347    9065.6208    10457.789    353.52834    1102.0462    465.00618   -3462.1952 
14741000    192.96385   -5009.8041   -4623.8526   -5009.8041            0    7826.4463     17.74541    23.023344    19.204689    7846.2425    9264.2589     8168.689     6046.391   -530.97094    1076.2576   -5.7558056   -3728.2771 
14742000    185.03846   -4978.3197   -4608.2199   -4978.3197            0    9166.7207    17.748692    23.187663    19.005989    7821.9277     9556.634    7763.6798    10179.848    421.40949   -77.402315    1120.3276   -3562.5282 
14743000    202.66475   -4981.8154   -4576.4609   -4981.8154            0    9706.7711    18.064526    22.558997    19.140642    7800.1481     7793.493    11342.325    9984.4951     42.10346    373.70557    561.40623   -3472.2462 
14744000    194.33945   -4980.5477   -4591.8448   -4980.5477            0    7870.6974    17.900102    22.637814    19.361097    7845.4879    8502.4898    8913.6329    6195.9696   -507.49017    721.39641   -136.12287   -3691.2922 
14745000    201.31502   -4984.2254   -4581.5705   -4984.2254            0    8514.7607    17.767046    22.724805    19.364784    7818.5826    8995.5228    8278.0065    8270.7527    879.11158     351.3667     848.8894   -3610.6663 
14746000    190.39117   -4997.9671   -4617.1612   -4997.9671            0    6408.1709      17.8324    23.005283    19.205164    7878.7151     6960.072    5772.7847    6491.6559    628.74994    -540.3174    625.89841   -3880.8433 
14747000    192.28454   -4984.5271   -4599.9343   -4984.5271            0    9670.5875    17.790264    23.013153    19.013071    7784.1427    9387.4647    9832.5778      9791.72    333.61355   -1043.8088   -932.58355    -3502.093 
14748000    202.88835    -4996.679   -4590.8772    -4996.679            0    7881.1753    17.891478    22.801823    19.217814    7840.0672    8583.0856    7723.9644    7336.4758   -435.49304   -878.56477   -2095.8901   -3689.7489 
14749000    194.48212   -5003.0876   -4614.0993   -5003.0876            0    9131.5984    17.935146    22.547716    19.300458    7805.0393    9644.2216    9662.5442    8088.0293    75.294245     635.5821   -577.72023   -3574.6633 
14750000    193.67187   -4969.3629   -4581.9952   -4969.3629            0    6725.2298    18.024818    22.775543    19.193137     7879.263    5511.4111    7355.3475    7308.9308    1175.8709    471.02044    1304.6457   -3809.1926 
Loop time of 625.671 on 64 procs for 250000 steps with 1008 atoms

Performance: 69.046 ns/day, 0.348 hours/ns, 399.571 timesteps/s
374.6% CPU use with 16 MPI tasks x 4 OpenMP threads

MPI task timing breakdown:
Section |  min time  |  avg time  |  max time  |%varavg| %total
---------------------------------------------------------------
Pair    | 41.463     | 45.396     | 50         |  35.1 |  7.26
Bond    | 1.6668     | 1.9893     | 2.4777     |  17.5 |  0.32
Kspace  | 306.72     | 314.8      | 328.17     |  29.3 | 50.31
Neigh   | 2.5765     | 2.7895     | 3.0656     |   6.9 |  0.45
Comm    | 83.537     | 97.811     | 105.12     |  56.5 | 15.63
Output  | 0.54662    | 0.54698    | 0.54847    |   0.1 |  0.09
Modify  | 123.99     | 129.89     | 136.39     |  30.9 | 20.76
Other   |            | 32.44      |            |       |  5.18

Nlocal:        63.0000 ave          67 max          59 min
Histogram: 1 1 2 3 0 2 3 2 1 1
Nghost:        3409.56 ave        3431 max        3385 min
Histogram: 1 0 3 1 1 4 1 3 0 2
Neighs:        21228.4 ave       22584 max       19879 min
Histogram: 1 1 2 3 1 2 2 2 1 1

Total # of neighbors = 339655
Ave neighs/atom = 336.95933
Ave special neighs/atom = 2.0000000
Neighbor list builds = 5320
Dangerous builds = 0

unfix		3
unfix		2
unfix		1

write_data	data.final.${pid}
write_data	data.final.1
System init for write_data ...
PPPM initialization ...
  extracting TIP4P info from pair style
  using 12-bit tables for long-range coulomb (../kspace.cpp:340)
  G vector (1/distance) = 0.37936074
  grid = 24 27 32
  stencil order = 5
  estimated absolute RMS force accuracy = 0.0024445778
  estimated relative force accuracy = 7.3617735e-06
  using double precision FFTW3
  3d grid and FFT values/proc = 7875 1344
Last active /omp style is kspace_style pppm/tip4p/omp
WARNING: Not all mixed pair coeffs generated from mixing. Use write_data with 'pair ij' option to store all pair coeffs. (../write_data.cpp:312)

write_restart   restart.lmp.${pid}
write_restart   restart.lmp.1
System init for write_restart ...
PPPM initialization ...
  extracting TIP4P info from pair style
  using 12-bit tables for long-range coulomb (../kspace.cpp:340)
  G vector (1/distance) = 0.37936074
  grid = 24 27 32
  stencil order = 5
  estimated absolute RMS force accuracy = 0.0024445778
  estimated relative force accuracy = 7.3617735e-06
  using double precision FFTW3
  3d grid and FFT values/proc = 7875 1344
Last active /omp style is kspace_style pppm/tip4p/omp
Total wall time: 0:10:25
