LAMMPS (30 Jul 2021)
  using 1 OpenMP thread(s) per MPI task
package omp 0
using multi-threaded neighbor list subroutines
echo both

include		in.partitions
variable        pid world 0
include		in.temp
variable        temperature equal 263.30
variable	tempDamp equal 100.0
include		in.pressure
variable        pressure equal 8500.0
variable        pressureDamp equal 1000.0 # This is 1 ps
include		in.seed
variable        seed world 745823

units		real
atom_style	full
read_restart    restart.lmp.${pid}
read_restart    restart.lmp.0
Reading restart file ...
  restart file = 30 Jul 2021, LAMMPS = 30 Jul 2021
  restoring atom style full from restart
  triclinic box = (-3.2776425 -0.056507016 -0.028721187) to (14.887642 22.636506 19.258719) with tilt (-0.14839379 -6.3965392 -0.052220772)
  4 by 4 by 4 MPI processor grid
  restoring pair style lj/cut/tip4p/long/omp from restart
  restoring bond style harmonic/omp from restart
  restoring angle style harmonic/omp from restart
  1008 atoms
  672 bonds
  336 angles
Finding 1-2 1-3 1-4 neighbors ...
  special bond factors lj:    0        0        0       
  special bond factors coul:  0        0        0       
     2 = max # of 1-2 neighbors
     1 = max # of 1-3 neighbors
     1 = max # of 1-4 neighbors
     2 = max # of special neighbors
  special bonds CPU = 1.160 seconds
  read_restart CPU = 1.527 seconds

include 	in.setup
variable	out_freq equal 1000
variable	out_freq2 equal 10000
variable	out_freq3 equal 1000

timestep	2.0

neigh_modify    delay 7 every 1

include		in.tip4p
# This is TIP4P/Ice

# create groups ###
group ox type 2
336 atoms in group ox
group hy type 1
672 atoms in group hy

# set charges - beside manually ###
set group ox charge -1.1794
Setting atom values ...
  336 settings made for charge
set group hy charge 0.5897
Setting atom values ...
  672 settings made for charge

# ### TIP3P Potential Parameters ###
pair_style lj/cut/tip4p/long/omp 2 1 1 1 0.1577 8.5
pair_coeff 1 1*2 0.000 0.000
pair_coeff 2 2 0.21084 3.1668
bond_style  harmonic
bond_coeff  1 450 0.9572
angle_style harmonic
angle_coeff 1 55 104.52
kspace_style pppm/tip4p/omp 1.0e-5
pair_modify tail yes

thermo          ${out_freq}
thermo          1000
thermo_style    custom step temp pe etotal epair emol press lx ly lz vol pxx pyy pzz pxy pxz pyz enthalpy

restart 	${out_freq3} restart.lmp.${pid} restart2.lmp.${pid}
restart 	1000 restart.lmp.${pid} restart2.lmp.${pid}
restart 	1000 restart.lmp.0 restart2.lmp.${pid}
restart 	1000 restart.lmp.0 restart2.lmp.0


include         in.dump
dump            myDump all atom ${out_freq2} dump.water.${pid}
dump            myDump all atom 10000 dump.water.${pid}
dump            myDump all atom 10000 dump.water.0
dump            myDump2 all dcd ${out_freq2} dump.dcd
dump            myDump2 all dcd 10000 dump.dcd
dump_modify     myDump append yes
dump_modify     myDump2 append yes


variable natoms 	equal  "count(all)"                        # NUMBER ATOMS
variable H      	equal  "enthalpy/v_natoms"                 # ENTHALPY-per-atom
variable Vol      	equal  "vol/v_natoms"                 # volume-per-atom
fix AVG all 		ave/time ${out_freq} 1 ${out_freq} v_Vol v_H file vol_enthalpy.dat
fix AVG all 		ave/time 1000 1 ${out_freq} v_Vol v_H file vol_enthalpy.dat
fix AVG all 		ave/time 1000 1 1000 v_Vol v_H file vol_enthalpy.dat



fix 		1 all shake 1e-6 200 0 b 1 a 1
       0 = # of size 2 clusters
       0 = # of size 3 clusters
       0 = # of size 4 clusters
     336 = # of frozen angles
  find clusters CPU = 0.011 seconds
fix             2 all nph tri ${pressure} ${pressure} ${pressureDamp}
fix             2 all nph tri 8500 ${pressure} ${pressureDamp}
fix             2 all nph tri 8500 8500 ${pressureDamp}
fix             2 all nph tri 8500 8500 1000
fix             3 all temp/csvr ${temperature} ${temperature} ${tempDamp} ${seed}
fix             3 all temp/csvr 263.3 ${temperature} ${tempDamp} ${seed}
fix             3 all temp/csvr 263.3 263.3 ${tempDamp} ${seed}
fix             3 all temp/csvr 263.3 263.3 100 ${seed}
fix             3 all temp/csvr 263.3 263.3 100 745823


run             250000
PPPM initialization ...
  extracting TIP4P info from pair style
  using 12-bit tables for long-range coulomb (../kspace.cpp:340)
  G vector (1/distance) = 0.37925553
  grid = 24 27 32
  stencil order = 5
  estimated absolute RMS force accuracy = 0.0024476291
  estimated relative force accuracy = 7.3709623e-06
  using double precision FFTW3
  3d grid and FFT values/proc = 3825 384
Last active /omp style is kspace_style pppm/tip4p/omp
Neighbor list info ...
  update every 1 steps, delay 7 steps, check yes
  max neighbors/atom: 2000, page size: 100000
  master list distance cutoff = 10.8154
  ghost atom cutoff = 10.8154
  binsize = 5.4077, bins = 5 5 4
  1 neighbor lists, perpetual/occasional/extra = 1 0 0
  (1) pair lj/cut/tip4p/long/omp, perpetual
      attributes: half, newton on, omp
      pair build: half/bin/newton/tri/omp
      stencil: half/bin/3d/tri
      bin: standard
Per MPI rank memory allocation (min/avg/max) = 9.312 | 9.326 | 9.338 Mbytes
Step Temp PotEng TotEng E_pair E_mol Press Lx Ly Lz Volume Pxx Pyy Pzz Pxy Pxz Pyz Enthalpy 
18250000    271.63611   -4800.9005   -4257.5947   -4800.9005            0     9602.143    18.165284    22.693013     19.28744    7950.7656    9073.4057    10779.245     8953.778    355.34926    205.25524    1340.6237   -3144.1901 
18251000     255.7213   -4807.4328   -4295.9586   -4807.4328            0     8104.787    18.012847    22.758801    19.436295    7967.9247    7761.3856    8468.7697    8084.2056    -821.4579     331.1978    234.61548   -3354.1499 
18252000    272.84152   -4830.9149   -4285.1982   -4830.9149            0    7372.9176    17.873106    22.746631    19.602997     7969.656    9080.9807    6414.3104    6623.4619    185.13079    101.94603    -975.0874   -3428.2494 
18253000    249.69317   -4804.9137   -4305.4965   -4804.9137            0    6421.4763    18.058386    22.854263     19.42091     8015.225    4968.7606    6234.8279    8060.8405   -466.39273   -1132.9548    1725.2345   -3554.8656 
18254000    257.76008   -4849.0034   -4333.4514   -4849.0034            0    7745.9584    17.955392    22.753505     19.45139    7946.8286    6795.1137    7843.8946     8598.867   -1307.7893    422.17905   -911.45326   -3435.7232 
18255000    257.52138   -4808.7557   -4293.6811   -4808.7557            0    7175.6366    18.038771    22.946241     19.25681    7970.8167     5208.281    8392.7632    7925.8657   -283.94522    1593.5892    1002.5617   -3459.5407 
18256000    270.38176   -4806.8799    -4266.083   -4806.8799            0     9157.493    17.782057    23.044854    19.301841     7909.603    9958.1407    9394.1352    8120.2031   -1807.5383      860.398    1957.5729   -3209.7346 
18257000    262.31193   -4810.2275   -4285.5712   -4810.2275            0    8800.0665     17.83879    23.180079    19.160868    7923.1063    8270.6676    7881.3026    10248.229   -656.49497    252.71159    663.86458   -3268.7202 
18258000    269.29783   -4829.0613   -4290.4324   -4829.0613            0    8009.7305    17.823051    23.201802    19.240208    7956.3435    11196.103    6372.3284    6460.7607   -5.6313625    756.29607    18.557968   -3361.0224 
18259000    280.37837   -4809.2652   -4248.4738   -4809.2652            0    7914.1451    17.842293    23.256064    19.182041    7959.4253    7304.1879    7596.5831    8841.6641   -1.7480877    852.21172    731.40843   -3329.7995 
18260000     259.9874   -4785.1225   -4265.1156   -4785.1225            0    7622.2043    17.790626    23.169795    19.310702     7959.971    7571.8222     8106.439    7188.3516   -123.19224    776.44025    158.30763    -3380.269 
18261000    262.62925   -4814.2564   -4288.9654   -4814.2564            0    10659.429    17.769523    23.114671     19.12788    7856.5223    10143.558    10547.155    11287.574   -110.96847   -838.36284    155.23907   -3067.6153 
18262000    272.53429   -4784.1346   -4239.0324   -4784.1346            0     8133.458    17.980391    23.142105    19.073465    7936.5471    7468.0821    8499.2682    8433.0237    2771.8837    165.45193    1505.8187   -3297.6139 
18263000    266.74465   -4784.0381   -4250.5159   -4784.0381            0    7391.7872    17.933647    22.973023    19.462535    8018.3715    7543.1675    6489.3041    8142.8899   -809.00569   -963.31323   -350.59935   -3386.1223 
18264000    262.09428   -4816.5886   -4292.3676   -4816.5886            0    9165.4465    17.990504    23.003292    19.188825    7941.1189     9625.199    8915.5771    8955.5634    1166.8002   -487.65645   -854.81886   -3230.8891 
18265000    266.56234   -4809.6421   -4276.4845   -4809.6421            0    9110.0616    17.699646    23.177029    19.258283    7900.2331    9970.4747    8938.4023    8421.3077   -67.904521   -363.35194   -1590.7885   -3226.8524 
18266000    273.04592   -4820.5663   -4274.4408   -4820.5663            0    9131.1591    17.838575    23.086973    19.144211    7884.3266    7066.3641    10074.879    10252.235   -611.97603    381.54328   -1419.5027   -3224.4961 
18267000    270.36746   -4829.0821   -4288.3137   -4829.0821            0    8013.0764    17.788669    23.211748    19.223155     7937.358    7851.7641    7785.6114    8401.8537   -405.59549    142.71415   -623.73309   -3360.7342 
18268000    264.21763   -4845.2372   -4316.7693   -4845.2372            0    6652.6302    17.984256    23.133036    19.241308    8004.9697    7367.2642    6650.7712     5939.855   -261.37651      1036.81    1081.5478   -3540.1128 
18269000    255.93324   -4803.8813   -4291.9832   -4803.8813            0    8207.7366    17.922506    23.027476    19.280709    7957.3426    6467.0856    8307.8909    9848.2334    280.89539   -467.52165    -46.60703    -3339.478 
18270000    266.02842   -4818.8179   -4286.7282   -4818.8179            0    9420.6775    17.862699     22.93084    19.225422    7874.8615    9698.7714     9392.404    9170.8569   -490.81709   -1200.6904   -521.18517   -3204.7937 
18271000    273.80692   -4852.6467    -4304.999   -4852.6467            0    7601.7718    17.757456    23.008131    19.385657     7920.318    7748.5861    7517.8868    7538.8425   -799.67828    -785.5357   -1554.9808   -3426.9206 
18272000    265.42961   -4818.0995   -4287.2075   -4818.0995            0    7640.7968    17.872248    23.109985    19.223547    7939.8514    7568.0449    7869.2608    7485.0847   -938.92681    437.05972   -215.04221   -3402.4446 
18273000    252.59791   -4835.4815   -4330.2545   -4835.4815            0    6916.2169    17.783326    23.150511    19.394107    7984.4195    7327.8134    7957.3969    5463.4404     -1072.23     851.7591   -1847.6545   -3524.8986 
18274000    285.26005   -4808.2304   -4237.6751   -4808.2304            0    9040.7504    17.970864    23.079462    19.114317    7927.8132    8380.2182    8122.0089    10620.024     657.9749   -154.87306    185.61852   -3192.3923 
18275000    269.54428   -4795.9696   -4256.8477   -4795.9696            0    7968.2542    17.862422    23.107842    19.188504    7920.2861    6712.3594    7220.7209    9971.6824    131.91336   -854.46874   -1083.8755   -3336.4407 
18276000    273.27323   -4807.4103   -4260.8301   -4807.4103            0     6517.221    17.875554    23.300806    19.207815    8000.3397     8068.156    5327.9287    6155.5782    438.88004   -388.96059   -216.91592    -3500.422 
18277000    264.45853   -4788.8319   -4259.8821   -4788.8319            0    7483.1046    17.774059    23.262972    19.293428    7977.3971    8333.2115    7045.0765    7071.0257    1748.8982   -44.627929    1013.5021   -3389.2816 
18278000     254.5332   -4809.8026   -4300.7048   -4809.8026            0    9374.5283    18.049766     22.84857    19.206559    7921.0025    7943.7729    10205.819    9973.9927    2065.3627    1683.9562    533.38126   -3217.7621 
18279000    260.98357   -4808.2305   -4286.2311   -4808.2305            0    9790.2909    18.067205    22.718366    19.329112    7933.7766    8818.4123    10208.169    10344.291    879.39145    438.51381   -1152.6273   -3153.4358 
18280000    270.97148     -4801.43   -4259.4535     -4801.43            0    7926.8665    17.947911    22.970503    19.328766    7968.7197    8106.6575    9051.7081    6622.2339    1546.9131     304.8282    2018.8559    -3338.228 
18281000    270.58095   -4798.8628   -4257.6675   -4798.8628            0    9323.7114     17.85641    22.824998    19.467283    7934.3293    7319.4998    10578.483    10073.152    725.13659    992.62406   -589.93933    -3178.783 
18282000    275.95514   -4827.7603   -4275.8159   -4827.7603            0    10880.839    18.050074    22.925245    19.071307    7891.7516    10194.586    11833.243    10614.686    444.82846    1937.3968   -202.71071   -3023.5064 
18283000      258.616   -4794.4293   -4277.1653   -4794.4293            0    8643.8525    17.902573     22.92497    19.318729    7928.7144    8587.8933    8620.3341    8723.3301    381.45933   -132.07297   -364.91197   -3277.6579 
18284000    246.76608   -4810.5725   -4317.0099   -4810.5725            0    7488.4214    18.019273     22.96366    19.229497    7956.9437    7335.3209    7292.6356    7837.3076    1409.0068   -706.63655   -1199.9682   -3448.0245 
18285000    255.57512   -4827.4155   -4316.2337   -4827.4155            0    9910.3178     17.97531    22.843736    19.258643    7908.0463     8602.937    9881.6711    11246.345    190.85484    225.35055   -2005.7354   -3173.2694 
18286000    262.51592   -4847.9453    -4322.881   -4847.9453            0    8381.2129    17.952326    22.936644    19.246359    7924.9983    8393.2164    8116.1523    8634.2699    881.38759     696.4333   -998.64155   -3354.1974 
18287000    280.21199   -4834.8141   -4274.3555   -4834.8141            0    9428.3181    17.898566    22.944578    19.264335    7911.3816    11345.375    8553.5158    8386.0635    671.45203    687.02446     84.27148   -3186.5219 
18288000    261.16133   -4807.9705   -4285.6155   -4807.9705            0    8558.4654    17.953282    22.884731    19.315301    7935.8083     8412.645    9493.3302     7769.421    984.45123   -708.19907   -200.19686   -3295.0962 
18289000    261.56278   -4825.6839    -4302.526   -4825.6839            0    6766.6408    17.900908    23.028743     19.39793    7996.5138    8720.4062    5534.3218    6045.1945   -955.41189    360.51499   -2290.4649   -3513.3939 
18290000    265.80701   -4802.8402   -4271.1934   -4802.8402            0    9985.3041    17.988401    22.975596    19.178275    7926.2707    11375.826     9331.253    9248.8329    1193.8801    1037.9784    1823.7506   -3116.9269 
18291000    270.20961    -4821.675   -4281.2224    -4821.675            0    7027.9458     17.94672    22.932885    19.335807    7958.0393    7592.1777    7243.2748    6248.3849   -2726.7203    465.06488   -1250.7829   -3465.5601 
18292000    263.58053    -4812.616   -4285.4223    -4812.616            0    8984.0792    17.977559    22.888445    19.278881    7932.8428     9363.961    9037.4403    8550.8364    1109.3476   -297.41192    812.90742   -3246.0329 
18293000     269.3964     -4795.64    -4256.814     -4795.64            0    9438.9767    17.820671    22.913854    19.307215    7883.9132    9554.3712     8916.427    9846.1319    708.90977   -620.80131    1802.1559   -3171.5319 
18294000    250.68477   -4816.6018   -4315.2012   -4816.6018            0    7936.3116    17.988568    23.202812    19.080204     7963.798    7731.2029    6808.1922    9269.5399   -837.84016   -154.41377    942.47771   -3393.4477 
18295000    258.69619   -4838.3805   -4320.9561   -4838.3805            0    8051.4044     17.70681    23.066673    19.386413    7918.1323    8374.4584    9292.6235    6487.1314    1142.7066    764.43455    6.9066868   -3391.1974 
18296000    249.71625   -4816.6565   -4317.1932   -4816.6565            0    8253.6969    18.034666    23.142913    19.128575    7983.7838     9623.972    6664.5343    8472.5844    698.34614     64.73285   -139.44854   -3356.1715 
18297000     268.7052   -4822.3209   -4284.8773   -4822.3209            0    8201.0036    17.740653    23.066517    19.462523    7964.3579    9004.8206    6905.3868    8692.8035    662.61314   -1155.7039    1840.6112   -3332.3144 
18298000    258.01803   -4828.8051   -4312.7372   -4828.8051            0    8257.4265    18.058545    22.940444    19.134528    7926.8806    7391.9033    7901.6494    9478.7268   -177.49664   -1386.3436    1325.1993   -3358.1339 
18299000    266.45864   -4799.8354   -4266.8852   -4799.8354            0    9725.3565    17.859619    22.891622    19.327049    7901.5866    11199.005    10584.861    7392.2033   -1029.5123    163.85133   -847.50981   -3146.1688 
18300000    263.36622   -4839.5483   -4312.7833   -4839.5483            0    8757.6564    17.973216    23.052903    19.209299    7959.0811    8086.4145    10046.334     8140.221   -523.40793    475.08584    1724.7893   -3296.2381 
18301000    280.17024   -4787.5472   -4227.1721   -4787.5472            0    6927.7622    17.887026    22.863091    19.574381    8004.9957     6613.521     7430.262    6739.5036   -512.93374     517.1841   -597.37655   -3418.3929 
18302000     257.1565   -4825.8331   -4311.4883   -4825.8331            0    10459.232    17.980714    22.849845    19.196167    7886.8705    10922.581      10419.3    10035.816   -882.49142   -1856.1967    1451.0135   -3108.4473 
18303000    266.70215   -4850.7496   -4317.3124   -4850.7496            0    9921.3588    17.795436    22.769714    19.412455    7865.8683    12037.022    10003.266    7723.7886    225.43863   -637.96832    809.32828   -3179.1775 
18304000    278.90824   -4803.9568   -4246.1059   -4803.9568            0    9543.5498    17.965196    23.152375    19.065365    7929.9898    8021.3036    10070.947    10538.399     1670.451    456.20723   -191.70853    -3142.387 
18305000    277.13123   -4830.1513   -4275.8546   -4830.1513            0    8066.8548    17.843494    23.170667    19.278083    7970.4395    11950.283    6607.8721     5642.409    472.73385   -1109.0977   -308.27751   -3338.1579 
18306000    282.32929   -4797.1431   -4232.4496   -4797.1431            0    9082.2587    17.919556    23.332323    18.978606    7935.0475      11063.7    8288.5542    7894.5223    539.63794    482.71606    1682.5579   -3181.4095 
18307000    247.86787   -4821.2285   -4325.4621   -4821.2285            0    6650.8818    17.870657    22.998903    19.438148    7989.1858    6006.3948    7676.8424    6269.4081   -673.61081    589.64025    68.192195   -3550.5408 
18308000    270.77079   -4829.8091    -4288.234   -4829.8091            0    6496.2537    17.937237    23.207228    19.189976    7988.2794    6765.0381    5070.5518    7653.1713    1605.3877   -1259.0776    1070.9675   -3531.4149 
18309000    259.17884   -4814.7353   -4296.3456   -4814.7353            0    6351.4599    17.839898    23.128159     19.30219    7964.1605    7764.5054    5493.8052    5796.0691   -1825.8377   -352.74886   -1839.4039   -3558.6292 
18310000    267.53057   -4832.5041   -4297.4099   -4832.5041            0    7443.6206    17.983419    23.131196    19.153966     7967.628    7973.5569    6588.1525    7769.1523    1423.6619    814.21362      1086.97   -3432.4636 
18311000    266.65258   -4786.4045   -4253.0664   -4786.4045            0    9418.2584    17.830879    22.992194    19.312286    7917.4774    8836.7313     10843.23     8574.814   -398.16346    702.50289    1521.4501   -3165.5563 
18312000    275.99482   -4778.4414   -4226.4177   -4778.4414            0     9578.794    17.929955    23.045589    19.157399    7915.9594    8891.4094    9385.8345    10459.138    823.58584   -343.73374   -1052.3715   -3120.5828 
18313000    271.99043   -4803.5542   -4259.5398   -4803.5542            0    4995.4168    17.841287    22.841045    19.755009    8050.4359    7372.7715    4888.2934    2725.1855   -371.56407   -31.491617    1154.8046   -3673.0411 
18314000    254.70283    -4807.442   -4298.0049    -4807.442            0    8473.6531    17.985205    22.919024    19.313611    7961.1352    7917.2778    8864.5216      8639.16   -311.01054   -890.46964   -825.18101   -3314.1715 
18315000    247.78681   -4805.5591   -4309.9549   -4805.5591            0    10632.341     17.96016    22.915025    19.210911    7906.3951    10900.617    10653.241    10343.166    1625.1931    623.55182    593.10833   -3083.9751 
18316000    274.32316   -4802.5756   -4253.8953   -4802.5756            0    7888.9585    17.942888    23.013521    19.314604    7975.5605    10390.972    7022.0251    6253.8788    322.90962    600.43532   -1056.1923   -3336.2882 
18317000    260.25615   -4819.4846   -4298.9401   -4819.4846            0    8467.2614    17.875694    23.053399    19.251416    7933.4224    9523.4095    7466.9234    8411.4511     1314.979   -788.72622    -1327.978    -3319.271 
18318000    258.65154   -4804.3225   -4286.9874   -4804.3225            0    9522.3697    17.710257    23.331857    19.157362    7916.0743    9465.9385    9750.1797    9350.9908    1889.5821    1129.0134   -314.66706   -3187.6506 
18319000    262.82654    -4850.571   -4324.8854    -4850.571            0    8808.9324    17.757497    23.078285    19.271513    7897.7083    11726.374    8228.2733    6472.1503    206.47913    401.02548   -1299.8096   -3310.2728 
18320000    264.65156   -4800.0579   -4270.7221   -4800.0579            0      9254.33      17.9707    23.043325    19.168041    7937.5752    9066.7632    9408.5921    9287.6345    961.58464    1538.2041   -704.48421    -3199.428 
18321000     257.1849   -4794.2437   -4279.8421   -4794.2437            0    8416.9548    17.818547    23.273864    19.171971    7950.7399    9410.8548    7911.7925     7928.217    11.519964    -67.96963     68.56135   -3303.8677 
18322000    273.33939   -4782.1731   -4235.4606   -4782.1731            0    8016.0829    17.792995    23.307682    19.292563    8000.8861    10005.101    6897.5326    7145.6153   -625.10327   -931.57041   -998.01451   -3300.1062 
18323000    256.56508   -4843.8769    -4330.715   -4843.8769            0    9008.9507    17.837042    23.036023    19.255195    7911.8538    9799.7486    7296.3934    9930.7101   -2023.6597   -390.52084    296.64452   -3291.2058 
18324000    246.56144   -4830.1559   -4337.0026   -4830.1559            0    8249.4343    18.023491    23.032099    19.169301    7957.5381    6123.7381    8986.0427     9638.522    766.46752    975.23486   -425.79405   -3379.6348 
18325000    258.48793   -4819.1598    -4302.152   -4819.1598            0    9385.1394    17.758524    23.173523    19.254185    7923.6276    10528.796    8273.0683    9353.5538   -1354.2688   -326.71364   -339.12523   -3217.6243 
18326000    269.86678   -4824.0473   -4284.2804   -4824.0473            0    7245.9666     17.90613    23.359343    19.104981    7991.1444    6218.8117    7393.7208    8125.3672   -588.87722   -35.406978   -1151.2747   -3439.8163 
18327000    254.14328   -4846.1001   -4337.7821   -4846.1001            0    7134.2319    17.684735    23.292506    19.268318    7937.0398    8536.3805    6202.5414    6663.7739   -231.55543   -1203.5616     1089.253   -3511.9692 
18328000    271.10664   -4791.2035   -4248.9568   -4791.2035            0    6571.5875    17.901242    23.159419    19.260476     7985.054    6404.6261    6161.1802    7148.9562   -839.99011    1321.3844   -1350.7749   -3483.6703 
18329000    270.69407   -4851.1727   -4309.7511   -4851.1727            0    8649.8117    17.894359    23.079087    19.220504     7937.789    8606.4056    7742.7066    9600.3231    161.43124    684.78387   -1987.9508   -3308.4099 
18330000    272.89982   -4800.1138   -4254.2804   -4800.1138            0    7094.9569    17.588493     23.36911     19.35829    7956.7882    9194.5455    5520.8151      6569.51   -1109.0417    -1038.519   -701.55478   -3430.9703 
18331000    272.48186    -4827.432   -4282.4347    -4827.432            0    7611.3699    17.901425    23.123144    19.214319    7953.5219    6925.7186    6910.9367    8997.4545    715.34496   -483.36269    1432.0741   -3399.5617 
18332000    254.07781   -4827.6135   -4319.4265   -4827.6135            0    7978.9358    17.801291    23.142894    19.249819    7930.4131     7601.269    7742.5958    8592.9426    1098.1365    940.15077    622.55124   -3396.6072 
18333000     263.8089   -4804.8891   -4277.2387   -4804.8891            0    6702.9612    18.098627    23.134124    19.118463    8004.8221    4772.0148    6288.9684    9047.9006   -13.151208    502.95225    672.45026   -3494.7208 
18334000    270.04394   -4799.1713     -4259.05   -4799.1713            0    8455.4764    17.857993    23.007888    19.366504    7957.2062    9090.5564    7546.9889    8728.8837    1223.3589   -1119.1127    309.52698   -3277.8115 
18335000    263.98012   -4822.1209   -4294.1281   -4822.1209            0    9141.4451    17.758022    23.285395    19.068395    7884.8302    8314.1232    9587.4396    9522.7725   -664.09325   -731.52593    -947.3093   -3242.9335 
18336000    248.49568   -4805.5267   -4308.5047   -4805.5267            0    8604.5869    17.773898    23.176132    19.274562     7939.774    9542.6696    7670.5479    8600.5432    431.64262   -480.96405   -196.24991   -3312.1498 
18337000    251.37052   -4805.6802   -4302.9081   -4805.6802            0    8359.6609    17.855193    23.152608    19.193968    7934.6767    9087.1791    8203.2354    7788.5681    1332.0927    655.19205    411.90445   -3335.5355 
18338000    268.91067   -4832.4372   -4294.5827   -4832.4372            0     6618.138     18.12413    23.146324    19.124885    8023.0225       5053.8    7159.8707    7640.7435   -742.81261    1729.1779    1421.3449   -3520.2105 
18339000     248.9708    -4838.848   -4340.8757    -4838.848            0    8509.3585    17.795106    22.983985    19.356636    7916.9117    10015.331    8600.4033    6912.3414   -413.27929    391.01668    232.37918   -3358.3848 
18340000    264.27865   -4823.6395   -4295.0496   -4823.6395            0    10416.616    17.952231    22.954001    19.172199     7900.394    8892.8172    10442.251    11914.781   -1079.9516    735.44625   -92.297696    -3094.856 
18341000    270.51435   -4846.0938   -4305.0317   -4846.0938            0    7825.6397    17.820477    23.148263    19.282438    7954.2581    7984.9402    7049.3872    8442.5917    775.17891   -695.23875    1888.0625   -3397.2208 
18342000    265.87957   -4832.8802   -4301.0883   -4832.8802            0    8416.5595    17.890298    23.172989    19.144142    7936.6192    9189.6733    8966.0832     7093.922    -1962.075    1178.1638   -975.10543   -3326.8929 
18343000    250.47562   -4778.5479   -4277.5657   -4778.5479            0     7770.792    17.957907    23.066748    19.326679    8005.7003    6616.7252    8669.7447     8025.906    802.44626    704.41242    594.13017   -3370.2875 
18344000    261.70446   -4806.7169   -4283.2756   -4806.7169            0    10566.395    17.743398    23.202579      19.1243    7873.3324    11661.371    9958.4117    10079.403    940.69567     -153.269   -695.11976   -3069.9948 
18345000    239.47741   -4802.6027   -4323.6183   -4802.6027            0    10329.523    17.831064    22.851305    19.373915    7894.1549     11482.29    10142.965    9363.3137    728.46935   -485.26143   -412.97487   -3134.3993 
18346000     266.9662    -4809.183   -4275.2176    -4809.183            0    8976.1891    18.061291    22.861328    19.273785    7958.2444    9297.0283    8850.4599     8781.079   -67.253932   -2033.3105   -1201.3809   -3233.4157 
18347000    254.25574   -4801.1183   -4292.5754   -4801.1183            0    10004.858    17.969808    22.843085    19.225622    7891.8459    12073.627    8830.9179    9110.0293   -1686.8914   -431.73179   -579.81794   -3141.0715 
18348000     263.8169   -4822.7904    -4295.124   -4822.7904            0    9366.7235    17.976606    22.936466     19.21214    7921.5461    10422.494     8427.971    9249.7049    566.03991   -941.96467    975.03873   -3213.0086 
18349000    260.58748   -4810.1113   -4288.9041   -4810.1113            0    9503.4138    17.858504    23.195237    19.199498    7953.0511    10422.063    8540.4395    9547.7392    842.34625    245.05345    393.67738   -3186.6308 
18350000    266.32534   -4829.6047   -4296.9211   -4829.6047            0    7919.2217    17.869274    23.366362    19.090277    7970.9528    7035.2252    7711.4716    9010.9683    546.06219    -66.35847     743.5664   -3376.3261 
18351000    255.71969   -4840.7758   -4329.3048   -4840.7758            0    8888.5814    17.799819    23.167455    19.178335    7908.6944     7963.369    9602.6533    9099.7217    440.31128    201.65857     -1003.21   -3304.0941 
18352000    255.24016   -4806.5721   -4296.0603   -4806.5721            0    8388.4584     17.78051    23.224524    19.228975    7940.4876    8607.0662    7775.1531    8783.1559    568.52241   -1099.9681    140.49547   -3324.6443 
18353000    269.20816   -4807.0085   -4268.5589   -4807.0085            0    9468.8873    17.794643     23.24793    19.076931    7891.9094    10152.206    8948.8046    9305.6515    449.59135   -481.83957   -662.51109   -3178.7335 
18354000    257.47901    -4781.082   -4266.0922    -4781.082            0    10732.707    18.059756    22.980196    19.036261    7900.3673    8763.8788     10683.91    12750.334    1188.1672    126.40354   -682.15792    -3029.483 
18355000    274.81104   -4780.7754   -4231.1193   -4780.7754            0    10029.614    17.873444    23.044887    19.184843    7902.0739     10923.86    9706.9698    9458.0121    925.48662    425.21587    2182.5516   -3075.2701 
18356000    256.13356    -4833.202   -4320.9032    -4833.202            0    7614.5277    17.911719    23.267567    19.098713    7959.6203    6887.0869    8172.4325    7784.0637   -283.04285   -522.85876   -955.56483   -3436.9868 
18357000    270.21101   -4825.3691   -4284.9137   -4825.3691            0    9058.5559    17.890246    22.971183    19.273464    7920.6247     10145.55    8552.9554    8477.1623    608.90969    637.51446    1883.0131    -3238.522 
18358000    275.11802   -4823.7998   -4273.5298   -4823.7998            0    8674.0976    18.120194     22.70067    19.381127    7972.2436    9254.9147    8628.3192    8139.0588    16.905404   -357.35758    1449.4667   -3265.0186 
18359000    271.41196   -4847.8256   -4304.9682   -4847.8256            0     8921.154    18.000305    22.814323    19.307912    7929.0795     10525.49    8413.6614    7824.3104   -1063.6278    812.01893    809.15446   -3273.3483 
18360000    274.47956   -4815.7794   -4266.7864   -4815.7794            0    9269.1922    18.020314    22.795152    19.305365    7930.1766    8860.4569    9790.9583    9156.1614   -643.03562    153.41816   -804.81379   -3194.7719 
18361000    268.28274   -4787.7606   -4251.1619   -4787.7606            0    8857.4017      17.9174    22.848579    19.427153    7953.2264    8681.7384    8871.5052    9018.9614   -597.80755   -517.32937    699.68555    -3223.795 
18362000    276.99403   -4831.9782    -4277.956   -4831.9782            0    9264.2401    18.063326    22.831846    19.174452    7907.9098    9176.2283    7331.4738    11285.018   -176.01383   -75.999039    190.75737   -3209.5227 
18363000    258.46333   -4826.6025   -4309.6439   -4826.6025            0    8798.2181    17.916257    22.912729    19.271062    7910.9703    9083.1876    9284.3265    8027.1401    329.28606   -324.76078   -55.006804   -3294.5637 
18364000    270.86066   -4822.4471   -4280.6923   -4822.4471            0    7099.5115     18.00431     22.98873    19.288183    7983.3059    4402.1312    7579.9388    9316.4646     1199.364    400.06853    292.40137   -3454.1081 
18365000    265.64494   -4820.4246   -4289.1019   -4820.4246            0    7666.5844    17.809233    23.037772    19.410417    7963.8038    7463.2227     7321.373    8215.1576    1710.2707   -1610.1865   -577.15135   -3398.6748 
18366000    260.04503   -4839.4894   -4319.3672   -4839.4894            0    8658.7054    17.993587    22.868439    19.330644    7954.2745    8621.7645    8379.8211    8974.5305    769.44895   -42.356846    -184.2163   -3314.9147 
18367000    254.50698   -4838.7395   -4329.6941   -4838.7395            0    7267.6796    17.853285    23.099096    19.274253    7948.6007    7496.8209    6470.6294    7835.5885    2399.5067   -647.11311    249.93375   -3487.2088 
18368000    254.11278   -4823.9649   -4315.7079   -4823.9649            0    8195.0337    17.846343    23.105856    19.209284    7921.0446    6913.9711     8553.744    9117.3859    339.96328    1016.5862   -1232.0999   -3369.0151 
18369000    253.10752   -4819.1541   -4312.9078   -4819.1541            0    8576.7221    17.937618    23.189436     19.11188    7949.8392    8742.4927    7708.6402    9279.0336   -140.31129   -59.551256   -1000.3063   -3318.5205 
18370000     264.8472    -4825.061   -4295.3339    -4825.061            0    8555.8697    17.811179    22.949386    19.426812    7940.8186    9870.4675    8531.4771    7265.6645     1808.089    20.743327     1532.628   -3304.4898 
18371000    257.68994     -4827.07   -4311.6583     -4827.07            0    7108.7638    17.986571    23.220585    19.051281    7956.9331    7101.5734    5517.6502    8707.0678   -556.27707   -1375.8678    405.24648    -3486.731 
18372000    271.55622   -4809.2317   -4266.0857   -4809.2317            0     8988.928    17.892245    22.976711    19.324951    7944.5826    8835.1759    8809.5705    9322.0376     502.8859   -793.60548    864.77093   -3224.5963 
18373000    259.33558   -4801.2248   -4282.5216   -4801.2248            0     10473.82    17.958275    22.885116    19.192092    7887.5119    9806.1287     11550.55     10064.78   -738.61957    534.85821   -463.58499   -3077.7048 
18374000    261.04661   -4792.4403   -4270.3148   -4792.4403            0    6578.8596    17.929403     23.14381    19.251781    7988.6172    6283.7228    6270.8743    7181.9817   -855.67464   -757.41873     1554.801   -3503.8396 
18375000    268.52923   -4802.0386    -4264.947   -4802.0386            0    8568.7498     17.90271    22.957174    19.359791    7956.7895    7873.3532    8850.0203    8982.8759   -357.48728    1012.4614   -995.31688   -3270.6154 
18376000     258.6569   -4823.4317    -4306.086   -4823.4317            0    8463.0182    18.005926    22.970439    19.196618    7939.7985     7951.907    8427.1289    9010.0187   -565.83735    128.43126    827.86228   -3326.1208 
18377000    256.82165   -4819.3114   -4305.6364   -4819.3114            0    7994.5522    17.824438    23.033226    19.369247    7952.1282    9406.3217    7702.2206    6875.1143    1735.3747    383.95618    3098.6375   -3378.4791 
18378000    247.23783     -4805.95   -4311.4438     -4805.95            0      8291.08    17.831086    23.019726    19.405821    7965.4434    8914.8907     6785.649    9172.7005   -1838.4254    476.18144   -1668.7892   -3348.2871 
18379000    272.62755   -4794.1975   -4248.9087   -4794.1975            0    6506.6983    17.969989    23.094896    19.265486    7995.4662     6321.287    7598.4255    5600.3825   -71.618301   -379.95184     901.5267   -3490.1908 
18380000    256.71261   -4854.4149    -4340.958   -4854.4149            0    7252.9464    17.939386    23.031934    19.316419    7981.1342    9503.6881     6307.988     5947.163   -916.46128    1108.8336    135.25304   -3496.7393 
18381000    248.91076   -4826.2422   -4328.3899   -4826.2422            0      8804.21    17.838958    23.161444    19.138566    7907.5966     8496.416    8784.8734    9131.3405   -1042.0446    424.57363    615.65171   -3313.0515 
18382000    280.62417   -4812.2664   -4250.9834   -4812.2664            0    8572.1082    17.746932    23.159765    19.266421    7918.7835    9581.3116    8592.4887    7542.5243    668.61225   -15.422359    1191.2446   -3261.0135 
18383000    268.33269   -4809.8373   -4273.1387   -4809.8373            0    7904.1175    17.958514    23.090251    19.247191    7981.1669    8330.3792    7150.2684    8231.7049    103.87361   -2059.1355    1880.9816   -3353.1221 
18384000      249.517   -4821.1658    -4322.101   -4821.1658            0    6769.9177    17.898277    23.085684    19.250793    7954.3117    6592.0585    6334.1066    7383.5881   -281.55818   -579.39657    555.42761   -3536.7534 
18385000    247.62591   -4794.5414   -4299.2589   -4794.5414            0    10541.667     17.84556    23.114976    19.115758    7885.2446    11040.638    10029.098    10555.264   -397.35685    603.06669    2193.6061   -3086.9862 
18386000    279.52694   -4809.4176   -4250.3292   -4809.4176            0    10584.827    17.700176    23.188689    19.180018     7872.321    11268.023    9949.6558    10536.803   -1934.3119   -509.88625   -1162.5792   -3035.0881 
18387000    260.65057    -4823.056   -4301.7226    -4823.056            0    7993.8472    17.842387     23.03392    19.286367    7926.3132    8838.1208    7558.2424    7585.1784    168.64887   -79.446561   -1857.1656   -3377.6567 
18388000    261.18082   -4814.1642   -4291.7703   -4814.1642            0    9865.9507    17.915759    23.080862    19.138063     7913.803     7213.409    10478.495    11905.948    61.080941     606.7277   -1191.7091   -3153.0946 
18389000    244.62635   -4819.9916   -4330.7087   -4819.9916            0    9225.3776    18.013878    22.931249    19.220698    7939.7002    9982.5616    8182.0923    9511.4789   -1092.7619    444.87086   -886.20974   -3262.4802 
18390000    259.11835   -4789.4256   -4271.1569   -4789.4256            0    8576.6901    17.775794    23.189972    19.263069    7940.6257    9983.8888    7916.0281    7830.1533    1953.8274    282.45054     459.1692   -3277.9258 
18391000    257.07558    -4819.149   -4304.9661    -4819.149            0    7454.0752    17.828902     23.25509    19.201851    7961.3314    6369.6594    7828.1948    8164.3715   -2396.6901   -145.24632   -2025.1465   -3439.4894 
18392000    261.57534   -4816.8418   -4293.6588   -4816.8418            0     8425.378    17.893255    22.951436    19.278073    7917.0399    8317.4085     7452.483    9506.2425   -1300.0725    371.88274    847.09587   -3320.8486 
18393000    258.75125   -4826.5538   -4309.0193   -4826.5538            0    6990.8183    18.085986    22.757337    19.336327    7958.6171    7788.9371    6798.4432    6385.0746    607.33549    -374.1775    1869.7367   -3497.6072 
18394000      259.275   -4810.0772   -4291.4952   -4810.0772            0    8440.7958    18.006561    22.868321    19.289715    7943.1153     6474.734    9512.3812    9335.2721   -1251.1755   -21.247547   -877.51146   -3313.6949 
18395000    256.50232   -4808.1524    -4295.116   -4808.1524            0    9170.4507    17.889302    22.861034    19.406496    7936.6347    9348.5822     8337.215    9825.5549    1834.4206   -109.96774    147.53328   -3233.6577 
18396000    261.67323   -4825.2736   -4301.8948   -4825.2736            0    8006.1101    17.995656    22.706734    19.396252    7925.7462     6310.525    9134.9613    8572.8439    549.87195    200.26531   -434.20773   -3376.4775 
18397000    250.15657   -4829.7036   -4329.3596   -4829.7036            0    8685.8834    18.153578     22.53519    19.423997     7946.247    8814.4861    9756.3577    7486.8064    110.39916    1951.3533    1843.3813   -3322.7711 
18398000    270.10125   -4844.1935   -4303.9576   -4844.1935            0    7491.9756    18.053085     22.69456    19.411621    7953.0734    10838.006    6954.9817    4682.9392   -1779.3779   -26.065999    -644.7087   -3434.9827 
18399000    267.04117   -4794.3312   -4260.2158   -4794.3312            0    9209.8405    18.048811    22.888155    19.230835    7944.3342    7011.0909    10307.323    10311.107    650.91819    1201.3492    381.27183    -3193.164 
18400000    257.22075   -4821.2513    -4306.778   -4821.2513            0    7197.8915     18.12533    22.541846     19.52113     7975.912    6606.2927    7628.4939    7358.8879    565.52704   -969.80646    1941.6749   -3469.5157 
18401000    267.25506   -4782.5407   -4247.9975   -4782.5407            0    7106.6659    18.070198    22.955073    19.304625    8007.6109    7432.2457      7108.18    6779.5721   -578.88458   -455.77185    181.87541   -3418.0613 
18402000    261.53026   -4798.8402   -4275.7473   -4798.8402            0    8610.6857    17.912922    22.785927    19.365476    7904.2616    10318.974    8578.2536    6934.8298   -199.62925    599.40834    216.50499   -3283.1458 
18403000    265.51909   -4810.1719    -4279.101   -4810.1719            0    7102.1599    18.090797    22.873367    19.309943    7990.4049    6010.8772    7518.7172    7776.8853   -1368.1931   -26.657469    -25.67936   -3451.4731 
18404000    265.14259   -4827.1058   -4296.7879   -4827.1058            0      8937.19     17.88045    22.626374    19.543947    7906.8897    10754.759    9188.3798    6868.4311    291.26719   -649.89503    1484.6846   -3266.2059 
18405000    257.67904    -4818.437   -4303.0471    -4818.437            0    8803.3015     18.19413    22.728072    19.199803    7939.4544    7183.2382    9824.0414     9402.625   -25.282414   -13.167377    -1468.419   -3283.7234 
18406000     258.0243   -4845.9426   -4329.8621   -4845.9426            0     6095.252    17.930928    22.912641    19.446256    7989.3951    6268.3659     5967.774     6049.616   -64.158225   -42.524967     121.1665   -3619.6608 
18407000    257.83599   -4817.8683   -4302.1645   -4817.8683            0    9392.5007    17.955118    22.956686    19.216119    7920.6919    9179.9233    9683.1277    9314.4513    1662.3126   -1584.9242   -248.41345   -3217.1882 
18408000    253.40986   -4823.9935   -4317.1424   -4823.9935            0    10009.861    17.991825    22.852005    19.210253    7898.2817    8662.1592    9747.9841    11619.441    285.21907   -954.94957   -355.37796   -3164.1231 
18409000    252.72519   -4835.1864   -4329.7048   -4835.1864            0     6458.014    17.895383    23.041595    19.385538    7993.3971    6763.1197     6625.989    5984.9334    1353.3098    1025.2979    1045.7376   -3576.8586 
18410000    264.87793   -4816.3291   -4286.5405   -4816.3291            0    9091.5464     17.95572    23.021975    19.222038     7945.932    9145.8832    8366.5885    9762.1675    467.67653    987.59116   -1669.3273   -3232.9824 
18411000    257.20682   -4825.3782   -4310.9328   -4825.3782            0    9091.3954    17.853182    23.171324    19.134422    7915.5635    7207.5687    8998.4984    11068.119    1820.5109   -123.65318    2492.4372   -3261.4187 
18412000    265.27279    -4822.941   -4292.3627    -4822.941            0     6886.802    17.931711    23.049528    19.266459    7963.1643    6877.4725    7089.9393    6692.9942   -1816.5892   -23.094881   -626.16444   -3492.5668 
18413000    252.41353   -4802.3065   -4297.4482   -4802.3065            0      7458.83    17.929088    23.043424    19.257614    7956.2365    6697.5903    7749.2093    7929.6906   -326.27509   -639.12588    233.01642   -3431.9737 
18414000    246.22306   -4802.6295    -4310.153   -4802.6295            0    9196.1033    17.830465    23.037523    19.321528     7936.699     8698.242    8780.7038    10109.364   -671.10393     693.9308   -1516.6111   -3245.7168 
18415000    262.96442   -4826.0133   -4300.0519   -4826.0133            0     9429.737    17.825793    22.976095      19.3002    7904.7273     9713.582    7953.9654    10621.664    1999.0055    375.03123    317.73796   -3212.9698 
18416000    267.76551   -4784.7601    -4249.196   -4784.7601            0    9237.9321    18.009797    22.929357    19.336902    7985.2331    9101.4473    9536.3498    9075.9992    1823.9078    839.75485   -259.04379   -3173.3794 
18417000    264.12367   -4830.9268   -4302.6469   -4830.9268            0    9070.5317    17.812358    23.041141    19.255803    7902.9099    10996.227    7216.2773    8999.0903    40.887169   -1348.4154   -1974.1731   -3257.2152 
18418000    249.50369    -4761.999   -4262.9608    -4761.999            0     8227.216    17.853446    23.074814    19.279407    7942.4397     7991.752    8784.2798    7905.6162   -130.62006   -528.96451   -191.42144   -3309.9831 
18419000    281.03873   -4813.3816   -4251.2695   -4813.3816            0    9964.7871    17.813044    22.997465    19.239935     7881.733    10551.094    10033.228    9310.0384    933.85257   -442.05651   -67.612612   -3105.8472 
18420000    255.35949   -4794.0853   -4283.3347   -4794.0853            0     9574.433    17.882995    23.035694    19.230652    7922.0129    9182.0383    9743.9297    9797.3309   -157.35147   -614.29292    525.59926    -3177.158 
18421000    260.92632    -4796.352   -4274.4671    -4796.352            0    7584.9273    17.924723    23.190021    19.119068     7947.313    7837.1663    7499.0088    7418.6068   -734.43114    75.112312    139.60751   -3395.3482 
18422000    259.91895   -4836.5951    -4316.725   -4836.5951            0    7636.1318    17.686746    23.090004    19.436271    7937.5209    7498.8763    8221.0905    7188.4285    490.93492    832.48661    1450.8397   -3432.7618 
18423000    256.75185   -4829.3341   -4315.7987   -4829.3341            0    9482.0084    17.948662    23.144155     18.98861     7887.994    9501.5341    9113.0138    9831.4772   -2165.3039    170.94241   -1931.1078   -3225.0046 
18424000    274.02299   -4853.8049    -4305.725   -4853.8049            0    8388.2712    17.717497    23.067737    19.356616    7911.0986    12214.487    6172.6666    6777.6601   -184.46379   -529.18855    219.98519   -3337.9261 
18425000     259.7748   -4821.1207    -4301.539   -4821.1207            0    10077.316    17.907992    23.010336    19.147713    7890.1774    8719.9225    11037.287     10474.74   -79.063176    180.83551    987.87879   -3141.9408 
18426000     249.3606   -4793.8616   -4295.1096   -4793.8616            0    11224.346    17.730281    23.211615    19.204465    7903.5679    12330.829    10727.838    10614.371    2088.9994   -438.98291    1131.2238   -3001.3305 
18427000    272.16467   -4816.8261   -4272.4631   -4816.8261            0    7779.2556    17.798725    22.906437    19.514078    7955.9944    7718.8617    9545.5038    6073.4012   -552.43387    8.8886204    -3005.438   -3369.8359 
18428000    266.55393   -4820.5691   -4287.4284   -4820.5691            0     8316.995     18.05467    22.868936    19.260887     7952.649     8514.505    7975.8915    8460.5884    582.30346   -840.01802    1132.4775   -3322.8131 
18429000    269.43428   -4820.9738   -4282.0719   -4820.9738            0    6665.3708    17.975244    22.941378    19.408796    8003.7386     8477.265    5625.5836    5893.2639    1023.8512   -109.10556    342.69269   -3504.0477 
18430000     263.0928   -4812.8804   -4286.6623   -4812.8804            0    8003.3305    18.148597    22.834042    19.237499    7972.1316    8070.5996    7637.2763    8302.1156     77.42973   -460.54731   -1242.0536   -3356.1522 
18431000    267.75349   -4835.6843   -4300.1442   -4835.6843            0     10084.86     18.03782    22.651937    19.303568    7887.2753    10383.144     8964.543    10906.894   -547.62561   -757.66506    804.10859   -3140.1047 
18432000    263.41124   -4806.9501    -4280.095   -4806.9501            0     9451.398    17.932759    22.826615    19.357906    7924.0463    10182.773    8334.0721    9837.3491    31.343736   -748.47414   -2988.9655   -3187.8529 
18433000    257.26416   -4826.7842   -4312.2241   -4826.7842            0    8760.4753    18.148325    22.715864    19.207535    7918.4001    9023.6066    9377.2968    7880.5224    1009.2181    248.32336    622.42129   -3300.5491 
18434000    257.42218   -4838.2434   -4323.3673   -4838.2434            0    9882.0612    18.021069    22.731403    19.354205    7928.3379    8748.8793     11267.08    9630.2243    411.83183   -115.28222   -2405.8245   -3180.7374 
18435000    275.71811   -4820.8254   -4269.3551   -4820.8254            0    8296.2101    17.948918    22.950537    19.334842    7964.7426    7162.4363    8696.7522    9029.4417    717.47704   -194.84361    676.59032   -3305.6873 
18436000    274.97497   -4812.9727   -4262.9888   -4812.9727            0    9509.3257    17.777173    22.936365    19.363291    7895.2606    11604.753    9508.6029    7414.6212    286.63652    355.32361   -2093.0007   -3168.0444 
18437000    260.07218   -4827.5692   -4307.3927   -4827.5692            0    7320.7484    18.150897    22.685665    19.323352    7956.6836    5762.0785    8773.7264    7426.4403    1693.6657    178.92693   -936.30605   -3457.8925 
18438000    272.47722   -4820.1801    -4275.192   -4820.1801            0    9471.1406    17.987282    22.906554     19.22598    7921.6162    7754.1802    10957.832    9701.4102    -80.66699    2013.6716   -2399.2337    -3181.004 
18439000    250.87567   -4822.0107   -4320.2284   -4822.0107            0    7921.5334    17.901878    23.006949    19.318349    7956.6019    7232.5853    8842.6778    7689.3371    1115.5902    213.37423     745.5701   -3401.0225 
18440000    261.71731   -4767.1901   -4243.7231   -4767.1901            0    9639.3522    18.021009    22.880303     19.25716    7940.2308    9162.3536    9054.5645    10701.139    -1215.456   -1152.4971   -857.60377    -3127.485 
18441000    261.68275    -4800.777   -4277.3792    -4800.777            0    7157.7176    18.068601     22.78123    19.409979    7989.6316    7051.8388    6482.3214    7938.9927    132.82118   -210.50243    685.50007   -3443.3578 
18442000    259.81332   -4793.0117    -4273.353   -4793.0117            0    9822.1596    18.000717    22.792143    19.277767    7909.1845    9460.6313    10297.829    9708.0182    1194.6985   -686.85219   -343.89854    -3140.393 
18443000    268.71917   -4824.1129   -4286.6414   -4824.1129            0    9824.3598    17.890458    22.781263    19.344628    7884.2364    10080.099    9971.7888    9421.1918    344.33455   -748.37488   -302.94062   -3157.0021 
18444000    263.22224    -4816.144    -4289.667    -4816.144            0    8070.9435    18.102044    22.874048    19.198347    7949.4026    5880.6618    9761.7013    8570.4673    555.66608   -658.69164   -781.50279   -3353.9712 
18445000    255.68497   -4806.8532   -4295.4517   -4806.8532            0    7992.0463    17.891397     22.96875    19.427141    7983.4479     9191.452    8433.4917    6351.1952    328.33204    1262.3017   -1676.4421   -3364.9345 
18446000    249.20028    -4800.692   -4302.2607    -4800.692            0    8589.4269    17.997169    23.092351    19.120898    7946.5869    9317.4129    7903.6814    8547.1863     -200.242    247.06608   -2158.7555   -3306.8078 
18447000    256.45353   -4803.1661   -4290.2274   -4803.1661            0    7544.8229    17.919761     22.98756    19.332807    7963.7941    8107.9017    7108.8696    7417.6974   -24.763243   -122.88047    43.219254   -3413.9432 
18448000    254.77733   -4807.8964   -4298.3102   -4807.8964            0    8103.0967    17.794447    23.039492    19.356093    7935.5144    9360.9629    8100.2568    6848.0704    360.54153   -95.714455   -1656.2138    -3360.528 
18449000    268.95133   -4808.9328   -4270.9969   -4808.9328            0    9131.3433    18.072783    22.789364    19.259866    7932.5079     8063.394    10370.461    8960.1748    1393.7309    647.87249   -330.06715   -3214.6147 
18450000    258.30254   -4814.9134   -4298.2764   -4814.9134            0    7871.4224    18.034999    22.849252    19.275865    7943.3184    8708.1572    7020.3291    7885.7809   -772.61143   -1406.9115   -1682.9693   -3386.4103 
18451000     267.3805   -4824.7496   -4289.9556   -4824.7496            0    8964.5031    17.894732    22.941788    19.366056     7950.485    9909.3127    9240.9126    7743.2841    139.18021    88.213708   -225.96756   -3250.5244 
18452000    266.83703   -4834.5563   -4300.8493   -4834.5563            0    7363.5685    17.984658    23.036184    19.185515    7948.5186     5613.091     7913.754    8563.8604   -1237.4099   -807.99718   -949.07475   -3447.2571 
18453000    259.41601   -4843.1688   -4324.3047   -4843.1688            0    9726.4882    17.807014    22.836929    19.379354    7880.7599    12228.704    9253.1236     7697.637    382.01851      516.983   -214.69655   -3206.4122 
18454000    255.93405   -4840.3941   -4328.4944   -4840.3941            0    9415.1455    17.966105    23.005764    19.202037    7936.6623    8319.3405    9548.2782    10377.818   -605.18996    700.47529    152.12686   -3238.7094 
18455000    259.96582   -4845.3784   -4325.4146   -4845.3784            0    8037.6455    17.779164    23.210402    19.250226    7943.8279    8251.6004    7397.0879     8464.248    -198.9118   -725.10214   -347.64553   -3394.2327 
18456000    261.10614   -4830.3979   -4308.1533   -4830.3979            0    7683.5391    17.959845    23.125558    19.087282    7927.5485    6808.3649    7639.2267    8603.0257    854.87253   -734.42356    437.97702   -3419.8197 
18457000    266.05399   -4819.4169   -4287.2761   -4819.4169            0    8710.9104    17.883707     22.95919    19.346308     7943.506    9795.0904    8595.1717     7742.469    19.169938   -608.65169   -1786.2993   -3278.1355 
18458000    269.42196   -4814.6318   -4275.7546   -4814.6318            0    7738.1437    18.059213    23.015631    19.185775    7974.4561     11014.74    6077.3002    6122.3906   -512.65107    241.96325    873.70235   -3375.8142 
18459000    262.73935   -4817.6428   -4292.1317   -4817.6428            0    8208.0421    17.645709    23.408076    19.231684    7943.6873    9886.6853    7888.0159    6849.4252    1292.3911     626.2817    437.77416   -3341.2256 
18460000    264.16681   -4797.8307   -4269.4645   -4797.8307            0    9489.9221    17.839537    23.084115    19.256628    7930.0704    9796.4462    8744.1598    9929.1603   -610.85241   -191.05396   -1210.3574   -3171.9365 
18461000    258.99967   -4801.6359   -4283.6046   -4801.6359            0    7329.1574    17.842836    23.233512    19.157452    7941.7551    8834.6422    6478.3066    6674.5235   -399.77502   -603.30435   -2269.0573   -3434.7243 
18462000     257.0827   -4806.2131    -4292.016   -4806.2131            0    9370.6492    17.811902    23.356426    19.074724    7935.5121    10961.653    8760.9535    8389.3406    427.52967      919.018   -318.74548   -3207.5385 
18463000    261.49436   -4823.9636   -4300.9426   -4823.9636            0    8527.8553    17.836611    23.165649    19.238324     7949.211    10575.454     7580.599    7427.5132   -1767.3854   -426.69278   -1696.6373    -3312.299 
18464000    259.69017    -4818.714   -4299.3016    -4818.714            0    7361.3476       17.824    23.105508    19.332959    7961.9422    9825.1746    7171.6883    5087.1798   -1986.1211    -333.4834    14.975713   -3444.5257 
18465000    251.57366   -4843.8551   -4340.6767   -4843.8551            0    8281.3634    17.913155     23.20401    19.115881    7945.6502    7855.6878    8366.7448    8621.6576    440.98847    142.15602    2853.1125   -3381.0392 
18466000    253.08177   -4811.4527   -4305.2579   -4811.4527            0    5925.8898    17.914524     23.13608    19.352491    8021.0632    6877.8383    5188.8459    5710.9852    134.92762    -316.2724    1266.5216   -3612.0533 
18467000    258.38002   -4847.6298   -4330.8378   -4847.6298            0    8932.9984    17.987084    22.890766    19.241851    7922.6038    8824.6477    8307.7278    9666.6197    196.72239    145.33914    1086.3567   -3298.6919 
18468000    262.83456   -4811.6422   -4285.9406   -4811.6422            0    6505.2011    17.994657    23.001696    19.358592     8012.669    5550.5154    6806.4018     7158.686   -777.34623   -275.13438    436.89508   -3525.7652 
18469000    250.72475   -4795.4621   -4293.9816   -4795.4621            0    8594.1204    17.963811    22.737464    19.459252    7948.1611    9270.5657     8425.851    8085.9445   -263.58691   -735.05685     496.1878   -3297.7874 
18470000    248.57369   -4831.9397   -4334.7616   -4831.9397            0    9113.6969    18.120533    22.530402    19.403548    7921.7485    8694.3756    9406.2308    9240.4844    779.51995   -1692.4811   -857.62284   -3281.8509 
18471000    257.23251   -4804.5709   -4290.0741   -4804.5709            0    9104.4441    17.784469    22.954663    19.416234    7926.4153    9473.9449    9355.6397    8483.7475    -118.1524   -1003.0873    433.17712   -3237.6128 
18472000    253.31813   -4844.3021   -4337.6346   -4844.3021            0    7981.9964    18.013068    22.833332    19.284451    7931.6633    9204.3524    7256.6121    7485.0247   -265.45988   -929.86736   -607.44306   -3414.3158 
18473000    251.79601   -4824.6472   -4321.0241   -4824.6472            0    8867.2576    17.908423    22.866207    19.367735    7931.0429    9373.3321    9598.0506      7630.39    1127.7744    158.02625    442.29536   -3295.3827 
18474000    273.35277   -4837.1854   -4290.4461   -4837.1854            0    10467.846    17.956651    22.881901    19.210652     7893.317    10329.345    10086.369    10987.825   -1842.6253   -689.98623   -4.4936552   -3085.4302 
18475000    269.65106    -4846.381   -4307.0456    -4846.381            0     10562.95    17.803411    22.967464    19.254928    7873.3245    11418.217    9887.7616    10382.871   -313.75195   -560.32303    407.87216   -3094.1616 
18476000    270.27476   -4841.6288   -4301.0459   -4841.6288            0     8157.208     17.84783    23.110775    19.180409    7911.4811    7768.9824    8493.4767    8209.1648   -409.28382   -588.42204   -214.62363   -3359.8604 
18477000    269.75493   -4768.5224   -4228.9792   -4768.5224            0    9458.8086    17.884132    23.141736    19.209314    7950.1562     10001.12    9290.8009    9084.5047   -464.62914   -918.62828   -515.45116   -3132.2789 
18478000    273.85082   -4817.6886   -4269.9531   -4817.6886            0    9948.8188    17.980523    22.886064    19.261981     7926.371    10435.788    9922.5171    9488.1509   -54.506414    1583.6713   -291.77567   -3119.8897 
18479000    269.87014   -4816.4935   -4276.7199   -4816.4935            0    8010.2833    17.936643    22.773516    19.438075    7940.0733    8946.8818    7541.8677    7542.1004   -280.20873   -223.69297    103.91236   -3349.1466 
18480000    277.40963   -4801.5451   -4246.6916   -4801.5451            0     8128.203    18.008835    22.966846    19.253924    7963.5411    7940.3382    8179.2131    8265.0576   -707.77673   -472.06592    1221.8643   -3302.6815 
18481000    273.26279   -4809.7043    -4263.145   -4809.7043            0    10123.684    17.821455    22.947216    19.324448    7902.7868    9552.6102     11358.38    9460.0617   -205.39908    97.760638    1854.1926   -3096.3495 
18482000    274.37975   -4841.5186   -4292.7252   -4841.5186            0    8892.4139    18.120538    22.679807    19.268453    7918.7621    9696.6466    8907.1197    8073.4753    39.845564   -66.248665    497.95628   -3265.7668 
18483000    257.55652   -4818.7298   -4303.5849   -4818.7298            0    9117.9607    18.029452    22.595673    19.432732    7916.6546    10462.385    9199.9725    7691.5241    -564.5278   -34.102516   -1132.1895    -3250.859 
18484000    277.88709     -4821.15   -4265.3415     -4821.15            0    8698.3011    18.000556    22.839918    19.269897    7922.4561    8966.3001    8104.3017    9024.3014    1769.5158     253.6393   -1211.0382    -3260.332 
18485000    263.49181   -4840.5044   -4313.4883   -4840.5044            0    9834.1159    17.858758    22.891264    19.262204    7874.5732    12771.649    9784.4644    6946.2348    674.95893   -1013.9517    235.00811   -3184.1131 
18486000    267.41981   -4846.5458   -4311.6731   -4846.5458            0     7842.789    18.092936    22.899864    19.287379     7991.258    4688.9867    7893.4136    10945.967    923.58107   -337.57248   -480.04474   -3397.6407 
18487000    259.47155   -4818.1802    -4299.205   -4818.1802            0    10719.804     17.91251    22.823691    19.275467    7880.3815    11001.688    10719.927    10437.797    324.70334   -229.17775    483.39601   -3067.2071 
18488000    266.86234   -4807.4671   -4273.7094   -4807.4671            0    7922.9899    18.137169    22.489562     19.57183    7983.2906    7961.0938    8912.6801    6895.1959    201.98663   -169.16272    181.90113   -3351.2507 
18489000    259.55015   -4808.9889   -4289.8565   -4808.9889            0    9740.7759    18.056021    22.756195    19.240913    7905.8284    7463.2002    10886.439    10872.689     610.8782    7.1135842   -118.73189   -3166.7607 
18490000    272.40463   -4810.5054   -4265.6625   -4810.5054            0    10215.829    17.795051     22.74442    19.474465    7882.0582    11591.539    10062.841    8993.1083   -216.85655   -738.61049    490.75582   -3091.3352 
18491000    260.25018   -4834.6997   -4314.1672   -4834.6997            0    7895.7964    18.176287    22.749317    19.216262     7945.888     7950.725    8085.3493     7651.315    2013.0322    113.14006     2053.751   -3399.1816 
18492000    267.97066   -4834.7097   -4298.7353   -4834.7097            0    8446.5605    17.899256     22.76025    19.484033    7937.6306    8947.6659    9045.1684    7346.8471    622.26483   -33.915428    273.77573   -3320.9429 
18493000    275.64935    -4807.964   -4256.6312    -4807.964            0     9619.859    18.098268    22.645446    19.308776    7913.5729    9662.0997    10239.685    8957.7919   -94.856573     160.3479    355.58942   -3146.3904 
18494000    271.03061   -4801.4147     -4259.32   -4801.4147            0    9525.8405    18.003744    22.712739    19.342945     7909.608    11025.916    8647.9379    8903.6678     139.2304   -1414.4324    1682.3681   -3160.4808 
18495000    272.99376   -4810.7627   -4264.7414   -4810.7627            0    7500.2158    17.891783    22.971382    19.440131    7989.8745    8137.0152       6491.1    7872.5321    613.95494   -1348.9564    257.27283   -3390.7853 
18496000    257.22458   -4811.3618   -4296.8808   -4811.3618            0    8149.2808     17.99228    22.926736    19.265258    7947.0007    7310.4643    9520.8187    7616.5595    -158.9243    577.40447    1014.3537   -3352.3885 
18497000     254.6731   -4810.7837    -4301.406   -4810.7837            0    7608.1522    18.109303    22.753902     19.30642    7955.3511    7928.4501    7124.4971    7771.5094    1139.3425   -399.11365    15.187932   -3418.7034 
18498000     269.2482    -4790.044   -4251.5144    -4790.044            0    10670.575     17.89668    22.942352     19.18847    7878.6309    9239.9452    10411.172    12360.608   -124.13501   -438.97907    1352.9065   -3025.4466 
18499000    265.21487   -4845.8398   -4315.3773   -4845.8398            0    6164.3228    18.042125    22.848008    19.356787    7979.3827    6262.6735    5419.5401    6810.7547    499.42466     406.8814     5.326092   -3598.0282 
18500000    276.08764    -4806.448   -4254.2386    -4806.448            0     8363.939     18.01588    22.797087    19.353464     7948.653    8217.7405    9022.4421    7851.6342   -1234.5808    617.59181    685.68245   -3284.6661 
Loop time of 505.436 on 64 procs for 250000 steps with 1008 atoms

Performance: 85.471 ns/day, 0.281 hours/ns, 494.623 timesteps/s
99.2% CPU use with 64 MPI tasks x 1 OpenMP threads

MPI task timing breakdown:
Section |  min time  |  avg time  |  max time  |%varavg| %total
---------------------------------------------------------------
Pair    | 28.716     | 32.979     | 36.761     |  34.3 |  6.52
Bond    | 0.27674    | 0.28574    | 0.29585    |   0.9 |  0.06
Kspace  | 227.81     | 238.33     | 251.16     |  35.2 | 47.15
Neigh   | 4.6011     | 5.3628     | 6.3813     |  19.2 |  1.06
Comm    | 93.864     | 106.38     | 116.52     |  52.7 | 21.05
Output  | 1.3492     | 1.3497     | 1.3528     |   0.1 |  0.27
Modify  | 111.16     | 113.18     | 116.24     |  15.7 | 22.39
Other   |            | 7.569      |            |       |  1.50

Nlocal:        15.7500 ave          21 max          10 min
Histogram: 2 2 5 10 9 13 9 8 3 3
Nghost:        2513.50 ave        2535 max        2484 min
Histogram: 2 2 6 6 9 6 10 8 10 5
Neighs:        5265.27 ave        6973 max        3286 min
Histogram: 2 1 6 10 9 13 9 8 3 3

Total # of neighbors = 336977
Ave neighs/atom = 334.30258
Ave special neighs/atom = 2.0000000
Neighbor list builds = 9769
Dangerous builds = 0

unfix		3
unfix		2
unfix		1

write_data	data.final.${pid}
write_data	data.final.0
System init for write_data ...
PPPM initialization ...
  extracting TIP4P info from pair style
  using 12-bit tables for long-range coulomb (../kspace.cpp:340)
  G vector (1/distance) = 0.37928398
  grid = 24 27 32
  stencil order = 5
  estimated absolute RMS force accuracy = 0.0024441416
  estimated relative force accuracy = 7.36046e-06
  using double precision FFTW3
  3d grid and FFT values/proc = 3825 384
Last active /omp style is kspace_style pppm/tip4p/omp
WARNING: Not all mixed pair coeffs generated from mixing. Use write_data with 'pair ij' option to store all pair coeffs. (../write_data.cpp:312)

write_restart   restart.lmp.${pid}
write_restart   restart.lmp.0
System init for write_restart ...
PPPM initialization ...
  extracting TIP4P info from pair style
  using 12-bit tables for long-range coulomb (../kspace.cpp:340)
  G vector (1/distance) = 0.37928398
  grid = 24 27 32
  stencil order = 5
  estimated absolute RMS force accuracy = 0.0024441416
  estimated relative force accuracy = 7.36046e-06
  using double precision FFTW3
  3d grid and FFT values/proc = 3825 384
Last active /omp style is kspace_style pppm/tip4p/omp
Total wall time: 0:08:27
