LAMMPS (30 Jul 2021)
  using 1 OpenMP thread(s) per MPI task
package omp 0
using multi-threaded neighbor list subroutines
echo both

include		in.partitions
variable        pid world 0
include		in.temp
variable        temperature equal 263.32
variable	tempDamp equal 100.0
include		in.pressure
variable        pressure equal 4375.0
variable        pressureDamp equal 1000.0 # This is 1 ps
include		in.seed
variable        seed world 745823

units		real
atom_style	full
read_restart	restart.lmp.${pid}
read_restart	restart.lmp.0
Reading restart file ...
  restart file = 30 Jul 2021, LAMMPS = 30 Jul 2021
  restoring atom style full from restart
  orthogonal box = (0.44794897 1.6191560 0.54649669) to (17.759623 22.010022 21.666699)
  4 by 4 by 4 MPI processor grid
  restoring pair style lj/cut/tip4p/long/omp from restart
  restoring bond style harmonic/omp from restart
  restoring angle style harmonic/omp from restart
  864 atoms
  576 bonds
  288 angles
Finding 1-2 1-3 1-4 neighbors ...
  special bond factors lj:    0        0        0       
  special bond factors coul:  0        0        0       
     2 = max # of 1-2 neighbors
     1 = max # of 1-3 neighbors
     1 = max # of 1-4 neighbors
     2 = max # of special neighbors
  special bonds CPU = 0.050 seconds
  read_restart CPU = 0.130 seconds
include 	in.setup
variable	out_freq equal 1000
variable	out_freq2 equal 10000
variable	out_freq3 equal 1000

timestep	2.0

neigh_modify    delay 7 every 1

include		in.tip4p
# This is TIP4P/Ice

# create groups ###
group ox type 2
288 atoms in group ox
group hy type 1
576 atoms in group hy

# set charges - beside manually ###
set group ox charge -1.1794
Setting atom values ...
  288 settings made for charge
set group hy charge 0.5897
Setting atom values ...
  576 settings made for charge

# ### TIP3P Potential Parameters ###
pair_style lj/cut/tip4p/long/omp 2 1 1 1 0.1577 8.5
pair_coeff 1 1*2 0.000 0.000
pair_coeff 2 2 0.21084 3.1668
bond_style  harmonic
bond_coeff  1 450 0.9572
angle_style harmonic
angle_coeff 1 55 104.52
kspace_style pppm/tip4p/omp 1.0e-5
pair_modify tail yes

thermo          ${out_freq}
thermo          1000
thermo_style    custom step temp pe etotal epair emol press lx ly lz vol pxx pyy pzz pxy pxz pyz enthalpy

restart 	${out_freq3} restart.lmp.${pid} restart2.lmp.${pid}
restart 	1000 restart.lmp.${pid} restart2.lmp.${pid}
restart 	1000 restart.lmp.0 restart2.lmp.${pid}
restart 	1000 restart.lmp.0 restart2.lmp.0


include         in.dump
dump            myDump all atom ${out_freq2} dump.water.${pid}
dump            myDump all atom 10000 dump.water.${pid}
dump            myDump all atom 10000 dump.water.0
dump            myDump2 all dcd ${out_freq2} dump.dcd
dump            myDump2 all dcd 10000 dump.dcd
dump_modify     myDump append yes
dump_modify     myDump2 append yes


variable natoms 	equal  "count(all)"                        # NUMBER ATOMS
variable H      	equal  "enthalpy/v_natoms"                 # ENTHALPY-per-atom
variable Vol      	equal  "vol/v_natoms"                 # volume-per-atom
fix AVG all 		ave/time ${out_freq} 1 ${out_freq} v_Vol v_H file vol_enthalpy.dat
fix AVG all 		ave/time 1000 1 ${out_freq} v_Vol v_H file vol_enthalpy.dat
fix AVG all 		ave/time 1000 1 1000 v_Vol v_H file vol_enthalpy.dat


timer           timeout 23:50:00 every 1000
New timer settings: style=normal  mode=nosync  timeout=23:50:00

fix 		1 all shake 1e-6 200 0 b 1 a 1
       0 = # of size 2 clusters
       0 = # of size 3 clusters
       0 = # of size 4 clusters
     288 = # of frozen angles
  find clusters CPU = 0.001 seconds
fix             2 all nph iso ${pressure} ${pressure} ${pressureDamp}
fix             2 all nph iso 4375 ${pressure} ${pressureDamp}
fix             2 all nph iso 4375 4375 ${pressureDamp}
fix             2 all nph iso 4375 4375 1000
fix             3 all temp/csvr ${temperature} ${temperature} ${tempDamp} ${seed}
fix             3 all temp/csvr 263.32 ${temperature} ${tempDamp} ${seed}
fix             3 all temp/csvr 263.32 263.32 ${tempDamp} ${seed}
fix             3 all temp/csvr 263.32 263.32 100 ${seed}
fix             3 all temp/csvr 263.32 263.32 100 745823

run             250000
PPPM initialization ...
  extracting TIP4P info from pair style
  using 12-bit tables for long-range coulomb (../kspace.cpp:340)
  G vector (1/distance) = 0.37420408
  grid = 24 24 25
  stencil order = 5
  estimated absolute RMS force accuracy = 0.003078268
  estimated relative force accuracy = 9.2701128e-06
  using double precision FFTW3
  3d grid and FFT values/proc = 2730 288
Last active /omp style is kspace_style pppm/tip4p/omp
Neighbor list info ...
  update every 1 steps, delay 7 steps, check yes
  max neighbors/atom: 2000, page size: 100000
  master list distance cutoff = 10.8154
  ghost atom cutoff = 10.8154
  binsize = 5.4077, bins = 4 4 4
  1 neighbor lists, perpetual/occasional/extra = 1 0 0
  (1) pair lj/cut/tip4p/long/omp, perpetual
      attributes: half, newton on, omp
      pair build: half/bin/newton/omp
      stencil: half/bin/3d
      bin: standard
Per MPI rank memory allocation (min/avg/max) = 9.240 | 9.243 | 9.248 Mbytes
Step Temp PotEng TotEng E_pair E_mol Press Lx Ly Lz Volume Pxx Pyy Pzz Pxy Pxz Pyz Enthalpy 
 1750000    274.16881   -3830.5961   -3360.6802   -3830.5961            0    2573.3331    17.311674    20.390866    21.120202    7455.4321    1784.3142    996.72355    4938.9617    320.57442    136.76808   -1635.4181   -3080.8821 
 1751000    274.81265   -3894.0258   -3423.0063   -3894.0258            0    3748.8705    17.423737    20.522861    21.256919    7601.1541    2615.5262    5003.4339    3627.6516   -1268.4202   -318.13267   -426.73728   -3007.4251 
 1752000    252.07638   -3847.3769   -3415.3266   -3847.3769            0    3260.6751    17.290105     20.36546    21.093888    7427.6002    5428.3923    1849.4249    2504.2082   -563.67299   -291.81678    691.98791   -3062.1174 
 1753000    252.82928   -3855.0716   -3421.7309   -3855.0716            0    4601.5872    17.383339    20.475278    21.207634    7548.4055    5508.6938    4982.1576    3313.9103    838.86115   -1101.5572    317.77544   -2915.1617 
 1754000    251.09152   -3882.3218   -3451.9595   -3882.3218            0    5015.3212       17.294    20.370048     21.09864    7432.6206     3547.994    4592.9693    6905.0005    211.70444   -752.32255   -2170.6132    -2908.313 
 1755000    272.66853   -3855.7371   -3388.3926   -3855.7371            0    4638.7771    17.325274    20.406885    21.136794    7473.0168    4132.5263    5629.2599    4154.5451   -529.98877    -631.3003    -668.2511   -2882.8295 
 1756000    268.25002   -3847.3305   -3387.5592   -3847.3305            0    5244.2698     17.31282    20.392215      21.1216    7456.9124    7248.8141    2303.8733    6180.1219   -1271.2963   -208.46309   -676.37397   -2817.2374 
 1757000    270.74341   -3875.1761   -3411.1312   -3875.1761            0    4655.7959    17.356542    20.443714    21.174941    7513.5501    4965.9413    4981.1869    4020.2594   -403.32001     1043.712   -683.83366   -2900.9611 
 1758000    268.48327   -3847.5522   -3387.3811   -3847.5522            0    4828.6588    17.342854    20.427591    21.158241    7495.7878    5651.6802    4585.7002    4248.5959   -1037.7885    1677.3962    1484.8894     -2859.52 
 1759000    262.38186   -3796.7285    -3347.015   -3796.7285            0    5585.5829    17.352756    20.439254    21.170321     7508.634    6378.3168    5555.5457    4822.8861   -1158.3421    600.91343    1039.2619   -2735.3617 
 1760000     252.3818   -3815.3815   -3382.8077   -3815.3815            0    6026.6417    17.299762    20.376835    21.105669    7440.0522     7430.999     6220.608     4428.318   -809.44476   -373.27051    379.46829   -2728.8838 
 1761000    258.48624   -3825.3875   -3382.3509   -3825.3875            0    5336.4704    17.312423    20.391747    21.121115    7456.3986    6923.3412    4404.9022    4681.1678    53.305686   -739.20803    182.99307   -2802.0422 
 1762000    275.60838   -3827.7745   -3355.3912   -3827.7745            0    3624.1349    17.400111    20.495032    21.228095    7570.2748    4168.7048    3361.9077     3341.792   -4.2827104   -1481.6833   -1009.4004   -2955.2697 
 1763000    259.77414   -3819.6023   -3374.3583   -3819.6023            0    3473.8056    17.440767    20.542919    21.277694     7623.463    3210.3614    3553.0264     3658.029   -638.50772     -265.332    9.1680103   -2988.1393 
 1764000    259.27808   -3871.2351   -3426.8413   -3871.2351            0    3245.8397    17.387547    20.480233    21.212766    7553.8876    2552.7898    4136.7286    3048.0006    805.61703    12.248809    1053.5494   -3069.2611 
 1765000    260.85347    -3871.439   -3424.3451    -3871.439            0    6027.7592    17.334273    20.417484    21.147772    7484.6669    7698.9058    5411.0262    4973.3455     482.8351   -3.7679076    667.84931   -2766.3779 
 1766000    266.06503    -3896.514   -3440.4877    -3896.514            0    3544.3454    17.372041    20.461969    21.193849    7533.6963    4894.3745    3941.8896     1796.772    797.21693   -285.46327   -619.20332   -3051.0661 
 1767000    261.98954   -3887.4222   -3438.3811   -3887.4222            0    4731.2448    17.407712    20.503986    21.237368    7580.2003    4926.8319    4865.1064    4401.7962   -452.93849   -62.221492   -383.02645   -2915.3446 
 1768000    248.64077   -3891.4284   -3465.2667   -3891.4284            0    3640.0613    17.416322    20.514127    21.247873    7591.4538    3690.4282    3668.9291    3560.8265    718.63966    212.12463    384.81454   -3062.2625 
 1769000    270.62735   -3893.3098   -3429.4638   -3893.3098            0    4983.5546    17.354297    20.441069    21.172201    7510.6347    5169.5546     5269.002    4512.1072    272.07824   -616.68701    378.03927   -2883.5906 
 1770000    259.51318    -3900.265   -3455.4683    -3900.265            0    1972.3053    17.363526     20.45194    21.183461    7522.6242    1149.9932    2470.1035    2296.8193   -251.97729    589.59614   -379.48724   -3239.0872 
 1771000    262.54236   -3885.3888   -3435.4002   -3885.3888            0    4087.7963    17.289254    20.364458     21.09285    7426.5031    3538.2494     5117.637    3607.5027    297.87578    426.19161    -596.0233   -2992.6594 
 1772000    258.26105   -3838.4932   -3395.8426   -3838.4932            0     4804.827     17.31473    20.394465     21.12393    7459.3806    4109.0016    5113.6572    5191.8223   -1120.4949   -222.59615    111.26109   -2873.1378 
 1773000    253.37431   -3868.4539    -3434.179   -3868.4539            0      2798.06    17.358619    20.446161    21.177475    7516.2483    1849.0357    3253.0544    3292.0898   -356.19347    48.001464    1200.6533   -3127.4647 
 1774000    275.72201   -3825.7848   -3353.2067   -3825.7848            0    4917.3315    17.350088    20.436112    21.167066    7505.1713    3953.2911    5993.6276    4805.0758   -1335.5062    1096.9363    1180.8148   -2814.9791 
 1775000    267.76071   -3859.5878   -3400.6551   -3859.5878            0    5089.9304    17.330422    20.412948    21.143075    7479.6801    4599.1354     6887.563     3783.093   -307.21281   -526.19386    2317.8575   -2845.4279 
 1776000     282.6621   -3853.8696   -3369.3964   -3853.8696            0    6142.5656    17.232726    20.297875    21.023885    7353.8965    5108.9582    6336.7542    6981.9843    1.1474022    240.68799    1074.5326   -2710.6122 
 1777000    276.82406   -3847.3082   -3372.8413   -3847.3082            0    4201.2925       17.311    20.390072     21.11938    7454.5614     3920.102    4483.2522    4200.5232   -573.48396   -1312.3418    1548.5479   -2916.0888 
 1778000    258.02868   -3841.3308   -3399.0784   -3841.3308            0    5701.8589    17.221754    20.284951      21.0105    7339.8592    5896.9904     6339.146    4869.4401   -1463.1243   -1452.0637   -2088.1267   -2788.7268 
 1779000    252.26629   -3886.2471   -3453.8713   -3886.2471            0    2212.4945    17.398928    20.493639    21.226651    7568.7304    3184.1178    3019.4383     433.9275   -523.23565    725.34775   -133.32262   -3209.6513 
 1780000    275.33272   -3870.3326   -3398.4217   -3870.3326            0    3574.1587    17.392851    20.486482    21.219238    7560.8035    2423.3102    3040.4375    5258.7284    496.48622   -342.91723     1234.939   -3004.3115 
 1781000    274.87648   -3836.4699    -3365.341   -3836.4699            0    5356.8675     17.34195    20.426527    21.157139    7494.6163    6344.4893    4551.5261    5174.5871   -2102.4419   -199.39853    551.00879   -2779.8285 
 1782000    265.48619   -3825.1988   -3370.1645   -3825.1988            0    5251.8116    17.309273    20.388037    21.117272    7452.3296    4874.4876    5213.2424    5667.7049   -357.70293     1413.378    1079.7826   -2799.3736 
 1783000    263.46021   -3839.2433   -3387.6816   -3839.2433            0    3558.4857    17.347444    20.432998    21.163842    7501.7415    3126.3774         2454    5095.0796     833.7724    1879.1633    757.41305   -2998.3647 
 1784000    254.28628   -3879.1028   -3443.2649   -3879.1028            0    4551.8412    17.338366    20.422305    21.152767    7489.9708    4384.2901     3564.417    5706.8164     2.798761   -360.04126   -505.97191   -2946.0511 
 1785000    254.88218   -3874.9558   -3438.0965   -3874.9558            0     5667.454    17.275163    20.347861    21.075659    7408.3599     6588.418      4817.45    5596.4939   -872.12815    52.271539   -29.605699   -2825.7659 
 1786000    262.30564    -3905.734   -3456.1511    -3905.734            0     4676.094    17.313772    20.393337    21.122762    7458.1426    4036.9044    4256.6281    5734.7494    522.20435   -323.35348   -640.89911   -2947.5354 
 1787000    274.26708   -3913.3476   -3443.2632   -3913.3476            0    3342.6534    17.327033    20.408957     21.13894    7475.2931    3783.0208    3165.3147    3079.6247    655.64963    861.67779    473.93005   -3078.8489 
 1788000    263.15251   -3868.1594    -3417.125   -3868.1594            0    5113.3884    17.371255    20.461044    21.192891    7532.6742    5934.8701    2006.5044    7398.7907    521.26316   -31.764672   -23.613367    -2855.387 
 1789000    267.97137   -3853.7437     -3394.45   -3853.7437            0    6012.9958    17.283011    20.357104    21.085232    7418.4602    4709.0471    6183.9337    7146.0066   -542.82176   -895.84276    -1633.577   -2743.9001 
 1790000    256.49538   -3834.5327   -3394.9084   -3834.5327            0    5566.9459    17.274903    20.347554    21.075341    7408.0248    7148.2289    3938.8107    5613.7983    43.567444   -104.06309    321.66568   -2793.4643 
 1791000    260.57663    -3866.736   -3420.1166    -3866.736            0    3446.3912    17.379327    20.470552    21.202738    7543.1797    3382.4314    3228.9327    3727.8095    1263.7643   -553.65429    741.48921   -3040.9807 
 1792000     261.2808   -3873.6808   -3425.8544   -3873.6808            0    3549.4187    17.332237    20.415086    21.145289    7482.0302    3829.8938    4557.7512    2260.6111   -1597.2621   -1114.4144    479.61806   -3038.5499 
 1793000    264.75176   -3840.0254   -3386.2499   -3840.0254            0    3961.8579    17.323922    20.405292    21.135145    7471.2674     4225.041    3288.9326       4371.6   -441.65068    5.0823519   -539.73227   -2954.5628 
 1794000    267.82054   -3865.8664   -3406.8311   -3865.8664            0    5042.5689    17.330807    20.413401    21.143544     7480.178    3770.7426    6079.9044    5277.0595    305.64675   -1051.1412     756.6681   -2856.7336 
 1795000    247.62698    -3882.304   -3457.8798    -3882.304            0    4183.2192    17.399508    20.494322    21.227359    7569.4878    3734.7521    4143.1123    4671.7932   -417.51788   -1080.2686    1406.3003   -2996.0808 
 1796000    280.90642   -3875.2361   -3393.7721   -3875.2361            0    6956.3037    17.336726    20.420373    21.150765    7487.8449    7670.5979     5697.691    7500.6222   -374.13316    511.20436    -1223.306    -2634.126 
 1797000    260.51335   -3903.9384   -3457.4274   -3903.9384            0    5755.7944    17.404819    20.500577    21.233838     7576.421    5820.8445    5659.6654    5786.8733   -814.90617    979.90443    1201.5108   -2821.4448 
 1798000    267.17092   -3865.2849   -3407.3631   -3865.2849            0    5181.2248    17.357236    20.444531    21.175787    7514.4517    6694.0219    3980.3061    4869.3466    498.34342    814.57665    136.85931   -2839.5497 
 1799000    271.47888   -3853.2923   -3387.9868   -3853.2923            0     5614.637     17.38847    20.481321    21.213893    7555.0914    5731.7999    5769.2717    5342.8394    66.913778   -1548.6674   -339.87832   -2769.3478 
 1800000    264.62128   -3879.1619   -3425.6101   -3879.1619            0    5504.2834    17.378271    20.469308     21.20145    7541.8045     4570.696    5860.3672    6081.7872    801.85932     740.3922   -1471.8467   -2820.1968 
 1801000    278.23542   -3881.2817   -3404.3957   -3881.2817            0    6355.1372    17.358809    20.446385    21.177707    7516.4954    6841.7325    6476.7532    5746.9258     228.3445    536.20177   -430.12474   -2707.7432 
 1802000    267.36522   -3887.5945   -3429.3397   -3887.5945            0    5373.4289    17.404393    20.500077    21.233319    7575.8657    5737.0425    4422.0212     5961.223    374.58188   -505.07657   -267.28731   -2835.6498 
 1803000    256.60515   -3887.4957   -3447.6832   -3887.4957            0    4667.4936     17.46517    20.571663    21.307466    7655.5081     4115.993    4065.7809    5820.7069    1178.6661   -984.73656    317.72494   -2926.5681 
 1804000    260.17146   -3835.7195   -3389.7945   -3835.7195            0    4245.9759    17.408545    20.504966    21.238384    7581.2882     3766.888    4566.5904    4404.4493   -17.456277   -68.911645   -1460.8853   -2920.3369 
 1805000    254.95287   -3836.8072   -3399.8267   -3836.8072            0    4022.6737    17.416994    20.514918    21.248692    7592.3318    4304.7422    2326.2848    5436.9941    -524.5092   -321.18892    443.49933   -2954.4106 
 1806000    279.81908   -3867.4427   -3387.8424   -3867.4427            0    1624.6077     17.48176    20.591204    21.327706    7677.3449    2343.9703    2317.2832    212.56968   -734.78761   -106.95782   -101.30639   -3205.9412 
 1807000    265.00542   -3860.5244   -3406.3141   -3860.5244            0    5396.0361    17.318129    20.398468    21.128076    7463.7738    6814.4934    4878.4148    4495.1999    207.17872   -790.24605    1089.7512   -2818.9476 
 1808000    245.50025   -3846.9855   -3426.2065   -3846.9855            0    4695.9322    17.340332    20.424621    21.155165    7492.5189    5366.5563    3430.8324     5290.408    344.67143    505.04208   -2164.1631   -2913.0787 
 1809000    267.47073   -3862.2584   -3403.8227   -3862.2584            0    6383.1559    17.239471     20.30582    21.032115    7362.5359     8682.785     6274.685    4191.9977     667.5196   -301.17945    617.16144   -2718.4311 
 1810000    247.70789   -3856.5584   -3431.9956   -3856.5584            0    3454.7804    17.367334    20.456425    21.188107    7527.5741    4606.6593    2269.7202    3487.9618   -874.84911    312.15356   -830.42549   -3052.7231 
 1811000    269.17075   -3863.8696   -3402.5201   -3863.8696            0    4622.6686    17.284378    20.358715    21.086901    7420.2218    4920.3425    4141.9915    4805.6718    -616.1571    1135.4232   -2253.6439   -2902.2719 
 1812000    257.08929   -3837.0659   -3396.4237   -3837.0659            0    3688.1163    17.504413    20.617887    21.355343     7707.229    2018.1348    4375.6779    4670.5361   -480.46357    393.87696    712.25698   -2981.8719 
 1813000    270.46687   -3826.8726   -3363.3016   -3826.8726            0    1721.7069    17.501716     20.61471    21.352053    7703.6669    790.88171    2178.1768    2196.0621   -625.32115    740.37388      335.148   -3169.8677 
 1814000    264.90456   -3854.7408   -3400.7034   -3854.7408            0    1973.1603     17.49764    20.609909     21.34708    7698.2856     1346.024    3318.5178     1254.939     917.4002    394.74102   -513.11061   -3179.1735 
 1815000    251.00391   -3876.5854   -3446.3732   -3876.5854            0    4970.6634    17.374811    20.465232    21.197229    7537.3008    4299.3214    4671.2042    5941.4645    939.45554   -206.71208   -728.42386    -2899.979 
 1816000    287.67093   -3869.3357   -3376.2776   -3869.3357            0    3361.9867    17.351591    20.437882      21.1689     7507.122    2278.0482    3965.2502    3842.6618    378.84272   -1003.8998   -127.49189   -3008.1949 
 1817000     252.4747   -3865.3324   -3432.5994   -3865.3324            0    4200.2724    17.350599    20.436714    21.167691    7505.8352    4572.4964    3375.8214    4652.4994    1148.2276   -222.44573    850.65535    -2972.817 
 1818000    274.38485   -3890.1459   -3419.8596   -3890.1459            0    3560.2035    17.418056    20.516169    21.249987    7593.7206    3577.3748    3689.3063    3413.9294    475.64997    -526.7999   -139.16325   -3025.5791 
 1819000    243.63795   -3873.3073   -3455.7202   -3873.3073            0    5933.7606    17.379627    20.470905    21.203104    7543.5699    5427.7297    5803.1412    6570.4108    916.47892   -1286.8392   -1297.6495   -2802.9162 
 1820000    262.25772   -3845.5215   -3396.0207   -3845.5215            0    3429.6514    17.450601    20.554503    21.289693    7636.3669    3631.0921     2130.381    4527.4813   -476.34322   -1337.3784     754.2215   -3014.0653 
 1821000    273.59222   -3888.2946   -3419.3669   -3888.2946            0    4189.7973    17.398906    20.493613    21.226624    7568.7018    3859.6135    4644.9093    4064.8691    609.37254   -70.710546    298.85756   -2956.8897 
 1822000    281.54629   -3832.3501   -3349.7894   -3832.3501            0    4875.7381    17.474784    20.582988    21.319196     7668.158    5349.4914    4841.3815    4436.3412   -6.1340125    244.75587    653.40619   -2804.5248 
 1823000    250.60461   -3857.3001   -3427.7724   -3857.3001            0    5270.7456    17.397061     20.49144    21.224374    7566.2951    3217.7908    5197.2517    7397.1942   -1182.5094   -504.89869   -1089.5271   -2846.1632 
 1824000    268.03126   -3858.2191   -3398.8227   -3858.2191            0    3337.2296    17.430596     20.53094    21.265287    7610.1344    4479.8832    2648.5756    2883.2299    74.335238    767.63816   -827.65227    -3028.437 
 1825000    255.18042   -3847.8747   -3410.5042   -3847.8747            0    3856.9639    17.544043    20.664565    21.403692     7759.695     4453.711    3081.6641    4035.5165   -231.47985   -136.55815     361.7463   -2974.0224 
 1826000    255.69279   -3852.9123   -3414.6636   -3852.9123            0    4242.3839    17.520844     20.63724    21.375389    7728.9534    6568.1873    2996.4947    3162.4698    28.763124    425.80786   -122.83393   -2936.4669 
 1827000    260.63013   -3882.2507   -3435.5396   -3882.2507            0    3264.7321    17.486443     20.59672     21.33342    7683.5167    3745.5828     3034.581    3014.0325    220.39946   -350.77804   -967.00822   -3069.7061 
 1828000    292.40498   -3858.2643   -3357.0922   -3858.2643            0    5158.5843    17.461152    20.566931    21.302565    7650.2262    5047.9116    6046.7929    4381.0484    678.76808   -18.948587   -887.98669   -2781.5453 
 1829000    265.60466    -3885.275   -3430.0377    -3885.275            0    4081.1167    17.488677    20.599351    21.336145    7686.4612    3079.2753    5039.1546    4124.9202   -400.90983   -1129.6743   -1710.5028   -2972.5479 
 1830000    273.21335   -3858.6577   -3390.3793   -3858.6577            0    5692.6468    17.378607    20.469703     21.20186    7542.2421    8145.0948     3834.052    5098.7936    1954.5045   -167.15264    1047.9167   -2764.2117 
 1831000    274.47829   -3885.2516   -3414.8052   -3885.2516            0    4619.6602    17.380599     20.47205     21.20429    7544.8364    4689.2177     2174.873    6994.8898   -989.39684   -3142.8739   -285.85121   -2906.4869 
 1832000    252.48971   -3875.0569   -3442.2982   -3875.0569            0    5559.1654    17.335771    20.419249      21.1496    7486.6079    4645.3538    5791.1574    6240.9849    1134.7413   -1861.1023   -1001.4434   -2835.3235 
 1833000     242.6346   -3834.5731   -3418.7057   -3834.5731            0    4387.3976    17.347819     20.43344    21.164299    7502.2282    4061.7234    4544.4077    4556.0617     1477.861    439.48021    1911.7301   -2938.6704 
 1834000    276.04972   -3845.6464   -3372.5066   -3845.6464            0    3979.8986    17.340638     20.42498    21.155537    7492.9144    3292.5188    3124.2935    5522.8835    -187.4485    255.11084    1468.0735   -2937.5973 
 1835000    258.09151   -3845.5619   -3403.2019   -3845.5619            0    4882.7611    17.310342    20.389296    21.118576    7453.7103    4439.6684    6292.3057    3916.3092   -645.89465    55.671601   -842.99347   -2872.4227 
 1836000    255.63917   -3848.6038    -3410.447   -3848.6038            0    5316.2702    17.299123    20.376082     21.10489    7439.2277    5829.0293    4211.4671    5908.3141   -749.83756    289.22985    246.51426   -2833.6662 
 1837000    261.83603   -3871.5482   -3422.7702   -3871.5482            0    3856.3897    17.253418    20.322248     21.04913    7380.4194    4429.9671    4342.2569    2796.9452     1485.081   -446.21159   -1051.5216   -3007.6845 
 1838000    276.12644    -3844.788   -3371.5167    -3844.788            0    3127.3724    17.356215    20.443328    21.174541    7513.1254    413.94414    4195.7426    4772.4305   -2441.6855   -743.44382   -862.10383   -3028.8467 
 1839000    260.07891   -3866.6834    -3420.917   -3866.6834            0    5142.7262    17.295374    20.371666    21.100316    7434.3918    3965.1046    4411.3324    7051.7417   -29.124629    242.64441    573.55458   -2863.3273 
 1840000    270.27203   -3866.4658   -3403.2288   -3866.4658            0     4352.939    17.358517     20.44604     21.17735    7516.1153    4932.7515    2714.8949    5411.1705    387.05223    1599.9335    498.46644   -2926.0821 
 1841000    270.41618   -3892.9497   -3429.4656   -3892.9497            0    4299.3144     17.27465    20.347256    21.075032    7407.6991    2969.4411    5618.3468    4310.1551     430.2359    2177.2392    213.36504   -2964.9948 
 1842000    261.24115   -3850.5516   -3402.7932   -3850.5516            0    6016.0705    17.323049    20.404263    21.134079    7470.1372    6456.3471    6530.4003     5061.464    677.89616    471.32229   -1039.6417   -2747.3767 
 1843000    263.25602   -3908.5634   -3457.3516   -3908.5634            0    6170.8347    17.329564    20.411937    21.142028     7478.569    5726.1393    6730.4845    6055.8802   -397.91011     920.9273    646.63499   -2784.3156 
 1844000    261.09577   -3897.9556   -3450.4464   -3897.9556            0    3649.5403    17.522842    20.639593    21.377826    7731.5974     1614.785    5319.6352    4014.2007   -1019.3386   -2.2812571   -134.04013   -3038.9336 
 1845000    268.34438   -3905.4926   -3445.5595   -3905.4926            0    4693.8593    17.398898    20.493603    21.226614    7568.6912    5063.3643    3839.8782    5178.3353   -154.22552    687.98397    308.39673   -2927.4438 
 1846000    269.51581   -3888.6251   -3426.6842   -3888.6251            0    3861.5733    17.428103    20.528004    21.262245    7606.8696    2909.0569    5284.5855    3391.0775    -15.90467    -479.0077    483.44959   -2998.2875 
 1847000    259.67816   -3852.0284   -3406.9489   -3852.0284            0    4467.4836    17.366798    20.455794    21.187453    7526.8779      5359.64    3395.7104    4647.1003   -385.80703   -181.68941    308.66073   -2916.5452 
 1848000    263.79551   -3896.2263   -3444.0898   -3896.2263            0    4491.7439    17.358669     20.44622    21.177536    7516.3134    2463.4613    5686.7466    5325.0239    747.93847   -645.75546    908.25896   -2951.7151 
 1849000    270.07659   -3864.1058   -3401.2037   -3864.1058            0    4354.9204    17.340235    20.424507    21.155047    7492.3932    4275.0071    3956.4555    4833.2986   -332.82112   -1998.2465    586.46526   -2925.3465 
 1850000    260.82118   -3858.4898   -3411.4513   -3858.4898            0    6184.9748    17.396238     20.49047     21.22337    7565.2209    5852.2841    6107.9395    6594.7009    528.63207   -1045.0721    516.29948   -2729.0569 
 1851000    253.79772   -3868.1609   -3433.1603   -3868.1609            0    5021.3141    17.321931    20.402947    21.132716    7468.6917    5894.8872    4861.6049      4307.45   -261.83312   -266.02478    963.53911   -2886.2226 
 1852000    265.47259   -3845.2202   -3390.2093   -3845.2202            0    4281.1345    17.379056    20.470232    21.202408    7542.8268    5753.8414    4206.2763    2883.2858   -1383.5827    1642.6294   -139.40749   -2919.2657 
 1853000    268.76049   -3844.5259   -3383.8797   -3844.5259            0    4471.3062    17.374817     20.46524    21.197237    7537.3093    4747.1304    4032.9605    4633.8279    82.682128   -2011.2996   -437.22166   -2892.3761 
 1854000    267.02508   -3862.2331   -3404.5612   -3862.2331            0    3984.0094    17.392239     20.48576    21.218491    7560.0049    2079.2116    5893.5315    3979.2853   -148.14851    475.36357    2018.2112   -2965.3046 
 1855000    256.41859    -3816.924   -3377.4313    -3816.924            0    2936.1514    17.384368    20.476489    21.208888    7549.7453    2536.7273    3477.7882    2793.9386   -635.81355   -769.98221    751.77901   -3054.1455 
 1856000    256.60749   -3875.9394   -3436.1229   -3875.9394            0    5031.8552    17.312984    20.392409    21.121801    7457.1246    6086.8565    4496.3005    4512.4085   -1401.5276   -776.95513   -1004.2286    -2888.886 
 1857000    250.08149    -3874.408   -3445.7769    -3874.408            0    3579.4239    17.282431    20.356421    21.084526    7417.7142    3322.2195    3444.0659    3971.9863   -398.71888   -565.38065    1950.0813   -3058.5557 
 1858000    265.50789   -3841.5807   -3386.5093   -3841.5807            0    3997.3618    17.331297    20.413978    21.144141    7480.8122    3883.1089    3527.1729    4581.8036     170.2111   -75.984665   -193.19156   -2950.3972 
 1859000    268.25954   -3878.3382   -3418.5505   -3878.3382            0    5249.1142    17.318058    20.398385     21.12799    7463.6822    6222.9189    5114.6498    4409.7738   -1083.8319    576.59817   -1497.4298   -2847.1836 
 1860000    244.81897   -3822.8492   -3403.2378   -3822.8492            0    5514.5276    17.358664    20.446214     21.17753     7516.307    5875.2939    3874.5223    6793.7667   -615.93624   -121.76871    39.856398   -2798.7484 
 1861000    265.90956   -3860.5268   -3404.7669   -3860.5268            0    4615.2278    17.423443    20.522514    21.256559    7600.7685    5387.1444    4074.0036    4384.5354   -790.43075   -1827.7821   -441.73128   -2893.1716 
 1862000     272.0429   -3861.3428   -3395.0706   -3861.3428            0     3275.925     17.36779    20.456963    21.188663    7528.1675     4036.151     1527.091    4264.5331    2554.0391    841.14531   -556.81509   -3035.4048 
 1863000    262.12161   -3893.9096   -3444.6421   -3893.9096            0    5869.8467     17.37979    20.471097    21.203303    7543.7829    5617.9216     5374.315    6617.3035   -629.87502    613.01411    58.370894   -2798.8514 
 1864000    276.22829   -3871.2578    -3397.812   -3871.2578            0    4757.7078    17.423026    20.522023    21.256051    7600.2227    4279.2926    4355.7901    5638.0408   -327.65195    338.67016    1074.2101   -2870.4607 
 1865000    276.78137   -3877.7187   -3403.3249   -3877.7187            0    5532.6647    17.368101    20.457329    21.189043    7528.5719    6863.9187    4941.2119    4792.8634   -246.57517    353.51665    1143.7294   -2795.8577 
 1866000     265.5008   -3906.4452    -3451.386   -3906.4452            0    4547.5941    17.335056    20.418406    21.148728    7485.6816    4959.5298    3664.4543    5018.7981   -983.45346    173.15679    1802.9636   -2954.9206 
 1867000    257.76643    -3893.614   -3451.8111    -3893.614            0    5842.4877    17.274407    20.346969    21.074736    7407.3864    6859.2353    5245.7458     5422.482    1066.0532    1921.9307    596.91385   -2820.6523 
 1868000    261.88482   -3876.3911   -3427.5295   -3876.3911            0    4611.1072    17.249912    20.318118    21.044853     7375.921    5262.9892    3056.3107    5514.0218    1694.2183   -939.61401   -263.03252   -2931.5116 
 1869000    255.84736   -3850.3085   -3411.7949   -3850.3085            0     4802.179     17.31966    20.400272    21.129945    7465.7542    7059.1733    3670.5877    3676.7758   -897.80723    197.31944    662.42743   -2888.9319 
 1870000    256.80636   -3870.0562   -3429.8989   -3870.0562            0    5004.8709    17.325441    20.407081    21.136998    7473.2324    3654.5217    6254.0705    5106.0205    699.71549   -711.08554    64.602979   -2884.4209 
 1871000    263.65655   -3899.5851   -3447.6868   -3899.5851            0       3619.6    17.350528     20.43663    21.167603    7505.7424    3628.0734    4091.9766    3138.7499   -821.66214    757.04438    545.67856   -3051.4725 
 1872000    271.97133   -3871.6064   -3405.4569   -3871.6064            0    4486.9268    17.293427    20.369373    21.097941    7431.8816    3285.0283    4641.8776    5533.8744   -801.38471   -1535.4203    604.89532   -2919.1351 
 1873000    263.00188   -3920.2173   -3469.4411   -3920.2173            0    5486.3165    17.323023    20.404233    21.134048    7470.1041    6373.8904    5592.4468    4492.6123    1373.5954   -863.76765    193.37144   -2871.7409 
 1874000    267.02473   -3857.6763   -3400.0051   -3857.6763            0    2200.7905    17.441824    20.544164    21.278984    7624.8491     2531.441    2140.0884    1930.8422    1619.9616    -593.8328   -171.11839   -3155.2758 
 1875000    276.13208   -3824.4534   -3351.1725   -3824.4534            0    2740.4457    17.423077    20.522084    21.256114    7600.2905    3289.2569    2118.3893    2813.6907    1178.9682   -1533.1446    2096.2211   -3047.4148 
 1876000    259.33842   -3856.4358   -3411.9386   -3856.4358            0    4033.7088    17.308781    20.387457    21.116672    7451.6938    4203.7217    4061.4348    3835.9698   -1557.9102   -640.96623    -127.7909   -2973.5741 
 1877000    272.58108   -3890.4242   -3423.2296   -3890.4242            0    4185.0388    17.347709     20.43331    21.164164    7502.0847    3784.1015    5195.0625    3575.9524    200.66473    614.67059   -521.80396   -2965.3436 
 1878000    266.39261   -3871.9122   -3415.3244   -3871.9122            0    4754.9307    17.292785    20.368617    21.097158    7431.0546    4952.9144     4729.955    4581.9227   -18.834578    -1242.855    1074.9213    -2900.012 
 1879000    275.06033   -3857.5968   -3386.1528   -3857.5968            0    2901.9717    17.367757    20.456923    21.188623    7528.1243    1886.9914    3155.1981    3663.7255    180.75757    169.44083   -231.82993   -3067.5454 
 1880000     262.0407   -3889.8286   -3440.6998   -3889.8286            0    5535.3063    17.266952    20.338189    21.065641    7397.8011    6089.6215     5293.113    5223.1843    1036.4343   -367.29186   -1653.4886   -2843.4993 
 1881000    268.92252    -3885.408    -3424.484    -3885.408            0    5377.6475    17.181705    20.237779     20.96164    7288.7716    5255.7606    4735.1276    6142.0542   -342.12561   -1470.1309    1301.7555   -2852.8441 
 1882000     263.3521   -3846.6058   -3395.2293   -3846.6058            0    3543.8498    17.320006    20.400679    21.130367    7466.2011    3637.8969    2585.9506    4407.7017   -300.22122    1254.1749   -1095.1708   -3009.3505 
 1883000     256.4529   -3831.8309   -3392.2794   -3831.8309            0    3174.1887    17.352023    20.438392    21.169428    7507.6836    2955.6013    4267.4565    2299.5082    509.91846    308.61913    38.152474   -3044.7316 
 1884000    262.88369   -3873.1612   -3422.5876   -3873.1612            0    4766.1819    17.402155     20.49744    21.230589    7572.9432    4691.8214    4831.3523    4775.3721   -549.84495     31.67124    1789.7796   -2896.1932 
 1885000    249.83868   -3871.9035   -3443.6885   -3871.9035            0    4029.0457    17.333415    20.416473    21.146725    7483.5551    3321.3527    5060.9046    3704.8798   -1429.8105    240.53352    855.12623   -3003.9586 
 1886000    265.99642   -3866.1209   -3410.2122   -3866.1209            0    4332.0471    17.448167    20.551636    21.286723    7633.1712    4367.1021    4426.2247    4202.8147   -1068.4305   -295.61055    705.27981   -2927.9601 
 1887000    250.50794   -3828.2475   -3398.8854   -3828.2475            0     4116.115    17.382883     20.47474    21.207076    7547.8106    3303.5769    5964.3461    3080.4221    -1457.611     666.5443    1360.1847   -2945.7955 
 1888000      270.898   -3870.9967   -3406.6868   -3870.9967            0    4265.5536    17.349403    20.435305    21.166231    7504.2831    4125.7768    2802.9683    5867.9156    350.91911   -2137.6213    627.27684   -2939.8549 
 1889000    250.00497   -3897.4508   -3468.9509   -3897.4508            0    5320.7333    17.413115    20.510349    21.243959      7587.26    4683.8173     5712.138    5566.2445    579.47425   -910.15872   -373.03603   -2880.1989 
 1890000    257.12963   -3865.9329   -3425.2215   -3865.9329            0    4226.5525    17.456285    20.561198    21.296627    7643.8305    5010.1903     4338.613    3330.8542    1007.2793    2105.9841    213.56085   -2954.0563 
 1891000    253.88521   -3896.0033   -3460.8527   -3896.0033            0    4981.5418    17.402492    20.497837       21.231    7573.3833    3252.6355    4436.1253    7255.8645    629.78248    196.45579   -384.42489   -2910.6413 
 1892000    264.62307   -3875.2717   -3421.7168   -3875.2717            0    6658.2117    17.361349    20.449375    21.180805    7519.7944    6160.6353    7565.5214    6248.4784   -2232.2328     748.8204    489.55955   -2691.5208 
 1893000      251.224    -3851.057   -3420.4677    -3851.057            0    3025.4474    17.373814    20.464058    21.196012    7536.0035    2813.5701    3116.3976    3146.3746    112.50473   -667.74945    396.79101   -3087.9562 
 1894000    253.71321   -3855.7934   -3420.9377   -3855.7934            0    5122.8802    17.282227    20.356181    21.084277    7417.4515    5058.7368    4678.6732    5631.2307   -58.893193    1260.9976    1030.3491   -2866.7654 
 1895000    272.32787   -3833.2207     -3366.46   -3833.2207            0    4007.2121    17.337862    20.421712    21.152151    7489.3173    5311.0521    3577.0568    3133.5274    1946.6802   -889.17736     171.8428   -2928.7762 
 1896000    259.91867   -3885.4715   -3439.9798   -3885.4715            0      5125.64    17.305515    20.383611    21.112688    7447.4775    5213.8772     6896.208    3266.8349     423.3052   -499.36427   -399.31253   -2883.2645 
 1897000    262.96315   -3895.3104   -3444.6006   -3895.3104            0    5022.2006    17.349067     20.43491    21.165822    7503.8473    3918.1621    5196.7477     5951.692   -245.34329    404.41204    226.75833   -2894.9915 
 1898000    252.90872   -3880.5413   -3447.0644   -3880.5413            0    5822.1931    17.326579    20.408422    21.138386    7474.7056    5385.1545    4124.4766    7956.9482    1027.9372   -410.71765   -1171.4988   -2812.3819 
 1899000    272.47178   -3848.7532   -3381.7459   -3848.7532            0    3982.4173    17.443497    20.546135    21.281025    7627.0437    4030.2711    3833.8508      4083.13   -289.27819   -1189.9095    281.11756   -2938.7712 
 1900000    253.50628   -3854.6703   -3420.1693   -3854.6703            0     4034.666    17.333235    20.416261    21.146506    7483.3227    3464.2956    3865.5814    4774.1209    682.93399   -487.90691   -387.94635   -2979.8396 
 1901000    265.85504   -3841.1906   -3385.5241   -3841.1906            0    4589.0737    17.351885    20.438229    21.169259     7507.504    4451.3101    4716.5944    4599.3166   -966.71315    1052.4976   -1263.7401   -2883.0699 
 1902000    251.12742   -3890.7786   -3460.3548   -3890.7786            0    4290.6852    17.445675    20.548701    21.283682    7629.9011    4646.8721    3364.2826     4860.901   -2235.3522    517.78282    614.06272   -2982.9119 
 1903000    271.36416   -3899.5021   -3434.3933   -3899.5021            0    4584.0693     17.31392    20.393511    21.122942    7458.3336    4826.3204    5672.0507    3253.8369   -380.17885     69.94388    348.34094   -2935.7742 
 1904000    253.39552   -3895.6583    -3461.347   -3895.6583            0    3210.8697    17.395517    20.489622     21.22249    7564.2806     3405.782    2689.3276    3537.4994     144.0932    1151.8243   -1854.6323   -3107.1326 
 1905000    262.06161   -3863.8199   -3414.6552   -3863.8199            0    3377.3553     17.39502    20.489036    21.221884    7563.6321    4491.8301    2880.8954    2759.3404     816.6938    725.80243    202.95231   -3042.1066 
 1906000    242.99568    -3905.376   -3488.8897    -3905.376            0    2957.2572     17.43615    20.537481    21.272062    7617.4106    3732.1676    1878.9337    3260.6703   -922.60028    626.73176   -546.31095   -3160.3617 
 1907000    254.95889   -3868.3489   -3431.3581   -3868.3489            0    3630.6326    17.341367     20.42584    21.156427    7493.8598     3150.617    3764.8511    3976.4298   -1702.5694   -330.99819   -1154.7568   -3034.5653 
 1908000    267.66781   -3898.5722   -3439.7987   -3898.5722            0    3612.6378     17.35394    20.440649    21.171766    7510.1718     4913.905     3704.154    2219.8546   -1208.6819    39.765986   -1480.6679   -3044.1132 
 1909000    255.59511   -3847.8646   -3409.7833   -3847.8646            0    6351.8757    17.322381    20.403477    21.133264    7469.2732    7289.5736    3718.3216     8047.732    486.04369    496.72899   -725.67919   -2717.8627 
 1910000    273.32518   -3827.1182   -3358.6482   -3827.1182            0    6927.0164    17.392244    20.485766    21.218497    7560.0115    6956.9331    6109.9591    7714.1571   -592.57092    1191.6119   -101.11971   -2594.9099 
 1911000     248.5734    -3850.331   -3424.2847    -3850.331            0    3523.0134    17.328151    20.410273    21.140304    7476.7398    5300.8577     3863.928    1404.2544    2639.2589   -883.22654    -220.5417   -3040.1333 
 1912000    253.21877   -3833.8024   -3399.7941   -3833.8024            0    2524.5463    17.378633    20.469734    21.201891    7542.2758     2919.943    2984.8476    1668.8484   -961.53612    449.94677   -585.61063   -3122.1032 
 1913000    268.16461   -3840.1111   -3380.4862   -3840.1111            0    3452.5012    17.317884     20.39818    21.127778    7463.4578    4868.6113    2157.0686    3331.8236   -281.39081    -1026.195   -123.57301   -3004.6922 
 1914000     266.5912    -3873.768   -3416.8398    -3873.768            0    5785.4878    17.285974    20.360594    21.088848    7422.2772    6459.3563    4227.6396    6669.4676    650.45331    562.79058     1677.464   -2790.5822 
 1915000    267.10448   -3873.0345   -3415.2265   -3873.0345            0    4490.4736    17.330329    20.412838    21.142961    7479.5592    4618.7932    5653.9588    3198.6689     695.3424   -467.66724   -1700.6207    -2925.398 
 1916000     268.5714   -3864.7425   -3404.4203   -3864.7425            0    3991.3167    17.380313    20.471714    21.203942    7544.4642    3369.1406    4463.8891    4140.9204   -546.29176   -144.91862    375.44295   -2965.2626 
 1917000    244.98944   -3880.2151   -3460.3116   -3880.2151            0    3904.2823    17.342548    20.427231    21.157868    7495.3911      2572.07    5433.8147    3706.9621   -167.30148   -874.15228   -302.90508   -3033.5244 
 1918000    274.24528   -3862.0343   -3391.9873   -3862.0343            0    4286.3375    17.302669    20.380259    21.109216    7443.8036    4367.0322    4724.4974    3767.4828   -519.05183   -583.33864    262.25049   -2926.6614 
 1919000    275.74246   -3869.7388   -3397.1256   -3869.7388            0    3482.7313    17.302643    20.380228    21.109184    7443.7694      4425.25    4164.4995    1858.4443    1889.8638   -692.52625   -464.62081   -3019.0412 
 1920000    267.90004   -3843.0634   -3383.8919   -3843.0634            0    4555.7341    17.375587    20.466147    21.198176    7538.3112    4965.7339    3466.2158    5235.2526    421.62472    652.43837    666.72451   -2883.0412 
 1921000     257.2898   -3844.5592   -3403.5733   -3844.5592            0    4192.9581    17.300538    20.377749    21.106617    7441.0539    4499.1731    4622.0127    3457.6886   -925.26015   -396.53658     394.9554   -2948.5529 
 1922000    261.65371   -3860.9035    -3412.438   -3860.9035            0    3658.0713    17.420455    20.518995    21.252914    7596.8587    2668.2864     4746.767    3559.1605    1054.1705   -458.60002    447.32406   -3007.1516 
 1923000    257.61843   -3850.3905   -3408.8413   -3850.3905            0    3509.1016     17.38498     20.47721    21.209635    7550.5423    1757.7974    2816.2224     5953.285    1148.4177    1021.3605   -973.90349   -3022.4298 
 1924000    247.36829   -3876.3368    -3452.356   -3876.3368            0    3437.7139    17.481579    20.590991    21.327486    7677.1066    3295.0086    1572.7212    5445.4119    1281.7444   -649.83623    113.86723   -3067.4602 
 1925000    260.12201   -3850.7566   -3404.9163   -3850.7566            0    6265.2121    17.448832    20.552419    21.287534    7634.0444     5208.443    7774.7003    5812.4931   -222.69054   -129.55209   -621.48379   -2707.3808 
 1926000    253.26425   -3869.1733   -3435.0871   -3869.1733            0    5382.5833    17.384631    20.476799    21.209209    7550.0883    4768.4414    6671.0979    4708.2105   -968.68579   -228.69758    -1029.541   -2842.4092 
 1927000    283.42798   -3882.8962   -3397.1103   -3882.8962            0    4966.6556    17.390999    20.484299    21.216978    7558.3877    5647.3562    4053.9993    5198.6113     1742.837    366.39844   -1129.6409   -2849.6292 
 1928000    275.11422   -3873.8485   -3402.3121   -3873.8485            0    4632.4404    17.352085    20.438464    21.169503    7507.7634    4689.7295    4811.1955    4396.3961    -292.9212    586.26004   -155.87925   -2895.0922 
 1929000     259.9422   -3874.0662   -3428.5342   -3874.0662            0    2779.7845    17.373253    20.463398    21.195329    7535.2741      98.0165    4322.8194    3918.5175   -840.86715   -375.12824    739.08243   -3123.0519 
 1930000    262.03046   -3872.8332   -3423.7219   -3872.8332            0    4845.1335    17.253661    20.322534    21.049426    7380.7312    5253.6417    5549.5437    3732.2151    1652.6591   -596.53118    1468.2764   -2902.1898 
 1931000    263.96995    -3897.447   -3445.0115    -3897.447            0    3097.1016     17.32857    20.410766    21.140815    7477.2817    3037.3315    4479.5809    1774.3923   -362.85888    1617.0114    -1262.664   -3107.2773 
 1932000     275.3491   -3862.8484   -3390.9095   -3862.8484            0     3421.454    17.421906    20.520704    21.254685    7598.7578    3719.1019    3266.6857    3278.5745   -1199.6986   -1212.6605    -1071.347   -3011.7436 
 1933000    262.01644   -3888.1776   -3439.0904   -3888.1776            0    3798.9814    17.381553    20.473174    21.205455    7546.0791    3653.9696    2963.4528    4779.5219   -334.69918   -65.977515   -220.53579   -3021.0056 
 1934000    255.88562   -3867.5335   -3428.9543   -3867.5335            0    4060.7414    17.338975    20.423022    21.153509    7490.7596    3104.6987     4174.967    4902.5586   -264.82184   -496.58032   -172.82975   -2985.3384 
 1935000    268.04766   -3856.5913   -3397.1668   -3856.5913            0    5979.1793    17.326955    20.408864    21.138844    7475.1911    2668.3215    6840.3318    8428.8848    376.96707    168.47248    761.55476   -2745.3286 
 1936000     263.0509    -3826.909   -3376.0488    -3826.909            0    5312.5896    17.308049    20.386596    21.115779    7450.7491    4765.5205    3792.8315    7379.4168   -1656.8258   -1101.8406   -1705.2347   -2798.7747 
 1937000    254.39781    -3868.888   -3432.8589    -3868.888            0    5299.0654    17.254334    20.323327    21.050247    7381.5948    3534.1115    7866.2318    4496.8528    2627.6535    149.26485    -903.0462   -2862.3987 
 1938000    263.34065   -3798.9193   -3347.5624   -3798.9193            0     4159.638    17.349212     20.43508    21.165998    7504.0345    5650.0613    3281.5968    3547.2559    13.694766   -986.95074    -1148.012   -2892.3373 
 1939000    249.00738   -3864.4955   -3437.7054   -3864.4955            0    4087.9713    17.354587    20.441412    21.172556    7511.0122    2885.1467    5033.2462    4345.5209    862.97886   -627.84729   -871.28214   -2989.9074 
 1940000    283.76273   -3850.3032   -3363.9436   -3850.3032            0    3634.0813     17.36796    20.457163     21.18887    7528.3882    3933.9132    3700.0005    3268.3301    1494.5149    1105.2412   -291.42807   -2964.9439 
 1941000    259.78433    -3823.306   -3378.0446    -3823.306            0     4698.762    17.383093    20.474988    21.207333    7548.0851    3820.6652    5402.9976    4872.6234    1008.0675   -1136.9892   -293.86006   -2860.7998 
 1942000      274.181   -3845.1627   -3375.2259   -3845.1627            0    5842.3076    17.272396    20.344601    21.072283    7404.8008    7295.4339    3598.8025    6632.6865   -872.72081   -232.44561   -511.58038   -2744.3067 
 1943000     258.0433   -3838.5319   -3396.2545   -3838.5319            0    2896.0048    17.421645    20.520396    21.254366    7598.4156    3568.1274    2513.2112    2606.6758   -1289.5026    807.69987    1413.7176   -3075.3334 
 1944000    274.10408   -3832.9663   -3363.1613   -3832.9663            0    5785.7792    17.287742    20.362676    21.091004     7424.554    6977.0901    5040.6967    5339.5509    1202.4643    284.62466    1419.8653     -2736.68 
 1945000    266.88837   -3875.3046   -3417.8671   -3875.3046            0    4141.6707    17.241502    20.308212    21.034592    7365.1378    4165.0796    2035.3277    6224.6046   -502.24026    789.00795   -161.92562   -2972.9979 
 1946000    257.30305    -3840.124   -3399.1154    -3840.124            0    3725.6096    17.341143    20.425576    21.156155    7493.5702    4592.5928    2032.7015    4551.5345    805.38556    863.03782   -36.110637   -2991.9583 
 1947000    258.27264   -3846.5792   -3403.9088   -3846.5792            0    6087.3871     17.23791     20.30398    21.030209    7360.5349    7240.1248     6522.012    4500.0244    266.18509    498.53988    1265.3675    -2750.453 
 1948000    248.18435   -3834.9427   -3409.5632   -3834.9427            0    4205.4952    17.372012    20.461935    21.193814    7533.6584    3789.8619    4058.0847    4768.5392    163.98569    66.823712    263.61696   -2947.5026 
 1949000    276.81044   -3852.6466    -3378.203   -3852.6466            0    5398.4021    17.288315    20.363352    21.091704    7425.2935    5282.9297    3811.0151    7101.2614   -1670.7449    -403.0223   -304.11648   -2793.6085 
 1950000    255.29235     -3839.14   -3401.5777     -3839.14            0    6362.2994    17.257216    20.326721    21.053764    7385.2945    6616.8496    5718.6303    6751.4183   -223.33846    1329.8144   -281.71052   -2716.3139 
 1951000    262.28336   -3863.2306   -3413.6858   -3863.2306            0    2582.6458    17.402515    20.497864    21.231027    7573.4126    2426.5545    2502.2591     2819.124    486.82481    1366.2334    574.42256   -3128.4314 
 1952000    266.37544   -3852.8398   -3396.2814   -3852.8398            0    3334.1152    17.393424    20.487156    21.219937    7561.5504    2689.8991    2413.0468    4899.3997   -2004.9581    280.77113    251.94189   -3028.6036 
 1953000    255.03598    -3883.165    -3446.042    -3883.165            0    3179.9529    17.373039    20.463146    21.195067    7534.9955    4250.3433    3343.9862    1945.5292    881.38353    339.60488    99.865882   -3096.5965 
 1954000     257.4018   -3870.4538   -3429.2759   -3870.4538            0    4725.6286    17.203824    20.263832    20.988625    7316.9583    3229.7163    5223.5221    5723.6475   -291.84793     868.5007    391.53599   -2925.0025 
 1955000     260.2339   -3882.7616   -3436.7296   -3882.7616            0    4807.7652    17.285843     20.36044    21.088688    7422.1079    5625.4485    3956.9114    4840.9358   -1026.1872   -55.683584     622.7978   -2916.3186 
 1956000    254.44275   -3881.8883   -3445.7822   -3881.8883            0    3763.0261    17.322328    20.403415      21.1332    7469.2051    3907.7607    2694.7079    4686.6097   -641.67094    874.78411    634.69402   -3035.8731 
 1957000    260.87759   -3884.2042   -3437.0689   -3884.2042            0    3289.4251      17.4022    20.497493    21.230643    7573.0017    2858.6327    4709.9728    2299.6697    1333.9109     971.3929    193.85447   -3073.7701 
 1958000      265.448   -3868.2633   -3413.2945   -3868.2633            0    3676.6159    17.378343    20.469392    21.201537    7541.8981    4354.3301    3416.9476    3258.5698   -812.99672   -1018.1884   -250.68247   -3008.9004 
 1959000     254.3757   -3847.4654   -3411.4741   -3847.4654            0    4230.6537    17.328599    20.410801     21.14085    7477.3197    4939.0314    4130.4114    3622.5182    507.35956    858.34519     517.1651   -2950.1254 
 1960000    281.18589   -3886.8513   -3404.9083   -3886.8513            0    5995.4208    17.311555    20.390725    21.120057     7455.278    6873.7103    4567.2504    6545.3015   -332.85829   -539.07318   -758.70863   -2753.0407 
 1961000    275.91572    -3920.277   -3447.3669    -3920.277            0    3780.7828    17.329915    20.412351    21.142456    7479.0238    4769.4043    4400.7753    2172.1688    422.94025   -1024.7209    162.51434   -3034.9822 
 1962000     264.7306   -3873.1072    -3419.368   -3873.1072            0    5490.6157    17.287271    20.362122    21.090431    7423.9482    5044.5842    6022.5856    5404.6773   -403.39751   -685.94869    517.19467   -2824.8954 
 1963000    276.24705    -3858.067    -3384.589    -3858.067            0    4269.6591    17.351773    20.438097    21.169123    7507.3588    6783.3803    3675.7587    2349.8381    525.12304   -1330.6808   -838.97777   -2917.1163 
 1964000    262.31195   -3865.0645   -3415.4708   -3865.0645            0    5561.5505    17.217689    20.280163     21.00554     7334.663    5680.5751    6428.8983     4575.178   -606.98271    -187.7666   -1054.7286   -2820.5599 
 1965000    250.25823   -3911.5151    -3482.581   -3911.5151            0    4365.9113    17.332347    20.415215    21.145423    7482.1723    2880.0241    5664.8826    4552.8272    -1189.192    2035.9776    687.75619   -3006.1736 
 1966000    264.61514    -3886.092   -3432.5507    -3886.092            0     5282.257    17.318295    20.398664     21.12828    7463.9894    6248.4733    4871.4792    4726.8184    638.76425    -732.0513   -661.66729   -2857.5526 
 1967000    259.09162   -3898.2957   -3454.2215   -3898.2957            0    6053.0173    17.353171    20.439744    21.170829    7509.1738    7232.7183     5390.795    5535.5388   -1401.9941    910.13929    2057.3402   -2791.3338 
 1968000    259.38653   -3844.3214   -3399.7418   -3844.3214            0    3240.6618    17.420605    20.519172    21.253098    7597.0558    3573.9806    3046.3906    3101.6142   -1532.0956    455.55981     356.5129   -3040.6918 
 1969000    274.43809   -3826.3118   -3355.9343   -3826.3118            0    5235.2019    17.326284    20.408074    21.138026    7474.3233    6447.3476    4414.5484    4843.7096    993.48917    636.37708   -418.90551   -2785.2694 
 1970000    255.12727    -3896.687   -3459.4076    -3896.687            0    4030.5321    17.366176    20.455061    21.186694    7526.0684    3406.2929    3738.7124    4946.5912   -1490.7809    603.58626    373.78958   -3017.0165 
 1971000    263.39127   -3908.7543   -3457.3106   -3908.7543            0    2348.0571    17.476126    20.584568    21.320832     7669.924    2938.3107    2471.1574    1634.7033   -172.97699   -1599.0985   -24.715622   -3194.6617 
 1972000     255.4503   -3896.1124   -3458.2794   -3896.1124            0    4973.1361    17.310013    20.388909    21.118176     7453.286    3951.3022    6212.4417    4755.6644    372.38505      83.4545    1213.0511   -2917.7068 
 1973000    251.06269   -3875.2596   -3444.9467   -3875.2596            0    4714.4482    17.361063    20.449039    21.180456    7519.4232     5603.603    3769.9569    4769.7847   -29.477937    -788.6337    295.22195   -2927.9458 
 1974000    259.34457   -3854.6563   -3410.1486   -3854.6563            0    3602.4866    17.359887    20.447653    21.179021    7517.8948     3454.663    4318.3527    3034.4441   -918.48292   -343.50202    -263.3364   -3015.1691 
 1975000    260.78542   -3878.3212   -3431.3439   -3878.3212            0    6464.0053    17.238405    20.304564    21.030813    7361.1691    5561.3135    7342.5843    6488.1181    87.799431    795.18695   -824.36471      -2737.4 
 1976000    259.47116   -3878.8888   -3434.1641   -3878.8888            0    3122.3941    17.372278    20.462249    21.194139    7534.0054    2766.2611    2508.7165    4092.2047    656.73902   -1727.1501   -134.64454   -3091.0888 
 1977000    270.02182   -3797.5157   -3334.7075   -3797.5157            0    4467.6437    17.382286    20.474037    21.206349    7547.0337    4077.4441    4657.5286    4667.9582   -1302.2968   -116.11275   -587.46833    -2842.973 
 1978000    274.12471   -3854.9701   -3385.1297   -3854.9701            0    6229.8603    17.332079      20.4149    21.145096    7481.8255    6426.9122     7021.853    5240.8158    1969.8709   -568.79831    507.03497   -2705.3601 
 1979000    262.54581   -3834.5644   -3384.5698   -3834.5644            0    5310.4569    17.350537    20.436641    21.167614    7505.7542     4512.898    6387.7543    5030.7185    611.30051    -737.0418   -1309.6287   -2803.2674 
 1980000    267.86301   -3847.7185   -3388.6105   -3847.7185            0    5265.9038    17.313977    20.393578    21.123011    7458.4071    4615.9976    5179.3944    6002.3194   -133.44125    169.95141   -1760.5681   -2815.8212 
 1981000    278.81017   -3871.2499   -3393.3788   -3871.2499            0    6242.6074    17.304767    20.382729    21.111775    7446.5109    5425.3371    7751.3385    5551.1467    1473.9376    615.17015    642.95273   -2715.4333 
 1982000    270.20531   -3880.2006    -3417.078   -3880.2006            0    5454.1208    17.336807    20.420469    21.150865    7487.9505    5328.1799    6244.0014    4790.1811   -245.04561    165.39951   -464.54404   -2821.4657 
 1983000    258.77621   -3866.9154   -3423.3818   -3866.9154            0    2281.6537    17.429635    20.529808    21.264115    7608.8759    2239.9353    747.40629    3857.6196   -100.95354    1052.3562    278.97816    -3170.192 
 1984000     265.8913   -3849.1249   -3393.3963   -3849.1249            0    3209.8318    17.403098    20.498551    21.231739    7574.1743    3096.3189    2983.7756    3549.4007    161.69815   -398.24689    49.813076   -3038.8332 
 1985000    257.47413   -3854.4548   -3413.1529   -3854.4548            0    4943.0734    17.333717    20.416829    21.147095    7483.9472    3936.4487    5991.2779    4901.4935    62.187678    -701.4207     -1200.69   -2873.6378 
 1986000    255.94933   -3841.2078   -3402.5194   -3841.2078            0     5567.818    17.294136    20.370208    21.098805    7432.7954    4834.3954    5235.4623    6633.5965    702.71595    176.82305      349.817   -2798.9696 
 1987000    254.15053   -3808.3611   -3372.7558   -3808.3611            0    3942.9901    17.232055    20.297084    21.023067    7353.0377    4295.0566    3664.3239    3869.5899    174.05887   -581.48938    1124.0112   -2949.9233 
 1988000    264.59722   -3842.3418   -3388.8312   -3842.3418            0    4165.7437    17.373797    20.464038    21.195992    7535.9811    4117.5428    5222.7161    3156.9723   -1250.5373   -1189.6242    1903.6204    -2930.997 
 1989000    269.13359   -3887.7766   -3426.4909   -3887.7766            0    3279.7269    17.296223    20.372666    21.101351    7435.4868     3037.097     4999.788    1802.2958    -1711.541    -257.5507   -334.97404   -3070.8407 
 1990000    260.43946   -3865.8001   -3419.4157   -3865.8001            0    4689.6519     17.32479    20.406314    21.136204    7472.3902    4010.6964    4751.4239    5306.8355    320.78033    499.32148    709.86539   -2908.3509 
 1991000    252.22123   -3873.2023   -3440.9037   -3873.2023            0    4614.1954     17.29542     20.37172    21.100372    7434.4517    5025.9409    3676.3792    5140.2659    74.664127    1712.5233   -633.70386   -2940.6149 
 1992000    256.02513   -3837.2004   -3398.3821   -3837.2004            0    3826.9163    17.387169    20.479789    21.212306    7553.3956    2389.3488     4589.771    4501.6291   -185.87273    841.41693    316.99834   -2976.8146 
 1993000    272.19817   -3853.2379   -3386.6996   -3853.2379            0    4288.3777    17.367443    20.456554     21.18824    7527.7161    5719.3664    3776.6128    3369.1538    328.91741   -545.54077    87.989496   -2915.9042 
 1994000    268.44595    -3870.242   -3410.1349    -3870.242            0    4680.1819     17.35492    20.441804    21.172962    7511.4447    6272.6997     4066.468    3701.3781    74.955025    1542.3671     588.5597   -2897.4363 
 1995000    266.26749   -3830.1812   -3373.8078   -3830.1812            0    6832.6484    17.271951    20.344076    21.071739    7404.2273     6456.491    5112.0612    8929.3929    265.82186   -535.35095   -1034.7073   -2635.9975 
 1996000    265.33153   -3869.8367   -3415.0676   -3869.8367            0    3693.9375    17.358607    20.446146     21.17746    7516.2326    3331.2231    3623.4307    4127.1588   -210.59092   -269.67685    654.76267   -3010.1509 
 1997000    262.79929   -3872.8331   -3422.4041   -3872.8331            0    2545.1694    17.419459    20.517822    21.251699    7595.5559    3125.7316    3347.7601    1162.0164   -634.12026    237.24657   -1636.2317    -3140.467 
 1998000    273.23373   -3859.2765   -3390.9633   -3859.2765            0    3142.6591    17.357399    20.444723    21.175986    7514.6629    4827.4747    1183.3173    3417.1853    397.84679   -1237.0109   -2582.6462   -3046.5478 
 1999000    261.67634   -3879.4131   -3430.9088   -3879.4131            0    3630.3592    17.337404    20.421172    21.151593     7488.724     3760.252    3334.2559    3796.5697    280.80953   -621.27413   -631.29901   -3034.4178 
 2000000    263.13504   -3846.5119   -3395.5075   -3846.5119            0    4482.3666    17.405987    20.501953    21.235263    7577.9465    5866.9769    5498.6925    2081.4304     757.7542    -1037.365   -462.68911   -2900.1316 
Loop time of 412.754 on 64 procs for 250000 steps with 864 atoms

Performance: 104.663 ns/day, 0.229 hours/ns, 605.687 timesteps/s
99.1% CPU use with 64 MPI tasks x 1 OpenMP threads

MPI task timing breakdown:
Section |  min time  |  avg time  |  max time  |%varavg| %total
---------------------------------------------------------------
Pair    | 20.236     | 24.872     | 29.358     |  45.8 |  6.03
Bond    | 0.26752    | 0.27585    | 0.2854     |   0.8 |  0.07
Kspace  | 176.24     | 186.56     | 196.38     |  30.1 | 45.20
Neigh   | 4.8221     | 5.6069     | 6.5985     |  18.5 |  1.36
Comm    | 83.208     | 92.15      | 100.43     |  38.8 | 22.33
Output  | 1.3746     | 1.3841     | 1.3967     |   0.2 |  0.34
Modify  | 93.088     | 95.798     | 100.09     |  18.4 | 23.21
Other   |            | 6.108      |            |       |  1.48

Nlocal:        13.5000 ave          19 max           8 min
Histogram: 3 4 9 6 10 7 12 6 3 4
Nghost:        2110.72 ave        2158 max        2062 min
Histogram: 2 5 7 8 7 9 13 4 8 1
Neighs:        4073.47 ave        5815 max        2278 min
Histogram: 2 6 4 8 12 13 5 6 2 6

Total # of neighbors = 260702
Ave neighs/atom = 301.73843
Ave special neighs/atom = 2.0000000
Neighbor list builds = 14257
Dangerous builds = 0

unfix		3
unfix		2
unfix		1

write_data	data.final.${pid}
write_data	data.final.0
System init for write_data ...
PPPM initialization ...
  extracting TIP4P info from pair style
  using 12-bit tables for long-range coulomb (../kspace.cpp:340)
  G vector (1/distance) = 0.37375646
  grid = 24 24 25
  stencil order = 5
  estimated absolute RMS force accuracy = 0.0031283675
  estimated relative force accuracy = 9.420986e-06
  using double precision FFTW3
  3d grid and FFT values/proc = 2730 288
Last active /omp style is kspace_style pppm/tip4p/omp
WARNING: Not all mixed pair coeffs generated from mixing. Use write_data with 'pair ij' option to store all pair coeffs. (../write_data.cpp:312)

write_restart   restart.lmp.${pid}
write_restart   restart.lmp.0
System init for write_restart ...
PPPM initialization ...
  extracting TIP4P info from pair style
  using 12-bit tables for long-range coulomb (../kspace.cpp:340)
  G vector (1/distance) = 0.37375646
  grid = 24 24 25
  stencil order = 5
  estimated absolute RMS force accuracy = 0.0031283675
  estimated relative force accuracy = 9.420986e-06
  using double precision FFTW3
  3d grid and FFT values/proc = 2730 288
Last active /omp style is kspace_style pppm/tip4p/omp
Total wall time: 0:06:53
