LAMMPS (30 Jul 2021)
Processor partition = 0
  using 2 OpenMP thread(s) per MPI task
using multi-threaded neighbor list subroutines
variable        pid world 0 1
variable        phase world IceIh IceIII

shell cd ${phase}
shell cd IceIh
include Restart.lmp
echo both
log log.lammps
#include		in.partitions
include		in.temp
variable        temperature equal 217.72
variable	tempDamp equal 100.0
include		in.pressure
variable        pressure equal 1604.7
variable        pressureDamp equal 1000.0 # This is 1 ps
include		in.seed
variable        seed equal 745823

units		real
atom_style	full
#include		in.box
read_restart	restart.lmp.${pid}
read_restart	restart.lmp.0
Reading restart file ...
  restart file = 30 Jul 2021, LAMMPS = 30 Jul 2021
  restoring atom style full from restart
  orthogonal box = (0.097023457 0.0096729953 0.085312649) to (18.110549 23.619505 22.127883)
  2 by 4 by 4 MPI processor grid
  restoring pair style lj/cut/tip4p/long/omp from restart
  restoring bond style harmonic/omp from restart
  restoring angle style harmonic/omp from restart
  864 atoms
  576 bonds
  288 angles
Finding 1-2 1-3 1-4 neighbors ...
  special bond factors lj:    0        0        0       
  special bond factors coul:  0        0        0       
     2 = max # of 1-2 neighbors
     1 = max # of 1-3 neighbors
     1 = max # of 1-4 neighbors
     2 = max # of special neighbors
  special bonds CPU = 0.002 seconds
  read_restart CPU = 0.007 seconds
include 	in.setup
variable	out_freq equal 1000
variable	out_freq2 equal 10000
variable	out_freq3 equal 1000

timestep	2.0

neigh_modify    delay 7 every 1

include		in.tip4p
# This is TIP4P/Ice

# create groups ###
group ox type 2
288 atoms in group ox
group hy type 1
576 atoms in group hy

# set charges - beside manually ###
set group ox charge -1.1794
Setting atom values ...
  288 settings made for charge
set group hy charge 0.5897
Setting atom values ...
  576 settings made for charge

# ### TIP3P Potential Parameters ###
pair_style lj/cut/tip4p/long/omp 2 1 1 1 0.1577 8.5
pair_coeff 1 1*2 0.000 0.000
pair_coeff 2 2 0.21084 3.1668
bond_style  harmonic
bond_coeff  1 450 0.9572
angle_style harmonic
angle_coeff 1 55 104.52
kspace_style pppm/tip4p/omp 1.0e-5
pair_modify tail yes

thermo          ${out_freq}
thermo          1000
thermo_style    custom step temp pe etotal epair emol press lx ly lz vol pxx pyy pzz pxy pxz pyz enthalpy

restart 	${out_freq3} restart.lmp.${pid} restart2.lmp.${pid}
restart 	1000 restart.lmp.${pid} restart2.lmp.${pid}
restart 	1000 restart.lmp.0 restart2.lmp.${pid}
restart 	1000 restart.lmp.0 restart2.lmp.0


include         in.dump
dump            myDump all atom ${out_freq2} dump.water.${pid}
dump            myDump all atom 10000 dump.water.${pid}
dump            myDump all atom 10000 dump.water.0
dump            myDump2 all dcd ${out_freq2} dump.dcd
dump            myDump2 all dcd 10000 dump.dcd
dump_modify     myDump append yes
dump_modify     myDump2 append yes


variable natoms 	equal  "count(all)"                        # NUMBER ATOMS
variable H      	equal  "enthalpy/v_natoms"                 # ENTHALPY-per-atom
variable Vol      	equal  "vol/v_natoms"                 # volume-per-atom
fix AVG all 		ave/time ${out_freq} 1 ${out_freq} v_Vol v_H file vol_enthalpy.dat
fix AVG all 		ave/time 1000 1 ${out_freq} v_Vol v_H file vol_enthalpy.dat
fix AVG all 		ave/time 1000 1 1000 v_Vol v_H file vol_enthalpy.dat


timer           timeout 23:50:00 every 1000
New timer settings: style=normal  mode=nosync  timeout=23:50:00

fix 		1 all shake 1e-6 200 0 b 1 a 1
Finding SHAKE clusters ...
       0 = # of size 2 clusters
       0 = # of size 3 clusters
       0 = # of size 4 clusters
     288 = # of frozen angles
  find clusters CPU = 0.001 seconds
fix             2 all nph aniso ${pressure} ${pressure} ${pressureDamp}
fix             2 all nph aniso 1604.7 ${pressure} ${pressureDamp}
fix             2 all nph aniso 1604.7 1604.7 ${pressureDamp}
fix             2 all nph aniso 1604.7 1604.7 1000
fix             3 all temp/csvr ${temperature} ${temperature} ${tempDamp} ${seed}
fix             3 all temp/csvr 217.72 ${temperature} ${tempDamp} ${seed}
fix             3 all temp/csvr 217.72 217.72 ${tempDamp} ${seed}
fix             3 all temp/csvr 217.72 217.72 100 ${seed}
fix             3 all temp/csvr 217.72 217.72 100 745823


run             250000
PPPM initialization ...
  extracting TIP4P info from pair style
  using 12-bit tables for long-range coulomb (../kspace.cpp:340)
  G vector (1/distance) = 0.37138305
  grid = 24 27 25
  stencil order = 5
  estimated absolute RMS force accuracy = 0.0031963595
  estimated relative force accuracy = 9.6257416e-06
  using double precision FFTW3
  3d grid and FFT values/proc = 4410 672
Last active /omp style is kspace_style pppm/tip4p/omp
Neighbor list info ...
  update every 1 steps, delay 7 steps, check yes
  max neighbors/atom: 2000, page size: 100000
  master list distance cutoff = 10.8154
  ghost atom cutoff = 10.8154
  binsize = 5.4077, bins = 4 5 5
  1 neighbor lists, perpetual/occasional/extra = 1 0 0
  (1) pair lj/cut/tip4p/long/omp, perpetual
      attributes: half, newton on, omp
      pair build: half/bin/newton/omp
      stencil: half/bin/3d
      bin: standard
Setting up Verlet run ...
  Unit style    : real
  Current step  : 7000000
  Time step     : 2
  Walltime left : 23:49:59.95
Per MPI rank memory allocation (min/avg/max) = 10.19 | 10.20 | 10.21 Mbytes
Step Temp PotEng TotEng E_pair E_mol Press Lx Ly Lz Volume Pxx Pyy Pzz Pxy Pxz Pyz Enthalpy 
 7000000    221.53696   -4295.9414   -3916.2347   -4295.9414            0    912.79341    18.013525    23.609832    22.042571    9374.6238   -114.98629    1907.1136    946.25294   -571.51407   -188.38086   -229.21619   -3791.4382 
 7001000    218.57619   -4318.2497   -3943.6176   -4318.2497            0    3214.5193    18.075537    23.098284    22.075046    9216.6382    3380.5166    4183.4676    2079.5738   -811.22082    573.08692   -236.32521   -3511.5373 
 7002000    220.87794   -4333.7058   -3955.1285   -4333.7058            0     315.4651    18.147586    23.619788     21.96074    9413.2984    521.79433    173.38645    251.21452    1251.7747    273.17418    414.60768   -3911.8205 
 7003000    223.25124   -4341.1645   -3958.5195   -4341.1645            0    857.89543    17.886757    23.591337    22.147414    9345.5998    2435.1527    481.64716   -343.11362   -272.57661    286.30031    593.61708   -3841.5918 
 7004000    206.76649   -4340.8535   -3986.4628   -4340.8535            0    2152.4646     18.12007     23.18718    22.086819    9279.8501    1699.1212    2723.6193    2034.6533   -237.66119    758.90325   -61.005869   -3695.1545 
 7005000    216.72906   -4314.8096   -3943.3434   -4314.8096            0    3094.6532     18.06709    23.375458    21.890166    9244.7976    3947.0052    2150.5246      3186.43   -24.222748   -280.12461   -210.70094    -3526.104 
 7006000    222.62198    -4317.835   -3936.2685    -4317.835            0    1234.9742    17.796248     23.61301    22.096345    9285.3917    2654.7976    1101.7193   -51.594232   -1146.1623   -776.73271    251.17995   -3769.0309 
 7007000    213.18874   -4318.9754   -3953.5772   -4318.9754            0    1704.3302    18.129529    23.314202    21.971124    9286.6562    1054.0867    2868.1683    1190.7357   -173.87376   -779.75243    796.55499    -3722.749 
 7008000    224.36059   -4323.0217   -3938.4753   -4323.0217            0    2131.8152      18.0778    23.191862    22.106499    9268.3231    1524.6432    3585.6349    1285.1675     4.444665   -478.22516    486.38925     -3650.32 
 7009000    227.63433   -4307.4972   -3917.3397   -4307.4972            0    3431.9112    17.819421    23.765622    21.861491    9258.1148    3875.1853    2895.7077    3524.8407    241.45489   -66.395032   -222.44489   -3453.9627 
 7010000    229.89931   -4341.0481   -3947.0086   -4341.0481            0    478.31554    17.953985    23.491284    22.139582    9337.6381    275.15823    1156.8716     2.916837    366.80617   -5.2081237   -800.85847   -3881.8716 
 7011000    220.45009   -4332.1676   -3954.3237   -4332.1676            0    1889.9264    18.256592     23.15631    22.008349     9304.146    2936.0276    1609.4885    1124.2633   -1273.4576    312.20932    234.11703   -3697.8769 
 7012000    230.36142   -4311.8662   -3917.0346   -4311.8662            0    1983.6655    18.024721    23.328111    22.115493     9299.182    1525.7014    3354.4926    1070.8024    125.53558    532.23243   -433.94627   -3648.0118 
 7013000    223.44445   -4313.6539   -3930.6777   -4313.6539            0    1912.2303    17.977253     23.48545    21.953083    9268.6769    1554.5425    2681.4693    1500.6793   -82.167208    511.76645    386.63629   -3672.1936 
 7014000    216.92961   -4342.8864   -3971.0765   -4342.8864            0    1374.8059    18.146727    23.171471    22.133043    9306.6427   -240.49769    2431.0427    1933.8726   -349.47817   -931.15502   -1270.9319    -3784.477 
 7015000    220.46203   -4316.4404    -3938.576   -4316.4404            0    2394.9646    18.083028    23.473707    21.852204    9275.7297    1404.0943     2232.618    3548.1813    277.90166   -732.08208   -226.97024   -3614.5924 
 7016000    216.37344   -4320.3254   -3949.4687   -4320.3254            0    2425.1531    17.916756    23.329157    22.142642    9255.2437    2668.1278    2258.4101    2348.9214    12.513311   -52.685923     867.5261   -3622.1258 
 7017000    221.66428   -4330.9926   -3951.0676   -4330.9926            0    1423.1583     18.13207    23.470698    21.858567    9302.4014    2279.9961    11.740496    1977.7384    139.65618    399.35412   -399.87665   -3757.9935 
 7018000    207.33524   -4325.1491   -3969.7836   -4325.1491            0    3004.9478    17.821559    23.269926    22.227206    9217.7634    3881.9447    2605.3175    2527.5813    655.90774    301.94461   -419.86132   -3565.8236 
 7019000    217.51712   -4322.1059    -3949.289   -4322.1059            0    2088.0569    18.120758    23.554087    21.699369    9261.6793    1792.8421    795.98236    3675.3464    -128.5363   -308.40118    337.21406   -3667.2508 
 7020000    215.43124   -4340.9757   -3971.7339   -4340.9757            0     806.4275    17.918408    23.310167    22.372274    9344.4755    468.08395    1066.4814    884.71716    -444.3967   -1188.7399     966.6666   -3861.8343 
 7021000    219.27954   -4345.0028   -3969.1651   -4345.0028            0    1002.4889    18.098673    23.572921    21.866103    9328.9232    943.10623    455.26015    1609.1004   -835.15703   -122.56793   -182.23311   -3832.7737 
 7022000    230.28899    -4328.557   -3933.8496    -4328.557            0    2047.0585    18.072017    23.211002    22.161788    9296.1965    2419.3647    2453.7077     1268.103    22.931029     169.5806    -311.7278   -3656.3186 
 7023000    208.25228   -4331.2913    -3974.354   -4331.2913            0    862.90099    18.134906    23.610152    21.830826    9347.2583   -723.74409    368.83245    2943.6146    131.86069    554.82538   -47.430722   -3856.7232 
 7024000     225.6699   -4294.1706   -3907.3801   -4294.1706            0    1719.2127    17.973947    23.523825    22.105916    9346.7345    1316.2387    1692.8579    2148.5415   -1323.5555     290.2926    69.054123   -3673.0299 
 7025000    210.02199   -4305.2429   -3945.2724   -4305.2429            0    1490.2804    18.142259    23.467556     22.00788    9369.9533    685.90243    1342.8531    2442.0856   -1580.4046    217.71308    84.776356   -3741.6238 
 7026000    234.38915   -4323.0935   -3921.3585   -4323.0935            0    2302.3924     17.98415    23.328895    22.089633     9267.713    2546.0663    4198.9937    162.11707   -19.691668    -157.4297   -751.58175   -3610.1669 
 7027000    217.65125   -4303.1592   -3930.1124   -4303.1592            0    2069.3633    18.008947    23.387841    22.021737    9275.3442    3022.9623    2354.2436    830.88387    -283.8774   -853.73917    76.896351   -3650.1867 
 7028000    216.14754   -4334.8678   -3964.3983   -4334.8678            0    1665.7819    18.229971    23.401397    21.835842    9315.3184     1909.339    1266.2329    1821.7737   -1789.3496    526.10613    65.715439   -3738.0946 
 7029000    202.96518   -4328.0241   -3980.1487   -4328.0241            0    721.04408    18.076673    23.340821    22.157775    9348.9057   -247.31249      1074.66    1335.7847   -197.40835     -268.544     364.9806   -3881.8385 
 7030000    233.47093   -4323.1644   -3923.0032   -4323.1644            0    2051.8868    17.902443    23.706794    21.825167    9262.8093    3553.9823    1457.1297    1144.5482    1140.0797   -567.97239    -193.0494   -3645.8168 
 7031000     222.8334   -4306.7139   -3924.7851   -4306.7139            0    2228.1022    17.976766    23.401979    22.122296    9306.6706     3613.701    1623.3045     1447.301   -587.69043   -637.13141    471.33837   -3622.3687 
 7032000    219.90728   -4317.7401   -3940.8265   -4317.7401            0    433.96052    18.118127    23.534597    21.928418    9350.3394   -1219.0687     869.8161    1651.1342    202.23241    382.91584    441.67104   -3881.6495 
 7033000    226.41897     -4336.96   -3948.8856     -4336.96            0     1408.634    17.941754     23.42601    22.067611    9275.0988    1693.7056    1422.5811    1109.6153   -414.65361   -676.86381   -573.24258   -3758.3428 
 7034000    209.49199   -4332.0331    -3972.971   -4332.0331            0    2456.3672    18.047132    23.490778    21.756911    9223.6503     2655.611    1961.1959    2752.2946   -274.75283   -180.33236   -283.56455   -3642.5467 
 7035000    213.94418   -4348.4252   -3981.7321   -4348.4252            0    967.26491    18.026344    23.404745     22.13688    9339.5936    1461.5935     381.4429    1058.7584    1144.1089    -216.9714     282.6806   -3849.9825 
 7036000    216.53418   -4341.8417   -3970.7095   -4341.8417            0    2156.7809    18.154082    23.385134    21.828239    9266.8654    3124.5768    2112.0733    1233.6926    366.90527    67.010398    160.16228   -3679.2255 
 7037000    228.04337   -4338.0092   -3947.1507   -4338.0092            0    1005.0803    17.906184    23.424496    22.206837      9314.51    691.32871     1041.646    1282.2662   -11.672189   -30.712862   -391.53412    -3810.618 
 7038000    218.19929    -4327.439   -3953.4529    -4327.439            0    534.54096     18.11046    23.609704    21.853746    9344.2816   -217.48491    1247.1499     573.9579    785.92502    433.06763    -173.1004   -3880.6074 
 7039000    221.27511   -4323.5023   -3944.2443   -4323.5023            0    1641.4889    18.019263    23.272001     22.12617    9278.4833    904.77805    1737.6956     2281.993   -250.73279    408.36083    -274.3694   -3722.1227 
 7040000    213.53752   -4321.1674   -3955.1714   -4321.1674            0    2029.3547    17.981725     23.43556    21.898107    9228.1208    1707.3167    1986.2832    2394.4643   -211.76472   -491.55728    274.60857   -3682.0554 
 7041000    212.01909    -4318.583   -3955.1896    -4318.583            0    1547.2861      17.7698    23.529194    22.243917    9300.3838    1726.0123    2516.4272    399.41898   -33.955368   -99.283559   -352.48743    -3745.321 
 7042000    217.62311   -4331.3692   -3958.3706   -4331.3692            0    1010.7571    18.124588    23.426532     21.99217    9337.7924    1501.7974    565.80648    964.66731     488.9307    326.52908    170.48217   -3820.7236 
 7043000    228.14576   -4331.6646   -3940.6306   -4331.6646            0     2361.298    17.939759    23.294544    22.255696    9300.6219    3258.9747     3313.468    511.45125   -348.98597   -499.84162    25.971208   -3620.3441 
 7044000     221.5523   -4325.2929   -3945.5598   -4325.2929            0    3599.8848    18.002796    23.518335    21.900652    9272.6441    3630.8467    2720.1593    4448.6482    911.85883   -147.17526   -749.29093   -3458.7402 
 7045000    211.74884   -4360.3525   -3997.4222   -4360.3525            0    2266.1424     18.19699     23.07664    22.050638    9259.6229    896.99573    2872.0718    3029.3596    140.76137    523.10113    614.89527   -3691.3976 
 7046000    225.73868   -4322.2722   -3935.3639   -4322.2722            0    1639.2153    17.959606    23.515145    22.026771    9302.4067    1430.3048    2356.9186    1130.4225    1425.7906   -427.59087   -418.41379    -3712.978 
 7047000    213.25953   -4330.2705    -3964.751   -4330.2705            0     2325.869    17.940673    23.615764    21.893498    9275.8961    2434.6686    1205.4685      3337.47     211.9452   -321.10871    528.84039   -3650.1087 
 7048000    217.27688   -4326.0821    -3953.677   -4326.0821            0     1720.147     18.06099    23.334066    22.159814     9338.951    1699.9212    1403.2415    2057.2782    466.93676   -578.97318   -377.01031   -3719.3947 
 7049000    219.45687   -4322.7123   -3946.5707   -4322.7123            0    941.02053    18.040344    23.463277    22.133001    9368.5805    128.60828    1277.9169    1416.5364   -183.21067    403.59913    595.80903    -3817.998 
 7050000    213.56809   -4328.5698   -3962.5214   -4328.5698            0    1246.6951    18.081013    23.560833    21.965192    9357.2538    765.28593    818.06167    2156.7378    554.41681   -251.47282   -234.96746     -3792.39 
 7051000    224.48504   -4315.1733   -3930.4136   -4315.1733            0    982.37856    18.196101    23.113947    22.224629    9347.3173    1816.4146    147.34178    983.37933   -50.559548   -884.46371    839.19415   -3796.4947 
 7052000    215.36115   -4326.3235   -3957.2019   -4326.3235            0    1079.6819    18.103687    23.492702    21.952968    9336.6967    340.98609    1736.0929    1161.9667   -147.96287   -331.04492   -276.69312   -3810.1858 
 7053000    210.85829   -4329.7941   -3968.3902   -4329.7941            0     308.9377    18.004255    23.602995    22.075786    9381.2013    194.73969   -93.650674    825.72409   -100.34556    291.91284    829.24607   -3926.1229 
 7054000    218.42568   -4311.7535   -3937.3794   -4311.7535            0    2113.8239    18.031668    23.410238    22.045241    9305.8616    1727.7477    1920.1615    2693.5625    1508.4435   -180.91226    229.37896   -3650.4987 
 7055000    213.46978   -4317.6053   -3951.7254   -4317.6053            0    1033.2973    17.989164    23.572087    22.126496    9382.5667    1683.3648    848.04009    568.48714    191.86807   -315.29524   -856.69771   -3810.3341 
 7056000    223.92711   -4311.4667   -3927.6633   -4311.4667            0    1696.2728    17.892587    23.542301     22.15257    9331.3861    1999.1162    864.47391    2225.2284    140.53147    461.20067   -23.491442   -3696.8197 
 7057000    222.95143   -4329.9889   -3947.8578   -4329.9889            0     3044.541    18.164424      23.1581    21.993368    9251.5885     3128.654     3058.075    2946.8941   -953.87495   -292.48574    262.46946   -3537.0733 
 7058000    210.25851   -4314.2858   -3953.9099   -4314.2858            0    1345.2941    18.033186    23.524876    22.076241    9365.3699    2040.7552    1121.2388    873.88832    -1669.298    425.87275    456.24087   -3770.1639 
 7059000    214.18302   -4316.7112   -3949.6089   -4316.7112            0    2031.8665    17.907715    23.649993    21.951076    9296.6611    2794.4455    1917.1932    1383.9608   -151.34399    60.925501    851.37615   -3674.1238 
 7060000    216.13636    -4356.279   -3985.8287    -4356.279            0     1176.277     18.15422    23.334228    22.080206       9353.5    1520.1355      2071.71   -63.014592   -427.36175    301.94656     427.1993   -3825.3713 
 7061000    212.85357   -4316.0162   -3951.1925   -4316.0162            0    2153.3257      18.0064    23.399052    22.087711    9306.2744    2141.0138    2423.8142    1895.1492     15.93933   -191.74091   -92.960196   -3658.9378 
 7062000    215.22158   -4304.8422   -3935.9598   -4304.8422            0    1974.4854    18.146384    23.610091    21.806296    9342.6405    893.09661    2919.1815    2111.1782    545.69804   -110.18452   -1142.9254   -3666.9305 
 7063000    232.04283   -4314.6027   -3916.8893   -4314.6027            0    1275.6094    18.033381    23.376752    22.112416    9321.7516    1474.7623    1181.0683    1170.9975   -587.58514    692.02041    126.38527   -3743.4725 
 7064000    213.52275    -4318.803   -3952.8323    -4318.803            0    1426.9066    18.080559    23.486741    22.031225    9355.6345    1522.3128    980.42836    1777.9785    71.081069   -326.72712    1145.5638   -3758.1418 
 7065000    217.48483   -4344.2849   -3971.5234   -4344.2849            0    2786.9318    17.899775    23.402491    22.161342    9283.3712    3497.7891    2255.1449    2607.8614   -57.501995    569.28875   -187.31423    -3594.205 
 7066000    228.78667   -4322.3698   -3930.2372   -4322.3698            0    2185.8095    18.222865    23.426835      21.8654    9334.4279    2381.3349      1619.53    2556.5634   -45.850412   -211.80596    388.48827   -3632.6763 
 7067000    210.62608   -4348.6157   -3987.6098   -4348.6157            0    1503.8987    18.094351     23.39839    22.012817    9319.7579     1844.228    1221.5529    1445.9153   -170.83952    341.54126    373.55097   -3783.2012 
 7068000    218.86289   -4328.8053   -3953.6818   -4328.8053            0    2339.5223    17.941539    23.476586    21.991029    9262.7551    2079.8586    1271.3995    3667.3089   -164.66079   -955.81319    103.46307   -3637.6409 
 7069000    210.43513   -4351.4367   -3990.7581   -4351.4367            0    871.57518    18.215664    23.185257    22.059405    9316.4558   -268.61243    1224.6574    1658.6806    255.34762   -338.10003     302.7672   -3872.3363 
 7070000    212.75309   -4315.9459   -3951.2944   -4315.9459            0    2406.0427    18.064241    23.324434    21.994986     9267.328    1967.8815    2407.1266    2843.1201   -159.34012    67.150556   -221.02795    -3626.107 
 7071000    207.28777   -4308.4219   -3953.1377   -4308.4219            0    2638.5774    17.858347    23.586713    22.024802    9277.2804    3411.8182    781.98127    3721.9328      -1025.5   -19.418636   -218.75372   -3596.1392 
 7072000    228.35457   -4288.9161   -3897.5242   -4288.9161            0    1833.7796    18.073468    23.376962    22.000943    9295.4597    1683.8329    926.67776    2890.8281    201.69838    303.35296   -467.35887   -3648.9284 
 7073000    205.56569   -4334.6307   -3982.2981   -4334.6307            0    1262.8387    18.117545    23.438148    21.986296    9336.2977    2131.6633    1008.5269    648.32603   -490.72343     -841.175   -604.54365   -3810.3496 
 7074000    225.35867   -4350.9081   -3964.6511   -4350.9081            0    1337.5479    17.878011    23.624553    22.066654    9320.0722    1591.6843     1112.562    1308.3974    404.99358   -730.67596   -106.06155   -3782.8466 
 7075000    222.61316   -4340.9826   -3959.4313   -4340.9826            0    1534.0497    18.162563    23.147028      22.1826    9325.7729    1599.2486    2410.9263    591.97434   -547.90578    377.99368   -332.40214   -3750.7901 
 7076000    223.70683   -4345.4919    -3962.066   -4345.4919            0    2016.9852     18.06714    23.378028    21.993834    9289.6264    2242.7084    3039.1047     769.1426   -492.63309    889.04298   -88.499571   -3688.8055 
 7077000    212.86064   -4335.5597   -3970.7239   -4335.5597            0    1716.5886    17.983194    23.572836    21.851807    9263.3061    2111.3949    1468.2913    1570.0797    -1255.674    485.73433    236.06463   -3738.8199 
 7078000    227.60031   -4306.1997   -3916.1006   -4306.1997            0    1078.2912    17.950427    23.504352    22.195405    9364.5334    1246.8953    1592.2035    395.77477    370.86734    650.59283   -253.46352   -3768.8361 
 7079000    222.57441   -4342.2963   -3960.8113   -4342.2963            0    2425.5983    18.137755    23.242024    21.982332     9266.831    2407.0617    2558.2154    2311.5176   -723.51193    183.05446   -58.027146   -3632.9985 
 7080000    228.45969   -4309.1312   -3917.5591   -4309.1312            0    2116.9751      18.0339    23.377751    22.061489    9300.9478      3023.63    2394.8926    932.40268   -557.29535   -661.13718    590.78458   -3630.4025 
 7081000     212.9098   -4323.4182   -3958.4981   -4323.4182            0    1574.2807    18.047715    23.543081    21.966974    9333.7415    765.06899    1986.0038    1971.7692    83.702738    152.69771    -161.9012   -3744.2022 
 7082000    217.26967   -4349.0503   -3976.6575   -4349.0503            0    955.46852    18.087874    23.565469    21.959623    9360.2729    1044.7222     2099.351    -277.6676    28.538246   -85.103191   -622.67352   -3846.2265 
 7083000    217.62045   -4353.5206   -3980.5266   -4353.5206            0    1199.8793    18.093655    23.290328    22.172192    9343.5204    994.23664    1725.3988    880.00239    71.561074   -106.78373    875.30278   -3817.0242 
 7084000    226.78556   -4303.9557    -3915.253   -4303.9557            0    1804.9938    18.164806    23.359535    22.039659    9351.8994    2607.5851    2047.7504    759.64588   -474.59653   -947.37143    712.66057   -3669.0738 
 7085000    228.58682   -4344.2265   -3952.4366   -4344.2265            0      1055.51    17.852765    23.545542    22.225943    9342.7422    2324.8592      1997.48   -1155.8093   -395.51656   -401.04652    780.13505   -3808.6188 
 7086000    221.71049   -4333.4629   -3953.4587   -4333.4629            0    672.27497    18.098784    23.562603    21.976949    9372.1676    915.72152    374.48706    726.61633    334.05822    944.87312   -215.22717   -3861.5698 
 7087000     212.1283   -4332.3326    -3968.752   -4332.3326            0    1249.1232    18.035618    23.095487    22.362172    9314.7702    822.07457    2684.3978    240.89723    119.92322   -23.406825   -106.46459   -3799.0631 
 7088000    231.23368   -4323.6071   -3927.2805   -4323.6071            0    1957.9378     18.06339    23.480673    21.892951    9285.6884    1066.1658    384.34906    4423.2987   -534.99458    191.48124    371.77861   -3662.1322 
 7089000    207.65432   -4332.8854    -3976.973   -4332.8854            0    1937.3818    17.795293    23.427198    22.231845    9268.3195    2783.9325    1543.3575    1484.8553    598.28372    -798.3495   -198.19177   -3715.0992 
 7090000     219.6755   -4334.1229   -3957.6066   -4334.1229            0    1317.4767    18.119323     23.47064    21.953344    9336.1448    1611.6852    1007.4273    1333.3176   -470.43137    492.24107   -47.212099   -3778.2215 
 7091000     214.1752   -4347.0416   -3979.9526   -4347.0416            0    2596.0608    18.015234    23.274463     22.10058    9266.6607    2269.9418    2108.1163    3410.1241     213.5078    117.60433    286.51592   -3629.1087 
 7092000    220.65688   -4313.4425   -3935.2442   -4313.4425            0    1831.6137    18.012315    23.478194    22.006045    9306.2825      2172.77     2649.501    672.57015   -443.00819   -296.78624   -69.350493   -3686.6528 
 7093000    212.31393   -4335.5596   -3971.6608   -4335.5596            0    2845.8904    17.768594    23.351672    22.258599    9235.6798    3169.6327    3348.5573    2019.4813    737.26815    104.67191    1170.5903   -3588.3395 
 7094000    209.58762   -4325.1838   -3965.9578   -4325.1838            0    2389.2932    18.139346    23.404949    21.892912    9294.6456    1535.4444    2997.9249    2634.5102    628.53925   -482.57518    453.95148   -3642.0822 
 7095000    214.73517   -4339.5198   -3971.4711   -4339.5198            0    2575.1892     17.90445    23.393941    22.152038     9278.506    3081.6153    2358.7204    2285.2319    246.45745    20.742266    704.45605   -3623.0029 
 7096000    216.38614   -4309.3656   -3938.4872   -4309.3656            0    741.02015    18.107887    23.594447    21.934127    9371.2589    378.32144    1725.5918    119.14717   -371.36241   -417.84045    429.90728   -3837.2118 
 7097000    220.78988   -4330.2881   -3951.8618   -4330.2881            0     1229.622    18.113366    23.367159    22.091107    9350.2353    445.49175     2612.074    631.30038   -384.57016    -122.5353    391.88383   -3784.1861 
 7098000    206.22064   -4333.5188   -3980.0637   -4333.5188            0     2012.678    17.984901    23.281427    22.186455    9289.7828     669.1865    2681.5681    2687.2793    603.38556    65.167934      356.598   -3707.3822 
 7099000    218.47101   -4317.5707   -3943.1189   -4317.5707            0    1500.1741     17.92646    23.631328    21.993534    9317.0341    2228.2862    641.71748    1630.5188   -470.76241   -383.68948    95.531617   -3739.2761 
 7100000    211.16388   -4332.6359   -3970.7082   -4332.6359            0    2030.9686    18.062586    23.373604    22.092382    9327.1324    1610.4913    1998.7938    2483.6208    907.96662   -2.9568807    175.08566   -3694.4423 
 7101000    213.87324   -4353.2596   -3986.6882   -4353.2596            0     1059.241    18.106498    23.435848    21.997123    9334.2843    1313.0595    1431.5359    433.12769   -170.61308    100.86185    278.53001   -3842.4927 
 7102000    223.66285   -4322.3621   -3939.0117   -4322.3621            0    1472.8977    17.990099    23.371998    22.132912    9306.1055    3022.0664    1428.7967   -32.169816    1545.1816    562.16735   -244.73894     -3739.11 
 7103000      216.823   -4316.4809   -3944.8537   -4316.4809            0    852.52978    18.047948    23.496105     22.00624    9331.8889    238.04859    279.42337    2040.1174    37.030571   -512.36572    383.91543   -3828.8277 
 7104000    217.34497   -4326.1289   -3953.6071   -4326.1289            0    469.41351     17.99593    23.423609     22.28362    9393.2062    1007.4663    1846.1906   -1445.4164   -480.56897    126.95961   -136.80583    -3889.302 
 7105000     219.5202   -4309.4164   -3933.1663   -4309.4164            0    2069.3281    18.034312    23.476924    21.951312    9293.9696    1338.5311    1754.1905    3115.2628    288.54007   -699.62682    196.62369   -3652.6833 
 7106000    215.28721   -4349.3627   -3980.3678   -4349.3627            0    1804.1228    18.131611    23.290267    22.083018    9325.4391    277.19793     2815.107    2320.0635   -8.1584481   -490.97818   -825.08769   -3735.0035 
 7107000    209.84172   -4331.5717   -3971.9102   -4331.5717            0    570.75982     17.93225    23.768692    22.004137    9378.7382    1052.9623   -528.87666    1188.1938    496.22095    321.24423      412.226   -3893.8421 
 7108000    223.28146   -4335.5636   -3952.8668   -4335.5636            0    1788.6236    17.962048    23.467744    22.016682    9280.6642    1407.8151    1221.8515    2736.2042    356.07242    331.14956   -494.95213   -3710.7785 
 7109000    216.96603   -4330.8498   -3958.9774   -4330.8498            0    1928.3537    18.129569    23.286271    22.001748    9288.4792    2839.1133    1307.4502    1638.4977   -530.20327    -32.38102    695.30184   -3697.7569 
 7110000    219.15989   -4339.7349   -3964.1024   -4339.7349            0     822.0959    18.200688    23.387106    21.934357    9336.6094   -223.11519     2082.186    607.21688   -429.25516    1087.9797   -559.97691   -3852.1618 
 7111000    226.01498   -4333.7614   -3946.3795   -4333.7614            0    2841.8775    17.864651    23.485172    22.129368    9284.4738    2228.3757    3415.6021    2881.6546    731.74904   -410.14277    224.19801   -3561.5764 
 7112000    224.87226    -4334.554   -3949.1306    -4334.554            0    1563.5328     17.98278    23.525236    21.917069    9271.9973    305.78654    1304.6503    3080.1616   -911.10276     448.5194   -283.72248   -3737.7057 
 7113000     222.0072   -4345.7046   -3965.1918   -4345.7046            0    1998.6636    18.071225    23.208813    22.156534    9292.7093    3125.8138    825.71578    2044.4612    666.90188    69.867176    419.45784   -3694.3237 
 7114000    232.87638   -4322.1864   -3923.0443   -4322.1864            0    1856.0105    18.150375    23.290195    21.984133    9293.2597    2990.8052    873.32994    1703.8963    65.015883    1108.7365    211.90973   -3671.4942 
 7115000    220.72324   -4311.4825   -3933.1704   -4311.4825            0     2047.166    17.977106    23.429972    22.140772    9325.7618     1188.783    2343.1272    2609.5878     -1296.34    487.12372   -324.90183   -3654.7422 
 7116000    214.20898    -4335.549   -3968.4021    -4335.549            0    1310.3936    17.917449    23.636467    21.956462    9298.6755    1415.5373    1563.6091    952.03434   -146.98032   -593.43618    251.91018   -3790.6975 
 7117000    217.43855   -4361.2457   -3988.5635   -4361.2457            0    1340.4818    18.070995    23.478364    22.049324    9355.0299    1491.8222    1161.2838    1368.3392   -545.36428   -231.11613    299.66472   -3805.6769 
 7118000    208.10246   -4330.2405     -3973.56   -4330.2405            0    801.64836    18.337562    23.218912    22.014552    9373.3172    327.54189    1921.6111    155.79212   -379.22546   -328.81366    287.19202   -3863.9745 
 7119000    229.82248   -4346.1148    -3952.207   -4346.1148            0    1659.0842    18.020319    23.420459    22.107837    9330.4832    1651.1096    1762.7299    1563.4133   -618.16787   -367.25602   -904.91183   -3726.4462 
 7120000    219.82722   -4346.9158   -3970.1395   -4346.9158            0    1399.8291    17.955951    23.520912    22.117057    9340.9253    2468.7798    228.37209    1502.3354    54.137366   -353.23635    211.75481   -3779.4439 
 7121000     212.6045   -4331.6904   -3967.2935   -4331.6904            0    2167.4119    18.123399    23.500656     21.85655     9308.962    3034.7421    2518.2037    949.28978   -614.74623    177.07505    58.345056   -3673.0421 
 7122000     228.4318   -4321.2415   -3929.7172   -4321.2415            0    1731.5484    18.110861    23.037355    22.308049    9307.5055    2223.6185    1819.4553    1151.5713   -775.36205   -130.97573    187.05501   -3694.6761 
 7123000    205.30266   -4336.0868   -3984.2051   -4336.0868            0    1167.4479    18.048375    23.547597     21.97722    9340.2271   -147.43069    1688.7422    1961.0323   -769.61301    466.25926    160.43966   -3825.1781 
 7124000     221.2167   -4317.4588    -3938.301   -4317.4588            0    436.87686    17.859576    23.555417      22.2888    9376.6702     1461.511    537.24817   -688.12861    -285.8152    371.36608   -390.66337   -3878.5585 
 7125000    226.35645   -4306.7764   -3918.8092   -4306.7764            0    2428.1706    18.203404    23.344093    21.845725     9283.165    1621.0924    2631.9643    3031.4552   -235.99613   -23.544085    1281.4888   -3590.0703 
 7126000    218.13722   -4326.4217    -3952.542   -4326.4217            0    1920.6477    18.059307    23.407443    22.056725    9323.8671    2297.8265    2846.0534    618.06321    1168.1408    708.92458   -448.26061   -3691.3741 
 7127000     227.6112   -4337.6371   -3947.5193   -4337.6371            0    1128.3044    18.091445    23.538421    22.004168    9370.3442     422.6457    1330.3762    1631.8912   -163.59518   -650.27703     1215.386   -3793.3287 
 7128000    222.22357    -4333.775   -3952.8914    -4333.775            0    1276.1968    17.965985    23.548235     22.09814    9348.9989    2597.4726   -171.61339     1402.731    93.589076   -431.00562    739.90456   -3778.8877 
 7129000    224.37552   -4312.9735   -3928.4015   -4312.9735            0    2132.4721    17.975242    23.359447    22.041083    9254.8683    1721.8727    2765.4927    1910.0511    354.57965   -313.93423   -133.21685   -3640.5759 
 7130000    207.78256    -4331.701   -3975.5688    -4331.701            0    1695.5152     18.17869    23.222643    21.940748    9262.4453   -114.70944    3483.6207    1717.6345   -76.675812    298.63617   -597.27734   -3746.5331 
 7131000    208.28413   -4339.5599    -3982.568   -4339.5599            0    817.26951    17.797115    23.693654    22.148274    9339.4553    559.86328   -17.856501    1909.8017   -482.25834   -304.05284   -541.92917   -3871.2507 
 7132000    220.51709   -4307.9948    -3930.036   -4307.9948            0    2158.9631    18.039328    23.457106    21.999792    9309.2214    2750.1709    1559.4876    2167.2307   -917.11314   -51.271972   -31.453978   -3636.9234 
 7133000    203.69815   -4312.6656    -3963.534   -4312.6656            0    1786.3579    18.188476     23.14033    22.078965    9292.7565    981.51551    2560.9332    1816.6251   -337.17916   -309.02359    380.88974   -3721.4372 
 7134000    207.61837   -4334.7588    -3978.908   -4334.7588            0    2182.5277    18.072179    23.431593    21.874663    9263.0432    1516.5553      823.178      4207.85   -253.86037    219.45617   -1292.1946    -3684.066 
 7135000    215.54014   -4353.9554    -3984.527   -4353.9554            0    1603.9608    17.606339    23.696177    22.210344    9266.2204    2917.6239    1173.4183    720.84026    37.942602    350.53979    137.01261   -3767.7704 
 7136000      218.585   -4331.1528   -3956.5056   -4331.1528            0   -851.10365    18.152923      23.4974     22.01919    9392.2078   -763.72387   -2329.9985    540.41137    42.171808    655.66211    192.83006   -4073.0862 
 7137000     212.9271   -4346.9375   -3981.9878   -4346.9375            0    2081.2031    18.071565    23.105791    22.226591    9280.8869    1687.5427    3428.5184    1127.5482    1024.2394    34.177582    476.29158   -3700.2923 
 7138000      215.508   -4324.9173    -3955.544   -4324.9173            0    1629.1736    17.949283    23.584744    22.020587    9321.9589     2117.388    1405.5019    1364.6309   -619.58979    332.16548   -688.17359   -3734.0559 
 7139000    209.56562   -4360.1849   -4000.9966   -4360.1849            0    1138.5615     17.95732    23.293235    22.244122     9304.362    1380.2468    1837.5596    197.87833    702.35214   -673.39036    -441.4339      -3846.5 
 7140000    212.41368   -4326.9046   -3962.8348   -4326.9046            0     1401.248    18.214297    23.317922    21.983196    9336.6935   -154.96925    2987.7908    1370.9224    103.15519   -268.18272   -377.84321   -3772.0323 
 7141000     215.0687   -4349.9703   -3981.3499   -4349.9703            0    1108.9958    17.887607    23.638306    22.128184    9356.5205    2119.4439    693.77284    513.77058   -129.40743    881.69839   -982.74461   -3830.0216 
 7142000    204.84683   -4322.5203   -3971.4198   -4322.5203            0    2196.2806    17.905061    23.531143     21.97393    9258.2003    4100.3754    351.14312    2137.3232    462.62151   -264.64182    486.07848    -3674.875 
 7143000    217.58597   -4341.7513   -3968.8164   -4341.7513            0    1329.6095    18.147345    23.168631    22.158975     9316.722    1128.1847    2364.4654    496.17844    240.74868   -289.88186    540.12981   -3788.1559 
 7144000    222.08765   -4341.0086    -3960.358   -4341.0086            0    1170.9613    18.026164    23.451898    22.015044    9306.8104    349.70864    1548.0935    1615.0819   -910.04073    131.25779   -845.93076   -3801.4231 
 7145000    221.05702   -4308.3549   -3929.4708   -4308.3549            0    2101.3707     17.89934    23.568756    21.973787    9269.9756    3268.9751    1847.2585    1187.8785    627.87323    914.77682    408.45989     -3645.38 
 7146000    206.10814   -4323.8074   -3970.5451   -4323.8074            0    2584.9238    18.161697    23.171171    21.926978    9227.4818    1635.4232    3373.6311     2745.717   -1083.8758   -207.43885   -151.89878   -3622.6832 
 7147000    204.01834   -4332.6862   -3983.0058   -4332.6862            0    2870.5356    18.010538    23.326529    22.011299    9247.4605    3798.5558    2498.7223    2314.3285   -260.81524   -53.923138    -5.807447   -3595.8718 
 7148000    206.93824   -4340.9207   -3986.2356   -4340.9207            0    358.59667    17.906046    23.652866    22.152111    9382.0683    993.41565   -7.4065734    89.780928     71.93985   -427.28289    537.39755   -3937.1696 
 7149000     225.6294   -4309.0257   -3922.3047   -4309.0257            0    2532.5702    18.196289     23.24199    21.949462     9282.822    2945.4864    2811.2391    1840.9851   -892.12518   -1155.7142    639.31158   -3579.4442 
 7150000    222.04315   -4349.1232   -3968.5488   -4349.1232            0    1744.1261      18.0734    23.264341    22.105516    9294.6121    1064.1406    1266.4147    2901.8229   -157.21494    643.17045    708.20374   -3732.1284 
 7151000    224.53787   -4318.9495   -3934.0993   -4318.9495            0    183.37965    17.965175    23.727534    22.042777     9396.159    524.09664   -111.11438    137.15669   -579.99417    -233.9472    331.13586   -3908.9702 
 7152000    207.35659   -4336.9956   -3981.5935   -4336.9956            0    2348.0102    18.023113    23.319299    22.136595    9303.7089    2169.8037    3792.8633    1081.3636      706.919    919.72838    408.96046   -3663.0036 
 7153000    226.98147   -4341.8955    -3952.857   -4341.8955            0    1513.2733    18.113617    23.312414    22.061006    9315.7482    1752.1687     1813.843    973.80828    384.23109   -290.71591   -207.81845   -3747.2627 
 7154000    204.46137   -4322.8626   -3972.4228   -4322.8626            0    1631.4261    17.903313    23.589031    22.005881    9293.5633    1809.3128    726.11606    2358.8495    437.10954    425.42389    287.83373   -3751.3041 
 7155000    205.46485   -4317.6637   -3965.5039   -4317.6637            0    810.06504    18.050328    23.548254    22.049723    9372.3164    1027.1562    146.02899    1257.0099    63.470284     127.9464   -396.14531   -3854.7797 
 7156000    208.16488   -4353.6534   -3996.8659   -4353.6534            0    1681.5677     18.06607    23.260805    22.163772    9313.9114    2078.4801    2789.5947    176.62839    1607.2162   -313.73797    19.021019   -3768.4521 
 7157000     207.3714    -4322.631   -3967.2035    -4322.631            0    2900.6052    17.942416    23.465591    21.978516    9253.6011    3365.1054    2762.7808    2573.9295    294.59964    569.60201    68.781146   -3575.7544 
 7158000    211.75027    -4333.021   -3970.0882    -4333.021            0    1961.9642    18.078549    23.292788    22.111495    9311.1463    607.28314     2764.083    2514.5265   -197.37011   -316.10988    46.701679   -3703.6662 
 7159000    219.46159    -4338.907   -3962.7574    -4338.907            0    685.56046    18.146382    23.673076    21.820172    9373.5245    113.45657    72.547919    1870.6769     312.2263   -1012.2522    426.51771    -3869.039 
 7160000    232.85081    -4332.542   -3933.4437    -4332.542            0     1008.619    17.866271    23.496279    22.352339    9383.3081    1135.1123    1765.9291     124.8155   -342.13578   -38.605277   -689.12859   -3795.4183 
 7161000    204.01848   -4335.8668   -3986.1861   -4335.8668            0     1488.265    18.177826    23.378199     21.88622    9300.8734    1123.3833    1066.7721    2274.6395    317.92772   -555.35235   -412.24094   -3784.3124 
 7162000    211.81389   -4329.8232   -3966.7814   -4329.8232            0    3021.3231    17.917077    23.165456    22.301968    9256.5941    2835.4559    3469.0065     2759.507   -395.47871    295.19102     388.5631   -3558.9091 
 7163000    217.23285   -4328.3712   -3956.0415   -4328.3712            0    2323.4264    18.060057    23.471264    21.883436    9276.2214    2455.2518    626.44161    3888.5857    273.47926    354.16808    461.60547   -3641.7187 
 7164000    210.85853   -4327.1345   -3965.7302   -4327.1345            0    1450.1114    17.843678    23.469406    22.329776    9351.2755    1900.4254    1654.1757    795.73296   -238.77396   -530.73136     344.4567   -3767.9658 
 7165000    215.44692     -4328.89   -3959.6214     -4328.89            0     1095.739    18.167584    23.525179    21.906745    9362.8481    1011.6101    2788.6825   -513.07564   -940.18687    856.20004   -463.30713   -3810.0009 
 7166000    216.80294   -4316.9422   -3945.3494   -4316.9422            0    876.18685    18.088381    23.345703    22.139259    9349.0984    -229.5458    1638.7172    1219.3892    220.97113    41.507655    120.38559   -3825.8839 
 7167000    209.87247   -4340.5798   -3980.8656   -4340.5798            0    1772.0714    17.945779    23.635473    21.969048    9318.3249     1800.287    1695.3153    1820.6119    85.353992    620.76969    7.0361719   -3740.0442 
 7168000    217.95367    -4300.331   -3926.7659    -4300.331            0     1543.232    18.073316    23.533775    22.030971    9370.5066    2512.6788    983.14697    1133.8701   -202.94351   -46.744578    156.49861    -3715.869 
 7169000    222.44881   -4311.7384   -3930.4687   -4311.7384            0    479.99088    18.186806    23.281456    22.175342    9389.3794    510.82813    2385.0187   -1455.8742    162.09171   -762.22899   -66.987713   -3864.7414 
 7170000    220.79126   -4337.0449   -3958.6163   -4337.0449            0    2467.6625    18.026021    23.494667    21.917557    9282.4219    2466.3182    3160.8443     1775.825    800.48755   -383.96537    -337.9245   -3624.5574 
 7171000    211.69723   -4324.7919   -3961.9501   -4324.7919            0    2090.4042    17.960649    23.336856    22.139081    9279.4868    1025.6032    1538.0163    3707.5931    311.86662    412.42341    606.75446   -3679.0519 
 7172000    215.20194   -4330.7415   -3961.8928   -4330.7415            0    2128.5395    18.052008    23.426063    22.035115    9318.3739    879.68511    3619.0683    1886.8651    860.58693    23.112936    697.91204   -3672.6265 
 7173000     211.9965   -4330.6105   -3967.2558   -4330.6105            0    1252.6166    18.125021    23.269909     22.23858    9379.5124    826.18701    1923.9587     1007.704   -409.12984    297.77458    463.66273   -3795.9097 
 7174000    211.57152   -4335.3651   -3972.7388   -4335.3651            0    2243.3672    18.022766    23.434462     21.99376     9289.149    3071.3826    2889.2607    769.45831   -752.77797     142.0744    499.36356   -3668.8238 
 7175000    229.94185   -4340.9249   -3946.8125   -4340.9249            0    1853.9939     18.11627    23.297087    21.958083    9267.5479    1964.4457    1383.6153    2213.9208    193.28839    1073.2719     -455.746    -3696.231 
 7176000     209.1605   -4328.6028   -3970.1089   -4328.6028            0    1694.4857    18.044253    23.440513    22.061585    9331.3122    1825.9327    711.25503    2546.2694    470.83772   -16.502383    555.82881   -3739.5104 
 7177000    227.11441   -4321.5341   -3932.2678   -4321.5341            0    2310.4201    17.785741    23.614686    22.149375    9302.8411    3285.0033    2253.6327    1392.6243   -434.23631   -136.42678    201.18948   -3618.8076 
 7178000    215.37895   -4309.6196   -3940.4675   -4309.6196            0     1407.376    18.217042    23.340597    21.984057    9347.5473    863.49949    2573.7287    784.89977   -1057.6117   -717.93691    767.33002   -3748.6078 
 7179000    216.87509   -4332.1493   -3960.4328   -4332.1493            0    808.85354    18.110238    23.431657    22.060479    9361.4278   -516.92225    443.32592    2500.1569    190.02083    385.00513   -585.07433   -3850.0026 
 7180000    212.17137   -4333.4574    -3969.803   -4333.4574            0     1305.348    17.926451    23.745366    22.028417    9376.8392    1697.9637    1234.2818     983.7986    1030.1515   -188.98697   -336.62953   -3791.2946 
 7181000    220.39345   -4324.9768     -3947.23   -4324.9768            0    2475.7197    18.035226    23.261026    22.120955    9280.1354    2880.7058    2655.0969    1891.3564   -668.58012   -20.231094   -784.62296   -3612.1629 
 7182000      223.606   -4306.7343   -3923.4813   -4306.7343            0    1604.9347    18.079609    23.377252    22.120702    9349.3491     691.7785    2514.5543    1608.4714   -576.60986    399.89383   -154.28934   -3704.6474 
 7183000    201.42847   -4317.6478   -3972.4063   -4317.6478            0    979.97849    18.126704    23.430017    22.026354    9354.7901    1413.9642    1326.2543    199.71689    216.20259   -867.05409    1.9741545   -3838.7078 
 7184000    204.44384   -4326.5447   -3976.1349   -4326.5447            0     1339.584    17.907774    23.744398    21.936435    9327.5765    1255.4689    1984.2749    779.00831    238.51734   -797.52966   -681.45006   -3793.9071 
 7185000    218.07495    -4309.982    -3936.209    -4309.982            0    2467.7619     18.14674     23.08197    22.113876    9262.6733    1355.6327    3653.6058    2394.0471    103.72854   -25.702948   -582.24436   -3602.8475 
 7186000    208.92601   -4291.7899   -3933.6979   -4291.7899            0    2768.0903    18.089974    23.314189    22.014588    9284.7199    2563.2631    2580.4093    3160.5986   -787.54204   -790.44762   -60.360958    -3558.876 
 7187000    205.86165   -4319.3663   -3966.5265   -4319.3663            0    1361.2649    17.911578    23.534794    22.093725    9313.5055    2034.0361    236.33514    1813.4236   -165.09198   -1003.8923     232.2124   -3781.6287 
 7188000    234.53232   -4334.4053   -3932.4249   -4334.4053            0    1700.0551    18.154086    23.333097    21.997009    9317.7359    1675.9774    2683.0394    741.14848   -274.77129    338.88986    20.361733    -3701.405 
 7189000    202.39189   -4328.7434   -3981.8506   -4328.7434            0    1945.1413    18.161905    23.232106    21.964774    9267.8012    832.88977    3258.0592    1744.4749    330.27478    103.26529    844.71896   -3718.9426 
 7190000    215.00899    -4279.892    -3911.374    -4279.892            0    2565.8628    17.931894    23.457291    22.009882    9258.0971    2971.7343    1816.6388    2909.2152    1024.8718   -219.79102     791.5044   -3564.9316 
 7191000    227.86978   -4338.9221   -3948.3611   -4338.9221            0    733.66773    17.971311    23.542778    22.013487     9313.787   -637.08444     1528.112    1309.9757    469.92617   -131.33276     414.3839   -3848.7055 
 7192000    216.16459   -4319.2759   -3948.7771   -4319.2759            0    1951.1911     17.95512    23.363446    22.154911    9293.8406    1450.3148    3192.0228    1211.2356    -627.3517    146.70984    1228.4534   -3684.3105 
 7193000    225.45831    -4336.708   -3950.2802    -4336.708            0    2759.2737    18.127933    23.383574    21.840802    9258.2251    2250.0378    2681.8501    3345.9331    128.22021   -31.392881    642.13188   -3577.7183 
 7194000    226.06209   -4321.3335   -3933.8708   -4321.3335            0    980.35327    18.043149    23.395312    22.146507     9348.597    467.31922    1727.7776    745.96298    445.08716     -143.302   -3.0618193   -3800.2097 
 7195000    205.61156   -4312.7221   -3960.3109   -4312.7221            0    1025.3279    18.005255    23.690763    21.803209     9300.338    1811.9571    930.05139    333.97525   -570.60737   -146.45082    437.96271   -3821.2397 
 7196000    217.34469   -4328.0721   -3955.5507   -4328.0721            0    1801.5732    17.982718    23.375492    22.060592     9273.277    815.37695     3029.576    1559.7668   -358.36488    323.32617   -155.75664   -3711.9037 
 7197000    214.05713   -4313.8229   -3946.9364   -4313.8229            0    3035.0003     18.05817    23.275587    21.948446    9225.2504    3852.8648    3733.8498    1518.2864   -255.31166   -201.75023    184.02325   -3538.6049 
 7198000    223.50877   -4328.7088   -3945.6225   -4328.7088            0    3385.8033    17.946218    23.347275    22.089513    9255.4018     3361.308      4412.79    2383.3119    306.87213    339.68748    536.82665   -3488.6049 
 7199000     220.5388   -4313.2721   -3935.2761   -4313.2721            0    2037.8648    17.992992    23.703802    21.754174    9278.2057    2017.3721    1321.3271    2774.8952    288.93889     251.1537   -130.11447   -3659.5263 
 7200000     211.2175   -4320.2175   -3958.1979   -4320.2175            0     1238.226    18.076647    23.272963    22.151735    9319.1713    1231.6763    1734.0221    748.97949     371.2122   -387.20875    207.18193   -3789.9099 
 7201000    218.86356   -4329.3886    -3954.264   -4329.3886            0    1478.8372    18.076986    23.343282     22.05857    9308.1913    32.810956    2678.7088    1724.9917   -1003.9277    390.07556    152.14459   -3753.5112 
 7202000    217.41383   -4315.0178    -3942.378   -4315.0178            0    1867.1163    17.804511    23.755725    21.986488    9299.3844    2185.8848      752.482    2662.9821   -1378.7062   -90.308962   -626.06011   -3689.1559 
 7203000    209.66075   -4331.7964    -3972.445   -4331.7964            0    1810.2672    18.128787    23.358169    22.062388    9342.4344    3190.6704    3335.6126   -1095.4814   -351.22572   -393.10302    117.36481   -3725.7964 
 7204000     204.7487   -4325.9428   -3975.0106   -4325.9428            0    594.52372    18.097333    23.461597    22.079192    9374.6553    773.16699   -27.564617    1037.9688    274.64468   -70.207261   -74.677819   -3893.7274 
 7205000    205.02362   -4335.2455    -3983.842   -4335.2455            0    826.06138    18.022505    23.418884     22.21888     9377.855    1222.6799    1430.6899   -175.18574    29.236589    18.866023    209.22256   -3870.8646 
 7206000    223.41524   -4359.6801    -3976.754   -4359.6801            0    1803.8276    18.102683    23.626953    21.768021    9310.4276    1804.0344   -305.01012    3912.4586   -1012.2145   -540.28709    853.63625   -3731.8248 
 7207000    216.79814   -4336.8208   -3965.2362   -4336.8208            0    1397.9463    17.943449    23.339943    22.308089    9342.6074     1613.879     1431.237    1148.7228   -156.10091    561.62363   -39.294827   -3774.7627 
 7208000    217.92906   -4313.9879   -3940.4649   -4313.9879            0    771.82873    18.328618     23.61695    21.699206    9392.8499    577.89026    1372.3818    365.21411   -981.25658   -313.17765    678.80301   -3834.7359 
 7209000    207.50076   -4317.5181   -3961.8689   -4317.5181            0    217.09088    17.965598    23.506102    22.196609    9373.6539    842.83647    831.06053   -1022.6244   -1209.4617    273.56102    46.617336   -3932.1915 
 7210000    231.14125   -4323.8768   -3927.7086   -4323.8768            0    2450.6044     18.14428    23.475849    21.806651    9288.5947    3674.3609    1584.4902    2092.9622   -124.51731   -528.08979   -742.73765   -3595.7384 
 7211000    212.82571   -4329.6421   -3964.8661   -4329.6421            0    1027.6493    18.116939    23.297815    22.186759    9364.7002    719.89777    1005.5534    1357.4968   -45.536832    28.941117    190.46612   -3824.5153 
 7212000     227.0693   -4347.2774   -3958.0884   -4347.2774            0    683.62755     18.00201    23.539639    22.011248    9327.5045     1047.487    -127.1661    1130.5618    157.38271   -242.60119    522.89984   -3865.0931 
 7213000    225.52586   -4324.0648   -3937.5212   -4324.0648            0    2675.6422    17.904615    23.441675    22.070013    9263.0974    2398.7367    2361.3006    3266.8894    568.71142    412.25534   -1154.8251   -3576.0613 
 7214000    225.14265   -4347.8131   -3961.9263   -4347.8131            0    1323.5612    18.208136    23.231502    22.024917    9316.5914    1328.1266    3196.8656   -554.30857   -325.47269    642.21182    644.46807   -3782.0901 
 7215000    213.67358   -4372.2301   -4006.0009   -4372.2301            0    1288.4239    18.066652    23.506152    21.980706    9334.7104    1710.5926    2045.1695     109.5097     830.7525   -632.01526    -399.4053   -3830.5985 
 7216000    220.78593   -4346.8909   -3968.4714   -4346.8909            0    2204.7954    17.842829     23.39035    22.184261    9258.6016    4206.4851    929.43709    1478.4641    533.48207   -899.74503   -130.40769    -3670.764 
 7217000    210.79253   -4340.2627   -3978.9715   -4340.2627            0     249.2843    18.174382    23.510478    21.930013    9370.4406   -131.41429    1490.0055   -610.73831    975.23546    176.02962    276.01745   -3944.9048 
 7218000    213.99848    -4317.128   -3950.3419    -4317.128            0    2878.7293    17.980414    23.274907    22.083313    9241.7001     2884.279    3569.9279    2181.9811   -228.43201   -131.32958    876.22966   -3562.3447 
 7219000    219.47288   -4318.7783   -3942.6093   -4318.7783            0    2609.4747    18.161418    23.549706     21.73535    9296.1235    2554.5242    2288.5922    2985.3078    238.78189    494.21609   -117.23184   -3588.8313 
 7220000    208.29316   -4336.1683    -3979.161   -4336.1683            0    2275.5045    17.995098    23.359793    22.128205    9301.8515    2621.4699    2234.0996    1970.9439    206.34819   -183.31654   -600.24279   -3670.4707 
 7221000    214.89913   -4323.0099   -3954.6802   -4323.0099            0    2934.9119    17.951227    23.372285    22.114799    9278.5113    3547.1794    2752.5311     2505.025    271.26624    54.918504    271.00148    -3557.535 
 7222000    212.83025   -4332.3583   -3967.5745   -4332.3583            0    1752.5211    18.010815     23.31439    22.088456    9275.1894    1514.4552    2724.5558    1018.5522    578.01955    114.08647    86.072996   -3730.5125 
 7223000    206.74882   -4324.4465   -3970.0861   -4324.4465            0    406.14631    18.060317    23.659827    21.882157    9350.3329    1268.5018   -1226.1205    1176.0577   -211.16026    487.19307   -274.11101    -3914.702 
 7224000    215.45307   -4331.7311   -3962.4519   -4331.7311            0       1324.7    17.955033     23.50262    22.136711    9341.4778    991.22994    1356.3671    1626.5028   -1085.4119   -262.94993    296.76938   -3781.9802 
 7225000    220.24772     -4346.09    -3968.593     -4346.09            0    1870.8739    18.105089    23.416512    21.938172    9300.8641    1417.1857    2292.9478    1902.4882   -592.06333     1197.242    48.449739    -3714.821 
 7226000    214.16784   -4320.9658   -3953.8894   -4320.9658            0    2981.6048    17.965673     23.33325    22.122224     9273.582    4099.2484    3152.2062    1693.3597    747.32738    438.50771   -42.241926   -3550.6403 
 7227000    227.09475    -4288.181   -3898.9483    -4288.181            0     227.6052    18.010623    23.635149    22.074556    9396.7802   -961.27061    709.16971    934.91649    -975.4399   -166.46235    540.81162   -3867.7568 
 7228000    223.63158   -4322.2055   -3938.9086   -4322.2055            0    1794.0218    17.959873    23.576143    22.039448     9332.043    3272.9906    881.28056    1227.7942   -626.76818    56.273395   -467.28592   -3694.7454 
 7229000    220.42148   -4319.8237   -3942.0288   -4319.8237            0    1135.6612    18.196449     23.20359    22.011035    9293.5635    502.71419    1471.0729    1433.1964    184.23924   -167.66231   -442.73028   -3788.1046 
 7230000    217.49013   -4298.9777    -3926.207   -4298.9777            0    1404.9819     18.06857    23.496634    21.975254    9329.6067    91.203152    1643.8808    2479.8617   -157.64678    657.75313    63.525719   -3735.0413 
 7231000    224.06019    -4326.066   -3942.0345    -4326.066            0    2441.9235    17.827637    23.477943    22.165767    9277.6203    1657.0994    3492.3012    2176.3698    885.58734    157.02336    345.97998   -3611.6311 
 7232000     209.4655   -4312.3732   -3953.3565   -4312.3732            0     1144.535    18.064192    23.456415    22.015774    9328.5499    2717.8633    507.62789    208.11364    886.55784   -361.81272    975.43281   -3797.6456 
 7233000    210.99171   -4331.3222   -3969.6896   -4331.3222            0    2068.6411    18.000622    23.182076    22.260019    9288.9233    2709.8299    2587.4472    908.64615    -645.7563   -163.81798    322.20937    -3689.452 
 7234000    212.17967   -4299.7622   -3936.0935   -4299.7622            0    1759.9353    18.085644    23.606089    21.745034    9283.6362    1641.5897    1512.0647    2126.1515    117.58206   -532.39355   -255.91099   -3697.8118 
 7235000    212.51282   -4336.8816   -3972.6419   -4336.8816            0    1118.4322    18.015379    23.482446    22.079911    9340.7994    1614.6869     1440.677     299.9328    -464.4469   -312.08843    272.91958   -3820.2824 
 7236000    219.40887   -4335.5837   -3959.5244   -4335.5837            0    2518.6356    18.099892    23.159621    22.044304    9240.6776    1476.0679    4389.0485    1690.7903   -18.890344   -854.63977    464.10513   -3620.0985 
 7237000    224.91654   -4339.6208   -3954.1216   -4339.6208            0    1389.0169     18.02315    23.570288     21.96287    9330.0651    913.36227    237.95314    3015.7353    119.21756   -450.13915   -531.58768   -3765.1188 
 7238000     214.7355   -4310.5121   -3942.4628   -4310.5121            0      375.604    17.811954    23.774817    22.097971    9357.9591    1858.3373   -1227.7059     496.1806    799.51343   -48.038029    623.30292   -3891.2018 
 7239000    216.89642   -4324.0521   -3952.2991   -4324.0521            0    503.90764    18.248526    23.341136    21.908721      9331.83   -1205.3451    607.45539    2109.6126    1471.0754   -433.74043    74.458204   -3883.7197 
 7240000    221.76423   -4330.2319   -3950.1356   -4330.2319            0    725.39104    18.089842    23.480309     22.00483     9346.663    253.77494   -1474.0353    3396.4335   -1125.4743   -429.29556   -144.60129   -3851.2565 
 7241000    216.53621   -4347.0081   -3975.8724   -4347.0081            0    2333.7624    17.960444    23.327243    22.054464    9240.1067    2721.4651    2627.3958    1652.4264    543.67806   -1161.6181   -502.27439   -3661.3805 
 7242000    219.89826   -4330.0427   -3953.1446   -4330.0427            0    1628.0805    17.935533    23.555369    22.037523    9310.3708     2236.724    1102.3288    1545.1886   -78.931035    157.22179   -676.96045   -3732.0802 
 7243000    219.89604   -4314.2589   -3937.3647   -4314.2589            0    605.73517    18.032931    23.588532    22.045376    9377.4496    781.74156   -102.99524    1138.4592   -837.14181    27.875122   -369.94354    -3854.524 
 7244000    218.61751   -4315.9701   -3941.2671   -4315.9701            0     1600.906    18.331981    23.011118    22.101048    9323.0926    17.716432    3113.4509    1671.5506   -401.33621   -526.69919   -646.47758   -3723.5956 
 7245000    220.85173   -4312.2441   -3933.7118   -4312.2441            0    1678.4517    18.060283    23.563022    21.971995     9350.289    1220.8409    2903.6438    910.87052    -326.4204    376.75616    1110.2122   -3704.8308 
 7246000    219.15914   -4335.2253   -3959.5941   -4335.2253            0    1596.2258    17.848662    23.610499    22.129985    9325.9255    1384.6982    1521.6185    1882.3608   -306.94256   -595.33506   -766.14277   -3742.4929 
 7247000    207.09592   -4315.0814   -3960.1261   -4315.0814            0    726.95775    18.221761    23.299642      21.9613    9323.9009    586.09011     248.6553    1346.1278    -112.9221   -711.67127     239.8977   -3861.2747 
 7248000    217.93612   -4307.8397   -3934.3047   -4307.8397            0    1791.5547    18.093075    23.327829    22.097041    9326.5454    1865.5182    1441.2103    2067.9357    491.57805    330.75719    472.55124   -3690.6208 
 7249000    221.28771    -4354.307   -3975.0274    -4354.307            0    1709.7885    17.860866    23.635628    22.037247    9303.0852    1319.4935     1946.684    1863.1881   -1568.6352    410.24549    487.51882   -3743.0502 
 7250000    233.26149   -4328.6336   -3928.8314   -4328.6336            0    25.676803    18.152658    23.376208    22.201744    9421.0947    274.99724   -824.69019    626.72336    573.89593   -479.70868    478.72898   -3925.3035 
Loop time of 374.751 on 64 procs for 250000 steps with 864 atoms

Performance: 115.276 ns/day, 0.208 hours/ns, 667.109 timesteps/s
194.7% CPU use with 32 MPI tasks x 2 OpenMP threads

MPI task timing breakdown:
Section |  min time  |  avg time  |  max time  |%varavg| %total
---------------------------------------------------------------
Pair    | 17.598     | 25.295     | 36.337     | 109.8 |  6.75
Bond    | 1.0147     | 1.2521     | 1.9307     |  15.6 |  0.33
Kspace  | 187.09     | 200.08     | 209.66     |  45.4 | 53.39
Neigh   | 1.2        | 1.3459     | 1.4647     |   6.3 |  0.36
Comm    | 55.707     | 60.004     | 64.423     |  27.0 | 16.01
Output  | 0.5119     | 0.51218    | 0.51386    |   0.0 |  0.14
Modify  | 67.359     | 69.287     | 73.197     |  15.4 | 18.49
Other   |            | 16.97      |            |       |  4.53

Nlocal:        27.0000 ave          39 max          19 min
Histogram: 5 7 4 1 4 0 3 0 5 3
Nghost:        2097.94 ave        2197 max        2004 min
Histogram: 8 7 1 0 0 0 0 3 7 6
Neighs:        6450.16 ave        9418 max        4466 min
Histogram: 5 7 3 2 4 3 0 3 3 2

Total # of neighbors = 206405
Ave neighs/atom = 238.89468
Ave special neighs/atom = 2.0000000
Neighbor list builds = 4716
Dangerous builds = 0

unfix		3
unfix		2
unfix		1

write_data	data.final.${pid} nocoeff
write_data	data.final.0 nocoeff
System init for write_data ...
PPPM initialization ...
  extracting TIP4P info from pair style
  using 12-bit tables for long-range coulomb (../kspace.cpp:340)
  G vector (1/distance) = 0.37126925
  grid = 24 27 25
  stencil order = 5
  estimated absolute RMS force accuracy = 0.0032080541
  estimated relative force accuracy = 9.6609598e-06
  using double precision FFTW3
  3d grid and FFT values/proc = 4410 672
Last active /omp style is kspace_style pppm/tip4p/omp

write_restart   restart.lmp.${pid}
write_restart   restart.lmp.0
System init for write_restart ...
PPPM initialization ...
  extracting TIP4P info from pair style
  using 12-bit tables for long-range coulomb (../kspace.cpp:340)
  G vector (1/distance) = 0.37126925
  grid = 24 27 25
  stencil order = 5
  estimated absolute RMS force accuracy = 0.0032080541
  estimated relative force accuracy = 9.6609598e-06
  using double precision FFTW3
  3d grid and FFT values/proc = 4410 672
Last active /omp style is kspace_style pppm/tip4p/omp
Total wall time: 0:06:14
