LAMMPS (30 Jul 2021)
  using 1 OpenMP thread(s) per MPI task
package omp 0
using multi-threaded neighbor list subroutines
echo both

include		in.partitions
variable        pid world 0
include		in.temp
variable        temperature equal 252.31
variable	tempDamp equal 100.0
include		in.pressure
variable        pressure equal 1375.0
variable        pressureDamp equal 1000.0 # This is 1 ps
include		in.seed
variable        seed world 745823

units		real
atom_style	full

read_restart	restart.lmp.${pid}
read_restart	restart.lmp.0
Reading restart file ...
  restart file = 30 Jul 2021, LAMMPS = 30 Jul 2021
  restoring atom style full from restart
  orthogonal box = (-0.20393462 -0.088228491 -0.15129482) to (20.203936 20.088229 20.851293)
  4 by 4 by 4 MPI processor grid
  restoring pair style lj/cut/tip4p/long/omp from restart
  restoring bond style harmonic/omp from restart
  restoring angle style harmonic/omp from restart
  972 atoms
  648 bonds
  324 angles
Finding 1-2 1-3 1-4 neighbors ...
  special bond factors lj:    0        0        0       
  special bond factors coul:  0        0        0       
     2 = max # of 1-2 neighbors
     1 = max # of 1-3 neighbors
     1 = max # of 1-4 neighbors
     2 = max # of special neighbors
  special bonds CPU = 1.563 seconds
  read_restart CPU = 1.906 seconds
include 	in.setup
variable	out_freq equal 1000
variable	out_freq2 equal 10000
variable	out_freq3 equal 1000

timestep	2.0

neigh_modify    delay 7 every 1

include		in.tip4p
# This is TIP4P/Ice

# create groups ###
group ox type 2
324 atoms in group ox
group hy type 1
648 atoms in group hy

# set charges - beside manually ###
set group ox charge -1.1794
Setting atom values ...
  324 settings made for charge
set group hy charge 0.5897
Setting atom values ...
  648 settings made for charge

# ### TIP3P Potential Parameters ###
pair_style lj/cut/tip4p/long/omp 2 1 1 1 0.1577 8.5
pair_coeff 1 1*2 0.000 0.000
pair_coeff 2 2 0.21084 3.1668
bond_style  harmonic
bond_coeff  1 450 0.9572
angle_style harmonic
angle_coeff 1 55 104.52
kspace_style pppm/tip4p/omp 1.0e-5
pair_modify tail yes

thermo          ${out_freq}
thermo          1000
thermo_style    custom step temp pe etotal epair emol press lx ly lz vol pxx pyy pzz pxy pxz pyz enthalpy

restart 	${out_freq3} restart.lmp.${pid} restart2.lmp.${pid}
restart 	1000 restart.lmp.${pid} restart2.lmp.${pid}
restart 	1000 restart.lmp.0 restart2.lmp.${pid}
restart 	1000 restart.lmp.0 restart2.lmp.0


include         in.dump
dump            myDump all atom ${out_freq2} dump.water.${pid}
dump            myDump all atom 10000 dump.water.${pid}
dump            myDump all atom 10000 dump.water.0
dump            myDump2 all dcd ${out_freq2} dump.dcd
dump            myDump2 all dcd 10000 dump.dcd
dump_modify     myDump append yes
dump_modify     myDump2 append yes


variable natoms 	equal  "count(all)"                        # NUMBER ATOMS
variable H      	equal  "enthalpy/v_natoms"                 # ENTHALPY-per-atom
variable Vol      	equal  "vol/v_natoms"                 # volume-per-atom
fix AVG all 		ave/time ${out_freq} 1 ${out_freq} v_Vol v_H file vol_enthalpy.dat
fix AVG all 		ave/time 1000 1 ${out_freq} v_Vol v_H file vol_enthalpy.dat
fix AVG all 		ave/time 1000 1 1000 v_Vol v_H file vol_enthalpy.dat


timer           timeout 02:55:00 every 1000
New timer settings: style=normal  mode=nosync  timeout=02:55:00

fix 		1 all shake 1e-6 200 0 b 1 a 1
       0 = # of size 2 clusters
       0 = # of size 3 clusters
       0 = # of size 4 clusters
     324 = # of frozen angles
  find clusters CPU = 0.076 seconds
fix             2 all nph aniso ${pressure} ${pressure} ${pressureDamp}
fix             2 all nph aniso 1375 ${pressure} ${pressureDamp}
fix             2 all nph aniso 1375 1375 ${pressureDamp}
fix             2 all nph aniso 1375 1375 1000
fix             3 all temp/csvr ${temperature} ${temperature} ${tempDamp} ${seed}
fix             3 all temp/csvr 252.31 ${temperature} ${tempDamp} ${seed}
fix             3 all temp/csvr 252.31 252.31 ${tempDamp} ${seed}
fix             3 all temp/csvr 252.31 252.31 100 ${seed}
fix             3 all temp/csvr 252.31 252.31 100 745823


run             250000
PPPM initialization ...
  extracting TIP4P info from pair style
  using 12-bit tables for long-range coulomb (../kspace.cpp:340)
  G vector (1/distance) = 0.37130782
  grid = 24 24 25
  stencil order = 5
  estimated absolute RMS force accuracy = 0.0035453682
  estimated relative force accuracy = 1.0676771e-05
  using double precision FFTW3
  3d grid and FFT values/proc = 2366 288
Last active /omp style is kspace_style pppm/tip4p/omp
Neighbor list info ...
  update every 1 steps, delay 7 steps, check yes
  max neighbors/atom: 2000, page size: 100000
  master list distance cutoff = 10.8154
  ghost atom cutoff = 10.8154
  binsize = 5.4077, bins = 4 4 4
  1 neighbor lists, perpetual/occasional/extra = 1 0 0
  (1) pair lj/cut/tip4p/long/omp, perpetual
      attributes: half, newton on, omp
      pair build: half/bin/newton/omp
      stencil: half/bin/3d
      bin: standard
Per MPI rank memory allocation (min/avg/max) = 9.223 | 9.227 | 9.234 Mbytes
Step Temp PotEng TotEng E_pair E_mol Press Lx Ly Lz Volume Pxx Pyy Pzz Pxy Pxz Pyz Enthalpy 
10750000    253.96295   -4666.5819    -4176.793   -4666.5819            0   -643.57481     20.40787    20.176458    21.002588    8647.9947   -1096.8522    -626.1071   -207.76511    286.30548    278.55159    658.54202    -4257.962 
10751000    255.02945   -4722.6106   -4230.7649   -4722.6106            0    1435.2728    19.934915    20.222332    21.103417    8507.4305    1755.6467    3133.1989   -583.02709   -62.229592   -793.60184    352.05484   -4052.6875 
10752000    252.17841   -4704.9216   -4218.5743   -4704.9216            0    833.44524    20.275142    20.327936    21.002535    8656.2323    136.44386    1080.3522    1283.5397   -37.397572   -1319.2981    327.30059   -4113.3583 
10753000    251.20456   -4715.7751    -4231.306   -4715.7751            0    839.88178     20.17261     20.09393    21.029565    8524.2715    2224.1964   -259.29964    554.74859    104.06362     95.82039    184.55112   -4126.8938 
10754000    236.19815   -4718.7159   -4263.1879   -4718.7159            0    1698.8782    20.178996    19.968901    21.138215    8517.6943    1859.2057    1378.5336    1858.8954   -45.640107    207.62503   -642.32411   -4052.1501 
10755000    250.68811   -4709.5462   -4226.0731   -4709.5462            0    559.10078    19.976194    20.304771    21.290302     8635.603    1537.9531   -3.3932091    142.74247    524.08339    803.85339   -1446.7237   -4155.6592 
10756000    258.82708   -4701.3324   -4202.1626   -4701.3324            0    1530.9004    20.287655    20.123173    20.828556    8503.2998    34.531831    2285.4561    2272.7133   -94.225449    248.45791   -704.51633   -4012.3128 
10757000     256.0515   -4715.8689    -4222.052   -4715.8689            0    925.91585    20.371998    20.269931    20.795011    8587.0711    1679.9689   -667.95581    1765.7344    150.20527    760.69216    221.67869   -4106.0962 
10758000    251.37379   -4704.5173   -4219.7218   -4704.5173            0    1430.5613    20.180655    20.119834    21.111089    8571.7658    856.43515    2076.1721    1359.0767   -636.78142   -357.18938   -952.24494   -4040.8867 
10759000    266.47039   -4710.4462   -4196.5357   -4710.4462            0    3016.4696    20.189175    20.065589    21.173601    8577.5886     1504.671    4103.8378    3440.8999    136.04757    998.90315     838.1937   -3819.1894 
10760000    251.34928   -4693.7755   -4209.0273   -4693.7755            0     1939.401    20.232231    20.289068    20.879097    8570.7252    2582.1946    1080.7733     2155.235   -244.97838    241.51845    663.91144   -3966.6114 
10761000    252.73997   -4713.7917   -4226.3615   -4713.7917            0    1206.3119    20.240521    20.079529    21.194386    8613.8247    1002.1631     1692.676    924.09654    324.80494   -930.24086    478.69619     -4074.82 
10762000    265.37619   -4691.8542   -4180.0539   -4691.8542            0   -569.77014    20.074042    20.347576    21.170328    8647.1917    1810.6941   -2841.0309   -678.97362    854.66741   -571.82698   -1203.8436   -4251.9079 
10763000    261.72545   -4692.4623   -4187.7028   -4692.4623            0    1697.6752    20.082544    20.163732    21.036157    8518.3606    2427.8701    2196.4353    468.72023    134.19331    1692.7486   -1376.6593    -3976.798 
10764000    246.83665   -4711.8409   -4235.7956   -4711.8409            0    762.61387    20.485366    19.977278    21.063305    8619.9858   -950.50422    2298.3849    939.96098   -173.18889    -284.7112    -314.4312   -4139.9247 
10765000    253.23571   -4724.8334   -4236.4471   -4724.8334            0    1571.6885    20.247523    20.237925    20.604332     8442.993    2268.5716    172.56093     2273.933     -266.117    39.338187     560.6465   -4042.9213 
10766000    257.13388   -4721.0815   -4225.1772   -4721.0815            0    1234.3255    20.210061    20.214767    21.156926    8643.4861     3154.689   -951.45512    1499.7426    501.21479    -129.4105    16.449616   -4069.5826 
10767000    253.13793   -4710.7502   -4222.5524   -4710.7502            0    1286.4939    20.130735    20.019424    21.321044    8592.5028    573.39061    2127.1855    1158.9055   -246.86665    103.68409    990.41658   -4061.3382 
10768000    243.32284   -4721.4402   -4252.1716   -4721.4402            0    1846.8943    20.180746    20.260708    20.856867    8527.8769    2700.9383    1212.5951    1627.1495   -581.78019   -667.24738     309.3374   -4022.4727 
10769000    239.58146   -4693.9365   -4231.8835   -4693.9365            0    1637.3147    20.275174    20.194249    20.834842    8530.6577    899.60625    2242.0578    1770.2801   -599.40391   -225.19239   -350.91416   -4028.1837 
10770000    255.56744   -4727.5674   -4234.6841   -4727.5674            0    1832.9322    19.981604    20.184575    21.283304    8583.9862    2991.9669      1746.13    760.69966   -371.38014   -183.37355   -552.78039   -4005.2219 
10771000    246.11818   -4721.8306    -4247.171   -4721.8306            0   -300.91639    20.307378    20.121955     21.15366    8643.8966   -578.53315    1119.4974   -1443.7134   -133.07294    140.15342    634.22632   -4285.1052 
10772000    259.16842   -4726.5325   -4226.7044   -4726.5325            0    1658.2516    20.111865    20.202681    20.892781    8489.0208    1226.0099    1809.6199    1939.1249   -246.05464    -1360.233     754.2915   -4021.4068 
10773000    241.05537   -4713.7479   -4248.8523   -4713.7479            0    444.82593    20.385867    20.047922    20.961451     8566.825    -350.4751    1297.5924    387.36054   -590.55292   -184.39772   -869.70319   -4193.2765 
10774000    263.74144    -4680.075   -4171.4274    -4680.075            0    1382.0171    20.085917     20.39529    20.982045    8595.4651    2941.7277    218.76378    985.55972   -345.17534     250.9506   -309.64605   -3998.1832 
10775000    265.46875   -4698.7941   -4186.8153   -4698.7941            0    1981.4063    20.105878    20.238163    20.881126    8496.6564    3715.1837   -88.894683    2317.9299    235.83811   -269.88981    -375.6033   -3941.2893 
10776000      266.566   -4709.4055   -4195.3105   -4709.4055            0    1094.8281    20.234485     20.21259    21.043322    8606.5363    1537.8433    1111.6344    635.00649   -33.584278    378.07221    561.47616   -4057.8904 
10777000    269.33185   -4711.5289   -4192.0998   -4711.5289            0    3073.8498    20.064833    20.044941    21.120936    8494.8066    3015.1063    3546.1013    2660.3418    313.83788   -645.69396   -34.250057   -3811.2865 
10778000    245.80298   -4718.9678    -4244.916   -4718.9678            0    1832.4334    20.129903    20.170295    21.040096    8542.8278    1929.9135    2155.3873    1411.9994    29.925189   -422.98248    1486.7041   -4016.6161 
10779000    256.70051   -4718.5663   -4223.4977   -4718.5663            0    2984.2607    20.213276      20.2507    20.810376    8518.3738    3647.0928    2842.4784     2463.211    235.75719   -864.45485   -185.27884   -3852.7578 
10780000    248.45953   -4681.5018   -4202.3267   -4681.5018            0    116.26865     20.20313    20.113605     21.23583    8629.3447   -1697.0911    1036.3296    1009.5674     113.3771    583.82123   -589.38706   -4187.6942 
10781000    260.41163   -4700.1007    -4197.875   -4700.1007            0     1595.441    20.004258    20.188984    21.350679    8622.8056    2587.3544    2283.1153   -84.146647    471.47475     1230.841    550.36868   -3997.2407 
10782000    257.86899   -4704.8229   -4207.5008   -4704.8229            0    1275.0912     20.27702    20.258055    20.896994    8583.9208    606.13585    1223.2279    1995.9098    697.99876   -412.38526    640.89383   -4047.8751 
10783000    251.64421   -4703.0802   -4217.7632   -4703.0802            0    859.53984    20.442564    20.008791    20.915895    8555.2492    582.62306    1671.5272    324.46921    -133.9609   -435.15015   -413.70389   -4110.5188 
10784000    245.47951   -4717.9647   -4244.5369   -4717.9647            0    1416.1294    20.137737    20.136636    21.210526    8601.0013    1905.5591    1252.4892    1090.3398    590.45407    536.10746     -523.518   -4066.9021 
10785000    252.61141   -4756.7836   -4269.6013   -4756.7836            0    72.863289    20.136276    20.218252    21.066537    8576.6147   -323.87576    608.28637    -65.82074   -746.38102   -275.86362    1130.3288   -4260.4875 
10786000    241.43456   -4719.0133   -4253.3864   -4719.0133            0    1322.7624    20.255681    20.241636    20.959096    8593.3994    474.50729    1124.6693    2369.1108   -551.53268   -813.78827   -65.509078     -4087.61 
10787000    251.70513   -4711.3614   -4225.9269   -4711.3614            0    1630.2222     20.27367    20.137454    20.923619    8542.2786    332.44056    1731.1947    2827.0314   -1023.2651   -773.91617    1344.7268   -4022.8332 
10788000    256.16051    -4698.117   -4204.0899    -4698.117            0    1363.7244    19.999925    20.279876    21.166938    8585.2252    2736.4687    1260.5333    94.171287   -25.778456   -187.31314   -657.49763   -4033.3424 
10789000    240.37814   -4712.5303   -4248.9409   -4712.5303            0     849.1554    20.153213     20.22524    21.022884    8569.0028    2780.0112   -68.566889    -163.9781   -632.78618    1175.3583    -749.0259   -4142.8218 
10790000     244.1191   -4700.5167   -4229.7125   -4700.5167            0    619.93899    20.368956    20.224645    20.731138    8540.2939   -820.68749    1295.9011    1384.6033    122.25297    314.58534    44.983918   -4152.4982 
10791000    259.06342   -4716.6287   -4217.0031   -4716.6287            0    2631.8226    20.218654    20.102827    20.921789    8503.7055    3816.0049    1110.8213    2968.6417   -740.39666    1198.0222    2266.0424   -3890.6102 
10792000    252.09666   -4718.8117   -4232.6221   -4718.8117            0    1309.2772    20.167958    20.000444    21.167951    8538.4765    128.56828    3523.1017    276.16156    -56.41667    283.58951   -469.81991   -4069.5845 
10793000    252.29384    -4692.257   -4205.6871    -4692.257            0    1512.2899    19.753369    20.291299    21.328726    8549.0123    3538.7642    988.84327    9.2623548   -368.70655   -434.20698    171.79066   -4017.1369 
10794000    249.65908   -4724.0679   -4242.5794   -4724.0679            0      2456.99    20.238363     20.17656    20.875401    8524.2723    715.82374    3945.1803    2709.9658    55.135137   -173.28883   -1454.1191   -3937.1319 
10795000    252.55295   -4754.0701   -4267.0005   -4754.0701            0     994.6607    20.262181     20.23011    20.865865    8553.0468    821.20477   -102.36356    2265.1409   -933.97358   -91.583251    689.47323   -4142.9291 
10796000    242.40618   -4705.3673   -4237.8666   -4705.3673            0    2875.6213    20.237994    19.987433    21.047871    8513.9806    2675.0565    3104.8886    2846.9187   -216.58626    991.61342    1057.3966   -3880.8074 
10797000    264.98858    -4743.014   -4231.9613    -4743.014            0    1759.7782    20.013669    20.190809    21.112064    8531.2195    293.44913    3432.4498    1553.4357    133.75746   -1078.1515    563.77189   -4013.0113 
10798000    244.38083   -4724.8888   -4253.5798   -4724.8888            0    1374.8214     20.34086    20.176589    20.743061    8513.1428    3131.7284   -710.84992    1703.5858   -466.52251    870.23683   -444.71274   -4082.8882 
10799000    273.07747   -4742.6912   -4216.0383   -4742.6912            0    2574.9232    20.262877    20.009355    21.097039     8553.733    3059.7331    2409.2503    2255.7862   -213.96748    565.72175   -177.06056   -3894.8233 
10800000    246.72829   -4726.9266   -4251.0904   -4726.9266            0    2941.8748    19.852895     20.18933     21.14942    8477.0394    3949.5264    1820.5315    3055.5666    118.38808    1241.2663    1063.9042   -3887.3896 
10801000    263.80084   -4667.9531    -4159.191   -4667.9531            0    314.05585    20.216593    20.436431    20.883942    8628.3054    1045.6098   -218.35555    114.91328    492.42958     108.5554     1318.082   -4119.6718 
10802000    254.74026   -4734.9762   -4243.6882   -4734.9762            0    1781.0911    20.284033     20.09335    20.857507    8500.9808    2876.3811    1261.6787    1205.2137   -206.55845   -311.03278   -309.66554   -4022.8719 
10803000    246.51905   -4732.4921   -4257.0594   -4732.4921            0   -38.381614     20.39604    20.133586    20.871247    8570.6821   -1468.1956    1355.2379    -2.187134   -24.606481   -976.72637    34.518494   -4261.8569 
10804000    242.00818   -4664.9971    -4198.264   -4664.9971            0    945.11452    20.152343    20.193457     21.17788    8618.2425   -243.01613    2158.2799    920.07976   -440.44437   -1395.1864   -713.94165   -4079.4742 
10805000    261.37405   -4713.0367   -4208.9548   -4713.0367            0    2564.1224    20.152745    20.129129    21.061755    8543.8527    3036.1032    2579.6302    2076.6339    395.43202   -329.77886   -242.87715   -3889.4567 
10806000    255.55336    -4668.779   -4175.9229    -4668.779            0   -566.90021    20.372082    20.292222    21.014795    8687.4073   -423.15524   -1237.6524   -39.892951    5.2967653    464.48943    542.76487   -4247.7474 
10807000    254.40372   -4746.2482   -4255.6092   -4746.2482            0    2705.8095    20.180281    20.127208     20.86731    8475.7315    3629.2127    3058.6595    1429.5564    -598.4061   -331.50423    158.23943   -3921.1445 
10808000    250.24325   -4707.2085   -4224.5934   -4707.2085            0    1603.5831     20.00339    20.279008    21.219158    8607.5282    1474.1769    2163.0864    1173.4859    -530.9291    1811.3838   -30.311475   -4023.2924 
10809000    257.29742    -4724.007   -4227.7873    -4724.007            0    3502.4552    20.149806    19.927623     20.98269     8425.342    2830.5333    4299.6372     3377.195    272.07167    110.67594   -1120.6096   -3797.4232 
10810000    244.88073   -4701.6487   -4229.3757   -4701.6487            0    755.56517    20.294538    20.332447    20.836819     8598.055   -1668.5164    1803.2552    2131.9567    35.356719   -96.235452   -1211.7934   -4134.6325 
10811000    255.15582   -4705.6679   -4213.5785   -4705.6679            0    2465.0916    20.064499     20.18041    20.883283    8455.8463     3200.545    1738.9406    2455.7891    676.39517   -742.89842   -795.10228   -3909.5837 
10812000    264.39017    -4689.653   -4179.7543    -4689.653            0   -523.34866    20.243434    20.280789    21.166805    8690.0909   -1093.7805    854.54087   -1330.8064   -14.218298   -3.4270501   -689.88523   -4246.0814 
10813000    258.64574   -4693.4695   -4194.6495   -4693.4695            0    2751.3387    19.948979    20.200204    21.164668    8528.7992    4095.6921    2164.1183    1994.2057    546.41323   -542.15454   -1465.0742   -3852.4275 
10814000    254.08747   -4711.2792   -4221.2502   -4711.2792            0    1255.8506    20.327838    20.125702    20.862144    8534.9536   -570.53728    2252.6303    2085.4589    14.575347   -236.05764   -775.79009     -4064.93 
10815000    255.72515   -4729.3859   -4236.1984   -4729.3859            0    1641.1557    20.302747    20.198156    20.778248    8520.7033    726.08122    1440.1307    2757.2553    292.33681   -401.96201   -148.89311    -4032.259 
10816000    258.19484   -4675.7965   -4177.8461   -4675.7965            0    666.35707     20.17811    20.030118     21.48141      8682.14    1477.5534    848.64039   -327.12259   -687.24697    401.57807    289.27639   -4093.4719 
10817000    244.43396   -4709.8143   -4238.4029   -4709.8143            0    2244.4697    20.198778    20.041781     21.08505    8535.6394    2881.9141    1618.6973    2232.7976   -485.97399   -285.65091   -146.48344   -3959.0033 
10818000    252.43566   -4721.3889   -4234.5455   -4721.3889            0    681.56414    20.184049    20.287148    21.069029    8627.2784    1369.7968   -497.97653    1172.8721   -247.55954   -1500.2503    1223.8472   -4148.7911 
10819000    244.49409   -4726.3527   -4254.8253   -4726.3527            0    1587.0461    20.075257     20.22365    20.877428    8476.1308    2332.2719    753.79663    1675.0697   -717.62457    59.888153    177.19348   -4058.6416 
10820000    253.69974   -4704.9839   -4215.7026   -4704.9839            0    1910.2601    20.194352    20.182722    20.976978    8549.7336    2322.9101    1307.1275    2100.7427   -393.26149    1001.2899   -1157.2459    -3977.514 
10821000    257.32315   -4715.0012   -4218.7318   -4715.0012            0    1301.8958    20.122338    20.158165    21.033098    8531.6431    1793.1073    1280.0861    832.49395   -304.70014    725.71125    70.153194   -4056.7431 
10822000    272.32089   -4695.3895   -4170.1957   -4695.3895            0    438.96339    20.287404     20.07269    21.157029    8615.6238    1316.5018    369.96303   -369.57461    685.99346    1007.9483   -784.58999     -4115.04 
10823000      232.337   -4705.2671   -4257.1856   -4705.2671            0    2815.3734    20.151683    19.995943    21.267955    8569.9629    3792.8874    2970.6202    1682.6127   -184.42839    1185.3725    719.14623   -3905.3086 
10824000    248.52076    -4733.459   -4254.1659    -4733.459            0    2392.3456     20.11169    20.149511    20.907559    8472.5943    2048.4137    2486.3999    2642.2231      58.8786   -90.486675   -129.33854   -3958.5578 
10825000    259.25286   -4734.8785   -4234.8876   -4734.8785            0    667.14051    20.226719    20.244128    20.964534    8584.3961   -740.05151    1155.0833    1586.3897    799.32682    449.19312   -685.92542   -4151.3652 
10826000    244.40676   -4700.4751   -4229.1161   -4700.4751            0    785.46987    20.188278    20.422729    21.102117    8700.3975    434.91763    476.59597     1444.896     52.15158   -195.98129    1667.3373   -4129.4506 
10827000    241.77681   -4735.3676   -4269.0807   -4735.3676            0    363.90637    20.103527    20.088378    21.312195     8606.871    1386.5676   -799.50023    504.65173   -370.37582     846.0238    -1435.367   -4223.4023 
10828000    252.33296   -4670.8248   -4184.1794   -4670.8248            0    2662.5296    20.315336    20.078772    20.793403    8481.7744    673.80996    4066.8186    3246.9603    130.26723    235.00333   -773.81266   -3854.8299 
10829000    247.10367   -4719.5972    -4243.037   -4719.5972            0    990.60333    20.273868    20.171479    20.970887    8576.1259   -49.867308    1539.3376    1482.3397   -213.15801    357.12446   -291.96952   -4119.1382 
10830000    241.55976   -4664.3925   -4198.5242   -4664.3925            0    896.16052    20.075162    20.420729    20.999201    8608.6109    701.92729    1907.0658    79.488462   -422.39315   -535.63154    1155.5572   -4086.0133 
10831000     252.5848     -4703.27   -4216.1389     -4703.27            0    405.78682    20.160136    20.323416     21.00124    8604.6872   -366.81825    282.19186    1301.9869   -156.28478    -906.2557    5.5068525   -4165.2165 
10832000    256.93816   -4748.0389    -4252.512   -4748.0389            0    713.20107    20.410108    20.144074    20.783389    8544.9393   -341.89261    1114.7634    1366.7324   -108.48665    -19.54833    609.60184   -4163.6335 
10833000    268.22951   -4729.6533   -4212.3501   -4729.6533            0    1982.9534    20.227738    20.045437    21.061234    8539.7798    3295.8669    1062.2439    1590.7494    435.84672    1313.8686   -624.78853   -3965.3853 
10834000    257.79927   -4680.1162   -4182.9286   -4680.1162            0    760.74562    20.079123    20.091139    21.178427    8543.6413    2332.6027    294.94979   -345.31565   -714.15029   -1374.4044   -406.02599   -4088.1395 
10835000    252.56697   -4730.5502   -4243.4535   -4730.5502            0    1918.5311    20.059565    20.279837    20.880131    8494.1357    1543.5583    1520.8578    2691.1771   -221.61998    842.00227   -4.0086197   -4005.7892 
10836000    245.85807   -4712.7987   -4238.6408   -4712.7987            0   -831.52626      20.3058    20.268826    21.003045    8644.3229   -745.34291   -837.14704   -912.08883   -803.74509     470.8381    71.206978   -4343.4701 
10837000    248.07065   -4715.4983   -4237.0732   -4715.4983            0   -326.68108    20.223949    20.348739    20.982849     8635.111    -460.4604   -792.42872    272.84588    79.589219   -182.47691   -55.162624   -4278.2135 
10838000    256.05527   -4709.3837   -4215.5596   -4709.3837            0    331.54444    20.081266    20.152065    21.183428    8572.4874    911.78631    424.10996   -341.26294   -479.96742    592.59068    -1406.638   -4174.1096 
10839000    241.39346   -4737.7432   -4272.1956   -4737.7432            0    578.96223    20.316323    20.158394     20.91371    8565.0939   -722.89027    781.20797     1678.569   -362.35663    643.26643   -91.910041   -4199.8756 
10840000    248.74293   -4713.1944   -4233.4727   -4713.1944            0    2225.7171    20.095845    20.363972    21.027003     8604.906    3574.0279    1089.4479    2013.6753   -215.87693   -207.15004    15.329934   -3954.1592 
10841000    248.63009   -4718.5361    -4239.032   -4718.5361            0    1763.8749     20.03294       20.342    20.969228    8545.1715    4299.1272    81.853008    910.64458    -300.5514   -422.02735    869.91231   -4019.2134 
10842000    253.93552   -4718.8245   -4229.0885   -4718.8245            0    1177.0869    20.335419    20.126826    20.872147    8542.7072    -134.9737    1034.7827    2631.4518     288.7015    1420.4546   -324.16319   -4082.4392 
10843000     261.5427   -4707.0501    -4202.643   -4707.0501            0    875.24067    20.211932    20.178235    21.079492    8597.0835    575.83236    1375.2971    674.59252   -347.29211    1153.9126    190.16084   -4092.9057 
10844000    253.72591    -4718.305   -4228.9733    -4718.305            0    394.82043    20.283745    20.058306    21.216361    8632.0368   -597.65039    1220.5875    561.52414   -288.16315   -90.833474    13.415869   -4179.2696 
10845000    241.76859   -4739.5725   -4273.3014   -4739.5725            0    1794.2127       20.275    19.905627    21.166324    8542.4448    1256.1126     2261.268    1865.2575    68.753728    591.52182      100.489   -4049.7734 
10846000    257.04213   -4705.0781   -4209.3507   -4705.0781            0    1883.1719    20.167416    20.213832     21.02139    8569.5957    3574.9423    475.60871    1598.9647    124.64578     685.1751   -208.42711   -3973.9942 
10847000    247.70906   -4701.2874   -4223.5596   -4701.2874            0    1288.0511    20.481942    20.057434    20.810353    8549.2092    1290.5332    1051.8389    1521.7813    65.190205   -880.69622   -299.93199   -4062.9636 
10848000    240.29085   -4694.3676   -4230.9465   -4694.3676            0    1785.0993    20.216082    20.134375    20.970999    8535.9971    1521.1036    2222.4529    1611.7412    260.39105    -9.940324   -1390.4569   -4008.7217 
10849000    246.20865   -4704.9984   -4230.1643   -4704.9984            0    914.24886    20.110315    20.306656    21.185256    8651.4919    726.41146    1447.3382    568.99693     485.3425   -642.64412    401.94588   -4114.8107 
10850000    245.45394   -4699.5411   -4226.1625   -4699.5411            0    1733.2051    20.182535    20.112564    21.071107    8553.2374    3620.6072    594.76263    984.24558    271.73338    383.53001   -66.406595   -4009.9622 
10851000    246.70224   -4740.0333   -4264.2473   -4740.0333            0    1170.0369      20.4351    19.921909    20.928039    8519.9345     1266.175    1797.3786    446.55706   -357.44248   -85.637905     49.07828    -4118.865 
10852000    247.17238   -4697.2349   -4220.5421   -4697.2349            0    946.82678    20.193584    20.254198    21.101749    8630.7175    1850.6038   -449.01672    1438.8933    313.87145     189.5649   -967.44615   -4101.3649 
10853000    262.40292    -4713.252   -4207.1859    -4713.252            0    1633.9486    20.239778    20.006861    21.083321    8537.3626    1440.4167    1488.2753    1973.1539   -171.26732    1449.2617   -887.20469   -4003.7451 
10854000     261.1331   -4712.1807   -4208.5636   -4712.1807            0    2549.8023    20.068578    20.202962    21.050417    8534.7804    2807.2982    1791.3074    3050.8013   -301.60452    989.78288    264.97513   -3891.1871 
10855000    254.07451   -4663.8541     -4173.85   -4663.8541            0    529.86773    20.142376    20.157764      20.9897    8522.3488    2010.1158   -935.21942    514.70684   -881.45623    245.75819    682.27981   -4107.9929 
10856000    248.76402   -4732.3361   -4252.5738   -4732.3361            0   -130.04461     20.50533    19.806271    21.319278    8658.4866    -1127.719    1687.1653   -949.58008    109.66636   -851.84635    640.36876   -4268.9952 
10857000    258.94434   -4721.1918   -4221.7959   -4721.1918            0    2141.7078    20.052177    20.240097      21.0322     8536.087    3300.6585    1383.2553    1741.2096    291.36003   -792.36646   -762.99324   -3955.1745 
10858000    254.32072   -4693.0301   -4202.5512   -4693.0301            0    -454.8181    20.428926      20.0409    21.127273    8649.8027     -1138.75     646.8702   -872.57445   -96.981686    986.79307    290.41992   -4259.9258 
10859000    249.33454    -4704.495   -4223.6324    -4704.495            0    1028.7515    20.396638    20.044717     20.85942    8528.2661   -738.87255    2600.1423    1224.9849   -390.16837     1506.877   -973.23653   -4095.6804 
10860000    250.41055   -4678.9969   -4196.0591   -4678.9969            0    1381.8817    20.334728    20.285134    20.831052    8592.6567   -290.81189    1800.4283    2636.0287   -310.27388   -841.63515    63.824252   -4022.8885 
10861000    266.29199   -4714.0164   -4200.4499   -4714.0164            0    2210.6343    20.167488    20.151463    21.170942    8603.9637    2654.7186    3368.0721    609.11206   -229.37606    753.78776    593.19564   -3923.0595 
10862000    253.76965   -4702.3664   -4212.9503   -4702.3664            0    1545.2404    20.025431    20.317076    21.140358    8601.1278    2778.2472    933.65049    923.82362    421.79686     271.5701   -489.32948   -4019.1174 
10863000    250.51485   -4741.7017   -4258.5627   -4741.7017            0    2255.5933    20.249771    20.175236    20.815327    8503.9749    3060.9806    1260.9419    2444.8575    306.15597    51.537118    762.21813   -3978.8201 
10864000    251.91979   -4705.6695    -4219.821   -4705.6695            0     1838.088    20.300423    20.117398    20.972172    8564.8609    556.40196    1687.9051    3269.9568    66.673683    1324.5229    582.15238    -3990.226 
10865000    254.46003   -4713.7412   -4222.9936   -4713.7412            0    1200.2592    19.974751    20.086248     21.29664     8544.591    2932.8123     829.8877   -161.92233   -241.87315   -85.883203   -197.70506   -4073.4244 
10866000     247.7189   -4733.0291   -4255.2823   -4733.0291            0    749.94603    20.361736    20.080139    21.030464    8598.6519     737.2407    592.57233    920.02504    489.26008   -1483.9663    389.05531   -4161.2372 
10867000    241.71576    -4730.072   -4263.9028    -4730.072            0    1101.6049    20.021654    20.323719    21.026753      8556.09    1682.2107    750.50041    872.10362    54.505051   -954.41883    566.96772   -4126.4425 
10868000    252.71642   -4729.8501   -4242.4653   -4729.8501            0    2730.2239    19.868449    20.465087     20.89056     8494.301    4910.3658    258.02158    3022.2843    758.40378    515.59376    1219.9425   -3904.2433 
10869000    256.85515   -4746.5145   -4251.1477   -4746.5145            0    1692.4637    20.248029    20.063304    21.004675    8532.9889    2939.6509    1553.4893    584.25084   -244.41336   -1635.6057    189.01762   -4040.5293 
10870000    255.23631   -4715.1503   -4222.9056   -4715.1503            0    4012.0554    20.231029    20.026673    21.088798    8544.3418    4772.4837    4278.3472    2985.3353    299.52916    399.64347    1237.3347   -3722.9615 
10871000    245.01713   -4735.8635   -4263.3273   -4735.8635            0    3213.1541    20.215324    20.183822    20.872566    8516.4764    3298.5982    2967.0377    3373.8263    391.29947    1252.4036   -172.74563   -3864.2405 
10872000    268.62133   -4710.8101   -4192.7513   -4710.8101            0    1856.4372    20.281065    20.213713     20.71148    8490.7881    692.72411     2462.197    2414.3906    130.00393    894.58867     228.0163   -3962.8697 
10873000    256.38585   -4720.1074   -4225.6457   -4720.1074            0    69.359423    20.144583    20.276939    21.152901    8640.3357    2523.8668    -2556.228    240.43947   -199.47377    541.10855    810.12276   -4216.9057 
10874000     244.6987   -4686.6652   -4214.7431   -4686.6652            0    1403.8376    20.170948    20.023935    21.271285    8591.5095    2578.2769    1154.3298    478.90593   -425.00978   -816.91899    377.80957   -4038.8446 
10875000    258.37765    -4694.268    -4195.965    -4694.268            0     1822.515    20.398012    20.073318     20.87309    8546.6074    626.50974    2240.1885    2600.8468    280.24757     544.1009   -203.11751   -3968.8003 
10876000    240.67276   -4725.0071   -4260.8495   -4725.0071            0    975.98638    20.098768    20.286084    20.968377    8549.3377     630.7893    1087.9921    1209.1777   -158.27839   -312.80055   -100.35755   -4139.1602 
10877000    250.18976   -4721.6926   -4239.1806   -4721.6926            0    2577.3309    20.211673    20.081098    20.905037    8484.7817    2911.0492     1907.584    2913.3594   -47.049306    361.49838    178.13114   -3920.2569 
10878000    245.52666   -4713.4664   -4239.9476   -4713.4664            0    2164.3221    20.330311    20.087549    20.922206    8544.3387    2333.7894     2510.104    1649.0728   -515.44965   -1948.3554    632.44348   -3970.2505 
10879000    264.49353    -4691.934    -4181.836    -4691.934            0    1965.4709    20.077577    20.337658    20.873726    8523.3869     1850.395    1506.9674    2539.0504   -66.491939   -342.67602   -198.87341   -3937.5184 
10880000    236.97058   -4735.6187    -4278.601   -4735.6187            0    934.59783    20.109061    20.212077    21.071037    8564.2365    1102.4556    1292.4547    408.88313    359.09231    384.28028   -1685.8963   -4161.8692 
10881000    241.56391   -4731.9253    -4266.049   -4731.9253            0   -111.13839    20.220076    20.251071    21.085179    8633.9209   -5.8606551   -294.38712    -33.16739   -674.73659    -950.8689     871.5155   -4280.0432 
10882000    257.01805   -4689.8908   -4194.2099   -4689.8908            0    1919.0868    20.293034    20.035866    21.191105    8616.0594    625.20524    3976.6291     1155.426   -464.68467    338.19169   -941.79796   -3953.0644 
10883000    260.89867   -4693.3499   -4190.1849   -4693.3499            0    1122.7679    20.319733    20.067587    21.033001    8576.5849    1763.3165    974.56481    630.42237   -302.19109    -52.51518    650.61214   -4049.7483 
10884000    249.67661   -4730.1371   -4248.6148   -4730.1371            0    1250.6387    20.055778    20.305028    20.973891    8541.2635    3476.2343   -665.32625     941.0079   -553.76156   -396.47997   -1209.3434   -4092.8283 
10885000     256.2924   -4724.2661   -4229.9847   -4724.2661            0   -152.83672    20.211884     20.40653    20.796347    8577.5453   -451.31389   -488.56241    481.36614   -266.11672   -335.89115    656.76703   -4249.1037 
10886000    256.70037   -4718.1239   -4223.0557   -4718.1239            0    1132.6975    20.138813    20.293328    21.054908    8604.7945    2150.3283   -64.315684    1312.0797   -232.12603   -41.517712    440.81008   -4080.9111 
10887000     246.6245   -4725.9245   -4250.2884   -4725.9245            0    1544.6081    20.165642    19.995088    21.106675    8510.5025    1072.6472    2580.0249     981.1524    32.448851    -215.7566    367.56193   -4058.5764 
10888000    246.91968   -4711.9726   -4235.7672   -4711.9726            0    2143.1725    20.071786    20.386258    20.960858    8576.9442     3687.612    565.14339     2176.762    250.98003   -621.89838    649.95362   -3967.6865 
10889000    249.42346   -4757.1494   -4276.1153   -4757.1494            0    2048.5247    20.279703    20.209982    20.782043    8517.5708    1344.2662    1475.3687    3325.9393   -533.97187    1366.4967    250.83495   -4021.6475 
10890000    261.25358    -4711.327   -4207.4775    -4711.327            0    1978.2545     20.29467    20.139214    20.854448    8523.6024    2020.8393    679.07122    3234.8529   -408.34256    711.37535    575.72999   -3961.5646 
10891000    245.09341   -4709.9868   -4237.3036   -4709.9868            0    1683.8003    20.340857    20.026418    21.111578    8599.8964    1705.7633    1764.6179    1581.0197     289.5724   -90.275422   -394.83942   -4026.1202 
10892000     238.0619   -4690.1805   -4231.0581   -4690.1805            0    1315.2699    20.194817    20.096169    21.003309    8523.9505    1420.8377    1063.3108    1461.6612    375.36866    686.39268   -386.92731   -4067.5529 
10893000    267.86787   -4757.3721   -4240.7664   -4757.3721            0    982.98676    20.244116    20.001418    20.968694    8490.4556    860.52179    1023.1847    1065.2538    383.66519   -351.78677    388.82892   -4119.0485 
10894000    253.32438    -4708.477   -4219.9196    -4708.477            0    478.09451    20.032656    20.216321    21.267874     8613.204     694.7891    383.04793     356.4465    267.26334   -631.99142    1265.0959   -4159.8639 
10895000    246.85921   -4702.8828    -4226.794   -4702.8828            0    1294.8839    20.019432    20.267288    20.985745    8514.7476     2279.894    1133.9239    470.83381   -482.18284   -1132.7029   -76.010921   -4065.9968 
10896000    243.14599   -4710.4809   -4241.5534   -4710.4809            0    1274.5419     20.30087    20.102094     21.05084    8590.6372   -241.72337     1832.396    2232.9531   -202.24845   -312.70038   -557.49091   -4081.8716 
10897000    244.93289   -4730.3734   -4257.9997   -4730.3734            0    199.86268    20.115254    20.349551    21.060619    8620.8776    2477.3828   -2007.4995    129.70474    558.70161   -9.2052691    -1389.714   -4232.8717 
10898000    246.66377   -4720.0494   -4244.3376   -4720.0494            0    1847.4325    20.213409    20.082075    21.122956    8574.3823    4233.4656    452.91403    855.91789   -224.96222    356.15543    923.70152   -4013.3188 
10899000    258.15163   -4697.1427   -4199.2756   -4697.1427            0    2626.7165    20.069518    20.377351    20.722935    8474.9264    3785.4182    1019.3706    3075.3608    397.71437   -150.25146   -1051.0871   -3874.6184 
10900000    253.23313   -4722.8577   -4234.4763   -4722.8577            0    1661.6329    20.088252     20.22664    20.822225    8460.4416    2163.2971    654.93871    2166.6629    173.16003    1136.3243   -1146.8681   -4029.4527 
10901000    260.94784   -4695.9387   -4192.6789   -4695.9387            0    1353.7828    20.363587    20.104582    20.991782    8594.0647    527.01304    1294.1593     2240.176   -300.52915     256.5636   -1724.8479   -4023.0017 
10902000    268.28954   -4727.6116   -4210.1927   -4727.6116            0    1744.7196    20.167238    19.978139    21.192672    8538.6094    1165.8019     2411.294     1657.063    -123.3032    40.703894   -369.09966   -3992.9282 
10903000    247.97684   -4709.5977   -4231.3535   -4709.5977            0    630.28374    20.143517     20.07482    21.270646    8601.3699    842.97505    1437.8579   -389.98176    591.45759   -24.161736     119.1713   -4152.2893 
10904000    250.00425    -4716.375   -4234.2208    -4716.375            0    2351.1198     20.26449    20.111045    20.970486    8546.3134    2191.8693    3027.0229     1834.467   -498.08125   -337.49327   -43.060358    -3941.179 
10905000    249.92957   -4721.4847   -4239.4745   -4721.4847            0    2759.8306    20.334813    20.027408    20.710572    8434.4547    1202.2627    4315.7875    2761.4417     160.1111    185.82164    446.46019   -3899.9936 
10906000    245.75498   -4726.7342    -4252.775   -4726.7342            0    389.29454    20.158162    20.192155    21.210065    8633.2757    1241.9396    -289.2147    215.15871     222.9784   -4.3198435   -398.90638   -4203.7599 
10907000    262.88643   -4727.6619   -4220.6633   -4727.6619            0    2678.2371      20.3233    19.903978    20.943022    8471.7568    1532.7519    2209.1208    4292.8387    33.594832    242.81646   -375.75172    -3889.762 
10908000    242.25735   -4724.8712   -4257.6575   -4724.8712            0   -447.17551    20.395711    20.094635     20.93259    8579.1047   -1948.4401    144.20669    462.70692   -141.27083    134.02127    -1282.513    -4313.607 
10909000    250.82686   -4730.8586   -4247.1179   -4730.8586            0    2139.3439    20.156486    20.123175    21.019268    8525.6777    3587.5966    1086.9708    1743.4643   -92.253395    1162.2224   -795.06054   -3981.1156 
10910000    250.26452   -4706.5934   -4223.9373   -4706.5934            0    1718.9709    20.272368    20.073931    21.055341    8568.3895    1504.4472      1903.71    1748.7556    891.41919   -465.26328   -373.73894   -4009.1326 
10911000    257.60401   -4740.9134   -4244.1025   -4740.9134            0    2307.0016    20.100248     20.17187    20.892309    8470.9869    2797.7757    2900.9186    1222.3105   -452.10591   -289.12949      157.988    -3959.094 
10912000    250.10378    -4708.523   -4226.1768    -4708.523            0    1989.0004    20.020671    20.031733    21.313991    8547.9492    1987.8896    2929.9247    1049.1869    50.804839    519.91699    -728.1297   -3978.2219 
10913000    263.87802   -4719.1915   -4210.2806   -4719.1915            0    958.80928    20.168107    20.166025    21.098366    8580.9284    934.24886    1316.7294     625.4496   -176.54272    835.60991    1073.2351   -4090.2913 
10914000    254.75166   -4738.5886   -4247.2786   -4738.5886            0    2010.3015    20.344862     20.12798    20.836124    8532.4134    2105.2813    968.57355    2957.0495    581.50158    1019.9781    1622.3242   -3997.1237 
10915000    240.30551   -4696.4865   -4233.0371   -4696.4865            0    2688.6293    20.285426    20.288778    20.650643    8499.1132    910.36533    3843.4458    3312.0768   -896.42662   -295.68455   -562.97144   -3899.7792 
10916000    246.36818   -4683.4322   -4208.2905   -4683.4322            0    1393.1858    20.049237    20.142083    21.185088    8555.2462    801.99766    2715.0188    662.54085   -430.44589   -393.08678    358.83941   -4034.4634 
10917000    252.99248   -4712.2008   -4224.2835   -4712.2008            0    1575.8414    20.096086    19.989875     21.20342    8517.8007    3796.1591    609.22807    322.13694   -56.390953   -998.41497    58.811779   -4028.5272 
10918000    265.37171   -4708.4962   -4196.7046   -4708.4962            0    1712.0865    20.294182    20.112722    20.876413    8521.1517    1010.3573    1491.7569    2634.1453      285.036   -498.93929    382.86944   -3983.9397 
10919000    261.11193   -4699.8446   -4196.2683   -4699.8446            0    682.37583    20.364768    20.138643     20.92318    8580.9895   -233.22301    2006.4705    273.88005   -133.12363   -977.85902   -1560.5416   -4110.8724 
10920000    258.03378   -4713.9058   -4216.2659   -4713.9058            0    475.89017    20.197832    20.037513     21.09154    8536.0484   -600.65279    2143.7955   -115.47215   -458.90643   -31.624208   -323.59685   -4157.0226 
10921000    251.78386   -4700.4649   -4214.8785   -4700.4649            0   -1267.7739    20.143447    20.342024    21.197898    8686.0188   -1762.6866     -380.396   -1660.2392    597.51836   -115.95811    209.57954   -4375.4759 
10922000    248.63055   -4721.3434   -4241.8385   -4721.3434            0    2277.4586    20.051162    20.319948    20.960131    8539.9658    3278.5397    1276.8304    2277.0057    316.09866    1416.5795     220.9164   -3958.1886 
10923000    236.80112    -4711.421   -4254.7301    -4711.421            0    2307.0688    20.178234    20.303155    20.627144    8450.5661    3954.9186     1361.433    1604.8548      360.103     649.2548   -675.70133   -3970.4004 
10924000      255.703   -4716.2658    -4223.121   -4716.2658            0    280.20546    20.361832    20.133758    20.973785    8598.4171   -452.93458    385.44137     908.1096   -1629.6201   -355.10409    -342.8584   -4187.9835 
10925000    252.55289   -4716.3947   -4229.3252   -4716.3947            0    2682.0945    19.968693    20.097974    21.186198    8502.6625    3448.4581     3653.627    944.19835   -547.83706   -360.97468   -916.56036   -3896.7385 
10926000    250.90734   -4731.2323   -4247.3364   -4731.2323            0   -382.21575    20.215657    20.310332    21.044738    8640.6895     135.5515   -1622.5548    340.35605   -5.2695856    815.24719    388.19292   -4295.5015 
10927000    253.96991   -4712.8423     -4223.04   -4712.8423            0    639.18112    20.428492    20.067024    20.882179    8560.4202    215.62577    1175.7301    526.18745    -930.7983    1029.6633    115.91686   -4143.2415 
10928000    254.94284   -4717.7382   -4226.0595   -4717.7382            0    1376.0165    20.093639    20.333586    20.906384    8541.8413   -47.903198    1681.9178    2494.0349    217.48477    -1183.688   -703.43419   -4054.6436 
10929000     266.0574   -4709.5105   -4196.3964   -4709.5105            0    185.45629    20.030727    20.254727    21.317937    8649.0473    931.20632   -618.60391    243.76645    728.87641   -577.46057   -920.11778   -4173.0034 
10930000    264.29043   -4718.2305   -4208.5242   -4718.2305            0    2515.0133    20.200303    19.977658    21.050797    8495.1486    4421.0742    329.50306    2794.4626    293.09843    1278.9948   -448.19372   -3896.9316 
10931000    242.06273   -4707.4869   -4240.6485   -4707.4869            0     603.0082    20.298054     20.34301    20.870083    8617.7483    536.41166   -941.58223    2214.1952   -140.91709   -249.37392    1315.3421   -4164.8618 
10932000    255.07382   -4719.4056   -4227.4743   -4719.4056            0      671.529    20.380016    20.264105    20.712651    8553.9686   -1501.6647    2727.6661    788.58563    1264.5886    1509.1342    -214.4488   -4143.7004 
10933000    242.39767   -4726.7008   -4259.2165   -4726.7008            0   -35.912005    20.209489    20.175641    21.012426     8567.594    44.307413   -977.70524    825.66181   -415.98571    1372.2654    444.28853   -4263.7037 
10934000    240.01033   -4712.6378   -4249.7577   -4712.6378            0    1364.1291    20.235975    20.164968    20.961079    8553.3314    661.11061    1852.6834    1578.5933    -492.3827     70.40263    699.33608   -4079.5941 
10935000    260.45691   -4712.7161    -4210.403   -4712.7161            0    1135.9676     20.26137    20.289592     20.85383    8572.9041    1919.7928    176.25195     1311.858    -613.5102    -437.8252    294.86718   -4068.3764 
10936000    254.34879   -4690.1699   -4199.6369   -4690.1699            0    1670.5909    19.895962    20.165981    21.224703    8515.8092     1909.234    3050.4991    52.039706    177.41919   -416.20543    418.68249    -3992.159 
10937000    248.94938    -4723.299   -4243.1792    -4723.299            0   -185.23399    20.217756     20.29631    21.050312     8637.908    255.73156   -935.61217    124.17866   -279.81511   -532.70555    -637.7524    -4266.514 
10938000    245.13055   -4690.1877   -4217.4328   -4690.1877            0    1358.0074    20.329576    20.051179    20.985836    8554.4979   -304.32909    3383.3545    994.99681    520.76593    170.85704   -620.44168   -4048.0097 
10939000    242.10351   -4718.2818   -4251.3648   -4718.2818            0    697.75779    20.363196    20.165483    20.908471    8585.7227    115.88812    873.60125     1103.784    272.97099    1278.0525   -754.35853   -4163.9958 
10940000    267.30855   -4702.4278   -4186.9007   -4702.4278            0    2225.9174     20.10477    20.224128    21.072044    8567.9236    2455.6518    1818.2593    2403.8413    586.87493    643.88035   -1006.5101   -3908.7626 
10941000    249.74588   -4709.1845   -4227.5286   -4709.1845            0    2472.7193    19.986103    20.129772    21.072154    8477.6581    3500.4155    1261.3357    2656.4066     -518.271   -10.848195    -1048.892   -3921.8066 
10942000    255.37045   -4704.9156   -4212.4122   -4704.9156            0    1534.9188     20.30528    20.191916    20.732028    8500.1837    2729.2767    602.44734    1273.0324    409.28129    1966.4074   -1986.7164   -4022.1338 
10943000    248.79611    -4694.226   -4214.4017    -4694.226            0    1581.9633    20.176291    20.307323    20.867766    8550.0761    2512.8436    -670.3278    2903.3743   -313.41597    111.67265    36.811733   -4017.1403 
10944000    254.73562   -4695.5927   -4204.3136   -4695.5927            0    169.71877    20.279727    20.172274     21.07696    8622.3359    483.72338    300.17885   -274.74593   -5.1186976    177.91241     878.4626   -4182.9718 
10945000    238.12791   -4687.3495   -4228.0998   -4687.3495            0    1263.7425    20.316795    20.270428    20.759689    8549.4654    1107.5919    613.59995    2070.0358    118.64132    481.39023   -639.09839   -4070.5298 
10946000    254.56654   -4718.8009   -4227.8479   -4718.8009            0   -93.219255    20.401973    20.017196    21.199383    8657.6219   -685.01508    75.263399    330.09392    466.27824    348.40017   -60.923707    -4239.618 
10947000    244.83626   -4703.0217   -4230.8343   -4703.0217            0    439.94085    20.299689    20.118071    20.954358    8557.5624   -303.52566    1061.5351    561.81307     126.8147   -491.99592    732.03018   -4175.9283 
10948000    257.94249   -4724.6779   -4227.2141   -4724.6779            0    2811.7879    20.390131    20.092431    20.744994    8498.9607     3145.144    1467.6665    3822.5533   -389.04909   -1366.8087   -744.30998   -3878.6968 
10949000     253.5069    -4689.223   -4200.3136    -4689.223            0    2838.6254    20.092496    20.101087    21.236801    8577.1407    5400.8279    1569.9417    1545.1067   -71.222885   -82.174534    461.70216   -3845.2334 
10950000    247.94793   -4720.4883   -4242.2998   -4720.4883            0    585.33516    20.079541     20.15381     21.22183    8588.0345   -14.507385    2005.4523   -234.93946   -298.73429   -302.32779   -228.62134    -4168.988 
10951000    237.56289   -4691.5669   -4233.4069   -4691.5669            0    721.44933    20.368539     20.31912    20.788073    8603.5761     349.9111   -340.18444    2154.6213    488.42042    526.40023   -230.30091   -4142.8835 
10952000    247.78945   -4703.3547   -4225.4719   -4703.3547            0    645.55114     20.25913    20.164854    21.117238    8626.8646    1468.6406   -824.14334    1292.1562    194.71728    1531.6665    1141.3683   -4144.2525 
10953000    245.69288   -4719.9897   -4246.1503   -4719.9897            0    1482.5806    20.221127    19.972117    21.072945    8510.4927    1186.9823    2192.3168    1068.4428    57.624849    934.72887   -360.22116   -4062.1371 
10954000    239.98441   -4717.6232   -4254.7931   -4717.6232            0   -1232.1948    20.306261    20.200467    20.998005    8613.2965   -1702.5934   -1433.5741   -560.41688   -111.92396   -426.90343   -622.60103   -4409.5766 
10955000    249.26662   -4746.1481   -4265.4165   -4746.1481            0    580.97554    20.200941     20.10095    21.127889    8579.1505    1414.1299   -488.43309    817.22986    718.26693    1381.4857    859.52934   -4192.7259 
10956000    249.77079   -4738.1345   -4256.4305   -4738.1345            0    2091.6865    20.215494    20.160841    21.025538     8569.197     3112.492    946.12296    2216.4444    581.85584   -134.32021    818.56452   -3995.0263 
10957000    262.92202   -4737.1887   -4230.1215   -4737.1887            0    900.43882    20.128477    20.369051    20.835964    8542.7032    1294.4036   -663.99117     2070.904     122.3075   -613.32695   -1177.1108   -4117.9389 
10958000    251.40139    -4701.133   -4216.2843    -4701.133            0    2757.7948    20.128393     20.23425    20.984454      8546.61     3315.231    3256.8302    1701.3233    529.75055    1597.5116    -1093.127    -3872.543 
10959000    234.49398   -4686.7219   -4234.4806   -4686.7219            0    2267.0574    20.035473    20.185566    21.257038    8596.9278    4500.6307    936.43674    1364.1047   -340.67442     589.1635   -561.65821   -3950.2429 
10960000    254.77854   -4687.9737   -4196.6119   -4687.9737            0    1167.3998    20.379236    20.102965    20.958031    8586.1504    109.59553    553.99711    2838.6069    99.915973    -679.4237    304.89123   -4050.4298 
10961000    253.04991   -4717.1344   -4229.1063   -4717.1344            0    1010.4299     20.14075    20.226165    21.067386    8582.2235    2279.1253   -758.07996    1510.2444   -669.73799   -364.47628   -1099.3406    -4102.638 
10962000    256.34189   -4725.2855   -4230.9087   -4725.2855            0    1394.3974    20.063559    20.237328    21.058415    8550.4076    1775.5965    1267.8254    1139.7702   -93.849912    807.46923    856.17283   -4057.0288 
10963000    258.35444   -4692.9886   -4194.7304   -4692.9886            0    610.90237    20.091204    20.017581    21.322106    8575.2669    1301.8714     1496.856   -966.02029   -681.68483     140.4578   -335.72879     -4118.33 
10964000    257.76076     -4717.79   -4220.6767     -4717.79            0    552.49307    20.306901    20.224075    20.904585    8585.2683   -746.33453    1427.2389    976.57482    911.75318   -715.87332     517.2591   -4151.5005 
10965000    243.91115   -4747.0652    -4276.662   -4747.0652            0    106.94278    20.171297    20.356687    20.806185    8543.4518    943.40102    -208.5097   -414.06298   -780.97566    -490.4811    1057.3752   -4263.3372 
10966000    247.95083   -4719.4915   -4241.2975   -4719.4915            0    2048.0168    20.151993    19.973814    21.075861    8483.2902    1564.6399    4127.2081    452.20237   -33.448373    97.593487    413.24365   -3987.9167 
10967000    238.61303   -4722.0119   -4261.8266   -4722.0119            0    1218.0907    20.067208    20.300706    20.983692    8548.3046    2449.2026   -714.65996    1919.7294    623.71964   -388.34354   -503.29122   -4109.9693 
10968000    266.35018   -4720.0547   -4206.3759   -4720.0547            0    1253.3622    20.385565    20.108754    20.948418    8587.3496     35.05376    1423.8415    2301.1912   -685.10745    95.809663    -1188.145   -4049.4078 
10969000    253.92739   -4701.6987   -4211.9784   -4701.6987            0    2746.8623    20.259539     20.18084    20.697833    8462.4026    2008.4056    2829.2184     3402.963   -737.69686    239.58933    1358.9835   -3872.9731 
10970000    239.93306   -4715.0471    -4252.316   -4715.0471            0    1250.5779    20.127878    20.058212    21.152614    8539.9288    2086.4311    546.32937    1118.9733   -254.74791     530.4154    515.36134   -4096.5614 
10971000    252.66659   -4716.9871   -4229.6983   -4716.9871            0   -588.58001    20.257386    20.353839    21.028073    8670.2018   -1769.6908   -717.30349    721.25428    57.309775   -304.12112    -639.8437   -4304.1219 
10972000     242.5554   -4719.1312   -4251.3427   -4719.1312            0    1489.6926    20.255449    20.015924    20.931311    8486.2131   -398.26822    3545.4279    1321.9181   -238.31458   -436.26846    783.74315   -4066.9743 
10973000    234.91925   -4693.0911   -4240.0296   -4693.0911            0    822.28183    20.099369    20.282529    21.021802    8569.8742    638.10416    547.23466    1281.5067   -433.80264   -522.03964   -992.06239   -4137.2585 
10974000    250.24865   -4717.8609   -4235.2353   -4717.8609            0    595.75032    20.155024    20.016931    21.211749    8557.7047    1397.0662    559.45069   -169.26594    115.34266    261.65551    28.461135   -4160.8825 
10975000     256.6786   -4742.0389   -4247.0127   -4742.0389            0    302.60783    20.349837    20.154338    21.143924    8671.9163     77.62664   -195.21247    1025.4093   -245.07603     359.1353    180.21976   -4208.7416 
10976000    249.54392   -4709.9469   -4228.6804   -4709.9469            0    174.93496    20.246089     20.46875    20.896802    8659.8886   -756.03754    358.56761    922.27481    477.86029    1147.6007     49.55642   -4206.5869 
10977000    255.20407   -4650.7067   -4158.5242   -4650.7067            0    1742.4961    20.153424    20.226325    20.856755    8501.8327      2752.45    804.96791    1670.0703   -57.723498    1793.5301    422.60158   -3942.4712 
10978000    251.41411   -4686.6931   -4201.8198   -4686.6931            0     606.6108    20.099324    20.303097     21.14673    8629.5264    527.23372   -181.69672    1474.2954     300.8118   -33.723123    468.84991   -4125.4762 
10979000    263.93551   -4726.9863   -4217.9645   -4726.9863            0    211.85978    20.293715    20.090682    21.117744    8610.0119    87.480246    323.59279    224.50631   -425.49973    33.092663   -1426.4052   -4191.3616 
10980000    253.78898   -4677.4795   -4188.0261   -4677.4795            0    1330.1666    20.205607    20.128078    20.988871    8536.1744    3532.5194     771.6147   -313.63427   -23.352221   -311.34189     390.2735   -4022.4319 
10981000     253.3465   -4691.4274   -4202.8274   -4691.4274            0    1923.4368    20.054685     20.43701    20.715835    8490.5465    1971.9381    1033.9209    2764.4514   -996.57612   -321.96382    38.254645   -3964.6561 
10982000    255.17855    -4715.895   -4223.7617    -4715.895            0    1577.6298    20.310707      19.9997     20.97925    8521.9403    1559.5049    1345.7676    1827.6168   -712.75608   -234.07479   -28.784041   -4027.6879 
10983000    250.43845    -4726.241   -4243.2494    -4726.241            0    537.76194    20.095655     20.24865    21.386674    8702.4495    51.139786    810.71768    751.42835    -729.5343    592.10456    58.047185   -4174.9986 
10984000      256.858    -4704.197   -4208.8248    -4704.197            0    1753.0986    20.182273    20.046473    21.144443    8554.6906    964.40375    3257.4502    1037.4418   -305.20345    1289.5682   -521.53285   -3990.1058 
10985000    254.85138   -4742.4496   -4250.9473   -4742.4496            0    646.98584     20.23568    20.099531    21.024516    8551.2528    293.18264    1964.3279   -316.55305    218.81985   -157.40503   -361.51264   -4170.2609 
10986000     244.7123   -4725.1967   -4253.2484   -4725.1967            0    3062.3506    20.088955    20.237423    20.858844    8480.1358    4068.1231     1633.418    3485.5106   -778.09181     1727.756    1595.6946    -3874.515 
10987000    250.06477   -4707.3712   -4225.1003   -4707.3712            0     344.2978    20.461072    20.151481    20.784461     8569.868   -1329.2062    1718.1327    643.96691   -683.69471   -490.10795   -287.74332    -4182.069 
10988000    257.24227   -4707.9345   -4211.8211   -4707.9345            0    126.66635    20.170915    20.090946     21.23646     8606.134    787.22987   -163.37074   -243.86008   -560.27157    137.79616   -1441.9021    -4195.923 
10989000    257.31249   -4733.0887   -4236.8399   -4733.0887            0    2795.0148    20.060355    20.094292    21.039171    8480.8611    2868.1123    2722.8049    2794.1273   -7.1315721    -649.4986    282.28937   -3891.1395 
10990000    251.85973   -4698.8807    -4213.148   -4698.8807            0    1731.8525    20.214744    20.197795    20.961323    8558.3668    2341.4809    486.24877    2367.8278     -456.021     1418.525    -1896.656   -3996.9868 
10991000     247.7711   -4735.2388   -4257.3914   -4735.2388            0    2138.5399     20.11695    20.052317    21.265129    8578.1711    2903.6229    2577.9681     934.0288   -18.960666   -1195.8636    854.28261   -3989.8519 
10992000    243.74356   -4693.2898   -4223.2098   -4693.2898            0    1445.9801    20.124117    20.051831    21.185267    8548.7932    701.21456    3111.7539    524.97175   -483.44382   -1448.4287    1111.3114   -4042.9317 
10993000    245.19261    -4680.033   -4207.1584    -4680.033            0    1178.5307    20.410758    20.030161    21.126443    8637.1399   -1564.9313    3998.7504    1101.7729     271.1487   -1179.1995    157.18749   -4058.7062 
10994000    261.05336   -4714.6836   -4211.2202   -4714.6836            0    1021.7583    20.226889    20.133539    20.835352    8484.9651    2439.3241    1820.6334   -1194.6825   -33.222445    -1270.154    390.38193   -4084.7832 
10995000    253.00693   -4671.6226   -4183.6775   -4671.6226            0    1702.6728    20.098895    20.306049    21.038064    8586.2469    2470.1679     345.3035    2292.5471   -480.82188    52.271819   -79.833976    -3970.466 
10996000    257.15472   -4699.9241   -4203.9796   -4699.9241            0   -419.20332    20.087907    20.191066    21.344512    8657.2541   -1255.4641    1335.6502   -1337.7961    55.674615    855.17984    165.28215    -4256.907 
10997000    250.60227   -4719.7356   -4236.4281   -4719.7356            0    2958.4454    20.184943    20.300708    20.723695    8491.9202    3776.5625    2243.0027    2855.7709   -353.28399    -1674.501   -22.571523   -3870.0366 
10998000    267.08505   -4713.5135   -4198.4176   -4713.5135            0    2147.8746    20.012297    20.375585    20.801501    8482.0676    2344.9042     1911.395    2187.3246   -143.59056    46.753804   -1873.0716   -3932.7206 
10999000    256.75593   -4743.1781   -4248.0027   -4743.1781            0    108.57036    20.125928    20.218418    21.097686    8584.9531   -415.12673    428.11346    312.72436   -986.09093   -1063.3296    981.63884   -4234.4094 
11000000    266.14721   -4690.9965   -4177.7092   -4690.9965            0    3000.0874    20.233748    19.985267    21.050625    8512.3857    1943.7827    3542.1997    3514.2797    -515.0472    804.54168   -323.07834   -3805.2651 
Loop time of 450.291 on 64 procs for 250000 steps with 972 atoms

Performance: 95.938 ns/day, 0.250 hours/ns, 555.196 timesteps/s
99.1% CPU use with 64 MPI tasks x 1 OpenMP threads

MPI task timing breakdown:
Section |  min time  |  avg time  |  max time  |%varavg| %total
---------------------------------------------------------------
Pair    | 19.614     | 27.452     | 35.186     |  76.9 |  6.10
Bond    | 0.26264    | 0.2795     | 0.29007    |   1.0 |  0.06
Kspace  | 185.61     | 202.07     | 218        |  47.2 | 44.88
Neigh   | 2.8375     | 3.469      | 4.2148     |  20.2 |  0.77
Comm    | 87.366     | 99.269     | 110.69     |  54.3 | 22.05
Output  | 1.5568     | 1.5579     | 1.5645     |   0.1 |  0.35
Modify  | 105.65     | 108.13     | 111.7      |  15.4 | 24.01
Other   |            | 8.059      |            |       |  1.79

Nlocal:        15.1875 ave          21 max          11 min
Histogram: 5 1 9 8 12 14 7 3 2 3
Nghost:        2169.58 ave        2202 max        2138 min
Histogram: 4 4 6 6 13 11 6 6 4 4
Neighs:        4629.80 ave        6441 max        3249 min
Histogram: 7 5 7 10 9 11 7 3 2 3

Total # of neighbors = 296307
Ave neighs/atom = 304.84259
Ave special neighs/atom = 2.0000000
Neighbor list builds = 7647
Dangerous builds = 0

unfix		3
unfix		2
unfix		1

write_data	data.final.${pid}
write_data	data.final.0
System init for write_data ...
PPPM initialization ...
  extracting TIP4P info from pair style
  using 12-bit tables for long-range coulomb (../kspace.cpp:340)
  G vector (1/distance) = 0.37176418
  grid = 24 24 25
  stencil order = 5
  estimated absolute RMS force accuracy = 0.0034868886
  estimated relative force accuracy = 1.0500661e-05
  using double precision FFTW3
  3d grid and FFT values/proc = 2366 288
Last active /omp style is kspace_style pppm/tip4p/omp
WARNING: Not all mixed pair coeffs generated from mixing. Use write_data with 'pair ij' option to store all pair coeffs. (../write_data.cpp:312)

write_restart   restart.lmp.${pid}
write_restart   restart.lmp.0
System init for write_restart ...
PPPM initialization ...
  extracting TIP4P info from pair style
  using 12-bit tables for long-range coulomb (../kspace.cpp:340)
  G vector (1/distance) = 0.37176418
  grid = 24 24 25
  stencil order = 5
  estimated absolute RMS force accuracy = 0.0034868886
  estimated relative force accuracy = 1.0500661e-05
  using double precision FFTW3
  3d grid and FFT values/proc = 2366 288
Last active /omp style is kspace_style pppm/tip4p/omp
Total wall time: 0:07:33
