LAMMPS (30 Jul 2021)
  using 1 OpenMP thread(s) per MPI task
package omp 0
using multi-threaded neighbor list subroutines
echo both

include		in.partitions
variable        pid world 0
include		in.temp
variable        temperature equal 263.56
variable	tempDamp equal 100.0
include		in.pressure
variable        pressure equal 4625.0
variable        pressureDamp equal 1000.0 # This is 1 ps
include		in.seed
variable        seed world 745823

units		real
atom_style	full
read_restart	restart.lmp.${pid}
read_restart	restart.lmp.0
Reading restart file ...
  restart file = 30 Jul 2021, LAMMPS = 30 Jul 2021
  restoring atom style full from restart
  orthogonal box = (0.37707285 1.5356733 0.46002800) to (17.830500 22.093505 21.753168)
  4 by 4 by 4 MPI processor grid
  restoring pair style lj/cut/tip4p/long/omp from restart
  restoring bond style harmonic/omp from restart
  restoring angle style harmonic/omp from restart
  864 atoms
  576 bonds
  288 angles
Finding 1-2 1-3 1-4 neighbors ...
  special bond factors lj:    0        0        0       
  special bond factors coul:  0        0        0       
     2 = max # of 1-2 neighbors
     1 = max # of 1-3 neighbors
     1 = max # of 1-4 neighbors
     2 = max # of special neighbors
  special bonds CPU = 1.316 seconds
  read_restart CPU = 1.538 seconds
include 	in.setup
variable	out_freq equal 1000
variable	out_freq2 equal 10000
variable	out_freq3 equal 1000

timestep	2.0

neigh_modify    delay 7 every 1

include		in.tip4p
# This is TIP4P/Ice

# create groups ###
group ox type 2
288 atoms in group ox
group hy type 1
576 atoms in group hy

# set charges - beside manually ###
set group ox charge -1.1794
Setting atom values ...
  288 settings made for charge
set group hy charge 0.5897
Setting atom values ...
  576 settings made for charge

# ### TIP3P Potential Parameters ###
pair_style lj/cut/tip4p/long/omp 2 1 1 1 0.1577 8.5
pair_coeff 1 1*2 0.000 0.000
pair_coeff 2 2 0.21084 3.1668
bond_style  harmonic
bond_coeff  1 450 0.9572
angle_style harmonic
angle_coeff 1 55 104.52
kspace_style pppm/tip4p/omp 1.0e-5
pair_modify tail yes

thermo          ${out_freq}
thermo          1000
thermo_style    custom step temp pe etotal epair emol press lx ly lz vol pxx pyy pzz pxy pxz pyz enthalpy

restart 	${out_freq3} restart.lmp.${pid} restart2.lmp.${pid}
restart 	1000 restart.lmp.${pid} restart2.lmp.${pid}
restart 	1000 restart.lmp.0 restart2.lmp.${pid}
restart 	1000 restart.lmp.0 restart2.lmp.0


include         in.dump
dump            myDump all atom ${out_freq2} dump.water.${pid}
dump            myDump all atom 10000 dump.water.${pid}
dump            myDump all atom 10000 dump.water.0
dump            myDump2 all dcd ${out_freq2} dump.dcd
dump            myDump2 all dcd 10000 dump.dcd
dump_modify     myDump append yes
dump_modify     myDump2 append yes


variable natoms 	equal  "count(all)"                        # NUMBER ATOMS
variable H      	equal  "enthalpy/v_natoms"                 # ENTHALPY-per-atom
variable Vol      	equal  "vol/v_natoms"                 # volume-per-atom
fix AVG all 		ave/time ${out_freq} 1 ${out_freq} v_Vol v_H file vol_enthalpy.dat
fix AVG all 		ave/time 1000 1 ${out_freq} v_Vol v_H file vol_enthalpy.dat
fix AVG all 		ave/time 1000 1 1000 v_Vol v_H file vol_enthalpy.dat


timer           timeout 23:50:00 every 1000
New timer settings: style=normal  mode=nosync  timeout=23:50:00

fix 		1 all shake 1e-6 200 0 b 1 a 1
       0 = # of size 2 clusters
       0 = # of size 3 clusters
       0 = # of size 4 clusters
     288 = # of frozen angles
  find clusters CPU = 0.404 seconds
fix             2 all nph iso ${pressure} ${pressure} ${pressureDamp}
fix             2 all nph iso 4625 ${pressure} ${pressureDamp}
fix             2 all nph iso 4625 4625 ${pressureDamp}
fix             2 all nph iso 4625 4625 1000
fix             3 all temp/csvr ${temperature} ${temperature} ${tempDamp} ${seed}
fix             3 all temp/csvr 263.56 ${temperature} ${tempDamp} ${seed}
fix             3 all temp/csvr 263.56 263.56 ${tempDamp} ${seed}
fix             3 all temp/csvr 263.56 263.56 100 ${seed}
fix             3 all temp/csvr 263.56 263.56 100 745823

run             250000
PPPM initialization ...
  extracting TIP4P info from pair style
  using 12-bit tables for long-range coulomb (../kspace.cpp:340)
  G vector (1/distance) = 0.37353184
  grid = 24 24 25
  stencil order = 5
  estimated absolute RMS force accuracy = 0.003153786
  estimated relative force accuracy = 9.4975329e-06
  using double precision FFTW3
  3d grid and FFT values/proc = 2730 288
Last active /omp style is kspace_style pppm/tip4p/omp
Neighbor list info ...
  update every 1 steps, delay 7 steps, check yes
  max neighbors/atom: 2000, page size: 100000
  master list distance cutoff = 10.8154
  ghost atom cutoff = 10.8154
  binsize = 5.4077, bins = 4 4 4
  1 neighbor lists, perpetual/occasional/extra = 1 0 0
  (1) pair lj/cut/tip4p/long/omp, perpetual
      attributes: half, newton on, omp
      pair build: half/bin/newton/omp
      stencil: half/bin/3d
      bin: standard
Per MPI rank memory allocation (min/avg/max) = 9.238 | 9.241 | 9.249 Mbytes
Step Temp PotEng TotEng E_pair E_mol Press Lx Ly Lz Volume Pxx Pyy Pzz Pxy Pxz Pyz Enthalpy 
 2500000    270.00566   -3876.9606   -3414.1802   -3876.9606            0    3049.1426    17.453427    20.557831     21.29314    7640.0765    1665.8092    4665.5978    2816.0209   -93.743593    1181.2495   -168.71108   -3074.4365 
 2501000     261.2398    -3889.067   -3441.3109    -3889.067            0    5941.3977    17.322786    20.403954    21.133759    7469.7978    5950.6393    6575.6421    5297.9118   -37.540328     112.1778    165.26925    -2794.059 
 2502000    262.38744   -3890.6659   -3440.9428   -3890.6659            0    4370.0609    17.315332    20.395174    21.124665     7460.159    5254.6474    4543.7843    3311.7512   -535.37212   -767.23861   -1113.9924   -2965.4856 
 2503000    279.39011   -3924.7934   -3445.9283   -3924.7934            0    4829.1352    17.328936    20.411198    21.141262    7477.7562    4589.2382    4273.9279    5624.2396   -427.91034   -713.14343   -1851.8473   -2919.2851 
 2504000    255.41364   -3930.8847   -3493.1145   -3930.8847            0     4458.029    17.348679    20.434452    21.165348    7503.3434    5620.2429    2972.9954    4780.8487   -1254.6978   -185.47349   -116.38477   -3005.2787 
 2505000    260.59424   -3866.9653   -3420.3157   -3866.9653            0    4789.6931    17.393253    20.486955    21.219728    7561.3276    6788.5586     3774.452    3806.0687    571.22877   -1176.4777    61.090958   -2892.1361 
 2506000    262.17749   -3856.1224   -3406.7591   -3856.1224            0    5828.3663    17.273749    20.346195    21.073934    7406.5407     7245.461    4504.6173    5735.0206   -140.61231   -730.24202   -1741.0875   -2777.1977 
 2507000    261.87463   -3848.1267   -3399.2826   -3848.1267            0    5018.6286    17.360111    20.447917    21.179294    7518.1857    5080.6928    4328.4589     5646.734    590.02823    1423.3206   -510.76927   -2849.0149 
 2508000    267.28448   -3836.7813   -3378.6649   -3836.7813            0    5544.9034    17.347813    20.433432    21.164292    7502.2201    5090.7243     6244.284    5299.7018    -385.7093     326.2061    47.518584   -2771.9849 
 2509000    278.13943    -3841.669   -3364.9475    -3841.669            0     4226.134    17.389445    20.482469    21.215082    7556.3618    2217.2761    6467.6956    3993.4305    1899.6137     306.8295    810.88012     -2899.22 
 2510000    264.20279   -3855.5764   -3402.7419   -3855.5764            0    3471.4552    17.405687    20.501601    21.234898    7577.5554    4174.6387    2725.7397     3513.987     1095.211    359.41352   -414.47869   -3019.1083 
 2511000    258.20864   -3827.4761   -3384.9153   -3827.4761            0    4196.8737    17.320529    20.401295    21.131005    7466.8775    3625.6362    5392.0328     3572.952    148.33449   -1243.1015    1242.1701   -2927.8894 
 2512000    274.44561   -3839.3489   -3368.9585   -3839.3489            0    4799.8292    17.385168    20.477431    21.209864    7550.7876    3644.7208    4651.2569    6103.5098    341.58899   -1405.3184   -1209.9381    -2840.399 
 2513000    267.77837   -3830.8487   -3371.8857   -3830.8487            0    4611.6524    17.323039    20.404252    21.134067    7470.1247    6779.6603    4035.9123    3019.3846    110.99145     1279.028   -762.00803   -2869.4734 
 2514000    245.91746    -3873.573   -3452.0789    -3873.573            0    4669.9184    17.383368    20.475311    21.207668    7548.4423     4506.364     5939.521    3563.8702    1255.0737   -944.52785    183.21196   -2937.9849 
 2515000    260.73275   -3866.7575   -3419.8705   -3866.7575            0    3972.5871    17.416494     20.51433    21.248082    7591.6787    1985.6179    5175.1245    4757.0189    1423.3759   -2688.9528   -396.96134   -2980.0382 
 2516000    257.08808   -3858.4025   -3417.7623   -3858.4025            0    4607.8948    17.340223    20.424492    21.155032     7492.377    4128.7936    5479.9426    4214.9482   -1113.5043    665.03157   -1910.7021   -2914.2639 
 2517000    274.27695   -3879.0656   -3408.9643   -3879.0656            0    3931.2286    17.408012    20.504339    21.237734    7580.5922     4585.842    4006.0969    3201.7468   -2256.5604    642.06171   -793.25015   -2974.3467 
 2518000    244.88428   -3871.6029   -3451.8796   -3871.6029            0    3380.1146    17.433397    20.534238    21.268703    7613.8027    4717.8004    2007.3881    3415.1552    729.74974    -360.0316   -1166.7164   -3076.5534 
 2519000    266.58069   -3858.7732    -3401.863   -3858.7732            0    4802.8529     17.36048    20.448353    21.179746    7518.6663    5953.2825    3652.3223    4802.9541   -355.59827   -1253.1707   -164.98523   -2875.2204 
 2520000    262.24954   -3884.6864   -3435.1997   -3884.6864            0    3949.8061    17.326429    20.408244    21.138203    7474.5105    4802.9317     4833.434    2213.0526    363.94996   -495.08012     351.9385   -3004.6389 
 2521000    260.97225   -3887.6346   -3440.3371   -3887.6346            0    5613.3894    17.350935     20.43711      21.1681    7506.2712    5273.8144    6919.2852    4647.0685   -579.25143   -1254.7672   -1082.4997   -2825.8322 
 2522000    275.93837    -3878.781    -3405.832    -3878.781            0    4200.4366    17.344503    20.429534    21.160253    7497.9265    2662.6538    5240.3828    4698.2731   -880.32404   -726.04252    1085.6935   -2946.5161 
 2523000    264.12013   -3905.4105   -3452.7176   -3905.4105            0    6356.3957    17.294237    20.370327    21.098929    7432.9265    4244.8037    7644.6099    7179.7736   -240.77192   -854.23942    638.34605   -2763.6741 
 2524000    271.29257   -3838.9906   -3374.0044   -3838.9906            0    5239.3126    17.347297    20.432825    21.163662    7501.5506    4115.7204    6817.8972    4784.3204   -826.40471    531.26127   -1804.5255   -2800.8109 
 2525000    264.41834    -3849.273    -3396.069    -3849.273            0    4569.3619    17.319795    20.400431    21.130109    7465.9284    3808.2909    3851.1045    6048.6903   -178.32546   -141.81153    1873.1346   -2898.5436 
 2526000    277.60178   -3853.3025   -3377.5025   -3853.3025            0    3886.2159    17.353739    20.440413    21.171522    7509.9113    3697.2958    4867.7442    3093.6076    329.98257    412.56844   -1070.6824   -2951.8673 
 2527000    261.93571   -3848.6701   -3399.7212   -3848.6701            0    5638.0254    17.354437    20.441234    21.172372    7510.8165     6566.476     7366.666    2980.9341   -990.02974    723.04374   -485.94511   -2782.1457 
 2528000    258.85755   -3870.4914   -3426.8184   -3870.4914            0    2647.2233    17.298987    20.375922    21.104724    7439.0527    3655.9707    1893.3855    2392.3138   -1644.6997    -572.4637    121.97807   -3139.6187 
 2529000    250.17039   -3865.3841   -3436.6006   -3865.3841            0    3875.4686    17.261249    20.331471    21.058683    7390.4732    5193.2781    3625.3475      2807.78    410.77442   -17.838832    939.44248    -3018.893 
 2530000    270.55137   -3848.5766   -3384.8608   -3848.5766            0    5372.4569    17.188323    20.245575    20.969715    7297.1982    4643.6617    7711.5544    3762.1546   -442.01904   -634.94905   -2064.8436   -2813.1124 
 2531000    263.05241    -3831.817   -3380.9542    -3831.817            0    3457.0919    17.310059    20.388963    21.118232    7453.3454    3691.2985    5128.3668    1551.6106    1540.3281    631.55468   -923.88497   -3005.1704 
 2532000    261.10597   -3854.0308   -3406.5041   -3854.0308            0    5087.4767    17.322657    20.403802    21.133601    7469.6304    3842.2443     6097.651    5322.5347    443.48398   -162.18025   -631.00076   -2852.2902 
 2533000     269.7545   -3860.3674   -3398.0174   -3860.3674            0    4623.7482    17.362339    20.450542    21.182014    7521.0819    2554.8625    5787.3212    5529.0608    306.96541    -1128.574    1088.8178   -2890.8511 
 2534000    245.07014   -3863.1938   -3443.1519   -3863.1938            0    2912.1387    17.336546    20.420161    21.150546    7487.6117    4541.2993    2870.8764    1324.2404    343.64393   -1480.9143   -175.80575   -3125.1489 
 2535000    248.00833   -3859.7356   -3434.6579   -3859.7356            0    5302.9459    17.212063    20.273536    20.998676    7327.4749    6626.6388    4460.7834    4821.4153   -632.95812    529.16392   -979.46254   -2867.9654 
 2536000    273.48102   -3897.0142   -3428.2771   -3897.0142            0    5483.4112    17.233273    20.298519    21.024553    7354.5973    4924.2107    6017.5257    5508.4972   -364.99803    1434.8689   -766.90471   -2840.1305 
 2537000      267.511   -3836.5469   -3378.0422   -3836.5469            0    5366.6553    17.248379    20.316312    21.042982    7373.9548    5607.4609    3998.3464    6494.1585   -435.91789   -190.81045   -673.59498   -2800.9037 
 2538000    262.10076   -3842.1278   -3392.8961   -3842.1278            0    5627.9469    17.299636    20.376686    21.105515    7439.8889    5615.0819    5665.6176    5603.1411    1261.1206    277.52478   -95.762117   -2782.2461 
 2539000    264.01419   -3837.9657   -3385.4544   -3837.9657            0    5803.1606    17.355836    20.442882    21.174079    7512.6333    4953.8766    6094.7347    6360.8704    326.54987   -556.55896     -776.774   -2749.6366 
 2540000    258.84189   -3844.5784   -3400.9323   -3844.5784            0    4420.1571    17.392395    20.485944    21.218681    7560.2083    2633.4217    6229.3738    4397.6758    148.83515   -547.57039   -1199.4399   -2913.5751 
 2541000    259.37529   -3828.3407   -3383.7804   -3828.3407            0    5729.8166      17.3192     20.39973    21.129384    7465.1598    7062.7669    4795.7222    5330.9606   -550.48621   -28.410542    662.31162   -2759.9655 
 2542000    268.48525   -3858.3181   -3398.1435   -3858.3181            0    5384.2894    17.342475    20.427145    21.157779    7495.2969    6020.6686    5612.3274    4519.8721   -1790.3005   -1230.4724    1103.2943   -2809.5803 
 2543000    257.65468    -3825.907   -3384.2957    -3825.907            0      5633.33    17.308764    20.387438    21.116652    7451.6725    4496.1837     6774.055    5629.7512   -257.44656   -469.78024    214.70686   -2772.0936 
 2544000    265.94496   -3871.2264   -3415.4058   -3871.2264            0    5413.5434    17.341492    20.425987    21.156579    7494.0217    4629.9455    4872.2964    6738.3885   -306.61664   -1765.4294   -356.35222   -2823.7455 
 2545000    259.41915   -3906.9533   -3462.3177   -3906.9533            0    2247.8732    17.322787    20.403955     21.13376    7469.7991    2969.8785    1784.0405    1989.7005   -270.11807   -248.04868    113.29286   -3217.4359 
 2546000    273.97805   -3869.1045   -3399.5155   -3869.1045            0    5046.7589    17.323387    20.404662    21.134492    7470.5746    5803.5197    4712.4847    4624.2721    456.73712    399.06891   -319.76131   -2849.6678 
 2547000    253.27882   -3852.3725   -3418.2613   -3852.3725            0    5354.3713    17.259212    20.329072    21.056198    7387.8565    6207.2355    5196.2762    4659.6024    919.02487   -450.71047   -722.13125   -2841.3582 
 2548000    258.47033   -3833.1168   -3390.1075   -3833.1168            0     4658.699    17.260059     20.33007    21.057232    7388.9448    3721.1234    5617.9588     4637.015    1700.9151   -154.41422   -825.11822   -2888.0852 
 2549000    267.01887   -3837.8024   -3380.1412   -3837.8024            0    5694.4511    17.273329      20.3457    21.073421    7405.9999    6261.4511    6386.1492     4435.753   -2844.8293    900.74273   -1072.4186   -2765.0897 
 2550000    268.03922   -3844.0035   -3384.5935   -3844.0035            0    4669.6107    17.269825    20.341573    21.069146    7401.4942    5690.3016     3855.795    4462.7354    654.82807    379.04607    32.866458   -2880.5407 
 2551000    272.05071   -3833.2148   -3366.9292   -3833.2148            0    2696.6924    17.375455    20.465991    21.198014    7538.1387    1987.5249    4013.3921    2089.1603   -145.81478    767.72945   -1326.8486   -3070.4655 
 2552000    266.60284   -3852.7845   -3395.8363   -3852.7845            0    4227.6512    17.327239    20.409199    21.139192    7475.5599     4705.845    2867.2672    5109.8414    346.43538   -991.89967    820.96567   -2934.9235 
 2553000    258.35428   -3880.4187   -3437.6083   -3880.4187            0    2324.0843    17.413112    20.510345    21.243956    7587.2561    2989.3331    2165.9087    1817.0111    186.29495    857.96686    186.33787   -3180.4429 
 2554000    265.12627   -3839.7131   -3385.2958   -3839.7131            0    4151.8173    17.335554    20.418993    21.149336    7486.3268    2007.6391     4639.157    5808.6558    568.79472    542.74687    -1768.955   -2931.9987 
 2555000    260.59867   -3869.6636   -3423.0064   -3869.6636            0    3436.2038    17.298373    20.375198    21.103975    7438.2601    2736.0659    3054.4234    4518.1222   -106.06084    596.06836   -1279.8782   -3050.2491 
 2556000    267.73818   -3829.7644   -3370.8703   -3829.7644            0    5411.6723    17.281584    20.355423    21.083492    7416.6236    3816.2953    6220.6188    6198.1028   -906.03515   -317.95803   -1230.9666    -2785.523 
 2557000     274.0046   -3876.2697   -3406.6352   -3876.2697            0    4280.0386    17.264702    20.335538    21.062896     7394.909    4467.2154    4805.0385     3567.862   -132.29832    256.95917    -729.3166   -2945.0452 
 2558000    268.50509   -3882.8216   -3422.6131   -3882.8216            0    4263.6785    17.329525    20.411891     21.14198    7478.5178    3438.4295    4856.9285    4495.6774    295.11773    119.21853   -154.26511   -2957.5886 
 2559000    260.55306   -3847.0477   -3400.4687   -3847.0477            0    6516.0603    17.215884    20.278038    21.003339    7332.3571     5964.923    5358.3394    8224.9185    220.79098   -531.47717   -282.73811   -2703.6744 
 2560000    263.10377   -3888.1841   -3437.2333   -3888.1841            0    3616.0504    17.254554    20.323586    21.050516    7381.8771      5064.65    3009.8708    2773.6303    1111.8772   -927.25742   -97.167486   -3047.9397 
 2561000     271.1925   -3878.4067   -3413.5921   -3878.4067            0     3826.795    17.306346    20.384589    21.113701    7448.5495    2777.2858    4354.2082     4348.891    421.36965    1386.6441   -1428.8096   -2997.8894 
 2562000    257.52699   -3825.4916   -3384.0992   -3825.4916            0    3216.3963    17.393658    20.487432    21.220222    7561.8557    5212.7666    3406.2137    1030.2086   -41.582606   -275.97823   -1031.7372   -3029.3889 
 2563000    275.34057    -3836.591   -3364.6667    -3836.591            0     3842.653    17.403066    20.498513    21.231699    7574.1319    3573.3989    4546.9589    3407.6011   -961.23517    337.93819   -416.93088   -2940.2036 
 2564000    260.73066   -3845.4344    -3398.551   -3845.4344            0    4395.5155    17.402838    20.498244    21.231421    7573.8343    4062.7941    4477.9002    4645.8522   -319.50293    1176.9998   -134.52062   -2913.0373 
 2565000    250.67077   -3874.5118   -3444.8707   -3874.5118            0    5304.2206    17.314155    20.393788    21.123229    7458.6375    3080.9392    6247.2229    6584.4998    768.26348   -413.65507    17.439027   -2867.8957 
 2566000     270.9024   -3870.2215   -3405.9041   -3870.2215            0    3089.5975    17.360231    20.448059    21.179441    7518.3419    2891.8052    3409.5444    2967.4428    776.96544   -411.44621   -1031.7795   -3067.1381 
 2567000    249.68993   -3868.6728   -3440.7128   -3868.6728            0    3989.7555    17.328881    20.411133    21.141195    7477.6853    2099.2033    5473.2505    4396.8126    272.62556    1149.4071   -474.41026   -3005.6125 
 2568000    258.05518    -3860.614   -3418.3162    -3860.614            0    5374.7163    17.254674    20.323727    21.050662    7382.0311      7259.36     4377.191    4487.5978   -410.22236    267.33261     1628.506   -2839.6778 
 2569000    254.08896   -3894.3045   -3458.8047   -3894.3045            0    3494.7608    17.292331    20.368082    21.096604    7430.4692    4859.4401    2085.5286    3539.3138   -941.16954    2235.5517     1117.327   -3080.0922 
 2570000    269.83308   -3879.7253   -3417.2407   -3879.7253            0    5039.3832    17.264437    20.335226    21.062572    7394.5682    6603.4614    4658.1251     3856.563       1126.4    1433.2445   -3.1494994   -2873.7826 
 2571000    274.58012   -3893.8666   -3423.2456   -3893.8666            0    3083.0912      17.2545    20.323522    21.050449    7381.8073    2848.2048    3022.2975    3378.7711   -1303.1621   -20.485935   -682.21507   -3091.3321 
 2572000    273.34739    -3808.934   -3340.4259    -3808.934            0    4340.6319    17.326752    20.408625    21.138597    7474.9291    4313.0933    5317.2808    3391.5217    -879.7235   -1186.4389   -913.86132   -2867.2355 
 2573000    251.33521   -3858.9805   -3428.2005   -3858.9805            0    5007.2199    17.300935    20.378216      21.1071    7441.5653    3925.6586    5962.8107    5133.1903    -430.7019    217.43712    2346.5557    -2884.779 
 2574000    274.76112   -3885.3602    -3414.429   -3885.3602            0    3610.0233    17.369294    20.458734    21.190499    7530.1238    4463.0095    2950.7746    3416.2856    1299.6179    640.33145   -758.14972   -3017.9794 
 2575000    266.70546   -3866.5374   -3409.4134   -3866.5374            0    6112.1213    17.358195    20.445661    21.176958    7515.6975    5600.7577    6642.4694    6093.1367   -289.79626    1048.2585    -486.8259   -2739.4715 
 2576000    255.76717   -3859.2061   -3420.8299   -3859.2061            0    4254.8144    17.443855    20.546557    21.281462    7627.5132     6106.426    3561.1158    3096.9013   -320.42676   -278.97251   -211.03627   -2947.5267 
 2577000    249.11907   -3815.7206   -3388.7391   -3815.7206            0    5017.5099      17.4052    20.501026    21.234303    7576.9184    3887.1178    3868.0765    7297.3354   -1098.0018   -78.111587   -955.92894   -2834.2963 
 2578000    271.21655   -3806.6403   -3341.7844   -3806.6403            0    4045.9676    17.431287    20.531754    21.266129    7611.0389    3545.7044    3885.3794     4706.819   -1198.4791    339.00455   -1014.0983   -2892.6852 
 2579000    258.99322   -3831.1089   -3387.2034   -3831.1089            0    4568.5577    17.338918    20.422956     21.15344    7490.6862    6160.0141    3483.4463    4062.2127   -440.36012     989.4661    810.03341    -2888.116 
 2580000    280.21702   -3812.7797   -3332.4973   -3812.7797            0    4355.7796    17.371768    20.461648    21.193516    7533.3414    3443.1219    6283.0223    3341.1947   -413.07223   -491.92593     133.3976    -2853.945 
 2581000    257.62829   -3845.5363   -3403.9703   -3845.5363            0    4671.0794    17.372871    20.462948    21.194862    7534.7769    4259.5998       4284.9    5468.7382    219.20807   -1835.3942   -338.72902   -2890.6794 
 2582000    260.20342   -3875.0473   -3429.0676   -3875.0473            0     3036.975     17.39272    20.486327    21.219078    7560.6323    3196.3952    2071.6954    3842.8344   -378.51632    266.23872    807.71198   -3094.1984 
 2583000    252.28066   -3847.1981   -3414.7977   -3847.1981            0    4706.5455     17.26223    20.332626     21.05988    7391.7326    4894.6296    4298.8772    4926.1296     -510.589    1726.1198   -710.10919   -2907.4281 
 2584000    272.79557   -3818.8663    -3351.304   -3818.8663            0    4961.0368    17.319788    20.400422    21.130101    7465.9195     3390.027    6826.2038    4666.8795   -495.29964   -29.996392   -631.14997   -2811.1326 
 2585000    256.99708   -3837.1326   -3396.6484   -3837.1326            0    4950.5435    17.256837    20.326275    21.053301    7384.8079    5402.3982    4415.6848    5033.5476     1932.359     136.3428   -309.78136   -2863.4757 
 2586000    268.01128   -3871.3457   -3411.9836   -3871.3457            0     4866.513    17.328891    20.411145    21.141207    7477.6978    4488.2446    4316.7122    5794.5821   -965.19461    274.37035   -530.30075   -2881.2682 
 2587000    253.31397   -3876.7469   -3442.5754   -3876.7469            0    5802.6376    17.303017    20.380668     21.10964    7444.2523    7426.0621    3940.3751    6041.4757   -1599.2101   -125.74444   -310.91905   -2812.6017 
 2588000    273.36902   -3843.6981    -3375.153   -3843.6981            0     6224.495    17.303434     20.38116     21.11015    7444.7912    7868.5367    4633.6717    6171.2765    1052.1806    1235.6869    1638.5244   -2699.3306 
 2589000     244.4508   -3875.3595   -3456.3792   -3875.3595            0     2692.304    17.372474    20.462479    21.194377    7534.2594    3303.5543     2514.643    2258.7148    273.32513   -27.763175    1530.5897   -3160.5503 
 2590000    274.16186   -3889.1929   -3419.2888   -3889.1929            0     5323.028     17.32787    20.409942    21.139961    7476.3763    5284.4075    5848.2026    4836.4738    2214.4563   -445.13009    989.61429    -2838.891 
 2591000    249.18027   -3857.2421   -3430.1556   -3857.2421            0    3109.3571    17.340696    20.425049    21.155608    7492.9898    3711.6445     2305.389    3311.0378    137.55061   -825.94169    921.45326   -3090.3726 
 2592000    279.45479   -3895.5513   -3416.5754   -3895.5513            0    5399.7613    17.365996     20.45485    21.186475    7525.8349    5051.5788    5436.4167    5711.2885   -711.55947   -549.69458    31.838775   -2823.9161 
 2593000    250.59437   -3894.6509   -3465.1407   -3894.6509            0    4191.1468    17.436512    20.537908    21.272504     7617.885    3922.0802    3669.8843    4981.4758   -282.03855    127.85096   -231.72874   -2999.5083 
 2594000    262.05443   -3893.8227   -3444.6704   -3893.8227            0    4689.4487    17.406268    20.502285    21.235607    7578.3142    5359.5637    4218.2911    4490.4914   -340.35787   -153.51182   -612.11057   -2926.3834 
 2595000    256.46662   -3884.1159   -3444.5409   -3884.1159            0    5346.8568    17.394324    20.488216    21.221034    7562.7236    5137.0742    5904.5222    4998.9741   -736.37325    544.63392     377.0591   -2854.8116 
 2596000    262.97129   -3859.7818    -3409.058   -3859.7818            0    4374.8383    17.408666    20.505109    21.238532    7581.4463     4770.536     3547.541    4806.4379     1911.689    904.54476    214.81121   -2925.3425 
 2597000    262.39839   -3837.4593   -3387.7174   -3837.4593            0    6048.9387    17.262187    20.332576    21.059827    7391.6777    5835.4313    5592.6568    6718.7279   -385.49912    997.03381   -960.30345   -2735.6416 
 2598000     255.3192   -3879.4851   -3441.8767   -3879.4851            0    3780.6776    17.347167    20.432672    21.163504    7501.3823     4504.829    4859.6488    1977.5549    1096.0201   -28.908281    2364.7769   -3028.2707 
 2599000    276.30284   -3872.6483   -3399.0747   -3872.6483            0    4007.8374    17.254774    20.323844    21.050784    7382.1592    4552.0511      3726.81    3744.6512    550.97345   -540.98534    131.17445    -2967.586 
 2600000    251.63032   -3862.4364   -3431.1507   -3862.4364            0    5007.6644    17.344551    20.429589    21.160311    7497.9879    3694.7666    5886.6437     5441.583   -1371.0152   -194.94812    1289.1836   -2883.5602 
 2601000    251.94297   -3881.2441   -3449.4224   -3881.2441            0    5904.2048    17.275766    20.348571    21.076395    7409.1358    4497.7793    6096.5806    7118.2546    622.37363   -704.70047   -1503.5568   -2811.4457 
 2602000    262.81397   -3869.1593   -3418.7051   -3869.1593            0     2713.212     17.50276    20.615939    21.353326    7705.0449    1460.9727    3202.9067    3475.7565    825.44099   -1007.5287    686.95726    -3113.821 
 2603000    272.37461   -3897.4965   -3430.6557   -3897.4965            0    4756.8887    17.360998    20.448962    21.180377    7519.3385    4812.0496    5926.6714    3531.9452    1174.5908    475.29613    1379.1879   -2909.0065 
 2604000    272.13695   -3882.9608   -3416.5273   -3882.9608            0    5351.5898    17.237377    20.303353     21.02956    7359.8531    6577.2827    3802.2921    5675.1945   -369.23936    103.85784    766.50081   -2842.1096 
 2605000    262.09575   -3843.1482   -3393.9251   -3843.1482            0    4500.9116    17.323087    20.404308    21.134125    7470.1863    5481.1261    3617.7672    4403.8414   -1504.8589   -421.36402    361.58352   -2903.5733 
 2606000    251.17575   -3859.9753   -3429.4687   -3859.9753            0    3605.8178     17.37171     20.46158    21.193446    7533.2659    3932.3617    4088.1962    2796.8956    1018.4291    599.40234     1253.368   -3033.3157 
 2607000    250.30758   -3864.0687   -3435.0501   -3864.0687            0    3124.6149    17.432238    20.532873    21.267289    7612.2845    5026.9554    3084.3192    1262.5702   -373.71241   -307.65071   -188.55155   -3088.1636 
 2608000    264.01887   -3855.5989   -3403.0795   -3855.5989            0    4677.8612    17.347074    20.432562     21.16339    7501.2614    4151.2139    4188.8837    5693.4861    222.70014    230.33259     203.2118   -2891.3299 
 2609000    270.64115   -3860.2154   -3396.3458   -3860.2154            0    5824.9641     17.27451    20.347091    21.074862    7407.5195    4879.3741    7057.5701    5537.9482    1031.6364   -414.33677    16.021776   -2767.0686 
 2610000    247.27196   -3831.3533   -3407.5377   -3831.3533            0    2088.5519    17.343539    20.428398    21.159077    7496.6763    639.18704    2630.1746    2996.2939    193.06771    517.02871   -79.752681   -3179.1935 
 2611000    262.31061   -3837.4995   -3387.9081   -3837.4995            0    4751.2108    17.311094    20.390182    21.119494    7454.6816    4953.1601    4261.1982    5039.2742   -1560.5108   -463.50112    1814.8576   -2871.3617 
 2612000    255.72325   -3845.6864   -3407.3855   -3845.6864            0    5554.3122     17.29341    20.369352    21.097919    7431.8593    5981.1151    5135.5921    5546.2293   -2815.6685    2003.0508   -942.64953   -2805.3755 
 2613000     259.1836   -3866.4727   -3422.2408   -3866.4727            0    4068.0975    17.358412    20.445917    21.177222    7515.9794    3083.7536    5901.9764    3218.5625    703.57333   -253.07251    401.38902   -2976.3251 
 2614000    284.71656   -3852.1595   -3364.1651   -3852.1595            0    6104.3232    17.292691    20.368506    21.097042    7430.9325    4773.6032    7863.2015    5676.1648    194.40409   -2.7418631     40.54898   -2702.6242 
 2615000    267.05886   -3841.8712   -3384.1414   -3841.8712            0     3862.444    17.393576    20.487335    21.220122    7561.7479    4586.5035    2208.7672    4792.0614   -566.57087   -1102.3047   -154.91426   -2958.1898 
 2616000    254.50154   -3849.5248   -3413.3179   -3849.5248            0     3489.715    17.408878    20.505358     21.23879     7581.723    3171.5493    1823.6352    5473.9606   -311.98931   -557.33546   -339.98371   -3027.4544 
 2617000    251.93099   -3861.3701    -3429.569   -3861.3701            0    5274.5547    17.330417    20.412942    21.143068    7479.6728    7262.1709     4021.464    4540.0294   -393.37559   -777.31101    -617.1205   -2854.2029 
 2618000     263.4938   -3876.5769   -3424.9575   -3876.5769            0    4030.8022     17.30761    20.386078    21.115244     7450.182    4004.5376    4237.4228    3850.4463    272.84781    734.02458    -682.0577   -2986.9977 
 2619000    277.87232   -3872.1947   -3395.9311   -3872.1947            0    3670.5862    17.279408    20.352861    21.080838    7413.8227    1711.7716    5175.3034    4124.6836    359.58023    163.05603   -18.472524   -2999.0563 
 2620000    254.98918   -3853.6213   -3416.5786   -3853.6213            0    4720.5236    17.263268     20.33385    21.061147    7393.0672    6244.6988    3519.3821    4397.4901    746.59486   -1311.8317    81.197877   -2907.6103 
 2621000    263.14027   -3862.6437   -3411.6303   -3862.6437            0    5100.0925    17.213591    20.275336     21.00054    7329.4267    5105.2841    6317.9102    3877.0833   -653.73256   -886.63462    98.589152   -2866.4703 
 2622000    277.69914   -3843.5457   -3367.5788   -3843.5457            0    4168.5628    17.319646    20.400255    21.129927    7465.7356    4313.8353    5011.2199    3180.6333    -1209.255   -292.48625    1351.3338   -2913.7053 
 2623000    245.34211   -3844.3691   -3423.8612   -3844.3691            0    6326.9854    17.257096    20.326579    21.053616    7385.1397    6339.5232    5094.9678    7546.4652    1802.1181   -369.66024   -427.63059   -2742.4152 
 2624000     261.0213   -3843.4763   -3396.0947   -3843.4763            0    5467.1831    17.251864    20.320417    21.047234    7378.4254     5451.335    5740.6556    5209.5587   -203.58625   -482.52634    589.21059   -2807.7888 
 2625000    263.95735   -3828.0079    -3375.594   -3828.0079            0    4918.3309    17.244565     20.31182    21.038329    7369.0642    4779.2762    4157.3459    5818.3707    308.18136    530.05524    1943.2734   -2847.0198 
 2626000    273.06311   -3893.6272   -3425.6064   -3893.6272            0     5565.534    17.283526    20.357711    21.085862    7419.1242    5392.5272     5380.974    5923.1007   -393.73763    672.50451   -71.124051   -2823.4138 
 2627000    269.17951   -3880.9454    -3419.581   -3880.9454            0    5729.4227    17.297815    20.374541    21.103294    7437.5405    7091.0075    5025.0336    5072.2271   -177.23282   -14.788531   -1459.9237   -2798.1168 
 2628000    258.17455      -3885.3   -3442.7977      -3885.3            0    6650.1947    17.223983    20.287577    21.013219    7342.7098     6976.919    5400.8582    7572.8069   -31.251622    29.632496    -1767.005   -2730.6557 
 2629000    281.69375   -3909.0146   -3426.2012   -3909.0146            0    3691.2883    17.334773    20.418073    21.148383    7485.3149    5626.1386    2143.8462      3303.88   -127.06064    1369.9686   -899.28282   -3023.2393 
 2630000    259.50022    -3926.779   -3482.0045    -3926.779            0    3853.0312    17.303993    20.381818     21.11083    7445.5116    5631.6724    2219.9593    3707.4619   -302.48435    -1540.295   -560.28289   -3063.6225 
 2631000    255.78635   -3935.0682   -3496.6591   -3935.0682            0    4510.3118    17.295729    20.372084    21.100749    7434.8498    5439.2408    2705.0328    5386.6619    1466.1555    122.75539   -1160.5284   -3007.6076 
 2632000    261.49013    -3880.175   -3431.9898    -3880.175            0    2948.2742    17.370273    20.459887    21.191692    7531.3962     1794.486    2760.0935     4290.243    191.81683    123.76773    397.61738   -3108.1582 
 2633000    251.55813   -3873.6525   -3442.4905   -3873.6525            0    5157.8711    17.242815    20.309758    21.036193      7366.82    4457.3039    5801.5613    5214.7481    301.18675    -1158.391   -1221.3454   -2888.3416 
 2634000    255.06053   -3914.2259   -3477.0609   -3914.2259            0    4141.1597    17.299237    20.376216    21.105028    7439.3742     4028.533    4589.3828    3805.5634   -26.966281    154.84449   -1259.2283   -3027.7631 
 2635000    243.42363   -3904.9392   -3487.7194   -3904.9392            0    5627.4067    17.337062    20.420769    21.151175    7488.2802    4841.9489     6847.107     5193.164      121.579    1140.1792    760.83188   -2873.1566 
 2636000    249.45854   -3854.6197   -3427.0563   -3854.6197            0    4062.6195    17.321864    20.402867    21.132633    7468.6041    3233.7479    6211.5716    2742.5389    518.97687    524.02885    1671.6318   -2984.5479 
 2637000    248.04214   -3854.5253   -3429.3896   -3854.5253            0     4049.329    17.282442    20.356434    21.084539    7417.7279    4844.3218    4040.0425    3263.6226   -1419.4233   -448.47969   -981.00172   -2991.3333 
 2638000    272.13575   -3856.8192   -3390.3879   -3856.8192            0    4910.0024    17.292139    20.367855    21.096369    7430.2209    3143.2288    6072.5845    5514.1939    64.753426    909.18059    608.46733   -2858.3295 
 2639000    252.06277   -3897.1813   -3465.1543   -3897.1813            0    4552.6991    17.313133    20.392584    21.121982    7457.3171    2027.1723    5887.4848    5743.4403     1108.054    -504.6884    1457.8961    -2970.015 
 2640000    273.74316   -3866.3759   -3397.1895   -3866.3759            0    2512.7227    17.383604    20.475589    21.207956    7548.7497    346.88814    3871.5191    3319.7608    -2315.965    24.868796   -445.71202   -3120.5619 
 2641000     270.1196    -3888.502   -3425.5262    -3888.502            0    5514.2179    17.253126    20.321903    21.048773    7380.0438    4775.1438    5704.7632    6062.7466   -283.10852   -1383.5478    1059.9686   -2832.0289 
 2642000    256.47927   -3852.2852   -3412.6885   -3852.2852            0    5407.9241    17.274015    20.346508    21.074258     7406.883    3754.0103     6318.675    6151.0872   -919.03507   -796.60745     280.7631   -2828.5149 
 2643000     253.8492   -3830.1438   -3395.0549   -3830.1438            0    3893.5109    17.338649    20.422638    21.153111    7490.3369    6085.9526     3954.375    1640.2051   -102.42286    1734.7467   -487.16529   -2969.7322 
 2644000    254.42654   -3839.9813   -3403.9029   -3839.9813            0    3864.2278    17.379964    20.471302    21.203515    7544.0091    4245.0204    2087.8739    5259.7892    612.65576   -265.88064   -1741.8798   -2978.7542 
 2645000    262.00595   -3817.7679   -3368.6987   -3817.7679            0    4489.0263    17.465523    20.572079    21.307897    7655.9729     5915.582    3427.6986    4123.7982    834.29531    1248.1061   -584.58926   -2867.4786 
 2646000    245.85167   -3839.0609   -3417.6796   -3839.0609            0    4320.4973    17.338885    20.422916    21.153399    7490.6422    5356.8106    5526.7496    2077.9317    63.663598     -398.185   -424.32706   -2945.6941 
 2647000    254.77639   -3839.5469   -3402.8689   -3839.5469            0    5066.2167    17.285758     20.36034    21.088585    7421.9991    5870.1298    5606.8248    3721.6955    253.48503    493.43966   -286.24626   -2854.4902 
 2648000    260.20098   -3894.9986   -3449.0231   -3894.9986            0    5212.4542    17.260569    20.330671    21.057854       7389.6    6053.8642    4880.3787    4703.1196     461.3627    1512.9397   -327.93225   -2887.2783 
 2649000    276.08789   -3831.2553   -3358.0501   -3831.2553            0    3567.7703    17.331342    20.414032    21.144197    7480.8715    3653.6692    4971.0557     2078.586    785.22931    630.23678   -455.11694   -2968.8034 
 2650000    270.13533   -3882.2888   -3419.2861   -3882.2888            0    6040.8806    17.286333    20.361017    21.089286    7422.7397    5283.8964    7450.1883     5388.557   -291.32888    443.81272   -246.20361   -2765.3424 
 2651000    255.62896   -3816.7441   -3378.6048   -3816.7441            0    6645.8136    17.274006    20.346498    21.074247    7406.8714    6075.1234    7181.5789    6680.7385   -674.71328    541.69051   -310.19364   -2660.7132 
 2652000    253.04285   -3872.7741   -3439.0673   -3872.7741            0    4888.9926    17.312462    20.391793    21.121163    7456.4491    5729.4423      5546.66    3390.8756    1377.7813    -1541.622    1090.5995   -2907.4155 
 2653000    264.33543   -3872.4785   -3419.4166   -3872.4785            0    5141.5921    17.385897     20.47829    21.210754    7551.7378    6667.5951    5324.7799    3432.4012    400.70473    -301.4929   -465.48986   -2853.1507 
 2654000    251.19737   -3880.8954   -3450.3517   -3880.8954            0    4038.4309    17.389354    20.482362    21.214972    7556.2436    3534.2965    5981.4516    2599.5446   -1074.7809    57.551092    36.842036   -3005.3163 
 2655000    256.20933   -3879.4094   -3440.2754   -3879.4094            0     4650.937    17.335999    20.419517    21.149879    7486.9037    4741.9258    4410.2317    4800.6535   -1500.2195    276.23546   -276.21645   -2932.4452 
 2656000    246.41631   -3913.8264   -3491.4773   -3913.8264            0    3492.0557    17.385914     20.47831    21.210774    7551.7593    4389.4577     3435.641    2651.0684   -735.75122   -743.44886   -659.61009   -3106.8809 
 2657000    253.38215   -3892.9943    -3458.706   -3892.9943            0    4178.6658    17.369423    20.458886    21.190655    7530.2911    5510.8644    2411.6572     4613.476    1628.1206   -495.33474   -503.68309   -2999.7983 
 2658000    273.72933   -3905.7356   -3436.5729   -3905.7356            0    4728.1053    17.313105    20.392551    21.121948    7457.2804    4535.5572    6128.2608    3520.4979   -351.08853    154.85465    262.01697   -2922.3594 
 2659000    263.40258   -3882.3202   -3430.8572   -3882.3202            0    4304.7179    17.354624    20.441455    21.172601    7511.0598    4006.8056    4559.2503    4348.0978   -1078.1858   -127.39454   -530.09371   -2959.3136 
 2660000    268.06312   -3839.3881   -3379.9371   -3839.3881            0    5259.9045    17.399233    20.493998    21.227023    7569.1286    7035.3648     4930.624    3813.7248   -951.63011     1842.404   -801.20424   -2799.3068 
 2661000    246.88788   -3873.5364   -3450.3791   -3873.5364            0    5370.2675    17.355214    20.442149     21.17332    7511.8255    5863.0872    4589.3496    5658.3656    83.309916   -1594.4351   -222.98404   -2862.0541 
 2662000    258.83633   -3878.1743   -3434.5377   -3878.1743            0    2846.4043    17.407951    20.504266    21.237659    7580.5118    2412.0188    2776.6916    3350.5024    1107.6395    1359.0003   -594.21055   -3119.8564 
 2663000    263.54412   -3862.3686    -3410.663   -3862.3686            0    3927.9371     17.35504    20.441944    21.173108    7511.5994    5242.9173    3507.9724    3032.9214   -526.36932    1023.1942    31.212879   -2980.3615 
 2664000    266.95207   -3890.9582   -3433.4115   -3890.9582            0    4554.7636    17.302266    20.379784    21.108724    7443.2831    6448.4999    5195.2095    2020.5814     282.7997    461.57721   -194.93763   -2938.9798 
 2665000    264.52566   -3886.8592   -3433.4713   -3886.8592            0    3510.6865    17.402593    20.497956    21.231123    7573.5146    4310.2651    3284.7467    2937.0477    1193.0187    1136.8016   -2115.2152   -3045.7091 
 2666000    278.17816   -3878.7939   -3402.0061   -3878.7939            0    5323.7689    17.356055     20.44314    21.174346    7512.9177    6566.6729     4417.706    4986.9279   -81.699152    254.89505     141.4394   -2818.6903 
 2667000    253.57666   -3876.0142   -3441.3925   -3876.0142            0    3731.9761    17.406799     20.50291    21.236254    7579.0076    2870.0565    3996.0136    4329.8583    396.30474    987.07295    1.7462761   -3028.8895 
 2668000    284.00312   -3853.8246    -3367.053   -3853.8246            0     5155.948    17.337097     20.42081    21.151218    7488.3258    6270.5627    4283.8246    4913.4566     276.9015   -1302.0507    457.97008   -2803.9743 
 2669000    280.28406   -3865.9824   -3385.5851   -3865.9824            0     3585.213    17.350713    20.436848    21.167829    7505.9827    3621.4922    3379.4342    3754.7126    92.339358   -1564.8005   -1171.5693   -2993.1224 
 2670000    260.53239    -3854.616   -3408.0725    -3854.616            0    5483.5489    17.334137    20.417324    21.147607    7484.4909     5387.461    4173.8958    6889.2899    605.02332   -328.11011   -262.77701   -2809.5232 
 2671000    256.62986   -3859.1925   -3419.3377   -3859.1925            0    6235.4737    17.237532    20.303536    21.029749    7360.0519    7551.0134    7714.2134    3441.1942   -112.44984    75.579017    257.68933   -2750.0294 
 2672000    263.52864   -3870.7046   -3419.0255   -3870.7046            0    4107.9852    17.328418    20.410587    21.140629    7477.0848    5653.2481    3632.8743    3037.8333    480.01859    758.47047   -995.78383   -2971.0677 
 2673000    274.80551   -3893.3765   -3422.3693   -3893.3765            0    6636.1201    17.241547    20.308265    21.034647    7365.1958    5204.9843    7597.7772    7105.5987   -415.41053    232.51945   -1378.5506   -2709.5582 
 2674000    265.70391   -3882.9419   -3427.5345   -3882.9419            0    4946.0455    17.262305    20.332715    21.059971     7391.829    5100.3897    4597.4039     5140.343    -216.5808    407.73421   -1197.1492   -2894.3397 
 2675000    271.32323   -3850.1488     -3385.11   -3850.1488            0    6392.9025    17.216822    20.279142    21.004483    7333.5552    4995.0772    7922.7697    6260.8605    334.36073   -1179.6525   -1063.6093   -2701.3739 
 2676000    252.99876   -3855.7624   -3422.1312   -3855.7624            0    4466.4532    17.295654    20.371996    21.100657    7434.7528    2659.0134    6314.7472    4425.5989    1243.0191   -92.155109   -1018.1247   -2937.8415 
 2677000    270.81391   -3826.8192   -3362.6534   -3826.8192            0    5880.8655    17.206758    20.267288    20.992205    7320.7022    4848.3595    7290.2962    5503.9409    1595.9843    383.19486   -684.81907   -2734.7832 
 2678000     262.5924   -3823.4023   -3373.3279   -3823.4023            0    6050.6439     17.27257    20.344806    21.072495    7405.0241    7052.5201    5725.4924    5373.9191   -83.485051   -426.69903     118.5606   -2719.8906 
 2679000    262.08802   -3846.6836   -3397.4737   -3846.6836            0    3926.3386    17.310491    20.389472    21.118758     7453.903    2898.7106    5061.1018    3819.2036   -606.56222   -63.433211    253.16905   -2970.6511 
 2680000    262.87468   -3876.4355   -3425.8772   -3876.4355            0     4468.921    17.332073    20.414892    21.145088    7481.8173    4723.1174    3722.1447    4961.5009   -699.82828    310.50341   -876.02338   -2938.2526 
 2681000    269.80107   -3880.5972   -3418.1674   -3880.5972            0     5356.413    17.344176    20.429148    21.159854    7497.5019    5364.2781     5938.968    4765.9931    -20.67481    46.868902   -1976.1415   -2832.4791 
 2682000     273.0441   -3850.0664   -3382.0782   -3850.0664            0    4950.5496    17.317115    20.397274     21.12684    7462.4638    5415.7793    5235.5381    4200.3313    352.73083   -1069.4984    505.27689   -2843.2981 
 2683000    245.34075   -3850.9409   -3430.4352   -3850.9409            0    3440.9718    17.335201    20.418578    21.148905    7485.8698    4376.0105    2221.9847    3724.9201   -101.44643    -820.9221    212.02857   -3054.7715 
 2684000    265.50842   -3880.1223     -3425.05   -3880.1223            0    3323.0986     17.33293    20.415903    21.146135     7482.928    3121.4629    1947.1194    4900.7136    72.092947   -675.46151   -930.60515   -3062.3975 
 2685000    267.35907   -3831.9956   -3373.7513   -3831.9956            0     3544.178    17.274096    20.346603    21.074356    7406.9865    3326.3484    2707.4947     4598.691    1000.9511    307.31201    527.85381   -2990.8975 
 2686000    272.01057   -3829.8201   -3363.6033   -3829.8201            0    7002.9014    17.287668     20.36259    21.090915    7424.4598    6052.9652    5750.8732    9204.8658   -892.15456   -835.92178   -1161.0523   -2605.3423 
 2687000    269.46902   -3884.8457    -3422.985   -3884.8457            0    3429.6944    17.369673     20.45918     21.19096     7530.616    3530.2122    4596.2167    2162.6541     1059.355    1139.2304    628.66746   -3046.3143 
 2688000    268.84267   -3842.9238   -3382.1367   -3842.9238            0     5844.204    17.348031     20.43369    21.164558    7502.5033    6876.8116    6886.3356    3769.4648   -636.05902   -147.66421    898.92685   -2742.6854 
 2689000    247.40843   -3853.3603   -3429.3107   -3853.3603            0    5449.9667    17.384359    20.476479    21.208878     7549.734     5493.825    4966.0438    5890.0313   -1042.7411    162.64309    421.72002   -2829.2414 
 2690000    270.97093   -3844.7677   -3380.3328   -3844.7677            0    4394.2536    17.503895    20.617277    21.354711     7706.545    4620.3845    5313.4676    3248.9087    137.92047    607.06712     368.4801   -2886.4537 
 2691000    263.48803   -3847.5656   -3395.9561   -3847.5656            0    4630.6042    17.447097    20.550375    21.285417    7631.7668    6283.8579    2639.4502    4968.5044    773.10674   -890.52379    654.14455   -2880.5629 
 2692000    251.78209   -3820.1819   -3388.6361   -3820.1819            0     4747.507    17.382235    20.473977    21.206286    7546.9669    4936.0263    4796.9235    4509.5712   -1267.5811    1959.4546   -977.00356   -2866.1028 
 2693000    265.45626   -3857.0894   -3402.1065   -3857.0894            0    4640.5333    17.334562    20.417825    21.148125    7485.0417    4519.2245     4558.378    4843.9974   -1411.0472    1413.8129   -419.23353   -2895.5382 
 2694000    270.85635   -3848.3637   -3384.1252   -3848.3637            0    5054.1529    17.347003    20.432478    21.163303    7501.1684     5465.259     4116.734    5580.4656    204.24085     895.3574    1702.3527   -2831.2168 
 2695000    276.78898   -3890.4663   -3416.0595   -3890.4663            0    6330.9279    17.293521    20.369483    21.098055    7432.0026    5462.6062    5843.3712    7686.8063   -234.65624    408.65369   -1105.1579    -2729.862 
 2696000    267.77242   -3871.2713   -3412.3186   -3871.2713            0    5501.3366    17.307142    20.385527    21.114672    7449.5772     5405.966    7017.4857    4080.5581    766.39212    1442.7609   -387.52568   -2814.6289 
 2697000    257.31756    -3855.368   -3414.3345    -3855.368            0    4533.3791    17.297181    20.373795    21.102521    7436.7231    5441.1866    4612.4004    3546.5502    761.50506    813.05549   -262.16499   -2922.6579 
 2698000    261.40462   -3848.5467   -3400.5081   -3848.5467            0    3466.7206    17.348404    20.434129    21.165013    7502.9871    2363.3394    4436.2335     3600.589    659.70859    291.59813    27.028317   -3021.1679 
 2699000    269.28292   -3831.1523   -3369.6106   -3831.1523            0    3185.2925    17.347514     20.43308    21.163926    7501.8317    3394.7081    1396.9968    4764.1727   -183.75063   -278.55993    1845.7394   -3021.1188 
 2700000     265.5135   -3871.6026   -3416.5216   -3871.6026            0    5190.3562    17.338818    20.422837    21.153317    7490.5558    4489.3041    5516.6503    5565.1141   -62.579968    1598.9774   -1535.1589   -2849.5163 
 2701000    259.65976   -3865.6748   -3420.6269   -3865.6748            0    3709.8545    17.336789    20.420447    21.150842    7487.9262    3595.3956    3241.8928    4292.2751   -484.68652    1140.3101    -781.3374    -3015.497 
 2702000    265.98189   -3849.4289    -3393.545   -3849.4289            0    3581.6631    17.330953    20.413573    21.143722    7480.3674    4315.0793    2617.7494    3812.1607    10.838319   -7.5560462    546.21518   -3002.8089 
 2703000    266.71765   -3892.4996   -3435.3547   -3892.4996            0    5107.0471    17.264458    20.335251    21.062599     7394.596    5093.4575    5294.9447     4932.739    1253.9979   -361.23333    1443.8223   -2884.5975 
 2704000    258.76937   -3880.3157   -3436.7938   -3880.3157            0    5852.0301    17.274746    20.347369     21.07515    7407.8229    6002.3462    5581.2646    5972.4797    199.72513    1147.6155    1194.6538   -2804.5668 
 2705000    252.66744   -3876.4581   -3443.3948   -3876.4581            0    5112.4934    17.282516    20.356522     21.08463    7417.8241    4394.2301    5911.5872    5031.6629   -1066.8803    919.68113    1821.3297   -2890.3183 
 2706000    258.71228   -3858.0641   -3414.6401   -3858.0641            0    4936.6968    17.298668    20.375546    21.104334    7438.6404    4182.4369    4377.1345    6250.5188   -7.1860848   -1593.0364    361.23861   -2879.0828 
 2707000    250.62475   -3837.8792   -3408.3169   -3837.8792            0    3427.1774    17.355599    20.442603     21.17379    7512.3259    3310.0361    4091.4411     2880.055   -274.12475   -565.07056    1663.5453   -3032.8369 
 2708000    264.65084   -3846.8175    -3393.215   -3846.8175            0     4858.391    17.226675    20.290748    21.016503    7346.1532    4338.2592    6830.8985    3406.0153    32.522996     347.4477    739.02979   -2872.7059 
 2709000    262.25243   -3867.2802   -3417.7885   -3867.2802            0    6174.7592    17.171383    20.225621    20.949047    7275.6433    6440.1858    7903.7114    4180.3805    280.25837    1267.0101    1205.8197   -2762.5984 
 2710000    261.63296   -3841.5941   -3393.1642   -3841.5941            0    5784.4238    17.199731    20.259011    20.983632    7311.7368    6150.3101     5261.768    5941.1933    256.73814    -1619.044   -181.53483   -2776.3469 
 2711000    262.27487   -3886.1419   -3436.6118   -3886.1419            0    4970.2431    17.298047    20.374814    21.103577    7437.8396    5955.6361    4238.8555    4716.2378    1601.4915     114.7172    823.22639   -2897.4733 
 2712000    280.65115   -3895.8494    -3414.823   -3895.8494            0    5098.6498    17.269366    20.341032    21.068586    7400.9041    5867.1676    3460.5386    5968.2432    1126.6096   -828.79375    1040.2987   -2864.5023 
 2713000    269.90436   -3842.6555   -3380.0487   -3842.6555            0    4178.0593     17.29481    20.371001    21.099628    7433.6646    2592.3823    4890.2439    5051.5515    -255.6248   -1036.9996    1860.8246   -2927.0954 
 2714000    264.20283   -3852.9427   -3400.1081   -3852.9427            0    4261.7991    17.209784    20.270853    20.995897    7324.5656    4067.2169    3264.8107    5453.3696   -647.88645   -41.612782    771.90352   -2944.8573 
 2715000    264.17906   -3938.5022   -3485.7083   -3938.5022            0    3303.2436    17.278833    20.352183    21.080136    7413.0826    2217.4821    2759.2591    4932.9897   -282.27225    127.85575   -964.51816   -3128.5874 
 2716000    253.02962   -3856.7561    -3423.072   -3856.7561            0    3597.5883    17.261118    20.331317    21.058523    7390.3044    1756.9305    2910.3914    6125.4428     435.8392    1011.5925   -456.11977   -3035.3239 
 2717000    259.89065   -3897.0109   -3451.5672   -3897.0109            0    4315.5386    17.282715    20.356756    21.084872    7418.0798    4029.9297    5413.8029    3502.8831    352.85278   -69.314379   -323.97617   -2984.6903 
 2718000    262.37119   -3833.1745   -3383.4792   -3833.1745            0    4854.8523    17.309947    20.388832    21.118095    7453.2009    4097.3493    5514.4216     4952.786    64.034756   -1029.4544    459.99734   -2855.7699 
 2719000    263.87464   -3822.2886   -3370.0165   -3822.2886            0    4121.6349    17.348904    20.434717    21.165622    7503.6353    4220.1049    4812.4531    3332.3467   -359.76544     481.4985    658.43289   -2918.9744 
 2720000    266.66297   -3885.8907   -3428.8395   -3885.8907            0     5147.292    17.299017    20.375957     21.10476    7439.0909    5767.8096    4823.6543     4850.412    1311.1326   -823.26897    387.85505    -2870.402 
 2721000    263.99779   -3849.0057   -3396.5226   -3849.0057            0    4714.9245    17.286578    20.361305    21.089584    7423.0546    3973.9149    5027.4506     5143.408   -177.67858   -357.12437    -366.6978    -2886.096 
 2722000    268.91212   -3872.3189   -3411.4127   -3872.3189            0    5354.2003    17.249518    20.317653    21.044371    7375.4148    4866.2896    5548.2974    5648.0138   -1750.1005    356.83012    703.50328   -2835.4996 
 2723000    259.59813   -3860.9557   -3416.0133   -3860.9557            0    4716.8884    17.236305     20.30209    21.028252    7358.4795    1918.7985    6097.9159     6133.951   -1529.4344    621.83079   -295.91176   -2909.8163 
 2724000    260.12456   -3846.8318   -3400.9872   -3846.8318            0    3111.1484    17.381717    20.473367    21.205654    7546.2921    2988.4114    1401.4003    4943.6336   -647.18898    405.80374     482.9606     -3058.59 
 2725000    264.45956   -3869.7938   -3416.5191   -3869.7938            0    6195.7314    17.247466    20.315237    21.041869    7372.7838    8629.6321    3828.1535    6129.4087   -797.55727   -312.90419    2442.9792   -2750.3263 
 2726000    262.71464   -3845.7099    -3395.426   -3845.7099            0    4901.9331      17.3061      20.3843    21.113402    7448.2329    5302.4959    4324.0348    5079.2686    669.08044    366.49448    385.36259   -2862.9543 
 2727000    272.24299   -3818.1032    -3351.488   -3818.1032            0    4495.9065    17.333649    20.416749    21.147012    7483.8594    6342.5717    2550.1927     4594.955    98.120832   -617.08928    804.79017   -2860.7849 
 2728000    268.80283   -3839.0403   -3378.3214   -3839.0403            0    3062.2427    17.357625     20.44499    21.176262    7514.9575    5679.3593    179.34223    3328.0267     403.4354    1788.7609    321.15459   -3042.7059 
 2729000    268.41573   -3861.6183    -3401.563   -3861.6183            0    3755.0044    17.328466    20.410644    21.140688    7477.1475    2540.4978    4856.9694     3867.546   -488.99068   -121.40874    621.77506   -2992.0928 
 2730000    267.75162   -3856.0424   -3397.1252   -3856.0424            0    3541.7543    17.388453      20.4813    21.213872    7555.0684    3696.7392    4802.1823    2126.3415    365.84653    896.83064    170.68374   -3006.8844 
 2731000    275.83009   -3883.6702   -3410.9069   -3883.6702            0    3589.4983    17.376538    20.467266    21.199335    7539.5483    3963.9543    4907.1933    1897.3473   -1998.3957    -129.9401   -697.36088   -3016.2179 
 2732000    258.88539   -3851.5684   -3407.8477   -3851.5684            0    6597.6571    17.273325    20.345696    21.073417    7405.9957    8062.6326    4846.1367    6884.2019     168.5735    820.83313    843.55225   -2695.2423 
 2733000    257.64088   -3874.0791   -3432.4915   -3874.0791            0    4355.9908    17.323388    20.404663    21.134493    7470.5764    3510.2033    3736.2649    5821.5042   -520.12778   -744.65982   -1.3963809   -2957.9032 
 2734000    264.03339   -3860.8144   -3408.2702   -3860.8144            0    5182.7933    17.305089    20.383109    21.112169    7446.9276    6604.9077    3865.0863    5078.3858   -574.88785    276.11609   -580.31363   -2845.3888 
 2735000    264.40461   -3879.7416   -3426.5612   -3879.7416            0      4660.93    17.278513    20.351807    21.079746    7412.6709    6401.8031    4216.3024    3364.6846   -105.42576    -793.8126    367.79676   -2922.6857 
 2736000    263.06032   -3857.8793   -3407.0029   -3857.8793            0    2398.5374    17.371257    20.461046    21.192893    7532.6765    3189.4773    1054.9366    2951.1982    999.82875   -232.92813    739.36666   -3143.5083 
 2737000    268.52517   -3847.2821   -3387.0392   -3847.2821            0     4067.039    17.298569    20.375429    21.104213    7438.5124    5962.6854    3096.5457    3141.8859   -1251.1182   -86.818233   -621.92542   -2945.8343 
 2738000     271.3808   -3835.6986   -3370.5612   -3835.6986            0     5205.516    17.251489    20.319975    21.046776    7377.9438     5993.105    4776.9656    4846.4772    1070.6981   -1524.4997    992.69162   -2810.4491 
 2739000    257.39582   -3862.2642   -3421.0966   -3862.2642            0    5778.4995    17.262069    20.332437    21.059684    7391.5265     6737.062    4586.2034     6012.233    -239.1395    195.30938    464.02777   -2798.1868 
 2740000    261.34487   -3845.5195   -3397.5834   -3845.5195            0     5916.806    17.256513    20.325892    21.052905    7384.3911     6146.011    3529.5176    8074.8894    887.28794   -936.99693    142.29978   -2760.3802 
 2741000    250.37646   -3848.4414   -3419.3047   -3848.4414            0    5245.0956    17.272703    20.344962    21.072657    7405.1947    5420.7333    4259.3836      6055.17   -895.07472    247.22918    955.71386   -2852.8492 
 2742000    267.25948   -3843.6898   -3385.6162   -3843.6898            0     6239.632    17.254866    20.323953    21.050896    7382.2777    5221.2824    6366.5541    7131.0595    1575.1615   -970.36785    1549.7895    -2713.839 
 2743000     268.3805   -3811.3576   -3351.3626   -3811.3576            0     3772.819    17.236689    20.302542     21.02872    7358.9711    3088.2802    2552.1908     5677.986   -1157.4862    564.57288   -457.84508   -2946.4522 
 2744000      280.284   -3855.5441   -3375.1469   -3855.5441            0    6112.4017    17.119803    20.164867     20.88612     7210.276    5284.1584    6901.6221    6151.4247    23.588197   -1522.1951    1775.8644   -2732.4005 
 2745000     288.2019   -3866.1218   -3372.1536   -3866.1218            0    5265.9662    17.255391    20.324572    21.051537    7382.9515    5294.8391    6405.2705    4097.7889    1614.5986   -1599.0922    379.64009   -2805.1524 
 2746000    254.64436   -3858.3012   -3421.8495   -3858.3012            0    3518.9067     17.21311     20.27477    20.999954     7328.813    3524.1823    2855.2941    4177.2437   -1313.6716    -444.7267    -50.67841   -3045.7374 
 2747000    263.51816   -3876.9263   -3425.2652   -3876.9263            0    5024.4293    17.267584    20.338933    21.066412     7398.613    3310.9423    7005.8752    4756.4703    1205.3617    757.42789    973.39904   -2883.1234 
 2748000    276.14499      -3859.4   -3386.0969      -3859.4            0    4498.4373     17.32188    20.402886    21.132653    7468.6248    3976.7787    3727.6544    5790.8789    1158.5849    540.62977   -1808.5463   -2896.1171 
 2749000    253.15995   -3861.8749   -3427.9674   -3861.8749            0    4787.3504    17.294689    20.370859     21.09948    7433.5085    4088.6937    5383.8607    4889.4968   -354.29692    894.12527    661.44522   -2908.9702 
 2750000    292.16709   -3872.5604    -3371.796   -3872.5604            0    4178.4148    17.255632    20.324856    21.051831    7383.2612    4531.2121    3897.3318    4106.7004   -487.73126   -24.180313    272.70295   -2921.8757 
Loop time of 482.09 on 64 procs for 250000 steps with 864 atoms

Performance: 89.610 ns/day, 0.268 hours/ns, 518.575 timesteps/s
99.1% CPU use with 64 MPI tasks x 1 OpenMP threads

MPI task timing breakdown:
Section |  min time  |  avg time  |  max time  |%varavg| %total
---------------------------------------------------------------
Pair    | 20.215     | 25.177     | 29.479     |  45.4 |  5.22
Bond    | 0.26739    | 0.27789    | 0.2923     |   0.8 |  0.06
Kspace  | 211.13     | 219.94     | 229.23     |  27.3 | 45.62
Neigh   | 5.3437     | 6.1067     | 6.9638     |  17.4 |  1.27
Comm    | 101.77     | 111.07     | 120.91     |  41.4 | 23.04
Output  | 0.8815     | 0.88294    | 0.8845     |   0.1 |  0.18
Modify  | 108.38     | 112.08     | 117.33     |  17.0 | 23.25
Other   |            | 6.558      |            |       |  1.36

Nlocal:        13.5000 ave          18 max           9 min
Histogram: 3 2 6 8 13 11 10 7 2 2
Nghost:        2176.31 ave        2238 max        2133 min
Histogram: 6 6 12 9 8 7 9 3 1 3
Neighs:        4179.61 ave        5687 max        2557 min
Histogram: 1 5 5 11 6 12 10 6 4 4

Total # of neighbors = 267495
Ave neighs/atom = 309.60069
Ave special neighs/atom = 2.0000000
Neighbor list builds = 14324
Dangerous builds = 0

unfix		3
unfix		2
unfix		1

write_data	data.final.${pid}
write_data	data.final.0
System init for write_data ...
PPPM initialization ...
  extracting TIP4P info from pair style
  using 12-bit tables for long-range coulomb (../kspace.cpp:340)
  G vector (1/distance) = 0.37447074
  grid = 24 24 25
  stencil order = 5
  estimated absolute RMS force accuracy = 0.0030487703
  estimated relative force accuracy = 9.1812813e-06
  using double precision FFTW3
  3d grid and FFT values/proc = 2730 288
Last active /omp style is kspace_style pppm/tip4p/omp
WARNING: Not all mixed pair coeffs generated from mixing. Use write_data with 'pair ij' option to store all pair coeffs. (../write_data.cpp:312)

write_restart   restart.lmp.${pid}
write_restart   restart.lmp.0
System init for write_restart ...
PPPM initialization ...
  extracting TIP4P info from pair style
  using 12-bit tables for long-range coulomb (../kspace.cpp:340)
  G vector (1/distance) = 0.37447074
  grid = 24 24 25
  stencil order = 5
  estimated absolute RMS force accuracy = 0.0030487703
  estimated relative force accuracy = 9.1812813e-06
  using double precision FFTW3
  3d grid and FFT values/proc = 2730 288
Last active /omp style is kspace_style pppm/tip4p/omp
Total wall time: 0:08:04
