LAMMPS (30 Jul 2021)
  using 1 OpenMP thread(s) per MPI task
package omp 0
using multi-threaded neighbor list subroutines
echo both

include		in.partitions
variable        pid world 0
include		in.temp
variable        temperature equal 233.79
variable	tempDamp equal 100.0
include		in.pressure
variable        pressure equal 3250.0
variable        pressureDamp equal 1000.0 # This is 1 ps
include		in.seed
variable        seed world 745823

units		real
atom_style	full
read_restart	restart.lmp.${pid}
read_restart	restart.lmp.0
Reading restart file ...
  restart file = 30 Jul 2021, LAMMPS = 30 Jul 2021
  restoring atom style full from restart
  orthogonal box = (0.37116331 1.5287126 0.45281837) to (17.836409 22.100465 21.760377)
  4 by 4 by 4 MPI processor grid
  restoring pair style lj/cut/tip4p/long/omp from restart
  restoring bond style harmonic/omp from restart
  restoring angle style harmonic/omp from restart
  864 atoms
  576 bonds
  288 angles
Finding 1-2 1-3 1-4 neighbors ...
  special bond factors lj:    0        0        0       
  special bond factors coul:  0        0        0       
     2 = max # of 1-2 neighbors
     1 = max # of 1-3 neighbors
     1 = max # of 1-4 neighbors
     2 = max # of special neighbors
  special bonds CPU = 1.802 seconds
  read_restart CPU = 2.219 seconds
include 	in.setup
variable	out_freq equal 1000
variable	out_freq2 equal 10000
variable	out_freq3 equal 1000

timestep	2.0

neigh_modify    delay 7 every 1

include		in.tip4p
# This is TIP4P/Ice

# create groups ###
group ox type 2
288 atoms in group ox
group hy type 1
576 atoms in group hy

# set charges - beside manually ###
set group ox charge -1.1794
Setting atom values ...
  288 settings made for charge
set group hy charge 0.5897
Setting atom values ...
  576 settings made for charge

# ### TIP3P Potential Parameters ###
pair_style lj/cut/tip4p/long/omp 2 1 1 1 0.1577 8.5
pair_coeff 1 1*2 0.000 0.000
pair_coeff 2 2 0.21084 3.1668
bond_style  harmonic
bond_coeff  1 450 0.9572
angle_style harmonic
angle_coeff 1 55 104.52
kspace_style pppm/tip4p/omp 1.0e-5
pair_modify tail yes

thermo          ${out_freq}
thermo          1000
thermo_style    custom step temp pe etotal epair emol press lx ly lz vol pxx pyy pzz pxy pxz pyz enthalpy

restart 	${out_freq3} restart.lmp.${pid} restart2.lmp.${pid}
restart 	1000 restart.lmp.${pid} restart2.lmp.${pid}
restart 	1000 restart.lmp.0 restart2.lmp.${pid}
restart 	1000 restart.lmp.0 restart2.lmp.0


include         in.dump
dump            myDump all atom ${out_freq2} dump.water.${pid}
dump            myDump all atom 10000 dump.water.${pid}
dump            myDump all atom 10000 dump.water.0
dump            myDump2 all dcd ${out_freq2} dump.dcd
dump            myDump2 all dcd 10000 dump.dcd
dump_modify     myDump append yes
dump_modify     myDump2 append yes


variable natoms 	equal  "count(all)"                        # NUMBER ATOMS
variable H      	equal  "enthalpy/v_natoms"                 # ENTHALPY-per-atom
variable Vol      	equal  "vol/v_natoms"                 # volume-per-atom
fix AVG all 		ave/time ${out_freq} 1 ${out_freq} v_Vol v_H file vol_enthalpy.dat
fix AVG all 		ave/time 1000 1 ${out_freq} v_Vol v_H file vol_enthalpy.dat
fix AVG all 		ave/time 1000 1 1000 v_Vol v_H file vol_enthalpy.dat


timer           timeout 23:50:00 every 1000
New timer settings: style=normal  mode=nosync  timeout=23:50:00

fix 		1 all shake 1e-6 200 0 b 1 a 1
       0 = # of size 2 clusters
       0 = # of size 3 clusters
       0 = # of size 4 clusters
     288 = # of frozen angles
  find clusters CPU = 0.027 seconds
fix             2 all nph iso ${pressure} ${pressure} ${pressureDamp}
fix             2 all nph iso 3250 ${pressure} ${pressureDamp}
fix             2 all nph iso 3250 3250 ${pressureDamp}
fix             2 all nph iso 3250 3250 1000
fix             3 all temp/csvr ${temperature} ${temperature} ${tempDamp} ${seed}
fix             3 all temp/csvr 233.79 ${temperature} ${tempDamp} ${seed}
fix             3 all temp/csvr 233.79 233.79 ${tempDamp} ${seed}
fix             3 all temp/csvr 233.79 233.79 100 ${seed}
fix             3 all temp/csvr 233.79 233.79 100 745823

run             250000
PPPM initialization ...
  extracting TIP4P info from pair style
  using 12-bit tables for long-range coulomb (../kspace.cpp:340)
  G vector (1/distance) = 0.37347594
  grid = 24 24 25
  stencil order = 5
  estimated absolute RMS force accuracy = 0.0031601415
  estimated relative force accuracy = 9.5166721e-06
  using double precision FFTW3
  3d grid and FFT values/proc = 2730 288
Last active /omp style is kspace_style pppm/tip4p/omp
Neighbor list info ...
  update every 1 steps, delay 7 steps, check yes
  max neighbors/atom: 2000, page size: 100000
  master list distance cutoff = 10.8154
  ghost atom cutoff = 10.8154
  binsize = 5.4077, bins = 4 4 4
  1 neighbor lists, perpetual/occasional/extra = 1 0 0
  (1) pair lj/cut/tip4p/long/omp, perpetual
      attributes: half, newton on, omp
      pair build: half/bin/newton/omp
      stencil: half/bin/3d
      bin: standard
Per MPI rank memory allocation (min/avg/max) = 9.237 | 9.241 | 9.247 Mbytes
Step Temp PotEng TotEng E_pair E_mol Press Lx Ly Lz Volume Pxx Pyy Pzz Pxy Pxz Pyz Enthalpy 
 3000000    240.65891   -3943.0619   -3530.5808   -3943.0619            0    5417.3936    17.465246    20.571753    21.307559    7655.6081    3920.9002     5932.439    6398.8418   -172.47715   -365.97544   -1149.3133   -2925.7331 
 3001000    235.26285   -3961.1434   -3557.9109   -3961.1434            0    1588.9094    17.547686    20.668857    21.408136    7764.5302    1124.1276    770.31211    2872.2885   -1117.2594    378.00909    761.81773   -3377.9865 
 3002000    231.56139   -3970.5839   -3573.6956   -3970.5839            0    2512.0132    17.588388    20.716797    21.457792    7818.6842    3697.6929    1204.8813    2633.4654   -896.06261    608.74633     187.9977    -3287.257 
 3003000    233.45544   -3967.1627   -3567.0281   -3967.1627            0    3892.1874    17.497964     20.61029    21.347475    7698.7128     2225.805    4566.7015    4884.0557   -64.033019   -1001.7553    -880.2567   -3130.0217 
 3004000    221.36902   -3986.6075   -3607.1886   -3986.6075            0    3673.2366    17.517366    20.633143    21.371145    7724.3508    4282.7032     2247.331    4489.6755    1828.5404   -1783.0329   -333.17765   -3193.3921 
 3005000    238.81922   -3982.6436   -3573.3157   -3982.6436            0    3986.3338    17.475725    20.584095    21.320343    7669.3962    3178.4839    4515.8855    4264.6321   -369.59994    328.86284   -774.72613   -3127.4431 
 3006000    238.91526   -3973.7597   -3564.2672   -3973.7597            0    3263.6558    17.475416    20.583732    21.319967    7668.9896    4742.6931    1299.3095    3748.9649   -1041.0139   -358.73609    20.285967   -3199.2457 
 3007000    237.82193   -4001.7125   -3594.0939   -4001.7125            0    2929.9214    17.503345    20.616629     21.35404    7705.8182    3094.7839    2275.3562     3419.624    237.45742   -1053.5332   -802.69794    -3264.825 
 3008000    237.50174   -3974.4079    -3567.338   -3974.4079            0    3084.0203    17.513126    20.628149    21.365972    7718.7429    3660.0448    2895.0501    2696.9661   -103.09827    -959.4722    527.83824     -3220.17 
 3009000    249.17465   -3989.2017   -3562.1248   -3989.2017            0    4219.4852    17.475956    20.584368    21.320626    7669.7013    4648.5854    5080.4173    2929.4529   -24.451152   -573.12773   -300.70235   -3090.1555 
 3010000    229.00244   -3958.2374   -3565.7351   -3958.2374            0    2905.8518    17.521928    20.638516    21.376711    7730.3872    2288.9186    3164.0491    3264.5878    1410.9348      179.514   -23.095867     -3238.13 
 3011000    249.06572   -4008.5758   -3581.6857   -4008.5758            0    3977.6889    17.452919    20.557233     21.29252    7639.4092     3380.518    3973.0847    4579.4639   -723.05099   -1606.5835    -192.1315   -3138.5196 
 3012000    245.96053   -3957.1815   -3535.6136   -3957.1815            0    2575.8742    17.492293    20.603611    21.340557    7691.2303     2580.342    3028.8701    2118.4105   -146.23712   -423.84071    -311.4794   -3246.6811 
 3013000     234.6299   -3957.4777     -3555.33   -3957.4777            0    3061.5072    17.559504    20.682776    21.422553    7780.2274    3238.9966     1782.096    4163.4291   -943.79659   -1365.0544    339.69309   -3207.9511 
 3014000    238.00583   -4018.3145   -3610.3806   -4018.3145            0    3731.3491    17.516896     20.63259    21.370572    7723.7296    3435.1492    4148.5485    3610.3495   -739.41911   -649.43875     252.0876   -3190.0715 
 3015000    235.99845   -3994.0952   -3589.6019   -3994.0952            0    3179.4249    17.577327    20.703769    21.444298     7803.943     3341.186    4288.6868    1908.4019    782.10067    200.72324     165.1997   -3227.7436 
 3016000    245.93135   -3984.8256   -3563.3076   -3984.8256            0      5150.64    17.435979     20.53728    21.271854     7617.187    5402.4213    5002.0028    5047.4958   -1021.4102   -87.819105    202.69216   -2991.1289 
 3017000    234.37657   -3958.0789   -3556.3654   -3958.0789            0    3736.4403    17.408733    20.505188    21.238614    7581.5343    2773.0643    4808.7435    3627.5131   -396.65666    201.55801   -435.38005   -3143.2313 
 3018000    225.12113   -3971.9674   -3586.1175   -3971.9674            0    1031.9822    17.553696    20.675935    21.415468    7772.5097    699.59797    727.68095    1668.6676    644.59559   -178.05833   -937.17079   -3469.1381 
 3019000    228.11494   -3968.5591   -3577.5779   -3968.5591            0    3119.1953    17.474327    20.582449    21.318638    7667.5565    3925.6533    1669.2605    3762.6722   -44.472629   -1043.8463   -451.23426   -3228.7787 
 3020000    233.03622   -4000.9284   -3601.5123   -4000.9284            0    3980.3769    17.383785    20.475803    21.208177    7548.9863    4091.6638    3049.8941    4799.5727    139.74793   -985.82436   -959.66019   -3163.2958 
 3021000     236.4163   -3999.6041   -3594.3947   -3999.6041            0    3662.1305    17.455196    20.559915    21.295298    7642.4001    3731.4842    2658.9759    4595.9314    822.66797   -1657.7423   -481.88801   -3186.2262 
 3022000    247.46165   -3980.1136   -3555.9728   -3980.1136            0    2879.2322    17.502846    20.616041    21.353432    7705.1594    3568.5911    1984.7595    3084.3461    694.33139   -634.27933   -144.16393   -3232.4282 
 3023000    222.62188   -3971.4316   -3589.8653   -3971.4316            0    2865.4943    17.566116    20.690565    21.430621    7789.0207    1586.5248     3673.128    3336.8303   -828.67882   -424.30815   -561.61445   -3264.3598 
 3024000     237.6251   -3920.9095   -3513.6282   -3920.9095            0    2957.8842    17.471385    20.578984    21.315049    7663.6846    2965.7857    2770.6469      3137.22   -11.162986     436.7238    597.27495   -3183.0344 
 3025000    234.36883   -3953.9677   -3552.2675   -3953.9677            0    1236.2484    17.502612    20.615765    21.353146    7704.8498    1557.5955    1839.8828    311.26674    74.121834     118.1135   -662.61017   -3413.3536 
 3026000    234.86898   -3922.2704    -3519.713   -3922.2704            0    3065.8932     17.43228    20.532924    21.267341    7612.3403    2701.7391     4062.441    2433.4995    920.53296    973.94602   -667.50964   -3179.3431 
 3027000    239.00056   -3926.1154   -3516.4767   -3926.1154            0    3665.4755     17.42293     20.52191    21.255934    7600.0978    4482.3978     3257.604    3256.4249   -1546.5779    320.45654   -138.27313   -3110.1967 
 3028000    222.51314   -3937.2465   -3555.8666   -3937.2465            0    3189.2028    17.442081    20.544468    21.279299    7625.1873    4584.9749    3076.6069    1906.0266    1529.2301    206.53806    345.66764   -3201.2096 
 3029000    221.55175   -3953.4119   -3573.6798   -3953.4119            0    1652.9226    17.503761    20.617118    21.354547    7706.3673    2129.7798    1258.2809    1570.7072   -984.12015    84.166547    1419.6386   -3387.9087 
 3030000    248.61415   -3958.1067   -3531.9906   -3958.1067            0    4049.1941    17.367878    20.457066    21.188771     7528.282    6271.4862    2814.7027    3061.3934    521.31748    2.0961517   -446.48465   -3087.4204 
 3031000    246.62055   -3937.2168   -3514.5176   -3937.2168            0    989.51514      17.5399    20.659685    21.398637    7754.1982    2292.6946   -720.62125    1396.4721   -36.871198    407.82116   -590.68787   -3402.6163 
 3032000    227.04959   -3923.5327   -3534.3774   -3923.5327            0    1663.7845    17.498478    20.610896    21.348103    7699.3921    3997.6356    545.53241    448.18564   -170.07878   -120.61529   -265.14471   -3347.5548 
 3033000    230.32265   -3935.1519   -3540.3868   -3935.1519            0    5346.9968    17.429917    20.530139    21.264457    7609.2441    5408.1733    4593.3424    6039.4747   -745.56984   -12.348964    -309.9559   -2947.0144 
 3034000    225.82125   -3964.8126   -3577.7627   -3964.8126            0    2778.3091    17.463598    20.569812    21.305549    7653.4421    2869.1535    2862.0218    2603.7521     727.1348   -631.51618   -295.00114   -3267.6545 
 3035000    231.75663    -3998.308    -3601.085    -3998.308            0    3892.2952    17.462493     20.56851    21.304201    7651.9889    4285.4909    3594.1449    3797.2498      1211.33   -632.81952     303.4243   -3166.7189 
 3036000    223.28082   -3971.2245   -3588.5288   -3971.2245            0    3551.0905    17.461397    20.567219    21.302863    7650.5475    2578.3345    4799.8356    3275.1015    668.77876    789.67527   -1082.2498   -3192.3145 
 3037000    237.38838   -3964.0227   -3557.1471   -3964.0227            0    2112.8503    17.481041    20.590357    21.326829    7676.3973    4536.8765    1247.1889    554.48565   -84.274771    41.574357    672.14188   -3320.6085 
 3038000    227.48777   -3951.4504   -3561.5442   -3951.4504            0    2321.4289    17.519817     20.63603    21.374136     7727.594    2788.9786    1818.6115    2356.6965    1349.8028    1049.0593    63.728164   -3299.9214 
 3039000    235.70252   -3953.4644   -3549.4783   -3953.4644            0    3617.8913     17.48376     20.59356    21.330146    7679.9801     3739.789    4605.8671    2508.0176    -849.3177    507.68241    281.79635   -3144.2578 
 3040000    232.41365   -3977.0666   -3578.7176   -3977.0666            0    5328.4478     17.45883    20.564196    21.299732    7647.1748    5631.5157    5506.4197    4847.4079    97.800738    548.54308   -896.82523   -2984.4561 
 3041000    233.07304   -3965.9691   -3566.4898   -3965.9691            0     4072.462    17.418241    20.516388    21.250214    7593.9635    4158.2125     4900.336    3158.8376   -1522.9545   -210.14325    1321.1283    -3115.464 
 3042000    231.08916   -3959.4524   -3563.3735   -3959.4524            0    4162.2395    17.377755      20.4687    21.200821    7541.1331    4867.3343    3991.5253    3627.8589   -758.66947    -1466.925   -1114.5953   -3105.6117 
 3043000    239.43937   -3958.0296   -3547.6387   -3958.0296            0    3067.3541     17.39424    20.488117    21.220932    7562.6147    2994.1087    4278.5149    1929.4388   -744.55911    137.94951   -1262.9462   -3209.3311 
 3044000    242.20591   -3984.1286    -3568.996   -3984.1286            0    2869.5088    17.476728    20.585277    21.321568    7670.7176    3180.6468    2562.9216     2864.958     384.4236    742.26307    3.0135977   -3247.9853 
 3045000    220.63368   -4000.5303   -3622.3718   -4000.5303            0    4232.5987     17.41431    20.511757    21.245418    7588.8228    2950.5964    4548.9478    5198.2518    427.39469   -1796.1587   -1014.5016   -3153.9281 
 3046000    245.13966   -3994.5427   -3574.3817   -3994.5427            0    2386.4626    17.507346    20.621341    21.358921    7711.1035    2759.1544    1725.0945    2675.1389   -43.332054    234.73895   -78.107643   -3306.0037 
 3047000    234.06809    -3986.677   -3585.4923    -3986.677            0    2812.8431    17.411819    20.508823    21.242379     7585.567    4547.1063    1844.5283    2046.8947    1297.9824      309.338   -742.73085   -3274.3139 
 3048000    231.46835   -3975.0567   -3578.3279   -3975.0567            0    2600.9389    17.455486    20.560257    21.295652     7642.781    2926.0502    2605.6115    2271.1548    744.62171    472.57883    362.16553   -3288.4217 
 3049000    239.89728   -3979.3784   -3568.2026   -3979.3784            0    2405.5622    17.484348    20.594252    21.330863    7680.7545     2845.365    2665.2692    1706.0525    775.36688    599.56501   -639.94866   -3298.7413 
 3050000    229.83045   -3997.2022   -3603.2807   -3997.2022            0    4380.0064    17.453996    20.558502    21.293834    7640.8243    4488.0048    3232.1339    5419.8804    23.296257    451.47194   -2078.4972   -3115.2009 
 3051000    231.66787   -3956.4587   -3559.3879   -3956.4587            0    3485.3877    17.367142      20.4562    21.187873    7527.3254    3259.6935    1991.1771    5205.2924    1939.3204   -217.72609   -1081.1812   -3176.7679 
 3052000    227.07511   -3991.7566   -3602.5576   -3991.7566            0    2153.1733    17.457646    20.562801    21.298287    7645.6187    3326.4113    2083.6198    1049.4889   -877.35751    555.90684   -1220.7046   -3362.4713 
 3053000    233.37919    -3999.731    -3599.727    -3999.731            0    4147.5828    17.366251     20.45515    21.186786    7526.1669    3863.9482      2302.63    6276.1701    1308.6814   -1653.2844   -550.17139   -3144.4825 
 3054000    246.79287   -3992.3844   -3569.3899   -3992.3844            0    4519.1202    17.468802    20.575941    21.311897    7660.2851    4780.6863    3818.7811     4957.893   -1915.2789    64.788714    404.21883   -3064.5255 
 3055000    231.41648   -3988.1812   -3591.5413   -3988.1812            0    2901.5574    17.451387    20.555429    21.290651    7637.3983    2908.3744    1986.2619    3810.0358    538.25812    851.67119    396.98984   -3268.3553 
 3056000    234.50187   -3961.6711   -3559.7429   -3961.6711            0    4182.1932    17.472164    20.579901    21.315999    7664.7087    2226.1555    3145.9403    7174.4837     178.3486   -1612.1333    2072.4174   -3092.2493 
 3057000     248.6544   -4004.1948   -3578.0097   -4004.1948            0     3356.149    17.391906    20.485368    21.218085    7559.5708    2869.0228    3719.7964    3479.6278    876.49469   -308.88638    740.10142    -3207.999 
 3058000    234.95522   -3987.8289   -3585.1237   -3987.8289            0    3900.0785    17.498713    20.611173    21.348389     7699.702    5151.9943    3290.3887    3257.8524    734.94228    508.29474    330.91888    -3147.175 
 3059000    234.28169   -3976.8528    -3575.302   -3976.8528            0    3731.1625    17.456486    20.561434    21.296872    7644.0942    3521.0965    2372.4524    5299.9385    -715.5088    468.75876   -487.33005   -3159.3473 
 3060000    221.64051   -3975.3353   -3595.4511   -3975.3353            0    3749.9531    17.408177    20.504533    21.237935    7580.8071    3006.0657    3646.4348    4597.3588    1613.1571    603.78293   -1694.5485   -3180.8626 
 3061000    236.99412   -3996.9957   -3590.7959   -3996.9957            0     1986.187    17.507409    20.621416    21.358998    7711.1871     841.4129    3870.5402    1246.6081   -549.70744   -774.56781   -1442.6263   -3367.4297 
 3062000    237.45989   -3976.0889   -3569.0908   -3976.0889            0    2791.3647    17.489081    20.599828    21.336638    7686.9947    2755.3453    2423.1334    3195.6154    922.58381    816.29456   -965.00645   -3256.1594 
 3063000    245.53238    -3970.442   -3549.6079    -3970.442            0    3558.6728    17.513527    20.628622    21.366463    7719.2743    3188.7435    4020.9628    3466.3122    118.24972   -838.46374   -1035.3044   -3148.9807 
 3064000    227.58175    -3982.304   -3592.2367    -3982.304            0    2803.8553    17.485369    20.595455    21.332109    7682.1003    1100.5039    5156.1845    2154.8774   -249.30419   -34.558416    1106.2142   -3278.1052 
 3065000    231.79847   -4008.2768   -3610.9822   -4008.2768            0    3363.5411    17.412853    20.510041     21.24364    7586.9178    3559.3002     4192.427    2338.8959   -1379.8936    598.28413    185.20286   -3238.8151 
 3066000    246.50591   -3971.3081   -3548.8054   -3971.3081            0    3545.6367    17.430873    20.531266    21.265624    7610.4963    3876.5894    4049.3477    2710.9729    1834.1971    609.34829   -92.300527   -3155.2706 
 3067000    243.36111   -4032.5724   -3615.4598   -4032.5724            0    1694.9288    17.495738    20.607668    21.344759    7695.7753    2613.7968    823.20467    1647.7849   -50.316734   -1037.1971   -115.88578   -3425.2295 
 3068000    228.17027   -3972.5873   -3581.5112   -3972.5873            0    3342.5388     17.50028    20.613018    21.350301    7701.7707    4932.1085    3235.1894    1860.3185    -312.8988   -1724.7543   -252.25825   -3206.0692 
 3069000    221.23994   -3995.6009   -3616.4032   -3995.6009            0    3105.1247     17.47802    20.586799    21.323144    7672.4192    3957.8875    2441.3886    2916.0981   -11.381165   -1431.6284    1340.9851   -3268.9572 
 3070000    233.84436   -3979.4101   -3578.6088   -3979.4101            0    1990.7571    17.496897    20.609033    21.346173    7697.3044    1258.9646      1576.34    3136.9669   -193.36202   -660.50189    140.21601   -3355.1318 
 3071000    244.51448   -4003.4924   -3584.4029   -4003.4924            0    2714.5322    17.445309    20.548269    21.283236    7629.4206    1279.0814    2984.0127    3880.5023    375.78236    946.89737    802.04559   -3282.3644 
 3072000    245.20336   -3950.9514   -3530.6812   -3950.9514            0    2303.7715    17.467392    20.574281    21.310178     7658.431    2302.3563    2435.5858    2173.3722   -985.75572    1312.9779   -456.89453   -3273.3722 
 3073000    230.81752   -3991.8215   -3596.2081   -3991.8215            0    4544.0134    17.342267      20.4269    21.157526    7495.0273    5377.8767    4535.0108    3719.1527    2149.3057     1017.014    485.91291   -3099.5144 
 3074000    234.30038   -3990.3753   -3588.7925   -3990.3753            0    3264.0778    17.349595    20.435531    21.166465    7504.5318     5874.306    2071.9511    1845.9763   -712.19814   -906.43734   -313.99364   -3231.5526 
 3075000    225.53134   -3971.0892   -3584.5362   -3971.0892            0    2738.3293    17.372283    20.462255    21.194145    7534.0113    2265.7078    4734.9931    1214.2871    431.28491   -1144.2171   -256.92205     -3283.66 
 3076000    223.63202   -3953.0189   -3569.7213   -3953.0189            0    2504.8716    17.384555     20.47671    21.209117    7549.9896    2929.7046     2266.238    2318.6724   -1231.9266    172.53751   -1025.3923   -3293.9127 
 3077000    230.48093   -3987.4299   -3592.3934   -3987.4299            0    2437.0671    17.393292       20.487    21.219775    7561.3777    3432.4904    2066.0278    1812.6831    332.71557    1172.8145    697.88259    -3323.646 
 3078000    246.10993   -3954.6271   -3532.8031   -3954.6271            0    2114.3886    17.510371    20.624904    21.362611     7715.101    2828.7389    1003.7094    2510.7175    13.347632    671.97207   -1362.2269   -3294.8988 
 3079000    237.72797   -3993.7509   -3586.2933   -3993.7509            0    3009.0777    17.410233    20.506955    21.240444    7583.4939    4156.5325    2838.6646    2032.0359    114.31618   -806.48425    -753.7857   -3253.4969 
 3080000    241.11508    -3952.626    -3539.363    -3952.626            0     2712.568    17.519145    20.635238    21.373316    7726.7041    2910.0001    4192.0648    1035.6392    206.33005    538.38445   -844.74386   -3233.6944 
 3081000    234.03971   -3972.9682   -3571.8321   -3972.9682            0    2126.6167    17.429674    20.529853    21.264161    7608.9258    2803.8547    1077.9185     2498.077    985.51932    152.69584    246.38406   -3335.8449 
 3082000     248.1596   -4035.3609   -3610.0239   -4035.3609            0    2959.9445    17.412347    20.509444    21.243022    7586.2561    2395.4865    3129.9542    3354.3929    -747.0155    530.33565   -89.176748   -3282.5422 
 3083000     226.7749   -4011.4435   -3622.7591   -4011.4435            0    2981.1912    17.495108    20.606927    21.343991    7694.9446    3413.1622     2732.404    2798.0074    -209.7079    211.89361    180.36695   -3288.2012 
 3084000    237.42819   -3962.5803   -3555.6365   -3962.5803            0    3665.6345    17.486622    20.596931    21.333638    7683.7527    4811.7732    2827.9769    3357.1534   -1507.2729    175.75091    688.05208   -3144.8668 
 3085000    235.30298   -3988.5252    -3585.224   -3988.5252            0    3636.2498    17.438776    20.540575    21.275266    7620.8536     4270.829    3007.6958    3630.2247    668.77917     1094.037    385.32608   -3181.0827 
 3086000    248.62619   -4018.6358    -3592.499   -4018.6358            0    2429.5467    17.485896    20.596076    21.332753    7682.7957    2802.5113     1553.929       2932.2    762.12085    1023.8808   -346.47822   -3320.2788 
 3087000    232.13107   -4003.7109   -3605.8462   -4003.7109            0    3000.7911    17.487471    20.597931    21.334674    7684.8715    3203.2929    3648.1844    2150.8959     536.7971   -322.55472    20.145592   -3269.5296 
 3088000    253.04132   -3994.8856   -3561.1814   -3994.8856            0    4468.8193    17.427415    20.527193    21.261405    7605.9682    4842.6004    3021.9398    5541.9177    657.27988    1088.5168   -156.65561   -3065.4765 
 3089000    226.99952   -4014.4443   -3625.3749   -4014.4443            0    2206.7754     17.48658    20.596881    21.333586    7683.6966    2721.1611    2901.5219    997.64323    129.17756   -67.717093   -631.46815   -3378.0862 
 3090000    237.53966   -4005.3487   -3598.2139   -4005.3487            0    4155.7507    17.555633    20.678216    21.417831    7775.0833     4151.573    5228.0744    3087.6048    820.33547   -954.78158   -339.21461   -3126.9866 
 3091000     220.3716   -3996.8381   -3619.1287   -3996.8381            0    2998.3703     17.52481    20.641912    21.380228    7734.2032    3346.1295    3126.9484     2522.033    516.21777   -3.9092172   -189.15941   -3280.9263 
 3092000    233.69542   -3983.8179   -3583.2719   -3983.8179            0     4863.001    17.524681     20.64176     21.38007    7734.0322    5058.5107     6153.939    3376.5533    824.11125   -5.9196662   -1567.2627   -3034.7598 
 3093000    235.30065   -4016.6606   -3613.3634   -4016.6606            0    1941.7076     17.60893    20.740994    21.482854     7846.112    1427.8819    2033.7038    2363.5371   -891.09031    17.278311    68.087199   -3391.1786 
 3094000    232.02172   -3990.2089   -3592.5316   -3990.2089            0    4510.6012    17.436657    20.538078    21.272681     7618.075    2844.1582     4324.876    6362.7695    442.37917   -237.25213    829.80927   -3091.3957 
 3095000     224.8688   -3998.8647   -3613.4473   -3998.8647            0    4996.0975    17.465349    20.571874    21.307685    7655.7435    5408.4044    4910.7537    4669.1343    68.211103   -1488.2973   -18.029586   -3055.6272 
 3096000     238.0222   -3986.2702   -3578.3083   -3986.2702            0    1702.3986    17.561762    20.685435    21.425308    7783.2292     2015.031    1547.8051    1544.3598    289.31385   -1875.3233    1023.4851   -3385.0683 
 3097000    246.73864   -4008.9323   -3586.0307   -4008.9323            0    4787.8461    17.469768    20.577079    21.313076    7661.5558    4534.3496    5145.4909     4683.698    504.05577   -345.27243    479.74668   -3051.0563 
 3098000     233.8921   -4025.5471   -3624.6641   -4025.5471            0    2155.1605    17.566129     20.69058    21.430636    7789.0373    2163.3516    1201.3965    3100.7333   -386.67791    16.274023    843.41809   -3379.8483 
 3099000    237.55768   -4007.5665   -3600.4008   -4007.5665            0    2983.1781    17.514716    20.630022    21.367913    7720.8464    1848.6952     3985.686    3115.1531    146.83293   -795.14675   -585.40357    -3264.493 
 3100000    228.26761    -4009.395   -3618.1521    -4009.395            0    2782.6473    17.502468    20.615595     21.35297    7704.6593     2988.009    2034.4232    3325.5098    242.11104    712.75613   -1084.9009   -3305.4812 
 3101000    226.85058   -4016.1685   -3627.3544   -4016.1685            0    3776.2169    17.423898     20.52305    21.257115    7601.3641    3543.3649    4395.4908    3389.7951    718.03626    90.794291   -1125.7495   -3208.7302 
 3102000    244.38414   -4003.5178   -3584.6517   -4003.5178            0     3334.967    17.510722    20.625317     21.36304    7715.5649    3137.0713    2239.8179    4628.0119   -110.86349   -78.603326    233.51736   -3209.3893 
 3103000    232.10643    -3966.883   -3569.0606    -3966.883            0    4006.0774    17.429433     20.52957    21.263868    7608.6108    4191.8564    5352.4215    2473.9543   -574.54681    239.21658   -68.292677    -3124.531 
 3104000     245.3972   -4016.7106   -3596.1082   -4016.7106            0    2877.5692    17.512261     20.62713    21.364917    7717.5992    2089.5715    3966.9221     2576.214    547.26703   -890.18757    -115.8278   -3272.2284 
 3105000    245.02254   -4004.7994   -3584.8391   -4004.7994            0    2055.3689    17.565033    20.689289    21.429299    7787.5794    2330.8554    903.74787    2931.5034   -989.82462    471.23054   -737.74906    -3351.403 
 3106000    214.24408   -3988.9319   -3621.7249   -3988.9319            0     2430.238    17.506403    20.620231    21.357771    7709.8581    1638.8546    1964.7044    3687.1551   -648.64454    272.91077    -1034.777    -3348.468 
 3107000    222.89257    -4008.333   -3626.3028    -4008.333            0    2791.3662    17.485731    20.595881    21.332551    7682.5778    2624.7193    3680.5507    2068.8285    388.16263    343.73309   -153.34173   -3313.5511 
 3108000    224.41751   -3978.3729    -3593.729   -3978.3729            0    4167.2792     17.50239    20.615504    21.352876    7704.5574    4475.9349    4412.1876    3613.7151    98.194193   -989.10399    781.81003   -3125.4807 
 3109000     234.0403    -4021.061    -3619.924    -4021.061            0      4743.89    17.474835    20.583047    21.319258    7668.2249    7373.2903    3965.2803    2893.0994   -31.580656    2119.7053   -1424.9115   -3089.3996 
 3110000     222.8462   -3980.6581   -3598.7073   -3980.6581            0    3260.0862     17.51212    20.626964    21.364745    7717.4129    2677.3151    4244.2556    2858.6879    530.79239    428.21846   -755.91087   -3231.7829 
 3111000     227.1887   -3980.6266   -3591.2329   -3980.6266            0    3017.3683    17.522409    20.639083    21.377298    7731.0237    2114.6756    3439.2862     3498.143   -499.19371   -102.63987   -420.41865   -3251.0275 
 3112000    243.16626   -4015.3056   -3598.5269   -4015.3056            0    2002.4672    17.544664    20.665297    21.404449    7760.5192    2540.4104    1882.5771    1584.4142    777.17419    1893.8892    -876.0785   -3371.8893 
 3113000    225.11872   -4003.0993   -3617.2536   -4003.0993            0    3335.5249    17.545353    20.666108     21.40529     7761.433    2351.5393    4043.2308    3611.8046    691.31622    345.25003   -663.91238    -3239.697 
 3114000    242.94564   -3977.8491   -3561.4485   -3977.8491            0    4841.4329    17.512572    20.627497    21.365297    7718.0111    4956.9068    4943.8238     4623.568   -1147.3574   -1717.8143   -994.91848   -3016.5004 
 3115000     249.1281   -3999.9529   -3572.9559   -3999.9529            0    4192.0796    17.512335    20.627218    21.365008    7717.6981    5928.6782    3330.7505    3316.8101   -321.11372   -481.82909    269.99027   -3101.1176 
 3116000    232.82295   -4012.2543   -3613.2037   -4012.2543            0     2684.477    17.460683    20.566378    21.301992    7649.6091    2707.4063    3202.2144    2143.8102   -226.31079    1800.5344   -607.21607   -3313.7189 
 3117000     221.8771   -3998.4889   -3618.1991   -3998.4889            0    1320.8388    17.552638    20.674689    21.414177    7771.1048    -75.93253    2131.3264    1907.1225   -1129.2259   -1089.6957   -290.09064   -3468.5037 
 3118000    223.32635   -3992.2443   -3609.4706   -3992.2443            0    1926.0122    17.532063    20.650454    21.389076    7743.8091    708.32935    843.67555    4226.0317    4.8150715    227.38394   -468.68423   -3391.9554 
 3119000    254.11251   -4021.9186   -3586.3784   -4021.9186            0    2934.8356    17.479115    20.588089     21.32448    7673.8612    3799.7171    1771.1789    3233.6109   -615.54865    633.28824   -600.67397   -3257.9251 
 3120000    235.79037   -4014.3358   -3610.1992   -4014.3358            0    2748.6726    17.474266    20.582377    21.318563    7667.4752    3963.7754    2326.3012    1955.9412   -335.40568   -140.05953   -621.77319   -3302.8364 
 3121000    227.88616   -4001.2251    -3610.636   -4001.2251            0    2620.7295    17.512405      20.6273    21.365093    7717.7904    2538.7153    2121.4156    3202.0576    -1712.933    621.99699    626.76375   -3315.6571 
 3122000    238.75789   -3971.4435   -3562.2207   -3971.4435            0     2559.659    17.491004    20.602092    21.338984    7689.5303    4014.2488    2363.2692     1301.459   -1606.8364    160.40085    949.24116   -3275.1705 
 3123000    216.25021   -3998.5367   -3627.8912   -3998.5367            0     3512.882    17.426203    20.525765    21.259927    7604.3813    4375.8822    3369.6751    2793.0885    604.02554    1953.8977    696.03532   -3238.3052 
 3124000    236.87811   -3976.9021   -3570.9011   -3976.9021            0    3961.5656    17.421179    20.519848    21.253798    7597.8068    4102.7321    3543.1571    4238.8077   -297.45884    1944.5421   -430.56793    -3131.935 
 3125000    241.93161   -3957.0033   -3542.3408   -3957.0033            0    4001.6558    17.414351    20.511805    21.245468    7588.8763    4269.2848    3502.9759    4232.7066    227.76002    981.19826   -1262.4294   -3099.4537 
 3126000    232.92204   -3993.9368   -3594.7164   -3993.9368            0    1751.8434    17.522318    20.638976    21.377187    7730.9031    2076.5613    2310.2853    868.68375   -600.30739    779.71738   -195.85342   -3397.2008 
 3127000    227.67182   -3969.7384   -3579.5167   -3969.7384            0    3085.6407    17.369551    20.459037    21.190811    7530.4574    4513.9698    2408.6082     2334.344    -621.2048     1586.658      197.831   -3240.6393 
 3128000    240.70093   -3998.6667   -3586.1135   -3998.6667            0    3291.3142    17.446036    20.549126    21.284123    7630.3749     2036.081    3258.9386    4578.9231   -542.01675    1571.5292   -556.75902   -3219.8522 
 3129000    233.47692   -3981.8844   -3581.7129   -3981.8844            0    2816.8792    17.470425    20.577852    21.313877    7662.4202     1546.473    3809.2641    3094.9006     -129.659    1625.9901   -594.99795   -3266.9308 
 3130000    218.58328   -4005.8028   -3631.1585   -4005.8028            0    3272.0609    17.422401    20.521288    21.255289    7599.4058    2824.8853    4098.0004    2893.2971   -549.70757     468.0423     1083.406   -3268.5175 
 3131000    232.77116   -4022.5625   -3623.6007   -4022.5625            0    3914.7115    17.363901    20.452382    21.183919    7523.1117    3081.7483    4147.5095    4514.8769    486.72208    281.32751    1243.7852   -3194.0908 
 3132000    239.20647   -3970.1891   -3560.1974   -3970.1891            0    4452.1251    17.381991     20.47369    21.205989    7546.6491    5233.8995      4969.82    3152.6558     423.1746    917.99736    1603.9032   -3070.1959 
 3133000    228.16193   -3986.8309   -3595.7691   -3986.8309            0    4274.1572    17.343761     20.42866    21.159348    7496.9644    3033.6194    5205.5363    4583.3158    757.57242    1555.4457    698.00833   -3128.4519 
 3134000     219.4588   -3982.9155   -3606.7706   -3982.9155            0    3663.4284     17.34987    20.435855    21.166801    7504.8892    2014.0887    3598.8801    5377.3164   -230.87298    748.11532    -524.2347   -3205.8043 
 3135000     225.0902   -4010.6807   -3624.8838   -4010.6807            0    3929.9752    17.381383    20.472973    21.205247    7545.8571    3548.9809    5020.5533    3220.3915    50.034458    691.47702     55.47385   -3192.3956 
 3136000    231.71481   -3982.6741   -3585.5228   -3982.6741            0    1733.0081    17.406366      20.5024    21.235725    7578.4414    1262.6143    3736.4202    199.98975   -766.78704    893.05009    581.27086   -3393.9842 
 3137000    229.81381    -3984.482    -3590.589    -3984.482            0    4496.2491    17.261934    20.332279     21.05952    7391.3534    4793.5401    4483.8965    4211.3109   -661.79652    78.722331    1016.8835   -3105.9144 
 3138000     230.4212    -3975.679    -3580.745    -3975.679            0     2962.613    17.378009    20.468999     21.20113    7541.4635    4594.5628    973.07153    3320.2047   -520.12711    357.34921    601.50633   -3254.9035 
 3139000    210.37238   -3991.5382   -3630.9672   -3991.5382            0    2826.1465    17.359349     20.44702    21.178365    7517.1958    2434.5668     2741.393    3302.4797    487.64162    1232.9685   -629.87322    -3321.135 
 3140000    239.43611   -3993.5026   -3583.1173   -3993.5026            0     3182.478    17.417294    20.515272    21.249058    7592.7249    3959.7778    2282.4364      3305.22    347.33311    221.66095   -244.72088   -3230.7148 
 3141000    232.24086   -3995.5747   -3597.5218   -3995.5747            0    2654.5507    17.423609     20.52271    21.256762    7600.9861    2582.1253    2371.9392    3009.5877   -569.05813    1818.3256   -575.12133    -3303.258 
 3142000    222.82472   -3986.9362   -3605.0222   -3986.9362            0    2870.0584     17.46001    20.565586    21.301172    7648.7256    2283.8043    1414.6505    4911.7205   -1499.0541    421.50123   -442.10978   -3284.8706 
 3143000    221.19846   -3975.9997   -3596.8731   -3975.9997            0      3853.82    17.409056    20.505569    21.239008    7581.9564    5339.3466     3853.725    2368.3884   -461.85848    1357.1976   -1056.4005   -3170.7368 
 3144000    220.77397   -3963.1597   -3584.7606   -3963.1597            0    2258.8132    17.490534    20.601539     21.33841    7688.9102    702.06178    3727.8993    2346.4785     644.5215   -718.19944    606.91501   -3331.4689 
 3145000    235.18871    -3941.945   -3538.8396    -3941.945            0    2997.1905    17.526742    20.644186    21.382584    7736.7602    4014.7201    2621.7114    2355.1399   -895.79938    745.61972    1785.8042   -3200.6585 
 3146000    230.09921   -3967.7835   -3573.4013   -3967.7835            0    3898.8116     17.43598    20.537281    21.271855    7617.1881    4372.7458    5583.0687    1740.6203    451.40438   -795.27646   -796.27922   -3140.2867 
 3147000    224.11044   -3973.2975   -3589.1798   -3973.2975            0    2142.6076    17.480627     20.58987    21.326324    7675.8522    2834.7446    2861.3636    731.71448       44.562    786.27944   -953.88458   -3349.3269 
 3148000    221.66203   -3970.5224   -3590.6013   -3970.5224            0    4270.9958      17.4508    20.554737    21.289935    7636.6271    5482.6078    5304.7351    2025.6445    355.87991   -767.47961   -1663.3715   -3114.9303 
 3149000    231.29807   -3906.3322   -3509.8952   -3906.3322            0    3750.8568    17.349893    20.435882    21.166829    7504.9187    3528.9161    3776.5668    3947.0874   -1133.2703   -89.399187   -163.32501   -3099.3582 
 3150000    232.73889   -3973.9573   -3575.0508   -3973.9573            0    3063.2568     17.50525    20.618872    21.356364    7708.3342     2346.694     2672.397    4170.6793    1393.1807   -717.82067   -771.78027   -3230.6851 
 3151000    238.43537   -3947.2049   -3538.5348   -3947.2049            0    3261.6462    17.546121    20.667013    21.406226    7762.4522    1985.2064    3392.3091    4407.4231    351.38853   -26.712396    172.43895   -3169.2923 
 3152000    234.49439   -3981.4763   -3579.5609   -3981.4763            0    2938.9939    17.447585    20.550951    21.286013    7632.4077    3761.3282    2499.1678    2556.4856   -205.66017    1250.0464    710.92675   -3252.4191 
 3153000    230.54637   -3956.7054   -3561.5568   -3956.7054            0    2896.7178    17.477186    20.585817    21.322126    7671.3205    1329.9325    3215.5444    4144.6764   -820.92688    306.28787     300.5633   -3237.4768 
 3154000     222.6466   -3962.8339   -3581.2253   -3962.8339            0     2639.973     17.40503    20.500826    21.234096    7576.6967    2248.0322    2950.1088     2721.778   -1309.3605   -821.36682   -1368.8384   -3289.5126 
 3155000     234.4837   -3964.5648   -3562.6678   -3964.5648            0    3129.3625    17.362058    20.450211     21.18167    7520.7161    2614.5644    2697.8429    4075.6802   -446.94547    78.911906    383.67146   -3219.4332 
 3156000    213.94686   -3976.9167   -3610.2191   -3976.9167            0    1926.8435    17.392838    20.486466    21.219222    7560.7861    3733.9539    18.300634     2028.276   -518.24581    2111.5297   -530.34386   -3397.7532 
 3157000    228.40955   -3970.8394   -3579.3532   -3970.8394            0     4522.433    17.294655    20.370819    21.099439    7433.4653    3318.7197    5980.9413     4267.638    339.70835   -133.87657    1387.5263   -3089.0786 
 3158000    235.68887   -4003.1167   -3599.1541   -4003.1167            0    1921.1181    17.434329    20.535337    21.269841    7615.0243    1694.1841    1944.2525    2124.9176   -1215.2184   -68.929363     886.0907   -3385.7999 
 3159000    226.08226   -3970.3051   -3582.8078   -3970.3051            0    2250.1804    17.464087    20.570388    21.306145    7654.0845    2666.9104    3101.5283    982.10266    415.71848   -357.45397   -1234.3503    -3331.627 
 3160000    247.93687   -3967.9191   -3542.9638   -3967.9191            0    2714.1688     17.40894    20.505431    21.238866     7581.804    2550.1275    2106.5766    3485.8022   -1493.7109   -357.97566    1058.7235   -3242.8504 
 3161000    226.76592   -3995.8973   -3607.2283   -3995.8973            0    3656.7672    17.393606     20.48737    21.220159    7561.7875    3396.1264    2684.0282    4890.1469   -1265.3464    589.21025   -964.93854   -3203.9566 
 3162000    230.41971   -3980.9474   -3586.0159   -3980.9474            0    3499.8707    17.465067    20.571542    21.307341    7655.3735    4830.8737    4346.8596    1321.8789    851.17753    2588.2475    800.31692   -3195.2701 
 3163000    235.26452   -3971.1218   -3567.8865   -3971.1218            0    3056.8565    17.404501    20.500203    21.233451    7576.0064    2398.9136     3329.194     3442.462   -430.68488    817.05694    330.10906   -3230.1396 
 3164000     232.4511     -3987.35   -3588.9367     -3987.35            0    3938.0271    17.363788    20.452248     21.18378    7522.9639    3176.5811    4022.8758    4614.6243    20.616215   -626.21546    617.58198   -3156.8772 
 3165000    229.05222   -3982.5497   -3589.9621   -3982.5497            0    4389.6908    17.372152      20.4621    21.193984    7533.8405    2739.7935    6382.2567    4047.0223   -110.84643    344.38173    435.84665   -3107.6521 
 3166000    232.53834   -3975.2151   -3576.6524   -3975.2151            0    3302.9093    17.427217     20.52696    21.261164    7605.7095    3135.9511    3621.3028     3151.474    1511.3197   -747.52286    163.92009   -3210.2888 
 3167000    211.45119   -3981.2335   -3618.8134   -3981.2335            0    3000.5817    17.418376    20.516546    21.250378    7594.1395    2083.2208    3684.3648    3234.1595    877.20495    2191.8744    359.65408   -3286.4908 
 3168000    249.89498   -3973.8054    -3545.494   -3973.8054            0    2669.1584    17.400307    20.495264    21.228334    7570.5312    2613.6861    3949.9835    1443.8055    474.34331    928.63541    253.06672   -3250.7964 
 3169000    242.74301   -3973.7224   -3557.6692   -3973.7224            0    4634.7283    17.434668    20.535736    21.270254    7615.4685    4210.4205    5198.0556    4495.7086    648.70168   -2021.3227    400.75726   -3042.9187 
 3170000    233.57514   -3977.1701   -3576.8303   -3977.1701            0    3789.2167    17.431895    20.532469    21.266871    7611.8349    3800.4622    4112.7495    3454.4383   -1171.9756   -695.76602   -831.53141   -3156.1863 
 3171000    231.95061   -3999.4292   -3601.8738   -3999.4292            0    1451.1521    17.432252     20.53289    21.267306    7612.3025    1765.7676    1822.6074    765.08117   -1644.2464    209.82442    50.204968   -3440.7703 
 3172000    228.92184   -3995.4347   -3603.0705   -3995.4347            0    3658.4918    17.422932    20.521912    21.255936       7600.1    2978.8296     5334.604    2662.0418    29.536204     470.7398    385.15031   -3197.5645 
 3173000    240.25854   -4012.6739    -3600.879   -4012.6739            0    2482.7471    17.353941     20.44065    21.171767    7510.1725    1849.7779    2148.1779    3450.2854    129.47505    -273.9362    1371.3446   -3328.9483 
 3174000    228.88375   -3995.6108   -3603.3118   -3995.6108            0    4242.9074    17.339304    20.423409     21.15391    7491.1853    4410.7201    5950.6018    2367.4005   -1402.0189   -1090.0178   -749.37274   -3139.7689 
 3175000    232.56125   -3951.4168   -3552.8147   -3951.4168            0    4506.3654    17.410189    20.506903     21.24039    7583.4365    5428.4566    3017.4389    5073.2008    37.045448    -307.4712    819.70707   -3054.4259 
 3176000    236.01722   -3998.0115   -3593.4861   -3998.0115            0    3740.4007    17.397583    20.492055     21.22501    7566.9755    4310.4634    3873.2924    3037.4464   -667.79625      110.457   -136.26262   -3180.7083 
 3177000    246.87162   -3987.5837   -3564.4542   -3987.5837            0    3680.3592     17.51276    20.627718    21.365527      7718.26    3121.0744    4968.6771     2951.326   -432.79097    332.77482    -1460.176   -3150.1822 
 3178000    230.69825   -3964.2467   -3568.8378   -3964.2467            0    3697.2727    17.498115    20.610468    21.347659    7698.9124     3817.773    4712.6297    2561.4153    -492.3658    1918.5561    1284.7518   -3153.7053 
 3179000    233.41977   -3993.1912   -3593.1178   -3993.1912            0    4909.6946    17.472359    20.580131    21.316237    7664.9662    5592.0214    3988.0925      5148.97    129.52731    26.902419    311.90706   -3044.2843 
 3180000    224.22103   -3982.1384   -3597.8313   -3982.1384            0    3202.5868    17.460178    20.565784    21.301377    7648.9463    3457.7546    5287.6518    862.35412    82.775988     108.3877    585.94505   -3240.5762 
 3181000    242.28122   -4003.3405   -3588.0788   -4003.3405            0    2842.9489    17.468495    20.575579    21.311523     7659.881    1714.2111    3781.7894    3032.8462    468.51176    84.073127     1670.962   -3270.4887 
 3182000    239.51754   -3955.0737   -3544.5488   -3955.0737            0    3302.9747    17.524288    20.641297    21.379591    7733.5117    4794.9145    2313.2209    2800.7887   -1054.2784    969.72001   -47.681996   -3172.0217 
 3183000     232.1793    -4001.987   -3604.0396    -4001.987            0    4290.2551    17.448542    20.552078     21.28718    7633.6635    4191.5911    4108.1628    4571.0114   -448.33179   -148.14123    960.27069   -3126.4092 
 3184000    229.43624   -4003.7988   -3610.5529   -4003.7988            0    4180.1427    17.482558    20.592144    21.328679    7678.3957     4610.071    4314.7062    3615.6508    310.59905    281.31287    1767.4644   -3142.4542 
 3185000    244.52335   -3979.0251   -3559.9204   -3979.0251            0    3362.7795    17.432003    20.532597    21.267003    7611.9773    4115.0684    2825.1862    3148.0839    439.14301   -242.89527   -85.754161   -3186.6086 
 3186000    238.09546   -3975.6619   -3567.5744   -3975.6619            0     3959.473    17.450704    20.554624    21.289818    7636.5011    4487.1612    3356.7163    4034.5415    373.18319    339.30128    1705.7392   -3126.6058 
 3187000    229.64436   -3979.0024   -3585.3999   -3979.0024            0    5828.8371    17.456471    20.561417    21.296854    7644.0749    5572.1118    6434.4307    5479.9688    174.12067   -1045.5573    1669.9639   -2935.5953 
 3188000    243.89263   -3985.5903   -3567.5667   -3985.5903            0    1823.3095    17.465309    20.571827    21.307636    7655.6911    61.558668    3059.7281    2348.6417    187.83366   -613.12779     1674.864   -3363.9935 
 3189000    220.43135   -4004.8826   -3627.0708   -4004.8826            0    4529.2709    17.387094      20.4797    21.212213     7553.297    4407.2958    5004.4117    4176.1051    1687.4447   -497.27461   -737.49212   -3128.1395 
 3190000    238.74516   -3961.4082   -3552.2072   -3961.4082            0    2732.7596    17.444048    20.546784    21.281697    7627.7663    1947.9279    2414.8491    3835.5019    -220.6742    509.72709   -223.37433   -3248.2064 
 3191000    236.86843   -3985.9945   -3580.0102   -3985.9945            0    3058.0268    17.400133    20.495058    21.228121     7570.303    3343.6794    4465.3157    1365.0853   -1835.7665    246.38147    597.90033   -3242.3884 
 3192000    235.10798   -3996.0238   -3593.0568   -3996.0238            0    4325.4887    17.395565    20.489678    21.222548    7564.3426    2475.3288    5146.0893    5355.0479   -50.206915    722.18763    1216.4759   -3115.8767 
 3193000     236.1147   -3987.3262   -3582.6337   -3987.3262            0    2296.2217    17.487247    20.597667    21.334401    7684.5765    1059.9875    1775.4531    4053.2247    249.30118     81.62032    -8.496355   -3325.2923 
 3194000    242.44476   -3986.0919   -3570.5499   -3986.0919            0    3399.9699    17.483933    20.593764    21.330358    7680.2086     2247.639    3874.9236    4077.3471    666.45572   -379.39625   -847.77108   -3189.7262 
 3195000    229.34309   -3999.2016   -3606.1154   -3999.2016            0    3676.1333    17.415892     20.51362    21.247348    7590.8912    2973.5366    3796.0993    4258.7638    66.794031    192.33786   -91.867074   -3199.1477 
 3196000    236.19215   -4003.5631   -3598.7379   -4003.5631            0    3718.0517    17.458737    20.564086    21.299618    7647.0519    2297.5671    4343.0639    4513.5242    317.78908   -905.91555    638.75901   -3184.0844 
 3197000    230.84417   -3976.0005   -3580.3415   -3976.0005            0    3744.0399    17.456667    20.561648    21.297093    7644.3323    1988.9087    5297.1252    3946.0858   -220.38483    41.003101    519.16217   -3162.9381 
 3198000    241.73813   -3994.9779    -3580.647   -3994.9779            0    2301.7167     17.52999    20.648013    21.386547    7741.0632    2973.5904    2387.7989    1543.7608   -237.96959    1269.1001    1076.2382   -3320.7936 
 3199000    244.48077   -3970.1637   -3551.1321   -3970.1637            0    4686.8762    17.420156    20.518643    21.252549    7596.4677     3912.615    5240.9511    4907.0624    1634.8159    343.64667    883.34542   -3031.8886 
 3200000     239.3649   -3990.5447   -3580.2814   -3990.5447            0    2693.1885    17.509316    20.623661    21.361324    7713.7067    2037.1888    2594.5389    3447.8378    1176.7889   -1091.4073    454.84129   -3277.3071 
 3201000       233.67    -3952.877   -3552.3746    -3952.877            0    2343.3191    17.521975    20.638572    21.376769    7730.4499     975.8689    2827.3628    3226.7255   -251.81665    66.598782     479.9722   -3288.1872 
 3202000    236.21509   -3976.9102   -3572.0456   -3976.9102            0    2433.1369    17.561286    20.684875    21.424728    7782.5971    1731.9911    2459.6767    3107.7428    769.46619    1380.1682    956.71541   -3295.8817 
 3203000    226.24437   -3994.8244   -3607.0493   -3994.8244            0    3990.0045    17.634139    20.770687    21.513609    7879.8582    2816.9391    4072.4865    5080.5879   -194.03098   -687.63841    324.34793   -3148.5194 
 3204000     226.2839    -3992.583   -3604.7401    -3992.583            0     3924.837    17.580475    20.707477    21.448138    7808.1367    4016.8195    4220.2431    3537.4484   -509.50768    893.67128   -1207.4201   -3157.8046 
 3205000    211.12424   -3987.8521   -3625.9924   -3987.8521            0    2688.5465     17.56651    20.691029    21.431102    7789.5449    3628.5398    1840.2651    2596.8346   -53.343774   -273.99659   -271.02057   -3320.5667 
 3206000    223.66629   -3994.5736   -3611.2172   -3994.5736            0    3271.3351    17.521442    20.637945    21.376119    7729.7448     2988.695    3232.3022    3593.0082    697.55321    1418.6875   -635.83367   -3242.4383 
 3207000    228.03979   -3985.8863   -3595.0339   -3985.8863            0    3342.8166    17.530767    20.648928    21.387495     7742.092    3453.6089    3060.2624    3514.5786    32.311229    314.85117    587.92727   -3217.5949 
 3208000    241.79268   -3984.0168   -3569.5925   -3984.0168            0    3576.1578    17.475991    20.584408    21.320668    7669.7462    2974.6505    3323.6588    4430.1642   -1314.1101    417.62225   -246.81699     -3169.58 
 3209000    236.00048   -3995.6129   -3591.1161   -3995.6129            0    2203.8465     17.43312    20.533912    21.268365    7613.4398    589.51433    2711.1154    3310.9099    565.24356    793.15698    109.96354   -3346.4138 
 3210000    249.07186   -3983.0135   -3556.1128   -3983.0135            0     3000.236    17.446763    20.549982     21.28501     7631.329    2394.8602    4987.3579      1618.49   -321.94462   -650.89811    82.179137   -3222.2012 
 3211000    229.26504   -3986.6966   -3593.7442   -3986.6966            0    3438.1663    17.380749    20.472227    21.204474    7545.0319    2661.7718    3233.3539    4419.3732   -398.93806   -668.41179   -1627.8874   -3215.4202 
 3212000    229.14783   -3968.4678   -3575.7163   -3968.4678            0    4050.1515    17.365148     20.45385     21.18544    7524.7321    4090.3016    2274.1846    5785.9685   -579.32572    584.38445   -720.27663   -3131.2506 
 3213000    234.37961   -3967.5528   -3565.8342   -3967.5528            0    2457.2464    17.426154    20.525707    21.259867     7604.317    2754.7534    825.72443    3791.2615   -573.75602    668.32828    340.37328   -3293.3227 
 3214000    235.96222     -3992.54   -3588.1089     -3992.54            0    2550.7559    17.369738    20.459257     21.19104     7530.701    1604.6988    1427.2043    4620.3647   -481.53514   -10.181982   -413.46785   -3307.9656 
 3215000    218.35489   -4011.6569   -3637.4041   -4011.6569            0    3506.5893    17.422046    20.520869    21.254855    7598.9407    4513.8813    2649.2096    3356.6771    715.46344     336.1866   -151.68071   -3248.7942 
 3216000    225.99606   -3980.2767   -3592.9272   -3980.2767            0     2005.273    17.506834    20.620737    21.358296    7710.4264    2463.2452    924.96644    2627.6074    101.42282   -498.41893   -1136.7848   -3367.4369 
 3217000    234.08775   -4014.4398   -3613.2214   -4014.4398            0    3793.1658    17.460314    20.565943    21.301542    7649.1241    3594.3866    4315.1645    3469.9463   -190.82297    622.58513    458.55849   -3190.0762 
 3218000    227.17988   -3945.1665    -3555.788   -3945.1665            0    4893.2406    17.357486    20.444826    21.176093    7514.7768    3352.3271    5660.9058    5666.4889     167.6661    87.750716   -1308.9576   -3019.5118 
 3219000    236.65001   -3965.1634   -3559.5534   -3965.1634            0    3432.1017     17.43811     20.53979    21.274453    7619.9797    2196.1583    4212.1408    3888.0058   -1118.3088     692.3399    84.891066   -3178.1453 
 3220000    223.04573   -3971.6919   -3589.3991   -3971.6919            0    3715.8064    17.413943    20.511325     21.24497    7588.3428    3754.3137    2368.3163    5024.7892   -458.05212    231.45201   -190.56882   -3178.1776 
 3221000    224.98744   -3973.6136   -3587.9928   -3973.6136            0    2981.7587    17.386876    20.479444    21.211948    7553.0138     3967.325    4221.4722     756.4789    650.09788    216.79077   -73.015283   -3259.5432 
 3222000    239.07101   -4005.4056   -3595.6461   -4005.4056            0    1869.9206    17.418099    20.516219     21.25004    7593.7768    1712.6177    1551.6777    2345.4663    493.68821   -1519.4776    1040.4609   -3388.5571 
 3223000    227.96289   -3981.9163   -3591.1957   -3981.9163            0    1348.9144    17.496842    20.608969    21.346106    7697.2324    1787.3331    918.22294    1341.1873    488.77378   -400.17741      264.169   -3439.7716 
 3224000    231.94297   -3970.4321   -3572.8898   -3970.4321            0    983.49233    17.467864    20.574836    21.310753    7659.0515    2159.3575   -774.67682    1565.7963    -49.88905   -607.55274    264.42741   -3463.0343 
 3225000    224.54058   -3956.5775   -3571.7227   -3956.5775            0    3106.5881    17.425705    20.525179     21.25932    7603.7297    2665.0702    2511.6454    4143.0487    1116.5888   -1433.4151   -1728.1795    -3227.225 
 3226000     231.5163   -3968.6057   -3571.7947   -3968.6057            0    2624.8773     17.38935    20.482358    21.214967    7556.2384    3929.9622    1024.1752    2920.4946      1205.91    -1259.638   -1325.0912   -3282.5333 
 3227000     244.0044   -3918.8418   -3500.6266   -3918.8418            0    2365.4428    17.358607    20.446146    21.177459    7516.2318    3231.6308    2981.0324    883.66514     1556.624   -568.47609   -1331.2922    -3241.335 
 3228000    237.56713   -3945.6347   -3538.4528   -3945.6347            0    4554.6435    17.351933    20.438286    21.169318    7507.5668    5628.9257    3880.9026    4154.1022    1879.0289    439.69069   -200.19033   -3039.7642 
 3229000    237.62732   -3928.2356   -3520.9505   -3928.2356            0    3388.7672    17.397204    20.491609    21.224549    7566.4817    3997.5619     2027.468    4141.2715   -463.30098    162.57716   -198.89008   -3147.0022 
 3230000    242.90477   -3922.6098   -3506.2793   -3922.6098            0     3308.347    17.382377    20.474144     21.20646    7547.1521    3711.0519    3202.2498    3011.7394    997.24336    700.65453   -731.87982   -3142.1379 
 3231000    234.79851   -3910.6251   -3508.1885   -3910.6251            0    4491.8141      17.3805    20.471933    21.204169    7544.7068     3911.028     4899.125    4665.2892    91.339325    1009.9251     646.9732   -3013.9461 
 3232000    236.53938    -3951.605   -3546.1846    -3951.605            0    2874.1392    17.500927    20.613781    21.351091    7702.6255    1279.7444    4884.9203    2457.7531   -231.48266   -1247.3026    1211.9192   -3223.3184 
 3233000    237.39852   -3969.9058   -3563.0128   -3969.9058            0    4090.2822    17.403805    20.499383    21.232601    7575.0967    4481.3047    3039.3509     4750.191     402.4001    545.78124   -941.92049   -3111.1388 
 3234000    241.05098   -3944.9092   -3531.7561   -3944.9092            0    3681.7563    17.438761    20.540557    21.275248    7620.8338    1742.3879    3742.0694    5560.8115    836.45451     337.3346    226.53323   -3122.5582 
 3235000    233.62755   -3964.4893   -3564.0597   -3964.4893            0    3007.8083    17.455413    20.560171    21.295563    7642.6852    4791.8052    1152.2474    3079.3724    607.37757   -501.60857    376.97802   -3228.8072 
 3236000    231.84046   -3961.5172   -3564.1506   -3961.5172            0    2178.5308    17.481433    20.590819    21.327308    7676.9142    1504.6923    4269.8785    761.02145    562.32995   -857.26566   -139.41789   -3320.2424 
 3237000    220.14908   -3912.6474   -3535.3194   -3912.6474            0    2099.5484    17.461974    20.567898    21.303567    7651.3061    2488.6123    3297.7928    512.24004    680.87948     577.5225   -1046.2772   -3301.0383 
 3238000    240.41257    -3950.409   -3538.3501    -3950.409            0    2860.3058    17.477986    20.586759    21.323103    7672.3743    2339.2958    3159.4399    3082.1818    824.45101    2223.2932    -159.9541   -3218.2999 
 3239000    229.74008   -3946.1264   -3552.3598   -3946.1264            0    2937.6072    17.462259    20.568235    21.303916    7651.6818    2597.3758    1554.5272    4660.9187   -1392.7893    893.48925    256.50769   -3224.5465 
 3240000    231.25789   -3947.3075   -3550.9394   -3947.3075            0    5114.4912    17.361975    20.450113    21.181568    7520.6078    5270.1874    5516.6093     4556.677    116.17464     125.4225   -91.576001   -2989.9802 
 3241000    229.40695   -3986.4867   -3593.2911   -3986.4867            0    2432.9806    17.343832    20.428743    21.159435    7497.0564    2536.5245    3765.5399    996.87761    -110.8066    767.15766    267.88229   -3327.2766 
 3242000    226.00592   -3962.5194   -3575.1529   -3962.5194            0    3288.2161    17.381299    20.472874    21.205144    7545.7475    3630.7338      3732.85    2501.0644     987.8439    -102.4014   -485.61155   -3213.2947 
 3243000    223.86247   -3924.8844   -3541.1918   -3924.8844            0    3890.6939    17.364507    20.453096    21.184658    7523.8991    3550.6936    2880.8021    5240.5859   -600.65138    512.72045    1402.4273   -3114.2724 
 3244000    235.31081   -3971.7463   -3568.4317   -3971.7463            0    3594.8035    17.430457    20.530776    21.265117    7609.9516    4657.9842    3828.8515    2297.5749    513.49675   -1358.1479   -446.25042   -3169.4684 
 3245000    244.94722   -3973.0251   -3553.1939   -3973.0251            0    2533.8954    17.533744    20.652434    21.391127    7746.0371    2359.3718    1741.4105     3500.904    975.48286   -387.60756    1036.3336   -3266.9448 
 3246000    224.70265   -3980.4435   -3595.3108   -3980.4435            0    2526.1345    17.556388    20.679106    21.418752    7776.0865    4476.6743    752.61941    2349.1097   -46.367796   -273.48102    1.5459054   -3308.8314 
 3247000    226.34967   -3973.7152   -3585.7596   -3973.7152            0    3387.4445    17.513733    20.628865    21.366714    7719.5465    2871.7714    4729.6497    2560.9125   -53.834809   -210.70297   -545.72335   -3204.3954 
 3248000     246.7892   -3978.2361   -3555.2479   -3978.2361            0    3576.6905    17.517011    20.632725    21.370712    7723.8814    4125.0343    3954.0114    2651.0257    991.50546   -1643.0678   -1452.0737    -3152.352 
 3249000    228.27596    -4001.078   -3609.8208    -4001.078            0    4659.7156    17.459409    20.564878    21.300439    7647.9358    5445.0604    4528.2556    4005.8308    12.562781   -577.85754    1209.0009   -3090.0887 
 3250000    242.23577   -3960.0958   -3544.9119   -3960.0958            0    2760.9701    17.482499    20.592075    21.328608    7678.3188    3268.8521     2867.063    2146.9952   -1076.7837   -1279.8525    800.41076   -3235.7374 
Loop time of 480.044 on 64 procs for 250000 steps with 864 atoms

Performance: 89.992 ns/day, 0.267 hours/ns, 520.786 timesteps/s
99.0% CPU use with 64 MPI tasks x 1 OpenMP threads

MPI task timing breakdown:
Section |  min time  |  avg time  |  max time  |%varavg| %total
---------------------------------------------------------------
Pair    | 20.748     | 24.858     | 32.155     |  51.5 |  5.18
Bond    | 0.27108    | 0.28363    | 0.29713    |   1.2 |  0.06
Kspace  | 214.29     | 223.58     | 238.24     |  37.1 | 46.58
Neigh   | 3.8212     | 4.3855     | 5.3187     |  20.9 |  0.91
Comm    | 95.195     | 107.49     | 116.2      |  51.2 | 22.39
Output  | 2.1081     | 2.1116     | 2.1329     |   0.3 |  0.44
Modify  | 105.89     | 109.58     | 113.19     |  15.8 | 22.83
Other   |            | 7.76       |            |       |  1.62

Nlocal:        13.5000 ave          21 max           9 min
Histogram: 6 8 4 13 11 19 2 0 0 1
Nghost:        2101.34 ave        2154 max        2063 min
Histogram: 5 8 9 9 11 10 5 2 2 3
Neighs:        4023.89 ave        6175 max        2468 min
Histogram: 3 9 6 12 14 8 7 2 2 1

Total # of neighbors = 257529
Ave neighs/atom = 298.06597
Ave special neighs/atom = 2.0000000
Neighbor list builds = 10548
Dangerous builds = 0

unfix		3
unfix		2
unfix		1

write_data	data.final.${pid}
write_data	data.final.0
System init for write_data ...
PPPM initialization ...
  extracting TIP4P info from pair style
  using 12-bit tables for long-range coulomb (../kspace.cpp:340)
  G vector (1/distance) = 0.37339437
  grid = 24 24 25
  stencil order = 5
  estimated absolute RMS force accuracy = 0.0031694354
  estimated relative force accuracy = 9.5446605e-06
  using double precision FFTW3
  3d grid and FFT values/proc = 2730 288
Last active /omp style is kspace_style pppm/tip4p/omp
WARNING: Not all mixed pair coeffs generated from mixing. Use write_data with 'pair ij' option to store all pair coeffs. (../write_data.cpp:312)

write_restart   restart.lmp.${pid}
write_restart   restart.lmp.0
System init for write_restart ...
PPPM initialization ...
  extracting TIP4P info from pair style
  using 12-bit tables for long-range coulomb (../kspace.cpp:340)
  G vector (1/distance) = 0.37339437
  grid = 24 24 25
  stencil order = 5
  estimated absolute RMS force accuracy = 0.0031694354
  estimated relative force accuracy = 9.5446605e-06
  using double precision FFTW3
  3d grid and FFT values/proc = 2730 288
Last active /omp style is kspace_style pppm/tip4p/omp
Total wall time: 0:08:03
