#include		in.partitions
include		in.temp
variable        temperature equal 55.22
variable	tempDamp equal 100.0
include		in.pressure
variable        pressure equal 2121.7
variable        pressureDamp equal 1000.0 # This is 1 ps
include		in.seed
variable        seed equal 745823

units		real
atom_style	full

read_restart	restart.lmp.${pid}
read_restart	restart.lmp.1
Reading restart file ...
  restart file = 30 Jul 2021, LAMMPS = 30 Jul 2021
  restoring atom style full from restart
  orthogonal box = (0.019808101 0.087700042 -0.049774848) to (19.980193 19.912301 20.749773)
  4 by 2 by 4 MPI processor grid
  restoring pair style lj/cut/tip4p/long/omp from restart
  restoring bond style harmonic/omp from restart
  restoring angle style harmonic/omp from restart
  972 atoms
  648 bonds
  324 angles
Finding 1-2 1-3 1-4 neighbors ...
  special bond factors lj:    0        0        0       
  special bond factors coul:  0        0        0       
     2 = max # of 1-2 neighbors
     1 = max # of 1-3 neighbors
     1 = max # of 1-4 neighbors
     2 = max # of special neighbors
  special bonds CPU = 0.002 seconds
  read_restart CPU = 0.008 seconds
include 	in.setup
variable	out_freq equal 1000
variable	out_freq2 equal 10000
variable	out_freq3 equal 1000

timestep	2.0

neigh_modify    delay 7 every 1

include		in.tip4p
# This is TIP4P/Ice

# create groups ###
group ox type 2
324 atoms in group ox
group hy type 1
648 atoms in group hy

# set charges - beside manually ###
set group ox charge -1.1794
Setting atom values ...
  324 settings made for charge
set group hy charge 0.5897
Setting atom values ...
  648 settings made for charge

# ### TIP3P Potential Parameters ###
pair_style lj/cut/tip4p/long/omp 2 1 1 1 0.1577 8.5
pair_coeff 1 1*2 0.000 0.000
pair_coeff 2 2 0.21084 3.1668
bond_style  harmonic
bond_coeff  1 450 0.9572
angle_style harmonic
angle_coeff 1 55 104.52
kspace_style pppm/tip4p/omp 1.0e-5
pair_modify tail yes

thermo          ${out_freq}
thermo          1000
thermo_style    custom step temp pe etotal epair emol press lx ly lz vol pxx pyy pzz pxy pxz pyz enthalpy

restart 	${out_freq3} restart.lmp.${pid} restart2.lmp.${pid}
restart 	1000 restart.lmp.${pid} restart2.lmp.${pid}
restart 	1000 restart.lmp.1 restart2.lmp.${pid}
restart 	1000 restart.lmp.1 restart2.lmp.1


include         in.dump
dump            myDump all atom ${out_freq2} dump.water.${pid}
dump            myDump all atom 10000 dump.water.${pid}
dump            myDump all atom 10000 dump.water.1
dump            myDump2 all dcd ${out_freq2} dump.dcd
dump            myDump2 all dcd 10000 dump.dcd
dump_modify     myDump append yes
dump_modify     myDump2 append yes


variable natoms 	equal  "count(all)"                        # NUMBER ATOMS
variable H      	equal  "enthalpy/v_natoms"                 # ENTHALPY-per-atom
variable Vol      	equal  "vol/v_natoms"                 # volume-per-atom
fix AVG all 		ave/time ${out_freq} 1 ${out_freq} v_Vol v_H file vol_enthalpy.dat
fix AVG all 		ave/time 1000 1 ${out_freq} v_Vol v_H file vol_enthalpy.dat
fix AVG all 		ave/time 1000 1 1000 v_Vol v_H file vol_enthalpy.dat


timer           timeout 02:55:00 every 1000
New timer settings: style=normal  mode=nosync  timeout=02:55:00

fix 		1 all shake 1e-6 200 0 b 1 a 1
       0 = # of size 2 clusters
       0 = # of size 3 clusters
       0 = # of size 4 clusters
     324 = # of frozen angles
  find clusters CPU = 0.000 seconds
fix             2 all nph aniso ${pressure} ${pressure} ${pressureDamp}
fix             2 all nph aniso 2121.7 ${pressure} ${pressureDamp}
fix             2 all nph aniso 2121.7 2121.7 ${pressureDamp}
fix             2 all nph aniso 2121.7 2121.7 1000
fix             3 all temp/csvr ${temperature} ${temperature} ${tempDamp} ${seed}
fix             3 all temp/csvr 55.22 ${temperature} ${tempDamp} ${seed}
fix             3 all temp/csvr 55.22 55.22 ${tempDamp} ${seed}
fix             3 all temp/csvr 55.22 55.22 100 ${seed}
fix             3 all temp/csvr 55.22 55.22 100 745823


run             250000
PPPM initialization ...
  extracting TIP4P info from pair style
  using 12-bit tables for long-range coulomb (../kspace.cpp:340)
  G vector (1/distance) = 0.37269761
  grid = 24 24 25
  stencil order = 5
  estimated absolute RMS force accuracy = 0.0033721485
  estimated relative force accuracy = 1.0155125e-05
  using double precision FFTW3
  3d grid and FFT values/proc = 3458 576
Last active /omp style is kspace_style pppm/tip4p/omp
Neighbor list info ...
  update every 1 steps, delay 7 steps, check yes
  max neighbors/atom: 2000, page size: 100000
  master list distance cutoff = 10.8154
  ghost atom cutoff = 10.8154
  binsize = 5.4077, bins = 4 4 4
  1 neighbor lists, perpetual/occasional/extra = 1 0 0
  (1) pair lj/cut/tip4p/long/omp, perpetual
      attributes: half, newton on, omp
      pair build: half/bin/newton/omp
      stencil: half/bin/3d
      bin: standard
Per MPI rank memory allocation (min/avg/max) = 10.19 | 10.20 | 10.21 Mbytes
Step Temp PotEng TotEng E_pair E_mol Press Lx Ly Lz Volume Pxx Pyy Pzz Pxy Pxz Pyz Enthalpy 
39500000    59.414068   -5132.4733   -5017.8883   -5132.4733            0    1953.2843    19.960385    19.824601    20.799548    8230.5196    1677.8691    2155.4161    2026.5677    195.54652    2.7518579    411.95851   -4783.4284 
39501000    54.421615   -5144.0347   -5039.0781   -5144.0347            0    1933.6511    20.009086    19.877664    20.640786    8209.5397    1055.0714    2302.2512    2443.6306    278.78548    19.493879    58.970159   -4807.5664 
39502000     54.54715   -5141.3107    -5036.112   -5141.3107            0    2651.7418    20.012866    19.870503    20.619373    8199.6173    2691.0015    2532.5914    2731.6325    43.902864    284.52761   -362.42281   -4719.0087 
39503000    54.508299     -5143.68   -5038.5562     -5143.68            0    1633.3306    19.900697    19.925803     20.72196    8217.0315    1333.8208    1697.7633    1868.4078     -23.2535   -113.90186    57.809961   -4842.8227 
39504000    52.308264   -5145.7219    -5044.841   -5145.7219            0    1845.7587    19.992197    19.967062    20.574992    8213.2375    2124.7078    1175.2365    2237.3318   -5.4474131   -515.38005   -385.55691    -4823.753 
39505000    54.171629   -5142.0497   -5037.5751   -5142.0497            0    1945.4414    19.888101    19.936468    20.656687    8190.3451    2785.4663    957.40486    2093.4529   -302.75488    143.48834    175.57718   -4805.1965 
39506000    56.597463    -5142.264    -5033.111    -5142.264            0    1967.5482    19.917848    19.878621    20.760982    8220.0897     1529.013    2613.6545    1759.9772   -288.28055    200.50023   -329.91108   -4797.2382 
39507000    55.927508   -5142.0153   -5034.1544   -5142.0153            0    3324.1908     19.82992    19.874877    20.667584    8145.4503     3174.674    4020.8482    2777.0502   -210.66683   -116.32645   -419.24374   -4639.2637 
39508000    55.892004   -5143.9223   -5036.1299   -5143.9223            0    2372.3359    19.900779     19.90395    20.642017     8176.388    2581.4389    1823.1797     2712.389   -92.783348    223.80556    8.2080101   -4753.2425 
39509000    60.931053   -5149.2259   -5031.7152   -5149.2259            0    1618.5076    19.922576    19.849838    20.726238    8196.3961    1463.1168    2647.5377     744.8682    68.600238   -76.358611   -159.65721   -4838.2452 
39510000    55.048433   -5140.0384   -5033.8729   -5140.0384            0    1823.6287    20.015415    19.831406    20.706254    8219.0126    1441.3561    1774.6726    2254.8573     77.01191    680.85151    294.54722   -4815.2821 
39511000    53.895962   -5140.1125   -5036.1696   -5140.1125            0    1784.1841    19.929329     19.95109    20.599928    8190.7751    1613.3537    1510.5778     2228.621    62.440828    967.62318   -155.88668   -4823.0416 
39512000     58.92142   -5139.7655   -5026.1306   -5139.7655            0     3172.171    19.830684    19.940853    20.669147     8173.423    3828.4097     2385.703    3302.4002   -11.440406    406.56334    -1190.708   -4648.0046 
39513000    57.969939   -5140.8748   -5029.0749   -5140.8748            0    2929.2151    19.979322    19.877199    20.622471    8189.8632    3255.5971    2811.5094    2720.5389   -218.02264    242.28269    216.94172   -4679.2072 
39514000    52.074535    -5139.593   -5039.1629    -5139.593            0    2387.7729    19.886607    19.847405    20.707574    8173.2288    3322.0834    2161.6836    1679.5517    19.840257    713.38303    351.01997   -4754.5448 
39515000    57.007979   -5148.8646     -5038.92   -5148.8646            0    1514.7146     20.05362    19.867498    20.618211    8214.6101     387.2026    2589.8622    1567.0791   -386.15518    300.20987   -16.085448   -4857.4546 
39516000    54.884153    -5143.018   -5037.1693    -5143.018            0    2538.7547    19.936897    19.931794    20.650632    8206.1094    2245.0291    2273.1191    3098.1158   -17.767112   -276.80356    255.07353    -4733.337 
39517000    55.949826   -5146.2722   -5038.3682   -5146.2722            0    1454.0511    19.968493    19.913611    20.696219    8229.7442    1830.4529     1145.702    1385.9983   -452.32876    612.48472    242.42804   -4863.8496 
39518000    53.052575   -5143.5227   -5041.2063   -5143.5227            0    2130.0443    19.907285    19.869458    20.730754    8199.9867    2802.6373    1664.2662    1923.2294    62.393534    371.51872   -415.76673   -4786.4777 
39519000    55.607549   -5146.6351   -5039.3913   -5146.6351            0    1644.7596    19.909352    19.939958    20.684802    8211.6933    1660.1611    1599.2033    1674.9144   -161.94139    631.99356   -974.39547   -4842.4163 
39520000    54.081365   -5142.0962   -5037.7958   -5142.0962            0    2409.4961    20.018027    19.836051    20.594851     8177.775    1398.3177    2575.4869    3254.6838   -170.73128   -515.26181   -13.614834   -4750.4285 
39521000     53.67243   -5146.4742   -5042.9624   -5146.4742            0    1990.4025     19.91198    19.905817    20.690795    8201.0913    2040.2339     1881.558    2049.4157   -44.957566    262.89646    15.986374   -4804.9013 
39522000    55.238923   -5141.9507   -5035.4178   -5141.9507            0    3024.8127    19.897994    19.829819    20.661311    8152.4084    3282.8037    3128.3019    2663.3327     12.17284    22.009938    11.382058   -4675.7842 
39523000    53.774553   -5144.0207   -5040.3119   -5144.0207            0    1860.1043    19.980538    19.895753    20.597633    8188.1328    2229.4553     1825.198    1525.6595   -199.37696   -72.217288   -8.2118539   -4818.1866 
39524000    57.981838    -5137.392   -5025.5692    -5137.392            0    3072.6715    19.964035    19.813392    20.667715    8175.2232     3232.698    3406.0234    2579.2932    59.774439    344.49304   -371.48269    -4659.223 
39525000    56.219672   -5140.7589   -5032.3346   -5140.7589            0    1933.9704    19.875228    19.955693    20.681351    8202.7191     1493.182    2460.8373    1847.8921    176.14773    152.56185   -132.01697   -4800.9771 
39526000    57.108798   -5141.1717   -5031.0326   -5141.1717            0    1753.8406    19.994781    19.820499    20.819099    8250.7454    1452.9317    2730.0245    1078.5655   -32.059056    212.98953   -892.32603   -4819.9953 
39527000    56.405112   -5137.3017   -5028.5197   -5137.3017            0    1983.2785     19.96331      19.9595    20.572386    8197.2255    1420.5404    2503.3359    2025.9592    304.36324    332.34581   -523.54771   -4791.4225 
39528000    54.076453   -5144.3744   -5040.0834   -5144.3744            0    2311.6813    19.922717    19.935821     20.61577    8188.0833    2560.8924    1673.5843    2700.5674   -43.418355    36.936053    607.49776   -4764.0344 
39529000    55.790116   -5143.4068   -5035.8109   -5143.4068            0    1715.4575    20.047431    19.926847    20.587392    8224.2945     718.6446    1757.6271    2670.1008    310.66108   -605.93594    -138.1833   -4830.0539 
39530000     56.19638   -5141.8581   -5033.4786   -5141.8581            0    2211.5927    19.958915    19.853398    20.733999    8215.8942    1877.8966    2686.4458    2070.4356   -445.05437    390.28386    440.06951   -4768.4848 
39531000    55.277702   -5135.7731   -5029.1654   -5135.7731            0    2460.2369    20.048631     19.83776    20.567804    8180.2257    2169.4383    2493.6033     2717.669    270.69117   -124.65467    373.89221   -4735.6586 
39532000    54.838117   -5139.9054   -5034.1454   -5139.9054            0    1244.4427    19.996115    19.917567    20.664777    8230.2427    1413.1639    1375.2933    944.87075   -131.88868    181.65237   -353.20273   -4884.7754 
39533000    56.528401   -5144.6203   -5035.6005   -5144.6203            0    2397.0428    19.997977    19.917626    20.615409    8211.3692    1578.6468    3197.7693    2414.7124   -192.56191    987.66149    534.91049   -4748.5441 
39534000    54.010689   -5145.4216   -5041.2574   -5145.4216            0    2261.9406    19.942933    19.928547    20.596902    8185.9024    2566.3447    1591.9717    2627.5053   -296.40595    370.14499    -384.3896   -4771.2202 
39535000    54.391996   -5150.3739   -5045.4743   -5150.3739            0    2557.2376    19.870937    19.896714    20.647873    8163.4743     2886.005    2358.4633    2427.2444    245.65841    976.60037   -344.21832   -4741.0201 
39536000    52.241592   -5144.2977   -5043.5454   -5144.2977            0    2712.7846    19.873273    19.926817    20.630426    8169.8771    3148.2314    2184.8911    2805.2312   -21.945001   -244.16285    408.14192   -4720.3191 
39537000    54.896875   -5144.7936   -5038.9203   -5144.7936            0    1362.5075    19.923001     19.87631    20.771858    8225.5674     707.7145    2461.9452    917.86283   -85.967273    240.89082   -86.642397   -4875.4719 
39538000    56.241234    -5142.984    -5034.518    -5142.984            0    2265.7993    19.822315    19.942868    20.753855    8204.2859    3201.0416     1883.378    1712.9784    14.898734    18.754096    295.42684   -4763.4127 
39539000     53.81411    -5146.936   -5043.1509    -5146.936            0    1459.3156    19.950694    19.935019    20.653902    8214.4175    1445.1894    1256.3846    1676.3728   -150.73896    190.81623    185.94798   -4868.3266 
39540000    53.999887   -5142.6549   -5038.5116   -5142.6549            0    803.50874     19.96711    19.986912    20.675965    8251.3823    7.6332522    1018.8061    1384.0869    -251.2386    370.66077    647.93176    -4941.819 
39541000    54.541716   -5141.0954   -5035.9071   -5141.0954            0    2193.4703    19.989026     19.89673     20.57003    8181.0355    848.55426    2707.2636     3024.593    45.749499    745.39308    933.57143   -4774.1997 
39542000    54.233747    -5144.832   -5040.2377    -5144.832            0    2194.0598    19.962874    19.834526    20.726948    8206.9207    1956.0788     2429.009    2197.0917   -188.87694    235.40891    663.63238   -4777.6317 
39543000    57.967961   -5144.5495   -5032.7535   -5144.5495            0    2077.1698     19.95564    19.918732    20.622756    8197.3607    2356.4728    1594.5376     2280.499    36.545556   -198.24398   -315.28621   -4784.4276 
39544000    55.748969   -5150.6604   -5043.1439   -5150.6604            0    2148.9588    19.889234     19.88674    20.727863    8198.5335    2862.8173    1981.5274    1602.5317    66.571687    932.43528    600.76541   -4786.1989 
39545000    54.899382   -5148.4684   -5042.5903   -5148.4684            0    2530.6441    19.887428    19.856564    20.691027    8170.8036    2691.7758    2753.9543    2146.2022   -70.576586    119.30645   -310.07477   -4741.0317 
39546000    53.491381   -5145.0907   -5041.9281   -5145.0907            0     1739.602    19.917575    19.882212    20.819754     8244.736    1884.2656    1945.4139    1389.1266   -31.614035    110.44165    271.93798   -4832.7566 
39547000     55.63048   -5146.0724   -5038.7844   -5146.0724            0    2233.7907      19.8508     20.00192    20.651447    8199.7419    2381.6994    2171.3612    2148.3115    67.729999    219.60582   -615.73325   -4771.6569 
39548000    51.600299   -5146.8158   -5047.3003   -5146.8158            0    1429.1855    19.902562    19.890822     20.88542    8268.0849    1255.6292    1847.2736    1184.6537    167.10952    857.40307    165.48687   -4874.9669 
39549000    53.829123   -5139.5477   -5035.7337   -5139.5477            0    1291.6249    19.913557    19.936924    20.769498     8245.804      2063.57     1123.092    688.21258     92.48443    381.49103    445.31273   -4880.4073 
39550000    55.580387   -5150.9713   -5043.7798   -5150.9713            0    2412.0774    19.903447    19.924403    20.684611    8202.7781    2558.2445    2230.2654    2447.7222    173.67684    407.36841    288.67782   -4755.2252 
39551000    57.794365   -5132.9989   -5021.5376   -5132.9989            0    2078.4832    19.909862    20.011087    20.544978    8185.4883    2437.7683    1064.3149    2733.3664   -105.29218   -434.10022    253.66786   -4773.4146 
39552000    54.411742    -5147.056   -5042.1184    -5147.056            0    2275.6812    19.876125    19.890848    20.763291    8208.8291    2340.9318    2539.3441    1946.7677   -516.44387   -279.22968     104.8598   -4769.6799 
39553000    54.696635   -5149.6741   -5044.1871   -5149.6741            0    1869.4555    19.898606    19.994353    20.619582    8203.7018    2348.4926    1123.4471    2136.4269    -271.4731    125.94722   -277.33019   -4820.5206 
39554000    57.931393   -5144.2122   -5032.4867   -5144.2122            0    1766.3156    19.874809    19.945598    20.676034     8196.289    713.42164    2572.3201     2013.205    274.54125    987.97295    155.09427   -4821.3511 
39555000    53.815867   -5140.6714    -5036.883   -5140.6714            0    2544.5361    19.898406    19.816533    20.782573    8194.9309    2497.6518    3301.6297    1834.3269   -239.58408    -6.540595   -36.178353   -4732.7736 
39556000    58.610316   -5140.4532   -5027.4182   -5140.4532            0    2716.8981    19.891223    19.829436    20.734272     8178.255    1785.5501    4355.8189    2009.3252    55.966977    108.76321    174.71967   -4703.3698 
39557000    54.459195   -5151.7119   -5046.6827   -5151.7119            0    1981.3957    19.854967    19.899894    20.777486    8209.4289    2089.1595    2059.5109    1795.5166    135.35807    131.00912   -238.35979   -4809.4579 
39558000    54.596582    -5143.773   -5038.4789    -5143.773            0    1787.8623    19.977774    19.910471    20.697251    8232.6808    1097.7476    1908.1308    2357.7086   -263.89995    164.38456   -399.02056   -4823.8188 
39559000    52.492256   -5137.9274   -5036.6917   -5137.9274            0    2520.4887    19.891134    19.941687    20.601671     8171.916     2415.336    2436.0094    2710.1205   -109.77759    435.78625    122.63413   -4736.3024 
39560000    54.795856   -5143.2329   -5037.5544   -5143.2329            0    2519.5248    19.998118     19.76118    20.664235    8166.2245    2120.2668     3265.298    2173.0097    33.248356    152.68418    507.13631   -4737.4891 
39561000    56.234056   -5143.2309   -5034.7788   -5143.2309            0    1726.3442    20.002837    19.883977    20.601956    8194.1389    1427.5464    1847.8416    1903.6445   -377.40529    518.41456    103.56668   -4828.4753 
39562000    57.225263     -5135.99   -5025.6263     -5135.99            0    2441.4423     20.01768    19.932162    20.558191    8202.6289    2887.4781    1507.4614    2929.3873    117.47977     331.5127    209.29798    -4733.564 
39563000    59.673827   -5147.3869   -5032.3009   -5147.3869            0    2423.5585    19.974598    19.846236    20.642547    8183.1304     1318.371    2895.9635     3056.341   -99.052349    303.54322   -645.32148   -4743.0672 
39564000    58.111363   -5149.4037   -5037.3311   -5149.4037            0    1921.4365    19.925604    19.819697     20.80648    8216.8836    1058.5309    2948.2078    1757.5709    48.193462   -114.73445    166.97695   -4807.0761 
39565000    53.897095   -5144.2507   -5040.3056   -5144.2507            0    2547.6364    19.944367    19.844067    20.713672    8198.0027    1940.5097    3406.8276    2295.5718   -45.103171    -5.382423    496.31284   -4735.7116 
39566000    59.062439   -5143.7689    -5029.862   -5143.7689            0    1475.5881    19.933875    19.911252    20.720187    8224.0164    981.70646    1930.8648    1514.1929    56.820271    297.51092   -119.11201   -4852.8817 
39567000    55.247795   -5146.4177   -5039.8677   -5146.4177            0    3032.0214    19.946854    19.866235    20.619924    8171.0344    2854.2287    3270.9317    2970.9039    112.54014    708.56618   -128.99505   -4678.5534 
39568000    53.985605   -5141.8185   -5037.7027   -5141.8185            0    1545.0766    19.925075    19.946563    20.688637    8222.4253    1879.8781    1020.8058     1734.546    158.88203   -165.32026   -133.51504   -4852.4238 
39569000    52.831463   -5148.5074   -5046.6175   -5148.5074            0    1389.5741    19.887353    19.898731    20.796127    8229.7157    2452.4615    722.80655    993.45416   -342.76021     419.4734    825.85636   -4879.8381 
39570000    57.165764   -5144.9408   -5034.6918   -5144.9408            0    2927.3414    20.011405    19.805139    20.572675    8153.5408    1714.4633    3848.7909    3218.7701   -96.624799   -211.23178   -329.98915   -4686.5986 
39571000     54.33676   -5141.9075   -5037.1145   -5141.9075            0    2344.3429    19.921188     19.86685    20.690253    8188.6073    1915.7787    3056.8806    2060.3696   -174.48431    856.99613   -138.87776   -4757.1473 
39572000    59.011952   -5139.0962   -5025.2867   -5139.0962            0    2102.7551    20.033837    19.798677    20.659885    8194.6084    2060.9885    2208.8113    2038.4655    -60.39306    -315.7862   -141.48556   -4773.9866 
39573000    53.745307   -5148.9018   -5045.2495   -5148.9018            0     1479.049    19.892262    19.951917    20.744992    8233.4543    1556.9217    1690.9543     1189.271    148.37043   -241.36498   -446.99045   -4867.6504 
39574000    51.870533   -5142.1877    -5042.151   -5142.1877            0    2036.0055    19.964996     19.86771    20.710042    8214.8195    1602.2674    2712.3796    1793.3695   -191.88723    579.85918   -219.23084   -4798.2279 
39575000    55.418593   -5146.0455    -5039.166   -5146.0455            0    2222.0606     19.88655    19.919354    20.621303    8168.6597    2807.7506    2036.6612    1821.7699   -101.90509    226.18719    88.087174   -4774.4486 
39576000    58.645076   -5150.6385   -5037.5366   -5150.6385            0    2153.0176    19.929977    19.824972    20.632393    8152.0901    1504.3151    3050.9471    1903.7906   -9.7406141     133.2034    259.24342   -4781.5646 
39577000    52.761398   -5148.8588    -5047.104   -5148.8588            0    2010.1727    19.938329    19.856916    20.773419    8224.4818    1687.4943     2761.607    1581.4167   -449.49137    399.44424   -248.60152   -4805.9926 
39578000    57.242012   -5138.5257   -5028.1296   -5138.5257            0    1788.3052    20.011073    19.810886    20.663362    8191.7233    539.16006    2804.7665     2020.989   -50.986231    310.67261    172.09157   -4814.4846 
39579000    54.671195   -5146.2758   -5040.8378   -5146.2758            0    2131.9058    19.958394    19.886135    20.643331    8193.2414    1682.8996    2977.6405    1735.1773    37.069086    65.751031   -78.061497   -4786.0963 
39580000    55.322084   -5139.7184   -5033.0251   -5139.7184            0    1526.2467    19.926264    19.855646    20.835229    8243.4344    2348.3387     1804.395    426.00638   -17.853603   -169.69909    170.23142   -4849.5366 
39581000    54.879592   -5141.5456   -5035.7057   -5141.5456            0    2308.2087    19.916945    19.955984    20.645882    8205.9581    2665.4849    1883.7355    2375.4058   -112.49163   -12.457684  -0.91399413   -4759.4697 
39582000    54.069638   -5146.7661   -5042.4883   -5146.7661            0    2066.4942    19.928321    19.837744    20.788273    8218.2892    2424.7251    2069.3289    1705.4285      268.565    35.647273    87.677844    -4794.808 
39583000    55.182549   -5142.2583   -5035.8342   -5142.2583            0    2714.7591    19.919639    19.815877    20.791808    8207.0488    2021.7111    4018.9082    2103.6581    41.259048     942.5622    526.66241   -4710.9009 
39584000    55.445446   -5135.8351   -5028.9039   -5135.8351            0    1771.6803    19.934047    19.981766    20.645586    8223.4975    2264.6874    1270.3094     1780.044    176.39178   -723.96896    18.548945    -4816.424 
39585000     53.86909      -5147.2   -5043.3089      -5147.2            0    1809.1056    19.941983      19.9226    20.659823    8208.0683    1382.6389    1898.5436    2146.1343   -128.06094    411.79768    -232.9717   -4826.7476 
39586000     56.34781    -5147.346   -5038.6745    -5147.346            0    2050.7004    19.921607    19.895433    20.665829    8190.8804    1452.2207    1911.9792    2787.9013   -223.37659    1200.0028   -87.938666   -4793.7069 
39587000    54.119596   -5145.9805   -5041.6063   -5145.9805            0    2796.6595    19.858174    19.810529    20.832082    8195.3608     2140.875     3885.395    2363.7085     273.6111    74.661915   -170.48879    -4707.347 
39588000    55.949163   -5144.8997    -5036.997   -5144.8997            0    1872.4662    19.879235    19.939659    20.627807    8176.5567    2090.7421    1933.7606    1592.8959   -159.79275   -314.74823      441.217   -4813.7116 
39589000    52.908756   -5149.3382   -5047.2992   -5149.3382            0    2780.7657     19.88755    19.914678    20.658179    8181.7576    1926.9811    3717.2265    2698.0896   -412.18457    280.70698    257.08468   -4715.4912 
39590000    53.456999   -5141.3834   -5038.2871   -5141.3834            0    2989.0009    19.961223    19.857177    20.558461    8148.8296    2503.1891    2839.0183    3624.7953    113.44063    31.590194   -285.76491   -4683.0672 
39591000    53.526709   -5145.6071   -5042.3763   -5145.6071            0    1625.5718    19.915313    19.879504    20.822528    8243.7753    1379.6027    2443.6043    1053.5083    215.25045    751.39474    144.21065   -4846.9387 
39592000     54.56818   -5145.6515   -5040.4122   -5145.6515            0     1774.066    20.070704    19.796438    20.686082    8219.1687    1285.6387    2425.1245    1611.4348    9.8845512    113.75449    169.36694   -4827.7582 
39593000    55.448544   -5140.2772     -5033.34   -5140.2772            0    2288.7129    19.964904    19.781579    20.788393    8210.1125    2316.9052    2571.7757    1977.4578    207.18848     467.4403    230.22826   -4759.2985 
39594000    54.127978   -5142.8239   -5038.4335   -5142.8239            0    2046.3614    19.990265    19.883017    20.667949    8214.8232    2129.9134    2448.0048    1561.1659   -234.03879    257.73276   -437.15059   -4793.2696 
39595000    53.172355   -5146.4267   -5043.8793   -5146.4267            0    2414.9202    19.901304    19.871448    20.708459    8189.5272    2299.2868    2375.3446    2570.1294   -384.45783    194.44999   -36.734447   -4755.4512 
39596000    54.480786   -5139.5862   -5034.5154   -5139.5862            0     2188.621    19.912436    19.921013    20.682636     8204.303    2105.2581    2417.0913    2043.5137   -190.08735    156.22371     -357.304    -4772.644 
39597000    56.955241   -5148.6802   -5038.8372   -5148.6802            0    2196.7096     19.91483    19.906754    20.713827    8211.7818     2602.913    2172.1261    1815.0898    -87.04053    366.34698    237.61183   -4775.7583 
39598000    55.846073    -5146.804   -5039.1002    -5146.804            0     1245.181    20.021164    19.875887    20.649906    8217.3904    886.91423    1410.4947    1438.1342    80.505739    243.58073    -48.48465   -4889.8749 
39599000    53.344852   -5142.2495   -5039.3695   -5142.2495            0    1529.8939    19.961739    19.848964    20.730784    8213.9475    1954.1011    1363.2653    1272.3154   -98.322852    358.33663    733.21798   -4856.1004 
39600000    54.649861    -5143.203   -5037.8062    -5143.203            0    1980.6123    19.907211    19.809053    20.754621    8184.4392    1352.4264    3218.3895    1371.0212   -66.099943    356.21607   -1.2723552    -4801.397 
39601000    53.754077   -5146.8632   -5043.1939   -5146.8632            0    3541.7976    19.845667    19.920022    20.576748    8134.5265    4036.2901    3115.3213    3473.7814   -76.949493   -706.98505   -422.76206   -4623.0173 
39602000    55.622507   -5143.2891   -5036.0164   -5143.2891            0    2590.4906     19.86971    19.929268    20.694638    8194.8444    2436.4976    2814.7772     2520.197    22.438953    813.57961    32.495582   -4726.4181 
39603000     56.11038   -5142.0854   -5033.8718   -5142.0854            0    2376.6316    19.813983    19.880068    20.801787    8193.8933     2844.672    2365.8441    1919.3787   -350.15391   -324.03645    131.13642   -4749.8655 
39604000    57.161028   -5143.7924   -5033.5526   -5143.7924            0    2438.5016    19.782978    19.939007    20.744885    8182.8808    3392.7249    2230.6357    1692.1441    11.721681    469.18414    271.07078   -4742.5444 
39605000    56.853065    -5135.958   -5026.3121    -5135.958            0    1185.8292    19.891812    19.977288    20.642122    8202.8581      1617.56    573.88535    1366.0422   -47.204974    461.74275    744.05267    -4884.451 
39606000    54.221401   -5145.4688   -5040.8983   -5145.4688            0    2636.9337    19.865331    19.920664    20.670256    8179.8526    3017.1451    2543.3572    2350.2989    230.59357    407.03817    21.599895   -4726.3259 
39607000    54.243027   -5140.6636   -5036.0514   -5140.6636            0     2756.481    19.949499    19.986552    20.589465    8209.4665     2400.006    2322.6217    3546.8154   -89.272753    300.23042    348.03701   -4706.0271 
39608000    54.610484   -5138.8516   -5033.5307   -5138.8516            0    3109.7744    19.876404    19.889489    20.719623    8191.1202    3576.8087    2566.1593    3186.3553   -343.70405    794.65185   -40.554374   -4662.0399 
39609000    55.745291   -5144.9682   -5037.4588   -5144.9682            0    2458.1462    19.953122    19.912098    20.637431    8199.4274    2431.0507    1811.3479      3132.04   -219.82675   -254.27752    452.80944    -4743.513 
39610000    57.552692   -5142.5242    -5031.529   -5142.5242            0    2843.5948    19.896437    19.929769    20.671517    8196.9051    3127.3247    2818.5331    2584.9265   -178.93497   -95.451934    813.43079   -4691.5958 
39611000    59.617848   -5144.7278   -5029.7497   -5144.7278            0    2291.5963    19.938696    19.840121    20.626846    8159.6947    2150.6044    1826.1967    2897.9878   -107.82235    989.95227     535.6645    -4757.048 
39612000    55.507168   -5138.4257   -5031.3755   -5138.4257            0    2904.6901    19.884463    19.801236     20.70723    8153.2016    3403.5326    2715.2157    2595.3221   -336.71329    154.07645    386.33083   -4685.9902 
39613000    55.034028   -5149.3771   -5043.2394   -5149.3771            0    1846.1321    19.921954    19.879213    20.740116    8213.7654    1309.4525    2827.4041    1401.5397   -9.6473703   -42.821332     145.9192   -4822.0924 
39614000     55.99105   -5141.8545   -5033.8711   -5141.8545            0    1954.4744    19.857616    19.961617     20.77102    8233.4276    2315.9968    1999.1123    1548.3141    42.557586    396.28031   -74.293563   -4799.1854 
39615000    55.510865   -5144.1739   -5037.1165   -5144.1739            0    2272.1346    19.933253    19.878594     20.75039    8222.2392    2111.7117    2468.4554    2236.2365     29.57986    1465.3357    512.91825   -4764.6582 
39616000    53.801289   -5147.8613    -5044.101   -5147.8613            0    2243.5856    19.996804    19.921324    20.623988    8215.8298    1787.0737     2674.269    2269.4141     249.9886   -360.00335    481.76377   -4775.2758 
39617000    52.860313   -5145.5501   -5043.6046   -5145.5501            0    2419.9568      19.9573    19.867257    20.664568    8193.4352    1517.0797    3208.4499     2534.341   -174.01129     72.57656    505.17591    -4754.437 
39618000    54.164441    -5144.615   -5040.1543    -5144.615            0    1957.7239    19.856181     19.91944    20.676686    8178.1258    2330.7826     1575.828    1966.5612    77.695976    513.88036    155.32074   -4806.6574 
39619000    52.213397   -5142.9459   -5042.2479   -5142.9459            0    2760.7075    19.902888    20.025802    20.611122    8215.0016    2677.3606    2768.6415    2836.1202    287.79154    110.22453   -155.64394   -4711.4948 
39620000     55.97556   -5144.8042   -5036.8506   -5144.8042            0    2010.5167    19.802834    20.034037    20.668307    8199.7517    2801.9423    1370.4874    1859.1203   -199.70328    340.96292   -254.29509    -4796.423 
39621000    51.222895   -5142.6412   -5043.8535   -5142.6412            0    2584.5364    19.818458    19.909397    20.726548    8178.1478    3625.9535    1710.6889    2416.9667   -402.73261     79.32616   -773.36045   -4735.5961 
39622000    56.126662   -5140.6765   -5032.4316   -5140.6765            0    2245.5357    19.889535    19.859737    20.768918     8203.742    2653.6486    2061.0306     2021.928   -221.22623   -141.50414   -785.51132   -4763.7686 
39623000    55.350588   -5143.4748   -5036.7266   -5143.4748            0    1790.2153    19.848142    19.887829    20.800549    8210.7347     1587.217    2559.9616    1223.4671   -165.48524    147.15556    -216.8924    -4822.357 
39624000    55.210875   -5144.0313   -5037.5525   -5144.0313            0    2132.6998    19.927102    19.889994    20.689227    8200.1743    2268.2224    2426.9053    1702.9717   -103.24437    182.42109   -147.51539   -4782.5005 
39625000     56.57139   -5142.3291   -5033.2264   -5142.3291            0     2157.211    19.953595    19.956194    20.619489    8210.6357    1446.4806      2589.42    2435.7324    9.2550518    520.71475   -516.79643    -4774.914 
39626000    53.065983    -5145.837   -5043.4948    -5145.837            0    1901.5553    19.942958    19.822221    20.787877    8217.7331    863.53243    3193.3179    1647.8156    461.80734    364.95972   -613.46085   -4815.5987 
39627000    55.209171   -5146.7545    -5040.279   -5146.7545            0    1800.2928    19.823458    19.906935    20.889591    8243.5401    2615.1032    1733.4051    1052.3701   -299.25784    361.92276   -202.65237   -4823.8413 
39628000    53.316798    -5142.778    -5039.952    -5142.778            0    2411.4583    19.936726    19.909341    20.656819    8199.2508    2298.2105    2194.2368    2741.9275    223.49237    495.92456    114.39878   -4751.5955 
39629000    56.682418   -5137.0554   -5027.7386   -5137.0554            0    2447.1968    19.978204     19.79674    20.696598    8185.5728    2520.8525    2722.4796    2098.2583     171.0031    259.66315   -661.73346   -4735.5967 
39630000    55.206709     -5152.17   -5045.6992     -5152.17            0    1650.5252    19.952298    19.872713    20.710088      8211.68    1874.2786    1268.4484    1808.8487    95.749962   -170.63121   -23.473889    -4848.034 
39631000    52.641585   -5149.0219   -5047.4982   -5149.0219            0    1832.6835    19.894603    19.841871    20.813446    8216.0275    1796.2494    2483.9451     1217.856   -407.63794     518.7995    99.845896   -4827.9018 
39632000    57.715857   -5142.6525   -5031.3427   -5142.6525            0    1506.1365    19.999923    19.968728    20.641448    8243.6377    1755.5114    828.30796      1934.59    102.19994    156.82002    566.96042   -4850.2674 
39633000    57.634691   -5142.5682   -5031.4148   -5142.5682            0    2047.6813    19.958197    19.913339    20.727703    8237.9012    1956.1327    1831.7379    2355.1734   -45.178697   -476.66795    234.76689   -4785.4036 
39634000    53.484982   -5143.3926   -5040.2423   -5143.3926            0    1643.2334    19.914793    19.925685    20.672637    8203.2313    2771.9094    472.65648    1685.1344   -146.59328    320.07314   -266.52914   -4843.6529 
39635000    54.195164   -5143.3232   -5038.8032   -5143.3232            0    2143.9347    19.866653    19.933593    20.682683     8190.627    1793.5875    1755.4395     2882.777   -101.87561    621.94126    509.98061   -4782.7062 
39636000     56.01246   -5144.2325   -5036.2078   -5144.2325            0    2668.1103    19.869062    19.936959    20.694713     8197.769    2701.5948    2798.1271     2504.609    169.02239     334.3362   -67.260244   -4717.2191 
39637000    55.458562   -5149.7303   -5042.7738   -5149.7303            0    1372.4114    19.841476    19.991149    20.711669    8215.3647    1470.3474    907.61186    1739.2748   -278.51394   -136.42624    310.74123   -4878.3416 
39638000    55.082315   -5146.5849    -5040.354   -5146.5849            0    1889.9261    19.846243    19.946774    20.691357     8191.057    2570.4194    1048.2735    2051.0855   -339.61094   -62.094442   -180.96795   -4814.5869 
39639000    52.946338   -5149.3934   -5047.2819   -5149.3934            0    2620.6326    19.904324    19.870501     20.66319    8172.4753    2875.3285    2887.2408    2099.3285   -257.95381    125.09664   -480.02367   -4734.9362 
39640000    55.665185   -5142.7603   -5035.4053   -5142.7603            0    2000.3178    19.899605      19.9062     20.74622    8218.1069      2150.21    1874.8061    1975.9373   -20.004104    28.164524    352.32031   -4795.6619 
39641000     55.31063   -5145.3532    -5038.682   -5145.3532            0    2210.1698    19.969884    19.866479     20.65849    8195.8692    2441.3112    1769.5831     2419.615    -300.3811    974.53561   -658.33499   -4774.5041 
39642000    55.372709   -5146.9033   -5040.1124   -5146.9033            0    1912.6766    19.797692    19.911492    20.861715     8223.721    3026.7529    1917.8451    793.43184   -90.308605   -96.607876   -24.325041   -4810.7164 
39643000    53.922943   -5143.2388   -5039.2439   -5143.2388            0    2305.7608    19.777239    19.923669    20.700652    8156.7849    2683.0752    2703.1177    1531.0894   -40.652234   -164.01993    447.04279   -4764.9544 
39644000    56.744823   -5146.6902    -5037.253   -5146.6902            0    1750.2843    19.889986    19.928024    20.720859    8213.0878     2024.488    2405.3744    820.99058    67.407351    278.65556    717.76413   -4827.6049 
39645000    57.732717   -5151.1323   -5039.7899   -5151.1323            0    1488.7159    19.927463    19.950706    20.633164    8203.0643    2029.5019    958.66613    1477.9795   -473.34812     82.76483    45.068783   -4861.6899 
39646000    55.424815   -5147.3087   -5040.4173   -5147.3087            0    2528.8727    19.892625    19.848688    20.674433    8163.1448    2251.4713    2810.9208    2524.2261   -9.3522717    496.15807    238.03567   -4739.3523 
39647000    56.037068   -5153.7878   -5045.7156   -5153.7878            0    1928.8411    19.903438    20.044264    20.529236     8190.134     2114.769    1287.5236    2384.2308   -136.19238   -20.098454   -12.262946   -4815.3258 
39648000    52.386921    -5142.821   -5041.7884    -5142.821            0    1713.9433    19.903898    19.872069    20.766667    8213.8737    1590.9142     1994.454    1556.4616    124.16398    417.12507    111.51688   -4836.4735 
39649000    55.644329   -5142.2753   -5034.9606   -5142.2753            0    1936.4474    20.021447    19.910627    20.622264    8220.8499    2328.4954    1290.8991    2189.9477   -115.36639    106.15668    341.51528   -4802.7947 
39650000    54.110281   -5145.8863   -5041.5301   -5145.8863            0    1720.4915     19.90582    19.931528    20.798243    8251.7738    2273.4267    1589.8853    1298.1624     -466.262    1401.4108    432.34033   -4834.4798 
39651000    57.809239   -5142.1883   -5030.6983   -5142.1883            0    1852.3405    19.899442    19.964166    20.674321    8213.4068    2351.9062    1702.3031    1502.8124   -171.70504    620.11938    196.52547   -4808.8173 
39652000    54.772633   -5139.1425   -5033.5088   -5139.1425            0    2220.8452    19.947944     19.87884    20.653534    8189.9933    2339.2262     2720.652    1602.6574    163.60795    145.31262    141.50104   -4768.2452 
39653000     53.75682   -5143.2837   -5039.6091   -5143.2837            0    1431.6913    20.000084    19.930235    20.617712    8218.3515    1828.9281    888.16309    1577.9828    129.26512    448.79017    515.92332    -4868.012 
39654000    56.464488   -5144.6767   -5035.7802   -5144.6767            0    1834.1428    19.943186    19.831758    20.656197       8169.7    1620.9948    1957.8428    1923.5908   -77.589267    293.56517   -384.25176   -4817.2482 
39655000    56.831312   -5148.8158   -5039.2119   -5148.8158            0    2043.5271    19.967406    19.897612    20.735165    8238.1575    1648.3544    2860.8043    1621.4225    22.455419    1186.0878   -286.35603   -4793.6921 
39656000    53.650551   -5146.7816    -5043.312   -5146.7816            0    2200.7318     19.90499    19.911369    20.629889    8176.3596    2570.2935    1545.4861    2486.4157   -270.48359     47.75737   -392.67513   -4780.8883 
39657000    56.676398   -5145.8212    -5036.516   -5145.8212            0    1514.4933    19.885539    19.961885     20.68383    8210.5051    1609.1317    1544.2422     1390.106   -120.38775    350.81958   -380.60585   -4855.1679 
39658000    51.722345   -5143.6737   -5043.9229   -5143.6737            0    2302.9438    19.930802    19.916726    20.664758    8203.0067    1498.3295    2678.0471    2732.4548   -283.94649     429.6995    398.24338   -4768.4161 
39659000    56.668206   -5152.0611   -5042.7717   -5152.0611            0    2457.0146    19.968399    19.829666    20.631896    8169.5437    2033.7863    2553.5182    2783.7394   -287.29913   -646.13407    335.52277   -4750.0321 
39660000    55.123528   -5142.5174   -5036.2071   -5142.5174            0    2143.8346    19.975621    19.895539    20.690036    8222.7531    1403.4609    2674.4061    2353.6368   -308.34881    626.99836    94.129992   -4779.1175 
39661000    54.247932   -5147.9546   -5043.3329   -5147.9546            0    2126.3757    19.856691    19.959419    20.631662    8176.9057    2329.2304    1638.0587    2411.8382    270.30278    385.27583   -265.46692   -4789.7588 
39662000    54.362591   -5141.6829     -5036.84   -5141.6829            0    1846.7282     19.90853     19.94246    20.711548    8223.0037    1998.8861    1606.1017    1935.1969   -507.97882    595.94783   -686.97958   -4815.3728 
39663000    55.285349   -5143.1207   -5036.4982   -5143.1207            0    2606.3866    19.899611    19.898556    20.722368    8205.5091    2224.2901    2819.3634    2775.5062   -135.47877    230.68223   -349.20919   -4724.5947 
39664000    54.253275   -5150.2177   -5045.5857   -5150.2177            0    1814.5924    19.903878    19.949963    20.739195    8235.1531    1134.9342    2540.3654    1768.4775    89.650553    46.984342   -256.29854   -4827.6508 
39665000    56.732969   -5148.1108   -5038.6965   -5148.1108            0    1691.2862    19.979745    19.920849    20.637602    8214.0438    1689.9848     1283.695    2100.1788    305.71938    598.97254   -108.40439   -4836.0915 
39666000    57.264698   -5144.4579   -5034.0182   -5144.4579            0    2004.3957    19.930881    19.941336    20.580616     8179.733    2291.1635    1285.5335    2436.4901   -242.06516    28.841203   -166.69935   -4794.9077 
39667000    56.355232   -5145.7876   -5037.1018   -5145.7876            0    2083.5932    19.913487    19.849893    20.750036    8202.0864    1793.0321     2884.261    1573.4865   -343.38374    69.212553    220.19155   -4787.8644 
39668000    57.566753   -5140.7392   -5029.7169   -5140.7392            0    1759.6224     19.97266    19.899862    20.611599    8192.1456    2350.6382    650.70337    2277.5258   -280.69597   -250.42174   -618.02608   -4819.4877 
39669000    58.935655   -5145.2869   -5031.6245   -5145.2869            0     2647.062    19.909713    19.953997    20.619286    8191.5959    3230.1496    1783.1595    2927.8769     120.7566   -54.597946    121.17731   -4715.3905 
39670000    55.506879   -5143.0207    -5035.971   -5143.0207            0    2669.1407    19.988366    19.839008    20.646011    8187.1626    2952.5877    1741.9935    3312.8408    114.60389     838.5961   -10.431718   -4717.2719 
39671000    56.143772   -5140.7027   -5032.4247   -5140.7027            0    3105.4944    19.905907    19.905623    20.645054    8180.3857    3334.4997     2799.075    3182.9084   -304.69598   -254.59899    12.746072   -4661.9314 
39672000    55.769247    -5149.446   -5041.8903    -5149.446            0    1970.1436    20.014884    19.844378      20.7001    8221.7262    1591.4611    1796.5516    2522.4183   -89.264554   -487.96018    442.59805   -4805.6593 
39673000    52.091091   -5143.2211   -5042.7591   -5143.2211            0    2173.7036    19.983729    19.894936    20.596557    8188.6765    2502.2608    1632.5032    2386.3468   -103.55676    239.76751    74.093215   -4783.1679 
39674000    55.898804   -5145.3723   -5037.5667   -5145.3723            0    2287.0337    19.901135    19.942866     20.59568    8174.1302    2226.5726      1677.73    2956.7985   -133.66069    273.53683     8.243793   -4764.9265 
39675000     54.03302   -5144.4499   -5040.2427   -5144.4499            0    2271.0813    19.940361      19.8918    20.620498    8179.1137    1969.7526    2259.0667    2584.4248   -81.419943   -290.83496    -200.9483    -4769.339 
39676000    52.513424   -5145.4621   -5044.1856   -5145.4621            0     2126.071    19.981059    19.851178    20.682628    8203.7139    2696.6773    1560.7628     2120.773   -81.594744    638.38045    368.04023   -4789.8166 
39677000    57.130614   -5146.7625   -5036.5813   -5146.7625            0     2456.265    19.986791    19.963765    20.557412    8202.6456    2561.5111    1763.2285    3044.0555    -24.94241    412.45655   -50.714597   -4742.7452 
39678000    55.745244   -5146.0442   -5038.5348   -5146.0442            0    1879.7414    19.916557    19.916183    20.724921    8220.7842    2513.1499    1322.5324    1803.5419   -421.81468    410.35967   -212.72862   -4813.1694 
39679000    54.250153   -5135.6055   -5030.9795   -5135.6055            0     1993.035    19.953586    19.928272    20.661529      8215.86    2908.3245    1303.6321    1767.1486   -41.239915    286.51108    -357.9265   -4792.1743 
39680000    55.873268    -5140.567   -5032.8107    -5140.567            0    2734.4143    19.934914    19.841428     20.69134    8184.1937    2617.6007    2476.4992    3109.1428    42.952764    184.12098   -273.07221   -4706.4363 
39681000    55.615639   -5148.2542   -5040.9948   -5148.2542            0    2112.7523     19.99897    19.814875    20.713584    8208.3185    1026.2755    3413.0165    1898.9648   -28.863911    828.71552   -994.45989   -4788.0774 
39682000    54.737765   -5140.9847   -5035.4183   -5140.9847            0    2588.5722    19.830435    19.856063     20.72132    8159.1106    3067.6766    2357.1599    2340.8802    77.360766   -270.19881   -343.96044   -4727.3983 
39683000     53.24597   -5148.2916   -5045.6022   -5148.2916            0    1672.3181     19.93375    19.936015    20.647497    8205.3056    1495.1895    2329.7545    1192.0103    281.98008    194.16253   -238.70243   -4845.4827 
39684000    54.276472    -5147.953   -5043.2763    -5147.953            0    2272.3227    19.904021    19.866635    20.732109    8198.0134    2701.1659    2194.2211     1921.581   -104.29797    734.21391    62.157916   -4771.5983 
39685000    57.341658   -5144.1133   -5033.5251   -5144.1133            0    2359.1682    19.870275    19.845809    20.769262    8190.1857    2657.8243    2555.7769    1863.9034    155.20925   -215.26968    400.00394   -4751.7332 
39686000    56.539339   -5141.3049    -5032.264   -5141.3049            0    1845.1916     19.97442    19.835013    20.710497     8205.351     1808.512    1977.8644    1749.1985    171.92483    320.88403   -368.27082   -4811.4562 
39687000    54.352185   -5144.4741   -5039.6513   -5144.4741            0    2505.6379    19.856567    19.899322    20.731817    8191.8091     2873.322    2846.7709    1796.8208   -391.54587    418.86476   -275.57784   -4740.3049 
39688000     57.69922   -5146.8224   -5035.5446   -5146.8224            0    2438.5911    19.911958    19.933327    20.643125    8193.4951    2062.1594    2641.0377    2612.5763    238.99057   -264.38581   -208.56262   -4744.1482 
39689000    53.295154   -5144.8031   -5042.0189   -5144.8031            0    1883.6028    20.008458    19.850521    20.613207    8187.1187    807.69809    2443.1761    2399.9341   -275.77938    96.503103   -411.28958   -4817.1154 
39690000    57.281217    -5142.964   -5032.4923    -5142.964            0    1852.1398    19.977128    19.909597    20.763061    8258.2288     2447.082    1095.2805    2014.0569    48.671427    73.082371    422.79761   -4809.4247 
39691000    56.217434   -5143.8195   -5035.3995   -5143.8195            0    2863.9168    19.907363    20.003661    20.547198    8182.3082    3462.4024    1844.1367    3285.2112   -276.53324    -355.1845    81.440301   -4693.6466 
39692000    56.972209   -5144.5377    -5034.662   -5144.5377            0    2172.1354    19.920099    19.972076    20.593007    8192.8402    1820.9779    2013.8254    2681.6029   -101.66711    439.83117    53.994296   -4775.1262 
39693000     55.22705   -5141.3317   -5034.8217   -5141.3317            0    2185.5148    19.941126    19.945292     20.56502    8179.3582    779.03665     2325.445    3452.0627    105.06769   -636.55683   -143.34878    -4774.117 
39694000    56.965799   -5141.1622   -5031.2989   -5141.1622            0    1859.4277    19.899779    19.957111      20.7067    8223.5019    1863.0077    2011.5088    1703.7666   -281.72588    -179.9906    176.17511   -4808.2952 
39695000    55.731695   -5144.7497   -5037.2664   -5144.7497            0    2503.8436    19.862657     19.87724    20.745593    8190.6671    3315.0489    1884.9384    2311.5435    36.194276   -65.688524    503.23381   -4738.1761 
39696000    56.135282   -5145.1491   -5036.8875   -5145.1491            0    2486.4621    19.890115    19.988025    20.624151    8199.4222    2928.0874    1979.7426    2551.5564    112.46269   -103.63053    959.15126    -4739.556 
39697000     52.70227   -5140.1063   -5038.4655   -5140.1063            0    2025.8898    19.867535    19.935392    20.795748    8236.5117    3578.1366    932.07684    1567.4559    80.415455   -127.17173    863.14848   -4795.1135 
39698000      56.3399   -5144.3463     -5035.69   -5144.3463            0    2113.2965    19.869831     20.06565    20.575281    8203.3866    2666.4407    1019.6175    2653.8312   -245.61695    186.60139    886.07039   -4782.8595 
39699000    54.686146   -5138.2423   -5032.7755   -5138.2423            0    2377.7678    19.747155    19.924574    20.934115    8236.6037    3661.6501    1494.6072    1977.0461   -290.75848    615.32254     383.7469   -4747.1523 
39700000    54.151443   -5143.6651   -5039.2295   -5143.6651            0    2656.9609    19.878936    19.963643    20.644532    8192.9062    2633.9726    2543.5658    2793.3442    -246.1673     118.5652   -527.80921   -4721.7622 
39701000    53.183681   -5142.2134   -5039.6442   -5142.2134            0    1969.9385    19.821418    19.894258    20.830407    8214.1046    2625.5418    1645.0755    1639.1984   -143.06252    354.10273    123.02018   -4803.6568 
39702000    55.819216   -5146.6351    -5038.983   -5146.6351            0    1020.2628    19.843907    20.005097    20.743122    8234.5902    1989.2591    613.51775    458.01151    33.292867    27.968145    54.643464   -4916.4565 
39703000    55.267168   -5147.7353   -5041.1479   -5147.7353            0    2901.2081    19.839305    19.881487    20.771953    8193.1828    3522.0955     2784.402    2397.1268     167.6806    67.038563   -52.985943    -4694.485 
39704000    52.977646   -5146.3719      -5044.2   -5146.3719            0    2357.2602    19.872022    19.850518     20.72638    8175.9335     2186.432    2893.3369    1992.0116   -298.99177    -296.2641    181.08843    -4763.126 
39705000    53.134977   -5148.9614   -5046.4861   -5148.9614            0    1751.3936    19.921738    19.864791    20.769684    8219.4193     2005.767    1745.3648     1503.049   -129.18042    117.79587   -57.616626   -4836.5434 
39706000    53.040769   -5146.0649   -5043.7713   -5146.0649            0    2371.6067    19.948322    19.848193    20.699463    8195.7074    2750.2058    2119.3603    2245.2539     34.45145    840.85682    164.77853   -4760.3027 
39707000    54.683964   -5144.2591   -5038.7965   -5144.2591            0     2205.253    19.931284    19.929717    20.621799    8191.4913    2190.5933    1984.7236    2440.4422    -159.5236    883.64103    510.86266    -4775.347 
39708000    55.436596   -5139.8986   -5032.9845   -5139.8986            0    2884.6331    20.011786    19.871232    20.518458    8159.3465    2160.8902    3610.4378    2882.5714   -237.83226    178.88587   -237.26641   -4689.7255 
39709000    55.822627   -5145.1965   -5037.5379   -5145.1965            0    2850.4216    19.814257     19.89013    20.797958     8196.645    4517.0364    1688.6674     2345.561   -7.9356203   -278.16114    65.819864   -4696.7995 
39710000    55.480003   -5139.4201   -5032.4223   -5139.4201            0    1581.9559    19.934583    19.963662    20.637404    8213.0119    2258.8281    884.64952    1602.3902   -108.65816    229.47945   -286.50549   -4842.9382 
39711000    55.842798   -5144.6256   -5036.9281   -5144.6256            0    2246.6807     19.82325    19.923893    20.729638    8187.3014    2891.8545    1871.1256     1977.062   -130.86878    587.09292   -790.62281   -4768.6668 
39712000    55.424676   -5143.9768   -5037.0856   -5143.9768            0    2411.8759    19.896002    19.919433    20.661106    8188.3489    2520.8729    2528.2461    2186.5088   -71.329832    382.28454   -43.368484   -4749.0626 
39713000    54.333036   -5136.8466   -5032.0608   -5136.8466            0    2845.5079    19.959704    19.804684    20.718696    8190.0097    2395.3039    3792.1042    2349.1157    31.370313    782.99106    38.338449   -4692.1851 
39714000    56.131323   -5146.6405   -5038.3865   -5146.6405            0    1715.1956    19.972061    19.906033    20.737645    8244.5516    1188.0435    2155.4476    1802.0958   -24.323859   -458.21582     465.9569   -4832.1543 
39715000    51.884018     -5148.21   -5048.1473     -5148.21            0      2093.15    19.825909    19.964323     20.80993    8236.7959    3721.5373    587.39924    1970.5135   -78.119769    508.25147    61.155376   -4796.7072 
39716000    53.115939   -5143.1099   -5040.6713   -5143.1099            0     1755.029    19.850237    19.982511    20.697728    8209.9105    2444.8522    955.15201    1865.0828   -134.69617    228.29439   -398.73006   -4830.5362 
39717000    51.129765   -5144.3192   -5045.7112   -5144.3192            0    1924.1011    19.822907    20.005868    20.621686     8178.034    2250.5979     948.3126    2573.3927   -339.72047    452.55701    97.014803    -4816.227 
39718000    57.323556   -5144.0189   -5033.4656   -5144.0189            0    2443.7887    19.986397    19.846766    20.637779    8186.2915    2112.2083     2358.605    2860.5528    171.82454    508.60596    108.39213   -4741.7049 
39719000    56.273535   -5143.9581   -5035.4299   -5143.9581            0    2486.1003    19.850917    19.820409    20.807577    8186.8096    3115.8073    2854.1749    1488.3187   -164.06883   -775.95172    224.95439   -4738.5989 
39720000    54.599494   -5146.9204   -5041.6207   -5146.9204            0    2024.7155    19.905138    19.868768    20.696021    8185.0812    1543.3232    1896.3645    2634.4589    25.493025    543.11788    460.99933   -4799.9283 
39721000    54.411095   -5142.7989   -5037.8625   -5142.7989            0     2115.392    19.847651    19.863973    20.726893    8171.6442    2015.9154    2515.2599    1815.0008   -147.05255    641.20648   -371.01499   -4785.7605 
39722000    53.258623   -5144.3216   -5041.6079   -5144.3216            0    2493.6989    19.822604    19.991829    20.662771    8188.4518    3067.4137    1646.5981     2767.085    126.09331   -119.73455    288.30424   -4743.8099 
39723000    53.507239   -5145.3824   -5042.1892   -5145.3824            0    2700.2386    19.791434    19.891146    20.795745    8186.7506     3521.403    1951.3235    2627.9894   -224.35779   -145.06729   -748.32949   -4719.7932 
39724000    54.411024   -5141.1213   -5036.1851   -5141.1213            0    2751.4281    19.931534    19.874394    20.636406    8174.6408    2063.7378    3016.2943    3174.2523    46.436882    167.87669    276.10985   -4708.1632 
39725000    53.674387    -5147.466   -5043.9505    -5147.466            0    1970.5829    19.908768    19.974231    20.664877     8217.643    1480.4236    2373.6893    2057.6358   -205.45094    958.63912    92.931975   -4807.7842 
39726000    53.545785    -5141.917   -5038.6494    -5141.917            0    1821.7073    19.902128    19.965848    20.665697    8211.7803    1362.2281    2178.4425    1924.4513   -238.84132    420.64527   -50.793631    -4820.481 
39727000    56.595845   -5134.7469   -5025.5971   -5134.7469            0    2673.4788    19.924831    19.886671    20.676492    8192.8235    3861.4263    1729.4005    2429.6095   -47.607133    719.09556   -37.508296   -4706.1593 
39728000    57.545883   -5142.6748   -5031.6927   -5142.6748            0    2054.9781    19.936558    19.840184    20.769199    8215.1523    2033.9238    2076.9953    2054.0153   -58.900943    508.91645    115.64208   -4785.4866 
39729000    57.522515   -5146.6529   -5035.7159   -5146.6529            0    1818.1848     19.91362    19.961021    20.671072    8216.6727    1418.9872     1866.597    2168.9701    339.39191   -298.58773    182.62514   -4817.8396 
39730000     58.10648   -5142.0752    -5030.012   -5142.0752            0    1539.8877    19.874887     19.91484    20.786821    8227.5315    1876.3034    1780.8297    962.52996   -72.146273    412.83027    185.25014   -4845.2407 
39731000    58.059656   -5147.3424   -5035.3694   -5147.3424            0    2815.9156    19.932504    19.892938    20.732924    8220.9371    3178.7124    2325.7508    2943.2837    116.60336    704.84179   -363.95852   -4697.7582 
39732000    53.703471   -5143.4071   -5039.8354   -5143.4071            0    1445.7725    19.980339    19.910968    20.727509    8245.9813    2180.7722    1343.5052    813.03999   -98.465288     87.82755   -556.25699    -4865.968 
39733000    55.082255   -5146.7689   -5040.5381   -5146.7689            0    2848.7193    19.900241    19.769515    20.825973     8193.315    3453.2658    3073.3981    2019.4941   -328.65171    586.75674   -448.70534   -4700.1415 
39734000    58.049059   -5146.4858   -5034.5333   -5146.4858            0    1839.6631    19.998579    19.862009    20.618729    8190.0058     1303.609    2285.6936    1929.6868   -91.653758    124.71736   -30.804433   -4814.7987 
39735000    54.183835   -5148.1902   -5043.6921   -5148.1902            0    1689.2667    20.018173    19.869987    20.642295    8210.6963    1315.1585    1901.7085    1850.9331   -431.25484   -281.58338   -641.96862   -4841.4116 
39736000    53.985012   -5146.2027   -5042.0881   -5146.2027            0    2253.5605    19.954678    19.859326     20.69743    8202.1114    2947.1392    1831.2266    1982.3158   -103.08653    73.537572    242.43934   -4772.5186 
39737000    55.108368   -5143.4684   -5037.1873   -5143.4684            0    1419.9802    19.973602    19.819268    20.789567     8229.803    1347.8414    1599.7797    1312.3196    130.87303    302.19474   -619.76829   -4866.7566 
39738000    58.106737   -5147.0367   -5034.9729   -5147.0367            0    2461.3169    20.023437     19.82412    20.596703    8175.8001    2291.9859    2881.9999     2209.965    65.848641   -58.324011   -732.25625   -4741.4962 
39739000    52.832415   -5140.5895   -5038.6977   -5140.5895            0    2229.8378    19.992169    19.857125    20.710312    8221.7245    2696.6249     2023.819    1969.0695   -192.12704   -39.204377    500.85871   -4771.3281 
39740000    54.394431   -5140.0871   -5035.1829   -5140.0871            0    3168.2084    19.894281    19.851431    20.670593    8163.4362    3826.9542    2772.0895    2905.5814   -147.43849     427.4672    640.30929   -4657.9907 
39741000    51.571968   -5145.6849    -5046.224   -5145.6849            0    1893.8832    19.972789    19.873387    20.820999     8264.416    1679.6043    2887.3515    1114.6938   -300.67451   -306.97532   -322.40961    -4817.958 
39742000     53.76041   -5141.1592   -5037.4777   -5141.1592            0     2287.572    19.979302    19.794897    20.762563    8211.3488    1852.0376    2435.8629    2574.8153    219.64317    70.194802    674.89866   -4763.5316 
39743000    54.189229   -5139.3972   -5034.8887   -5139.3972            0    2237.4401    19.894006    19.846822    20.744839    8190.7429     2202.519    2522.7642     1987.037    -265.2243    771.99302    402.68371   -4767.6185 
39744000    56.831985   -5142.5283    -5032.923   -5142.5283            0    1724.8105     19.92785    19.903189     20.67528    8200.3905    1749.9558    1227.4697    2197.0059   -10.944992     706.7168   -53.186695   -4826.6455 
39745000    55.180579   -5135.2086   -5028.7882   -5135.2086            0    2566.2946    20.047322     19.79784    20.680982     8208.151    2094.2665    2954.2145    2650.4029    12.393704    600.79213   -120.91546   -4721.5836 
39746000    55.751058   -5140.3446    -5032.824   -5140.3446            0    2655.2685    19.873445    19.853464    20.781347      8199.42    2765.7141    2603.5895    2596.5019   -160.94749   -350.09142     8.282748   -4715.3066 
39747000    51.508875   -5138.3759   -5039.0367   -5138.3759            0     2825.872    19.907084    19.866106    20.654258    8168.2682    2489.3389    4113.9129    1874.3641    -357.3785    823.85944   -1056.2549   -4702.4024 
39748000    57.129923   -5143.6528    -5033.473   -5143.6528            0    1921.4671    19.923023    19.844653    20.696783    8182.7937    1415.8737    2015.1652    2333.3623   -275.50272    219.97944   -748.46307   -4804.1696 
39749000    54.077826   -5146.9476    -5042.654   -5146.9476            0    2813.3832    19.940357    19.848375    20.659136    8176.5492    3739.2642    2346.7367    2354.1486   -55.520945     241.3714   -19.999968   -4707.1677 
39750000    58.205556   -5143.5066   -5031.2523   -5143.5066            0    1972.9323    19.923185    19.836283    20.826969    8230.8582    1661.8661    2705.6349    1551.2958    311.54799    180.72109   -61.948526   -4794.4242 
Loop time of 363.307 on 64 procs for 250000 steps with 972 atoms

Performance: 118.908 ns/day, 0.202 hours/ns, 688.124 timesteps/s
194.8% CPU use with 32 MPI tasks x 2 OpenMP threads

MPI task timing breakdown:
Section |  min time  |  avg time  |  max time  |%varavg| %total
---------------------------------------------------------------
Pair    | 25.415     | 34.123     | 44.274     |  81.1 |  9.39
Bond    | 1.0059     | 1.2206     | 1.7611     |  13.1 |  0.34
Kspace  | 161.86     | 171.61     | 182.44     |  41.5 | 47.23
Neigh   | 0.10881    | 0.11623    | 0.12466    |   1.6 |  0.03
Comm    | 62.803     | 66.1       | 70.431     |  26.5 | 18.19
Output  | 0.50429    | 0.50461    | 0.50593    |   0.0 |  0.14
Modify  | 70.953     | 72.824     | 75.867     |  14.2 | 20.04
Other   |            | 16.81      |            |       |  4.63

Nlocal:        30.3750 ave          36 max          24 min
Histogram: 3 3 2 1 0 11 2 4 4 2
Nghost:        2653.28 ave        2675 max        2634 min
Histogram: 3 1 7 1 7 2 4 4 0 3
Neighs:        9580.66 ave       12226 max        6961 min
Histogram: 2 4 3 1 5 5 6 2 3 1

Total # of neighbors = 306581
Ave neighs/atom = 315.41255
Ave special neighs/atom = 2.0000000
Neighbor list builds = 265
Dangerous builds = 0

unfix		3
unfix		2
unfix		1

write_data	data.final.${pid}
write_data	data.final.1
System init for write_data ...
PPPM initialization ...
  extracting TIP4P info from pair style
  using 12-bit tables for long-range coulomb (../kspace.cpp:340)
  G vector (1/distance) = 0.37269989
  grid = 24 24 25
  stencil order = 5
  estimated absolute RMS force accuracy = 0.0033716638
  estimated relative force accuracy = 1.0153665e-05
  using double precision FFTW3
  3d grid and FFT values/proc = 3458 576
Last active /omp style is kspace_style pppm/tip4p/omp
WARNING: Not all mixed pair coeffs generated from mixing. Use write_data with 'pair ij' option to store all pair coeffs. (../write_data.cpp:312)

write_restart   restart.lmp.${pid}
write_restart   restart.lmp.1
System init for write_restart ...
PPPM initialization ...
  extracting TIP4P info from pair style
  using 12-bit tables for long-range coulomb (../kspace.cpp:340)
  G vector (1/distance) = 0.37269989
  grid = 24 24 25
  stencil order = 5
  estimated absolute RMS force accuracy = 0.0033716638
  estimated relative force accuracy = 1.0153665e-05
  using double precision FFTW3
  3d grid and FFT values/proc = 3458 576
Last active /omp style is kspace_style pppm/tip4p/omp
Total wall time: 0:06:03
