LAMMPS (30 Jul 2021)
Processor partition = 0
  using 2 OpenMP thread(s) per MPI task
using multi-threaded neighbor list subroutines
variable        pid world 0 1
variable        phase world IceV IceIII

shell cd ${phase}
shell cd IceV
include Restart.lmp
echo both
log log.lammps
#include		in.partitions
include		in.temp
variable        temperature equal 161.47
variable	tempDamp equal 100.0
include		in.pressure
variable        pressure equal 7347.6
variable        pressureDamp equal 1000.0 # This is 1 ps
include		in.seed
variable        seed equal 745823

units		real
atom_style	full
read_restart    restart.lmp.${pid}
read_restart    restart.lmp.0
Reading restart file ...
  restart file = 30 Jul 2021, LAMMPS = 30 Jul 2021
  restoring atom style full from restart
  triclinic box = (-3.1438070 -0.11146071 0.0014648153) to (14.753806 22.691460 19.228533) with tilt (-0.30806352 -6.9130898 0.24268292)
  2 by 4 by 4 MPI processor grid
  restoring pair style lj/cut/tip4p/long/omp from restart
  restoring bond style harmonic/omp from restart
  restoring angle style harmonic/omp from restart
  1008 atoms
  672 bonds
  336 angles
Finding 1-2 1-3 1-4 neighbors ...
  special bond factors lj:    0        0        0       
  special bond factors coul:  0        0        0       
     2 = max # of 1-2 neighbors
     1 = max # of 1-3 neighbors
     1 = max # of 1-4 neighbors
     2 = max # of special neighbors
  special bonds CPU = 0.002 seconds
  read_restart CPU = 0.007 seconds

include 	in.setup
variable	out_freq equal 1000
variable	out_freq2 equal 10000
variable	out_freq3 equal 1000

timestep	2.0

neigh_modify    delay 7 every 1

include		in.tip4p
# This is TIP4P/Ice

# create groups ###
group ox type 2
336 atoms in group ox
group hy type 1
672 atoms in group hy

# set charges - beside manually ###
set group ox charge -1.1794
Setting atom values ...
  336 settings made for charge
set group hy charge 0.5897
Setting atom values ...
  672 settings made for charge

# ### TIP3P Potential Parameters ###
pair_style lj/cut/tip4p/long/omp 2 1 1 1 0.1577 8.5
pair_coeff 1 1*2 0.000 0.000
pair_coeff 2 2 0.21084 3.1668
bond_style  harmonic
bond_coeff  1 450 0.9572
angle_style harmonic
angle_coeff 1 55 104.52
kspace_style pppm/tip4p/omp 1.0e-5
pair_modify tail yes

thermo          ${out_freq}
thermo          1000
thermo_style    custom step temp pe etotal epair emol press lx ly lz vol pxx pyy pzz pxy pxz pyz enthalpy

restart 	${out_freq3} restart.lmp.${pid} restart2.lmp.${pid}
restart 	1000 restart.lmp.${pid} restart2.lmp.${pid}
restart 	1000 restart.lmp.0 restart2.lmp.${pid}
restart 	1000 restart.lmp.0 restart2.lmp.0


include         in.dump
dump            myDump all atom ${out_freq2} dump.water.${pid}
dump            myDump all atom 10000 dump.water.${pid}
dump            myDump all atom 10000 dump.water.0
dump            myDump2 all dcd ${out_freq2} dump.dcd
dump            myDump2 all dcd 10000 dump.dcd
dump_modify     myDump append yes
dump_modify     myDump2 append yes


variable natoms 	equal  "count(all)"                        # NUMBER ATOMS
variable H      	equal  "enthalpy/v_natoms"                 # ENTHALPY-per-atom
variable Vol      	equal  "vol/v_natoms"                 # volume-per-atom
fix AVG all 		ave/time ${out_freq} 1 ${out_freq} v_Vol v_H file vol_enthalpy.dat
fix AVG all 		ave/time 1000 1 ${out_freq} v_Vol v_H file vol_enthalpy.dat
fix AVG all 		ave/time 1000 1 1000 v_Vol v_H file vol_enthalpy.dat



fix 		1 all shake 1e-6 200 0 b 1 a 1
Finding SHAKE clusters ...
       0 = # of size 2 clusters
       0 = # of size 3 clusters
       0 = # of size 4 clusters
     336 = # of frozen angles
  find clusters CPU = 0.006 seconds
fix             2 all nph tri ${pressure} ${pressure} ${pressureDamp}
fix             2 all nph tri 7347.6 ${pressure} ${pressureDamp}
fix             2 all nph tri 7347.6 7347.6 ${pressureDamp}
fix             2 all nph tri 7347.6 7347.6 1000
fix             3 all temp/csvr ${temperature} ${temperature} ${tempDamp} ${seed}
fix             3 all temp/csvr 161.47 ${temperature} ${tempDamp} ${seed}
fix             3 all temp/csvr 161.47 161.47 ${tempDamp} ${seed}
fix             3 all temp/csvr 161.47 161.47 100 ${seed}
fix             3 all temp/csvr 161.47 161.47 100 745823


run             250000
PPPM initialization ...
  extracting TIP4P info from pair style
  using 12-bit tables for long-range coulomb (../kspace.cpp:340)
  G vector (1/distance) = 0.37990494
  grid = 24 27 32
  stencil order = 5
  estimated absolute RMS force accuracy = 0.0023775854
  estimated relative force accuracy = 7.1600277e-06
  using double precision FFTW3
  3d grid and FFT values/proc = 5355 672
Last active /omp style is kspace_style pppm/tip4p/omp
Neighbor list info ...
  update every 1 steps, delay 7 steps, check yes
  max neighbors/atom: 2000, page size: 100000
  master list distance cutoff = 10.8154
  ghost atom cutoff = 10.8154
  binsize = 5.4077, bins = 5 5 4
  1 neighbor lists, perpetual/occasional/extra = 1 0 0
  (1) pair lj/cut/tip4p/long/omp, perpetual
      attributes: half, newton on, omp
      pair build: half/bin/newton/tri/omp
      stencil: half/bin/3d/tri
      bin: standard
Setting up Verlet run ...
  Unit style    : real
  Current step  : 20000000
  Time step     : 2
Per MPI rank memory allocation (min/avg/max) = 10.31 | 10.32 | 10.34 Mbytes
Step Temp PotEng TotEng E_pair E_mol Press Lx Ly Lz Volume Pxx Pyy Pzz Pxy Pxz Pyz Enthalpy 
20000000    163.53664   -5024.7005    -4697.607   -5024.7005            0    7663.9014    17.897613     22.80292    19.227068    7846.9097    7528.9365    7505.9446     7956.823    308.29555    1259.9183   -180.96127   -3820.5568 
20001000     154.4969   -5044.1784   -4735.1655   -5044.1784            0    6554.1469    17.982549    22.726204    19.224601    7856.6153    5668.7108    7198.3773    6795.3525    542.15538    586.38113    1194.0971   -3984.1869 
20002000    166.05147    -5052.528   -4720.4045    -5052.528            0     8216.434    17.879486    22.661556    19.239627    7795.4538    8654.2704    8429.5939    7565.4378   -504.44034    1163.6492    531.49992   -3786.2889 
20003000    159.92882   -5057.7374     -4737.86   -5057.7374            0    6746.5982    17.980493    22.725835    19.209447    7849.3973    6128.7572    6684.0478    7426.9896    1568.9963   -515.51147    688.29088   -3965.5404 
20004000    150.80256   -5052.3991   -4750.7753   -5052.3991            0    8113.3111    17.792517    22.853809    19.233891    7821.0156    7037.2303    8889.0198    8413.6832    1977.6979   -100.17278   -77.109045    -3825.359 
20005000    157.91622   -5046.1518   -4730.2998   -5046.1518            0      6923.97    17.844138     22.87199    19.248192    7855.7825    6604.3497    6510.7882    7656.7722   -1200.9908   -256.48187   -762.23164   -3937.0308 
20006000    159.97531   -5035.7267   -4715.7563   -5035.7267            0    7712.8172    17.928907      22.7387    19.182446    7820.3006    6162.2545    9044.9444    7931.2529    1069.2559   -399.29088   -570.34992   -3836.1013 
20007000    162.77516   -5048.4325    -4722.862   -5048.4325            0     8308.739    17.832758     22.89206     19.08091    7789.3726    8565.4737    7711.4922     8649.251    499.07631   -536.36385   -1027.2527   -3778.9892 
20008000    160.53545   -5050.7635   -4729.6727   -5050.7635            0    5308.4111    18.029929    22.682778    19.323613    7902.7565    3839.7281    5839.4367    6246.0686   -145.07292    -573.6131   -394.81571   -4117.8592 
20009000    164.17754   -5038.6442   -4710.2688   -5038.6442            0    6876.6491    17.818686    22.838018    19.254025    7835.2995     7271.847    6410.1162    6947.9842    181.81898   -105.01033   -2247.0837   -3924.4755 
20010000    160.90618   -5041.7964   -4719.9642   -5041.7964            0    6770.1381    17.792222    22.762431    19.407888    7860.0825    6930.4309    7172.0104    6207.9731    227.05398     192.5163   -945.99268   -3943.8948 
20011000    156.88668   -5040.5848   -4726.7921   -5040.5848            0    8936.1453    17.904706    22.580028    19.303068    7804.0134     8987.726    9250.3561    8570.3539   -653.27986   -358.28618    288.05743   -3709.7379 
20012000    162.90523   -5031.2965   -4705.4659   -5031.2965            0    5142.2553    17.955751    22.846903    19.271142    7905.6645     5009.448    4864.0556    5553.2625    1079.6395    -85.38786     358.9992   -4112.5844 
20013000    161.82805    -5028.605   -4704.9289    -5028.605            0    7253.2669    17.970476    22.761237    19.150202    7833.0123    5930.1524    7954.2732    7875.3751   -55.624701    1057.1234   -682.09896   -3876.3414 
20014000     166.5769   -5061.8341   -4728.6597   -5061.8341            0    8236.6974    17.946856     22.62107    19.208818    7798.3402    8274.4412    8419.7454    8015.9057    1124.9716    213.95002    156.90494   -3791.8936 
20015000    163.78668   -5055.2771   -4727.6835   -5055.2771            0    7160.3083    17.787413    23.005914    19.148336    7835.7996    8206.0665    5749.5726    7525.2859    788.17048   -637.19357    469.92364   -3909.4242 
20016000    165.10091   -5052.4271   -4722.2048   -5052.4271            0    7823.5717    17.911194    22.628075    19.309858    7826.2054    6653.6753    8311.5305    8505.5092   -164.27744   -85.803702     1016.389   -3829.2444 
20017000    162.59942   -5056.7779    -4731.559   -5056.7779            0    6814.8744    17.924788    22.712603    19.310756    7861.7678    7356.3108    6752.5189    6335.7935    522.57059   -806.60063    324.99692    -3950.194 
20018000    160.01762   -5064.5639   -4744.5089   -5064.5639            0    5935.0379     17.82215    23.062655    19.141254    7867.5547     7174.982    4318.8154    6311.3161   -37.445949   -453.75241    1310.9678   -4063.5214 
20019000     166.0807   -5056.2197   -4724.0378   -5056.2197            0    7477.9026    17.876821    22.730201    19.247494    7821.0988    8640.6985    6601.2765    7191.7327    706.63925    679.55157   -566.66635    -3871.088 
20020000    161.87867   -5049.0182   -4725.2409   -5049.0182            0    9135.0582      18.0002    22.365556    19.344526    7787.8057    9246.5649    10076.184    8082.4257   -526.31639    1953.2694   -295.73731   -3687.7069 
20021000      163.143   -5070.6644   -4744.3582   -5070.6644            0    7704.0186    17.813471    22.943108    19.111054     7810.619    9008.1293    6341.5743    7762.3522    424.70848   -25.141161    497.36247   -3866.7945 
20022000    157.82002   -5043.3016    -4727.642   -5043.3016            0    6340.3842    17.999387    22.744992    19.230794    7873.0082    6471.6783    6410.9238    6138.5506    860.41292   -112.34775    1806.2092   -3999.6407 
20023000    167.20509   -5085.2749   -4750.8441   -5085.2749            0    6262.0988     18.05219    22.565742    19.293084    7859.2514    6028.4493    6146.9301    6610.9168    933.38899   -265.98121    1942.8472   -4033.0878 
20024000    166.11883   -5029.6605   -4697.4023   -5029.6605            0    6396.4511    17.784538    23.128574    19.102088    7857.2814    5036.0448    6398.2638    7755.0446    469.10179   -439.92174   -775.79845   -3964.4305 
20025000    159.07782   -5029.9273    -4711.752   -5029.9273            0    6708.3815    17.889596    22.826639    19.273978    7870.7094    8665.3002    6292.6317    5167.2124   -923.90596   -1045.8987    86.703394   -3941.7222 
20026000    168.25381   -5049.8898   -4713.3614   -5049.8898            0    7675.3257    17.965826    22.605689    19.279504    7829.9827    7618.2436     7308.982    8098.7513    897.93907    -466.3043   -280.57097   -3836.8986 
20027000    169.00966   -5043.7347   -4705.6945   -5043.7347            0    8416.3897    17.748163    22.887928    19.215937    7805.8728    9335.1077     8493.604    7420.4573    102.86378    -206.6066   -905.30014   -3747.5672 
20028000    159.05183   -5057.6571   -4739.5338   -5057.6571            0    6616.7302    17.833923    22.723186    19.387459    7856.6427    6850.4421    7305.6133    5694.1353    58.292515   -35.432787    1731.0838   -3981.3818 
20029000    162.13683   -5051.0546   -4726.7609   -5051.0546            0    7354.5392     17.93004    22.683378    19.240423    7825.3466    8472.9605    6322.4532    7268.2038    -323.1314   -1566.5791   -143.88552   -3887.4266 
20030000    165.98022   -5042.9172   -4710.9362   -5042.9172            0    6803.7377    17.950092    22.743501    19.229736    7850.4998    5633.9699    7138.6726    7638.5705   -410.94058    244.84983   -150.35814   -3931.9662 
20031000    165.77478   -5042.1256   -4710.5556   -5042.1256            0    6826.5418    17.901951    22.873759     19.13446    7835.2727    6160.8576    6089.0958    8229.6721    1988.4055    -1139.582    280.09003   -3930.4906 
20032000    167.25393   -5050.4415   -4715.9129   -5050.4415            0     7179.906    17.840393    22.736761    19.259393    7812.2411    7471.3947    7408.2936    6660.0297    -357.3019   -50.255129    405.43076   -3897.8809 
20033000     161.3192   -5049.4554   -4726.7971   -5049.4554            0    7319.0004    17.879407     22.81241    19.225026    7841.3568    7913.2603    7457.8674    6585.8735    695.15535    317.28529    833.10051   -3889.8098 
20034000    157.76101   -5063.0757   -4747.5342   -5063.0757            0    6270.3595    17.939599    22.664877     19.32314    7856.7658    6132.7199      6674.96    6003.3986     1151.232    391.76422    299.23338   -4029.0584 
20035000    158.06762   -5062.8663   -4746.7115   -5062.8663            0    8015.3531    17.928754    22.539481    19.332377    7812.3066    9631.4219    7389.8589    7024.7784   -232.51638   -153.90412   -77.646128   -3833.4865 
20036000     161.1397   -5068.2287   -4745.9294   -5068.2287            0    6631.9588    17.763754    23.109983    19.102166     7841.822    7584.8962     4808.283    7502.6971    419.26935   -958.66186   -365.69072   -3987.4659 
20037000    170.36507   -5063.5934   -4722.8422   -5063.5934            0    8188.0893    17.990804    22.600306     19.21186    7811.4973    8028.4974    8319.2241    8216.5464   -747.52961   -193.15608    922.49187   -3790.0331 
20038000    161.75042   -5056.2342   -4732.7134   -5056.2342            0    6980.5746    18.012747    22.678948    19.261425    7868.4877    6540.2258    6844.0062    7557.4919   -449.79901   -37.961542   -876.49651   -3931.6657 
20039000    158.23969    -5045.681   -4729.1821    -5045.681            0    8079.0744    17.808799    22.952891    19.110204    7811.5524    8400.0931    7886.1195    7951.0107   -363.53705   -134.48493   -897.02176   -3808.7858 
20040000     161.0383   -5040.9469   -4718.8504   -5040.9469            0    9059.3436    17.943804    22.560748    19.231289    7785.3187    8592.7959    8988.3966    9596.8385   -802.15191    367.40851    -46.46655   -3690.2445 
20041000     161.5629   -5045.7057   -4722.5599   -5045.7057            0    7565.5538    17.936009    22.634317    19.262432    7819.9563    6386.3822    8323.7299    7986.5492   -48.730071    638.22809    1800.3758   -3859.7385 
20042000     158.0677   -5042.4725   -4726.3176   -5042.4725            0    7540.4866    17.781494     22.94783    19.199886    7834.4499     8668.863    6449.4061    7503.1907    125.49893    530.41273    333.40354   -3864.7611 
20043000    167.23438   -5053.5149   -4719.0255   -5053.5149            0    7358.7312    17.888166    22.681964    19.320898     7839.237    8858.3923    6569.5201    6648.2812   -289.86378   -1199.8163   -1354.0849   -3877.7221 
20044000    159.33238   -5058.9463   -4740.2619   -5058.9463            0    8998.2665    17.807275    22.705827    19.201691    7763.7987    9275.7641    9177.5946    8541.4407    473.24914    126.72204    1253.9674   -3721.4148 
20045000    156.97402   -5062.5343   -4748.5669   -5062.5343            0    7416.3806    17.826144    22.850875    19.251653    7842.0258     9516.613    6359.2738     6373.255     770.9694   -820.26628    2130.8132    -3900.371 
20046000    164.84072   -5068.1885   -4738.4867   -5068.1885            0    6886.8313    17.866275    22.605192    19.398579    7834.5151     7728.949    7307.1437    5624.4011    1566.3626    723.21198   -52.149747   -3951.6086 
20047000    158.62928   -5049.7809   -4732.5027   -5049.7809            0    7847.9393    17.900755    22.695857    19.272046    7829.7114     8230.274    8038.2904    7275.2535   -1106.0524     611.5747   -540.72221   -3836.3598 
20048000    158.35747   -5059.1034   -4742.3689   -5059.1034            0    6933.5871     17.88194     22.72583    19.275402     7833.175    5724.2937    7054.2722    8022.1953   -1319.2386    624.47558   -1061.1691   -3950.2841 
20049000    166.06132   -5046.1113   -4713.9682   -5046.1113            0    8660.1449    17.885062    22.761589    19.199963    7816.1597    7416.3013    9083.6507    9480.4826    431.70887   -1265.1625   -937.58042   -3726.7924 
20050000    159.52889   -5061.5271   -4742.4496   -5061.5271            0    6444.4961     18.11134    22.602004    19.156938    7841.9418    5211.8407    6919.2936     7202.354   -761.27054   -14.502543    658.28371    -4005.414 
20051000     173.5265   -5036.6964   -4689.6219   -5036.6964            0    8337.9126    18.018607    22.664706    19.191703    7837.6313    8182.2897     8508.915     8322.533   -44.777668    1009.5562    -519.8704   -3736.5667 
20052000    155.72661   -5049.8277   -4738.3553   -5049.8277            0    8866.8523     17.86259    22.759061    19.160656    7789.4921    8825.8283    8878.2737    8896.4549   -371.67248    347.00509    904.08699   -3731.0653 
20053000    160.20996   -5075.7189   -4755.2792   -5075.7189            0    7165.5365    17.894723    22.772144    19.254405    7846.1935    7545.6533    7075.5311    6875.4252   -131.21325    120.68597   -52.513893   -3935.3363 
20054000    164.79908   -5037.0949   -4707.4764   -5037.0949            0     7375.265    17.957717    22.568432    19.342755    7839.1836     6477.411    8326.9208    7321.4634   -313.13591    417.22601   -648.83468   -3864.2885 
20055000    165.45018     -5048.34   -4717.4192     -5048.34            0    7283.5902    18.079031    22.646235    19.122729    7829.2657    6010.3723    7598.0122     8242.386   -1241.2383    323.58843   -817.75811   -3885.7657 
20056000    162.71976   -5023.6441   -4698.1844   -5023.6441            0    7986.2736    18.005106    22.761038    19.132762    7840.8911    7607.0788     7752.721    8599.0209    165.38644   -26.620524   -337.42989   -3784.9432 
20057000     159.6797    -5071.551   -4752.1719    -5071.551            0    7047.6584    18.048702    22.764008    19.103459    7848.8625    5766.5924    6851.7221    8524.6606    613.79085   -267.03665   -495.70661   -3945.4433 
20058000    161.19036   -5051.4883   -4729.0877   -5051.4883            0    6630.2215    18.036873    22.694034    19.254802     7881.557     6612.035    6345.9989    6932.6304   -156.43599   -485.41372     1445.085   -3966.9807 
20059000    161.41005   -5061.2237   -4738.3837   -5061.2237            0    6841.9524    17.897086    22.880448    19.171297    7850.5187    7933.1663    5139.3565    7453.3343    1752.6733   -1295.5033    499.55322   -3955.0365 
20060000    166.91635   -5058.9207   -4725.0674   -5058.9207            0    6771.0171    17.825897    23.000484     19.07188    7819.5522     6384.103    6967.4422    6961.5059   -770.41688    157.67803   -573.66927   -3952.8996 
20061000    164.84811   -5041.3077   -4711.5911   -5041.3077            0    7105.7098    18.088586    22.519696    19.308108    7865.1476    6779.1704    7930.5968    6607.3621     1410.551   -422.37641   -764.19471   -3896.5299 
20062000    169.63619   -5042.8679   -4703.5745   -5042.8679            0    6568.6837     17.96332     22.91556    19.134276    7876.4243     4764.454    6804.1293    8137.4679    1098.0439   -235.13999   -190.84931   -3949.0327 
20063000    168.37654   -5043.6344   -4706.8605   -5043.6344            0     7713.328    17.871626    22.889687    19.100681    7813.6288    6373.5984    8690.8185     8075.567   -102.73072    164.58172     592.3283   -3827.8978 
20064000    156.73668   -5048.9776   -4735.4849   -5048.9776            0    6689.3986    18.039168    22.656223     19.23643     7861.918    6469.5912    5887.3597    7711.2447    18.804924   -573.65913     615.1024   -3968.4918 
20065000    155.96628   -5053.9024   -4741.9506   -5053.9024            0    7936.8888    17.818365     22.75736    19.242124    7802.6611    7704.1922    8387.3175    7719.1566   -522.77056   -513.37454    -696.5301   -3838.7818 
20066000    167.76748    -5041.277   -4705.7213    -5041.277            0    7375.8236    17.784581    22.772471    19.341878    7833.4384    9104.4982    6900.9507    6122.0219   -895.77936   -1717.9411   -646.21743   -3863.0876 
20067000    154.18811   -5045.7762   -4737.3809   -5045.7762            0    7208.2169    17.964453    22.693751    19.221126    7836.0845    5928.4163     7811.336    7884.8984    402.29484    255.04426   -64.409892   -3913.6168 
20068000    162.31555   -5044.7933   -4720.1421   -5044.7933            0    7442.8172     17.97502    22.871219    18.986078    7805.3781    5313.0784    7094.0774    9921.2958     773.8893   -695.24266     593.7965   -3872.9007 
20069000     157.3106   -5069.2155   -4754.5748   -5069.2155            0    7205.1411    17.971545    22.822317     19.10473     7835.849    6593.9343     7516.516    7504.9728   -161.26404    1131.8654    134.32908    -3931.187 
20070000    159.31199   -5038.1232   -4719.4795   -5038.1232            0    7995.3112    17.979627    22.681319    19.147686    7808.4582    7052.8245    8992.5637    7940.5454   -252.53867    830.10433    388.65646   -3808.9866 
20071000    155.67765   -5037.2641   -4725.8895   -5037.2641            0    7702.5715    18.014389    22.712021    19.164933    7841.2017    7390.6266    7645.2832    8071.8049   -447.96412    135.37771     578.0978   -3845.0552 
20072000    175.44221   -5052.2148   -4701.3087   -5052.2148            0    5320.5963    17.948264    22.890902    19.186777     7882.925    5369.1646    5444.4399    5148.1845   -268.86666    1582.7123    615.74868   -4089.6297 
20073000    156.19339     -5059.57   -4747.1639     -5059.57            0    9214.3562     17.96275    22.642853    19.126157    7779.1419    8262.2639    10076.784    9304.0201    489.29042    471.66577    1040.6642   -3701.7877 
20074000    155.19778   -5065.7232   -4755.3085   -5065.7232            0    6174.1598     17.85502    22.880723    19.206538    7846.5577    7485.3679     5055.478    5981.6334    127.84752   -1135.1931   -357.56678   -4048.7747 
20075000     161.2908   -5060.3145   -4737.7129   -5060.3145            0    6060.2418    18.014934    22.771654    19.141003    7852.2103    5558.4672    5563.8591    7058.3992    668.08059   -715.73161    -813.5748   -4043.7157 
20076000    164.27657   -5050.8831   -4722.3096   -5050.8831            0    6450.3323    18.082712    22.686009    19.136121    7850.1071    5486.9404    6617.6483    7246.4081    750.88651    -727.8564    566.89628   -3983.8384 
20077000    154.24786   -5058.1118    -4749.597   -5058.1118            0    8257.2678     17.68076      23.0797    19.078641    7785.3572    8849.3444     6672.757     9249.702    58.805576   -862.10023   -153.51763   -3812.0548 
20078000    172.94433   -5049.0769   -4703.1668   -5049.0769            0    6411.5838    17.923966    22.852678    19.203232    7865.8482    4499.7356    6850.4746    7884.5412   -411.25718    754.90314   -1384.8097   -3967.6599 
20079000    155.81097   -5050.6975   -4739.0563   -5050.6975            0    6909.0838    17.960429    22.637324    19.306041    7849.3738    6682.3219    7501.6868    6543.2427   -509.17889   -327.10842   -380.50614   -3948.1385 
20080000    165.08367   -5036.9476   -4706.7599   -5036.9476            0    6449.8348    17.782568    23.234844    18.969295     7837.642    6883.3584     5352.518     7113.628   -2136.2609   -550.28592   -2128.0781   -3969.5182 
20081000    165.23143   -5052.4886   -4722.0053   -5052.4886            0    8230.2272    17.915021    22.775367    19.131711    7806.1433    6428.9923    8674.3103    9587.3789    246.35819    538.74046    181.52647   -3785.0385 
20082000    156.53817   -5064.0084   -4750.9127   -5064.0084            0    6173.0215    18.105207    22.525078    19.301102    7871.3987    6156.8212    5610.0805    6752.1628   -425.28413   -855.97365   -713.80366   -4042.2728 
20083000    163.26146   -5042.9615   -4716.4184   -5042.9615            0    8624.6436    17.833287    22.861154    19.137965    7802.3479    7427.9045    8529.8688    9916.1576   -293.25762    1640.0401    883.62668   -3735.0268 
20084000    168.22755   -5048.0321   -4711.5562   -5048.0321            0    7033.3024    17.988152    22.709426    19.271191    7872.2935    6148.7885     7683.482    7267.6367   -609.65021    992.99072    1183.4152   -3904.0675 
20085000     157.5008   -5052.7066   -4737.6856   -5052.7066            0     6863.455    18.006488     22.59345    19.254872    7833.4339    6661.2808    6876.4613    7052.6228    738.19065   -224.52486    484.03385   -3953.5866 
20086000    156.13807   -5052.6495   -4740.3541   -5052.6495            0    5775.9327    17.785972    23.185777    19.137643    7892.0114    8942.2798    3574.6439    4810.8743    296.99621    165.96169    1033.6162   -4075.5622 
20087000    163.86773   -5059.3059   -4731.5502   -5059.3059            0    9113.2347    17.831206    22.733139    19.173214    7772.0405    9808.0962     8631.842    8899.7659    449.69845    264.88761    595.17402   -3698.5902 
20088000    161.38201   -5051.9778   -4729.1939   -5051.9778            0    7839.0435    17.927886    22.611667    19.338393    7839.3859    7724.3206    8565.8169    7226.9931    937.63929    828.70176    1112.1389   -3832.9607 
20089000    152.32275   -5065.2484   -4760.5841   -5065.2484            0    7899.9287    17.820438    22.876954      19.1568     7809.793    7699.1172    8047.1036    7953.5652    1705.3967    590.61658    526.45529   -3860.7994 
20090000    159.44945   -5055.8271   -4736.9085   -5055.8271            0    7876.1126     17.85018    22.819281    19.186225    7815.0919    8077.3516    7869.8886    7681.0975    421.25516   -198.76095    1315.1513   -3839.2278 
20091000    155.10299   -5045.1796   -4734.9545   -5045.1796            0    8648.5314    17.903363    22.730897    19.164458    7799.1585    8823.9953    8597.6738    8523.9251   -1334.3281    273.46247   -801.91849   -3751.2469 
20092000    157.25447   -5048.0607   -4733.5323   -5048.0607            0    8029.7578    17.932493    22.717539    19.238569    7837.4485    5519.1147    8028.1876    10541.971    1472.3639   -928.96118    21.191907   -3815.7218 
20093000    163.50838   -5035.0532   -4708.0162   -5035.0532            0    9646.0787    17.799695    22.735326    19.160795    7754.0263    9796.8519    10086.823    9054.5612    496.85438   -754.56289   -837.14273    -3617.194 
20094000    153.34148   -5041.0019      -4734.3   -5041.0019            0    5699.1114    17.991364    22.744239     19.28773    7892.5371    5607.4178    5152.1949    6337.7215   -903.29024    88.245894    -606.6928   -4078.3063 
20095000    157.12252   -5068.4774    -4754.213   -5068.4774            0    7910.6126    17.837805    22.895933    19.120134    7808.9149    9061.4347    8202.0129    6468.3902    -170.4514    642.10752   -1881.1183   -3853.3128 
20096000    159.36412   -5046.7381   -4727.9902   -5046.7381            0     6381.298    18.082993      22.7718    19.180942    7898.3722    6418.2884     5232.274    7493.3315   -70.317635   -684.64076    323.15284   -3992.9306 
20097000    160.65458   -5058.2089   -4736.8799   -5058.2089            0    5989.9812    17.976458     22.72929    19.251974    7866.2049    6552.1488    4972.0691    6445.7258    455.25852   -875.83291    1234.0534    -4049.706 
20098000    165.55767   -5056.0438    -4724.908   -5056.0438            0    8772.2332    17.852173    22.803821    19.127845    7786.9028     9049.522    8591.3879    8675.7897   -559.46545    629.38474     -1621.97   -3728.6982 
20099000    161.10272   -5053.2452   -4731.0199   -5053.2452            0    6538.8077    17.810339     22.72719       19.322    7821.1389    7582.7216    6524.3366    5509.3649   -1524.5555   -1087.7881   -1214.5484    -3985.182 
20100000    160.43648   -5050.1864   -4729.2936   -5050.1864            0    8335.4196    17.862401    22.711367    19.242899    7806.4501    8328.0084    8102.0375    8576.2129   -39.469936   -775.19911   -1267.0853   -3780.3139 
20101000    155.86722   -5072.3244   -4760.5707   -5072.3244            0    6309.0436    17.846788     22.81199    19.274412    7847.0132    6675.1342    6771.5885    5480.4082    692.58457    514.17683    497.74678   -4038.5597 
20102000    159.19295   -5043.8677   -4725.4622   -5043.8677            0    7342.1957    17.885744     22.63407    19.343316    7830.6999    8432.6544    7023.6977    6570.2352   -2036.5274   -853.33116    445.00996   -3886.9634 
20103000    161.09404   -5038.7265   -4716.5185   -5038.7265            0    7756.6515    17.770913    22.912856    19.187276    7812.7201    8284.4082    6772.9175    8212.6287    241.76292    279.38082   -452.37808   -3832.7217 
20104000    167.98733    -5062.133   -4726.1376    -5062.133            0    6262.9981    17.917207    22.762637    19.257402    7853.9946     7065.356    6599.9756    5123.6628    422.67288   -408.21899    694.93082   -4008.7584 
20105000    165.08771   -5024.7874   -4694.5915   -5024.7874            0    9149.1367    17.766469    22.752678    19.249057     7781.138    9973.7412    9663.9621    7809.7069   -344.57392    40.795903   -259.50485   -3656.3483 
20106000    159.65238   -5071.3113   -4751.9868   -5071.3113            0    6724.2394    17.827174    22.787219    19.296333    7838.7826    5912.5204      7629.56    6630.6378   -85.614609    486.32779    419.16121   -3983.2677 
20107000    165.68114   -5054.0325   -4722.6497   -5054.0325            0    7756.4679    17.919614    22.690491    19.238938    7822.6456    6769.3283    7990.0831    8509.9922     1051.616   -139.16723    1475.2099   -3837.7511 
20108000    158.70597    -5038.231   -4720.7994    -5038.231            0    7793.2721    17.917593    22.890351    19.134009    7847.6225    6746.0058    7715.4494    8918.3611    543.22257    -292.4611    1550.8492   -3828.8631 
20109000    160.30622   -5052.7301   -4732.0978   -5052.7301            0     8035.885    17.904602     22.83026    19.090832    7803.6966    7375.6911    8380.3794    8351.5844    28.543065   -366.98511     1620.899   -3817.5425 
20110000    162.89017   -5043.1961   -4717.3956   -5043.1961            0    6677.0073    17.959759    22.632958    19.339946    7861.3489    6724.2296    6143.8029    7162.9895     686.4866    687.70863    261.36794   -3951.8787 
20111000    170.73978   -5047.4358   -4705.9351   -5047.4358            0    8147.9199    17.825063    22.866702    19.202215    7826.8307    9790.9604    7730.3672    6922.4319   -37.624487    178.07611   -567.12635   -3775.8802 
20112000    161.55643   -5046.1959   -4723.0631   -5046.1959            0     6880.566    17.862012    22.816245    19.270374    7853.5259    7291.0105    6799.7382    6550.9492   -41.426815    388.04277   -1469.9457   -3934.9932 
20113000    163.31356    -5069.305   -4742.6577    -5069.305            0    6202.4473    17.822361    22.669692    19.422831    7847.3566    6391.0642    6755.5439    5460.7337   -913.46077   -204.83308   -203.70472   -4032.8146 
20114000    163.54938   -5049.3118   -4722.1928   -5049.3118            0     5968.808      17.8191    22.948757    19.213082    7856.7326    4809.7133    6516.5582    6580.1524    377.92428    319.71599   -376.05276   -4038.2726 
20115000     155.6379   -5040.9949   -4729.6999   -5040.9949            0    7446.8522    17.898991    22.786524    19.207794      7834.01     7021.031    7660.3776    7659.1479   -1017.6003    111.57023    1135.5087   -3878.8896 
20116000    152.70648   -5053.4732   -4748.0414   -5053.4732            0    6719.1461    18.021431    22.755946    19.146629    7851.9311    5065.2358    7165.8799    7926.3227   -657.91987    139.49778    69.082119   -3978.6161 
20117000    155.14525   -5060.0668   -4749.7571   -5060.0668            0    7181.2624    18.104898    22.685815    19.079916    7836.5863    5459.0216    7395.0955      8689.67    50.850403     484.2368   -714.74013   -3929.0209 
20118000    158.53022   -5057.4784   -4740.3984   -5057.4784            0     8637.524    17.978224    22.652335    19.134189    7792.3748    8121.2726    8761.8237    9029.4756    454.69724    994.40596    1037.1163   -3758.7974 
20119000    155.02722   -5055.8069   -4745.7333   -5055.8069            0    6647.0185     17.82941     22.97244    19.139401    7839.2125    6040.0432    5986.5556    7914.4568   -302.49794   -654.61754    1149.1573   -3985.8005 
20120000    163.34377   -5056.2631   -4729.5554   -5056.2631            0    7840.3369     17.86635    22.820631    19.135641    7802.0096    7712.9064    7417.0359    8391.0682    1529.2759    645.59824    1597.9815    -3837.448 
20121000    153.62319    -5050.898   -4743.6326    -5050.898            0    8002.4219    17.872217    22.667962    19.300744    7819.2473    8817.6729    8292.5349    6897.0577    1037.9385   -435.41826    1193.6129   -3831.0708 
20122000    166.18526   -5040.8806   -4708.4895   -5040.8806            0    7693.0113    17.840472    22.676876    19.306254    7810.6572    9417.0023    7674.9491    5987.0826    1172.2883   -1020.5598    2367.9065   -3832.1753 
20123000    156.49255   -5045.2542   -4732.2498   -5045.2542            0    6579.2223    17.789359    22.852674    19.326708     7856.972    6133.9309    6595.8362    7007.8998    349.12939   -1202.2116   -1091.6336   -3978.3638 
20124000     161.0156   -5043.9597   -4721.9086   -5043.9597            0    7362.0093    17.797207    22.777028    19.293054    7820.7766    6660.4757    7874.3133    7551.2389    162.51173   -166.11259     332.0167   -3882.2125 
20125000    167.57082   -5047.5621   -4712.3998   -5047.5621            0    8693.7846    17.851064    22.729357    19.228992    7802.0329    8678.8031    8844.2741    8558.2766    952.77422    288.37062   -6.5609831   -3723.1806 
20126000    153.65546   -5041.2649    -4733.935   -5041.2649            0    9134.2811    17.868538    22.616364    19.290573    7795.7328    9967.0995    10012.955     7422.789      -1197.9   -875.35892   -864.18809   -3695.4333 
20127000    154.80607   -5049.1423    -4739.511   -5049.1423            0    7651.7956    17.848064     22.73382    19.283101    7824.2084    8201.5709    7844.4286    6909.3872    391.02935   -207.72029   -684.11323   -3866.3795 
20128000    156.06075   -5051.0216   -4738.8808   -5051.0216            0    7739.5436    17.902255    22.792161    19.184845     7828.013    6962.2503    7718.5007    8537.8799   -840.46892   -892.71979   -1017.1197   -3855.3071 
20129000    172.21668     -5048.74   -4704.2854     -5048.74            0    6885.2464    18.029936    22.764218    19.162004     7864.803    6885.6505    5546.0483    8224.0404   -434.07629   -693.66526     836.0159    -3914.547 
20130000    155.18742   -5060.6235   -4750.2295   -5060.6235            0    6872.7819    17.990211    22.694347    19.192854    7835.9831    6914.1277    6970.0433    6734.1746    100.40776    549.21544   -2129.8542   -3964.8096 
20131000    154.25943   -5057.5502   -4749.0123   -5057.5502            0     8508.471    17.914877    22.786558    19.077076    7787.6129    7437.5423    9165.6293    8922.2414   -640.83725    626.39969    612.29124   -3782.6682 
20132000    165.20591   -5040.8097   -4710.3775   -5040.8097            0     8019.374     17.76576    22.929001    19.198651    7820.5926    7934.3906    7041.7314         9082   -509.90178   -817.61267   -1170.1844   -3795.7252 
20133000    161.23347   -5039.0056   -4716.5187   -5039.0056            0    6890.9198    17.920146    22.755487    19.283634    7863.5123    6845.0893    6756.9051    7070.7648     144.4794   -46.505805   -315.02533   -3926.2594 
20134000    156.98092   -5058.2426   -4744.2614   -5058.2426            0    7735.4158    17.926089    22.634457    19.239846    7806.5156    8707.5418     7646.686    6852.0196   -61.535349   -463.18716    590.16402   -3863.5841 
20135000    160.17918   -5063.5658   -4743.1877   -5063.5658            0    7062.6003    17.896983    22.810648    19.225069    7848.4762    7573.6168    5711.8945    7902.2895    -274.0603   -270.91847    890.60327   -3934.7885 
20136000    169.59806   -5055.4737   -4716.2566   -5055.4737            0    7912.3319    17.790899    22.951332    19.071984    7787.5643    7672.2904     7629.166    8435.5393   -124.66955   -239.46603    627.55323   -3817.6243 
20137000      160.429   -5060.2027   -4739.3248   -5060.2027            0    7339.1024    18.021125    22.761451    19.102789    7835.7151    5932.8713    7002.6022    9081.8336    953.67375     851.5005    1385.0655   -3900.6425 
20138000    161.19335   -5051.9319   -4729.5253   -5051.9319            0    8331.1282    17.980855    22.568502    19.256672    7814.3762    9027.4877    8350.4791    7615.4177   -144.55392      490.457    270.97124   -3780.0711 
20139000    150.93714   -5048.7681   -4746.8752   -5048.7681            0    7849.0761    17.814871     22.98968    19.031361    7794.4494    8276.9797    6802.2996    8467.9489    375.83033    129.68634    930.29554   -3854.6389 
20140000    160.07714   -5041.4886   -4721.3145   -5041.4886            0    6807.8917    18.104838    22.654815    19.164316    7860.4697    6332.7246     6554.424    7536.5266   -57.450218    373.01766   -54.023093    -3940.879 
20141000    159.70973   -5058.1678   -4738.7286   -5058.1678            0    7196.9735    17.948891    22.765142    19.191759    7841.9265    7588.7882    7031.9139    6970.2183     182.8907    770.94418   -1774.9781   -3915.6363 
20142000    156.01512   -5043.1582   -4731.1087   -5043.1582            0    7540.2528    17.872319    23.012803    19.044366    7832.7982     8428.837    6648.9195    7543.0018    1808.1102    786.75725   -126.35119   -3869.7605 
20143000    157.82901   -5053.9172   -4738.2397   -5053.9172            0     7574.559    18.020011    22.612874    19.230827    7836.2586    8812.1713    7347.4001    6564.1056   -694.18884   -544.58529   -1285.8508   -3872.5903 
20144000     162.8427   -5055.0224   -4729.3169   -5055.0224            0    6027.0775    17.893656      22.8549    19.195863    7850.2966    5460.5907    6225.8048    6394.8369    -516.9922   -645.59552    706.99279   -4039.2857 
20145000    162.32642   -5060.9887   -4736.3158   -5060.9887            0    6919.6572    17.832402    22.972666    19.159601    7848.8804    7268.3888    6548.2765    6942.3062    541.49019    70.463937    494.21018   -3944.2373 
20146000    163.19811   -5069.1897   -4742.7733   -5069.1897            0     7115.827    17.957015    22.488091    19.375683    7824.2688    8484.8016     7022.639    5840.0404    9.3333068   -779.73686   -941.93804   -3930.7938 
20147000    156.48692   -5049.7129   -4736.7197   -5049.7129            0    9789.8013    17.688116    22.711849    19.253274    7734.6144    11110.729    10710.098    7548.5769    183.32112    147.58618   -230.53802   -3632.4162 
20148000    163.88937   -5068.6775   -4740.8785   -5068.6775            0    7744.7783    17.736222    22.914947    19.265724    7830.0636    7698.1504    7975.9826    7560.2018   -76.861771    625.65597   -739.13791   -3856.4756 
20149000    170.15391   -5050.3305   -4710.0016   -5050.3305            0    7255.1999    17.880513    22.596732    19.352816     7819.334    7882.0261    7990.5866     5892.987    448.94276   -550.23148    1204.1911   -3882.6406 
20150000    160.75635   -5061.1116    -4739.579   -5061.1116            0    6626.4811    17.793222    22.759237    19.349567    7835.8038    8628.7914    6008.9599    5241.6921    161.00263    232.76731    1086.5154   -3982.3236 
20151000    172.24156   -5044.7252   -4700.2208   -5044.7252            0    6650.2049    17.800514    22.903441    19.258601    7851.5972    7677.4765    6027.1747    6245.9633    968.64537   -389.33918    28.032077   -3938.7225 
20152000    165.13775   -5061.1787   -4730.8828   -5061.1787            0    5706.4684    17.984598    22.701455    19.311623    7884.4826    4277.3573    6643.9721    6198.0757     476.9173    338.75237    823.49779   -4074.7126 
20153000    163.15104    -5044.297   -4717.9748    -5044.297            0    8411.3706    17.999834    22.645044    19.220723     7834.502    7968.0392    8734.4049    8531.6678    915.44286   -209.95813    71.723679   -3756.9069 
20154000    156.84449   -5050.4241   -4736.7157   -5050.4241            0    8036.4218    17.847994    22.919719    19.144917    7831.6304    7375.8063     8303.506    8429.9532    452.95146    883.00987   -58.206767   -3818.8254 
20155000       162.18   -5060.3354   -4735.9554   -5060.3354            0    7828.9909    17.870064    22.760346    19.211802    7813.9941     7522.219    8467.2147    7497.5391    407.60667    946.23028   -487.27453   -3843.7707 
20156000    150.12995   -5053.2469   -4752.9684   -5053.2469            0    7732.2617    17.972376    22.767609     19.15019    7836.0284    8251.2388    6722.9583     8222.588   -391.70888   -1178.0975     266.9585   -3869.3222 
20157000    159.32534   -5056.5486   -4737.8783   -5056.5486            0    6661.9888    17.947653    22.808447    19.178697    7850.9551    6874.6854    6589.0441    6522.2369   -258.01787    512.46192   -27.442603    -3975.093 
20158000    161.73976   -5075.9485    -4752.449   -5075.9485            0    6929.4001     17.94378    22.744533    19.195538    7834.1385    6812.7715    7465.8622    6509.5664    622.36405    593.42153    973.38215   -3960.7452 
20159000    159.77295   -5067.5219   -4747.9563   -5067.5219            0    5977.1876    18.113549    22.644705    19.205748    7877.7363    4392.4772    6401.5467    7137.5389    1077.8596    234.81898   -320.26666    -4061.245 
20160000    172.96726   -5071.3797   -4725.4238   -5071.3797            0    6869.9822    17.950677    22.808323    19.124389    7829.9999    5680.3146    7477.1616    7452.4703    185.05127    344.64916     55.58217   -3940.9233 
20161000    161.10492    -5066.897   -4744.6672    -5066.897            0    6927.1313    17.961234     22.92299    19.043155    7840.5469    5944.6614    6999.5598    7837.1726   -108.09509    488.22615    1362.0273   -3952.5751 
20162000    159.98267   -5051.8465   -4731.8614   -5051.8465            0    7506.5541    17.946157    22.707127     19.22331    7833.6081    7288.6307     7115.747    8115.2844   -87.147224    87.068168    832.32169   -3874.2741 
20163000    157.60414   -5049.6595   -4734.4317   -5049.6595            0    8237.9041    17.790119    22.844724    19.224604     7813.078    8031.9839    8538.2354    8143.4932   -257.32709    497.89953   -2933.3792   -3795.7578 
20164000    156.28205   -5047.3219   -4734.7385   -5047.3219            0    8048.2562    17.782468    22.684997    19.323399    7794.9671    7786.1963     8206.896    8151.6765   -1106.0997   -636.01273   -380.38737   -3819.7999 
20165000    152.09419   -5042.9063   -4738.6991   -5042.9063            0      6873.53    17.965182    22.649597    19.285902    7847.5133    5441.9289    7883.2394    7295.4216   -955.38013    759.13207   -1886.8519   -3952.0378 
20166000    169.67417   -5044.4239   -4705.0546   -5044.4239            0    7107.1205    17.876746    22.901976    19.154583    7842.1314    6162.7053    7721.2975    7437.3586    364.52143    254.94348    345.05308   -3892.2172 
20167000    161.30748    -5058.729   -4736.0941    -5058.729            0    7211.1933    17.910088     22.78614    19.192713    7832.5804    8506.4327    6490.1441    6637.0033    272.86841   -336.79963    308.98764   -3912.3584 
20168000    164.02806   -5041.1582   -4713.0818   -5041.1582            0    7903.2826    17.886261    22.607918    19.350563    7824.8085    8429.9548    8321.1282    6958.7649    464.22014   -23.646523    601.60411   -3811.1844 
20169000     164.7952   -5039.3898    -4709.779   -5039.3898            0    6406.3128    17.775266    23.041685    19.227672    7875.1175    5726.6931    6694.6734    6797.5718    110.26636    1867.6304   -184.57406   -3974.0107 
20170000    165.46289   -5056.2184   -4725.2721   -5056.2184            0    7853.9718    17.883522    22.843357    19.074922    7792.4811    7022.2704    8169.3803    8370.2648    555.93056     192.8069    700.84105   -3832.7048 
20171000    172.09757   -5072.3165   -4728.1001   -5072.3165            0    4916.2066    18.081424     22.61627    19.310649    7896.7882    4448.7442    5670.5359    4629.3396    173.24959    44.188279    1265.4031   -4161.9175 
20172000    163.69559   -5068.7841   -4741.3727   -5068.7841            0     7902.845    17.834055    22.902824    19.101414    7801.9767    7619.5837    7525.4279    8563.5234   -936.05755   -110.36279    -1109.827   -3842.1567 
20173000    158.13623   -5061.9414   -4745.6494   -5061.9414            0    8550.0895    17.843785    22.836815    19.092075    7779.9291    7389.8463    8746.2311    9514.1912    136.95592   -600.98287    523.53595   -3775.5367 
20174000     159.9696   -5050.1999   -4730.2409   -5050.1999            0    8985.0617    17.982876    22.494221    19.285301     7801.112     8168.868    10125.896    8660.4209   -307.55883    544.30285   -379.95913   -3707.9995 
20175000    165.37012    -5063.502   -4732.7413    -5063.502            0    8871.3704    17.821378    22.791517    19.167256    7785.2837    9270.1463     8959.984    8383.9808   -852.05573   -96.451127   -1887.6754   -3725.4826 
20176000     159.9678    -5053.394   -4733.4386    -5053.394            0    8306.9934    17.918411    22.750456    19.123944    7795.9146    8438.2431    8188.0038    8294.7334   -1483.1961    198.58982   -1271.1236   -3788.9715 
20177000    162.77166   -5042.5405   -4716.9771   -5042.5405            0    7425.4442    18.094454    22.473063    19.274142    7837.5951    7924.9339    7174.6721    7176.7264    -531.4421    224.65963   -686.49779   -3868.2244 
20178000    161.36302   -5042.7677   -4720.0217   -5042.7677            0    7966.7647    17.876085    22.868345    19.087536    7802.9174    8308.5689     7894.473    7697.2523   -56.871128    573.61252   -310.99569   -3813.4234 
20179000    163.84384   -5051.3953   -4723.6874   -5051.3953            0    6653.4849    17.988814    22.879004    19.098709    7860.3822    6597.9529    6599.4317      6763.07   -2096.0454    182.57094   -913.44673   -3960.9611 
20180000     171.5431   -5065.6811   -4722.5738   -5065.6811            0    7934.2306     18.03922    22.604461    19.162195    7813.7078    5702.9033    9449.9487    8649.8397   -281.21031    1452.8413   -514.10636   -3818.4292 
20181000    160.00501   -5057.4567    -4737.427   -5057.4567            0    7952.0038    17.803107    22.912485    19.127006    7802.1628    8083.1594    7135.9754    8636.8765    577.19234     145.4153    724.01665    -3832.596 
20182000    159.44866   -5045.3241   -4726.4071   -5045.3241            0    7208.8877    17.920168    22.785514    19.230742    7852.3014    6871.5188    7725.6921    7029.4522    522.35031    620.01616    1470.5596   -3900.8614 
20183000    161.59652   -5065.1868   -4741.9738   -5065.1868            0    8314.5125     17.94215    22.867856    19.022487    7804.8982    8126.2682    7560.9345     9256.335   -1113.8077   -814.60937   -1896.3106   -3795.5625 
20184000    158.55073   -5056.9521   -4739.8311   -5056.9521            0    7767.0612    17.838668    22.758235    19.177127    7785.4647     9202.702    7735.4991    6362.9825   -531.32795   -759.66521    171.43165   -3857.9355 
20185000    167.24007   -5047.2552   -4712.7544   -5047.2552            0     6593.512    17.905841    22.746658    19.241049    7836.8413    6521.5918    6807.9318    6451.0125    812.86033    73.759832   -72.942412   -3959.1668 
20186000    167.12471   -5055.0248   -4720.7547   -5055.0248            0    7135.7656      17.8713    22.793058    19.221569    7829.7444    5824.6413      7927.09    7655.5656    653.63068   -678.16107   -206.46579   -3905.9302 
20187000    154.33301   -5051.4221    -4742.737   -5051.4221            0    6298.7995    17.771618    23.075692    19.238444    7889.5395    6358.8773    6468.9466    6068.5747    1814.7814     222.7142   -23.487381   -4017.9918 
20188000     163.3087   -5046.8021   -4720.1645   -5046.8021            0    7782.3385    17.772408    22.806933    19.300057    7822.9717    7598.2845    8577.9611    7170.7698    807.97584   -448.61022   -297.63224   -3832.2774 
20189000    150.16878   -5053.9902   -4753.6341   -5053.9902            0    5963.5852     17.83576    22.757304    19.413752    7879.9218     6955.498    5185.8086    5749.4488    424.41439   -1025.2431   -233.24319   -4068.2954 
20190000    164.67152   -5026.9289   -4697.5655   -5026.9289            0    8124.6044     17.81855    22.875597    19.180442    7818.1395    9619.7315    7099.7057    7654.3761    796.01445   -371.20849    816.22731   -3771.2018 
20191000    167.67055   -5053.7442   -4718.3823   -5053.7442            0    8742.8043    17.896768    22.748348    19.121803     7784.905    9500.5749      7602.11    9125.7281    408.08943    -563.8299   -611.46524   -3725.7693 
20192000    170.54346    -5066.746    -4725.638    -5066.746            0    6429.0418    17.924631    22.833996    19.173471    7847.5279    5251.0023    6846.9287    7189.1945    419.16855   -46.370263   -474.87205   -3989.8461 
20193000    154.18249   -5043.1449   -4734.7609   -5043.1449            0    8206.3083    17.891019    22.604298    19.321262    7813.7872    9607.0556    7343.1071    7668.7622   -568.74467   -1001.5302    410.84166   -3799.6023 
20194000    155.07855   -5036.4072    -4726.231   -5036.4072            0    7450.9272      17.9272    22.805388    19.185264    7843.6411    8284.0828    6812.8073    7255.8916   -690.14265   -17.104347    -831.1608   -3873.9085 
20195000    154.45549   -5034.7217   -4725.7916   -5034.7217            0    7773.5751    17.985939    22.723645    19.128108    7817.7745    7531.0738    7529.3807    8260.2709    94.479221   -1074.1538    23.454326   -3839.4935 
20196000    162.45635   -5060.5601   -4735.6273   -5060.5601            0    7908.8807    17.979113    22.768971    19.082604    7811.7673    8571.1219    6920.1046    8235.4157   -461.95031   -551.08422    395.23112   -3834.5953 
20197000    159.53903   -5045.6237   -4726.5259   -5045.6237            0    7822.8469     17.83346    22.785189    19.223094    7811.0879    8193.6799    7541.7291    7733.1316   -590.98691    1025.6796    41.013726    -3835.373 
20198000    159.09248   -5052.3374   -4734.1328   -5052.3374            0    5747.4362     18.01507    22.540128    19.387939     7872.705     7374.879    5552.9765    4314.4531     710.9449    337.86703   -354.93411    -4074.239 
20199000    165.43312   -5050.1268   -4719.2401   -5050.1268            0    7532.4331    17.897745    22.772218    19.178138    7816.4598     6731.779    7652.1701    8213.3504    646.37844    90.963803   -237.85716     -3860.58 
20200000    159.83477   -5055.6447   -4735.9554   -5055.6447            0    6763.4938    17.880487    22.950171    19.105856    7840.2832    7338.8731    6263.5534     6688.055   -999.83854    23.631242   -1465.2664   -3962.6007 
20201000    156.84732   -5039.8842   -4726.1701   -5039.8842            0    9162.5498    17.964405    22.711053    19.087924     7787.693    8357.5132    8728.0031    10402.133   -1113.7363    383.20335    51.031377   -3685.5288 
20202000    160.30907   -5059.3725   -4738.7345   -5059.3725            0    5655.8548    18.074791    22.585196    19.334476    7892.7722    5173.8954    5792.8673    6000.8016    454.85498   -178.99841   -936.18973   -4087.7004 
20203000    158.30135   -5060.5132    -4743.891   -5060.5132            0    7093.8231    17.825196    22.760071    19.239148    7805.3746    6821.6386    6945.7721    7514.0586   -995.37505    402.60704    1289.4904   -3936.3771 
20204000    160.46845   -5076.5119   -4755.5552   -5076.5119            0    6466.7463    17.837428    23.002123    19.149703    7857.0982    6851.7359      5522.45    7026.0529     954.0092   -334.72531    1373.6622   -4014.5455 
20205000    158.00388   -5065.0562   -4749.0289   -5065.0562            0    7728.0947    17.961697    22.608107    19.307018     7840.193    8151.5981    7535.9607    7496.7254    1048.7562   -477.17061    1577.4304   -3865.3895 
20206000    163.25122   -5060.2434   -4733.7208   -5060.2434            0    8921.0768    17.902446    22.826133    19.051435     7785.247    7662.8805    8845.2731    10255.077    217.84913     235.6212   -2983.9205   -3720.8232 
20207000    158.32798   -5054.8587   -4738.1832   -5054.8587            0    5946.5902    18.053016    22.753644    19.187882    7881.8426    5303.9154    6859.2891    5676.5661   -1085.9034   -587.54742     1277.974    -4054.631 
20208000    159.88758   -5039.3626   -4719.5677   -5039.3626            0    6653.7974    18.026282    22.556971    19.354577    7869.9254    6595.4173    7021.9836    6343.9914   -851.63355    411.04214   -1654.1499   -3955.8795 
20209000    163.46359   -5058.1136   -4731.1663   -5058.1136            0    7167.3762    17.815546    22.881557     19.23007    7839.0885    7536.1847    7476.2331    6489.7109    1424.5728    200.01245   -119.77134   -3911.7555 
20210000    164.89036    -5044.498   -4714.6969    -5044.498            0    7599.3208    17.914247    22.648719    19.257344    7813.3736    8835.8977    7613.2306     6348.834   -1355.6278    436.34886    532.65852    -3848.754 
20211000    161.34864   -5048.6641   -4725.9469   -5048.6641            0    7133.1878    17.765652    23.042853    19.141357    7835.9223    7026.1303    7258.9644    7114.4687   -157.30991    563.31368     138.5897   -3910.7741 
20212000    159.70415   -5045.3078   -4725.8798   -5045.3078            0    7890.5371    17.847935    22.753653    19.194812    7795.1228    8488.1176    7894.8763    7288.6173    531.68359    64.083838   -560.46402    -3828.853 
20213000    156.81387     -5049.91   -4736.2629     -5049.91            0    5847.6764    18.031608    22.721506    19.226214    7877.0813    5812.6254    5535.4695    6194.9343   -761.18305   -379.01663   -84.698893   -4064.4868 
20214000    157.76773   -5050.1424   -4734.5874   -5050.1424            0    6771.3986    17.854531    23.047576     19.03149    7831.5281    7773.8204    5339.8611    7200.5142   -811.30257   -358.48525    -1553.274   -3961.1935 
20215000     157.5685   -5078.7505    -4763.594   -5078.7505            0    5226.1268    17.946457    22.782749    19.284029    7884.6539    6344.6262    4920.1574    4413.5968   -586.25211    535.43848    545.78608   -4162.6438 
20216000    162.87597   -5061.5882   -4735.8161   -5061.5882            0    7853.7216    17.854381    22.741263    19.221077    7804.3562    9240.5739    7663.7811    6656.8097   -329.52827    941.31706   -1468.8043   -3841.9171 
20217000    154.56077   -5069.7361   -4760.5954   -5069.7361            0    6608.0827    17.953871    22.892331    19.116588     7857.032    7023.6586    5979.1114    6821.4781     524.4619   -118.42866   -1008.1342   -4003.3967 
20218000    166.70756   -5055.8917    -4722.456   -5055.8917            0    7356.8897    17.929824    22.633043    19.300398    7832.2265    7122.6205    8035.1161    6912.9325    370.44859    693.27185   -2090.0391   -3882.1153 
20219000    159.98617   -5054.7554   -4734.7633   -5054.7554            0    7223.2808    17.899732    22.742432    19.247751    7835.4407    6333.8254    7670.0807    7665.9364    -994.8392    719.94353    378.84644   -3909.3455 
20220000     154.4295   -5057.7248   -4748.8467   -5057.7248            0    7911.7411    17.817815    22.816144    19.164045     7790.833    7942.9992    8291.0406    7501.1834   -588.19737   -677.86301   -366.54149   -3849.9043 
20221000    158.50077   -5056.2848   -4739.2637   -5056.2848            0    7889.9615    17.881235    22.768893    19.250096    7837.4057    7308.9176    7706.6081    8654.3588   -791.93717     298.5641   -904.26503    -3837.437 
20222000     157.0753    -5069.711    -4755.541    -5069.711            0    7193.5662    17.890582    22.677814    19.298788    7829.8909    7688.1407    6760.7581    7131.7996   -548.09259   -232.57256    1588.0861   -3934.1011 
20223000    151.68275   -5055.5195   -4752.1353   -5055.5195            0    5830.7938    17.741771    23.120017    19.163144    7860.5307    5541.2135     5272.431     6678.737    1446.1347    195.97389    196.89901   -4083.7061 
20224000    161.05272   -5058.9858   -4736.8605   -5058.9858            0     4625.297    17.959172    22.770098    19.247829    7871.0553    5160.0943    4077.2348    4638.5619    347.39764   -542.75879     691.2079   -4205.9168 
20225000    156.77385   -5061.9189   -4748.3518   -5061.9189            0    6241.3608    18.041895    22.580123    19.363089     7888.294    5038.3148    7379.6249    6306.1426      961.495    981.66113    1152.3469    -4030.329 
20226000    159.11993    -5058.923   -4740.6635    -5058.923            0     7188.273    17.888236    22.916252    19.094343     7827.369    7077.3673    7366.1364    7121.3154    523.25314   -93.233392    1040.3969   -3920.0923 
20227000    170.26177   -5035.3173   -4694.7727   -5035.3173            0    6613.6004    17.885284    22.758132    19.261852    7840.2607    8722.3205     5932.039    5186.4417     839.3752    198.94607   -91.691959   -3938.5593 
20228000    161.55382   -5040.0303   -4716.9027   -5040.0303            0     7266.372    18.049666    22.589122    19.300269    7869.2235    7701.1499    6181.7605    7916.2056    481.81398   -37.806098   -76.283142   -3882.9808 
20229000    167.31784   -5059.9275   -4725.2711   -5059.9275            0    6105.2338    17.877464    22.978328    19.135279    7860.6621    4817.7494     6159.668    7338.2842    392.44531    115.62897   -388.59175    -4025.369 
20230000    170.83187   -5051.9531   -4710.2683   -5051.9531            0    6511.2293    17.956282    22.662938    19.321102    7862.5699    6354.3845    7152.2446    6027.0587   -149.03351    238.08045    -328.4709   -3963.6418 
20231000    166.03393    -5048.453   -4716.3647    -5048.453            0    8714.7358    18.010739    22.582096    19.220189    7817.2398    8330.0554    8537.6695    9276.4823   -127.60654   -270.16474    -129.6285   -3722.8288 
20232000    156.65564   -5041.2165   -4727.8859   -5041.2165            0    7600.7615    17.832213    22.904643    19.156813    7824.4174    8828.2958    7386.8735    6587.1152    1040.9642    955.06927   -586.79069   -3860.5546 
20233000    163.44174   -5065.1821   -4738.2784   -5065.1821            0    7091.9159    17.819647    22.885205    19.168089    7816.8669    8777.0861    6081.6872    6416.9746   -204.75728   -312.08623     337.8769    -3929.793 
20234000    166.01208   -5048.5626   -4716.5179   -5048.5626            0    7264.0992    17.888613    22.760625    19.253804    7839.3023    7653.2649    6744.8198     7394.213   -872.95348    189.49985   -174.81523   -3886.0266 
20235000    163.70036   -5077.9837   -4750.5628   -5077.9837            0    7112.1986    17.782992    22.984581    19.184153    7841.2277     7473.948    6664.9933    7197.6546    1136.4027   -398.05576    88.156979   -3937.2383 
20236000    160.23629   -5063.2966   -4742.8042   -5063.2966            0    6107.8336    17.882071    22.696168    19.362144    7858.2132      6428.98    6087.8374    5806.6834    695.67789   -713.86357   -25.844771   -4042.8221 
20237000    150.47524   -5037.6893   -4736.7202   -5037.6893            0     7572.557    17.916527    22.602924    19.306367    7818.4198    7012.0854    8245.7078    7459.8779   -809.37741    72.202742    583.67978   -3873.2697 
20238000    164.05773   -5051.7076   -4723.5719   -5051.7076            0    6324.3333    17.840038    22.985947    19.163174    7858.2461    5469.2509    5908.7633    7594.9858   -1118.6697    -189.0186   -2204.3553   -3998.7751 
20239000    164.60293   -5058.9483   -4729.7221   -5058.9483            0    7318.9512    17.889515    22.761758    19.222191    7827.2147    6222.8838    8636.1513    7097.8185   -315.40289    598.89088   -265.45915   -3894.2499 
20240000    168.31379   -5052.9822   -4716.3338   -5052.9822            0     8212.005     17.96403    22.482751    19.346889    7813.8368    7285.0806    9287.8143    8063.1201    349.78001    114.19974   -307.04176   -3780.5201 
20241000    160.50745   -5063.0279   -4741.9932   -5063.0279            0    7043.5496    17.730011    22.976781    19.188971    7817.1759    7857.1207    6257.9956    7015.5326   -1661.9294   -357.01707   -1055.4332   -3938.9899 
20242000     156.8479   -5052.2579   -4738.5427   -5052.2579            0     7472.493    17.881819    22.798398    19.227038    7838.4181    8278.8943    7066.1494    7072.4354    1028.5524   -222.26425   -1680.9479   -3884.3225 
20243000      171.795    -5051.523   -4707.9118    -5051.523            0     7033.275    18.122428    22.469766     19.24712    7837.5565    7043.2534    7224.8532    6831.7185    513.53479    802.46616    -49.02086   -3903.9893 
20244000    163.97638   -5045.1912   -4717.2182   -5045.1912            0    8057.1797    17.882097     22.85964    19.143195    7825.3225    8436.4837    7278.7708    8456.2846    589.02057    741.23049   0.13514426   -3797.6982 
20245000    172.08074   -5055.4973   -4711.3146   -5055.4973            0    7834.6737    17.946866    22.757626    19.207075    7844.7084    7225.4189     8391.829    7886.7732    1888.7614   -26.467935    2044.0208   -3814.9729 
20246000    165.15148   -5059.9566   -4729.6333   -5059.9566            0    7954.5489    17.934934    22.738523    19.146929     7808.384    7480.3917    8520.8616    7862.3933    -156.9665     341.6978    2258.8341    -3823.791 
20247000    158.42438   -5052.2575   -4735.3892   -5052.2575            0    6864.9672    17.881022    22.757119    19.204168    7814.5707    8163.3392    6791.5027    5640.0599    67.913969   -421.78994    818.37277    -3953.006 
20248000     164.3392   -5048.5731   -4719.8745   -5048.5731            0    7187.9188    17.881728    22.800904    19.262343    7853.6341    7785.8077       6731.5    7046.4489    1309.8104     515.0644   -2222.7647   -3896.5904 
20249000    156.28597   -5055.3616   -4742.7703   -5055.3616            0    7867.2595    17.852766     22.76636    19.242292    7820.8852    8197.0045    8008.0202    7396.7539   -706.80544    773.04735   -446.64169   -3845.4339 
20250000    167.90647   -5048.9668   -4713.1331   -5048.9668            0     6211.926    17.954792    22.709465    19.301751    7870.1675    6572.0188    6495.3003    5568.4588    -389.2681    54.324465    841.67077   -4000.1386 
Loop time of 495.069 on 64 procs for 250000 steps with 1008 atoms

Performance: 87.261 ns/day, 0.275 hours/ns, 504.981 timesteps/s
194.2% CPU use with 32 MPI tasks x 2 OpenMP threads

MPI task timing breakdown:
Section |  min time  |  avg time  |  max time  |%varavg| %total
---------------------------------------------------------------
Pair    | 37.462     | 41.186     | 44.969     |  30.1 |  8.32
Bond    | 1.1068     | 1.2825     | 1.8682     |  13.8 |  0.26
Kspace  | 238.5      | 248.94     | 259.29     |  31.5 | 50.28
Neigh   | 1.78       | 2.055      | 2.3393     |  11.4 |  0.42
Comm    | 76.39      | 86.177     | 95.95      |  50.0 | 17.41
Output  | 0.5367     | 0.53694    | 0.53829    |   0.0 |  0.11
Modify  | 95.637     | 98.312     | 100.5      |  13.6 | 19.86
Other   |            | 16.57      |            |       |  3.35

Nlocal:        31.5000 ave          36 max          27 min
Histogram: 1 2 2 3 9 8 1 2 3 1
Nghost:        2919.97 ave        2951 max        2899 min
Histogram: 3 4 4 3 5 8 2 2 0 1
Neighs:        10626.0 ave       12032 max        9102 min
Histogram: 2 1 2 3 7 10 1 0 2 4

Total # of neighbors = 340031
Ave neighs/atom = 337.33234
Ave special neighs/atom = 2.0000000
Neighbor list builds = 4379
Dangerous builds = 0

unfix		3
unfix		2
unfix		1

write_data	data.final.${pid}
write_data	data.final.0
System init for write_data ...
PPPM initialization ...
  extracting TIP4P info from pair style
  using 12-bit tables for long-range coulomb (../kspace.cpp:340)
  G vector (1/distance) = 0.37968393
  grid = 24 27 32
  stencil order = 5
  estimated absolute RMS force accuracy = 0.0024030315
  estimated relative force accuracy = 7.236658e-06
  using double precision FFTW3
  3d grid and FFT values/proc = 5355 672
Last active /omp style is kspace_style pppm/tip4p/omp
WARNING: Not all mixed pair coeffs generated from mixing. Use write_data with 'pair ij' option to store all pair coeffs. (../write_data.cpp:312)

write_restart   restart.lmp.${pid}
write_restart   restart.lmp.0
System init for write_restart ...
PPPM initialization ...
  extracting TIP4P info from pair style
  using 12-bit tables for long-range coulomb (../kspace.cpp:340)
  G vector (1/distance) = 0.37968393
  grid = 24 27 32
  stencil order = 5
  estimated absolute RMS force accuracy = 0.0024030315
  estimated relative force accuracy = 7.236658e-06
  using double precision FFTW3
  3d grid and FFT values/proc = 5355 672
Last active /omp style is kspace_style pppm/tip4p/omp
Total wall time: 0:08:15
