LAMMPS (30 Jul 2021)
Processor partition = 0
  using 2 OpenMP thread(s) per MPI task
using multi-threaded neighbor list subroutines
variable        pid world 0 1
variable        phase world IceII IceIh

shell cd ${phase}
shell cd IceII
include Restart.lmp
echo both
log log.lammps
#include		in.partitions
include		in.temp
variable        temperature equal 210.10
variable	tempDamp equal 100.0
include		in.pressure
variable        pressure equal 2111.5
variable        pressureDamp equal 1000.0 # This is 1 ps
include		in.seed
variable        seed equal 745823

units		real
atom_style	full
box tilt large
read_restart	restart.lmp.${pid}
read_restart	restart.lmp.0
Reading restart file ...
  restart file = 30 Jul 2021, LAMMPS = 30 Jul 2021
  restoring atom style full from restart
  triclinic box = (-10.795447 -9.2970923 0.0092063397) to (12.775447 12.287090 21.850793) with tilt (-9.4269784 1.8740181 2.8269617)
  4 by 2 by 4 MPI processor grid
  restoring pair style lj/cut/tip4p/long/omp from restart
  restoring bond style harmonic/omp from restart
  restoring angle style harmonic/omp from restart
  1296 atoms
  864 bonds
  432 angles
Finding 1-2 1-3 1-4 neighbors ...
  special bond factors lj:    0        0        0       
  special bond factors coul:  0        0        0       
     2 = max # of 1-2 neighbors
     1 = max # of 1-3 neighbors
     1 = max # of 1-4 neighbors
     2 = max # of special neighbors
  special bonds CPU = 0.003 seconds
  read_restart CPU = 0.009 seconds
include 	in.setup
variable	out_freq equal 1000
variable	out_freq2 equal 10000
variable	out_freq3 equal 1000

timestep	2.0

neigh_modify    delay 7 every 1

include		in.tip4p
# This is TIP4P/Ice

# create groups ###
group ox type 2
432 atoms in group ox
group hy type 1
864 atoms in group hy

# set charges - beside manually ###
set group ox charge -1.1794
Setting atom values ...
  432 settings made for charge
set group hy charge 0.5897
Setting atom values ...
  864 settings made for charge

# ### TIP3P Potential Parameters ###
pair_style lj/cut/tip4p/long/omp 2 1 1 1 0.1577 8.5
pair_coeff 1 1*2 0.000 0.000
pair_coeff 2 2 0.21084 3.1668
bond_style  harmonic
bond_coeff  1 450 0.9572
angle_style harmonic
angle_coeff 1 55 104.52
kspace_style pppm/tip4p/omp 1.0e-5
pair_modify tail yes

thermo          ${out_freq}
thermo          1000
thermo_style    custom step temp pe etotal epair emol press lx ly lz vol pxx pyy pzz pxy pxz pyz enthalpy

restart 	${out_freq3} restart.lmp.${pid} restart2.lmp.${pid}
restart 	1000 restart.lmp.${pid} restart2.lmp.${pid}
restart 	1000 restart.lmp.0 restart2.lmp.${pid}
restart 	1000 restart.lmp.0 restart2.lmp.0


include         in.dump
dump            myDump all atom ${out_freq2} dump.water.${pid}
dump            myDump all atom 10000 dump.water.${pid}
dump            myDump all atom 10000 dump.water.0
dump            myDump2 all dcd ${out_freq2} dump.dcd
dump            myDump2 all dcd 10000 dump.dcd
dump_modify     myDump append yes
dump_modify     myDump2 append yes


variable natoms 	equal  "count(all)"                        # NUMBER ATOMS
variable H      	equal  "enthalpy/v_natoms"                 # ENTHALPY-per-atom
variable Vol      	equal  "vol/v_natoms"                 # volume-per-atom
fix AVG all 		ave/time ${out_freq} 1 ${out_freq} v_Vol v_H file vol_enthalpy.dat
fix AVG all 		ave/time 1000 1 ${out_freq} v_Vol v_H file vol_enthalpy.dat
fix AVG all 		ave/time 1000 1 1000 v_Vol v_H file vol_enthalpy.dat


timer           timeout 10:00:00 every 1000
New timer settings: style=normal  mode=nosync  timeout=10:00:00

fix 		1 all shake 1e-6 200 0 b 1 a 1
Finding SHAKE clusters ...
       0 = # of size 2 clusters
       0 = # of size 3 clusters
       0 = # of size 4 clusters
     432 = # of frozen angles
  find clusters CPU = 0.001 seconds
fix             2 all nph tri ${pressure} ${pressure} ${pressureDamp}
fix             2 all nph tri 2111.5 ${pressure} ${pressureDamp}
fix             2 all nph tri 2111.5 2111.5 ${pressureDamp}
fix             2 all nph tri 2111.5 2111.5 1000
fix             3 all temp/csvr ${temperature} ${temperature} ${tempDamp} ${seed}
fix             3 all temp/csvr 210.1 ${temperature} ${tempDamp} ${seed}
fix             3 all temp/csvr 210.1 210.1 ${tempDamp} ${seed}
fix             3 all temp/csvr 210.1 210.1 100 ${seed}
fix             3 all temp/csvr 210.1 210.1 100 745823


run             250000
PPPM initialization ...
  extracting TIP4P info from pair style
  using 12-bit tables for long-range coulomb (../kspace.cpp:340)
  G vector (1/distance) = 0.36738286
  grid = 30 40 32
  stencil order = 5
  estimated absolute RMS force accuracy = 0.0044508757
  estimated relative force accuracy = 1.340368e-05
  using double precision FFTW3
  3d grid and FFT values/proc = 7888 1280
Last active /omp style is kspace_style pppm/tip4p/omp
Neighbor list info ...
  update every 1 steps, delay 7 steps, check yes
  max neighbors/atom: 2000, page size: 100000
  master list distance cutoff = 10.8154
  ghost atom cutoff = 10.8154
  binsize = 5.4077, bins = 7 5 5
  1 neighbor lists, perpetual/occasional/extra = 1 0 0
  (1) pair lj/cut/tip4p/long/omp, perpetual
      attributes: half, newton on, omp
      pair build: half/bin/newton/tri/omp
      stencil: half/bin/3d/tri
      bin: standard
Setting up Verlet run ...
  Unit style    : real
  Current step  : 6250000
  Time step     : 2
  Walltime left : 9:59:59.93
Per MPI rank memory allocation (min/avg/max) = 10.65 | 10.66 | 10.66 Mbytes
Step Temp PotEng TotEng E_pair E_mol Press Lx Ly Lz Volume Pxx Pyy Pzz Pxy Pxz Pyz Enthalpy 
 6250000    210.15381   -6391.0933   -5850.4855   -6391.0933            0    591.95343    23.570894    21.584183    21.841586    11112.092   -182.57926    690.87992    1267.5596    209.93317    462.77722    765.43766   -5754.5544 
 6251000    207.50458    -6429.287   -5895.4942    -6429.287            0    583.55324    23.439949    21.623977    21.883141    11091.796    2.7572049    187.08155     1560.821    -711.0953    102.93506   -256.68091   -5801.0971 
 6252000     209.5498    -6421.566   -5882.5119    -6421.566            0    2011.6743    23.481839    21.526532    21.744418    10991.424    2207.8926    938.08109    2889.0491    427.93201   -1125.8933    58.495914   -5560.0433 
 6253000    211.84923   -6439.0824   -5894.1132   -6439.0824            0    3305.0933    23.257053    21.478883    21.891519    10935.591    3244.7947    3989.8904    2680.5949    1432.9451    498.66498    484.50595   -5367.0025 
 6254000    202.15664   -6448.4584   -5928.4228   -6448.4584            0    3412.3891    23.308603    21.521801    21.841829    10956.803    3961.9188    2630.7233     3644.525    755.98103   -621.82251    227.90198   -5383.1444 
 6255000    208.23123   -6437.8712    -5902.209   -6437.8712            0    1539.9965    23.586437    21.428548     21.83173     11034.26    861.33282    2251.5547    1507.1019   -355.48493   -691.60979   -301.53371   -5654.3876 
 6256000    208.63032   -6418.2351   -5881.5463   -6418.2351            0    331.13124    23.429155    21.637443     21.86678    11085.299    186.50671   -494.75124    1301.6383     632.6809   -273.44862    1524.3437   -5828.0131 
 6257000    207.30769    -6441.808   -5908.5216    -6441.808            0    1139.5218    23.388915    21.550283     21.89895    11037.897    1425.9424    822.47385     1170.149    -400.2633   -195.92084     405.4225   -5725.0855 
 6258000    218.34969   -6445.7411   -5884.0498   -6445.7411            0    1754.3859    23.450011    21.500276    21.902701    11042.941    1762.5835    1807.2149    1693.3593    546.14064    -192.0752   -765.74061    -5601.506 
 6259000    215.30905    -6407.151   -5853.2816    -6407.151            0     2901.577    23.193569    21.540264    22.059345    11020.752    4652.8289    2502.9448    1548.9573   -445.15245   -274.73981    122.15945   -5386.9217 
 6260000    216.04264   -6439.0862   -5883.3297   -6439.0862            0    2525.9191    23.452003    21.368558    21.933133    10991.471    2612.4633    3605.1975    1360.0965    429.21804   -394.24463    567.88585   -5478.4265 
 6261000    217.72017   -6455.3745   -5895.3026   -6455.3745            0    2075.9095    23.275182    21.600223    21.911064    11015.768    3250.6056    1353.1686    1623.9542   -1327.0384   -611.17868    -213.1353   -5561.8001 
 6262000    219.88639   -6420.2816   -5854.6372   -6420.2816            0    909.42632     23.48169    21.516475     21.92432    11077.114    991.76448    966.16209     770.3524    -425.3341    31.544874    216.25534   -5707.7209 
 6263000    212.86843   -6421.7756   -5874.1845   -6421.7756            0    1900.9848    23.511805    21.507965    21.794538    11021.303    2198.1221    1358.4232    2146.4089    512.11294   -263.16454    399.05961   -5568.6309 
 6264000    202.83807   -6436.8181   -5915.0295   -6436.8181            0    2537.3337    23.367498    21.655527    21.729544     10995.92    1404.1676    2144.2832    4063.5504    105.51504     916.4799   -59.440025    -5508.132 
 6265000    213.24506   -6437.2275   -5888.6676   -6437.2275            0    1913.4726     23.56172    21.295409    21.886888    10981.887    1004.9993    3541.9485      1193.47    971.94946   -24.655385     68.72907   -5582.2067 
 6266000     205.9139   -6430.0895   -5900.3885   -6430.0895            0    2150.4718    23.467624    21.504085    21.832402    11017.717    1754.1202    2768.9296    1928.3655    845.89188    387.33683   -677.83104   -5554.8462 
 6267000    213.62462    -6450.744   -5901.2077    -6450.744            0    2713.3443    23.450632    21.547583    21.759523    10995.184    2635.4159    3102.4313    2402.1859   -434.22299   -72.252275   -1507.0737   -5466.1135 
 6268000    200.77772   -6439.0269   -5922.5385   -6439.0269            0    1608.9944    23.486288    21.441648     21.91212    11034.609    2276.6881    1338.7511    1211.5439   -656.41814   -160.70895     624.7692   -5663.6055 
 6269000    205.62714   -6426.7323    -5897.769   -6426.7323            0    1446.7474    23.359589    21.685974    21.801563    11044.136    2130.9124   -276.27849    2485.6082   -755.79814   -244.79558    265.13987   -5664.7452 
 6270000    206.43024   -6438.0787   -5907.0494   -6438.0787            0    2024.1137    23.557627    21.388506    21.810033    10989.257    997.72746    3658.5613    1416.0524   -628.11106    594.08609   -277.34291   -5582.6507 
 6271000    209.21419   -6456.8643   -5918.6736   -6456.8643            0    1686.2358      23.1705    21.720047    21.924195    11033.666     1718.766    1640.6294    1699.3118   -844.22348    333.70465   -510.49869   -5647.3334 
 6272000    211.20847   -6427.5291   -5884.2082   -6427.5291            0    1530.3479    23.455296    21.508024    21.934346    11065.374    1627.3204    1282.0786    1681.6446   -12.008124   -43.873014    1145.1612    -5637.245 
 6273000    209.80919   -6446.5755   -5906.8542   -6446.5755            0    2502.8721    23.450981    21.419319    21.861201     10980.97    1706.2139    2943.5815    2858.8209    84.330888    185.18885    673.50436   -5506.0288 
 6274000    222.89896   -6412.4767   -5839.0828   -6412.4767            0    2199.2396     23.32903    21.678318    21.789955    11019.924    2419.6494    1328.8445    2849.2248   -918.05177    1005.7241   -358.35725   -5485.6335 
 6275000    212.86731   -6416.4181   -5868.8299   -6416.4181            0    1031.8219    23.605381    21.377213    21.948205    11075.443    171.97845    1713.0718    1210.4156   -2324.8578     1410.553   -236.21848   -5702.1659 
 6276000    208.15562   -6404.5762   -5869.1085   -6404.5762            0    1061.7994     23.27175      21.6644    22.010789    11097.146    1258.4004    101.13469    1825.8631   -330.74469    408.83409    264.15273   -5697.2664 
 6277000    210.97776   -6418.4834    -5875.756   -6418.4834            0    1720.7498    23.489203    21.501017    21.865314    11042.896    2031.8957    1084.9872    2045.3666    299.38631   -549.80007   -183.15439   -5598.6304 
 6278000    200.21538   -6431.7445   -5916.7026   -6431.7445            0    2805.5957    23.256216    21.565175     21.88886    10977.796    2716.4427    2987.8299    2712.5145   -825.83821    36.948793    847.38279    -5467.527 
 6279000    202.75283   -6438.1938   -5916.6245   -6438.1938            0    1769.8393    23.359872    21.392246    22.052761    11020.209    1541.0938    2697.1864    1071.2375   -527.66047   -32.358988   -340.60622   -5632.1787 
 6280000    215.51731   -6416.2137   -5861.8085   -6416.2137            0     1523.519    23.420562    21.597144    21.913494    11084.224    1074.2932    2292.5353    1203.7284     -260.521    1140.1814    -768.8664   -5615.5286 
 6281000    213.92268   -6417.8335   -5867.5305   -6417.8335            0    1226.9092    23.473079    21.572206    21.882344    11080.477   -37.274836    2339.5201    1378.4822    814.74999    140.10663   -136.37313   -5669.2651 
 6282000    221.38467   -6441.5336   -5872.0351   -6441.5336            0    2482.4182    23.442969    21.475463    21.792622    10971.465    1982.6256    2412.9224    3051.7064   -1151.2855    824.21519    289.42725   -5474.8294 
 6283000    208.61404   -6429.9125   -5893.2656   -6429.9125            0     3233.445    23.348959    21.494306    21.803189    10942.359    3630.8285    3481.9288    2587.5778    445.74394   -1173.2305   -1459.6531   -5377.2625 
 6284000    210.51079   -6453.0636   -5911.5374   -6453.0636            0    2061.0547     23.43407    21.431185    21.889375    10993.279    1469.1977    2969.5633    1744.4032    482.15598   -515.07455   -167.62632   -5581.0974 
 6285000    204.22933   -6447.5433   -5922.1758   -6447.5433            0     1504.661    23.358775    21.537986    21.914248    11025.079    2146.1818    1823.7558    544.04543     -176.104    308.78283    266.42433   -5680.2421 
 6286000    206.35942   -6445.0807   -5914.2337   -6445.0807            0    838.32564    23.547052    21.562449    21.815535    11076.448    1138.0823     709.9964     666.8982   -541.31777   -1037.7335   -561.26709   -5778.8117 
 6287000    210.21062   -6427.3595   -5886.6055   -6427.3595            0    1611.0605    23.391405    21.527478    21.944242    11050.198    1857.9979     1470.153    1505.0306    1158.6468    246.39318   -318.38114   -5626.9737 
 6288000    214.80916   -6453.0608   -5900.4773   -6453.0608            0    1963.1628    23.411756    21.517416    21.796682    10980.307    2002.4953    914.93479    2972.0584    931.81093    344.68779    476.76198   -5586.1033 
 6289000    211.38636   -6441.1026   -5897.3241   -6441.1026            0    2131.5054    23.447191      21.5317    21.818045    11015.012    2171.4377    1955.5278    2267.5509    744.16163   -376.22893   -393.41341   -5554.9134 
 6290000    210.66179    -6449.925   -5908.0104    -6449.925            0    2184.9906    23.298025     21.51859    21.926007    10992.399    2721.7387    1349.6982    2483.5349   -187.90575   -127.85981     1093.558   -5557.7283 
 6291000    211.38136   -6450.1944   -5906.4287   -6450.1944            0    1532.4037    23.321672    21.535864    21.910212    11004.456    2207.6634     1112.076    1277.4719    1184.1668   -72.567423    -1068.734   -5660.4953 
 6292000     205.2288   -6430.0395   -5902.1009   -6430.0395            0    2398.5253    23.376562    21.514073     21.84741     10987.61    3507.1862    763.67171     2924.718   -766.86747   -1392.5307   -258.47269   -5517.7539 
 6293000    214.18745   -6438.9508   -5887.9666   -6438.9508            0      2519.28    23.139157    21.631747    21.926934    10975.316    3124.1115    2332.8119    2100.9164    229.78034   -50.657126    701.11465   -5484.7213 
 6294000    212.09732   -6431.8423   -5886.2349   -6431.8423            0    2737.4168    23.525391    21.347768    21.854164     10975.48    2458.5057    3749.2727    2004.4719    -357.9409    -714.3915    44.777322   -5448.0672 
 6295000    204.07327   -6481.5303   -5956.5643   -6481.5303            0    2198.5398    23.379136    21.623102    21.710318    10975.205    2275.9122    1406.6054    2913.1017    987.36428   -438.16617   -790.98906   -5604.6614 
 6296000    213.28354   -6437.3766   -5888.7177   -6437.3766            0    2659.2402    23.505646    21.421169    21.861815    11007.827    1789.1469    4041.2557    2147.3179    754.87374   -1109.2093   -221.17968    -5461.809 
 6297000    206.66848   -6449.8958   -5918.2538   -6449.8958            0    1222.7067    23.295382    21.552614    21.968459    11029.844    2038.6918    1011.1956    618.23256   -370.70258    -958.3536    632.26813   -5721.5704 
 6298000    206.48034   -6411.6074   -5880.4493   -6411.6074            0    1744.6472    23.336215    21.596684    21.918652    11046.669    1990.5542    1864.4238    1378.9635   -382.60021   -788.85638   -403.01587   -5599.3791 
 6299000    210.71345   -6415.6257   -5873.5782   -6415.6257            0    2121.8174    23.491122    21.421505    21.980853    11061.099    2052.9692    2666.9707    1645.5124   -1426.1144   -84.179858    1080.3048   -5531.2977 
 6300000     214.1304   -6437.7896   -5886.9522   -6437.7896            0    2420.8211    23.152302    21.658587    21.888089    10975.698    3985.3593    239.15541    3037.9485    50.058961    1056.3425    524.87451    -5499.453 
 6301000    225.28431    -6453.595   -5874.0648    -6453.595            0    2113.9316     23.39784    21.506842    21.859065     10999.78    2779.2311    2091.8921    1470.6715   -263.11111   -297.63463   -225.28083   -5534.9468 
 6302000    205.91592   -6441.3351   -5911.6289   -6441.3351            0    2446.4242    23.445929    21.445862    21.853212    10988.192    2169.4061    2933.0094    2236.8571   -37.124666   -685.48603    205.79024   -5519.5857 
 6303000    212.89053   -6463.4569   -5915.8089   -6463.4569            0    1312.1208     23.30409    21.635439    21.839039    11011.117    1408.1458    512.98703    2015.2296    519.28142    800.64824    682.54252   -5705.1009 
 6304000    208.13783   -6414.0016   -5878.5797   -6414.0016            0    536.84786      23.7222    21.465508    21.787713    11094.501    192.16534    1316.4971    101.88116    785.15245   -8.8987811    -1219.989   -5791.7167 
 6305000    206.97757   -6414.8527   -5882.4155   -6414.8527            0    1617.5766     23.38399    21.733057    21.695242    11025.643    1348.3303    1933.7948    1570.6047    804.78867    922.93285    100.46601   -5622.3129 
 6306000    208.62338   -6395.6418   -5858.9709   -6395.6418            0    3370.7068    23.412351    21.482838    21.802448     10965.84     2749.094    3237.4569    4125.5696    222.88488   -73.126616    198.37888   -5319.9088 
 6307000    212.90283   -6444.8061   -5897.1266   -6444.8061            0    1554.9724    23.459341    21.467598    21.915521    11037.001    1831.2599    1350.2333    1483.4239   -360.27059   -285.00228    308.65585    -5646.833 
 6308000    210.49363   -6439.1384   -5897.6563   -6439.1384            0    2287.6124    23.041292    21.709921    21.999239    11004.562    3571.6706    1608.2124    1682.9542    -203.2942    589.84435    549.21607   -5530.5168 
 6309000    204.63962   -6415.8294   -5889.4064   -6415.8294            0    1483.2882    23.559033     21.36575    21.913251    11030.176    648.97203    3827.6957     -26.8031   -148.75946    469.78363    -1224.493    -5650.799 
 6310000    200.94878   -6442.1674   -5925.2389   -6442.1674            0    2370.8779    23.412894    21.595391    21.719007     10981.36    2066.4257    2986.1356    2060.0724   -127.48513   -228.88706     -1285.33   -5545.5384 
 6311000    210.22077   -6438.7392    -5897.959   -6438.7392            0    2270.9765    23.377708    21.582334     21.79473    10996.433     1722.347    2675.4942    2415.0881    981.60098   -192.31233    92.216774   -5533.7587 
 6312000    216.05733   -6429.2139   -5873.4196   -6429.2139            0    1298.7861    23.619822    21.303995    21.930943    11035.575    36.843302    1787.2971    2072.2179   -451.93859    233.66655    1254.1962   -5664.3897 
 6313000    227.52238   -6440.6808   -5855.3933   -6440.6808            0    1443.5277    23.234307    21.752143    21.840457    11038.079    2149.6059    199.98591    1980.9914    416.44437   -29.358962   -619.65701   -5623.0156 
 6314000    208.78461   -6436.8369   -5899.7513   -6436.8369            0     2795.798     23.51552    21.416163    21.780317    10968.834    2286.8231    3421.7889    2678.7821    288.00976   -98.801992    284.71504   -5452.5097 
 6315000     203.6271   -6461.7666   -5937.9483   -6461.7666            0     2576.502    23.282548    21.576306    21.806445    10954.497    3972.8307    2435.2282    1321.4472    971.90158   -379.50615    118.78028    -5526.326 
 6316000    216.45898   -6423.4619   -5866.6344   -6423.4619            0    2779.1434    23.375741    21.449061    21.955846    11008.391    3475.2452    3498.4815    1363.7035   -81.083211   -1353.0985   -995.50123   -5420.4538 
 6317000    206.35466   -6463.2162   -5932.3814   -6463.2162            0    2054.7897     23.51623     21.45656    21.780244    10989.819    1168.3105    2531.5879    2464.4708    360.45529    1099.4195    837.81801   -5603.0495 
 6318000    198.75348   -6429.0037   -5917.7224   -6429.0037            0    1860.8332    23.285365    21.650865    21.866907    11024.164    2561.6524    1415.2986    1605.5486   -93.647029     651.3866   -406.68896   -5618.5449 
 6319000    205.54594    -6464.324   -5935.5696    -6464.324            0     3005.461    23.491935    21.344018    21.834962    10948.319    2856.1412    3571.8355    2588.4061    -1609.857   -410.58892    187.07014   -5455.6877 
 6320000    197.08392   -6406.8673    -5899.881   -6406.8673            0    2667.4205    23.294193     21.63066    21.769501    10968.971    3159.3664    1109.3466    3733.5485   -686.94415    615.46432    49.387467   -5473.1705 
 6321000    211.33252   -6433.9734   -5890.3334   -6433.9734            0    1782.0603    23.414241    21.518595    21.892658    11030.431    2959.0856    878.54479    1508.5505    217.88095   -106.23943   -59.431794   -5603.6578 
 6322000     216.3485   -6400.1029   -5843.5596   -6400.1029            0    2427.8095    23.387022    21.443068    21.958759    11012.087    2866.8872    3561.9158    854.62561    938.29411   -242.69217    -219.7405   -5453.6534 
 6323000    203.38801   -6438.6756   -5915.4724   -6438.6756            0    2465.1633    23.178632    21.669443     21.89784    10998.585    2277.4571    3156.5833    1961.4497    340.96488   -416.61739    1950.1436   -5520.0525 
 6324000    220.28119   -6468.2771   -5901.6172   -6468.2771            0    3328.0059    23.461419    21.403451    21.859446    10976.837    3103.2001    3316.5173    3564.3003   -374.94331     581.7542    20.841584   -5368.8503 
 6325000    213.94505   -6449.4019   -5899.0413   -6449.4019            0    3090.8699     23.25298    21.655499    21.782582    10968.726    3628.4811    1530.7516    4113.3768   -528.69519     932.7348    401.10764   -5404.6022 
 6326000    210.96369   -6442.8523    -5900.161   -6442.8523            0    2962.6668     23.53472    21.418576    21.729897    10953.611    1934.5547    3332.2608    3621.1849   -913.85643    1470.0768    845.21131   -5426.8834 
 6327000    208.52175   -6454.5486   -5918.1391   -6454.5486            0    2050.3328    23.480364    21.579797    21.706511    10998.722    1257.9366    1707.0848     3185.977   -1102.7575     476.0733    26.672778   -5589.2553 
 6328000     213.3637   -6410.3644   -5861.4992   -6410.3644            0    2622.6234    23.351156    21.490312    21.943716    11011.875    2787.3738    3427.2803    1653.2162    418.69936   -459.94822    450.12129   -5440.3141 
 6329000    207.07889   -6449.1277   -5916.4298   -6449.1277            0    2076.2857    23.398927    21.417464    21.953258     11001.78    2491.3306    1705.7161    2031.8104     13.59133   -83.477302   -278.23385   -5583.2905 
 6330000    207.78249   -6403.3709   -5868.8631   -6403.3709            0    1615.9191    23.376714    21.616743    21.863639    11048.318    1475.3063    393.22613    2979.2249    -675.3381   -523.99005    1193.8795   -5608.4927 
 6331000     196.9724   -6419.9611   -5913.2616   -6419.9611            0    910.76329    23.541487    21.484566    21.882273    11067.586    748.96009    645.42822    1337.9016   -468.48903    555.68175    461.34051   -5766.2559 
 6332000    207.50927   -6439.3041   -5905.4991   -6439.3041            0    670.26056    23.553548    21.650563    21.729276    11080.791     247.8777   -39.026401    1801.9304    -140.1611    750.23775   -944.17118   -5797.1837 
 6333000    211.32757   -6444.0626   -5900.4353   -6444.0626            0    2072.6223    23.467333    21.541504    21.752631    10996.426     1751.642    1879.7562    2586.4688    1095.9949   -674.69396     90.06281   -5568.0456 
 6334000    219.38264   -6416.0076   -5851.6592   -6416.0076            0     2892.453    23.439371    21.421002    21.900487    10996.121    3424.0304     2263.636    2989.6925   -10.418263   -1565.7827    910.54403   -5387.8047 
 6335000    211.92174   -6454.1145   -5908.9588   -6454.1145            0    2270.2472    23.306255    21.633432    21.828876    11005.994    3627.9709    636.29684    2546.4738   -361.96444   -774.29663    -648.4706   -5544.5588 
 6336000    208.33917   -6447.3189   -5911.3791   -6447.3189            0     1504.769    23.468911    21.342614    22.011659    11025.374    1328.5913    1632.1953    1553.5203    392.65641   -21.099267    431.28616   -5669.4216 
 6337000    203.39183   -6448.3105   -5925.0974   -6448.3105            0    2587.7319    23.374455    21.520805    21.792368    10962.369    2430.8993    3108.3322    2223.9641    172.39849    201.67777   -999.04611    -5511.384 
 6338000    213.48183   -6438.8433   -5889.6743   -6438.8433            0    3298.2677    23.373306    21.549516    21.742763    10951.469    3005.6014    3499.5035    3389.6981    433.95932   -939.18287   -710.17868   -5362.8884 
 6339000    206.37327   -6473.8741   -5942.9915   -6473.8741            0    2820.8349     23.43472    21.445998    21.695204    10903.596    3066.8722    2287.9958    3107.6368    530.36697    472.87102    516.59106   -5494.4286 
 6340000    210.65519   -6458.8697   -5916.9721   -6458.8697            0    987.08374    23.447219    21.601843    21.803281     11043.43    492.80034    1389.8527    1078.5982    491.67379    1491.7016    623.23196   -5757.9952 
 6341000     210.0603   -6468.9914   -5928.6241   -6468.9914            0    1352.5129    23.435163    21.631465    21.787441    11044.858   -48.704492     2531.065    1575.1783   -373.73948    252.18955   -459.75747   -5710.7641 
 6342000    209.78261   -6438.0201   -5898.3671   -6438.0201            0    2568.4256    23.484163    21.464836    21.836867    11007.609    2145.3151    4104.1457     1455.816   -454.93334   -36.682424    213.66887   -5486.0457 
 6343000     205.6642   -6421.7332   -5892.6746   -6421.7332            0     3010.735    23.305819    21.593273    21.813097    10977.417    3512.4659    2620.6442    2899.0948    266.89787   -1053.8785    762.68367   -5410.6729 
 6344000    207.02397   -6421.6776    -5889.121   -6421.6776            0    1859.5937    23.476605    21.547553    21.776275     11015.82    1798.9163    1092.0346    2687.8303    838.27622  -0.60042262   -111.46379   -5590.3691 
 6345000    212.51691   -6481.1497   -5934.4629   -6481.1497            0    2484.6586    23.353857     21.46343    21.860964    10957.893    2885.0179    2714.2801    1854.6779    809.14192    582.30395    141.62008   -5537.3905 
 6346000    219.74489   -6440.9237   -5875.6433   -6440.9237            0    1049.6255    23.370358    21.573514     21.93837    11060.904     1107.232    1514.2966    527.34782   -1288.1607    106.50795   -169.35376   -5706.3262 
 6347000    207.78258   -6437.3452   -5902.8372   -6437.3452            0    893.48217    23.560021     21.53703     21.83395    11078.828    939.43405    77.944994    1663.0675    745.57286    385.05458    173.98288   -5758.4743 
 6348000    204.39009   -6455.5162   -5929.7351   -6455.5162            0    1664.3935    23.502316     21.60197    21.684116    11008.946   -705.66302    2392.3899    3306.4535    1921.2782    1252.7164    571.66617   -5662.5098 
 6349000     206.8979   -6420.4289   -5888.1967   -6420.4289            0    471.33945    23.730072    21.587686    21.625484    11078.246    180.26668   -21.606523    1255.3582    115.68501   -360.94328    495.87425   -5812.0448 
 6350000    210.86123   -6454.8612   -5912.4335   -6454.8612            0    1955.9835    23.466686    21.613075     21.67045    10990.976    1658.1797    2281.1615    1928.6094    -215.1292   -529.58166   -306.22241   -5598.9048 
 6351000    216.81995   -6483.0681    -5925.312   -6483.0681            0    3108.1504     23.45915    21.421566    21.765145    10937.676    3247.9906    2626.0992    3450.3614    495.51255    297.05651    778.93878    -5429.516 
 6352000    209.17158   -6437.7821   -5899.7009   -6437.7821            0     1698.291    23.355202    21.578451    21.915144    11044.555     2239.959    1424.2428    1430.6713   -398.51457    335.81116   -278.04245   -5626.1512 
 6353000     210.5653   -6418.3521   -5876.6857   -6418.3521            0    1616.8739    23.442875    21.427428    21.988098    11045.073    640.17406    2568.4083    1642.0393    7.5920876   -546.81061    67.006755    -5616.238 
 6354000    213.50962   -6444.4094   -5895.1689   -6444.4094            0    1147.9765    23.212825    21.726395    21.962759      11076.5    1050.8236    335.26867    2057.8372    210.42509    18.377223    728.06214   -5709.7254 
 6355000    211.58905   -6424.9637   -5880.6637   -6424.9637            0    1405.2475    23.552845    21.393435    21.972506    11071.424    1094.3342    2006.6654    1114.7428   -969.65322    651.59782   -297.54833   -5653.7649 
 6356000    209.36312     -6448.79   -5910.2162     -6448.79            0    3422.8538    23.243657    21.534186    21.868885    10946.104    3318.6526     4062.197    2887.7117    900.39986    563.63289   -550.31115   -5363.7997 
 6357000    205.34239    -6439.239   -5911.0082    -6439.239            0    3355.8922     23.29243    21.552481    21.816098    10951.892    2291.9902    3576.1397    4199.5467    63.357929    48.429393    320.29458    -5374.998 
 6358000     209.5861    -6445.459   -5906.3116    -6445.459            0    2225.9235    23.518574    21.475617    21.784952    11003.054    884.21635    2819.2977    2974.2565    233.26974    436.76126    157.53264   -5549.1215 
 6359000     203.6706   -6436.1183   -5912.1881   -6436.1183            0    1533.7586    23.318621    21.606737    21.891042    11029.568    1904.1959    1177.7349     1519.345   -493.65636    860.84344   -562.05704   -5665.4755 
 6360000    200.30865   -6420.4662   -5905.1844   -6420.4662            0    1966.0649    23.507169    21.396019    21.869705    10999.583    2054.4531    2401.2134    1442.5283   -131.05629   -204.53537    267.07502   -5589.7929 
 6361000    212.96368   -6435.2651    -5887.429   -6435.2651            0    2778.9184     23.23941    21.693027    21.809499    10994.891    4052.4684    1013.0634    3271.2233   -285.71531   -906.94911    747.17275   -5441.8317 
 6362000    205.18856   -6428.3447   -5900.5096   -6428.3447            0    1929.3904    23.527993    21.436553    21.809399    10999.768    1268.4241    2450.0752     2069.672    335.01422   -344.38284    554.80127   -5590.9962 
 6363000    205.17873   -6423.3191   -5895.5093   -6423.3191            0    1599.2568    23.449692    21.536093    21.845683    11032.392    2087.6548    2766.0038   -55.888165    324.32915   -71.096935   -1304.2607   -5638.1951 
 6364000    205.44235   -6410.1248   -5881.6369   -6410.1248            0    2723.6819    23.140239     21.72352     21.93862    11028.269    3867.2408    2130.8861    2172.9188    612.30694    -755.6844   -409.04089   -5443.5708 
 6365000    205.50802   -6414.8663   -5886.2094   -6414.8663            0    2298.7388     23.56717    21.337245    21.932411    11028.899    629.38244    3408.4203    2858.4135    926.78565   -1167.9448    378.99697   -5516.4684 
 6366000    196.43761   -6440.3496   -5935.0259   -6440.3496            0    1603.5629    23.227161    21.693331    21.854481    11011.916    2744.5698    927.63273    1138.4862   -278.04241    6.4686165   -699.12451   -5677.4977 
 6367000    197.36193   -6462.5283   -5954.8268   -6462.5283            0    2026.8742    23.509326    21.336836    21.917328    10994.053    1350.0331    2697.1601    2033.4293   -49.938594    673.41425   -472.14634   -5629.8439 
 6368000    205.65749   -6456.7404    -5927.699   -6456.7404            0      1440.22    23.524151    21.553332    21.682292    10993.439    1128.0499    1404.7198    1787.8902   -241.44558     -393.724    382.40215   -5696.7914 
 6369000    206.85418   -6437.2621   -5905.1424   -6437.2621            0    2710.7878    23.322495    21.679151     21.68488    10964.133    2739.9624    1922.2738    3470.1272   -307.61115    11.874856    14.201776   -5471.6857 
 6370000    214.21246   -6453.3377   -5902.2892   -6453.3377            0    3410.9561    23.537742    21.259122    21.833334    10925.219    3114.4801    3906.5818    3211.8064   -182.54273    197.43625    39.478114   -5358.8109 
 6371000    202.45998   -6425.1263   -5904.3103   -6425.1263            0    2151.8157    23.326116    21.647561    21.796286    11006.111    1618.4153    1212.9053    3624.1265    323.40888   -166.53003    736.87769   -5558.9163 
 6372000    216.84605   -6419.7968   -5861.9736   -6419.7968            0    1925.2442    23.364547    21.594376    21.893403    11046.159    1659.1887    2891.9435    1224.6005    202.09872     487.3592   -118.92103   -5551.8227 
 6373000    210.55474   -6450.0615   -5908.4222   -6450.0615            0     1003.278    23.546336    21.419763    21.932547    11061.832    780.58343    1326.5012    902.74934    770.92106    54.679831    87.037016   -5746.5679 
 6374000    203.32695   -6405.1086   -5882.0624   -6405.1086            0    1590.6547    23.037989    21.787589    22.000031    11042.744    3070.9865    641.36198    1059.6157    -762.2802    308.32637    487.66872   -5625.8921 
 6375000    222.77256   -6447.2603   -5874.1914   -6447.2603            0    2448.2882    23.468517    21.359002    21.871913    10963.604    2907.7712    1535.3017    2901.7917   -1442.4031     132.3736    1081.5024   -5482.7275 
 6376000    216.38411    -6466.981    -5910.346    -6466.981            0    2873.3663     23.30339    21.559654    21.815395    10960.339     3382.344    1573.3643    3664.3904     -149.567   -196.37987    547.40564   -5451.0519 
 6377000    214.86393   -6457.6238   -5904.8994   -6457.6238            0    2236.3849     23.41828    21.587716    21.752846     10997.09    2997.1297    899.73984    2812.2851   -490.19993     59.57916   -489.46786   -5546.2251 
 6378000    211.04047   -6449.2017    -5906.313   -6449.2017            0    2324.0733     23.54231    21.318814    21.888171    10985.544    1979.3532    2460.3692    2532.4974   -331.91624    277.00729    580.37928   -5533.9665 
 6379000    218.95982   -6426.4508     -5863.19   -6426.4508            0    1877.9337    23.229543    21.763135    21.783061    11012.376    2319.0241    763.40585    2551.3712    874.59243   -1027.5229    42.847207   -5561.5859 
 6380000    197.96157   -6450.7487   -5941.5047   -6450.7487            0    1908.1348    23.524219    21.375277     21.84464    10984.286    2350.1221    2257.8757    1116.4066   -1388.6331   -840.34513   -1245.4188   -5635.8319 
 6381000    207.64414   -6468.9698   -5934.8179   -6468.9698            0    2802.2898    23.283175     21.55036    21.812811    10944.813    4287.0556     1138.959    2980.8547    349.92637   -687.19535   -160.03771   -5487.5196 
 6382000    207.76407    -6406.227   -5871.7666    -6406.227            0    1735.8262     23.42015    21.671323     21.76209    11045.253    2112.5679    983.83513    2111.0756   -906.25565   -134.00146    1133.4711   -5592.1533 
 6383000    210.32468   -6421.6869   -5880.6395   -6421.6869            0    2333.9111    23.543833    21.467211    21.827807     11032.22    1508.4036    3018.4317    2474.8979    905.16285    167.87031    258.65966   -5505.1281 
 6384000    201.21961   -6448.0118   -5930.3866   -6448.0118            0    1706.7388     23.34209    21.598637    21.818821    11000.119    2226.1105    1097.6048    1796.5013    671.08804   -218.51449     1131.155   -5656.5822 
 6385000    203.71947   -6455.6825   -5931.6266   -6455.6825            0     2591.145     23.43821    21.365631    21.908193    10971.013    1997.8981    3094.4421    2681.0948   -29.573898    912.67526    -546.3461   -5517.0409 
 6386000    216.59974   -6434.7988   -5877.6092   -6434.7988            0    2596.6314    23.280744    21.639454    21.830082    10997.615    1887.4507    3201.6974    2700.7461    441.33787   -597.50666   -279.17163   -5461.1382 
 6387000     212.2657   -6454.4578   -5908.4173   -6454.4578            0    2164.6755    23.355077    21.558239    21.883152    11018.043    3484.1355    1640.8773    1369.0137    -457.3471    292.45802    803.69572   -5560.5824 
 6388000     207.0701   -6459.5435   -5926.8682   -6459.5435            0    1904.0602    23.464722     21.40022    21.946811    11020.596    1066.1997     1844.729     2801.252   -1022.8409   -409.92442   -122.82581   -5620.8399 
 6389000    210.35694   -6457.6964    -5916.566   -6457.6964            0    2929.5681    23.278373    21.591474    21.793994    10953.975     3925.001    1706.0749    3157.6285    444.55401    310.68633     486.5237   -5448.5602 
 6390000    208.97598    -6436.597   -5899.0191    -6436.597            0     2129.417     23.57931    21.282589    21.935001    11007.614    1323.6864    2628.4664    2436.0983      527.443    776.08569    1169.7265   -5557.1736 
 6391000    209.16207   -6457.3463   -5919.2896   -6457.3463            0    1428.1704    23.359403    21.661253    21.753785    11007.283     1805.306    490.01622    1989.1889   -1153.4314    107.22758   -304.61581   -5690.0255 
 6392000    211.00519   -6438.6068   -5895.8088   -6438.6068            0    1923.4748    23.406653    21.537153    21.816525    10997.986    1574.7638    1891.4283    2304.2322   -515.89231    1349.0712   -207.59038   -5587.2943 
 6393000    208.62094   -6433.1947     -5896.53   -6433.1947            0    3457.6762    23.502271    21.383183    21.797116    10954.214    2779.8974    4387.0718    3206.0593    943.78521    748.74236    288.58239   -5344.1456 
 6394000      206.688   -6433.5325   -5901.8402   -6433.5325            0    3087.2352    23.251728      21.7048    21.730493    10966.817    2745.2356    2008.5671    4507.9029    515.46606    -916.0661   -116.23513   -5408.0685 
 6395000    215.56123   -6423.9621   -5869.4439   -6423.9621            0    2460.5391    23.361477    21.402145    22.002279    11000.825    2824.0484    3157.5739     1399.995    743.83449   -60.435961    38.017155   -5474.6855 
 6396000    202.90772   -6440.8142   -5918.8465   -6440.8142            0    1470.2387    23.363092    21.492733    21.987755    11040.859    2282.9679    1997.7019    130.04641    241.41825   -286.94326    445.71851   -5682.1092 
 6397000    205.88042   -6449.8447   -5920.2299   -6449.8447            0    1911.4776    23.379051    21.587573    21.832372    11018.732    1225.8003    2452.9029    2055.7296    787.50713    58.023564   -1294.0761   -5613.0613 
 6398000    209.14662   -6461.0544   -5923.0375   -6461.0544            0     2298.003    23.478519    21.322303    21.943723    10985.381    1559.8129    2376.2054    2957.9906    -267.9787    1156.4151     703.6869   -5554.8732 
 6399000    213.50684   -6418.2133   -5868.9799   -6418.2133            0    2730.6414    23.265546    21.637202    21.875624    11012.218    2573.4143    2523.0647    3095.4452    410.29193    636.98074      253.216   -5430.4337 
 6400000    208.31219   -6448.7784    -5912.908   -6448.7784            0     2835.363     23.53663    21.362162    21.815678    10968.777    2361.2469    2959.5034    3185.3387   -988.64074    1011.3073   -218.50234   -5459.3397 
 6401000    216.35506   -6432.0711   -5875.5108   -6432.0711            0    3120.9804    23.319777    21.614787    21.752102    10964.191    2967.2568    3302.5665    3093.1179    835.24324   -38.078364   -334.91053   -5376.4615 
 6402000    206.23671   -6457.6901   -5927.1587   -6457.6901            0    2349.9207    23.535519    21.449267    21.753609    10981.649    1188.5403    2358.8388     3502.383    1169.1438   -529.96525    1517.6607   -5550.8047 
 6403000     218.2881    -6440.756   -5879.2231    -6440.756            0    1159.6337    23.401595     21.56559    21.877776     11041.04    950.79433    1147.0263    1381.0804   -658.85991    253.34727    852.67559   -5692.4963 
 6404000    209.91532   -6436.7423    -5896.748   -6436.7423            0    2311.9795    23.358769    21.570399    21.813124    10990.716    2317.3238    1432.8539    3185.7607   -41.156151    601.21736    228.23398   -5526.1647 
 6405000    205.83713     -6452.56   -5923.0565     -6452.56            0    2518.6837    23.482798    21.418959     21.79098    10960.363    2084.7478    1967.1372    3504.1661    13.179771    1542.9581    609.21604   -5520.4559 
 6406000    199.05933   -6460.2717   -5948.2036   -6460.2717            0    2232.3738    23.315006    21.566757    21.841008    10982.294    1784.7245    2279.8929    2632.5042    572.00533   -639.56093     1151.224   -5590.6544 
 6407000    199.78412   -6425.2244   -5911.2919   -6425.2244            0    2657.2664     23.36833    21.545424    21.838397    10995.209     3380.057    2725.1139    1866.6283   -577.42868   -1643.7592   -410.80649    -5485.189 
 6408000     205.2398    -6445.234   -5917.2672    -6445.234            0    2936.5307    23.384438    21.452017    21.847568    10959.688    2734.7954    2950.8658     3123.931    1261.7754   -1375.8787   -197.66855   -5447.9044 
 6409000    206.14858   -6434.0541   -5903.7495   -6434.0541            0    1758.0871    23.336262    21.594962    21.857648    11015.067    1871.0587    1131.4519    2271.7507   -118.68129    71.873198   -73.363792   -5621.3243 
 6410000    205.97719   -6442.2886   -5912.4248   -6442.2886            0    1349.7969    23.477684    21.499782    21.864024    11036.196    966.84305    872.24646    2210.3013   -884.45685    1630.7329    1445.8372   -5695.1728 
 6411000    201.17058   -6450.8264   -5933.3274   -6450.8264            0    3113.8703     23.37845    21.504558    21.758654    10939.016    2686.7346    2790.0694    3864.8069   -654.69612    1326.7725    582.53344   -5436.5581 
 6412000    212.12254   -6447.0817   -5901.4094   -6447.0817            0    2103.4666    23.477985    21.523799    21.771922    11002.124    1494.2165    2772.1405    2044.0427    1121.9307   -523.25246    215.30051   -5563.8983 
 6413000    210.61681   -6443.5635   -5901.7646   -6443.5635            0     2620.103    23.526869    21.442631    21.789839    10992.494    1287.6827    3664.9771    2907.6493     1843.121     -663.419   -733.61474   -5481.7248 
 6414000    212.03019   -6466.0227    -5920.588   -6466.0227            0     2180.552    23.289156    21.523693    21.923991    10989.809    3092.7534    1935.3704    1513.5322    829.79603   -663.82626    117.82895   -5571.0998 
 6415000    211.77998    -6444.369   -5899.5779    -6444.369            0    3026.0877    23.328231     21.41251    21.944513    10961.634    3969.4835    3390.1885     1718.591    56.031354    18.466224    452.47709   -5415.8148 
 6416000    221.75745   -6448.1131   -5877.6556   -6448.1131            0    2084.8067    23.408477    21.534705    21.843972     11011.43    1730.6924    1795.4027     2728.325   -859.43991    1432.7296    197.40039   -5542.8556 
 6417000    212.57181   -6461.6993   -5914.8713   -6461.6993            0    400.54487    23.408603    21.627477    21.925226    11100.063    1162.0305   -481.56942    521.17357    807.25466    712.80318    430.70935   -5850.0299 
 6418000    204.77655   -6399.5977   -5872.8225   -6399.5977            0    2033.1373    23.441963    21.538745     21.86585    11040.296    1529.0294    3894.6734    675.70906    575.94911   -297.32207   -302.08797   -5545.4642 
 6419000    213.35203    -6401.869   -5853.0339    -6401.869            0    1915.5298    23.423986    21.560896    21.792147    11005.953     2378.043    772.49744     2596.049    786.98046   -1319.5985    104.02217   -5545.5712 
 6420000    211.83158   -6443.8864   -5898.9625   -6443.8864            0     3329.328       23.345    21.428888    21.882284    10946.775    3402.7977    4109.9303    2475.2559   -62.293544   -703.74269    114.53915   -5367.4437 
 6421000    209.67032   -6443.1371    -5903.773   -6443.1371            0    3511.2021    23.326768    21.428364    21.891265    10942.447    3942.7536    3192.2069    3398.6457   -273.77002     -65.6023   -198.81898   -5343.4401 
 6422000    213.08628   -6446.2575    -5898.106   -6446.2575            0    2988.5746    23.272032    21.587288    21.875685    10989.908    3950.8433    2825.7019    2189.1786   -47.356993     468.9134    365.34463   -5419.1077 
 6423000    210.44483   -6454.3823   -5913.0258   -6454.3823            0     2370.377    23.472652    21.364043    21.933424    10998.971    2134.8299    3501.0224    1475.2788    126.86476      69.7933    -486.5692   -5532.7967 
 6424000    206.01925   -6448.9641   -5918.9921   -6448.9641            0    2580.4941    23.324082    21.581095    21.842292    10994.519    3743.1207    686.48003    3311.8816    302.87975    -715.7297    1153.4587   -5505.2259 
 6425000    209.42205   -6436.2532   -5897.5277   -6436.2532            0    2929.7246    23.455752     21.47985    21.848422    11007.804    2755.6935    3340.2261    2693.2542    513.64696    -911.8808   -665.90285    -5427.197 
 6426000     201.0133   -6441.4564    -5924.362   -6441.4564            0    3380.7509    23.249754    21.585456    21.769784    10925.309    4009.3341    3459.3833    2673.5353    329.84711   -340.38343    142.59065    -5385.692 
 6427000    210.06422   -6406.8865   -5866.5091   -6406.8865            0    739.13986    23.506247    21.484843    21.961865    11091.358    130.97456    278.15377    1808.2913   -1087.0385    847.71237    739.22531   -5746.9487 
 6428000    209.39784   -6430.7769   -5892.1137   -6430.7769            0    1538.0103    23.350877    21.651604    21.914478    11079.608    2166.7193    398.01612    2049.2955   -616.48686    175.42902    461.84918   -5643.5947 
 6429000    209.17736   -6437.3762   -5899.2802   -6437.3762            0    811.98362    23.580073    21.467677    21.905139    11088.587    60.424418    1829.1842    546.34227    -283.5716   -305.46033   -885.90463   -5767.9697 
 6430000    207.74274   -6416.4617   -5882.0561   -6416.4617            0    1202.2258    23.309535    21.613478    21.962299    11064.609      2845.74    471.07302    289.86434    -1030.797    11.972595    1241.9766   -5688.0578 
 6431000    211.01694   -6443.9181   -5901.0899   -6443.9181            0    3277.2286    23.424916     21.41067    21.870375    10968.937    3428.6556    4082.1035    2320.9268   -836.12555   -557.28978   -1360.1991   -5376.8294 
 6432000    215.90669   -6437.8823   -5882.4755   -6437.8823            0    3456.6574    23.296965    21.556071    21.841476    10968.594    3514.9055    2355.3188     4499.748    441.50663     231.0339    1012.3557   -5329.5289 
 6433000    209.63028   -6460.8768   -5921.6157   -6460.8768            0    2001.6296    23.384895    21.410917    21.965384    10997.893    1624.2946    1985.0418    2395.5524    196.98274   -87.584845    1537.2512   -5600.5684 
 6434000    203.07844   -6439.1922   -5916.7853   -6439.1922            0     1606.034    23.368187    21.528166    21.896357    11015.492    2222.5701    2131.0806    464.45142   -1931.1772   -222.37507   -937.46854   -5658.7765 
 6435000    212.42576   -6426.8819   -5880.4296   -6426.8819            0    3760.1842    23.327103    21.461637     21.88712     10957.52    3499.3018    4089.8901    3691.3605   -434.12003    232.80796    51.089489   -5279.5364 
 6436000    208.62268   -6419.0141    -5882.345   -6419.0141            0    1847.9748    23.496735    21.390301    21.943742    11028.974    2147.0371    2850.8707    546.01666    799.28371   -147.71037   -249.17989   -5585.1051 
 6437000    203.93786   -6458.8135   -5934.1958   -6458.8135            0    1138.7902    23.266741    21.653713    21.981661     11074.61    1109.6807    678.99588     1627.694   -398.15125    366.60552    267.67908   -5750.2677 
 6438000    207.64184   -6414.1537   -5880.0077   -6414.1537            0    2738.9064    23.562365    21.334395    21.937816    11027.894    1187.2745    4208.8752    2820.5694   -311.47197    -21.36582   -25.831589    -5439.508 
 6439000    198.46661   -6449.0062   -5938.4629   -6449.0062            0    2447.2178    23.402257    21.485304    21.837146    10979.818    2297.2896    2640.1696    2404.1943    181.41107   -117.32523    43.479872   -5546.5914 
 6440000    218.77571   -6408.5069   -5845.7197   -6408.5069            0    2378.4013    23.527672    21.513276    21.749052    11008.442    1486.9283    2542.0757    3106.1998   -570.59082    462.95543   -317.99339   -5463.8749 
 6441000    211.93274   -6421.2523   -5876.0683   -6421.2523            0    2790.3627    23.400354    21.566108    21.766394     10984.51    2926.7447    2480.5539    2963.7896   -455.41396   -1000.6611    -380.1011   -5429.0582 
 6442000    216.12004   -6446.4674   -5890.5118   -6446.4674            0    1549.4809    23.303818    21.522813    21.949883    11009.265     1490.138    1574.6067    1583.6979   -396.62319     809.4879   -23.969335   -5641.7289 
 6443000    215.92258   -6467.4369   -5911.9892   -6467.4369            0    2060.0721    23.433911    21.365607    21.960928    10995.392    2037.5826    2332.4072    1810.2263    267.55259   -692.85085   -364.67842   -5581.6432 
 6444000    205.73417   -6427.4445   -5898.2059   -6427.4445            0     2553.334    23.343297    21.576268    21.882584    11021.409    2280.1158    2129.1782    3250.7081    712.95376   -305.52346     1238.672   -5487.7933 
 6445000    212.36815   -6423.7407   -5877.4365   -6423.7407            0    1618.7924    23.590409    21.530147     21.72013    11031.762    1142.4869    693.71911    3020.1712    115.06449   -228.30709    341.33715    -5616.994 
 6446000    204.10812   -6433.9965   -5908.9408   -6433.9965            0    2751.4834    23.442878    21.662096    21.606954    10972.484    2907.7423    1708.2015    3638.5063    116.61223   -278.08704   -84.396489   -5468.6418 
 6447000     215.6386   -6445.9201   -5891.2029   -6445.9201            0    2130.8821    23.554566    21.505282    21.708047    10996.159    2515.7291    2327.7986    1549.1186     -816.194   -1547.3466   -563.29853   -5549.4783 
 6448000    210.42474   -6423.9921   -5882.6873   -6423.9921            0    2363.4628    23.379768    21.549043    21.850508     11008.54    1957.2632    2461.7216    2671.4035   -858.57828    919.25111    1231.0633   -5503.2375 
 6449000     221.5587   -6448.4764   -5878.5301   -6448.4764            0    2209.9677    23.446147    21.537537    21.792626    11004.672    2775.7245    675.98521    3178.1933   -280.84505     476.0498   -715.43868   -5523.8484 
 6450000    203.93947   -6441.9919   -5917.3701   -6441.9919            0    2399.0676    23.514753    21.395321    21.912187    11024.146    1917.1522    2910.5538    2369.4969   -901.01204    269.98156   -628.80724   -5531.6579 
 6451000    211.64162   -6438.3601   -5893.9249   -6438.3601            0    2613.0242    23.308445    21.564215    21.831914    10973.338    3718.0094    2139.7802    1981.2829   -767.04246    695.19801    19.706534   -5475.7499 
 6452000    221.18135   -6473.2747   -5904.2992   -6473.2747            0    1905.3126    23.495659    21.432158    21.843315    10999.478    3090.4663    1173.6952    1451.7762   -844.95493   -1579.8896   -503.87981   -5598.6563 
 6453000    202.59442   -6469.4776   -5948.3159   -6469.4776            0    2240.1256    23.389283     21.52337    21.820198    10984.641    2537.6343    1963.1593    2219.5831    192.14225    78.313037    -62.32358   -5589.4484 
 6454000    205.67873   -6438.7998   -5909.7038   -6438.7998            0    1768.6189    23.402047    21.623083    21.791276    11026.917    2728.1395    669.35154    1908.3656    406.50141    394.63218   -507.04309   -5625.2811 
 6455000    210.79897   -6462.0901   -5919.8226   -6462.0901            0    605.98797     23.67398    21.548753    21.647195    11043.203    -404.5144    79.702592    2142.7757    -694.4417    111.33919     458.2768   -5822.2259 
 6456000     202.0133   -6454.4923   -5934.8254   -6454.4923            0    728.92499    23.489584    21.667861    21.704084    11046.707   -344.17429    420.15421     2110.795   -43.406441     146.4256    130.01983    -5817.392 
 6457000    209.91086   -6464.4991   -5924.5162   -6464.4991            0    1312.2174    23.492101    21.514246    21.763977    10999.837    1389.1392    1414.8428    1132.6703   -507.02881   -67.484295    961.12199   -5714.0085 
 6458000    202.26077   -6414.0881   -5893.7846   -6414.0881            0    3276.5396    23.425112    21.440749    21.826866    10962.586    4202.5902    2525.4244    3101.6043   -775.35749    425.44925    25.795193   -5369.9378 
 6459000    213.43232    -6432.183   -5883.1413    -6432.183            0    1754.9893    23.228444    21.559487    22.057393    11046.195    2456.0561     2628.906     180.0059    24.050462   -220.40498    -1135.924    -5600.417 
 6460000    206.44595   -6434.2478   -5903.1782   -6434.2478            0    1790.5901    23.376114    21.484436    21.969102     11033.38    2838.9957    1522.5937    1010.1809   -1049.8905    766.36557   -62.780015   -5615.0534 
 6461000    217.17235   -6447.5524   -5888.8898   -6447.5524            0    2276.6478    23.324189    21.619853    21.856622    11021.541    3806.1305    918.43863    2105.3743   -678.98918    583.31784     1005.815   -5522.9463 
 6462000    201.14684   -6437.2645   -5919.8265   -6437.2645            0    2536.8232    23.683517    21.349447    21.718991    10981.774    683.30021    3663.7733     3263.396    870.52255    481.35676   -72.047186   -5513.5342 
 6463000    202.86907   -6431.1291   -5909.2607   -6431.1291            0    2436.9709    23.440487    21.670398    21.677896    11011.605    1618.3813    1562.0732    4130.4581     112.7969    104.93496    320.10146   -5517.9003 
 6464000    202.90022   -6426.2876   -5904.3392   -6426.2876            0    2003.4721    23.568206    21.540021    21.693224    11012.774    597.16099    1755.8601    3657.3952     595.8822     307.5251    912.45457   -5582.5615 
 6465000    201.26924   -6449.5453   -5931.7925   -6449.5453            0    3134.8063    23.480587    21.466224    21.677635    10926.386    3718.3647    2187.4719    3498.5822   -146.39667     644.6624    758.43101   -5432.2607 
 6466000    207.62487   -6446.4488   -5912.3465   -6446.4488            0    2530.3359    23.398751    21.583181    21.776106    10997.357    3477.2874    1630.3978    2483.3225   -1244.7571    179.56832   -186.81671   -5506.5181 
 6467000    208.46399   -6434.9703   -5898.7094   -6434.9703            0    1520.9604    23.440954     21.55199    21.850899    11039.057    2104.4137    1073.0446    1385.4228   -781.90747   -247.98367    73.740507   -5653.8449 
 6468000    215.84709   -6435.6923   -5880.4388   -6435.6923            0    2474.7763    23.370169    21.493348    21.892733    10996.789    3429.7232    1633.3554    2361.2504   -426.83804    545.12593    663.18848   -5483.5419 
 6469000    208.93155   -6439.9355   -5902.4718   -6439.9355            0    2636.2448    23.311297    21.504147    21.944042    11000.319    3008.1991    2743.6961    2156.8392    895.96412   -292.60428   -808.52971   -5479.5434 
 6470000    199.92645   -6454.5503   -5940.2517   -6454.5503            0    1557.9241    23.396686    21.485916    21.943505    11030.983    1456.4567    1134.6476    2082.6679    1482.0815   -296.57192    632.16398   -5689.6198 
 6471000    208.03075    -6450.413   -5915.2666    -6450.413            0    2208.9281    23.358755    21.517632    21.863207    10988.996    2503.6132    2504.5434    1618.6276    1106.8854   -1116.2567   -259.33007   -5561.2566 
 6472000    208.39032   -6453.6515   -5917.5801   -6453.6515            0    2398.8956    23.318094    21.531984    21.828204     10959.61    2272.8573    2642.5251    2281.3044     36.80709    639.28229    491.07966   -5534.1534 
 6473000    202.91345   -6436.9767   -5914.9943   -6436.9767            0     1601.629    23.406298    21.558281    21.870578    11035.884    406.46241    2035.1303    2363.2942   -548.50767    823.28959    199.84193   -5657.2168 
 6474000    221.54656   -6444.2082   -5874.2932   -6444.2082            0    1904.3652    23.357697    21.473293    21.938199    11003.469    1814.7229    2178.2087    1720.1639    478.96163    774.17418   -111.41993   -5568.6915 
 6475000      213.236    -6460.811   -5912.2743    -6460.811            0    2134.8158    23.295298    21.523334    21.898312    10979.649    3157.7565    2297.4606    949.23015    441.22918    10.174287    -804.1716   -5570.4329 
 6476000    210.31051   -6442.4983   -5901.4873   -6442.4983            0    2599.8214    23.473568    21.395415    21.882858    10990.156    3006.3795    3104.3235    1688.7612   -529.12857   -1806.1932    368.14773   -5484.7875 
 6477000    213.26204   -6405.2464   -5856.6428   -6405.2464            0    2464.1281    23.384835    21.640006    21.795036    11029.334    4149.3594     1794.114     1448.911   -1105.5197   -43.516561   -200.76476    -5460.284 
 6478000    213.62827   -6411.7862   -5862.2405   -6411.7862            0    1440.9771    23.516384    21.574739     21.81764    11069.395    2070.4319    1251.3743    1001.1251   -586.90311    171.68085   -46.511946   -5629.6152 
 6479000    212.00691   -6426.8494   -5881.4746   -6426.8494            0    1577.0552     23.59008    21.469619    21.738601    11009.949    1527.4249    1102.5232    2101.2174   -752.29615    123.54825    626.16687   -5628.2487 
 6480000    205.75808   -6398.9323   -5869.6322   -6398.9323            0    2779.6137    23.321396    21.613875    21.810644    10993.998     1756.802    3301.7082    3280.3309    355.36987   -64.748327    345.48342   -5423.9595 
 6481000    218.76202   -6437.1043   -5874.3523   -6437.1043            0    2759.7928    23.445706    21.475898    21.796737     10975.04    3724.7121    1867.5979    2687.0685     440.8598   -874.53704   -344.21198   -5432.6207 
 6482000     214.2303   -6445.8157   -5894.7213   -6445.8157            0    2165.1416    23.345178    21.534585     21.84038    10979.786    2875.9991    1045.4103    2574.0153   -210.87751    934.45575    885.02988   -5548.0195 
 6483000    207.64882   -6456.0401   -5921.8762   -6456.0401            0    2507.6788    23.496067     21.45456    21.826363    11002.621    1731.5763    2724.1552    3067.3048    528.66792   -864.34226    521.28965   -5519.4892 
 6484000    204.78175   -6433.5256   -5906.7371   -6433.5256            0    817.75316      23.4405    21.579385    21.907179    11081.343    1154.6058    866.62775    432.02594   -136.01185   -563.73262    407.16069     -5774.58 
 6485000    209.96856    -6449.612   -5909.4807    -6449.612            0    559.86904    23.374477    21.586808    21.995915    11098.706    292.60069     669.3191    717.68734    228.28298    822.92429    521.08628   -5818.8584 
 6486000    212.41612    -6445.156   -5898.7285    -6445.156            0    2246.3669    23.446745    21.345407    21.988542    11004.833    2557.1093    2895.2479    1286.7436   -213.88398    1232.1998   -346.93894   -5538.1996 
 6487000    210.71699   -6461.2157    -5919.159   -6461.2157            0    2016.6564    23.192481    21.639674    21.947694    11015.059    3017.0623    2690.9013    342.00563   -330.69932   -563.76076   -23.728837   -5595.1966 
 6488000    216.00195   -6430.0494   -5874.3975   -6430.0494            0    2948.5027    23.415541    21.363448    22.008867    11009.643    3616.2779    3975.9164    1253.3138   -961.03453   -537.59909    435.44115   -5400.9731 
 6489000    197.98586   -6417.8521   -5908.5456   -6417.8521            0    1109.0264    23.243492    21.567158    22.182092    11119.795    2487.2004    1276.4937   -436.61508    1072.0244   -547.99119    21.941077   -5728.6939 
 6490000    212.18499   -6436.3216   -5890.4887   -6436.3216            0    920.28586    23.393637    21.544375    21.991135     11083.56    1298.9228    859.37355    602.56121     138.6419   -410.95942    -290.5381   -5741.7315 
 6491000    211.09699   -6454.7399   -5911.7058   -6454.7399            0    930.12644    23.481426    21.491076    21.910544    11056.961    124.91564    1876.2058    789.25786    1229.2363    -24.63832    274.85439   -5761.7188 
 6492000    208.99775   -6446.7491   -5909.1151   -6446.7491            0    802.30688    23.511083    21.622922     21.71622    11040.055    284.30495    481.08024    1641.5355   -712.13429    103.87833    1373.9841   -5779.9374 
 6493000    208.46642   -6421.4329   -5885.1658   -6421.4329            0     3204.011    23.452911    21.551168    21.656618     10946.07    2820.2465    3631.8558    3159.9308    93.853825    586.43682   -224.21627   -5373.6864 
 6494000     212.0249   -6448.6872   -5903.2661   -6448.6872            0    2739.1325     23.48847    21.474775    21.733104    10962.387    2158.6216    3190.6505    2868.1254    381.19503    524.67046   -533.17756   -5465.3468 
 6495000     218.2198   -6423.7733   -5862.4162   -6423.7733            0    2422.5847    23.324349    21.591364    21.861598    11009.599     2980.052    941.84632    3345.8557    -555.4294   -970.05582   -400.19476    -5473.437 
 6496000    210.17197   -6455.4461   -5914.7915   -6455.4461            0    656.42651    23.504147    21.470531    21.909529    11056.567   -317.39681    2083.6771    202.99923    206.50434    139.28998    466.32208   -5808.9436 
 6497000    212.85193   -6440.2275   -5892.6788   -6440.2275            0    2656.2491    23.361996    21.555848    21.824035    10990.314    3579.8379     2131.925    2256.9842   -1199.0174   -673.47884   -1486.9952   -5466.9287 
 6498000    210.14522    -6425.952   -5885.3662    -6425.952            0    3720.9797    23.369409    21.349056    21.916556    10934.495    4308.7327    5053.2366    1800.9698    269.69827    94.405875    47.509045   -5291.9876 
 6499000    205.64725   -6440.8415   -5911.8265   -6440.8415            0    2149.4481    23.337078     21.49089    21.955355     11011.37    2530.0669    2339.8148    1578.4625    715.88197    291.43256    29.385442   -5566.6476 
 6500000    214.40672   -6406.9064   -5855.3581   -6406.9064            0    1084.7821    23.409646    21.538075    21.921836    11052.961    1879.8831    1164.7114    209.75174   -187.66129   -757.00162    23.013109   -5680.4955 
Loop time of 537.682 on 64 procs for 250000 steps with 1296 atoms

Performance: 80.345 ns/day, 0.299 hours/ns, 464.959 timesteps/s
195.9% CPU use with 32 MPI tasks x 2 OpenMP threads

MPI task timing breakdown:
Section |  min time  |  avg time  |  max time  |%varavg| %total
---------------------------------------------------------------
Pair    | 36.895     | 46.83      | 55.855     |  89.9 |  8.71
Bond    | 0.66251    | 0.92209    | 1.0897     |  11.9 |  0.17
Kspace  | 280.41     | 292.44     | 305.91     |  39.7 | 54.39
Neigh   | 2.8211     | 3.0351     | 3.2283     |   7.6 |  0.56
Comm    | 70.239     | 75.667     | 79.895     |  27.7 | 14.07
Output  | 0.55413    | 0.55438    | 0.55592    |   0.0 |  0.10
Modify  | 101.97     | 104.99     | 107.26     |  13.0 | 19.53
Other   |            | 13.24      |            |       |  2.46

Nlocal:        40.5000 ave          49 max          29 min
Histogram: 3 3 3 2 4 0 1 1 7 8
Nghost:        3027.09 ave        3053 max        2985 min
Histogram: 1 1 0 2 7 4 2 9 4 2
Neighs:        12633.5 ave       15292 max        9112 min
Histogram: 4 5 0 3 3 0 1 2 7 7

Total # of neighbors = 404273
Ave neighs/atom = 311.93904
Ave special neighs/atom = 2.0000000
Neighbor list builds = 6681
Dangerous builds = 0

unfix		3
unfix		2
unfix		1

write_data	data.final.${pid}
write_data	data.final.0
System init for write_data ...
PPPM initialization ...
  extracting TIP4P info from pair style
  using 12-bit tables for long-range coulomb (../kspace.cpp:340)
  G vector (1/distance) = 0.37680385
  grid = 30 40 36
  stencil order = 5
  estimated absolute RMS force accuracy = 0.0026848814
  estimated relative force accuracy = 8.0854404e-06
  using double precision FFTW3
  3d grid and FFT values/proc = 8352 2400
Last active /omp style is kspace_style pppm/tip4p/omp
WARNING: Not all mixed pair coeffs generated from mixing. Use write_data with 'pair ij' option to store all pair coeffs. (../write_data.cpp:312)

write_restart   restart.lmp.${pid}
write_restart   restart.lmp.0
System init for write_restart ...
PPPM initialization ...
  extracting TIP4P info from pair style
  using 12-bit tables for long-range coulomb (../kspace.cpp:340)
  G vector (1/distance) = 0.37680385
  grid = 30 40 36
  stencil order = 5
  estimated absolute RMS force accuracy = 0.0026848814
  estimated relative force accuracy = 8.0854404e-06
  using double precision FFTW3
  3d grid and FFT values/proc = 8352 2400
Last active /omp style is kspace_style pppm/tip4p/omp
Total wall time: 0:08:57
