LAMMPS (30 Jul 2021)
  using 1 OpenMP thread(s) per MPI task
package omp 0
using multi-threaded neighbor list subroutines
echo both

include		in.partitions
variable        pid world 0
include		in.temp
variable        temperature equal 251.07
variable	tempDamp equal 100.0
include		in.pressure
variable        pressure equal 7000.0
variable        pressureDamp equal 1000.0 # This is 1 ps
include		in.seed
variable        seed world 745823

units		real
atom_style	full
read_restart	restart.lmp.${pid}
read_restart	restart.lmp.0
Reading restart file ...
  restart file = 30 Jul 2021, LAMMPS = 30 Jul 2021
  restoring atom style full from restart
  orthogonal box = (0.53489013 1.7215612 0.65256470) to (17.672682 21.907617 21.560631)
  4 by 4 by 4 MPI processor grid
  restoring pair style lj/cut/tip4p/long/omp from restart
  restoring bond style harmonic/omp from restart
  restoring angle style harmonic/omp from restart
  864 atoms
  576 bonds
  288 angles
Finding 1-2 1-3 1-4 neighbors ...
  special bond factors lj:    0        0        0       
  special bond factors coul:  0        0        0       
     2 = max # of 1-2 neighbors
     1 = max # of 1-3 neighbors
     1 = max # of 1-4 neighbors
     2 = max # of special neighbors
  special bonds CPU = 0.279 seconds
  read_restart CPU = 0.471 seconds
include 	in.setup
variable	out_freq equal 1000
variable	out_freq2 equal 10000
variable	out_freq3 equal 1000

timestep	2.0

neigh_modify    delay 7 every 1

include		in.tip4p
# This is TIP4P/Ice

# create groups ###
group ox type 2
288 atoms in group ox
group hy type 1
576 atoms in group hy

# set charges - beside manually ###
set group ox charge -1.1794
Setting atom values ...
  288 settings made for charge
set group hy charge 0.5897
Setting atom values ...
  576 settings made for charge

# ### TIP3P Potential Parameters ###
pair_style lj/cut/tip4p/long/omp 2 1 1 1 0.1577 8.5
pair_coeff 1 1*2 0.000 0.000
pair_coeff 2 2 0.21084 3.1668
bond_style  harmonic
bond_coeff  1 450 0.9572
angle_style harmonic
angle_coeff 1 55 104.52
kspace_style pppm/tip4p/omp 1.0e-5
pair_modify tail yes

thermo          ${out_freq}
thermo          1000
thermo_style    custom step temp pe etotal epair emol press lx ly lz vol pxx pyy pzz pxy pxz pyz enthalpy

restart 	${out_freq3} restart.lmp.${pid} restart2.lmp.${pid}
restart 	1000 restart.lmp.${pid} restart2.lmp.${pid}
restart 	1000 restart.lmp.0 restart2.lmp.${pid}
restart 	1000 restart.lmp.0 restart2.lmp.0


include         in.dump
dump            myDump all atom ${out_freq2} dump.water.${pid}
dump            myDump all atom 10000 dump.water.${pid}
dump            myDump all atom 10000 dump.water.0
dump            myDump2 all dcd ${out_freq2} dump.dcd
dump            myDump2 all dcd 10000 dump.dcd
dump_modify     myDump append yes
dump_modify     myDump2 append yes


variable natoms 	equal  "count(all)"                        # NUMBER ATOMS
variable H      	equal  "enthalpy/v_natoms"                 # ENTHALPY-per-atom
variable Vol      	equal  "vol/v_natoms"                 # volume-per-atom
fix AVG all 		ave/time ${out_freq} 1 ${out_freq} v_Vol v_H file vol_enthalpy.dat
fix AVG all 		ave/time 1000 1 ${out_freq} v_Vol v_H file vol_enthalpy.dat
fix AVG all 		ave/time 1000 1 1000 v_Vol v_H file vol_enthalpy.dat


timer           timeout 23:50:00 every 1000
New timer settings: style=normal  mode=nosync  timeout=23:50:00

fix 		1 all shake 1e-6 200 0 b 1 a 1
       0 = # of size 2 clusters
       0 = # of size 3 clusters
       0 = # of size 4 clusters
     288 = # of frozen angles
  find clusters CPU = 0.001 seconds
fix             2 all nph iso ${pressure} ${pressure} ${pressureDamp}
fix             2 all nph iso 7000 ${pressure} ${pressureDamp}
fix             2 all nph iso 7000 7000 ${pressureDamp}
fix             2 all nph iso 7000 7000 1000
fix             3 all temp/csvr ${temperature} ${temperature} ${tempDamp} ${seed}
fix             3 all temp/csvr 251.07 ${temperature} ${tempDamp} ${seed}
fix             3 all temp/csvr 251.07 251.07 ${tempDamp} ${seed}
fix             3 all temp/csvr 251.07 251.07 100 ${seed}
fix             3 all temp/csvr 251.07 251.07 100 745823

run             250000
PPPM initialization ...
  extracting TIP4P info from pair style
  using 12-bit tables for long-range coulomb (../kspace.cpp:340)
  G vector (1/distance) = 0.37347286
  grid = 24 24 24
  stencil order = 5
  estimated absolute RMS force accuracy = 0.0032521736
  estimated relative force accuracy = 9.7938244e-06
  using double precision FFTW3
  3d grid and FFT values/proc = 2535 216
Last active /omp style is kspace_style pppm/tip4p/omp
Neighbor list info ...
  update every 1 steps, delay 7 steps, check yes
  max neighbors/atom: 2000, page size: 100000
  master list distance cutoff = 10.8154
  ghost atom cutoff = 10.8154
  binsize = 5.4077, bins = 4 4 4
  1 neighbor lists, perpetual/occasional/extra = 1 0 0
  (1) pair lj/cut/tip4p/long/omp, perpetual
      attributes: half, newton on, omp
      pair build: half/bin/newton/omp
      stencil: half/bin/3d
      bin: standard
Per MPI rank memory allocation (min/avg/max) = 9.235 | 9.237 | 9.239 Mbytes
Step Temp PotEng TotEng E_pair E_mol Press Lx Ly Lz Volume Pxx Pyy Pzz Pxy Pxz Pyz Enthalpy 
12000000    260.27803   -3893.4079   -3447.3003   -3893.4079            0    6258.1558    17.137792    20.186055    20.908066    7233.0289    5783.3347     7026.735    5964.3976    362.37017   -345.96193    449.36754   -2787.1505 
12001000    255.85248    -3890.241   -3451.7186    -3890.241            0    5554.7209    17.100225    20.141806    20.862234    7185.5668    4427.1205     6514.759    5722.2831   -923.01086   -1240.4828   -752.48799   -2869.6165 
12002000    250.89392   -3876.4608   -3446.4372   -3876.4608            0    6165.2345    17.062698    20.097605    20.816452    7138.3646    7806.8841    4978.9738    5709.8456    1362.3728    2565.4735    1285.2796    -2804.601 
12003000    247.05103    -3890.957     -3467.52    -3890.957            0    8638.6289    16.970416    19.988908    20.703867    7023.1675     8906.328    7918.8825    9090.6761    574.41584    164.25212    203.80303   -2582.7024 
12004000    230.57257   -3914.0152   -3518.8217   -3914.0152            0    7127.6172    17.009421    20.034851    20.751453    7071.7051    5646.7937    7757.3366    7978.7212   -963.61184    63.993412    815.90767   -2783.7252 
12005000    244.05478   -3876.6917   -3458.3902   -3876.6917            0    6736.1086    17.065446    20.100842    20.819805    7141.8141    7920.3065    6668.6905    5619.3288    162.91326     78.15084   -1835.0954   -2756.7838 
12006000    245.29766   -3874.1125   -3453.6807   -3874.1125            0    6940.3417    17.096817    20.137792    20.858076    7181.2717    8748.4049    5642.2579    6430.3623    1078.9266    1132.2727    503.76404   -2726.8085 
12007000    260.55726   -3892.6563   -3446.0701   -3892.6563            0    6210.6002    17.104477    20.146814    20.867422    7190.9285    7487.3981    4185.7567    6958.6458    569.57847    1662.3127    685.85081   -2794.7501 
12008000    245.18954   -3852.7023   -3432.4559   -3852.7023            0    5964.9307     17.06271    20.097619    20.816466    7138.3793    6877.9566    5013.4803    6003.3553   -204.41501    453.50719    138.44573   -2811.4711 
12009000    275.97287   -3882.5339   -3409.5258   -3882.5339            0    7614.3103    17.093145    20.133467    20.853597    7176.6463    7309.0774    7941.7465    7592.1069   -475.05113    544.20148    1689.6432   -2612.5815 
12010000    249.21502   -3881.9475   -3454.8015   -3881.9475            0    6123.2334    17.067296     20.10302    20.822061    7144.1367    5364.4265    5660.8059    7344.4679   -188.23753     1324.911   -562.67282   -2816.8223 
12011000    251.64402   -3891.9719   -3460.6626   -3891.9719            0    7769.9412    17.055438    20.089053    20.807595    7129.2562    7608.1082    5501.0652     10200.65    1151.2182    2628.8298    92.104326   -2652.7994 
12012000    277.16684   -3886.8021   -3411.7476   -3886.8021            0    6809.0269    17.048005    20.080298    20.798526    7119.9391     6300.944    6623.5093    7502.6276    1143.8729    2333.0456    1596.8875   -2704.7186 
12013000    268.86138   -3903.2844   -3442.4652   -3903.2844            0     7215.302    17.042469    20.073777    20.791772    7113.0053    6260.9101    8422.8037    6962.1924   -635.38497    217.27354   -722.02705   -2693.9794 
12014000    252.35644   -3941.9702   -3509.4399   -3941.9702            0     6257.735    17.102388    20.144355    20.864874     7188.295    5532.2665    5870.8765    7370.0619    208.01458   -1376.9062    799.69612   -2853.4171 
12015000    251.47335   -3897.3225   -3466.3058   -3897.3225            0     7368.529    17.113963    20.157988    20.878995    7202.8996    7712.2049      6264.81    8128.5722   -236.88355   -1317.8642    1131.5394   -2692.2646 
12016000    254.33955   -3898.3153    -3462.386   -3898.3153            0    8689.8629    17.027435    20.056069    20.773431    7094.1973     8528.061    9374.6648    8166.8629    940.91661   -691.29068    1091.9787   -2563.3189 
12017000    262.24865    -3911.955   -3462.4698    -3911.955            0     8735.564    17.016996    20.043773    20.760695    7081.1578    8462.8379    8250.0984    9493.7556    666.60432   -698.48738   -348.13592   -2560.3357 
12018000    227.95744   -3890.6548   -3499.9436   -3890.6548            0    7333.5627    17.002924    20.027198    20.743527    7063.6051    6200.0378    9076.8913     6723.759    1008.0129    680.61164   -408.12797   -2744.4734 
12019000    256.41031   -3897.5201   -3458.0416   -3897.5201            0    8778.0678    16.984116    20.005045    20.720582    7040.1905    7758.4968     9107.123    9468.5836   -489.54318    476.36188    -2489.104   -2556.7626 
12020000    243.88487   -3931.5424   -3513.5321   -3931.5424            0    6746.1964    17.041326    20.072431    20.790378     7111.574    4917.1804    7953.5502    7367.8584   -1330.0841    28.595077    1099.0234   -2813.8503 
12021000    237.97149   -3914.1566   -3506.2816   -3914.1566            0    8127.1145    17.018394     20.04542    20.762401    7082.9029    8784.1166    8442.2195    7155.0075    449.68768    1395.5904   -297.32498   -2666.7761 
12022000    259.60861   -3921.3498   -3476.3895   -3921.3498            0     7036.473    17.128274    20.174844    20.896454    7220.9843    7313.1818    6596.9086    7199.3286    742.50198   -775.92667   -969.68935    -2735.374 
12023000    235.21593   -3921.0517   -3517.8996   -3921.0517            0    7324.1449    17.075423    20.112593    20.831976    7154.3473    9535.6657     4675.785    7760.9841    551.81848   -1332.1407    458.15988    -2753.707 
12024000    254.40373   -3885.3009   -3449.2616   -3885.3009            0    6209.2758    17.093579    20.133978    20.854126    7177.1924    4229.9484    8377.2742    6020.6049   -424.89068   -540.02422    298.31731   -2799.3244 
12025000    255.57778   -3919.1957   -3481.1442   -3919.1957            0    5508.1053    17.116667    20.161172    20.882293    7206.3137    4988.0247    6664.0557    4872.2355    1300.0368   -736.58326    633.10063   -2902.2605 
12026000    266.83737   -3904.3422   -3446.9921   -3904.3422            0    5384.5614    17.012413    20.038376    20.755105    7075.4387    2620.3403    6713.4416    6819.9022    -940.4412   -1712.2311    1957.3278   -2891.3699 
12027000    239.67112   -3881.0833   -3470.2952   -3881.0833            0    5947.3335    17.042788    20.074153    20.792162    7113.4046    4732.6369    6890.1089    6219.2548    505.59889   -1779.9837    396.54055   -2853.3087 
12028000    261.72096      -3945.7   -3497.1192      -3945.7            0    5732.4061    17.066601    20.102201    20.821213    7143.2636     5929.673    5196.2444     6071.301    372.28504   -704.86122    740.17816   -2899.9333 
12029000    247.65567   -3934.8576   -3510.3843   -3934.8576            0    7721.0767      16.9959    20.018925    20.734958    7054.8548    8714.9208    6075.3629    8372.9463   -200.49049    1531.4608   -778.83482   -2715.9795 
12030000    250.72992   -3888.8479   -3459.1054   -3888.8479            0    10219.723    16.998028    20.021432    20.737555    7057.5057    9410.4345     9784.631    11464.103    985.55214   -440.73944    1260.0201   -2407.2253 
12031000    252.29436   -3889.4251   -3457.0012   -3889.4251            0    5526.0242    17.054191    20.087584    20.806073    7127.6925    5787.7607    6951.5277    3838.7841    714.72098   -1517.1294    -1099.922   -2882.5705 
12032000    255.94007   -3915.5746    -3476.902   -3915.5746            0    7385.8312    17.011902    20.037773    20.754481    7074.8006    10185.836    5212.8649    6758.7926   -1337.9532   -970.84347   -193.40395   -2714.8415 
12033000    254.03237   -3908.2805   -3472.8777   -3908.2805            0    6718.8131    17.076183    20.113488    20.832903    7155.3021    6130.4628    6950.9525    7075.0241   -976.95854   -177.42136   -443.73496   -2771.7512 
12034000    249.76224   -3937.1112   -3509.0272   -3937.1112            0    6127.6985    17.080063    20.118058    20.837637     7160.181    7162.4084      4949.88    6270.8072   -707.31566   -521.28012    498.90431   -2869.1491 
12035000    247.24231   -3920.4602   -3496.6953   -3920.4602            0    6725.4466    16.998653    20.022168    20.738317    7058.2842    8144.7723    6343.5641    5688.0035   -211.76746    525.01888   -1019.1547   -2804.3924 
12036000    240.29748   -3898.0248   -3486.1631   -3898.0248            0     8069.332    16.993182    20.015724    20.731643    7051.4712    8589.9847    8208.0962    7409.9152   -291.00565    16.160966   -1805.9367   -2656.3253 
12037000    250.56509   -3897.8655   -3468.4055   -3897.8655            0    7331.9865    16.988642    20.010377    20.726104    7045.8209     6304.533    8270.3877    7421.0388    390.97601    62.353257   -399.06141   -2714.9994 
12038000    253.94235   -3898.5095    -3463.261   -3898.5095            0    7488.2519    17.056519    20.090327    20.808914    7130.6122    6718.1012      7383.56    8363.0947   -1738.9824   -208.84979   -225.78466   -2684.5377 
12039000    256.75857   -3904.5738   -3464.4984   -3904.5738            0    7440.1371    17.047188    20.079336     20.79753    7118.9157    4993.2151     8985.371    8341.8253   -416.86632   -784.18266    1381.3421   -2692.0479 
12040000    248.79397   -3901.0799   -3474.6555   -3901.0799            0    7523.8608    17.050852    20.083651       20.802    7123.5068    8405.4215    7601.4606    6564.7003   -1790.1753   -1212.1468    1036.1012   -2693.0088 
12041000     239.0066   -3899.0482   -3489.3991   -3899.0482            0    7116.7288    17.076632    20.114017    20.833451    7155.8667    6150.7983    7302.0656    7897.3224   -1491.6217    358.40943    231.92556   -2746.6903 
12042000    248.38012   -3899.2508   -3473.5358   -3899.2508            0    7627.3864     17.06582    20.101282    20.820261    7142.2832    7111.6796    6647.6658    9122.8137   -858.86748   -795.72604    638.14662   -2679.0453 
12043000    252.40103    -3908.614   -3476.0073    -3908.614            0     5608.929     17.18354    20.239941    20.963879    7291.1079    3780.4974     5393.782    7652.5076    547.90595   -86.941619     1883.615   -2879.5912 
12044000    264.83024   -3931.3497   -3477.4397   -3931.3497            0    7223.2177    17.121992    20.167445     20.88879    7213.0416    9511.7703     5359.019    6798.8638    609.76631    613.37059    646.78534   -2717.5947 
12045000    231.84892    -3926.485   -3529.1039    -3926.485            0    6141.5786    17.045938    20.077863    20.796004    7117.3496    6828.2816    5737.4741    5858.9803   -76.205272    2565.9995   -1281.8684   -2891.6127 
12046000    262.55132   -3890.9378   -3440.9338   -3890.9378            0    8170.8392     17.05657    20.090386    20.808976    7130.6758    8899.5132     8256.762    7356.2423   -943.53842   -1182.5216    859.67048   -2591.2189 
12047000     242.2392   -3910.5903   -3495.4006   -3910.5903            0    7825.1137    17.059616    20.093974    20.812692    7134.4967    7284.6606    8333.9519    7856.7287    635.44668    47.244078   -1112.4705   -2681.2029 
12048000    251.62252   -3907.5556   -3476.2832   -3907.5556            0    6742.0194    17.044025     20.07561    20.793671    7114.9538    8138.0507    6824.6598    5263.3479    840.58853   -42.562722    164.76157   -2776.7023 
12049000    257.75049   -3915.7955     -3474.02   -3915.7955            0    9642.1164    17.058009    20.092081    20.810731    7132.4801    10426.336    7536.3069    10963.707   -238.71278    436.84857   -548.94199    -2471.048 
12050000    240.06671     -3918.75   -3507.2839     -3918.75            0    7115.1714    17.112619    20.156405    20.877355    7201.2024    7503.8154    6185.8846    7655.8141   -486.91111    377.03527   -1442.4981   -2760.0333 
12051000    248.39322   -3875.0965    -3449.359   -3875.0965            0    7351.2789    17.077116    20.114587    20.834042    7156.4756    8681.6968    6540.9754    6831.1646   -1125.4957   -1628.8829    836.34793   -2682.1071 
12052000    250.05125   -3904.1715   -3475.5922   -3904.1715            0    7736.3605    17.049859    20.082481    20.800788    7122.2619    5813.0014    8506.2718    8889.8084    79.588885   -1340.9883   -447.05944   -2672.0096 
12053000    242.03426   -3901.6087   -3486.7703   -3901.6087            0    6567.3421    17.010698    20.036356    20.753012     7073.299    5860.1958    7801.9633    6039.8671    1580.4255   -739.46292    -1100.592   -2809.3042 
12054000    249.52636   -3879.8848   -3452.2052   -3879.8848            0     6006.388    17.116806    20.161336    20.882463    7206.4895    6376.4008    5502.9803     6139.783   -569.76341     28.99609   -959.70539   -2820.9383 
12055000    252.83162   -3919.7213   -3486.3765   -3919.7213            0    4161.9864    17.132223    20.179496    20.901272      7225.98    5333.3125    2672.3265    4480.3202   -335.81436    517.00368    269.31803   -3047.7718 
12056000    270.93853    -3904.759   -3440.3796    -3904.759            0    6159.1178    17.073977    20.110889    20.830212    7152.5294     6615.015    5284.9639    6577.3746    1013.6369   -538.01353   -798.82435   -2797.9078 
12057000    246.37856    -3875.254   -3452.9696    -3875.254            0    7814.5138     17.13005    20.176936     20.89862    7223.2301    8276.7684    6299.6516    8867.1215   -603.19053    764.36783    -286.0043   -2629.7621 
12058000     253.5047   -3892.9786   -3458.4802   -3892.9786            0    7330.3252    17.132961    20.180365    20.902172    7226.9132     5852.016    7555.3559    8583.6037    744.13882    1693.8191   -66.290283   -2685.8851 
12059000    261.56909   -3891.4876   -3443.1671   -3891.4876            0    6827.6215    17.129318    20.176074    20.897728    7222.3046    5843.3606    7184.7462    7454.7577   -147.24915    -154.4629    177.01128   -2724.0144 
12060000    244.52733   -3903.5309   -3484.4194   -3903.5309            0    6964.0629    17.151677     20.20241    20.925006    7250.6234    6696.1729    7286.8571    6909.1587   -254.04258    538.16107    69.928358   -2748.0192 
12061000    250.79945   -3881.5901   -3451.7285   -3881.5901            0    7102.9174    17.193854    20.252089    20.976462    7304.2449    6737.3708    7939.0108    6632.3705   -1435.7528    588.88116   -205.05308   -2695.0908 
12062000    247.45178    -3828.918   -3404.7941    -3828.918            0    8908.4059    17.077483    20.115019    20.834489    7156.9362    9054.1002     8264.705    9406.4124    -933.9933    2252.8756    1599.7847   -2474.9652 
12063000    259.35975   -3836.9813   -3392.4476   -3836.9813            0    6622.8682    17.101736    20.143586    20.864078    7187.4722    5123.2932    8399.0586    6346.2528    366.31398    -571.5807    832.90149   -2698.2259 
12064000    256.29173   -3898.7379   -3459.4626   -3898.7379            0    6819.4752    17.106664    20.149391     20.87009    7193.6878    6289.9681    7627.5331    6540.9245   -725.41027    194.44106   -515.52017    -2744.014 
12065000    235.90776   -3901.4406   -3497.1028   -3901.4406            0    6527.6098    17.087044     20.12628    20.846153    7168.9637    5318.5938    7769.1946    6495.0409    860.48378   -1177.3078    94.550303   -2814.6283 
12066000    256.86317   -3873.0251   -3432.7705   -3873.0251            0    8065.9133    17.068915    20.104927    20.824037      7146.17    9412.9519    7843.9565    6940.8314   -447.05845   -1045.2446   -42.543595   -2592.1445 
12067000    243.89164    -3918.876   -3500.8541    -3918.876            0    9523.6191    17.011071    20.036795    20.753467    7073.7641    8641.3355    9442.9848    10486.537    -1365.543   -725.30732    807.21162   -2518.3633 
12068000    252.73601   -3909.4268   -3476.2459   -3909.4268            0    5976.9862    17.186108    20.242965    20.967011    7294.3766    6639.4006    5882.6568    5408.9011   -882.47386   -348.16313    1405.7414   -2840.4081 
12069000    244.41199   -3932.9939   -3514.0801   -3932.9939            0    8101.5332    17.066815    20.102453    20.821474     7143.532    7204.2992    8000.3911    9099.9093   -1184.9497    1748.6389    -542.1358   -2670.0536 
12070000     249.5281   -3909.2588   -3481.5762   -3909.2588            0     6286.684    17.118274    20.163065    20.884254    7208.3436    6055.1167    6891.6249    5913.3103   -320.54646   -1174.4952   -840.62788   -2820.6803 
12071000    244.49035    -3887.703   -3468.6549    -3887.703            0    7480.2473     17.06566    20.101094    20.820066    7142.0827    8040.5893    5133.9703    9266.1822   -1247.2231     603.0748   -149.71411   -2689.5127 
12072000    264.39558   -3868.4793   -3415.3144   -3868.4793            0    7955.1057    17.116324    20.160769    20.881875    7205.8811    7066.1715    7998.7909    8800.3547   -726.11309   -832.27526    487.38585   -2579.3092 
12073000    238.06372   -3929.9113   -3521.8782   -3929.9113            0    5494.6789    17.105558    20.148088    20.868741    7192.2925    5120.4403    4959.1327    6404.4636    1081.3067    2114.2173    3.1404612   -2945.5292 
12074000    248.62133   -3898.1062   -3471.9778   -3898.1062            0    7628.3077    17.100557    20.142197    20.862639    7185.9855    7583.0801    7199.7179    8102.1252    1764.5598    230.81767   -609.87005   -2672.5294 
12075000    239.80216   -3891.6368   -3480.6241   -3891.6368            0    7047.8465    17.104992    20.147422    20.868051    7191.5788    6418.7157    6727.9893    7996.8345    1404.5902   -875.54719    717.76664   -2741.4333 
12076000    245.48153   -3918.3913   -3497.6443   -3918.3913            0    4978.9195    17.114794    20.158966    20.880008    7203.9484    5089.8444    5021.2424    4825.6718    889.56176   -1034.5988   -229.46956   -2974.5481 
12077000    249.26493   -3947.5926    -3520.361   -3947.5926            0    8629.8864    17.047208    20.079359    20.797554    7118.9405    9056.4588    10344.495    6488.7058    1446.5734   -1090.8686    756.44721   -2624.3851 
12078000    270.73951   -3921.8475   -3457.8092   -3921.8475            0    7424.5027    17.116788    20.161315    20.882441    7206.4665    7069.8096    6298.5419    8905.1566    151.39766    950.77027   -832.27826    -2677.502 
12079000    255.91595    -3950.041   -3511.4098    -3950.041            0    7437.7453    17.087368    20.126663    20.846549    7169.3721    8686.5417    5953.4561    7673.2381    -54.28047    99.361665   -1665.3103   -2733.7345 
12080000     269.1736   -3900.9075   -3439.5531   -3900.9075            0    4568.5527    17.103446    20.145601    20.866165    7189.6289    5520.3452    4620.9688     3564.344   -1007.2774    1148.2463   -1223.5986    -2960.525 
12081000    253.98567   -3924.3597   -3489.0369   -3924.3597            0    6843.1963    17.149728    20.200115    20.922629    7248.1526    5275.4412    6917.0323    8337.1153    -814.7325    1193.0779   -712.17164   -2765.6641 
12082000     250.0722   -3933.8525   -3505.2373   -3933.8525            0     8380.278    17.025206    20.053444    20.770712     7091.412    8406.4176    7961.4844     8772.932    664.08371   -840.34316    107.92905   -2638.5408 
12083000    246.81023   -3939.2765   -3516.2522   -3939.2765            0     7168.283    17.073064    20.109814    20.829098    7151.3818     6228.427    7524.3405    7752.0813    1914.4015    817.80899   -332.49227    -2768.632 
12084000    252.64879   -3903.0498   -3470.0184   -3903.0498            0    5968.8802    17.125653    20.171757    20.893256    7217.6694     5517.151    5529.7103    6859.7793    421.22133    1266.2064   -1050.5785   -2841.7203 
12085000    247.26309   -3919.5173   -3495.7169   -3919.5173            0    9133.4277    17.023317    20.051219    20.768407    7089.0518     9243.951    9297.6876    8858.6444   -1488.9563    1301.6971   -1360.7192   -2551.4433 
12086000    254.77679   -3939.4514   -3502.7727   -3939.4514            0    6709.6396     17.12794    20.174451    20.896047    7220.5616    7376.2083    5765.7834    6986.9271    1284.2275    1242.4073   -753.19853   -2796.2176 
12087000    236.96136   -3939.1668   -3533.0231   -3939.1668            0    5802.2665    17.128999    20.175698    20.897338    7221.9006    6288.6922    5864.8492    5253.2581     619.2337    623.03539   -2204.8372   -2921.9051 
12088000    259.76924   -3920.7585   -3475.5229   -3920.7585            0    5986.7061    17.179651     20.23536    20.959134    7286.1582    7228.2045    5758.2453    4973.6684   -168.54332   -1354.7393   -54.974577   -2839.3686 
12089000    241.76462    -3924.973   -3510.5967    -3924.973            0    5711.0311    17.086817    20.126013    20.845876     7168.678    4746.0356    7479.3552    4907.7025    1221.7625    16.886279   -1698.6046   -2913.5209 
12090000    257.71172   -3922.0096   -3480.3005   -3922.0096            0    7283.8005    17.057518    20.091503    20.810132    7131.8648    8787.9739    5159.2948    7904.1328   -216.08521   -355.37621   -48.488245   -2722.7056 
12091000    245.20274   -3914.8929   -3494.6238   -3914.8929            0    7978.8301    17.048298    20.080643    20.798883    7120.3059    7473.1015    7858.2918     8605.097   -901.80813    124.93825     -1604.52   -2666.0832 
12092000    267.53063   -3909.8803   -3451.3419   -3909.8803            0    7388.8967    17.033379     20.06307    20.780682    7101.6291    9544.0839    5958.8878    6663.7183   -1529.9138   -1025.9099    1132.7373   -2686.0741 
12093000     248.0231   -3930.6907   -3505.5876   -3930.6907            0    6788.6941    17.032394     20.06191    20.779481    7100.3978    6716.6789    7637.2591    6012.1443   -392.19067    1245.6797   -317.36675   -2802.6046 
12094000    252.31056   -3933.7886   -3501.3369   -3933.7886            0    6492.2547    17.125374    20.171429    20.892916    7217.3172    8537.7669    5806.7706    5132.2266    17.442316    593.07674   -91.305768   -2817.9806 
12095000    243.08807   -3933.3027    -3516.658   -3933.3027            0     6794.953    17.101474    20.143277    20.863758    7187.1418    5872.8416     5995.935    8516.0824    516.97458   -1524.1446    921.16115   -2804.4308 
12096000    253.00095    -3905.231   -3471.5961    -3905.231            0    6580.2568     17.06415    20.099315    20.818224    7140.1871     7021.512    7884.5841    4834.6742   -69.295817   -751.03969    238.83027   -2786.3787 
12097000    247.82648   -3902.7566   -3477.9905   -3902.7566            0     6475.582    17.051485    20.084398    20.802772    7124.3008    6676.9457    5258.0305    7491.7698   -1521.9106   -1131.6288    389.35685   -2805.1735 
12098000    246.47829    -3931.672   -3509.2167    -3931.672            0    7076.3752    17.018856    20.045964    20.762964      7083.48     6369.088    7550.8315     7309.206   -27.759405    592.53874   -939.27021   -2778.1897 
12099000    257.72665   -3916.6488   -3474.9141   -3916.6488            0     6252.653    17.047496    20.079699    20.797905    7119.3016    5261.5389    8045.7205    5450.6996   -166.68679    920.08136   -464.19266   -2825.7154 
12100000     249.7769   -3918.7085   -3490.5994   -3918.7085            0    7788.1613     17.02181    20.049444    20.766569    7087.1694    5977.0123    7049.4425    10338.029   -79.605601    793.77873   -1572.3191   -2685.6221 
12101000    249.61548   -3919.4543   -3491.6219   -3919.4543            0    6483.0369    17.025759    20.054095    20.771387    7092.1033    5308.1474    6345.9588    7795.0046    102.05154    481.41077    157.12283   -2821.0746 
12102000    254.37163   -3895.8683    -3459.884   -3895.8683            0     6136.059    17.084428      20.1232    20.842962     7165.672    5857.3351    6074.0009     6476.841    -377.0163    550.35251   -1029.5083   -2818.6414 
12103000    248.33853   -3886.7681   -3461.1244   -3886.7681            0    5097.9855    17.120739    20.165969    20.887261    7211.4583     4841.161    5514.8198    4937.9758    1058.4519    286.26903   -435.46569   -2924.9605 
12104000    240.13092   -3878.1641   -3466.5879   -3878.1641            0    6279.9201    17.135386    20.183222    20.905131    7229.9832    6688.1419    6004.5159    6147.1025     576.4023    38.620772     212.2447   -2804.4213 
12105000    252.54013   -3895.3489   -3462.5038   -3895.3489            0    5282.8693    17.119814    20.164879    20.886133    7210.2894    5628.8092    5741.6256    4478.1731     532.2238    857.94373   -78.501237   -2906.9853 
12106000    243.19755   -3894.2572   -3477.4249   -3894.2572            0    10742.775    16.892735    19.897411    20.609097    6927.1645    9625.1569    11184.557     11418.61    50.823657    1431.3057   -7.9743113   -2392.1298 
12107000    236.79501   -3905.0739   -3499.2154   -3905.0739            0    7143.4958     17.07535    20.112507    20.831887    7154.2552    8002.3496    5789.8839     7638.254   -603.85455   -240.19844    -300.9388   -2753.8811 
12108000    259.39041   -3919.4242   -3474.8379   -3919.4242            0    6866.8797    17.022927    20.050759    20.767931    7088.5643    7276.0434    6141.7414    7182.8544   -808.47692    428.84425   -1461.4672   -2764.9437 
12109000     251.6282   -3909.6319   -3478.3498   -3909.6319            0    7693.3803    17.057443    20.091415     20.81004    7131.7706    8828.1341    4898.7478    9353.2591    -397.0126    1460.7703   -808.70585   -2678.1647 
12110000    243.52758    -3905.201    -3487.803    -3905.201            0    6842.0482    17.074212    20.111167    20.830499    7152.8253    7439.9462    6394.4993    6691.6992   -631.27443    2519.6089    1378.9225   -2774.0637 
12111000     257.8795   -3904.3521   -3462.3555   -3904.3521            0    7450.8294     17.07802    20.115651    20.835144    7157.6113    6182.8176    7614.9095    8554.7611    594.31808    359.72735    535.28162   -2684.5901 
12112000    245.72133   -3901.3645   -3480.2066   -3901.3645            0    7829.7755    17.043972    20.075548    20.793606    7114.8871     9151.168    7451.4458    6886.7126    1345.1271   -583.27475   -865.44538    -2667.763 
12113000    239.73176    -3922.418    -3511.526    -3922.418            0    5941.4672    17.114394    20.158496    20.879521    7203.4438     4166.148    6421.1135    7237.1402   -1928.2438    23.824109   -653.55962   -2887.3461 
12114000    255.29143   -3881.6358    -3444.075   -3881.6358            0    8006.1046    17.135912    20.183841    20.905773    7230.6492    6081.4134    6500.2173    11436.683   -443.35639   -221.84832    -318.3034   -2599.8185 
12115000    258.26005   -3904.4005   -3461.7516   -3904.4005            0    5640.5354     17.21265    20.274228    20.999392    7328.2248    6087.2605    6008.5742    4825.7715    211.25983    591.36426   -738.88734   -2858.9214 
12116000    243.50879    -3918.854   -3501.4883    -3918.854            0    7170.0756    17.172951    20.227468     20.95096    7277.6366    8218.2515    6283.8602    7008.1152    -624.9106    804.19818   -459.41455   -2740.4789 
12117000    230.94561    -3912.678   -3516.8451    -3912.678            0    7983.5494    17.150925    20.201525    20.924089    7249.6704    7508.0087    7838.5072    8604.1324   -147.30568    892.86202   -693.59126   -2672.7524 
12118000    237.64736   -3929.4647   -3522.1453   -3929.4647            0    5962.8378     17.13845    20.186831    20.908869    7233.8623    6711.6944    6726.0608    4450.7582   -70.499373    634.22756    628.70555    -2893.075 
12119000    261.12452   -3925.6263   -3478.0678   -3925.6263            0    6776.9754    17.117359    20.161988    20.883138    7207.1883     6683.345    6652.6129    6994.9684   -461.91022   -707.08236   -321.88435   -2765.7437 
12120000    243.86435   -3914.7737   -3496.7985   -3914.7737            0    7297.6147    17.080198    20.118217    20.837802    7160.3506     8715.831    5688.9829    7488.0302    483.85906    1120.5831    26.646747   -2734.7351 
12121000    235.57772   -3897.6999   -3493.9277   -3897.6999            0    6611.8738    17.099898    20.141421    20.861835    7185.1545    4960.7181    7066.8077    7808.0956   -414.19629    538.74376    1335.0672    -2801.082 
12122000    265.70448   -3882.4503    -3427.042   -3882.4503            0    7166.4342    17.143771    20.193097     20.91536    7240.6011    7317.9843     6964.022    7217.2962   -310.08752   -481.77865    -975.1895   -2670.2899 
12123000    244.78609   -3919.8583   -3500.3034   -3919.8583            0     8439.724    17.060189    20.094649    20.813391    7135.2157    7720.4317    7836.5556    9762.1847   -1254.2546    595.51473   -659.21897   -2622.0674 
12124000    258.30805   -3906.0463   -3463.3151   -3906.0463            0    7763.8313    17.032387    20.061902    20.779472    7100.3884    7166.1495    7725.8509    8399.4933    259.25107    79.695216   -152.48321   -2659.3558 
12125000    264.10519   -3889.8237   -3437.1565   -3889.8237            0    7956.9049    17.036922    20.067244    20.785005    7106.0622    6746.9484    6339.4508    10784.315   -423.09183     1148.306    -433.5563   -2612.5456 
12126000    252.75587   -3916.6414   -3483.4264   -3916.6414            0    7270.3345    17.084969    20.123836    20.843622    7166.3523       7299.1    5884.4492    8627.4543     1324.585   -108.47427   -330.01809   -2723.5754 
12127000    254.41903   -3901.1104   -3465.0448   -3901.1104            0    7758.4023    17.037332    20.067726    20.785505    7106.5748    8437.4497    7771.7513    7066.0059    807.87584   -92.261166   -1617.7366   -2660.9477 
12128000    255.01783   -3924.1191   -3487.0272   -3924.1191            0    8209.0826    17.014854     20.04125    20.758082    7078.4837    7711.6715    8680.1937    8235.3826   -409.74975   0.86712964     609.4121   -2639.5837 
12129000    256.02731   -3889.6653   -3450.8433   -3889.6653            0    6019.9483     17.13224    20.179515    20.901292     7226.001    6695.2381     5570.357    5794.2497   -715.17983   -222.97983    1568.0342   -2816.4382 
12130000    250.06574   -3930.4027   -3501.7985   -3930.4027            0    5834.6746    17.111444    20.155021    20.875922      7199.72     6337.042    4024.7894    7142.1923     1485.403   -880.00227    104.10753   -2889.1546 
12131000    248.20329   -3937.5311   -3512.1191   -3937.5311            0    7927.6267    17.048825    20.081264    20.799527    7120.9668    8326.1604    6580.0356    8876.6841    450.71006     1014.831    810.54818   -2688.8192 
12132000    260.41889   -3891.6493   -3445.3002   -3891.6493            0    6727.4323    17.115657    20.159984    20.881062    7205.0391    7575.9029    5162.6065    7443.7874    298.06882   -389.79014    1105.7472   -2738.3944 
12133000    255.05682   -3911.5818   -3474.4231   -3911.5818            0    8395.2039    17.043374    20.074844    20.792877    7114.1388    8079.8799    9157.6966    7948.0351   -635.58518    467.42659    73.602199   -2603.4004 
12134000    240.96443   -3930.6323   -3517.6275   -3930.6323            0    5530.6226    17.113721    20.157702    20.878699    7202.5936     2833.442    6490.4211    7268.0047   -1363.7481   -167.91223   -441.84101   -2936.6775 
12135000    232.71491   -3911.9671   -3513.1017   -3911.9671            0    7484.6875    17.063025    20.097989     20.81685    7138.7745    7692.5357    6967.4829    7794.0439   -582.31579    786.71724   -781.75162   -2733.8582 
12136000    243.86432   -3892.8093   -3474.8342   -3892.8093            0    6979.2029    17.110946    20.154435    20.875315    7199.0914    8531.3292    5713.1472    6693.1324   -315.09732   -894.14062    369.33966   -2742.0782 
12137000    241.25934    -3879.933   -3466.4227    -3879.933            0    7113.9195    17.083444     20.12204    20.841761    7164.4334    8024.7648    6806.7464    6510.2473   -459.83323    -22.57313   -238.64785   -2723.1184 
12138000     267.0119   -3919.4065   -3461.7572   -3919.4065            0    6876.1146    17.084574    20.123372    20.843141     7165.856     5727.939    6868.9222    8031.4826    666.91077    779.95685    785.73788   -2743.1575 
12139000    233.08018   -3916.9271   -3517.4356   -3916.9271            0    6806.1642    17.051126    20.083975    20.802334    7123.8508    5967.7702    8055.0504    6395.6721    96.256981   -857.29478   -98.434878   -2810.3156 
12140000    240.50026   -3881.5719   -3469.3627   -3881.5719            0     6617.021    17.159678    20.211834    20.934767    7260.7754    8905.7437    5453.9291    5491.3901   -236.21184    1402.8428   -614.48251     -2768.68 
12141000    245.16551   -3901.2579   -3481.0526   -3901.2579            0    6084.0385    17.058587    20.092762    20.811436    7133.2058     6805.703    4117.0853     7329.327   -372.60747   -619.04516    873.58048   -2848.1271 
12142000     245.3222   -3886.9805   -3466.5066   -3886.9805            0    7881.7864    17.035027    20.065012    20.782693     7103.691    6276.7616    8056.1312    9312.4663   -166.55504   -61.909067    2584.3033   -2649.9532 
12143000    246.79395   -3903.9702   -3480.9738   -3903.9702            0    7700.1215    17.033104    20.062747    20.780347    7101.2858    8480.9652    6663.5671    7955.8322    782.87619   -1029.4728    545.67833    -2683.511 
12144000     249.7647   -3886.9551    -3458.867   -3886.9551            0    8498.5465    16.976355    19.995904    20.711114    7030.5443    8515.4584     8827.307    8152.8743    275.35049    168.56311     376.0147   -2587.4832 
12145000    255.03037   -3868.8847   -3431.7714   -3868.8847            0    7638.5437    16.973561    19.992613    20.707705    7027.0734    8579.9481    6570.5333    7765.1497    303.13984   -587.07237    1340.5116   -2648.9531 
12146000    237.21108   -3881.1709   -3474.5992   -3881.1709            0    6321.2643    17.008822    20.034146    20.750723    7070.9588    8017.4582     5572.533    5373.8016   -971.32656    1176.7938   -525.11667   -2822.7335 
12147000     236.2177   -3911.8211    -3506.952   -3911.8211            0    6404.3739    17.022117    20.049806    20.766943    7087.5531    5847.3881    7518.8232    5846.9103   -1640.7686   -1594.4193   -890.95867   -2844.9659 
12148000    242.79646   -3918.0232   -3501.8784   -3918.0232            0    7053.3296    16.931067    19.942561    20.655862     6974.428    7748.9399    7733.5086    5677.5402    307.22189    1091.8851   -388.57229   -2784.4498 
12149000    260.67567   -3905.1576   -3458.3685   -3905.1576            0    5576.7894     17.10346    20.145616    20.866181    7189.6457    5540.9824    5663.8284    5525.5573   -711.97577    379.76259    511.22438    -2873.622 
12150000    245.67659   -3907.4358   -3486.3545   -3907.4358            0    7062.2529    17.044761    20.076477    20.794568    7115.8751    8054.8887    6071.8365    7060.0336   -697.12891    464.41557     915.5866   -2753.4499 
12151000     250.2484   -3895.2803   -3466.3631   -3895.2803            0     5496.478    17.131531    20.178681    20.900428    7225.1046    4461.5531    4674.6543    7353.2266    131.12921   -558.89823    759.13669   -2887.1952 
12152000     242.2465   -3939.2438   -3524.0416   -3939.2438            0    5683.5712    17.107309     20.15015    20.870877    7194.5007     4790.176    4937.0432    7323.4944   -568.49759    706.92061    831.73541   -2927.6962 
12153000    243.60138   -3916.9137   -3499.3892   -3916.9137            0    4853.4518    17.118777    20.163658    20.884868    7208.9791    4619.1764    3786.3039    6154.8752    771.04823    745.62958    889.87992   -2989.1188 
12154000    241.56411   -3901.4804   -3487.4478   -3901.4804            0    7676.7417    17.062125     20.09693    20.815753    7137.6454    7260.7245    6815.6653    8953.8352    1180.6757   -477.47924    530.16361   -2688.3355 
12155000    256.24945   -3927.0477   -3487.8449   -3927.0477            0    7630.0976    17.086903    20.126115    20.845982    7168.7866     8254.687    6857.7645    7777.8413    897.09183    1168.6141    1003.4953   -2690.1228 
12156000     244.1858   -3960.8173   -3542.2912   -3960.8173            0    7378.9703    17.055004    20.088542    20.807065    7128.7117    8716.5168    7615.6742    5804.7199   -1043.2252    124.82963   -1278.8995    -2775.137 
12157000    248.79789   -3941.6917   -3515.2606   -3941.6917            0    8137.8579    17.038685     20.06932    20.787156     7108.268    6128.5836    9963.5137    8321.4764   -172.37195    1745.5975   -406.11563   -2671.6349 
12158000    252.70105   -3933.6814   -3500.5604   -3933.6814            0     8523.744    17.055126    20.088685    20.807214    7128.8647    9489.4271    7759.2605    8322.5443   -457.58469    1481.3794     1796.573   -2614.3708 
12159000    238.98122     -3913.59   -3503.9843     -3913.59            0    6816.7562    17.061356    20.096024    20.814814    7136.6799    7205.5727    7586.4051    5658.2907   -984.50631    54.768959   -170.82387   -2794.4885 
12160000    257.39259   -3914.1932   -3473.0311   -3914.1932            0    8910.8692    17.020335    20.047706    20.764769    7085.3267    9945.6913    8063.6521    8723.2643   -338.51227   -917.04296    49.005912   -2552.2512 
12161000    238.24701   -3937.5458   -3529.1985   -3937.5458            0    6313.3023    17.027487    20.056131    20.773495     7094.263    6432.8696    6486.1158    6020.9216   -903.92527    437.82718   -1595.6853   -2876.0082 
12162000    237.88154   -3924.3063   -3516.5854   -3924.3063            0    6302.0457    17.064038    20.099183    20.818087    7140.0463    7522.6909    5402.3326    5981.1135    1605.5647    623.58696    198.05463   -2860.3519 
12163000     246.8477   -3929.0772   -3505.9887   -3929.0772            0    7131.5681     17.10488    20.147289    20.867914    7191.4372    6552.7894    6730.3994    8111.5155    132.77132    111.38263    617.63494   -2758.0317 
12164000    245.41849   -3913.6639    -3493.025   -3913.6639            0    7513.3297    17.065164    20.100509     20.81946    7141.4593    7819.9538    6506.2099    8213.8255   -183.43125    50.459538   -419.57561   -2710.5052 
12165000     238.1671    -3885.019   -3476.8088    -3885.019            0    6447.2762    17.091794    20.131876    20.851949    7174.9445    9228.4255    3449.3024    6664.1007   -558.73738   -780.56495    678.80248   -2802.1709 
12166000    248.67893   -3907.0894   -3480.8623   -3907.0894            0    4608.7513    17.169452    20.223347    20.946692    7273.1899    5258.9697    4793.1589    3774.1254   -571.12952    884.68163   -74.778208   -2992.0027 
12167000    240.75069   -3930.8466   -3518.2082   -3930.8466            0    6234.5577    17.068659    20.104625    20.823724    7145.8478    6219.0973     6494.242    5990.3338   -841.08347    293.94852   -235.20926   -2868.4746 
12168000    259.23532   -3894.0724   -3449.7519   -3894.0724            0    8563.9509     17.04489    20.076629    20.794726    7116.0373    10596.972     7426.786    7668.0947   -1147.8463    -150.5917    1711.7749   -2560.9842 
12169000    251.73877   -3879.9968   -3448.5252   -3879.9968            0     6685.589     17.05869    20.092884    20.811562    7133.3352    6422.9053    7519.6186    6114.2432    1607.3891    167.55442   -2293.0909   -2753.0075 
12170000     246.7374   -3897.6862   -3474.7868   -3897.6862            0    7403.1838    17.117774    20.162477    20.883644    7207.7125    7081.4404     7306.071    7822.0399   -617.01144   -842.75906   -1128.2457   -2696.5856 
12171000    243.10182   -3900.0779   -3483.4097   -3900.0779            0    6744.8467    17.118669    20.163531    20.884736    7208.8431    7190.1915    4977.2825    8067.0661    15.878219    1010.0052   -450.40997   -2774.2998 
12172000    248.87889    -3925.051   -3498.4811    -3925.051            0    8033.8243    17.085277    20.124199    20.843998    7166.7402    8467.9987    9612.7382    6020.7358   -144.17839   -510.30908   -78.736879   -2658.7893 
12173000    244.42776   -3918.6731   -3499.7323   -3918.6731            0     6905.772     17.09343    20.133802    20.853944    7177.0043    7158.1192    5740.2145    7818.9825   -329.72193     362.8082   -362.05651   -2776.9103 
12174000    243.68752   -3912.3857   -3494.7137   -3912.3857            0    6870.6355    17.076486    20.113845    20.833273    7155.6834    8469.2645    5915.3918    6227.2501   -80.329878     341.7405     337.6111   -2777.7058 
12175000    254.04234   -3876.0427   -3440.6228   -3876.0427            0    7723.3882    17.085717    20.124718    20.844535    7167.2944    7951.4981     6182.268    9036.3985    1091.3255   -152.16471    995.48922   -2633.3153 
12176000    257.47836   -3909.1326   -3467.8235   -3909.1326            0    7264.9846    17.124412    20.170295    20.891743    7216.1009    8025.6124    7620.3976    6148.9436   -774.56922    406.95011   -208.63303   -2703.2607 
12177000    250.45807   -3857.4094   -3428.1328   -3857.4094            0    7347.4128    17.072853    20.109566    20.828841     7151.117    7844.6545    9080.0277    5117.5562   -264.88721     931.8291    1342.5238   -2661.8586 
12178000    251.03093    -3888.127   -3457.8686    -3888.127            0    6493.6158    17.104762     20.14715    20.867769    7191.2877    6644.6234    7108.1164    5728.1076    174.82747    15.564238   -989.26854    -2776.834 
12179000    245.61845   -3891.9501   -3470.9685   -3891.9501            0    6383.6219    17.085888    20.124919    20.844743    7167.5088    6132.9852    6874.1009    6143.7796    43.182595   -1352.3266     1833.089   -2803.6836 
12180000    249.57737   -3910.5016   -3482.7345   -3910.5016            0    7196.0306    17.074648     20.11168    20.831031    7153.3728    7777.6532      6752.91    7057.5287    411.07648   -158.96227   -854.55718   -2732.0115 
12181000    256.42752   -3919.0416   -3479.5336   -3919.0416            0    7401.2367    17.068002    20.103852    20.822923    7145.0232    8147.9869    7261.3457    6794.3776   -344.34546   -122.94917   -397.62572   -2708.3038 
12182000    260.97338   -3913.6262   -3466.3268   -3913.6262            0    7658.8189    17.052132    20.085159    20.803561    7125.1111    7802.3488    8581.6674    6592.4404   -979.63927     772.4148    761.46285   -2670.4803 
12183000    251.65135   -3938.6973   -3507.3755   -3938.6973            0    6418.1673    17.064836    20.100123     20.81906    7141.0477    6648.4485    5925.2705     6680.783   -1987.0903    599.95406    308.65203   -2838.9563 
12184000    251.51941    -3932.791   -3501.6953    -3932.791            0    5084.7304    17.096094     20.13694    20.857194    7180.3605    6887.7242     4686.448    3680.0191    204.12673   -1419.3706   -176.99599   -2969.2315 
12185000    254.21516   -3893.1831    -3457.467   -3893.1831            0    8822.1883    17.061972    20.096749    20.815566    7137.4532    7591.0809    9946.1356    8929.3485   -1393.7908    311.62663     -398.923   -2539.1439 
12186000    251.61345   -3889.3268     -3458.07   -3889.3268            0    6452.6236    17.130073    20.176964    20.898649    7223.2602    6363.0742    6757.5428    6237.2538    829.67666    63.899596     915.5499   -2778.3258 
12187000     234.7525   -3888.9183   -3486.5605   -3888.9183            0    7789.1733    17.059359    20.093671    20.812378    7134.1738    7922.9139    6847.6075    8596.9986    -668.9191   -1106.1219    894.38488   -2676.1391 
12188000    254.54332   -3871.8406    -3435.562   -3871.8406            0    7653.4219    17.041936     20.07315    20.791122    7112.3378    7830.6152    8072.8421    7056.8085    161.58112   -389.09085   -202.90145    -2641.702 
12189000    233.19773   -3890.6203   -3490.9273   -3890.6203            0    6457.8469    17.108432    20.151473    20.872247    7195.9178    6978.9981    5448.2116     6946.331    -1909.022     10.70019   -888.23018   -2813.2081 
12190000     265.6564   -3893.7635   -3438.4376   -3893.7635            0    7623.3671    17.073238    20.110019     20.82931    7151.6007    7251.8587    7807.7051    7810.5376    253.86538    1268.3215   -3.4258787   -2643.3298 
12191000    253.23802   -3899.0012   -3464.9599   -3899.0012            0    5233.8064    17.136833    20.184926    20.906897    7231.8152    4298.1881    6798.3765    4604.8545    336.88219   -990.01277    523.47931   -2912.9577 
12192000    254.77445   -3915.8409   -3479.1662   -3915.8409            0    5541.6778    17.200129     20.25948    20.984118    7312.2449    4260.1377    6715.4684    5649.4272    1504.7585    696.35495   -1756.3341   -2888.1929 
12193000    246.59011   -3898.1251   -3475.4781   -3898.1251            0    6395.0557    17.164838    20.217912    20.941062    7267.3269     4718.848     6480.855    7985.4641   -268.52371    368.64772    398.65044   -2797.6885 
12194000    253.30895   -3869.9483   -3435.7854   -3869.9483            0    5261.5343    17.150373    20.200874    20.923415    7248.9694    6387.4745    4077.7715    5319.3569    222.77306   -1081.5671    775.59574   -2879.5424 
12195000    251.97512   -3910.3734   -3478.4966   -3910.3734            0    7237.1187    17.122238    20.167735    20.889091    7213.3532    9050.4795    7748.9387    4911.9378    1106.9218    1687.6293    759.58579   -2717.1564 
12196000    257.02155   -3909.7193   -3469.1932   -3909.7193            0    7731.2725    17.065767    20.101219    20.820196    7142.2165    7471.0271     7995.231    7727.5593    -784.8688    733.44984     333.9279   -2663.8891 
12197000    242.54313   -3859.2957    -3443.585   -3859.2957            0    6402.9659    17.107681    20.150589    20.871331    7194.9709    5187.8633    6345.9192    7675.1151   -1200.7461   -834.79143    763.28963   -2771.7137 
12198000    244.36696    -3871.332   -3452.4954    -3871.332            0    6834.2178    17.171574    20.225846     20.94928    7275.8865     7282.802    6139.5095     7080.342   -1324.2208    1044.2643   -1316.3684   -2727.3074 
12199000    258.04305   -3866.4776   -3424.2006   -3866.4776            0    6898.6057    17.169615    20.223539     20.94689    7273.3965    6216.4229    7863.4965    6615.8977    278.65326    -282.4124     1116.886   -2692.4308 
12200000    246.10408   -3875.0665   -3453.2526   -3875.0665            0    6446.4965    17.066513    20.102098    20.821106    7143.1533      3901.39     8743.029    6695.0706    28.329485   -834.07441    888.06888   -2781.6852 
12201000    250.71783   -3895.1887    -3465.467   -3895.1887            0    7446.4853    17.050727    20.083505    20.801848    7123.3506     9396.418    8482.8891    4460.1489   -556.12164   -1548.6327   -428.89369   -2691.8757 
12202000    253.79595     -3920.74   -3485.7424     -3920.74            0    4953.1233    17.135339    20.183166    20.905073    7229.9233    4183.0829    5992.1136    4684.1734    732.82156   -712.38807   -122.84819   -2963.4801 
12203000    249.68936   -3921.8097   -3493.8507   -3921.8097            0    9297.7223    17.041325     20.07243    20.790376    7111.5726    9049.4798    9284.2214    9559.4657   -129.06517   -126.16064    12.326557   -2529.5375 
12204000    251.02724    -3946.819   -3516.5669    -3946.819            0    6578.5187     17.11894     20.16385    20.885067    7209.1852    7863.7291    6068.6234    5803.2034    1088.2548    393.05602    917.71998   -2824.9108 
12205000    255.89201   -3954.1952    -3515.605   -3954.1952            0    6476.6214    17.099066    20.140441     20.86082    7184.1061    7184.8613    5052.4495    7192.5535   -59.151873   -393.61374    871.13268   -2837.0312 
12206000    257.50426   -3932.1337   -3490.7802   -3932.1337            0    4978.6483    17.139558    20.188135     20.91022    7235.2646    5355.5941    5773.7553    3806.5955    247.68473   -200.20209   -434.62545   -2965.4386 
12207000    250.98272   -3924.8442   -3494.6684   -3924.8442            0    6401.8292    17.176338    20.231457    20.955092    7281.9439    6998.1881    6886.6095    5320.6899    553.08968   -287.10671   -459.30282   -2814.7962 
12208000     260.2571   -3909.3914   -3463.3197   -3909.3914            0    8511.7072     17.12002    20.165122    20.886384    7210.5494    7733.1314    8023.5393    9778.4509     409.9447   -751.96741   -647.09557   -2568.2416 
12209000    253.51775   -3929.9976   -3495.4769   -3929.9976            0    7048.7366     17.10698    20.149762    20.870475    7194.0855    7160.0038    7271.6824    6714.5237    358.55059   -674.54148    160.67814    -2755.935 
12210000    252.61399   -3888.8339   -3455.8622   -3888.8339            0    6889.1115    17.158139    20.210021    20.932889    7258.8214    8101.9894    6682.5004    5882.8448   -907.52017   -276.67578    1005.6991   -2726.5639 
12211000    258.70162   -3940.4155   -3497.0098   -3940.4155            0    7376.6684    17.143626    20.192927    20.915183    7240.4178     6785.954    7427.2533    7916.7979    1042.6228    1470.3733    623.83867   -2718.0773 
12212000     256.4935   -3903.8911     -3464.27   -3903.8911            0    6883.3987    17.140528    20.189278    20.911404    7236.4935    7754.0621    5735.4881    7160.6459   -1717.0072   -615.02601    143.38391   -2737.8179 
12213000    269.28472    -3896.781   -3435.2362    -3896.781            0    6162.8472    17.091049    20.130998    20.851039    7174.0057    6237.8419    4875.0435    7375.6561   -19.543972     384.6964    149.15367   -2790.4452 
12214000     254.8604   -3907.8048   -3470.9828   -3907.8048            0    8408.7758    17.042749    20.074107    20.792114    7113.3554    8053.5659    7232.4498    9940.3118   -11.609866   -141.87375    160.20768   -2598.6481 
12215000    231.98953   -3949.9459   -3552.3238   -3949.9459            0    6847.1358     17.13126    20.178362    20.900098    7224.7619    6182.5051    6308.8091    8050.0931    1458.7374    815.60066   -2457.8457   -2830.8702 
12216000    245.81082   -3943.3326   -3522.0213   -3943.3326            0    8388.1261    17.117646    20.162326    20.883489    7207.5514    9073.4413    8312.2367    7778.7004    1597.6758    1034.3992   -11.831584   -2640.3056 
12217000      247.515   -3951.8158   -3527.5835   -3951.8158            0    6340.7741    17.123165    20.168826    20.890221    7214.5244    6458.5574      6330.35    6233.4148   -1363.1151    484.20554    43.109493   -2860.4299 
12218000    254.24205   -3924.1656   -3488.4034   -3924.1656            0    7856.8935     17.12343    20.169138    20.890544    7214.8592    6295.9865    9102.6694    8172.0244   -1488.9703   -1919.5156    750.32067   -2661.6907 
12219000    251.25449   -3922.5536    -3491.912   -3922.5536            0    8126.9303    17.081981    20.120318    20.839977    7162.5938    9581.8623    7807.9332    6990.9953    -838.9004    490.52622    1394.5063   -2642.9803 
12220000    236.71068   -3921.6044   -3515.8904   -3921.6044            0    8079.1009    17.026827    20.055354     20.77269    7093.4383    10402.005    6158.2679    7677.0303   -350.02706    558.60132    566.70054   -2680.1032 
12221000      246.697   -3929.9005   -3507.0703   -3929.9005            0    6136.6028    17.102126    20.144045    20.864554    7187.9639     6289.684    5582.1523    6537.9721   -996.69145    1087.3139     113.4165   -2863.7759 
12222000     242.0257   -3935.7344   -3520.9106   -3935.7344            0    5956.4501    17.089249    20.128878    20.848844    7171.7401    4812.5548    6019.7282    7037.0674   -460.40397    692.95971    831.41802   -2897.9108 
12223000     247.9977   -3938.2214   -3513.1619   -3938.2214            0    5797.2231    17.065796    20.101253    20.820231    7142.2525    6330.2854    5890.3562    5171.0277    541.17713    78.038966    -670.5091    -2909.309 
12224000    240.11391   -3902.6615   -3491.1145   -3902.6615            0    5400.3732    17.059137    20.093411    20.812108    7133.8963    4226.8627    7337.1147    4637.1421    557.73833    510.15048    228.41993   -2929.2566 
12225000    240.62752   -3914.3166   -3501.8892   -3914.3166            0    8864.2276    16.939938    19.953009    20.666684    6985.3955    9481.7876    9578.1107    7532.7844   -1497.4649   -825.34401    349.67806   -2598.8476 
12226000    249.97002   -3923.6299   -3495.1898   -3923.6299            0    4950.6197    17.082518     20.12095    20.840633    7163.2694    5559.7418    4775.5503    4516.5671   -1486.2059    557.73768   -12.601623   -2978.0038 
12227000    271.06623   -3909.5335   -3444.9353   -3909.5335            0    5517.5526    17.090735    20.130628    20.850656    7173.6104    5262.3079      4323.29    6967.0599   -2314.5297   -23.495239    1140.5041   -2867.6903 
12228000    255.03782   -3889.6382   -3452.5121   -3889.6382            0    6809.6965    17.030318    20.059465    20.776948    7097.8013    9785.0676    5072.5305    5571.4915   -523.23779     605.0433    1029.1156   -2747.6121 
12229000    252.96366   -3900.8501   -3467.2791   -3900.8501            0    4261.7958      17.1456    20.195252    20.917592    7242.9197    3892.7102    4555.7526    4336.9245   -456.68641    444.72485     32.42781   -3017.1032 
12230000    269.35726   -3903.2646   -3441.5954   -3903.2646            0    6168.6953    17.060728    20.095284    20.814048    7135.8917    6866.8463    5997.1518    5642.0876   -1171.3359    578.60446    1088.4086   -2799.6214 
12231000    254.47493   -3911.4795   -3475.3182   -3911.4795            0    6202.1372    17.096872    20.137857    20.858144    7181.3419    5618.3698    5923.5163    7064.5256    1194.0827   -1069.0891   -189.76861   -2825.7528 
12232000     248.1764   -3915.1962   -3489.8303   -3915.1962            0    6600.9719    17.050797    20.083587    20.801933    7123.4383    6807.7925    5618.7401     7376.383   -801.76325   -1126.8311   -24.023873   -2804.0683 
12233000    246.26136    -3921.204   -3499.1205    -3921.204            0    5942.2143    17.058805    20.093019    20.811702    7133.4792     5350.133    6514.5532    5961.9568   -1317.3859   -733.29257    756.86414   -2880.9253 
12234000    251.71843   -3871.7502   -3440.3135   -3871.7502            0    8329.0211    17.014903    20.041308    20.758142     7078.545    11078.561    8120.0279    5788.4745    1664.9571     516.9065    734.03574    -2580.481 
12235000    251.89203   -3936.6527   -3504.9184   -3936.6527            0    7326.0039    17.050791    20.083579    20.801925    7123.4299    8522.7014    7581.3568    5873.9534    176.18948   -219.61513    191.69954   -2743.8351 
12236000     249.2421   -3900.9609   -3473.7685   -3900.9609            0    7791.7583    17.033014    20.062641    20.780237    7101.1732    7689.0033    8806.3208    6879.9507   -188.56072    1455.1059   -689.53142   -2666.8281 
12237000     241.4536   -3897.0001   -3483.1569   -3897.0001            0    7494.3766     16.99232    20.014708    20.730591    7050.3979    8123.9517     6286.213    8072.9651   -498.17609    1389.6068   -71.873294    -2712.564 
12238000    251.34232   -3896.6195   -3465.8274   -3896.6195            0    5344.9968    17.084911    20.123768    20.843551    7166.2796    4388.6645     5291.079     6355.247    856.37251    577.94778    394.71059   -2907.2066 
12239000    250.04324   -3916.8641   -3488.2985   -3916.8641            0    7394.1053    17.042046    20.073279    20.791256    7112.4757    8887.8505    5847.0348    7447.4304    46.248038   -29.157251    328.22016   -2721.3216 
12240000    249.79931   -3904.3684    -3476.221   -3904.3684            0    7323.9432    17.054322    20.087739    20.806234    7127.8573    7986.8077    6822.1945    7162.8274   -1.9125591   -904.18627    886.80999   -2714.8788 
12241000     247.3828   -3933.2772   -3509.2715   -3933.2772            0    7626.3483    17.098876    20.140218    20.860589    7183.8671     8702.801     7374.882    6801.3619   -370.22232    -1411.506   -547.15366   -2710.2641 
12242000    246.69183   -3888.4587   -3465.6374   -3888.4587            0    6550.3552     17.06417    20.099338    20.818247    7140.2114    8594.9027    6509.4297    4546.7333    -94.44542    757.23004    120.86318   -2783.5315 
12243000    252.52863   -3881.5376   -3448.7122   -3881.5376            0    7799.8679    17.005031    20.029681    20.746099    7066.2322    7553.1553    7221.5789    8624.8696   -263.64883   -870.62441   -421.00276   -2644.9066 
12244000    259.19389   -3927.8855    -3483.636   -3927.8855            0    7436.0813    17.047032    20.079151    20.797339    7118.7196    10024.047    5966.1554    6318.0415    150.00717    1025.8904    579.08852   -2711.6278 
12245000    264.64537   -3912.0935   -3458.5004   -3912.0935            0    6450.0505    17.067613    20.103394    20.822448    7144.5346    6099.1191     6960.335    6290.6974   -73.534711    775.99733    -326.3264   -2786.4328 
12246000     247.8525   -3901.7345   -3476.9238   -3901.7345            0    7084.5959    17.067195    20.102902    20.821938    7144.0102    7629.7246    6058.8177    7565.2453    8.6242722   -861.50941    915.84603   -2738.7935 
12247000    246.48752   -3920.6832    -3498.212   -3920.6832            0         6638    17.088978    20.128559    20.848514     7171.399    7627.0255    4372.9353    7914.0393    352.71664    1064.3368    156.41188   -2803.9602 
12248000      271.331   -3921.6887   -3456.6367   -3921.6887            0    5352.5149    17.060013    20.094442    20.813177    7134.9953    5277.5235    4572.6116    6207.4096   -34.505288    -625.1325   -750.69902   -2899.6723 
12249000    247.60146   -3923.3613   -3498.9809   -3923.3613            0    8546.6649    17.028271    20.057054    20.774451    7095.2423    7875.4902     10375.83    7388.6745   -600.21178    303.26586   -9.8932175   -2614.5991 
12250000    252.64562   -3873.8745   -3440.8485   -3873.8745            0    7577.0365    17.023381    20.051294    20.768485    7089.1312    7413.7301    8262.0085    7055.3707    929.90386    681.87287   -822.23456   -2657.4761 
Loop time of 385.341 on 64 procs for 250000 steps with 864 atoms

Performance: 112.108 ns/day, 0.214 hours/ns, 648.775 timesteps/s
99.1% CPU use with 64 MPI tasks x 1 OpenMP threads

MPI task timing breakdown:
Section |  min time  |  avg time  |  max time  |%varavg| %total
---------------------------------------------------------------
Pair    | 21.514     | 26.131     | 31.417     |  45.3 |  6.78
Bond    | 0.2744     | 0.28259    | 0.2949     |   0.7 |  0.07
Kspace  | 161.64     | 168.88     | 177.88     |  26.8 | 43.83
Neigh   | 4.4114     | 4.7805     | 5.6786     |  14.1 |  1.24
Comm    | 80.073     | 89.642     | 94.213     |  31.9 | 23.26
Output  | 1.5811     | 1.591      | 1.6322     |   0.8 |  0.41
Modify  | 88.149     | 89.93      | 92.123     |  11.2 | 23.34
Other   |            | 4.101      |            |       |  1.06

Nlocal:        13.5000 ave          21 max           8 min
Histogram: 5 3 7 15 15 5 9 3 1 1
Nghost:        2231.58 ave        2258 max        2196 min
Histogram: 3 1 4 8 7 14 7 5 6 9
Neighs:        4349.17 ave        6834 max        2209 min
Histogram: 2 4 8 9 14 12 6 6 2 1

Total # of neighbors = 278347
Ave neighs/atom = 322.16088
Ave special neighs/atom = 2.0000000
Neighbor list builds = 12968
Dangerous builds = 0

unfix		3
unfix		2
unfix		1

write_data	data.final.${pid}
write_data	data.final.0
System init for write_data ...
PPPM initialization ...
  extracting TIP4P info from pair style
  using 12-bit tables for long-range coulomb (../kspace.cpp:340)
  G vector (1/distance) = 0.37402666
  grid = 24 24 24
  stencil order = 5
  estimated absolute RMS force accuracy = 0.0031879126
  estimated relative force accuracy = 9.6003043e-06
  using double precision FFTW3
  3d grid and FFT values/proc = 2535 216
Last active /omp style is kspace_style pppm/tip4p/omp
WARNING: Not all mixed pair coeffs generated from mixing. Use write_data with 'pair ij' option to store all pair coeffs. (../write_data.cpp:312)

write_restart   restart.lmp.${pid}
write_restart   restart.lmp.0
System init for write_restart ...
PPPM initialization ...
  extracting TIP4P info from pair style
  using 12-bit tables for long-range coulomb (../kspace.cpp:340)
  G vector (1/distance) = 0.37402666
  grid = 24 24 24
  stencil order = 5
  estimated absolute RMS force accuracy = 0.0031879126
  estimated relative force accuracy = 9.6003043e-06
  using double precision FFTW3
  3d grid and FFT values/proc = 2535 216
Last active /omp style is kspace_style pppm/tip4p/omp
Total wall time: 0:06:26
