LAMMPS (30 Jul 2021)
  using 1 OpenMP thread(s) per MPI task
package omp 0
using multi-threaded neighbor list subroutines
echo both

include		in.partitions
variable        pid world 0
include		in.temp
variable        temperature equal 293.53
variable	tempDamp equal 100.0
include		in.pressure
variable        pressure equal 13625.0
variable        pressureDamp equal 1000.0 # This is 1 ps
include		in.seed
variable        seed world 745823

units		real
atom_style	full
read_restart	restart.lmp.${pid}
read_restart	restart.lmp.0
Reading restart file ...
  restart file = 30 Jul 2021, LAMMPS = 30 Jul 2021
  restoring atom style full from restart
  orthogonal box = (0.73936691 1.9624078 0.90202591) to (17.468205 21.666770 21.311170)
  4 by 4 by 4 MPI processor grid
  restoring pair style lj/cut/tip4p/long/omp from restart
  restoring bond style harmonic/omp from restart
  restoring angle style harmonic/omp from restart
  864 atoms
  576 bonds
  288 angles
Finding 1-2 1-3 1-4 neighbors ...
  special bond factors lj:    0        0        0       
  special bond factors coul:  0        0        0       
     2 = max # of 1-2 neighbors
     1 = max # of 1-3 neighbors
     1 = max # of 1-4 neighbors
     2 = max # of special neighbors
  special bonds CPU = 0.078 seconds
  read_restart CPU = 0.455 seconds
include 	in.setup
variable	out_freq equal 1000
variable	out_freq2 equal 10000
variable	out_freq3 equal 1000

timestep	2.0

neigh_modify    delay 7 every 1

include		in.tip4p
# This is TIP4P/Ice

# create groups ###
group ox type 2
288 atoms in group ox
group hy type 1
576 atoms in group hy

# set charges - beside manually ###
set group ox charge -1.1794
Setting atom values ...
  288 settings made for charge
set group hy charge 0.5897
Setting atom values ...
  576 settings made for charge

# ### TIP3P Potential Parameters ###
pair_style lj/cut/tip4p/long/omp 2 1 1 1 0.1577 8.5
pair_coeff 1 1*2 0.000 0.000
pair_coeff 2 2 0.21084 3.1668
bond_style  harmonic
bond_coeff  1 450 0.9572
angle_style harmonic
angle_coeff 1 55 104.52
kspace_style pppm/tip4p/omp 1.0e-5
pair_modify tail yes

thermo          ${out_freq}
thermo          1000
thermo_style    custom step temp pe etotal epair emol press lx ly lz vol pxx pyy pzz pxy pxz pyz enthalpy

restart 	${out_freq3} restart.lmp.${pid} restart2.lmp.${pid}
restart 	1000 restart.lmp.${pid} restart2.lmp.${pid}
restart 	1000 restart.lmp.0 restart2.lmp.${pid}
restart 	1000 restart.lmp.0 restart2.lmp.0


include         in.dump
dump            myDump all atom ${out_freq2} dump.water.${pid}
dump            myDump all atom 10000 dump.water.${pid}
dump            myDump all atom 10000 dump.water.0
dump            myDump2 all dcd ${out_freq2} dump.dcd
dump            myDump2 all dcd 10000 dump.dcd
dump_modify     myDump append yes
dump_modify     myDump2 append yes


variable natoms 	equal  "count(all)"                        # NUMBER ATOMS
variable H      	equal  "enthalpy/v_natoms"                 # ENTHALPY-per-atom
variable Vol      	equal  "vol/v_natoms"                 # volume-per-atom
fix AVG all 		ave/time ${out_freq} 1 ${out_freq} v_Vol v_H file vol_enthalpy.dat
fix AVG all 		ave/time 1000 1 ${out_freq} v_Vol v_H file vol_enthalpy.dat
fix AVG all 		ave/time 1000 1 1000 v_Vol v_H file vol_enthalpy.dat


timer           timeout 23:50:00 every 1000
New timer settings: style=normal  mode=nosync  timeout=23:50:00

fix 		1 all shake 1e-6 200 0 b 1 a 1
       0 = # of size 2 clusters
       0 = # of size 3 clusters
       0 = # of size 4 clusters
     288 = # of frozen angles
  find clusters CPU = 1.194 seconds
fix             2 all nph iso ${pressure} ${pressure} ${pressureDamp}
fix             2 all nph iso 13625 ${pressure} ${pressureDamp}
fix             2 all nph iso 13625 13625 ${pressureDamp}
fix             2 all nph iso 13625 13625 1000
fix             3 all temp/csvr ${temperature} ${temperature} ${tempDamp} ${seed}
fix             3 all temp/csvr 293.53 ${temperature} ${tempDamp} ${seed}
fix             3 all temp/csvr 293.53 293.53 ${tempDamp} ${seed}
fix             3 all temp/csvr 293.53 293.53 100 ${seed}
fix             3 all temp/csvr 293.53 293.53 100 745823

run             250000
PPPM initialization ...
  extracting TIP4P info from pair style
  using 12-bit tables for long-range coulomb (../kspace.cpp:340)
  G vector (1/distance) = 0.37546268
  grid = 24 24 24
  stencil order = 5
  estimated absolute RMS force accuracy = 0.0030266368
  estimated relative force accuracy = 9.1146268e-06
  using double precision FFTW3
  3d grid and FFT values/proc = 2535 216
Last active /omp style is kspace_style pppm/tip4p/omp
Neighbor list info ...
  update every 1 steps, delay 7 steps, check yes
  max neighbors/atom: 2000, page size: 100000
  master list distance cutoff = 10.8154
  ghost atom cutoff = 10.8154
  binsize = 5.4077, bins = 4 4 4
  1 neighbor lists, perpetual/occasional/extra = 1 0 0
  (1) pair lj/cut/tip4p/long/omp, perpetual
      attributes: half, newton on, omp
      pair build: half/bin/newton/omp
      stencil: half/bin/3d
      bin: standard
Per MPI rank memory allocation (min/avg/max) = 9.238 | 9.242 | 9.247 Mbytes
Step Temp PotEng TotEng E_pair E_mol Press Lx Ly Lz Volume Pxx Pyy Pzz Pxy Pxz Pyz Enthalpy 
14500000    298.18859   -3715.0249   -3203.9398   -3715.0249            0    11937.081    16.728839    19.704362    20.409144    6727.4885     14251.02    10791.245    10768.977   -1011.6464    430.58555   -366.57093   -2032.7509 
14501000    299.90326   -3755.3798   -3241.3559   -3755.3798            0    11399.921    16.767858    19.750322    20.456748    6774.6732    11339.649    11715.431    11144.682    488.23993     916.4896    -1422.715   -2115.0248 
14502000    288.36631   -3714.6799   -3220.4299   -3714.6799            0    13187.883    16.804069    19.792973    20.500924    6818.6583     12768.98     11970.05    14824.618    1635.4508   -257.07336    1077.4579   -1908.9855 
14503000    291.42318   -3734.0016   -3234.5123   -3734.0016            0    12041.578    16.800233    19.788455    20.496245    6813.9898    10795.786    11657.017    13671.932    412.69538    855.16669    1133.4768   -2037.8798 
14504000    281.06381   -3766.5166   -3284.7828   -3766.5166            0    13450.009    16.751458    19.731005     20.43674     6754.815    14555.301    11779.022    14015.703    336.18469   -867.45182    690.05682   -1959.7949 
14505000    300.09295   -3766.8663   -3252.5172   -3766.8663            0    13527.838    16.743156    19.721226    20.426611    6744.7765    14034.247    13820.477    12728.791   -907.69929    1632.7741    1471.7559   -1921.8426 
14506000    284.84946   -3722.7076   -3234.4854   -3722.7076            0    14115.873    16.800066    19.788258    20.496041    6813.7867    14202.812    15728.312    12416.495    1114.8389   -196.63344   -1155.1305   -1831.7615 
14507000    289.52931   -3704.9604    -3208.717   -3704.9604            0    17120.713    16.672928    19.638507    20.340933    6660.2603    19021.833    16918.359    15421.945    875.78876   -219.06003   -1197.7116   -1545.7298 
14508000    305.36484   -3767.4735   -3244.0886   -3767.4735            0    11000.257    16.849969    19.847037    20.556922    6874.6863    12831.397    10182.141    9987.2327   -1233.2641    148.24205   -129.24449   -2141.2001 
14509000    291.03778   -3673.6679   -3174.8391   -3673.6679            0    17639.799    16.674014    19.639786    20.342258    6661.5622    17859.378    17568.594    17491.426    -458.0427   -1909.9105    290.32706   -1461.0964 
14510000    285.28354   -3726.9853   -3238.0191   -3726.9853            0     12842.31    16.819058    19.810629    20.519212    6836.9219    13208.986     13223.71    12094.234   -81.150379    125.49497    428.24457   -1957.5188 
14511000    290.09651   -3748.5845    -3251.369   -3748.5845            0     13459.33    16.740839    19.718497    20.423785     6741.977    13071.716    13318.172    13988.101    957.17416    2494.7321    962.62713   -1927.9829 
14512000    310.73684   -3728.4543    -3195.862   -3728.4543            0    14085.172    16.703405    19.674405    20.378115    6696.8512    14752.778     13977.97    13524.768    990.46138    1122.6886   -1520.5306   -1820.2096 
14513000      300.881   -3726.1064   -3210.4067   -3726.1064            0    11446.686    16.825308     19.81799    20.526836    6844.5457     12994.18    8590.6318    12755.246    869.95508    1919.0015   -1455.5156   -2067.7907 
14514000    281.33291   -3758.4602   -3276.2652   -3758.4602            0    12563.438    16.802007    19.790545     20.49841    6816.1493    12915.329    12224.046    12550.938   -950.09463    2568.5385   -23.766701   -2027.3772 
14515000    299.04801   -3749.2447   -3236.6866   -3749.2447            0    14621.903    16.740903    19.718572    20.423862    6742.0535    15970.155    13927.111    13968.442   -789.58114    1308.6704     474.0577   -1798.9744 
14516000    305.81334    -3797.079   -3272.9254    -3797.079            0     13036.18     16.77541    19.759218    20.465962    6783.8315    12673.654    15032.734    11402.151    259.51209    1293.8585    -660.6837    -1983.188 
14517000    309.34815   -3782.8268   -3252.6147   -3782.8268            0    13115.014    16.716871    19.690266    20.394543    6713.0601    13915.308    13758.043    11671.692    2326.8089   -595.21022    339.42434   -1968.6142 
14518000    302.22668   -3802.4529   -3284.4467   -3802.4529            0    13347.395    16.715886    19.689106    20.393342    6711.8742    14063.823    11464.211    14514.152   -118.11369    481.00908    516.76935   -1977.9262 
14519000    302.95317   -3764.6529   -3245.4015   -3764.6529            0    15388.364    16.667784    19.632448    20.334657    6654.0977     15586.41    14861.976    15716.705   -1173.7073    688.54153    923.66688   -1752.0657 
14520000    280.83476   -3752.7921    -3271.451   -3752.7921            0    14509.236    16.696018    19.665704    20.369103    6687.9702     15330.51    14617.653    13579.546   -939.64381    1163.3666    881.19274   -1856.2609 
14521000    275.81179   -3749.5302   -3276.7982   -3749.5302            0    12285.057    16.764753    19.746664    20.452959    6770.9099    10964.153     13146.22      12744.8    133.75541    1354.6805    -2182.405   -2063.6884 
14522000    304.72626   -3733.2076   -3210.9172   -3733.2076            0    14492.039    16.748103    19.727053    20.432646    6750.7564    15380.472    14301.594    13794.051   -45.280158   -1717.5487    96.366039   -1784.1346 
14523000    286.74704   -3763.9092   -3272.4346   -3763.9092            0    13622.924    16.743787    19.721969     20.42738    6745.5385    14477.933    12249.377    14141.463    313.75217    521.45744   -1361.4175   -1932.2554 
14524000    316.67099   -3720.2139   -3177.4507   -3720.2139            0    13275.047     16.74672    19.725424     20.43096    6749.0849    12348.702    10331.991    17144.447    -1677.488   -1251.4212    2560.9889    -1870.808 
14525000    294.50426   -3742.7892    -3238.019   -3742.7892            0    12489.267    16.767374    19.749751    20.456157    6774.0862    13636.113    10954.712    12876.976   -891.16768   -972.34733    208.78636   -2004.1656 
14526000    307.37292   -3742.9825   -3216.1558   -3742.9825            0    12758.622    16.773451     19.75691    20.463571    6781.4548    13523.257    13562.611    11189.997    2290.3581    1720.7116    1104.7702    -1954.321 
14527000    310.69655    -3739.556   -3207.0328    -3739.556            0    11752.514    16.759318    19.740263    20.446329    6764.3273    11093.419    12456.688    11707.434    870.86043   -322.12782    529.11634   -2047.6382 
14528000    282.27986   -3742.0895   -3258.2715   -3742.0895            0    14004.685    16.721689    19.695941    20.400422    6718.8671    14355.502    15663.565    11994.988   -712.67922   -117.19363    177.52069   -1885.9834 
14529000    286.83731   -3779.5252   -3287.8959   -3779.5252            0    13586.279    16.737642    19.714731    20.419884    6738.1147    13450.471    13061.178    14247.188   -133.96789    1150.9771   -756.29751   -1952.7927 
14530000    298.65154   -3719.2615    -3207.383   -3719.2615            0    15096.385    16.701612    19.672293    20.375928    6694.6948    14876.924    15833.471     14578.76    688.99944   -218.30174    1027.1147   -1733.4436 
14531000    297.97206   -3714.2526   -3203.5387   -3714.2526            0    14292.772    16.763463    19.745145    20.451386    6769.3475    16784.594    12910.069    13183.655    897.43488   -2669.3997   -1207.8252   -1792.4991 
14532000    292.47522   -3725.6222   -3224.3297   -3725.6222            0    13461.207    16.759394    19.740352    20.446421    6764.4192    14837.188    13323.807    12222.627    2172.2554    77.339307     1151.663   -1896.3531 
14533000    301.14794   -3762.3928   -3246.2356   -3762.3928            0    13454.936    16.820413    19.812225    20.520865    6838.5744    11323.221    13024.981    16016.605    542.95474   -699.39687   -207.44754   -1904.3265 
14534000    277.90536   -3735.1497   -3258.8294   -3735.1497            0    14633.463    16.758194    19.738939    20.444958    6762.9666    16008.663    13842.818    14048.909    1031.1531    14.905651   -767.41165   -1815.5174 
14535000    286.42158   -3787.6586   -3296.7418   -3787.6586            0     13315.87    16.746861     19.72559    20.431132    6749.2552    15257.317    12132.357    12557.936    -13.17062    474.28856    887.60113   -1986.0479 
14536000    290.94797   -3760.6167   -3261.9418   -3760.6167            0    13470.674    16.739405    19.716808    20.422035     6740.244    12907.658    14427.072    13077.293    276.08466   -1214.4781   -1447.6061   -1937.7807 
14537000    300.04176   -3758.3514   -3244.0901   -3758.3514            0    13823.513    16.728521    19.703988    20.408757    6727.1056    14443.581    12248.926    14778.032   -143.28813    945.53011    1126.3328   -1887.8938 
14538000    283.70597    -3732.708   -3246.4457    -3732.708            0    15680.326    16.671994    19.637406    20.339793    6659.1409    14592.689    16684.046    15764.242    306.18104   -1996.7935   -57.385177   -1723.6236 
14539000    289.00284   -3742.9705   -3247.6295   -3742.9705            0     14047.42    16.743928    19.722135    20.427553    6745.7093    15853.067      15798.5    10490.692    723.44923   -1731.7218    2055.5136   -1865.6549 
14540000    294.07715   -3751.9753   -3247.9372   -3751.9753            0    12015.323    16.734047    19.710497    20.415498    6733.7742    11890.763    13150.724    11004.482   -1034.0299    2506.0667   -133.75858   -2067.9701 
14541000      283.018   -3750.9469   -3265.8637   -3750.9469            0    13210.621    16.812183     19.80253    20.510823    6828.5404    13693.209    11675.442    14263.211    993.23954   -707.44531   -413.93138   -1950.2542 
14542000     287.3048   -3761.3469   -3268.9163   -3761.3469            0    13336.013     16.77479    19.758487    20.465205    6783.0791    13162.737     12496.95    14348.353    733.05201   -557.93223   -1154.7454   -1949.6612 
14543000    288.14632    -3733.816   -3239.9431    -3733.816            0    14744.391    16.746362    19.725002    20.430522    6748.6516    15820.947    14884.421    13527.806    1887.5094    205.00487   -1163.9007   -1788.7683 
14544000    312.57105   -3751.5972   -3215.8612   -3751.5972            0    13899.327    16.697588    19.667553    20.371018    6689.8563    13465.845    13683.807    14548.328    -1084.201   -740.11819    216.99351   -1859.7776 
14545000    274.70155   -3740.3198   -3269.4907   -3740.3198            0    14123.774    16.763919    19.745682    20.451942    6769.8997    11105.202    15147.031    16119.088   -583.19594   -1084.4898    22.751118   -1875.0217 
14546000    302.30013   -3716.8424   -3198.7104   -3716.8424            0    13093.196     16.72455    19.699311    20.403912    6722.3157    13920.281    13305.152    12054.155    85.223284   -692.60313   -452.29625   -1915.0786 
14547000    292.13176   -3753.9692   -3253.2654   -3753.9692            0    15614.307    16.660344    19.623684     20.32558    6645.1908     16866.09    14275.713    15701.119   -1129.3488   -855.44439   -1024.9785   -1740.0315 
14548000    301.10897   -3761.4289   -3245.3385   -3761.4289            0    13442.648    16.715444    19.688585    20.392803    6711.3418    12364.053    10999.736    16964.154    569.30057   -312.28733    733.86084   -1929.5985 
14549000    303.41622   -3742.6761   -3222.6311   -3742.6761            0    13958.756     16.75408    19.734093    20.439938    6757.9864    13078.673    14716.099    14081.497   -579.75673    1555.7208    1244.5221   -1846.8798 
14550000    296.07302   -3747.7607   -3240.3016   -3747.7607            0    17238.224    16.713924    19.686795    20.390949    6709.5114     19447.57     16494.18    15772.923    318.80349   -357.53413    899.56439   -1553.5183 
14551000    300.64327   -3754.6332   -3239.3409   -3754.6332            0    11236.298     16.81939    19.811019    20.519616     6837.326    12782.505     10364.71    10561.681    194.10302    643.97172    32.805497    -2118.909 
14552000    284.69203   -3760.9638   -3273.0114   -3760.9638            0    12291.224    16.781397    19.766269    20.473265    6791.0964    12545.928    12341.064    11986.681    889.93104    867.53033    1292.6712   -2055.6741 
14553000    281.69532   -3725.1996   -3242.3835   -3725.1996            0    12721.869    16.761444    19.742767    20.448922    6766.9015     14339.32    13033.501    10792.786   -240.16832    702.51407    508.18907   -1986.8836 
14554000    303.76609   -3726.5131   -3205.8684   -3726.5131            0    12753.387    16.768839    19.751477    20.457944     6775.862    12852.544    13097.305    12310.313   -768.31631    428.60245    1334.2141   -1945.5915 
14555000     283.2766   -3731.3177   -3245.7912   -3731.3177            0    13620.564    16.757855     19.73854    20.444544    6762.5564    13125.196    15779.035     11957.46   -793.62345   -606.47671    537.89108   -1902.4638 
14556000    304.31361   -3731.1845   -3209.6014   -3731.1845            0    14252.221    16.773809    19.757331    20.464007    6781.8883    14356.255    14669.142    13731.264    2302.1797   -1297.5389     585.2949   -1799.9587 
14557000    295.95213   -3744.1981   -3236.9462   -3744.1981            0    13930.694    16.766223    19.748396    20.454753    6772.6913    14435.742     13952.51     13403.83   -2342.7398   -2089.6061    1205.3929   -1860.9732 
14558000    307.58383   -3773.7928   -3246.6046   -3773.7928            0    10203.112    16.838698    19.833761    20.543172    6860.8998    9950.2073     8413.145    12245.983   -1910.4799    1780.0277    1550.3803   -2225.6896 
14559000    294.58731   -3747.2398   -3242.3272   -3747.2398            0    12272.949    16.791574    19.778256    20.485681    6803.4591    13768.256    12198.275    10852.317    185.20601    410.54163    1361.7654   -2024.5871 
14560000    289.96652   -3787.8065   -3290.8138   -3787.8065            0    14405.044    16.721249    19.695422    20.399884    6718.3356    13873.987    13260.103    16081.041   -376.59807   -1362.4249   -536.32089   -1879.4072 
14561000    287.12911   -3728.4471   -3236.3176   -3728.4471            0    13299.083    16.771163    19.754215     20.46078    6778.6804    13821.187    14710.177    11365.886   -109.85106    143.85378   -80.930898   -1921.5689 
14562000    294.43879   -3728.5677   -3223.9097   -3728.5677            0    12733.174    16.796678    19.784268    20.491908    6809.6653    13656.493    10634.203    13908.825   -1333.9198    672.20059   -977.67493    -1959.353 
14563000    310.31487   -3747.9741   -3216.1051   -3747.9741            0    13891.775    16.861136    19.860191    20.570546    6888.3637    14087.434    14387.502     13200.39    1326.5614    38.977181   -491.78496   -1820.5412 
14564000    290.19497   -3732.0438   -3234.6595   -3732.0438            0    12723.143    16.784659    19.770111    20.477244    6795.0574    14352.659    10656.098    13160.672    323.06018    2732.8986   -102.49706   -1973.8095 
14565000    276.99553   -3737.7442   -3262.9833   -3737.7442            0     14745.26    16.722855    19.697314    20.401844     6720.272    15046.087    15477.632     13712.06    1263.3102   -302.01018    219.42904   -1817.8259 
14566000    302.68724   -3736.5494   -3217.7538   -3736.5494            0    14363.302    16.766636    19.748882    20.455256    6773.1916    12961.333    15777.743    14350.831    352.20069    1019.9994    546.59788   -1798.9461 
14567000    293.27423    -3790.797    -3288.135    -3790.797            0    14296.328    16.763377    19.745043     20.45128    6769.2428    12225.473    16757.183    13906.328    175.95544    1644.7048   -98.932016   -1876.7663 
14568000    300.95807   -3792.1458    -3276.314   -3792.1458            0     12589.94    16.708213    19.680068    20.383981    6702.6359    13132.041     11056.55    13581.229     1266.188   -92.263516    476.69824   -2045.6339 
14569000    274.65646   -3779.2423   -3308.4906   -3779.2423            0    14672.381    16.689716     19.65828    20.361414    6680.3989     16224.46    12714.338    15078.345   -1126.2406   -745.86169   -19.271563   -1879.0079 
14570000     282.4193   -3723.0448   -3238.9878   -3723.0448            0    10629.106    16.754901     19.73506     20.44094    6758.9803    11200.832    10989.502    9696.9822    691.66128   -953.13529   -819.60091   -2191.2472 
14571000    290.66992   -3741.0867   -3242.8884   -3741.0867            0    12056.135    16.742887     19.72091    20.426284    6744.4519    13803.754    10775.852    11588.799    -158.6202   -1617.3464   -495.94981   -2057.0359 
14572000     316.9694   -3715.3854   -3172.1107   -3715.3854            0    13919.885     16.76839    19.750948    20.457396    6775.3178    17004.008    10914.885    13840.761    1796.6161    1078.4793   -239.54528   -1796.6721 
14573000    283.06372   -3761.0548   -3275.8933   -3761.0548            0     15299.68     16.70835    19.680229    20.384148    6702.8002    16135.631    14115.958    15647.453   -108.32241    2478.6395   -945.22515   -1780.2965 
14574000    282.39092   -3757.9612   -3273.9529   -3757.9612            0    15219.595     16.69523    19.664776    20.368142    6687.0228    15640.024    14468.825    15549.937    290.19252   -700.17183   -406.98285   -1789.6867 
14575000    292.37346    -3770.872   -3269.7539    -3770.872            0    15332.226    16.675667    19.641733    20.344275    6663.5438    15173.926     16752.94    14069.812    -259.1537    105.45171   -69.049716   -1779.7535 
14576000    292.39646   -3760.5342   -3259.3766   -3760.5342            0    14129.894    16.661471    19.625012    20.326956    6646.5399    15986.483    12542.969     13860.23    2037.6263   -979.63299   -1168.2372   -1889.7241 
14577000    281.01875   -3796.0946   -3314.4381   -3796.0946            0      14747.5    16.729058    19.704621    20.409412    6727.7535    14457.043    12727.788     17057.67    1005.5952    -1822.093   -259.01134    -1867.452 
14578000    304.99189    -3742.992   -3220.2463    -3742.992            0    12604.017    16.738855     19.71616    20.421364    6739.5795    15044.284    11118.084    11649.683    1357.4308   -72.922592   -1634.9104   -1981.3993 
14579000    292.84251   -3786.5785   -3284.6564   -3786.5785            0    12403.495    16.767076      19.7494    20.455793    6773.7249    14300.004    11546.495    11363.985   -552.74579    1582.1331   -1561.8418   -2059.3421 
14580000     297.8175   -3701.9507   -3191.5017   -3701.9507            0    12907.307    16.747881    19.726792    20.432376    6750.4884    12508.187    14220.536    11993.198   -1597.2009   -982.94252   -1336.6965   -1920.7909 
14581000    293.11527   -3772.6826    -3270.293   -3772.6826            0    14070.054    16.765063     19.74703    20.453338    6771.2865    12718.709    14848.513    14642.939     716.7472     2900.476   -1078.8967   -1880.8433 
14582000    292.38025   -3762.7774   -3261.6476   -3762.7774            0     14114.35    16.710534    19.682801    20.386812    6705.4286    16520.896    11349.815     14472.34    953.87649     969.9818   -1000.7453   -1881.3799 
14583000     273.9966   -3752.3123   -3282.6916   -3752.3123            0    12798.051    16.814623    19.805405    20.513801    6831.5142    11674.609    14871.155    11848.389    -1832.383   -133.00484    7.6473138   -2007.6137 
14584000    304.99327   -3723.0752   -3200.3271   -3723.0752            0    13603.339    16.722064    19.696382    20.400879    6719.3181    15716.173    12833.074    12260.771    84.689141   -90.403557    395.02772   -1867.2766 
14585000    301.13512   -3762.9206   -3246.7854   -3762.9206            0    12806.252     16.78758    19.773551    20.480808    6798.6057    13097.644    13546.998    11774.114    314.82561    18.381499   -30.340824   -1977.0366 
14586000    290.53883   -3740.5486    -3242.575   -3740.5486            0    12547.075    16.731801    19.707851    20.412758    6731.0627    10809.861    11106.944    15724.418    710.02081    126.29242     396.8112   -2010.8833 
14587000    278.47589   -3759.6618   -3282.3636   -3759.6618            0    11121.167    16.799536    19.787635    20.495395    6813.1425    12271.852    9914.5224    11177.126   -1770.6274   -596.93209   -1320.8026   -2177.3345 
14588000    313.07007   -3738.0757   -3201.4843   -3738.0757            0    13520.571    16.703846    19.674924    20.378653    6697.3814    15647.617    13319.571    11594.526   -1754.5296   -1100.2302    881.99556   -1880.8701 
14589000     278.2809   -3766.2703   -3289.3063   -3766.2703            0    13095.633     16.69055    19.659263    20.362432    6681.4006    12841.148    12486.137    13959.613   -1712.1077     296.8569    1037.8455   -2013.2499 
14590000    287.42371   -3728.8972   -3236.2628   -3728.8972            0    15111.982    16.695356    19.664924    20.368295    6687.1743    12736.323    15344.713    17254.908   -1666.5033    101.28525   -1445.7986   -1762.4581 
14591000    284.81451   -3784.4736   -3296.3112   -3784.4736            0     12188.09    16.763669    19.745387    20.451636    6769.5965    10061.535     13653.32    12849.414    337.75832   -685.19945    -946.4746   -2093.0102 
14592000    305.43818   -3732.8055   -3209.2949   -3732.8055            0    15328.289      16.7043    19.675459    20.379207    6697.9271    14269.309    17159.898    14555.661   -69.288814    1946.8137   -480.04421   -1711.9908 
14593000    292.84466   -3789.5543   -3287.6286   -3789.5543            0    13433.018    16.782395    19.767445    20.474483    6792.3086    15219.671    12319.395     12759.99   -242.48112    80.937318    -832.7962   -1956.9692 
14594000    296.68707   -3775.6975    -3267.186   -3775.6975            0    13560.865    16.706437    19.677976    20.381814    6700.4978    15090.168    13437.523    12154.904   -783.15218   -1055.2323    586.52523   -1942.0198 
14595000    287.73834   -3789.6387   -3296.4651   -3789.6387            0     14121.77    16.731574    19.707584    20.412481    6730.7894    15315.625    14802.472    12247.212    1621.4813    2.1337818    -923.3764   -1910.2487 
14596000    301.82068   -3746.0931   -3228.7828   -3746.0931            0    14895.896     16.78036    19.765047       20.472    6789.8378    13408.605    12116.066    19163.017    121.65237   -312.59617   -1476.9633   -1753.7492 
14597000    299.32796   -3763.5092   -3250.4713   -3763.5092            0    14201.108    16.750677    19.730085    20.435787      6753.87    13325.539    15221.201    14056.583    488.90729    503.85442    135.78179   -1851.6868 
14598000    285.91121   -3777.4204   -3287.3783   -3777.4204            0    13177.827    16.687234    19.655357    20.358386    6677.4191     12190.85    14694.302    12648.328    450.69728   -489.36864    215.19071    -2004.078 
14599000    296.70375   -3782.7999   -3274.2599   -3782.7999            0    13314.576    16.742176    19.720072    20.425416    6743.5925    15890.756    12121.116    11931.855    168.29918    161.30682   -708.89655   -1964.7929 
14600000     292.4782   -3758.3974   -3257.0998   -3758.3974            0    14924.972    16.704397    19.675573    20.379325    6698.0437    13165.187    16774.176    14835.554    152.82888     296.9383   -213.96471   -1799.1673 
14601000    277.80906    -3765.767   -3289.6118    -3765.767            0    14790.357    16.677625    19.644039    20.346664     6665.891    13869.298      13517.1    16984.672    1018.8642    -649.0992     822.1409   -1851.7646 
14602000    300.18439   -3716.2274   -3201.7217   -3716.2274            0     14767.55    16.688928    19.657353    20.360454    6679.4536     13804.89    15275.883    15221.878    185.17768    -707.8809   -21.465674   -1763.1706 
14603000    302.70058   -3765.4591   -3246.6406   -3765.4591            0    12518.183    16.776198    19.760146    20.466923    6784.7876    13608.423    10866.643    13079.484    578.31973   -131.80257   -673.98155   -2007.9768 
14604000    287.38639   -3748.2382   -3255.6678   -3748.2382            0    13392.667    16.736818    19.713761    20.418879    6737.1204    14462.269    13469.572    12246.159    379.41062   -2158.1032   -1574.5542   -1939.7848 
14605000    309.54735   -3763.2783   -3232.7247   -3763.2783            0    13590.575     16.78757     19.77354    20.480796    6798.5942    15383.596    14116.379    11271.748    2046.5695    -234.3327    984.97349   -1885.2121 
14606000    293.73617   -3772.9039   -3269.4502   -3772.9039            0    12961.195    16.784335     19.76973     20.47685    6794.6645    14623.883    13161.637    11098.064    858.15242   -714.64045    234.64239   -1985.0838 
14607000    275.84174   -3752.0719   -3279.2886   -3752.0719            0    13182.305    16.782673    19.767772    20.474822    6792.6458    13372.882    13181.775    12992.259    549.76624    764.79738    88.084053   -1973.3997 
14608000    300.78995   -3745.6558   -3230.1121   -3745.6558            0    12014.813    16.766193    19.748361    20.454716    6772.6551    10612.531     13641.05    11790.858    108.44793    1807.0911    56.553012   -2043.3823 
14609000    296.98878   -3740.2661   -3231.2374   -3740.2661            0    15915.203    16.699683     19.67002    20.373574    6692.3746     13228.15    18293.339    16224.122   -149.30936    1290.6832   -1953.8927    -1677.891 
14610000    280.10903   -3711.2885   -3231.1913   -3711.2885            0    12122.046    16.803804    19.792661    20.500601    6818.3359    8900.2082    13680.026    13785.903     102.1812   -204.77641    41.028499    -2025.794 
14611000    290.70093    -3718.177   -3219.9256    -3718.177            0    12916.067    16.746289    19.724917    20.430434    6748.5637    12970.897    12464.283     13313.02    -418.0403   -752.99661    892.64922   -1948.7149 
14612000     293.6348   -3764.7661   -3261.4861   -3764.7661            0    14517.835    16.705284    19.676617    20.380407    6699.1106    14414.764    13541.985    15596.757   -301.12575     147.6602   -547.89674   -1843.0986 
14613000    279.73396    -3759.939   -3280.4845    -3759.939            0    13485.676     16.77433    19.757945    20.464643    6782.5205    15654.669    12073.977    12728.383    109.08329    366.14935    81.886467    -1946.534 
14614000    310.29978   -3763.5092    -3231.666   -3763.5092            0     14202.06    16.795551     19.78294    20.490533    6808.2947    14032.104     11977.78    16596.297    966.29217   -271.24329    527.94783   -1821.5152 
14615000    312.06025   -3784.3534   -3249.4929   -3784.3534            0    13928.794    16.747112    19.725886    20.431438    6749.5586    16308.543    12831.367    12646.472    715.75431   -491.03594   -1038.1489   -1878.4066 
14616000    281.12069   -3737.4616   -3255.6304   -3737.4616            0    15217.107    16.688143    19.656428    20.359496     6678.511    14131.878    15228.142    16291.301    2933.0791   -1667.5922    297.40211   -1773.4958 
14617000    278.92276   -3773.6698   -3295.6057   -3773.6698            0    13528.074     16.72611    19.701149    20.405816    6724.1975    13453.684    11470.589    15659.948    -1832.216   -275.32834     1386.178   -1968.9681 
14618000      290.524   -3793.0286   -3295.0804   -3793.0286            0    13725.171    16.746721    19.725425     20.43096    6749.0853    15180.407     13939.36    12055.747   -466.55328     196.9858    2314.3665   -1944.1326 
14619000    305.15773   -3770.1353   -3247.1054   -3770.1353            0    14710.324    16.784281    19.769666    20.476783    6794.5985    14322.257    15229.123    14579.593     901.4033   -193.36755    238.29061   -1789.4263 
14620000    273.91021   -3746.0828   -3276.6101   -3746.0828            0    10891.633    16.823274    19.815594    20.524354    6842.0636    11119.077    11096.161     10459.66   -205.03023   -705.23126   -128.60781   -2189.7942 
14621000    287.45789   -3752.1301   -3259.4371   -3752.1301            0    14657.984    16.673043    19.638643    20.341074    6660.3987    16640.476    14068.164    13265.312   -237.97841    959.57457    455.95738   -1835.6326 
14622000     309.2589   -3763.7783   -3233.7191   -3763.7783            0     13803.22    16.728713    19.704214     20.40899    6727.3365    14589.422     13910.63    12909.607    965.73506    988.34601    290.96886   -1879.4673 
14623000    277.58147   -3780.9443   -3305.1791   -3780.9443            0    12310.811    16.753747    19.733702    20.439533    6757.5845    11465.182    11335.859    14131.391    961.82069    1448.0299   -833.77908   -2091.9187 
14624000    305.77293   -3762.4461   -3238.3618   -3762.4461            0    12872.833    16.724965    19.699799    20.404418     6722.816    12519.803    12094.223    14004.474    115.99959   -1288.3824   -35.274805     -1976.24 
14625000    323.61101   -3763.7381   -3209.0799   -3763.7381            0    12994.179    16.729866    19.705573    20.410398    6728.7286     14246.82    11042.014    13693.704   -1238.0795   -1100.5533    1222.2824   -1933.9403 
14626000    287.87695   -3733.5916   -3240.1804   -3733.5916            0    15506.518    16.681134    19.648173    20.350945    6670.0998    15777.955    14795.919    15945.678   -209.00564   -807.72725   -73.237654   -1731.7597 
14627000    290.99891   -3719.5456   -3220.7834   -3719.5456            0    15425.215    16.718507    19.692192    20.396539    6715.0311    18329.048    13471.718    14474.878    549.66732   -1149.5129    416.70201   -1710.1637 
14628000    301.57987    -3763.989   -3247.0914    -3763.989            0    15494.185    16.725352    19.700256    20.404891    6723.2836    16112.801    15732.531    14637.223   -601.04404    668.81655    508.35327   -1727.8526 
14629000    295.12462   -3727.8691   -3222.0356   -3727.8691            0    13458.337    16.732898    19.709144    20.414097    6732.3876    13307.677    13652.646     13414.69    1241.5513    2147.8497    845.51104   -1900.6292 
14630000    289.66423   -3774.9746      -3278.5   -3774.9746            0    13972.579    16.712649    19.685293    20.389393    6707.9758    12689.309    13103.201    16125.227     384.1164    1906.5395    639.84587   -1911.5773 
14631000    299.86442   -3804.2484    -3290.291   -3804.2484            0    13390.283    16.667097    19.631639    20.333819    6653.2748     15304.56    11142.428    13723.863      410.957    1144.2928    833.07413   -1991.0159 
14632000     299.0212    -3738.697   -3226.1849    -3738.697            0    11023.048    16.807083    19.796523    20.504601    6822.3279    11764.921    9345.2009    11959.022    224.77076   -1494.9039   -766.59794   -2129.4285 
14633000    280.25639   -3726.2518    -3245.902   -3726.2518            0    13196.247    16.740321    19.717888    20.423153    6741.3515    12818.702    11667.056    15102.982   -858.24104    -262.2321    203.55611   -1948.5038 
14634000    271.79871   -3761.3552   -3295.5015   -3761.3552            0     13083.28    16.767459    19.749852    20.456261    6774.1894    13262.918    10612.008    15374.913     -1344.11   -574.86927    1898.7048    -2002.944 
14635000    290.21372    -3795.706   -3298.2896    -3795.706            0    13108.373    16.717213    19.690668     20.39496    6713.4721    13141.579    10751.327    15432.211    122.77967    126.10446    871.57962   -2014.8606 
14636000    299.29837   -3759.9219   -3246.9347   -3759.9219            0    12105.897    16.771298    19.754374    20.460945    6778.8442    11871.029    14774.719    9671.9431     491.6113    845.29188    41.346283   -2050.1156 
14637000    270.53439   -3712.5997    -3248.913   -3712.5997            0    14850.445    16.716631    19.689984    20.394251    6712.7718    14586.582    15415.339    14549.413    603.89421    2404.8701   -521.04636    -1795.071 
14638000    299.68867   -3768.5537   -3254.8975   -3768.5537            0    11621.417    16.732105    19.708209    20.413129    6731.4296    12962.112    10414.505    11487.633    528.02347    1322.3695    198.59669   -2114.0115 
14639000    280.03505   -3788.3804   -3308.4099   -3788.3804            0    11896.092    16.679834    19.646642    20.349359    6668.5406    15295.822    11225.042    9167.4136     440.3668   -853.00736   -711.47134   -2151.4694 
14640000     288.6402   -3751.6509   -3256.9315   -3751.6509            0    14102.915    16.712183    19.684744    20.388824    6707.4143     14558.17    14654.908    13095.667    949.78461   -47.870475    2354.8883   -1877.3736 
14641000    299.59855   -3804.0405   -3290.5389   -3804.0405            0    12901.906    16.726497    19.701604    20.406288    6724.6641    11812.547    12220.495    14672.677    624.80457    543.92977    210.46113   -2025.2189 
14642000     283.7653   -3773.2668   -3286.9028   -3773.2668            0    11551.747    16.801969    19.790501    20.498364    6816.1033    10679.767    10788.507    13186.966    491.32505    701.16939    1620.3282   -2138.5913 
14643000    286.86379   -3754.3205   -3262.6458   -3754.3205            0    14132.362    16.705222    19.676544    20.380331     6699.036    17589.112    11542.328    13265.647    972.15029    163.16741   -367.51575   -1881.9342 
14644000     292.2206   -3782.2973   -3281.4411   -3782.2973            0    14261.715    16.725832    19.700821    20.405476    6723.8616    12542.355    16338.907    13903.884    -1989.821   -1218.1399    35.226393   -1882.9284 
14645000    301.97945   -3747.0396   -3229.4572   -3747.0396            0    13437.878    16.756751    19.737239    20.443197    6761.2196    14272.523    12682.845    13358.265   -1817.7677    617.70243     1032.327   -1904.4092 
14646000    281.65081   -3740.4752   -3257.7353   -3740.4752            0    13064.114    16.730697    19.706551    20.411411     6729.731    12822.004    12314.552    14055.787    177.33152   -409.81416    -578.1516   -1975.5419 
14647000    280.87681   -3792.9957   -3311.5824   -3792.9957            0    11682.085    16.802146    19.790708    20.498579     6816.318    12200.806    10874.333    11971.117   -1053.7376    59.801602    1507.8144    -2150.278 
14648000     275.3148   -3769.3689   -3297.4888   -3769.3689            0    14560.748    16.704676    19.675902    20.379665    6698.3794    14906.416    15627.596    13148.231    2620.9122    1801.1826    1007.5336    -1875.064 
14649000    305.13878   -3748.2454    -3225.248   -3748.2454            0    12339.613    16.807058    19.796494    20.504571    6822.2977    12320.174    14417.726    10280.941   -384.94283    1348.2534    385.11757   -1997.5031 
14650000     274.6664   -3730.1294   -3259.3606   -3730.1294            0    12693.935    16.773947    19.757494    20.464176    6782.0566    12313.143    12967.281     12801.38   -1331.1404    1997.4523   -287.28102   -2003.8119 
14651000    300.63554   -3728.9837   -3213.7047   -3728.9837            0    12467.555     16.76159    19.742939    20.449101    6767.0788    13632.185    10141.925    13628.554    -1883.966   -1480.5384    2448.1857   -1983.2705 
14652000    288.84516   -3777.3705   -3282.2998   -3777.3705            0    13194.219    16.786767    19.772595    20.479817    6797.6187    13257.323    13289.704     13035.63    1512.3986   -568.25223    1822.0461   -1974.2737 
14653000    286.47077   -3714.5458   -3223.5447   -3714.5458            0    13921.647    16.764223    19.746041    20.452313    6770.2687    13401.181    15111.924    13251.836    1576.2661   -3093.1686   -1750.1256   -1848.9572 
14654000    278.92371   -3746.7073   -3268.6416   -3746.7073            0    12166.419    16.756509    19.736954    20.442901    6760.9261     13514.62     10825.79    12158.847   -503.84633    570.72136   -393.94997   -2069.0185 
14655000    282.83032   -3738.6231   -3253.8616   -3738.6231            0    13713.604    16.762974    19.744569    20.450789     6768.755    15879.338    11937.644    13323.831    258.71192    1423.9329   -666.41797   -1900.1183 
14656000    273.33358   -3783.5664    -3315.082   -3783.5664            0    12084.812    16.765329    19.747343    20.453663    6771.6087    11412.865    13275.954    11565.616    1668.3477   -1062.1363   -1266.5546   -2121.6227 
14657000    290.52982   -3773.2081     -3275.25   -3773.2081            0    13745.769    16.725944    19.700953    20.405613    6723.9968    14941.787    12736.077    13559.442   -1458.5937   -565.21458   -1697.1603   -1927.3042 
14658000    284.02364   -3745.9362   -3259.1294   -3745.9362            0    13438.121    16.722106    19.696432     20.40093     6719.369    12897.895    12886.551    14529.918   -5.3409281   -736.18473   -525.23832   -1942.2594 
14659000    297.44079   -3754.6207   -3244.8173   -3754.6207            0    15592.512    16.762593    19.744121    20.450325    6768.2941    14749.277    17131.458      14896.8   -1629.7161    1922.1721     737.2964   -1705.7019 
14660000    320.83554   -3788.5136   -3238.6125   -3788.5136            0    13924.779    16.713398    19.686176    20.390307    6708.8779    11517.858    15285.321    14971.159   -493.01502    1174.8248   -736.74217   -1876.1828 
14661000    285.79569   -3780.4141   -3290.5701   -3780.4141            0    13448.056    16.766063    19.748208    20.454558    6772.4982    12094.275    15308.542    12941.352   -309.14472    701.06828   -1439.8561   -1962.3064 
14662000    293.17278    -3761.772   -3259.2839    -3761.772            0    11434.086    16.757444    19.738056    20.444043    6762.0584    10614.977    11118.821    12568.459    -712.9901   -408.55808   -812.80546   -2131.6809 
14663000    295.88686   -3742.8152   -3235.6752   -3742.8152            0    13502.776    16.706606    19.678175     20.38202    6700.7017    14515.764    13802.056    12190.506   -2017.0825    275.14016   -304.73732   -1916.1454 
14664000    279.10905   -3736.3021   -3257.9188   -3736.3021            0     13146.09    16.739184    19.716548    20.421766    6739.9776    14881.398      12786.1    11770.772    1187.7971    1816.0245   -191.53283   -1965.7152 
14665000    295.20098   -3763.2955   -3257.3311   -3763.2955            0    13542.099    16.728298    19.703725    20.408484    6726.8357    13128.695    14413.869    13083.733    850.15256     1611.363   -1567.2116   -1928.7971 
14666000    309.02464   -3769.1646    -3239.507   -3769.1646            0    10634.739    16.784602    19.770044    20.477175    6794.9885    13044.604    9472.7758    9386.8361    1958.0863    55.406151   -255.48964   -2185.6263 
14667000    275.57372   -3763.3608   -3291.0369   -3763.3608            0    12555.596    16.742873    19.720893    20.426266    6744.4346    13617.458    12855.953    11193.377   -111.23915    542.38864   -480.46444   -2056.0602 
14668000    316.08829   -3728.1629   -3186.3984   -3728.1629            0    14840.117     16.72501    19.699853    20.404474    6722.8709    15524.148    14194.291    14801.912    434.41704   -961.27423   -791.04428   -1731.3816 
14669000    291.13773   -3702.9353   -3203.9351   -3702.9353            0    13725.499    16.768002    19.750492    20.456923    6774.8479     14756.35    13658.355    12761.792     1110.134    -1666.363    190.67978   -1847.7981 
14670000    286.43287    -3714.495   -3223.5589    -3714.495            0    13523.537    16.694744    19.664203    20.367548    6686.4387    12881.377    12285.416    15403.818    54.369316     1085.603    -1436.353   -1904.8132 
14671000    296.53453    -3780.077    -3271.827    -3780.077            0    12969.928    16.697047    19.666916    20.370359    6689.2066     12101.46    14322.209    12486.114   -617.58668   -87.310092   -2884.4506   -2006.5429 
14672000    285.31914   -3771.8806   -3282.8534   -3771.8806            0    14460.213    16.702329    19.673137    20.376802    6695.5564    14038.001     12586.58    16756.058   -652.25893    2197.5666   -1047.2761   -1870.8451 
14673000    276.83769   -3747.9621   -3273.4718   -3747.9621            0    14618.024    16.783384    19.768609    20.475689    6793.5091    13513.057     14716.81    15624.205   -2131.0674     456.1907   -567.95448   -1825.1711 
14674000    293.33509   -3746.9289   -3244.1626   -3746.9289            0    14361.842    16.646226    19.607056    20.308357    6628.3125    14870.233      13631.9    14583.393    13.979051   -1086.3483    98.134646   -1855.8445 
14675000     302.8081    -3738.296   -3219.2933    -3738.296            0    15038.469     16.66577    19.630076      20.3322    6651.6859    15402.383    16195.671    13517.351    955.30309    1251.4366    1547.3608   -1760.4413 
14676000    292.75052   -3772.2433   -3270.4789   -3772.2433            0    15707.177     16.71828    19.691925    20.396262    6714.7579    17783.779    16127.729    13210.024    374.96538    2365.9264    2011.1106   -1732.3087 
14677000    299.11656   -3710.1166    -3197.441   -3710.1166            0    12890.831     16.74404    19.722267     20.42769    6745.8448    14036.208    12035.135    12601.148   -437.27309    572.88129   -1242.0372   -1929.2253 
14678000     306.1303   -3758.1044   -3233.4076   -3758.1044            0    12997.581    16.766863     19.74915    20.455534    6773.4672    15718.121    10254.491    13020.133    629.36764    2689.9798   -922.07287   -1949.4536 
14679000    289.44695   -3764.2018   -3268.0997   -3764.2018            0    13957.621    16.740113    19.717642    20.422899    6741.1001    12849.532    12567.122    16456.209   -1910.5805    8.1044127    931.05938   -1895.8976 
14680000    281.67062    -3762.997   -3280.2232    -3762.997            0    11851.899    16.779497    19.764031    20.470947    6788.7905    10793.142    11661.508    13101.047    981.05336   -253.63512    1099.3009   -2106.7957 
14681000    295.38255   -3752.5077   -3246.2321   -3752.5077            0    14926.295    16.764782    19.746699    20.452995    6770.9457    13132.259    16600.638    15045.988    1.1256045     197.6554    163.49701   -1772.3008 
14682000     302.5756   -3736.5905   -3217.9863   -3736.5905            0    13904.716    16.758743    19.739586    20.445628    6763.6315    13246.003    12805.555     15662.59     871.1192    51.406538      511.949   -1846.4164 
14683000     302.2221   -3796.1313    -3278.133   -3796.1313            0    13100.101    16.759504    19.740482    20.446556    6764.5529     13692.48    12115.479    13492.344    324.24386    866.37797    406.55145   -1985.7548 
14684000    286.32477   -3767.3206   -3276.5697   -3767.3206            0    12760.358    16.744391    19.722681    20.428118    6746.2694    10273.167    14944.532    13063.374   -1007.3103   -493.15517   -284.85732   -2021.1111 
14685000    308.37053   -3775.2746   -3246.7381   -3775.2746            0    12706.314    16.810544      19.8006    20.508824    6826.5434    15486.987    11446.048    11185.907   -564.46836    796.13592    1047.7705   -1981.7212 
14686000    298.99283   -3719.7225    -3207.259   -3719.7225            0    14852.572    16.741518    19.719297    20.424613    6742.7971    15432.353    14727.586    14397.775   -1128.7876   -2594.5244    1776.6344    -1746.705 
14687000    280.87618   -3714.4783   -3233.0661   -3714.4783            0    15450.123    16.665175    19.629375    20.331475    6650.9739    13810.978    16851.356    15688.036    2259.2478    111.68452   -1760.7325   -1734.4408 
14688000     318.9867     -3758.25   -3211.5178     -3758.25            0    13455.408    16.719687    19.693583    20.397979    6716.4537    14558.409    13077.242    12730.574    1184.5899    1403.3589   -1306.7361   -1893.5257 
14689000    283.96648    -3761.266   -3274.5571    -3761.266            0    14261.777    16.739416    19.716821    20.422049     6740.258    12431.931    17087.985    13265.414   -128.44062    1109.6793   -1484.6479   -1872.6281 
14690000    305.88589   -3762.3888   -3238.1108   -3762.3888            0    13146.744    16.751118    19.730604    20.436325     6754.403    13740.894    13457.705    12241.633   -231.16156    668.45665    1004.5507   -1943.0771 
14691000    297.16445   -3734.6847    -3225.355   -3734.6847            0     16534.42    16.694895    19.664381    20.367733    6686.6207    15713.293    18713.972    15175.996   -1068.6095    925.82187   -7.8342601   -1612.9596 
14692000    304.14825   -3762.4236   -3241.1239   -3762.4236            0    12274.942    16.766135    19.748293    20.454646    6772.5853    13115.585    13539.567    10169.675    769.40572    887.12497    1971.2138    -2028.713 
14693000    289.30446   -3730.8603   -3235.0023   -3730.8603            0    13508.575     16.74572    19.724246    20.429739    6747.8751    12447.081    15944.262    12134.384    204.59965   -972.57406    -662.8288   -1905.6121 
14694000    303.76394   -3765.4587   -3244.8178   -3765.4587            0     11919.66    16.706389     19.67792    20.381756    6700.4411    12982.118    11503.361    11273.502    441.59237     1161.821    -1909.131   -2080.0397 
14695000    293.69332   -3754.6384   -3251.2581   -3754.6384            0    13724.798    16.711148    19.683525    20.387562    6706.1683     14524.35    14313.538    12336.505   -713.89989    319.54663    1442.5022   -1908.9374 
14696000    296.49948      -3767.1   -3258.9101      -3767.1            0    11504.137    16.719167     19.69297    20.397344    6715.8267    11432.996    11974.687    11104.728    216.58449    -703.7302    1305.8519   -2132.1553 
14697000    277.00257   -3732.1414   -3257.3685   -3732.1414            0    14634.349     16.71484    19.687874    20.392066    6710.6143    14208.419    16876.555    12818.072   -532.53978    -874.2928    345.18559   -1825.1424 
14698000    297.42218   -3768.9488   -3259.1774   -3768.9488            0    12350.795    16.797434    19.785159     20.49283    6810.5853    12768.285    10799.657    13484.442   -879.27222    1705.2449   -343.26891   -2032.4297 
14699000    310.81874   -3768.3262   -3235.5935   -3768.3262            0    13580.649    16.728368    19.703808     20.40857    6726.9209    13434.111    13672.342    13635.493   -572.07078    2232.4547    994.13632   -1903.2607 
14700000    273.25578   -3745.5409   -3277.1898   -3745.5409            0    12030.985    16.782067    19.767058    20.474082    6791.9098    13282.369     10342.17    12468.417    -1591.841   -404.80068   -1339.6883   -2085.4842 
14701000    285.66186   -3752.3669   -3262.7523   -3752.3669            0    13117.022    16.742545    19.720506    20.425865    6744.0377    14339.762    11826.287    13185.017    443.72238    1371.2529   -122.11733   -1972.6293 
14702000    295.02765   -3725.0981   -3219.4308   -3725.0981            0    14703.831    16.725892    19.700892     20.40555    6723.9347    13728.731    14380.243    16002.518    2215.3875    1091.4589   -554.43069   -1777.5482 
14703000    287.22889   -3776.8436   -3284.5432   -3776.8436            0    13373.108    16.731142    19.707075    20.411954    6730.2674    12607.781     13300.67    14210.874    442.99722    -780.3736   -1119.6335   -1971.9185 
14704000    292.95017   -3777.0697   -3274.9631   -3777.0697            0    14257.418    16.697443    19.667383    20.370842    6689.6827      14459.3    13269.445    15043.511    446.12504    902.88336   -279.32104   -1883.9786 
14705000    279.08898   -3746.0114   -3267.6624   -3746.0114            0    13579.488    16.694651    19.664094    20.367436    6686.3276    15214.649    12429.706    13094.107   -786.05168   -1300.9987   -1167.4793   -1943.4827 
14706000    278.60273   -3754.9923   -3277.4768   -3754.9923            0    12854.199    16.782632    19.767724    20.474772    6792.5965    11081.459    14244.132    13237.005   -28.779996   -1098.9324   -335.03471   -2004.1006 
14707000    294.78503   -3745.8671   -3240.6157   -3745.8671            0    12896.821    16.752842    19.732635    20.438428    6756.4888    12902.405    14041.984    11746.073   -1162.6862    1070.5865    337.91036   -1969.8086 
14708000    307.22951   -3767.1659    -3240.585   -3767.1659            0    12299.371    16.788795    19.774983    20.482291    6800.0827    12119.559    11174.125    13604.428     875.3331    1561.9715   -1117.0369    -2020.829 
14709000    285.88978    -3764.717   -3274.7117    -3764.717            0    12276.659     16.81096     19.80109    20.509332    6827.0506    14002.973    10366.813    12460.191    736.13839   -636.23399   -629.45877   -2052.3796 
14710000    311.18452   -3750.4406    -3217.081   -3750.4406            0    15770.589    16.737054    19.714039    20.419167    6737.4052    16703.685    15314.661    15293.422    861.98748    3082.0812    354.10626   -1667.4922 
14711000    286.37057   -3719.3662   -3228.5368   -3719.3662            0    14476.769     16.67056    19.635718    20.338045    6657.4235    13935.683    16223.834     13270.79    1121.0188    659.60184     235.1965   -1822.9628 
14712000    289.74437   -3748.9413   -3252.3294   -3748.9413            0    14011.282    16.760474    19.741625    20.447739    6765.7274    16311.903    13212.901    12509.044   -405.65413   -454.54814    954.55458   -1869.8194 
14713000     304.5354   -3724.7213    -3202.758   -3724.7213            0    15137.634    16.644724    19.605287    20.306525    6626.5186    13706.156    16108.561    15598.187     47.89508   -285.07583    946.36092   -1739.8423 
14714000    288.56877   -3744.1896   -3249.5926   -3744.1896            0    14813.201      16.7322    19.708321    20.413245    6731.5446    15380.004    16315.993    12743.607   -1072.4239    712.37575   -1977.8812   -1795.3411 
14715000    272.95805   -3770.6624   -3302.8217   -3770.6624            0    12269.306    16.741675    19.719481    20.424804    6742.9862    11569.816    15091.541    10146.562   -706.40712    483.27686    1159.4858   -2096.2638 
14716000    287.54858   -3753.3071   -3260.4587   -3753.3071            0    13958.928    16.743554    19.721695    20.427097    6745.2573    13350.683    17742.076    10784.026   -482.86537   -1757.1244    -414.7691   -1887.2818 
14717000    292.38419   -3741.1068   -3239.9704   -3741.1068            0    14742.041    16.674266    19.640083    20.342565    6661.8638    13611.329    17190.455    13424.338   -1388.7358    321.48958   -286.47429    -1807.686 
14718000    289.61937    -3727.019   -3230.6213    -3727.019            0    15925.076    16.690162    19.658807    20.361959    6680.9354    17352.344     12296.97    18125.913   -559.34412    40.291344   -1272.8143   -1678.9681 
14719000    305.57884    -3760.267   -3236.5154    -3760.267            0    13317.812    16.707415    19.679128    20.383007    6701.6753    11163.065    15113.869    13676.502   -644.22149    513.44924    666.00158   -1934.8716 
14720000    283.08705   -3753.7516   -3268.5501   -3753.7516            0    14546.022    16.684782    19.652469    20.355395    6674.4762    14519.018    14215.069    14903.979    2411.3034   -1496.4794   -314.54253   -1852.6347 
14721000    300.88237   -3762.4968   -3246.7947   -3762.4968            0    11806.296    16.741456    19.719224    20.424537    6742.7223    11915.705    12205.749    11297.434    376.11849   -1770.4529   -1368.7439   -2085.8145 
14722000    280.62777   -3749.1117   -3268.1253   -3749.1117            0    12740.192    16.834041    19.828277    20.537491    6855.2097     14081.95    12449.105    11689.522    1036.1997    1032.8096    648.17875   -1994.4093 
14723000    281.08507    -3722.461   -3240.6909    -3722.461            0    14163.523    16.730599    19.706436    20.411292    6729.6131    14712.485    12563.309    15214.776   -1576.2594    676.02892   -354.91447   -1850.6189 
14724000    296.25642   -3766.4969   -3258.7235   -3766.4969            0    13023.138    16.784053    19.769398    20.476506     6794.322    13342.712    12515.198    13211.504   -643.32545    1137.8207    353.88549    -1968.284 
14725000    289.96489   -3714.8548   -3217.8649   -3714.8548            0    14621.686    16.698872    19.669066    20.372585    6691.4004    13582.835    14757.126    15525.097    1738.9524   -655.67994   -369.35278   -1790.9753 
14726000    301.22546   -3750.9585   -3234.6684   -3750.9585            0    12577.625    16.767948    19.750428    20.456857    6774.7823     12577.24    14794.206    10361.428     1789.539    1407.3329   -428.32187   -1991.9582 
14727000    318.92875    -3743.562   -3196.9291    -3743.562            0    12638.901    16.775145    19.758905    20.465638    6783.5098    12151.253    11530.913    14234.537    1617.9178    1498.2495    441.02815   -1946.5559 
14728000    309.86421   -3752.6812   -3221.5846   -3752.6812            0    15026.873      16.7038    19.674869    20.378596    6697.3253    16045.311    14349.571    14685.736    2232.2164    91.142218   -1892.4411   -1753.8555 
14729000    283.45178   -3707.3848   -3221.5581   -3707.3848            0    14297.238    16.738772    19.716062    20.421262    6739.4794    15028.877    14072.468    13790.369    249.44948    193.86085    -447.6788   -1816.3056 
14730000    322.51495   -3740.4323   -3187.6527   -3740.4323            0    12534.996    16.776265    19.760224    20.467004    6784.8678    12288.706     15269.95    10046.331   -827.39555    508.23014    202.57797   -1947.3107 
14731000    310.72813   -3732.0618   -3199.4844   -3732.0618            0     12498.39    16.780069    19.764704    20.471645    6789.4843    14012.057    13084.467    10398.645      2608.25   -972.68698   -653.70012    -1961.923 
14732000    294.74387   -3724.2917   -3219.1108   -3724.2917            0    12813.015    16.733679    19.710064     20.41505    6733.3303    11949.628    13613.054    12876.364    354.32903    1201.9184   -1321.5046   -1960.8891 
14733000    284.47596   -3747.4351   -3259.8531   -3747.4351            0     13257.71    16.705312    19.676651    20.380442     6699.145     15818.33     11394.29    12560.509   -1086.8281    780.34596    720.44226   -1964.5727 
14734000    314.90573   -3749.0956    -3209.358   -3749.0956            0    12857.136    16.721075    19.695218    20.399673     6718.127    16379.294    11561.943     10630.17    1474.9347   -2343.3962   -1717.0146   -1949.6545 
14735000     283.6398   -3761.4652   -3275.3162   -3761.4652            0    13317.853    16.708157    19.680002    20.383912    6702.5678    12750.783    14428.736    12774.039   -288.68265   -1375.2162    330.12233   -1973.4951 
14736000    291.71392   -3739.8245   -3239.8369   -3739.8245            0    15345.159    16.735003    19.711623    20.416664     6734.928    14938.132    13948.224    17149.121   -1391.8429    -446.9384    1484.8973   -1732.6044 
14737000     295.1706   -3766.1392   -3260.2269   -3766.1392            0    14538.994    16.701461    19.672115    20.375744    6694.5132    15511.612    14581.488    13523.883   -500.09861   -106.34528     1333.474   -1840.7469 
14738000    287.98383   -3762.5497   -3268.9553   -3762.5497            0    14201.399     16.71074    19.683044    20.387064    6705.6771    13052.351    15318.461    14233.386   -1506.2883   -236.37827    610.24719   -1880.1235 
14739000     294.0976   -3762.6873   -3258.6141   -3762.6873            0    13746.832    16.759902    19.740951    20.447041    6765.0345    12477.544    11504.086    17258.867      559.798     2802.851    636.03436   -1902.3366 
14740000    296.43182   -3751.8735   -3243.7995   -3751.8735            0    14231.961    16.720456    19.694488    20.398917    6717.3802    13300.406    15328.593    14066.885    204.14705    29.859752    410.68413   -1849.5497 
14741000    276.86902   -3755.9938   -3281.4498   -3755.9938            0    14429.731    16.801469    19.789911    20.497752    6815.4938    12768.198    16604.682    13916.312   -1343.6408   -825.92622   -1459.3563   -1847.1781 
14742000    297.70983   -3746.7177   -3236.4532   -3746.7177            0    13360.213    16.718311    19.691962      20.3963    6714.7954    14174.143     13799.06    12107.435   -262.01796   -323.27416   -1084.3019   -1928.1089 
14743000    288.88397   -3715.2829   -3220.1457   -3715.2829            0    13768.006    16.820246    19.812028    20.520661    6838.3708    13612.828    13626.449    14064.743    -1293.281    653.68251   -100.35028   -1847.0538 
14744000    306.00151    -3737.739   -3213.2629    -3737.739            0    15662.675    16.692256    19.661273    20.364513    6683.4498    14514.633    17260.136    15213.258   -988.67652    -1151.205   -1306.7983   -1686.6022 
14745000    311.67578   -3720.5472   -3186.3456   -3720.5472            0     14579.55    16.689354    19.657854    20.360973    6679.9645    15395.616    14462.125    13880.909    656.16814    1100.7726   -1616.6763   -1765.9995 
14746000    291.94528   -3759.5809   -3259.1967   -3759.5809            0    11612.595    16.770253    19.753142    20.459669    6777.5761    13690.456    9464.0657    11683.262    876.75295   -861.81892    92.854851   -2111.3615 
14747000    275.60951   -3718.4589   -3246.0737   -3718.4589            0    12385.644    16.734491     19.71102    20.416039    6734.3097    11760.289    10906.807    14489.838   -73.710599   -347.68972    261.11554   -2029.6424 
14748000    311.42639    -3766.659   -3232.8848    -3766.659            0    14457.863    16.720627     19.69469    20.399126    6717.5864    13188.394    15074.969    15110.227    555.74497    1423.3695   -1103.3861   -1816.4608 
14749000     284.0141   -3708.6095   -3221.8191   -3708.6095            0     14947.61    16.680926    19.647927     20.35069    6669.8494    14837.494    16879.815    13125.521   -1849.3914    964.59582   -2064.8543   -1767.8215 
14750000    308.20846   -3732.7898   -3204.5311   -3732.7898            0    11132.973    16.804339    19.793292    20.501255    6818.9877    11526.647    11588.385    10283.887      116.005    799.00991      -1152.8   -2097.3798 
Loop time of 448.785 on 64 procs for 250000 steps with 864 atoms

Performance: 96.260 ns/day, 0.249 hours/ns, 557.060 timesteps/s
99.1% CPU use with 64 MPI tasks x 1 OpenMP threads

MPI task timing breakdown:
Section |  min time  |  avg time  |  max time  |%varavg| %total
---------------------------------------------------------------
Pair    | 23.127     | 28.158     | 33.07      |  48.9 |  6.27
Bond    | 0.2729     | 0.28405    | 0.30183    |   1.0 |  0.06
Kspace  | 185.86     | 195.13     | 205.59     |  29.5 | 43.48
Neigh   | 6.1881     | 7.1287     | 8.1682     |  20.2 |  1.59
Comm    | 99.504     | 107.35     | 114.52     |  36.6 | 23.92
Output  | 1.1739     | 1.1749     | 1.1877     |   0.2 |  0.26
Modify  | 103.78     | 105.23     | 106.28     |   5.2 | 23.45
Other   |            | 4.321      |            |       |  0.96

Nlocal:        13.5000 ave          20 max           9 min
Histogram: 4 5 9 14 13 11 6 1 0 1
Nghost:        2323.80 ave        2358 max        2277 min
Histogram: 1 1 9 4 7 8 14 11 3 6
Neighs:        4520.50 ave        7812 max        2906 min
Histogram: 7 9 11 18 7 10 1 0 0 1

Total # of neighbors = 289312
Ave neighs/atom = 334.85185
Ave special neighs/atom = 2.0000000
Neighbor list builds = 16922
Dangerous builds = 3

unfix		3
unfix		2
unfix		1

write_data	data.final.${pid}
write_data	data.final.0
System init for write_data ...
PPPM initialization ...
  extracting TIP4P info from pair style
  using 12-bit tables for long-range coulomb (../kspace.cpp:340)
  G vector (1/distance) = 0.37509318
  grid = 24 24 24
  stencil order = 5
  estimated absolute RMS force accuracy = 0.0030674089
  estimated relative force accuracy = 9.2374107e-06
  using double precision FFTW3
  3d grid and FFT values/proc = 2535 216
Last active /omp style is kspace_style pppm/tip4p/omp
WARNING: Not all mixed pair coeffs generated from mixing. Use write_data with 'pair ij' option to store all pair coeffs. (../write_data.cpp:312)

write_restart   restart.lmp.${pid}
write_restart   restart.lmp.0
System init for write_restart ...
PPPM initialization ...
  extracting TIP4P info from pair style
  using 12-bit tables for long-range coulomb (../kspace.cpp:340)
  G vector (1/distance) = 0.37509318
  grid = 24 24 24
  stencil order = 5
  estimated absolute RMS force accuracy = 0.0030674089
  estimated relative force accuracy = 9.2374107e-06
  using double precision FFTW3
  3d grid and FFT values/proc = 2535 216
Last active /omp style is kspace_style pppm/tip4p/omp
Total wall time: 0:07:31
