LAMMPS (30 Jul 2021)
  using 1 OpenMP thread(s) per MPI task
package omp 0
using multi-threaded neighbor list subroutines
echo both

include		in.partitions
variable        pid world 0
include		in.temp
variable        temperature equal 247.59
variable	tempDamp equal 100.0
include		in.pressure
variable        pressure equal 4875.0
variable        pressureDamp equal 1000.0 # This is 1 ps
include		in.seed
variable        seed world 745823

units		real
atom_style	full
read_restart	restart.lmp.${pid}
read_restart	restart.lmp.0
Reading restart file ...
  restart file = 30 Jul 2021, LAMMPS = 30 Jul 2021
  restoring atom style full from restart
  orthogonal box = (0.48585496 1.6638042 0.59274192) to (17.721717 21.965374 21.620454)
  4 by 4 by 4 MPI processor grid
  restoring pair style lj/cut/tip4p/long/omp from restart
  restoring bond style harmonic/omp from restart
  restoring angle style harmonic/omp from restart
  864 atoms
  576 bonds
  288 angles
Finding 1-2 1-3 1-4 neighbors ...
  special bond factors lj:    0        0        0       
  special bond factors coul:  0        0        0       
     2 = max # of 1-2 neighbors
     1 = max # of 1-3 neighbors
     1 = max # of 1-4 neighbors
     2 = max # of special neighbors
  special bonds CPU = 1.595 seconds
  read_restart CPU = 1.864 seconds
include 	in.setup
variable	out_freq equal 1000
variable	out_freq2 equal 10000
variable	out_freq3 equal 1000

timestep	2.0

neigh_modify    delay 7 every 1

include		in.tip4p
# This is TIP4P/Ice

# create groups ###
group ox type 2
288 atoms in group ox
group hy type 1
576 atoms in group hy

# set charges - beside manually ###
set group ox charge -1.1794
Setting atom values ...
  288 settings made for charge
set group hy charge 0.5897
Setting atom values ...
  576 settings made for charge

# ### TIP3P Potential Parameters ###
pair_style lj/cut/tip4p/long/omp 2 1 1 1 0.1577 8.5
pair_coeff 1 1*2 0.000 0.000
pair_coeff 2 2 0.21084 3.1668
bond_style  harmonic
bond_coeff  1 450 0.9572
angle_style harmonic
angle_coeff 1 55 104.52
kspace_style pppm/tip4p/omp 1.0e-5
pair_modify tail yes

thermo          ${out_freq}
thermo          1000
thermo_style    custom step temp pe etotal epair emol press lx ly lz vol pxx pyy pzz pxy pxz pyz enthalpy

restart 	${out_freq3} restart.lmp.${pid} restart2.lmp.${pid}
restart 	1000 restart.lmp.${pid} restart2.lmp.${pid}
restart 	1000 restart.lmp.0 restart2.lmp.${pid}
restart 	1000 restart.lmp.0 restart2.lmp.0


include         in.dump
dump            myDump all atom ${out_freq2} dump.water.${pid}
dump            myDump all atom 10000 dump.water.${pid}
dump            myDump all atom 10000 dump.water.0
dump            myDump2 all dcd ${out_freq2} dump.dcd
dump            myDump2 all dcd 10000 dump.dcd
dump_modify     myDump append yes
dump_modify     myDump2 append yes


variable natoms 	equal  "count(all)"                        # NUMBER ATOMS
variable H      	equal  "enthalpy/v_natoms"                 # ENTHALPY-per-atom
variable Vol      	equal  "vol/v_natoms"                 # volume-per-atom
fix AVG all 		ave/time ${out_freq} 1 ${out_freq} v_Vol v_H file vol_enthalpy.dat
fix AVG all 		ave/time 1000 1 ${out_freq} v_Vol v_H file vol_enthalpy.dat
fix AVG all 		ave/time 1000 1 1000 v_Vol v_H file vol_enthalpy.dat


timer           timeout 23:50:00 every 1000
New timer settings: style=normal  mode=nosync  timeout=23:50:00

fix 		1 all shake 1e-6 200 0 b 1 a 1
       0 = # of size 2 clusters
       0 = # of size 3 clusters
       0 = # of size 4 clusters
     288 = # of frozen angles
  find clusters CPU = 0.256 seconds
fix             2 all nph iso ${pressure} ${pressure} ${pressureDamp}
fix             2 all nph iso 4875 ${pressure} ${pressureDamp}
fix             2 all nph iso 4875 4875 ${pressureDamp}
fix             2 all nph iso 4875 4875 1000
fix             3 all temp/csvr ${temperature} ${temperature} ${tempDamp} ${seed}
fix             3 all temp/csvr 247.59 ${temperature} ${tempDamp} ${seed}
fix             3 all temp/csvr 247.59 247.59 ${tempDamp} ${seed}
fix             3 all temp/csvr 247.59 247.59 100 ${seed}
fix             3 all temp/csvr 247.59 247.59 100 745823

run             250000
PPPM initialization ...
  extracting TIP4P info from pair style
  using 12-bit tables for long-range coulomb (../kspace.cpp:340)
  G vector (1/distance) = 0.37456493
  grid = 24 24 25
  stencil order = 5
  estimated absolute RMS force accuracy = 0.0030384128
  estimated relative force accuracy = 9.1500898e-06
  using double precision FFTW3
  3d grid and FFT values/proc = 2730 288
Last active /omp style is kspace_style pppm/tip4p/omp
Neighbor list info ...
  update every 1 steps, delay 7 steps, check yes
  max neighbors/atom: 2000, page size: 100000
  master list distance cutoff = 10.8154
  ghost atom cutoff = 10.8154
  binsize = 5.4077, bins = 4 4 4
  1 neighbor lists, perpetual/occasional/extra = 1 0 0
  (1) pair lj/cut/tip4p/long/omp, perpetual
      attributes: half, newton on, omp
      pair build: half/bin/newton/omp
      stencil: half/bin/3d
      bin: standard
Per MPI rank memory allocation (min/avg/max) = 9.239 | 9.244 | 9.252 Mbytes
Step Temp PotEng TotEng E_pair E_mol Press Lx Ly Lz Volume Pxx Pyy Pzz Pxy Pxz Pyz Enthalpy 
 3750000    251.85607   -3865.7229   -3434.0502   -3865.7229            0    4275.1677    17.235862    20.301569    21.027712     7357.913    3437.5965    4659.8896    4728.0172    179.62009    -468.0734    474.67582   -2975.2922 
 3751000    253.32881   -3910.0778   -3475.8809   -3910.0778            0    4119.5837    17.220514     20.28349    21.008986    7338.2734    2493.5793    4725.6859    5139.4858    634.31581     789.7932   -632.24874   -3034.9981 
 3752000    255.52752   -3933.2376   -3495.2722   -3933.2376            0    4400.2154     17.20173    20.261365     20.98607    7314.2861    4515.8771    5932.9767    2751.7923   -1078.6412    277.90656    1247.6903   -3025.8953 
 3753000    253.84683   -3914.0043   -3478.9195   -3914.0043            0    6192.8169     17.17402    20.228727    20.952265    7278.9963    5652.5781    6479.5936    6446.2792   -584.91936    962.30076    1529.3165   -2821.5106 
 3754000    227.55712   -3911.9158   -3521.8907   -3911.9158            0    3787.7517    17.311738    20.390941     21.12028    7455.5144    2317.9909    4031.2016    5014.0625    392.25021   -1715.4486    133.40892   -3110.0446 
 3755000    243.14402   -3866.3534   -3449.6128   -3866.3534            0    4011.4274    17.288131    20.363134    21.091479    7425.0553    3287.2842    5440.6808    3306.3173    1591.1623    836.26548   -1379.5759   -3015.2281 
 3756000    250.76197   -3886.4926   -3456.6952   -3886.4926            0    4115.1735    17.239588    20.305957    21.032257    7362.6848    5609.0304    3883.1819    2853.3083   -995.23632   -1316.4054    907.94928   -3014.8194 
 3757000    253.38345   -3907.0855   -3472.7949   -3907.0855            0    3883.7512    17.281294    20.355082    21.083138    7416.2502    6196.4773    939.50276    4515.2734    470.76334   -1329.9071   -595.97124   -3052.7346 
 3758000    248.18383   -3902.3292   -3476.9506   -3902.3292            0    4936.4512    17.253138    20.321917    21.048788    7380.0592    5804.5391    3317.1017    5687.7128   -85.946212   -1182.1432    -598.2669   -2945.6374 
 3759000    260.98956   -3897.2182    -3449.891   -3897.2182            0    6466.7848    17.176347    20.231468    20.955104    7281.9556    6199.9574     6675.579    6524.8178    1256.2369   -254.17677    611.16858   -2763.1194 
 3760000    248.45846   -3885.8455   -3459.9962   -3885.8455            0    5088.6247    17.187416    20.244506    20.968607    7296.0424    5935.7237    4088.1527    5241.9977   -1247.3427   -324.60976   -334.06867   -2918.5396 
 3761000    247.66117   -3907.5574   -3483.0746   -3907.5574            0    4896.8538    17.247958    20.315816    21.042469    7373.4147    6230.8729    3480.4974     4979.191   -500.08759   -2042.7075   -434.29022   -2956.4978 
 3762000    258.45072    -3890.965   -3447.9893    -3890.965            0    5029.5738    17.220864    20.283904    21.009414     7338.722    5378.5001    5187.5641    4522.6571   -477.30057   -920.85476    474.69995   -2909.6854 
 3763000    240.89596   -3866.1046   -3453.2172   -3866.1046            0    4456.0779    17.243158    20.310162    21.036612    7367.2603    2695.5774     4574.098    6098.5584    396.69966    854.09735   -1986.3167   -2974.4386 
 3764000    248.22779   -3931.4918   -3506.0379   -3931.4918            0    4844.3361    17.225025    20.288804     21.01449    7344.0425    4423.7512     3067.247    7042.0103   -38.923171    1141.5304    870.33968   -2987.1837 
 3765000    262.06992   -3937.3516   -3488.1727   -3937.3516            0    4496.3106    17.254595    20.323633    21.050565    7381.9291    3683.2015    3174.6769    6631.0532    -58.30469   -806.05226   -768.76147   -3004.1095 
 3766000    243.88656   -3901.3885   -3483.3753   -3901.3885            0    6212.2976    17.237768    20.303814    21.030036    7360.3534    5291.5093    5671.9566     7673.427    211.53867   -291.08976    2588.9434   -2816.5274 
 3767000    256.68781    -3921.663   -3481.7089    -3921.663            0    5970.1917    17.203988    20.264025    20.988825    7317.1667    6116.0323    5098.6487     6695.894    -371.1759    799.14984    59.208786   -2844.6096 
 3768000    244.59702    -3911.199    -3491.968    -3911.199            0    4204.5857    17.255583    20.324797    21.051771    7383.1977    5846.3169     3588.925    3178.5153   -728.63694   -2605.8278     1452.038   -3039.2335 
 3769000     237.0496   -3872.3741   -3466.0792   -3872.3741            0    6933.3906    17.113519    20.157465    20.878454    7202.3394    6755.7956     7980.663    6063.7133   -608.52485   -190.34375    287.11177   -2737.8047 
 3770000    252.21193   -3928.7005   -3496.4179   -3928.7005            0    4105.6869    17.196395    20.255082    20.979562    7307.4834     4327.927    5173.7341    2815.3997   -966.64877   -1220.5606    349.40078    -3058.866 
 3771000    247.85531   -3946.8467   -3522.0312   -3946.8467            0    3158.6355    17.274218    20.346747    21.074505    7407.1435    2125.4711    5242.0454      2108.39   -699.80042    334.25406   -1210.3639   -3180.8177 
 3772000     257.0333   -3917.3286   -3476.7823   -3917.3286            0    1872.9909    17.342846    20.427582    21.158232     7495.778    344.43364    3037.6118    2236.9271    -138.1751    520.05889   -1042.1275   -3272.0303 
 3773000     246.9037   -3945.8689   -3522.6844   -3945.8689            0    6864.1445    17.204504    20.264633    20.989454    7317.8251     6629.274    7016.1633    6946.9962   -1298.0463    -429.6643   -434.11231   -2790.1225 
 3774000    266.90083   -3901.7109    -3444.252   -3901.7109            0    6631.9503    17.189868    20.247394    20.971599    7299.1653    5670.8787    7173.8489    7051.1233   -1116.7798   -1053.2882    1818.9605   -2738.2754 
 3775000    249.79051   -3923.0359   -3494.9035   -3923.0359            0    5379.4903    17.263352    20.333948    21.061249    7393.1745    4692.7076    7182.7205    4263.0427   -1028.7472   -124.34338   -939.35657   -2914.8768 
 3776000    250.33247   -3881.1395   -3452.0782   -3881.1395            0    5818.1488    17.235577    20.301233    21.027363    7357.5468    6087.1391     7974.978    3392.3295    762.47021    1032.0847    -163.8791   -2827.7776 
 3777000    250.46942   -3907.7334   -3478.4374   -3907.7334            0     6512.357    17.220383    20.283337    21.008827    7338.1068    6717.3399    5689.1457    7130.5854   -222.43096   -1072.7485      767.152   -2781.4931 
 3778000    247.45242   -3967.4961   -3543.3711   -3967.4961            0    4003.3202    17.304029    20.381861    21.110875    7445.5589    2702.7981    4271.9209    5035.2417   -1025.9611    104.95958    1485.9514   -3108.6672 
 3779000    238.61014   -3969.8103   -3560.8407   -3969.8103            0    5228.2438    17.281563    20.355398    21.083466    7416.5963    4169.7138    7198.8333    4316.1844   -1216.7622   -527.93943     138.5366   -2995.3358 
 3780000    253.85174   -3937.9082    -3502.815   -3937.9082            0    4602.3169    17.207865    20.268592    20.993555    7322.1152    6708.6335     3250.113    3848.2043    1515.2072   -962.47261    858.93111   -3011.3541 
 3781000    258.15085    -3939.642   -3497.1802    -3939.642            0     3190.903    17.252865    20.321597    21.048456      7379.71    2291.6582    4979.9483    2301.1025     537.4246    -831.4526    1942.7655   -3153.7577 
 3782000    239.07051   -3929.4635   -3519.7048   -3929.4635            0    4770.6976    17.155518    20.206934    20.929692    7255.4959    4091.1362    4008.6464    6212.3102   -57.473958     843.8293    753.08771   -3014.8984 
 3783000    256.18424   -3957.1127   -3518.0217   -3957.1127            0     5411.838    17.116714    20.161228    20.882351    7206.3735    5662.2756    5925.3896    4647.8489    243.77176   -86.493276    1228.3853   -2949.2507 
 3784000     242.6579   -3986.6733    -3570.766   -3986.6733            0    4175.2706    17.199666    20.258934    20.983552    7311.6534    5764.6396    4136.7228    2624.4495    269.07921   -794.29262   -895.71382   -3125.5445 
 3785000    246.89819   -4006.4286   -3583.2536   -4006.4286            0    4649.5218    17.195257    20.253741    20.978173    7306.0323    5451.3811    4186.5827    4310.6016   -876.37083   -876.85843    839.66426   -3087.8424 
 3786000    236.40118   -3956.4354   -3551.2519   -3956.4354            0    5157.2344    17.124493    20.170391    20.891842    7216.2037      5764.89    5927.7134    3779.0997    15.302337   -928.19881   -79.690961   -3008.4998 
 3787000    251.98476   -3954.1707   -3522.2775   -3954.1707            0     4621.525     17.18873    20.246053     20.97021    7297.7156    5462.3136    4314.3532    4087.9083   -804.51461   -1025.7107    676.21918     -3030.41 
 3788000    249.28701   -3957.7339   -3530.4645   -3957.7339            0    5630.5933    17.149498    20.199843    20.922347      7247.86    5502.4374    5907.8586     5481.484    169.10738   -1176.9404    591.64676   -2935.2961 
 3789000     236.4023   -3929.0153   -3523.8299   -3929.0153            0     3642.234    17.225735    20.289641    21.015357    7344.9507    4493.8763    3476.8883    2955.9374   -262.97686   -687.29087   -1597.9411    -3133.679 
 3790000    252.26483   -3952.6488   -3520.2755   -3952.6488            0    3712.9534    17.205244    20.265505    20.990357    7318.7699    3352.8977    4916.4788    2869.4836    849.07469   -486.35075   -479.98757   -3123.9669 
 3791000     244.2331   -3921.8959   -3503.2887   -3921.8959            0    2871.9127    17.229242    20.293771    21.019635    7349.4371    2839.4061    994.12343    4782.2087    421.45504   -1150.8727    152.63017   -3195.4656 
 3792000    240.05131   -3918.5918    -3507.152   -3918.5918            0    4363.8545    17.150154    20.200616    20.923147    7248.6917    3550.6873    5500.0965    4040.7797    -626.6873    237.88059   -511.98227   -3045.8283 
 3793000     246.0376   -3908.7194   -3487.0194   -3908.7194            0    6138.9462    17.229043    20.293537    21.019392    7349.1829    6013.3321    6882.1252    5521.3812    259.41611   -1943.4009   -1404.3021   -2829.0453 
 3794000    252.13496      -3918.6   -3486.4493      -3918.6            0     5831.304    17.157919    20.209762    20.932621    7258.5429     7533.563    6320.5313    3639.8176     17.04755    81.164516   -158.99512   -2869.1568 
 3795000    241.19712   -3970.6062   -3557.2026   -3970.6062            0    3274.0563    17.240219      20.3067    21.033027    7363.4934    2292.3531    3103.4251    4426.3908    1577.7295    643.55975    1018.6451   -3205.6049 
 3796000    252.45353   -3901.0254   -3468.3287   -3901.0254            0    5849.3481    17.235607    20.301268      21.0274    7357.5859     6116.855    5586.8976    5844.2918    894.74794    1261.4358   -562.45777    -2840.677 
 3797000    237.25142   -3923.8489   -3517.2081   -3923.8489            0     3949.251    17.323183    20.404422    21.134243    7470.3113    4535.0946     2040.627    5272.0313   -1015.1208   -452.31884    -1365.643   -3086.9497 
 3798000     248.9657   -3915.2583   -3488.5396   -3915.2583            0    2810.7397    17.377635    20.468559    21.200674    7540.9767    3012.9433    2524.2892    2894.9864    143.31226     391.5803    852.31113   -3179.4218 
 3799000    254.02189   -3926.2546   -3490.8697   -3926.2546            0    4726.6257     17.36317    20.451521    21.183027    7522.1615    6322.3163    2520.6947     5336.866   -681.32396    1082.1733    312.51364   -2972.3447 
 3800000     246.9414   -3938.6226   -3515.3735   -3938.6226            0    4690.0387    17.307283    20.385693    21.114845    7449.7599    4673.5083    5592.3748    3804.2331   -706.95888    383.61276    299.12971   -3005.8144 
 3801000    250.91579   -3897.1215   -3467.0604   -3897.1215            0    3658.8606    17.347963    20.433608    21.164474    7502.4138    2096.0927    3932.0374    4948.4517   -856.81164    405.10964   -1281.2466   -3066.7261 
 3802000    249.37792   -3935.2674   -3507.8422   -3935.2674            0    4284.1595    17.307756    20.386251    21.115422     7450.371    4195.0176    5505.4765    3151.9845    1704.2715   -223.75041   -962.11602   -3042.3425 
 3803000    239.79796   -3924.0245    -3513.019   -3924.0245            0    5482.2963    17.235253    20.300851    21.026968     7357.132     4833.391    6565.6652    5047.8328   -106.19588   -415.62359   -171.06661   -2924.7893 
 3804000    243.01052   -3895.9385   -3479.4268   -3895.9385            0     4752.335    17.291393    20.366977     21.09546    7429.2601    4594.7276     5164.915    4497.3623    149.66936   -199.19983    2.9811369   -2964.5201 
 3805000     254.2409   -3927.1226   -3491.3624   -3927.1226            0    6645.4671    17.230687    20.295474    21.021398    7351.2873    8166.5705    6183.2352    5586.5956   -1621.1652    -1299.859   -361.68603   -2778.8953 
 3806000    258.17608   -3914.0002   -3471.4952   -3914.0002            0    4975.3873    17.221929    20.285158    21.010714    7340.0835    4567.6609    4836.9672    5521.5336   -468.44749    1163.2709    470.97682    -2938.892 
 3807000    239.56099   -3910.8355   -3500.2361   -3910.8355            0    5911.6187    17.174861    20.229718     20.95329    7280.0655    6136.9563    7075.1601    4522.7396   -1079.7875   -1686.4241    2909.7457    -2872.586 
 3808000    250.82204    -3921.508   -3491.6076    -3921.508            0    5101.4013    17.204653    20.264809    20.989637    7318.0158    3785.9512    5722.3224    5795.9303    -278.5066    827.16019    361.96052   -2947.1567 
 3809000    253.38646   -3938.0676   -3503.7719   -3938.0676            0    4558.3113    17.210399    20.271577    20.996647     7325.351    3767.5465    4326.1063    5581.2813    74.959504    281.64187    441.53011    -3016.795 
 3810000    239.17959   -3961.5985   -3551.6529   -3961.5985            0    6302.5171     17.16106    20.213462    20.936453    7262.5299    4682.4703    6421.2395    7803.8415   -171.47141   -946.03976    306.60435    -2884.112 
 3811000    228.56567   -3922.5206   -3530.7668   -3922.5206            0    4733.9466    17.335699    20.419164    21.149512    7486.5144    3730.1276    5126.6554    5345.0568   -633.15429   -887.72555     411.3478   -3013.8997 
 3812000    251.53942   -3937.6194   -3506.4894   -3937.6194            0    3449.7018    17.245739    20.313202    21.039761    7370.5688    4259.5141    4097.4888    1992.1025   -1134.5648   -717.42837    778.63792   -3135.6735 
 3813000      257.102     -3917.12   -3476.4559     -3917.12            0    6139.9196    17.239997    20.306439    21.032756    7363.2091    7189.0968    4412.8794    6817.7824    207.30285   -1866.0824   -137.24274   -2817.1216 
 3814000    248.97617   -3948.8061   -3522.0695   -3948.8061            0    4912.2265    17.244762    20.312052     21.03857    7369.3166    6591.6262    4568.5221    3576.5312    592.69094   -1964.4575   -459.87309   -2994.1332 
 3815000    237.28749   -3951.5819   -3544.8793   -3951.5819            0    6558.6721    17.204502     20.26463    20.989452    7317.8225    5961.5479    5855.2123    7859.2559   -138.53367   -1541.6331    18.319633   -2844.9186 
 3816000    252.15428   -3925.7772   -3493.5934   -3925.7772            0    4653.9548    17.322201    20.403265    21.133045    7469.0402    4476.0459    5818.9206    3666.8978    499.92649   -1244.6901   -1668.8809    -2986.646 
 3817000    243.27308     -3966.44   -3549.4782     -3966.44            0    4231.5728    17.311919    20.391154    21.120501    7455.7483    3168.0008    4258.7427    5267.9749   -1335.8099   -193.93104    1176.9625   -3089.3605 
 3818000    244.79532   -3950.6428    -3531.072   -3950.6428            0    3906.5962     17.27224    20.344417    21.072093    7404.5997    3377.0354    4273.5315    4069.2217   -1128.0719     7.450759   -629.94295   -3109.2045 
 3819000    235.23729   -3961.5651   -3558.3764   -3961.5651            0     3175.052    17.283472    20.357647    21.085796    7419.0547    4180.9902    1970.3124    3373.8534   -662.78687   -1603.0489   -668.04735    -3214.838 
 3820000    251.28115   -3925.6201   -3494.9328   -3925.6201            0    5121.8259    17.202208    20.261929    20.986654    7314.8969    5747.1319    6037.4788     3580.867    119.29977   -445.86411   -1239.0652    -2948.535 
 3821000    247.21193   -3938.8419   -3515.1291   -3938.8419            0    3640.7408    17.336277    20.419845    21.150218    7487.2635    1319.7665    5221.5322    4380.9238   -1621.6901   -268.47595   -284.78261   -3117.5819 
 3822000    260.59836   -3902.2629   -3455.6063   -3902.2629            0    3138.2753    17.394808    20.488786    21.221625    7563.3551    3884.8714     2242.629    3287.3256   -1362.8324   -257.94671   -683.64592   -3109.4426 
 3823000    244.69317   -3963.4227    -3544.027   -3963.4227            0    4216.5361    17.242747    20.309678    21.036111     7366.733    3895.7031     4302.406    4451.4992    1832.0491    634.76543    31.110217   -3091.0182 
 3824000    259.62227   -3970.3947    -3525.411   -3970.3947            0    5460.7657    17.265791    20.336822    21.064225    7396.3092    4841.7992     5680.562     5859.936   -607.66767    1446.9488    87.690132   -2936.3714 
 3825000    247.45163   -3936.7083   -3512.5847   -3936.7083            0    6596.3468    17.182295    20.238473    20.962359    7289.5224     6148.177    6164.0457    7476.8177    746.91148   -294.41995    -702.2456   -2811.3257 
 3826000    241.34129   -3933.5535   -3519.9028   -3933.5535            0    4202.0842    17.302587    20.380162    21.109116    7443.6977      4138.56    4549.4017    3918.2909    999.81367    142.80852     605.0967     -3063.73 
 3827000    233.05842   -3958.9342     -3559.48   -3958.9342            0     4751.963    17.281586    20.355425    21.083494    7416.6255    7065.8757    4841.7949    2348.2184   -838.59034   -1713.0145    1734.6859   -3045.4893 
 3828000    257.85311   -3925.5225   -3483.5711   -3925.5225            0    5090.6998    17.330484    20.413021     21.14315    7479.7598    6651.1357    5192.7744    3428.1893   -1149.8864    645.97903    760.11653    -2928.254 
 3829000    248.63764   -3960.1216   -3533.9652   -3960.1216            0    5050.4957    17.291995    20.367686    21.096193    7430.0352    5070.1266    5603.2897    4478.0709    563.30765    930.85298    468.17034   -2986.6963 
 3830000    258.53789   -3914.8134   -3471.6883   -3914.8134            0    5005.2156    17.272404     20.34461    21.072293    7404.8106    4465.3597    6131.3259    4418.9612    671.54646    791.52594   -746.02933   -2931.1672 
 3831000    248.03795   -3943.0518   -3517.9232   -3943.0518            0    5900.5741    17.272164    20.344328       21.072    7404.5023    6326.4903    5405.1473    5970.0847   -1009.7046   -257.79327    833.49038   -2880.7375 
 3832000    247.63732    -3956.524   -3532.0821    -3956.524            0    6860.4954    17.259441    20.329342    21.056478     7388.151    7501.3045     6245.408    6834.7736    43.559343    728.82527   -157.03911   -2792.8733 
 3833000     241.8934   -3942.3136   -3527.7166   -3942.3136            0      6741.43    17.226174    20.290158    21.015892    7345.5121    6332.6227    6094.8193    7796.8481    283.67392   -1022.0857     334.3592    -2805.529 
 3834000    263.62409   -3916.1346   -3464.2919   -3916.1346            0    5040.9184     17.33204    20.414854    21.145049    7481.7752    3940.4693    6372.6895    4809.5964   -719.80082    86.452008    1605.9416   -2914.2571 
 3835000    246.77445   -3933.8173   -3510.8544   -3933.8173            0    5061.5694    17.314629    20.394346    21.123807    7459.2496    3715.8845    7554.4967    3914.3269     901.5865    214.30342   -246.34158    -2960.229 
 3836000    260.22371   -3962.5842   -3516.5696   -3962.5842            0     3619.832    17.364655     20.45327    21.184839    7524.0915    5114.8791    1990.2133    3754.4036    324.49588    -2081.146    34.279748   -3119.3613 
 3837000    246.11889    -3945.156   -3523.3166    -3945.156            0    4585.6679     17.28529    20.359788    21.088013    7421.3955    4529.0201    4376.1256    4851.8579   -498.06308   -64.531771    804.48067    -3026.994 
 3838000     256.6728   -3879.3207   -3439.3923   -3879.3207            0    3143.3428    17.316035    20.396002    21.125523    7461.0676    635.08585    3281.5906    5513.3518   -216.08746    221.26664    1385.9781   -3097.3588 
 3839000    235.59349   -3937.6635   -3533.8643   -3937.6635            0    5565.7252    17.215635    20.277743    21.003034    7332.0378    4349.6514     6432.077    5915.4471    340.36522   -822.71375   -855.80766   -2938.7199 
 3840000    259.59597   -3946.1365   -3501.1978   -3946.1365            0    6138.5738    17.205983    20.266375    20.991259    7319.7131    6825.6677     5295.238    6294.8156   -990.99587   -1059.7652   -186.30034    -2845.902 
 3841000    241.66121   -3949.9142   -3535.7151   -3949.9142            0    4875.5546    17.217169     20.27955    21.004906     7333.998    5529.9313    5527.2061    3569.5264    -1354.803   -93.517839   -164.96986   -3014.2315 
 3842000    265.39431    -3938.787   -3483.9103    -3938.787            0    5104.6317    17.223531    20.287045    21.012668    7342.1322    5462.7213    4639.9176    5211.2562   -1058.7316    116.59871   -1609.0558   -2937.3192 
 3843000    234.96268   -3934.2921   -3531.5741   -3934.2921            0    4927.6176    17.291213    20.366765     21.09524    7429.0277    4718.2332     5090.646    4973.9736   -521.91135   -1325.1901   -732.24504   -2997.6926 
 3844000    247.83296   -3938.6019   -3513.8247   -3938.6019            0    5152.1587     17.23709    20.303015    21.029209     7359.485    4822.7619    3610.2815    7023.4329     802.6161    101.16518   -179.04945   -2960.8407 
 3845000     249.4438   -3964.2744   -3536.7363   -3964.2744            0    6584.3815    17.292476    20.368253    21.096781     7430.656    5175.6603    6828.2519    7749.2324   -1497.3592   -820.94387    520.58117   -2823.1968 
 3846000     252.2239   -3919.3279   -3487.0248   -3919.3279            0     4536.138    17.318772    20.399225    21.128861    7464.6052     5231.847    5016.2119    3360.3551    1745.5934    1462.3486    1682.5333   -2993.2044 
 3847000    252.73989   -3937.6279   -3504.4404   -3937.6279            0    5080.8331     17.22238    20.285689    21.011264    7340.6602     3981.209     3764.646    7496.6442    701.99661    923.73288    -1405.917   -2960.5067 
 3848000    239.12544   -3949.4436   -3539.5908   -3949.4436            0    3896.5339    17.318032    20.398354    21.127958    7463.6487    1771.2079    4430.7564    5487.6373   -551.33981   -1159.1683   -295.72458   -3115.4544 
 3849000    244.37411   -3919.4925   -3500.6437   -3919.4925            0    5536.3708    17.273373    20.345752    21.073475    7406.0567    5811.8223    5401.1975    5396.0926    331.82895   -1975.0092   -719.83521   -2902.6617 
 3850000    239.58918   -3945.8017   -3535.1541   -3945.8017            0    4631.3829     17.38955    20.482593     21.21521    7556.4984    5289.1189    4604.6052    4000.4247     -920.439    72.491666   -762.70077   -3024.7582 
 3851000    231.81883   -3905.8641   -3508.5346   -3905.8641            0    7613.2734    17.275186    20.347888    21.075687    7408.3895    8363.0126    8497.5828    5979.2249   -329.03919    561.41844    2122.7377   -2685.9679 
 3852000    244.84028   -3904.5655   -3484.9176   -3904.5655            0    3006.3325     17.35775    20.445136    21.176414     7515.119    2924.0471    3479.4838    2615.4666     -291.976   -895.60346    373.65109   -3155.4227 
 3853000    235.75496   -3907.8574   -3503.7815   -3907.8574            0    4261.5718    17.278231    20.351474    21.079402    7412.3078    4046.4941    3986.2925    4751.9286    -149.3185    622.81618    -1689.811   -3043.1017 
 3854000    242.48689   -3918.7369   -3503.1227   -3918.7369            0    4775.1889    17.356027    20.443107    21.174312    7512.8809    3206.5864     4755.828    6363.1524   -55.536756    253.43589   -1439.3287   -2979.9164 
 3855000    262.25664   -3918.5927   -3469.0938   -3918.5927            0    5485.3269    17.222094    20.285351    21.010914    7340.2935    7008.1093    3734.7368    5713.1346   -1091.9165    815.24273    622.84984    -2881.886 
 3856000    242.07563   -3933.4022   -3518.4929   -3933.4022            0    4647.5011    17.252832    20.321557    21.048415    7379.6671    6118.3364    4123.3175    3700.8494     61.79708   -1840.4701    1102.6419   -3018.3062 
 3857000    244.47384   -3938.5771   -3519.5573   -3938.5771            0    6267.8509    17.242652    20.309567    21.035995     7366.612    6134.1682    6131.6186     6537.766    3.3177683     1123.306   -537.29688    -2846.174 
 3858000    246.36231   -3910.8909   -3488.6343   -3910.8909            0    4172.5539    17.308172     20.38674    21.115929    7450.9073    3846.5842    3288.5868    5382.4909    1087.1978   -411.80142   -336.67449   -3035.2286 
 3859000     247.5246   -3931.0564   -3506.8077   -3931.0564            0    4511.9352    17.318693    20.399133    21.128765    7464.5037    3564.0743    4527.8176    5443.9136   -635.56476    920.07781   -1046.2394   -3015.6289 
 3860000    247.24212   -3909.1208   -3485.3563   -3909.1208            0    5830.1188    17.312503    20.391842    21.121213    7456.5025    5457.0475     5549.211    6484.0979   -510.10725   -2099.5614    323.62015   -2851.3574 
 3861000    250.30136   -3897.2588   -3468.2509   -3897.2588            0    4178.7369    17.287122    20.361946    21.090248    7423.7556    4235.5916    2716.3894    5584.2297     686.0734   -299.60714    -203.6352    -3015.828 
 3862000    249.95993   -3921.5665   -3493.1438   -3921.5665            0    4302.4302     17.30621    20.384429    21.113536    7448.3743    4617.4541    5107.6553    3182.1812    415.83011    583.18042   -259.36651   -3025.7841 
 3863000    245.09725   -3914.1615   -3494.0732   -3914.1615            0    4795.9839    17.286814    20.361584    21.089873    7423.3592    5689.7256     3270.689    5427.5372   -130.29254    -332.5616   -922.32268     -2974.85 
 3864000    256.60047   -3909.6622   -3469.8577   -3909.6622            0    4976.1122    17.336656    20.420291     21.15068    7487.7541    3414.1784    6781.0204    4733.1377   -917.71576   -720.54814   -194.46673   -2926.4602 
 3865000    247.00877   -3873.9637   -3450.5991   -3873.9637            0    5308.0734     17.26762    20.338975    21.066456    7398.6593    5807.7402    5102.0589     5014.421     201.1753    -1362.547    15.856461   -2877.8481 
 3866000    252.50187   -3952.6868   -3519.9073   -3952.6868            0    4935.9773    17.252459    20.321118     21.04796    7379.1884    5802.3867    4273.8533    4731.6918   -755.78751   -819.29984   -780.67077   -2988.7078 
 3867000    237.59783   -3935.8505   -3528.6159   -3935.8505            0    4443.4098     17.23783    20.303887    21.030112    7360.4331    3939.6425    4299.2838     5091.303     -1181.18    598.81132   -210.18491   -3051.6409 
 3868000    247.46517   -3936.4952   -3512.3483   -3936.4952            0    6088.9312    17.209688    20.270739    20.995779    7324.4422    6813.6719    5913.0974    5540.0244   -374.07314    1991.9712    1500.2359   -2861.9319 
 3869000    257.48512   -3919.6542   -3478.3335   -3919.6542            0     5644.005    17.276013    20.348861    21.076695    7409.4529    6707.9024    3719.9661    6504.1466     952.0573   -441.38961   -1115.7646   -2868.4465 
 3870000    251.30028   -3932.4132   -3501.6931   -3932.4132            0    4378.7472    17.360799    20.448728    21.180134    7519.0796    4031.8207    5612.4675    3491.9534    826.68712   -578.29145    1436.6076   -3021.5282 
 3871000    231.41735   -3892.6748   -3496.0334   -3892.6748            0    4654.1558    17.317728    20.397996    21.127587    7463.2555    4957.0401    3241.1766    5764.2506   -1369.8311   -365.48605   -873.12916   -2989.4568 
 3872000    259.44592    -3904.711   -3460.0296    -3904.711            0    4114.4896    17.342689    20.427397     21.15804    7495.5743    3339.0422    5424.6857     3579.741    124.78936    -214.7474   -171.19501   -3010.2531 
 3873000    240.36267   -3944.2876   -3532.3142   -3944.2876            0    3857.0728    17.269982    20.341758    21.069338    7401.6961    4016.4421    3142.0717    4412.7045    -1718.332   -143.37363     194.8896    -3115.958 
 3874000    259.51541   -3918.0639   -3473.2634   -3918.0639            0    5412.4837    17.249868    20.318066    21.044798    7375.8639    3724.9285    6483.5206    6029.0021    498.97378     1262.592   -591.81668   -2891.0457 
 3875000    262.85352   -3902.2598   -3451.7378   -3902.2598            0    6400.3688    17.219615    20.282432     21.00789    7337.1243    5874.2542    5884.8406    7442.0117    992.43937    452.17004    316.83543     -2766.87 
 3876000    243.11494   -3926.3287    -3509.638   -3926.3287            0     7090.286    17.187347    20.244425    20.968524    7295.9551    7805.9275    5836.2994    7628.6312    2068.1357   -240.57623   -35.765286    -2755.203 
 3877000    242.02266   -3922.9291   -3508.1105   -3922.9291            0    3720.2668    17.259272    20.329143    21.056272    7387.9344    3808.1342    4180.6312    3172.0348   -875.71505   -163.76332    305.51585   -3107.2687 
 3878000    242.66689   -3907.8318   -3491.9091   -3907.8318            0    5388.8101    17.170055    20.224056    20.947427    7273.9552    6757.3466    4298.7499    5110.3339   -632.34892     395.4624      226.778    -2920.247 
 3879000    255.23047   -3930.6908   -3493.2345   -3930.6908            0    4487.1198    17.299721    20.376787     21.10562    7439.9995    3247.1525    5904.3082    4309.8988   -287.99258    1198.1976   -1204.2653   -3006.3606 
 3880000     236.0896   -3925.6704   -3521.0209   -3925.6704            0    6033.6975    17.291487    20.367087    21.095573    7429.3802    7419.8578    4972.4532    5708.7815   -60.035582   -203.29311    374.41529   -2867.2705 
 3881000    241.25496   -3953.6352   -3540.1324   -3953.6352            0    3625.6578     17.31935    20.399907    21.129567    7465.3533    3914.4974    4378.3643    2584.1117   -197.82803    688.04949    273.22002   -3145.3907 
 3882000    246.14797   -3907.2535   -3485.3643   -3907.2535            0    6122.9647    17.341187    20.425627    21.156207    7493.6262     5461.862    5253.4305    7653.6017    672.39675   -107.25459   -977.93797   -2816.2048 
 3883000    240.28167    -3940.509   -3528.6744    -3940.509            0    4754.7626    17.303314    20.381019    21.110003    7444.6361    3967.4804    3374.9795    6921.8279   -466.75204    1400.3176    815.48373   -3012.4385 
 3884000    242.29815   -3971.2222   -3555.9315   -3971.2222            0    3950.9147    17.284376    20.358711    21.086898    7420.2183    2246.1109    4358.9072     5247.726    961.30519    870.94656    342.44599   -3128.3782 
 3885000    246.11242   -3999.6613    -3577.833   -3999.6613            0    5215.9274    17.259434    20.329334     21.05647    7388.1425    6540.8361    3956.1712     5150.775   -306.01592   -479.37075   -600.71566   -3015.8248 
 3886000    238.42792   -3942.2212   -3533.5639   -3942.2212            0    4586.8992    17.240657    20.307216    21.033561    7364.0548    5810.3711    2988.2844     4962.042    98.593176    83.367707    1247.7647   -3040.9439 
 3887000    239.60745    -3971.566   -3560.8871    -3971.566            0    5230.8252    17.322413    20.403514    21.133303    7469.3143     4907.527    5858.9702    4925.9784    789.16945   -367.50448    1554.4545   -2991.0813 
 3888000    242.69869   -3923.1081   -3507.1308   -3923.1081            0    4195.1816    17.260385    20.330454    21.057629    7389.3634    4045.2494    4201.4819    4338.8136    1913.3777    341.90031     35.50536   -3055.0317 
 3889000    233.42335   -3972.5252   -3572.4456   -3972.5252            0    3557.9914    17.255884    20.325153    21.052139    7383.5847    5197.5674    3305.1864    2171.2203   -793.01325    105.76048   -267.49186   -3189.3139 
 3890000    252.89763   -3931.0787   -3497.6208   -3931.0787            0     5109.223    17.270242    20.342064    21.069655    7402.0302    7158.2461    2690.9334    5478.4895   -318.37359   -615.88145    436.68838    -2946.075 
 3891000    238.00454   -3940.3455   -3532.4139   -3940.3455            0    3819.9046    17.265253    20.336187    21.063568    7395.6167    2876.9729    4000.0142    4582.7269   -1203.6357    710.67638   -523.88004   -3120.4086 
 3892000    236.45807    -3921.204   -3515.9229    -3921.204            0    6164.0024    17.153153    20.204148    20.926806    7252.4952    3834.9212    7284.9066    7372.1793    578.07274    782.02949    -1232.258   -2863.9551 
 3893000    234.58438     -3915.14   -3513.0704     -3915.14            0    5032.7211    17.285019    20.359469    21.087683    7421.0468    5996.4457    3640.1209    5461.5968    -1216.146    603.97959   -1208.3378   -2968.3873 
 3894000    246.74658   -3912.9746   -3490.0594   -3912.9746            0    7231.0063    17.149921    20.200342    20.922864    7248.3969    6224.3218    5914.4737    9554.2235    691.60894    1177.7401    1622.8356   -2725.6666 
 3895000    259.74218    -3912.462   -3467.2728    -3912.462            0    5384.3159    17.313763    20.393326    21.122751    7458.1312    4745.5075    4807.5011    6599.9391    326.60625   -340.10684    1325.5056   -2881.6251 
 3896000    241.24571   -3908.1873   -3494.7004   -3908.1873            0    5225.8581    17.271224     20.34322    21.070853    7403.2926    4353.1204    7648.3124    3676.1416    1100.7782   -623.27367   -42.393103   -2930.4674 
 3897000    230.48593   -3912.0545   -3517.0095   -3912.0545            0    5596.7143    17.317317    20.397512    21.127086     7462.724    4621.3357     5623.011    6545.7961    1755.6558    1349.0532    819.68758   -2907.8845 
 3898000    230.76677   -3911.3176   -3515.7912   -3911.3176            0    6916.1255    17.182334    20.238519    20.962407    7289.5719    8315.3414    6940.4881    5492.5469   -165.91396    529.75921    235.99691   -2780.5315 
 3899000    261.06986   -3909.8394   -3462.3746   -3909.8394            0    3645.9373    17.356044    20.443128    21.174334     7512.904    3522.2326     2696.315    4719.2643    132.09525    1408.6943    1569.0908   -3062.8965 
 3900000     245.4141   -3912.1962   -3491.5648   -3912.1962            0      5118.62    17.212367    20.273895    20.999048    7327.8641    5640.1689     4996.953     4718.738    39.383002   -1038.4644   -1025.1836   -2944.5411 
 3901000    246.17536   -3887.8434   -3465.9072   -3887.8434            0    4526.9834    17.247925    20.315777    21.042428    7373.3721     4634.432    3266.1969    5680.3213   -37.670752   -2567.1395    142.20986   -2979.1068 
 3902000    237.59332   -3935.4836   -3528.2568   -3935.4836            0    6759.0204    17.193198    20.251316    20.975661    7303.4079    6359.3851    7127.8877    6789.7884    858.91238    482.74544    807.46532   -2808.3352 
 3903000     253.9923   -3930.7449   -3495.4108   -3930.7449            0    4335.9219    17.280218    20.353814    21.081826    7414.8649    3921.7982    4913.0805    4172.8869   -1364.3466     663.0789    228.89473    -3026.532 
 3904000    240.67498   -3914.5845   -3502.0759   -3914.5845            0     4869.103    17.290527    20.365957    21.094402    7428.1433    4716.1201    5652.8991    4238.2898   -216.86936   -7.1198437   -372.75288   -2974.5969 
 3905000    242.53771   -3892.9829   -3477.2815   -3892.9829            0    4548.6975    17.259695     20.32964    21.056787    7388.4766      5197.14    4560.4994    3888.4532      293.881    365.71905    840.51018   -2987.1441 
 3906000    228.53699   -3925.3571   -3533.6525   -3925.3571            0    4417.7159    17.291357    20.366935    21.095416    7429.2138    4051.7017     4797.924    4403.5219    -1024.909    892.72861    1006.1064   -3055.0042 
 3907000    245.50189    -3936.663   -3515.8811    -3936.663            0    2502.1779    17.337877    20.421729     21.15217    7489.3368     2818.332    2533.0951    2155.1066   -874.88451   -73.716669   -777.10821   -3242.5825 
 3908000    242.92167   -3937.0451   -3520.6857   -3937.0451            0    4625.4251    17.295164    20.371419     21.10006    7434.1217    5176.5976    5344.9564    3354.7214    2959.6905   -314.27079    166.72563   -3019.2015 
 3909000    251.39538    -3940.083   -3509.1999    -3940.083            0    4110.2049    17.234017    20.299396    21.025461    7355.5503    4531.8794    3338.1145    4460.6209    1135.4114    978.63116   -249.52082   -3068.2853 
 3910000    252.22216   -3910.0103   -3477.7101   -3910.0103            0    3620.6818    17.335524    20.418957    21.149299    7486.2877    2352.3856    4693.4088    3816.2511    298.85864   -828.41287    395.44436   -3082.4047 
 3911000    243.52644   -3951.5889   -3534.1929   -3951.5889            0    5724.4683    17.244096    20.311268    21.037757     7368.463    7818.3528    4543.2103    4811.8417   -527.51709    1995.3032   -228.28532   -2919.0331 
 3912000    246.47625   -3944.9299    -3522.478   -3944.9299            0    5423.3027    17.231547    20.296486    21.022447    7352.3872    6786.0874    4938.6647    4545.1561    899.19898   -877.76201   -183.73153   -2940.9534 
 3913000    244.58855   -3932.5729   -3513.3565   -3932.5729            0    5653.4289    17.289523    20.364775    21.093178    7426.8499    6550.3026      6701.99    3707.9942    99.804069   -582.88049   -1783.1581   -2901.0167 
 3914000    250.81258   -3950.7811   -3520.8969   -3950.7811            0    6986.3805    17.183375    20.239746    20.963678     7290.898    8428.7875    5860.1936    6670.1605    839.36285    266.37601   -951.87948   -2778.0332 
 3915000    244.43532   -3935.1982   -3516.2444   -3935.1982            0    5621.5394    17.242272    20.309119    21.035531    7366.1244    5427.7737    5302.3535     6134.491    -532.3815   -351.27888     1033.673   -2912.3373 
 3916000    245.74173   -3908.7803   -3487.5874   -3908.7803            0     4234.313    17.284693    20.359086    21.087286    7420.6274    4057.7958    3635.5472     5009.596   -494.75511     1477.361   -236.07399   -3029.3406 
 3917000    244.47374   -3936.0587   -3517.0391   -3936.0587            0    7125.2285    17.134069    20.181671    20.903525    7228.3164    9001.0232    5623.9953     6750.667    299.53881     57.30069    1354.9305   -2765.9147 
 3918000    254.96968   -3889.9715   -3452.9622   -3889.9715            0    5110.7026    17.236072    20.301817    21.027968    7358.1819    6436.9062    6814.0588    2081.1428   -76.842457    490.86689    1156.6436   -2904.5249 
 3919000    248.85533   -3888.5802   -3462.0507   -3888.5802            0    3238.2762    17.251573    20.320075    21.046879    7378.0522    3843.9042    3721.6446    2149.2797    638.34472    1764.2982   -64.694495   -3113.6079 
 3920000    251.36288   -3927.1591   -3496.3318   -3927.1591            0     4099.267    17.178951    20.234535     20.95828    7285.2672    2501.6895    4939.2288    4856.8827   -989.96007    417.65058   -1138.4877   -3060.7922 
 3921000    236.22559   -3919.9848   -3515.1022   -3919.9848            0    4620.3459    17.178242      20.2337    20.957415    7284.3653    5521.0892    4020.5436    4319.4048   -1293.1855   -1926.0649   -48.183028   -3024.2598 
 3922000    245.24233    -3925.298    -3504.961    -3925.298            0    3068.9776    17.159968    20.212175     20.93512    7261.1429    4195.9375    2812.4246    2198.5706   -222.67767    605.08989    714.64867   -3179.9676 
 3923000    241.51412   -3942.3336   -3528.3867   -3942.3336            0    4740.9966     17.22998    20.294641    21.020536    7350.3823    2736.6775    5771.1842    5715.1281   -263.41308   -1668.1707   -1108.6668   -3020.1623 
 3924000    239.05799   -3925.6605   -3515.9233   -3925.6605            0    5781.5499     17.18884    20.246184    20.970345    7297.8567    6908.7469    6364.0452    4071.8575   -1269.7116    937.51808    75.342784   -2900.5828 
 3925000    250.42269   -3896.2152   -3466.9993   -3896.2152            0    5848.5835    17.216094    20.278284    21.003594    7332.6242     5519.631    6764.7312    5261.3883   -1092.0939     821.4008    874.84923   -2841.5588 
 3926000    243.74248   -3921.0489   -3503.2827   -3921.0489            0    3135.8788    17.301651    20.379059    21.107973     7442.489     2960.656    3876.8716    2570.1088   -806.63788    746.32285   -348.09774    -3162.911 
 3927000    255.14256   -3877.2534   -3439.9478   -3877.2534            0    7682.4592    17.191053     20.24879    20.973045    7300.6755    9320.4294      7025.06    6701.8883    326.71541    1640.9543   -382.97599   -2621.9744 
 3928000    266.14677   -3928.1307   -3471.9643   -3928.1307            0    4788.9189    17.290135    20.365495    21.093924    7427.6384    6235.8195    3639.5134    4491.4237    104.83659    -724.5131     319.5092   -2953.2071 
 3929000    240.89558    -3895.995   -3483.1082    -3895.995            0    5550.0415     17.28143    20.355241    21.083304    7416.4247    5315.7783    5634.9867    5699.3594    719.05596    54.089488    74.576424   -2882.8105 
 3930000    244.87173   -3895.0369   -3475.3352   -3895.0369            0     5472.082     17.24833    20.316255    21.042923    7373.8921    5478.3766    4000.6328    6937.2365    91.436721   -504.21199   -86.708529   -2886.8639 
 3931000    248.62236   -3891.8193   -3465.6891   -3891.8193            0    3188.2895    17.320446    20.401197    21.130903    7466.7701    3090.8839    3699.1352    2774.8493     -460.838   -388.74196    828.66705   -3118.4997 
 3932000    263.50879   -3899.6792   -3448.0341   -3899.6792            0    5171.3186    17.273856    20.346321    21.074064    7406.6784    5425.1713    4608.5211    5480.2636    -370.8661   -94.515797    77.488758   -2889.4345 
 3933000    249.61918   -3937.4349   -3509.5962   -3937.4349            0    6169.7125    17.249292    20.317388    21.044096     7375.126    5545.5432    7702.3708    5261.2235    202.52864   -950.24713    66.740393   -2845.9903 
 3934000    244.13363   -3927.1571   -3508.7204   -3927.1571            0    5071.2043    17.225224    20.289038    21.014733    7344.2964    4762.8945    4299.1661    6151.5522   -649.06455    477.01979   -75.691274   -2965.5487 
 3935000     248.2051   -3889.9708   -3464.5557   -3889.9708            0    6738.8422    17.269232    20.340875    21.068423    7400.7322    6677.1687    7550.7724    5988.5855     2180.762    623.32887   -116.70768   -2737.2184 
 3936000    237.80765   -3878.9484   -3471.3542   -3878.9484            0    5816.3165    17.283192    20.357317    21.085454    7418.6941    5334.8415    6161.3153    5952.7926    1570.5873     1317.245    1781.9924   -2842.0634 
 3937000    248.15584   -3935.9358   -3510.6052   -3935.9358            0    3798.7945     17.32677    20.408647    21.138619    7474.9524    4557.7528    3389.4834    3449.1474   -291.14427   -6.0111124    635.66917   -3096.4815 
 3938000    254.17247   -3908.2329     -3472.59   -3908.2329            0    3281.0771     17.36932    20.458765     21.19053    7530.1575    77.440459    6743.4344    3022.3564   -258.36054   -152.41286    785.45727   -3112.2633 
 3939000    243.15854   -3935.2212   -3518.4558   -3935.2212            0     4819.338    17.228026    20.292339    21.018151     7347.881    2894.6884    5481.7248    6081.6009    1481.0163    1486.2054    758.69733   -3002.0093 
 3940000    262.30094   -3918.7891   -3469.2142   -3918.7891            0    5039.0698    17.254637    20.323683    21.050616    7381.9831      5987.34    4727.7909    4402.0783   -849.71356    126.12236   -1099.2092   -2926.7148 
 3941000    248.25295   -3920.5476   -3495.0506   -3920.5476            0    5532.8852    17.288818    20.363943    21.092317    7425.9405    5312.4941    5151.3299    6134.8316   -742.88656   -71.655634   -365.15894   -2895.8406 
 3942000    264.13395   -3945.3544   -3492.6379   -3945.3544            0    5303.2936    17.279119     20.35252    21.080485    7413.4502     6360.174    6036.1173    3513.5896   -104.34891    358.19347   -527.77607   -2919.2587 
 3943000    250.57051   -3932.3647   -3502.8954   -3932.3647            0    3721.1642    17.348425    20.434153    21.165038     7503.014    3311.8995    3924.8453    3926.7477   -215.12712    807.22469   -1849.2785   -3095.7116 
 3944000    255.17147   -3909.4532    -3472.098   -3909.4532            0    6533.1895    17.256825     20.32626    21.053286    7384.7917    6858.2597    7456.2742    5285.0345    -1.403195   -145.61147    1666.4467    -2768.476 
 3945000    243.94822   -3947.7379    -3529.619   -3947.7379            0    7668.3024    17.281497     20.35532    21.083386     7416.511    7768.2749    7355.0019    7881.6303    366.16269    763.32664    867.68496   -2700.1985 
 3946000     243.1248   -3918.3146   -3501.6071   -3918.3146            0    5609.6156     17.31799    20.398305    21.127907    7463.5947    5804.5674    4318.8677    6705.4118   -13.377697    266.24527   -412.80643   -2891.0067 
 3947000    254.65342   -3945.5819   -3509.1147   -3945.5819            0     4598.888    17.270278    20.342106    21.069698     7402.076    5771.2075    3594.4559    4431.0007   -7.5022945   -716.70704    685.88788    -3012.657 
 3948000    242.06713   -3905.4362   -3490.5414   -3905.4362            0     3980.733    17.301254    20.378592     21.10749    7441.9776    6240.8056    3397.2762    2304.1171    5.3449243   -999.44924    431.20639   -3058.4981 
 3949000     257.8351   -3921.3893   -3479.4688   -3921.3893            0    5684.4013    17.297429    20.374086    21.102823     7437.042     6462.631    5491.6287    5098.9441   -121.28192   -1056.3178    -133.9345   -2862.9294 
 3950000    256.00858    -3932.851    -3494.061    -3932.851            0    4321.3199    17.215656    20.277769     21.00306     7332.065    4134.8107    4705.1364    4124.0125   -1566.1542   -1049.3615   -80.124588   -3031.9795 
 3951000    243.70218   -3918.1268   -3500.4296   -3918.1268            0    4811.1534    17.279224    20.352643    21.080613     7413.585    3585.1799    7214.8467    3633.4335    -941.3834   -915.13034    126.22996     -2980.25 
 3952000    249.71977   -3908.7564   -3480.7453   -3908.7564            0    5317.3516    17.202002    20.261686    20.986402    7314.6336    5430.1271    5847.1695    4674.7582   -721.62783     455.7542    1483.4615   -2913.5092 
 3953000    246.98989   -3944.4861   -3521.1539   -3944.4861            0    4016.2003    17.248862    20.316881    21.043571    7374.5734    3475.0276    6353.9288    2219.6443    1067.6115   -278.27365   -263.18047   -3089.2092 
 3954000    234.01163   -3908.7576   -3507.6696   -3908.7576            0    4849.7259    17.223944    20.287531    21.013171    7342.6594    3840.0708    5607.3757    5101.7313    1672.3937   -1160.4426    1393.1606    -2988.336 
 3955000    242.20818   -3938.8382   -3523.7017   -3938.8382            0    3758.9478    17.341707    20.426241    21.156843    7494.3015    4324.4911    3286.5152    3665.8373   -327.42773   -485.57207    181.18228   -3112.8611 
 3956000    261.70055   -3973.5137   -3524.9679   -3973.5137            0    5481.7214    17.283241    20.357375    21.085513    7418.7566    3219.3517    4801.4748    8424.3377    1253.2395   -1548.7064   -1516.5732   -2931.8733 
 3957000    233.14736    -3923.531   -3523.9244    -3923.531            0    4113.0072    17.304971    20.382971    21.112025    7446.7753     4918.236    3335.8795     4084.906   -196.62839    -36.45137    1077.8839   -3077.2371 
 3958000    244.34613   -3912.7584   -3493.9575   -3912.7584            0     4617.475    17.329648    20.412036     21.14213    7478.6771    2267.5542    6377.6428    5207.2279   -612.47829   -926.99712    306.57944   -2990.3348 
 3959000    239.45111   -3931.3326   -3520.9216   -3931.3326            0    5821.9833    17.304886     20.38287    21.111921    7446.6653    5526.3871    5982.9422    5956.6206    1253.4969   -1333.1044   -379.36225   -2888.6427 
 3960000    253.22392    -3927.403   -3493.3859    -3927.403            0    5213.5219    17.304676    20.382623    21.111664    7446.3939    2456.0645    6219.0432     6965.458   -1588.8755    -600.7905   -1154.2857   -2927.2077 
 3961000    245.03434   -3949.2567   -3529.2763   -3949.2567            0    5442.7843    17.208167    20.268948    20.993924     7322.501    5828.7477    5951.7169    4547.8882   -759.80943    1892.2357   -138.31641    -2948.035 
 3962000    245.61741   -3919.9924   -3499.0126   -3919.9924            0    4014.8603    17.356753    20.443963    21.175199    7513.8248    4395.5135    3390.0331    4259.0343   -1367.1773    406.87906   -744.63505   -3059.0585 
 3963000    256.71537   -3924.7827   -3484.7813   -3924.7827            0    5723.0186    17.280155     20.35374    21.081749    7414.7836    6422.3241    3676.9144    7069.8173    591.09157    -4.717753    485.05269   -2865.9112 
 3964000    249.09726   -3926.2502    -3499.306   -3926.2502            0    4605.6025    17.198113    20.257106    20.981658     7309.674    4436.1845     4424.734    4955.8891    155.96039    2152.7617    977.88454   -3008.3299 
 3965000    235.02764   -3977.0887   -3574.2594   -3977.0887            0    4002.3465     17.30879    20.387469    21.116684    7451.7064    5830.6097    2794.9787    3381.4511    4.8480236    67.615677   -127.39468   -3139.3024 
 3966000    236.52071   -3925.5847   -3520.1963   -3925.5847            0    5007.3481    17.174336    20.229099     20.95265    7279.3979    5104.7652    4051.2941    5865.9852     259.9234   -179.12543   -398.01546   -2988.6034 
 3967000    230.40565   -3928.1253   -3533.2179   -3928.1253            0    5345.8377    17.181195    20.237178    20.961018    7288.1231    4515.3394    4250.7105    7271.4631   -338.80034   -183.92973   -112.40823   -2965.0098 
 3968000    248.00962   -3932.9158   -3507.8358   -3932.9158            0    6210.8829    17.207598    20.268277    20.993229    7321.7744    5044.3718    6055.9378     7532.339    537.63726   -496.50063   -1106.7154   -2844.6341 
 3969000     261.7254   -3930.7857   -3482.1974   -3930.7857            0    6535.9443    17.166528    20.219903    20.943124    7269.4744    8701.1279    5052.2865    5854.4184    318.71126   -902.27808   -782.58507   -2789.2707 
 3970000    237.19548   -3942.0349   -3535.4899   -3942.0349            0    5168.8744    17.235475    20.301113    21.027239    7357.4169    4956.4502    5215.7977    5334.3753   -389.39259    478.08111   -1701.2634   -2980.8677 
 3971000    249.27541   -3958.9114   -3531.6619   -3958.9114            0    6747.0614    17.203898    20.263919    20.988715    7317.0522    4679.6222    8538.3881     7023.174    1182.2642    -1002.958   -471.90603   -2811.6715 
 3972000    243.29699   -3967.6013   -3550.5986   -3967.6013            0    3864.3177    17.303969    20.381789    21.110801    7445.4806    4138.4137    3721.7641    3732.7752    98.754133    441.56602    192.39224   -3130.9928 
 3973000    239.85242   -3933.1947   -3522.0958   -3933.1947            0    3687.1908    17.284052     20.35833    21.086503    7419.8014    3586.3936    3915.5392    3559.6397     683.7828    330.13285   -516.97264   -3123.1042 
 3974000    250.46278   -3958.4439   -3529.1592   -3958.4439            0    6866.5067    17.218014    20.280546    21.005937    7335.0782    5346.6663    8636.1256    6616.7283   -603.53117    406.83723   -668.01669   -2794.6175 
 3975000     245.7129   -3930.4587   -3509.3152   -3930.4587            0    3399.9293    17.271476    20.343517     21.07116    7403.6172    3051.9311    3216.2943    3931.5625    1135.3692   -150.98635   -372.98495   -3142.2107 
 3976000    250.21523   -3920.5312   -3491.6709   -3920.5312            0    5162.2365    17.256079    20.325382    21.052377    7383.8349    5789.3543    4816.4831     4880.872    887.14875   -841.50298    563.79989   -2935.7721 
 3977000    272.97674   -3892.1696   -3424.2968   -3892.1696            0    5113.3266     17.23704    20.302956    21.029149    7359.4213     5472.206    5315.0675    4552.7063   -899.54164    1227.6027     1402.437   -2875.4855 
 3978000    241.77737   -3876.7241    -3462.326   -3876.7241            0    3750.9261    17.228722    20.293159    21.019001    7348.7724    2676.1484     5410.907    3165.7228   -435.61496    810.03255   -219.90235   -3060.3231 
 3979000    254.59521   -3927.0315    -3490.664   -3927.0315            0    4063.8565    17.340192    20.424456    21.154994     7492.337    5105.7552    1983.6285    5102.1857    277.25492    240.69429   -122.86814   -3046.6143 
 3980000    248.27004   -3889.7016   -3464.1752   -3889.7016            0    2922.2095    17.352925    20.439454    21.170528     7508.854     3610.055    2707.8385    2448.7349   -456.32009    1027.3569    -407.6055   -3144.1672 
 3981000    260.29623   -3936.7438    -3490.605   -3936.7438            0    6061.8311     17.25842    20.328139    21.055232    7386.8402    3762.9823    8474.4351     5948.076    1394.9841    599.92762   -208.94776   -2837.5671 
 3982000    241.98906   -3914.5188   -3499.7579   -3914.5188            0    5611.0205     17.28685    20.361626    21.089916    7423.4051    5942.6424    6654.0373    4236.3816    1183.4727    1452.0707   -1182.7067   -2892.2934 
 3983000    242.87137   -3930.8121   -3514.5389   -3930.8121            0    1726.8487    17.397058    20.491437     21.22437    7566.2911     431.9512    1763.0504    2985.5445    851.72582    1072.1014   -1678.4102    -3323.987 
 3984000    241.86821   -3887.2776   -3472.7238   -3887.2776            0     4382.257    17.259431     20.32933    21.056465    7388.1381    5956.1107    3871.2109    3319.4493   -213.33828    600.18724    27.547458   -3000.5425 
 3985000    237.64777   -3942.4369   -3535.1167   -3942.4369            0     6456.893    17.320575    20.401349    21.131061     7466.937    6334.2115    4812.8596    8223.6078    568.86135    -1820.164    132.33724   -2831.9765 
 3986000    250.55703   -3940.1647   -3510.7186   -3940.1647            0    4204.9429    17.330518    20.413061    21.143192    7479.8044    3950.5116    4593.8035    4070.5136   -1.1320216   -238.92889    953.99294   -3052.0212 
 3987000    251.67461   -3941.6068   -3510.2452   -3941.6068            0    2353.0077    17.323161    20.404396    21.134216    7470.2826     2024.531    2394.7298    2639.7624    857.91882    1147.5971    244.38646   -3253.8934 
 3988000    241.54181   -3912.7819   -3498.7875   -3912.7819            0    3340.0961    17.334984    20.418321     21.14864    7485.5878    4594.5584    1634.4915    3791.2385   -850.90195   -976.92886    815.14334   -3134.1505 
 3989000    261.47186   -3949.6281   -3501.4743   -3949.6281            0    3674.7561     17.18047    20.236325    20.960134    7287.2006     4248.691    3586.9465    3188.6309    920.45827    798.00167   -184.00177   -3110.9346 
 3990000    250.57334   -3933.2275   -3503.7534   -3933.2275            0    5105.3627    17.237998    20.304084    21.030317    7360.6479    6724.9005    4640.8437    3950.3439    513.17891   -486.91249    277.71613   -2955.7055 
 3991000    239.84013   -3912.3737   -3501.2959   -3912.3737            0    4657.3755    17.238061    20.304158    21.030394    7360.7286    6870.3684    2227.2182    4874.5398    1013.5901   -722.04489    858.67486   -3001.3328 
 3992000     263.0148   -3928.3382   -3477.5398   -3928.3382            0    6281.0578      17.2048    20.264981    20.989815    7318.2028    5948.4717    6728.9349    6165.7669    688.74152    886.77945    365.35938   -2807.1721 
 3993000    266.53717   -3927.0422   -3470.2066   -3927.0422            0     3797.066    17.232764    20.297919    21.023931    7353.9452    3862.7823    3506.7012    4021.7146   -80.970254   -118.90073   -961.73199   -3062.9722 
 3994000    244.32221   -3902.1092   -3483.3493   -3902.1092            0    3094.8091    17.335822    20.419309    21.149663     7486.674    3187.6562    2965.5854    3131.1858     123.4582   -130.66515   -381.55144   -3145.4411 
 3995000    252.13275   -3907.7835   -3475.6366   -3907.7835            0    4878.0327    17.377837    20.468796     21.20092    7541.2392    4781.5481    5191.6542    4660.8957    305.97809    898.25525    537.20561   -2939.1445 
 3996000    246.27331   -3924.6021   -3502.4981   -3924.6021            0    4852.3999    17.331501    20.414219    21.144391    7481.0773    4654.3557    5315.2192    4587.6247   -1103.4181    1503.3376    95.731948   -2973.0826 
 3997000    251.83316   -3917.5351   -3485.9017   -3917.5351            0    5138.5976    17.338618    20.422601    21.153073    7490.2962     6048.463     4693.499    4673.8308   -164.44397   -76.207179   -671.24464   -2924.5701 
 3998000    244.26326   -3891.0943   -3472.4355   -3891.0943            0    5698.5218    17.281737    20.355603    21.083679    7416.8203     6925.869    4840.8072    5328.8892    280.16307    857.01083    578.42784   -2856.0451 
 3999000    226.18286   -3904.2483   -3516.5786   -3904.2483            0    4093.4675    17.327326    20.409302    21.139298    7475.6724    4569.8878    3628.8215    4081.6933    665.29618    2172.6953   -1044.7852   -3070.2882 
 4000000    256.96509   -3900.2343    -3459.805   -3900.2343            0    4459.8042    17.339532    20.423678    21.154188    7491.4812    4890.4714    5109.1911    3379.7501   -173.22089   -167.03211   -538.52063   -2972.5465 
Loop time of 488.313 on 64 procs for 250000 steps with 864 atoms

Performance: 88.468 ns/day, 0.271 hours/ns, 511.967 timesteps/s
99.0% CPU use with 64 MPI tasks x 1 OpenMP threads

MPI task timing breakdown:
Section |  min time  |  avg time  |  max time  |%varavg| %total
---------------------------------------------------------------
Pair    | 21.08      | 25.927     | 30.715     |  49.6 |  5.31
Bond    | 0.27562    | 0.2857     | 0.30089    |   1.1 |  0.06
Kspace  | 216.44     | 225.6      | 233.83     |  24.4 | 46.20
Neigh   | 4.9648     | 5.6967     | 6.2732     |  16.3 |  1.17
Comm    | 99.117     | 107.71     | 117.25     |  41.2 | 22.06
Output  | 1.1702     | 1.1712     | 1.1775     |   0.1 |  0.24
Modify  | 110.87     | 114.87     | 121.18     |  23.1 | 23.52
Other   |            | 7.054      |            |       |  1.44

Nlocal:        13.5000 ave          19 max           8 min
Histogram: 2 3 11 4 15 8 7 6 5 3
Nghost:        2137.69 ave        2177 max        2105 min
Histogram: 5 2 9 5 16 14 7 4 1 1
Neighs:        4120.84 ave        5822 max        2640 min
Histogram: 6 6 7 8 8 7 7 10 2 3

Total # of neighbors = 263734
Ave neighs/atom = 305.24769
Ave special neighs/atom = 2.0000000
Neighbor list builds = 12448
Dangerous builds = 0

unfix		3
unfix		2
unfix		1

write_data	data.final.${pid}
write_data	data.final.0
System init for write_data ...
PPPM initialization ...
  extracting TIP4P info from pair style
  using 12-bit tables for long-range coulomb (../kspace.cpp:340)
  G vector (1/distance) = 0.37407172
  grid = 24 24 25
  stencil order = 5
  estimated absolute RMS force accuracy = 0.0030930062
  estimated relative force accuracy = 9.3144964e-06
  using double precision FFTW3
  3d grid and FFT values/proc = 2730 288
Last active /omp style is kspace_style pppm/tip4p/omp
WARNING: Not all mixed pair coeffs generated from mixing. Use write_data with 'pair ij' option to store all pair coeffs. (../write_data.cpp:312)

write_restart   restart.lmp.${pid}
write_restart   restart.lmp.0
System init for write_restart ...
PPPM initialization ...
  extracting TIP4P info from pair style
  using 12-bit tables for long-range coulomb (../kspace.cpp:340)
  G vector (1/distance) = 0.37407172
  grid = 24 24 25
  stencil order = 5
  estimated absolute RMS force accuracy = 0.0030930062
  estimated relative force accuracy = 9.3144964e-06
  using double precision FFTW3
  3d grid and FFT values/proc = 2730 288
Last active /omp style is kspace_style pppm/tip4p/omp
Total wall time: 0:08:12
