LAMMPS (30 Jul 2021)
Processor partition = 0
  using 8 OpenMP thread(s) per MPI task
package omp 0
using multi-threaded neighbor list subroutines
echo both

include		in.partitions
variable        pid world 0 1 2 3

include		in.temp
variable        temperature equal 230.0
variable	tempDamp equal 100.0
include		in.pressure
variable        pressure equal 1000.0
variable        pressureDamp equal 1000.0 # This is 1 ps
include		in.seed
variable        seed world 745823 746732 192377 12321


units		real
atom_style	full
include		in.box
box tilt large
read_data       water.data
Reading data file ...
  triclinic box = (0.0000000 0.0000000 0.0000000) to (48.231335 21.596001 16.455999) with tilt (-9.2337990 -18.467001 7.6068000)
  2 by 2 by 1 MPI processor grid
  reading atoms ...
  1944 atoms
  scanning bonds ...
  2 = max bonds/atom
  scanning angles ...
  1 = max angles/atom
  reading velocities ...
  1944 velocities
  reading bonds ...
  1296 bonds
  reading angles ...
  648 angles
Finding 1-2 1-3 1-4 neighbors ...
  special bond factors lj:    0        0        0       
  special bond factors coul:  0        0        0       
     2 = max # of 1-2 neighbors
     1 = max # of 1-3 neighbors
     1 = max # of 1-4 neighbors
     2 = max # of special neighbors
  special bonds CPU = 0.000 seconds
  read_data CPU = 0.009 seconds
include 	in.setup
variable	out_freq equal 500
variable	out_freq2 equal 500

timestep	2.0

neigh_modify    delay 7 every 1

include		in.tip4p
# This is TIP4P/Ice

# create groups ###
group ox type 2
648 atoms in group ox
group hy type 1
1296 atoms in group hy

# set charges - beside manually ###
set group ox charge -1.1794
Setting atom values ...
  648 settings made for charge
set group hy charge 0.5897
Setting atom values ...
  1296 settings made for charge

# ### TIP3P Potential Parameters ###
pair_style lj/cut/tip4p/long 2 1 1 1 0.1577 8.5
pair_coeff 1 1*2 0.000 0.000
pair_coeff 2 2 0.21084 3.1668
bond_style  harmonic
bond_coeff  1 450 0.9572
angle_style harmonic
angle_coeff 1 55 104.52
kspace_style pppm/tip4p 1.0e-5
pair_modify tail yes

thermo          ${out_freq}
thermo          500
thermo_style 	custom step temp pe etotal epair emol press lx ly lz vol pxx pyy pzz pxy pxz pyz

restart 	${out_freq} restart.lmp.${pid} restart2.lmp.${pid}
restart 	500 restart.lmp.${pid} restart2.lmp.${pid}
restart 	500 restart.lmp.0 restart2.lmp.${pid}
restart 	500 restart.lmp.0 restart2.lmp.0


timer           timeout 23:30:00 every 1000
New timer settings: style=normal  mode=nosync  timeout=23:30:00

fix             1 all plumed plumedfile plumed.equil.dat outfile plumed.equil.out
fix 		2 all shake 1e-6 200 0 b 1 a 1
       0 = # of size 2 clusters
       0 = # of size 3 clusters
       0 = # of size 4 clusters
     648 = # of frozen angles
  find clusters CPU = 0.000 seconds
fix             3 all nph x ${pressure} ${pressure} ${pressureDamp}
fix             3 all nph x 1000 ${pressure} ${pressureDamp}
fix             3 all nph x 1000 1000 ${pressureDamp}
fix             3 all nph x 1000 1000 1000
fix             4 all temp/csvr ${temperature} ${temperature} ${tempDamp} ${seed}
fix             4 all temp/csvr 230 ${temperature} ${tempDamp} ${seed}
fix             4 all temp/csvr 230 230 ${tempDamp} ${seed}
fix             4 all temp/csvr 230 230 100 ${seed}
fix             4 all temp/csvr 230 230 100 745823
velocity 	all create ${temperature} ${seed} dist gaussian
velocity 	all create 230 ${seed} dist gaussian
velocity 	all create 230 745823 dist gaussian

run             5000 upto
PPPM initialization ...
  extracting TIP4P info from pair style
  using 12-bit tables for long-range coulomb (../kspace.cpp:340)
  G vector (1/distance) = 0.38082859
  grid = 50 40 50
  stencil order = 5
  estimated absolute RMS force accuracy = 0.0021234448
  estimated relative force accuracy = 6.3946908e-06
  using double precision FFTW3
  3d grid and FFT values/proc = 62118 26000
Last active /omp style is kspace_style pppm/tip4p/omp
Neighbor list info ...
  update every 1 steps, delay 7 steps, check yes
  max neighbors/atom: 2000, page size: 100000
  master list distance cutoff = 10.8154
  ghost atom cutoff = 10.8154
  binsize = 5.4077, bins = 15 6 4
  1 neighbor lists, perpetual/occasional/extra = 1 0 0
  (1) pair lj/cut/tip4p/long/omp, perpetual
      attributes: half, newton on, omp
      pair build: half/bin/newton/tri/omp
      stencil: half/bin/3d/tri
      bin: standard
Per MPI rank memory allocation (min/avg/max) = 19.96 | 20.03 | 20.09 Mbytes
Step Temp PotEng TotEng E_pair E_mol Press Lx Ly Lz Volume Pxx Pyy Pzz Pxy Pxz Pyz 
       0          230   -9209.5875   -8321.7532   -9209.5875            0    55765.299    48.231335    21.596001    16.455999    17140.634    58886.062    53603.164     54806.67    1847.1858    510.38116   -3947.9067 
     500    231.77246     -9162.89   -8268.2138     -9162.89            0   -287.27297    49.071623    21.596001    16.455999    17439.258   -127.96368    359.87069   -1093.7259   -364.22981   -1030.8614   -203.45943 
    1000    230.51679   -9206.4439   -8316.6148   -9206.6115            0    2895.6749    48.703063    21.596001    16.455999    17308.278    2702.1929    3244.1487    2740.6833    -57.23093   -547.60516    368.76279 
    1500    229.24997   -9178.6084   -8293.6693   -9178.6084            0    1180.9239    49.190021    21.596001    16.455999    17481.335   -160.50421    1433.9346    2269.3412    849.83827    5.8724218    921.46519 
    2000    223.58826   -9183.5964   -8320.5124   -9183.8144            0     3674.727    48.820472    21.596001    16.455999    17350.004    5241.2828    3166.4719    2616.4262   -359.14194   -524.03647    459.01673 
    2500    230.18206   -9191.6811    -8303.144   -9191.7593            0    2705.2174    49.161296    21.596001    16.455999    17471.127    2338.8234    3081.2696    2695.5591    566.49906    -824.2724    406.53044 
    3000     229.4314   -9227.2786   -8341.6392   -9227.2786            0    602.75928    49.173477    21.596001    16.455999    17475.456    568.91174    218.59368    1020.7724    223.56297   -381.97627    1100.7778 
    3500    234.54224   -9265.5335   -8360.1655   -9265.5335            0    858.37574    49.069872    21.596001    16.455999    17438.636    914.59153    1330.9457    329.58997    255.29186   -348.01376   -416.57564 
    4000    225.83125    -9232.106   -8360.3637    -9232.106            0    1098.2065    48.962504    21.596001    16.455999    17400.479    624.29061    1505.5827    1164.7463    744.03586   -799.01774    965.91483 
    4500    224.56734   -9203.7157   -8336.8523   -9203.7157            0    651.54322    48.994373    21.596001    16.455999    17411.805    521.08615    94.132467    1339.4111    280.85223    155.62006    278.40445 
    5000    232.67344   -9214.5431   -8316.3889   -9214.5431            0    1341.2637    49.088251    21.596001    16.455999    17445.168   -351.17521    1653.6613    2721.3049    134.87143    28.710165    125.27473 
Loop time of 71.3957 on 32 procs for 5000 steps with 1944 atoms

Performance: 12.102 ns/day, 1.983 hours/ns, 70.032 timesteps/s
775.0% CPU use with 4 MPI tasks x 8 OpenMP threads

MPI task timing breakdown:
Section |  min time  |  avg time  |  max time  |%varavg| %total
---------------------------------------------------------------
Pair    | 3.0592     | 3.1676     | 3.3012     |   5.7 |  4.44
Bond    | 0.091462   | 0.1725     | 0.2742     |  15.8 |  0.24
Kspace  | 21.747     | 21.935     | 22.041     |   2.5 | 30.72
Neigh   | 0.23315    | 0.24043    | 0.24614    |   1.1 |  0.34
Comm    | 1.507      | 1.7445     | 2.0271     |  15.7 |  2.44
Output  | 0.020437   | 0.020481   | 0.020593   |   0.0 |  0.03
Modify  | 42.408     | 43.037     | 43.65      |   8.7 | 60.28
Other   |            | 1.078      |            |       |  1.51

Nlocal:        486.000 ave         512 max         466 min
Histogram: 2 0 0 0 0 0 1 0 0 1
Nghost:        7640.25 ave        7750 max        7534 min
Histogram: 1 0 0 1 0 0 1 0 0 1
Neighs:        143696.0 ave      155005 max      134198 min
Histogram: 2 0 0 0 0 0 0 1 0 1

Total # of neighbors = 574783
Ave neighs/atom = 295.67027
Ave special neighs/atom = 2.0000000
Neighbor list builds = 249
Dangerous builds = 0
Total wall time: 0:01:11
