LAMMPS (30 Jul 2021)
Processor partition = 0
  using 32 OpenMP thread(s) per MPI task
package omp 0
using multi-threaded neighbor list subroutines
echo both

include		in.partitions
variable        pid world 0 1 2 3

include		in.temp
variable        temperature equal 230.0
variable	tempDamp equal 100.0
include		in.pressure
variable        pressure equal 1000.0
variable        pressureDamp equal 1000.0 # This is 1 ps
include		in.seed
variable        seed world 745823 746732 192377 12321


units		real
atom_style	full
include		in.box
box tilt large
read_data       water.data
Reading data file ...
  triclinic box = (0.0000000 0.0000000 0.0000000) to (48.231335 21.596001 16.455999) with tilt (-9.2337990 -18.467001 7.6068000)
  1 by 1 by 1 MPI processor grid
  reading atoms ...
  1944 atoms
  scanning bonds ...
  2 = max bonds/atom
  scanning angles ...
  1 = max angles/atom
  reading velocities ...
  1944 velocities
  reading bonds ...
  1296 bonds
  reading angles ...
  648 angles
Finding 1-2 1-3 1-4 neighbors ...
  special bond factors lj:    0        0        0       
  special bond factors coul:  0        0        0       
     2 = max # of 1-2 neighbors
     1 = max # of 1-3 neighbors
     1 = max # of 1-4 neighbors
     2 = max # of special neighbors
  special bonds CPU = 0.000 seconds
  read_data CPU = 0.011 seconds
include 	in.setup
variable	out_freq equal 500
variable	out_freq2 equal 500

timestep	2.0

neigh_modify    delay 7 every 1

include		in.tip4p
# This is TIP4P/Ice

# create groups ###
group ox type 2
648 atoms in group ox
group hy type 1
1296 atoms in group hy

# set charges - beside manually ###
set group ox charge -1.1794
Setting atom values ...
  648 settings made for charge
set group hy charge 0.5897
Setting atom values ...
  1296 settings made for charge

# ### TIP3P Potential Parameters ###
pair_style lj/cut/tip4p/long/omp 2 1 1 1 0.1577 8.5
pair_coeff 1 1*2 0.000 0.000
pair_coeff 2 2 0.21084 3.1668
bond_style  harmonic
bond_coeff  1 450 0.9572
angle_style harmonic
angle_coeff 1 55 104.52
kspace_style pppm/tip4p/omp 1.0e-5
pair_modify tail yes

thermo          ${out_freq}
thermo          500
thermo_style 	custom step temp pe etotal epair emol press lx ly lz vol pxx pyy pzz pxy pxz pyz

restart 	${out_freq} restart.lmp.${pid} restart2.lmp.${pid}
restart 	500 restart.lmp.${pid} restart2.lmp.${pid}
restart 	500 restart.lmp.0 restart2.lmp.${pid}
restart 	500 restart.lmp.0 restart2.lmp.0


timer           timeout 23:30:00 every 1000
New timer settings: style=normal  mode=nosync  timeout=23:30:00

fix             1 all plumed plumedfile plumed.equil.dat outfile plumed.equil.out
fix 		2 all shake 1e-6 200 0 b 1 a 1
       0 = # of size 2 clusters
       0 = # of size 3 clusters
       0 = # of size 4 clusters
     648 = # of frozen angles
  find clusters CPU = 0.000 seconds
fix             3 all nph x ${pressure} ${pressure} ${pressureDamp}
fix             3 all nph x 1000 ${pressure} ${pressureDamp}
fix             3 all nph x 1000 1000 ${pressureDamp}
fix             3 all nph x 1000 1000 1000
fix             4 all temp/csvr ${temperature} ${temperature} ${tempDamp} ${seed}
fix             4 all temp/csvr 230 ${temperature} ${tempDamp} ${seed}
fix             4 all temp/csvr 230 230 ${tempDamp} ${seed}
fix             4 all temp/csvr 230 230 100 ${seed}
fix             4 all temp/csvr 230 230 100 745823
velocity 	all create ${temperature} ${seed} dist gaussian
velocity 	all create 230 ${seed} dist gaussian
velocity 	all create 230 745823 dist gaussian

run             5000 upto
PPPM initialization ...
  extracting TIP4P info from pair style
  using 12-bit tables for long-range coulomb (../kspace.cpp:340)
  G vector (1/distance) = 0.38082859
  grid = 50 40 50
  stencil order = 5
  estimated absolute RMS force accuracy = 0.0021234448
  estimated relative force accuracy = 6.3946908e-06
  using double precision FFTW3
  3d grid and FFT values/proc = 182133 100000
Last active /omp style is kspace_style pppm/tip4p/omp
Neighbor list info ...
  update every 1 steps, delay 7 steps, check yes
  max neighbors/atom: 2000, page size: 100000
  master list distance cutoff = 10.8154
  ghost atom cutoff = 10.8154
  binsize = 5.4077, bins = 15 6 4
  1 neighbor lists, perpetual/occasional/extra = 1 0 0
  (1) pair lj/cut/tip4p/long/omp, perpetual
      attributes: half, newton on, omp
      pair build: half/bin/newton/tri/omp
      stencil: half/bin/3d/tri
      bin: standard
Per MPI rank memory allocation (min/avg/max) = 54.46 | 54.46 | 54.46 Mbytes
Step Temp PotEng TotEng E_pair E_mol Press Lx Ly Lz Volume Pxx Pyy Pzz Pxy Pxz Pyz 
       0          230   -9209.5875   -8321.7532   -9209.5875            0    55765.299    48.231335    21.596001    16.455999    17140.634    58886.062    53603.164     54806.67    1847.1858    510.38116   -3947.9067 
     500    231.77245   -9162.8899   -8268.2138   -9162.8899            0   -287.27626    49.071623    21.596001    16.455999    17439.258   -127.97058    359.87233   -1093.7305   -364.23116   -1030.8613    -203.4593 
    1000    230.48909   -9206.3036   -8316.5814   -9206.4766            0    2975.3455    48.702636    21.596001    16.455999    17308.127    2778.5546    3329.3104    2818.1716   -55.597194   -547.06453     374.7558 
    1500    229.50581    -9175.011   -8289.0844    -9175.011            0    1199.5368    49.149937    21.596001    16.455999     17467.09   -519.24908     1947.868    2169.9916    859.80033   -113.21959     663.3411 
    2000    239.03638   -9240.0795   -8317.3635   -9240.0795            0    456.17116     49.25175    21.596001    16.455999    17503.273    791.70087     527.1751    49.637496   -555.82428   -103.07409   -243.84665 
    2500     231.7433   -9199.4977    -8304.934   -9199.4977            0    2185.8502    48.854887    21.596001    16.455999    17362.234    1043.5987    2138.9448     3375.007    59.967927    493.28773    515.65665 
    3000    231.02692   -9228.5369   -8336.7385   -9228.5369            0    959.11807    49.177021    21.596001    16.455999    17476.715     847.5906    1210.7244     819.0392     156.6037   -719.89683    100.20638 
    3500    228.92681   -9233.4235   -8349.7319   -9233.4235            0    780.69158    48.957267    21.596001    16.455999    17398.618    395.55553    677.25262    1269.2666    199.24294     156.2461    777.60205 
    4000    230.54312   -9248.8787   -8358.9479   -9248.8787            0    1712.0052    48.932135    21.596001    16.455999    17389.687    1568.1838    1912.5929    1655.2389    111.51581   -612.73212    588.37678 
    4500    226.69957   -9204.9382   -8329.8441   -9204.9382            0    1480.3347    49.101832    21.596001    16.455999    17449.994    1075.9414    1324.2193    2040.8435   -164.84291   -457.50429    985.55078 
    5000    230.06475   -9197.9695   -8309.8853   -9197.9695            0    642.30733    49.359348    21.596001    16.455999    17541.511    496.90403     195.4887    1234.5293    -191.7233    188.48546   -55.688039 
Loop time of 174.542 on 32 procs for 5000 steps with 1944 atoms

Performance: 4.950 ns/day, 4.848 hours/ns, 28.646 timesteps/s
2178.4% CPU use with 1 MPI tasks x 32 OpenMP threads

MPI task timing breakdown:
Section |  min time  |  avg time  |  max time  |%varavg| %total
---------------------------------------------------------------
Pair    | 5.8673     | 5.8673     | 5.8673     |   0.0 |  3.36
Bond    | 0.3592     | 0.3592     | 0.3592     |   0.0 |  0.21
Kspace  | 65.91      | 65.91      | 65.91      |   0.0 | 37.76
Neigh   | 0.29956    | 0.29956    | 0.29956    |   0.0 |  0.17
Comm    | 1.5483     | 1.5483     | 1.5483     |   0.0 |  0.89
Output  | 0.02779    | 0.02779    | 0.02779    |   0.0 |  0.02
Modify  | 99.996     | 99.996     | 99.996     |   0.0 | 57.29
Other   |            | 0.5348     |            |       |  0.31

Nlocal:        1944.00 ave        1944 max        1944 min
Histogram: 1 0 0 0 0 0 0 0 0 0
Nghost:        13523.0 ave       13523 max       13523 min
Histogram: 1 0 0 0 0 0 0 0 0 0
Neighs:        571998.0 ave      571998 max      571998 min
Histogram: 1 0 0 0 0 0 0 0 0 0

Total # of neighbors = 571998
Ave neighs/atom = 294.23765
Ave special neighs/atom = 2.0000000
Neighbor list builds = 242
Dangerous builds = 0
Total wall time: 0:02:54
