#include		in.partitions
include		in.temp
variable        temperature equal 264.07
variable	tempDamp equal 100.0
include		in.pressure
variable        pressure equal 5125.0
variable        pressureDamp equal 1000.0 # This is 1 ps
include		in.seed
variable        seed equal 745823

units		real
atom_style	full
read_restart	restart.lmp.${pid}
read_restart	restart.lmp.1
Reading restart file ...
  restart file = 30 Jul 2021, LAMMPS = 30 Jul 2021
  restoring atom style full from restart
  orthogonal box = (0.47065067 1.6458956 0.57419272) to (17.736922 21.983282 21.639003)
  2 by 4 by 4 MPI processor grid
  restoring pair style lj/cut/tip4p/long/omp from restart
  restoring bond style harmonic/omp from restart
  restoring angle style harmonic/omp from restart
  864 atoms
  576 bonds
  288 angles
Finding 1-2 1-3 1-4 neighbors ...
  special bond factors lj:    0        0        0       
  special bond factors coul:  0        0        0       
     2 = max # of 1-2 neighbors
     1 = max # of 1-3 neighbors
     1 = max # of 1-4 neighbors
     2 = max # of special neighbors
  special bonds CPU = 0.002 seconds
  read_restart CPU = 0.008 seconds
include 	in.setup
variable	out_freq equal 1000
variable	out_freq2 equal 10000
variable	out_freq3 equal 1000

timestep	2.0

neigh_modify    delay 7 every 1

include		in.tip4p
# This is TIP4P/Ice

# create groups ###
group ox type 2
288 atoms in group ox
group hy type 1
576 atoms in group hy

# set charges - beside manually ###
set group ox charge -1.1794
Setting atom values ...
  288 settings made for charge
set group hy charge 0.5897
Setting atom values ...
  576 settings made for charge

# ### TIP3P Potential Parameters ###
pair_style lj/cut/tip4p/long/omp 2 1 1 1 0.1577 8.5
pair_coeff 1 1*2 0.000 0.000
pair_coeff 2 2 0.21084 3.1668
bond_style  harmonic
bond_coeff  1 450 0.9572
angle_style harmonic
angle_coeff 1 55 104.52
kspace_style pppm/tip4p/omp 1.0e-5
pair_modify tail yes

thermo          ${out_freq}
thermo          1000
thermo_style    custom step temp pe etotal epair emol press lx ly lz vol pxx pyy pzz pxy pxz pyz enthalpy

restart 	${out_freq3} restart.lmp.${pid} restart2.lmp.${pid}
restart 	1000 restart.lmp.${pid} restart2.lmp.${pid}
restart 	1000 restart.lmp.1 restart2.lmp.${pid}
restart 	1000 restart.lmp.1 restart2.lmp.1


include         in.dump
dump            myDump all atom ${out_freq2} dump.water.${pid}
dump            myDump all atom 10000 dump.water.${pid}
dump            myDump all atom 10000 dump.water.1
dump            myDump2 all dcd ${out_freq2} dump.dcd
dump            myDump2 all dcd 10000 dump.dcd
dump_modify     myDump append yes
dump_modify     myDump2 append yes


variable natoms 	equal  "count(all)"                        # NUMBER ATOMS
variable H      	equal  "enthalpy/v_natoms"                 # ENTHALPY-per-atom
variable Vol      	equal  "vol/v_natoms"                 # volume-per-atom
fix AVG all 		ave/time ${out_freq} 1 ${out_freq} v_Vol v_H file vol_enthalpy.dat
fix AVG all 		ave/time 1000 1 ${out_freq} v_Vol v_H file vol_enthalpy.dat
fix AVG all 		ave/time 1000 1 1000 v_Vol v_H file vol_enthalpy.dat


timer           timeout 23:50:00 every 1000
New timer settings: style=normal  mode=nosync  timeout=23:50:00

fix 		1 all shake 1e-6 200 0 b 1 a 1
       0 = # of size 2 clusters
       0 = # of size 3 clusters
       0 = # of size 4 clusters
     288 = # of frozen angles
  find clusters CPU = 0.001 seconds
fix             2 all nph iso ${pressure} ${pressure} ${pressureDamp}
fix             2 all nph iso 5125 ${pressure} ${pressureDamp}
fix             2 all nph iso 5125 5125 ${pressureDamp}
fix             2 all nph iso 5125 5125 1000
fix             3 all temp/csvr ${temperature} ${temperature} ${tempDamp} ${seed}
fix             3 all temp/csvr 264.07 ${temperature} ${tempDamp} ${seed}
fix             3 all temp/csvr 264.07 264.07 ${tempDamp} ${seed}
fix             3 all temp/csvr 264.07 264.07 100 ${seed}
fix             3 all temp/csvr 264.07 264.07 100 745823

run             250000
PPPM initialization ...
  extracting TIP4P info from pair style
  using 12-bit tables for long-range coulomb (../kspace.cpp:340)
  G vector (1/distance) = 0.37442008
  grid = 24 24 25
  stencil order = 5
  estimated absolute RMS force accuracy = 0.0030543544
  estimated relative force accuracy = 9.1980975e-06
  using double precision FFTW3
  3d grid and FFT values/proc = 3822 576
Last active /omp style is kspace_style pppm/tip4p/omp
Neighbor list info ...
  update every 1 steps, delay 7 steps, check yes
  max neighbors/atom: 2000, page size: 100000
  master list distance cutoff = 10.8154
  ghost atom cutoff = 10.8154
  binsize = 5.4077, bins = 4 4 4
  1 neighbor lists, perpetual/occasional/extra = 1 0 0
  (1) pair lj/cut/tip4p/long/omp, perpetual
      attributes: half, newton on, omp
      pair build: half/bin/newton/omp
      stencil: half/bin/3d
      bin: standard
Per MPI rank memory allocation (min/avg/max) = 10.20 | 10.21 | 10.22 Mbytes
Step Temp PotEng TotEng E_pair E_mol Press Lx Ly Lz Volume Pxx Pyy Pzz Pxy Pxz Pyz Enthalpy 
12750000    275.35365   -3817.8316   -3345.8849   -3817.8316            0    4442.0094    17.266271    20.337387     21.06481    7396.9256    5639.6492    3448.5478    4237.8311    226.87601    1229.2384    397.82015   -2866.6961 
12751000     271.7103   -3833.6761    -3367.974   -3833.6761            0    5152.6608    17.183066    20.239382      20.9633    7290.5039    6836.3091    4174.2252     4447.448   -1336.6591    65.081357    709.26013   -2820.1198 
12752000    265.32624   -3837.1515   -3382.3914   -3837.1515            0    4667.9579    17.241632    20.308364     21.03475    7365.3038    5233.2245    5230.3951    3540.2541   -1251.6357    1211.7602   -623.24413   -2880.9808 
12753000    263.09519    -3848.296   -3397.3598    -3848.296            0    4856.7796    17.322319    20.403404    21.133189    7469.1932    5870.9332    5295.1299    3404.2759    307.85166    146.00926    137.96294   -2868.3083 
12754000    247.94228   -3876.3291   -3451.3645   -3876.3291            0    5220.2887    17.305418    20.383496    21.112569    7447.3514     5392.587     6743.658     3524.621    217.61018    -234.7975    1779.5941   -2884.3786 
12755000    267.75424   -3831.7037   -3372.7821   -3831.7037            0    4889.7499    17.257113      20.3266    21.053637    7385.1617    2980.0822     5581.399    6107.7684   -751.58325    466.45925    1135.3635   -2846.1315 
12756000    271.09791   -3822.8822   -3358.2297   -3822.8822            0    6918.1691    17.226485    20.290524    21.016272    7345.9102    6116.4839    9001.2418    5636.7818    158.23475   -252.38994   -1117.7109   -2617.0685 
12757000    256.73105   -3801.9083   -3361.8801   -3801.9083            0    6608.4478    17.204596    20.264741    20.989567    7317.9428    8609.5022    5314.9907    5900.8505    131.17816   -206.09259   -138.67858   -2656.5955 
12758000    276.88872   -3852.5387   -3377.9609   -3852.5387            0     3679.265    17.243101    20.310095    21.036543    7367.1871    5174.2459    2822.8185    3040.7307    142.73548   -15.896325   -138.25436   -2982.6501 
12759000    278.65652   -3834.7024   -3357.0946   -3834.7024            0    5429.2634    17.222986    20.286403    21.012003    7341.4347    6080.2683    4698.0107    5509.5112    269.69152   -182.38498    -1454.034   -2775.7981 
12760000    259.74142   -3832.4176   -3387.2296   -3832.4176            0    5060.6182    17.300982    20.378272    21.107158    7441.6264    4543.1507    5961.2981    4677.4058    1568.4304   -358.13292   -1615.4769   -2838.0084 
12761000    268.75389   -3855.7327   -3395.0977   -3855.7327            0    6188.6528     17.09337    20.133733    20.853872    7176.9299    4957.7925    5454.9773    8153.1885    74.938906   -876.60867   -1493.2832   -2747.3428 
12762000    273.80386   -3820.3746   -3351.0841   -3820.3746            0    5916.1188    17.259847    20.329819    21.056972    7388.6719    5439.6222    6138.3612    6170.3729   -1082.1972   -283.57725    190.38261   -2713.5856 
12763000    275.92893   -3821.4912   -3348.5585   -3821.4912            0     6034.684    17.187995    20.245187    20.969313    7296.7796    4943.0008    6062.6401    7098.4111    240.54137   -304.71908   -1148.5928   -2706.3713 
12764000    271.76987   -3879.5522   -3413.7479   -3879.5522            0    4207.3678    17.235517    20.301162     21.02729    7357.4701    3027.5798    4463.1891    5131.3346    928.87763    1216.5412    381.30572   -2962.2925 
12765000     264.9737   -3874.6956   -3420.5397   -3874.6956            0    6258.6466    17.253326    20.322139    21.049017    7380.3009    4463.7737    7708.1636    6604.0023    82.891258   -627.12291    561.18581   -2746.8958 
12766000    255.64239   -3835.1807   -3397.0184   -3835.1807            0    6821.2774    17.225584    20.289463    21.015172    7344.7573    6245.1609     7084.666    7134.0054    1576.4981    77.077595   -1102.4886   -2666.3521 
12767000    255.89192   -3814.4406   -3375.8506   -3814.4406            0    6264.0373    17.219952    20.282829    21.008301    7337.5555    6674.7299    5977.0355    6140.3466   -134.46437    45.139492    240.96501   -2705.5314 
12768000    243.38066   -3847.8568   -3430.7107   -3847.8568            0    4177.5871    17.338766    20.422776    21.153254    7490.4888    2653.9671     4224.218    5654.5762   -336.63351       500.04   -1186.2472   -2974.3465 
12769000    260.08892   -3835.9456   -3390.1621   -3835.9456            0    5139.3998    17.275847    20.348666    21.076493      7409.24    5271.2903    4017.7519    6129.1572   -728.80246   -565.91288   -845.67306   -2834.8183 
12770000    252.97576   -3876.5791   -3442.9873   -3876.5791            0     4014.361    17.275061     20.34774    21.075534    7408.2284     4266.635    4841.1378    2935.3103    393.52853    1383.1222   -846.18746   -3009.2701 
12771000    253.50297   -3870.0469   -3435.5515   -3870.0469            0    6489.0058    17.311393    20.390534    21.119858    7455.0678    7529.7056    6476.5818    5460.7301   -622.88909   -140.37054    232.39172   -2730.0374 
12772000    270.30814   -3864.1031   -3400.8043   -3864.1031            0    5908.7296     17.27465    20.347255    21.075032    7407.6991    5983.9255    4238.8933    7503.3701    215.78709     579.8665   -161.45164   -2762.4624 
12773000    252.95708   -3856.5558    -3422.996   -3856.5558            0    5357.2718    17.257947    20.327581    21.054654     7386.232    5092.9264    4071.2289    6907.6599   -356.28764    1615.3926   -291.49061   -2845.9074 
12774000     278.5758   -3828.4471   -3350.9777   -3828.4471            0    4424.9182    17.371642    20.461499    21.193362    7533.1772    3299.1043    4465.7401      5509.91    1033.1318    79.511386    875.85582     -2864.84 
12775000    270.35489   -3824.9312   -3361.5522   -3824.9312            0    4618.8557    17.286901    20.361686    21.089979    7423.4714    3998.5093     4977.645    4880.4128   -916.90018   -580.72467    291.17426   -2861.4977 
12776000    274.25298   -3843.4837   -3373.4234   -3843.4837            0    3952.7902    17.260268    20.330316    21.057487    7389.2135    2890.7014    3764.6971    5202.9721   -888.76483    132.14141   -303.25483   -2947.4545 
12777000     280.0011   -3859.7349   -3379.8226   -3859.7349            0    6356.6445    17.181607    20.237664    20.961521    7288.6478    7027.6338    6622.2491    5420.0506    21.821038   -40.083295    672.92422   -2704.1275 
12778000    262.94277   -3892.6912   -3442.0163   -3892.6912            0    3964.3287    17.336976    20.420668     21.15107    7488.1691    5365.7874    1908.3992    4618.7994    978.34818    532.83529    934.89847   -3009.0828 
12779000    245.30625   -3869.0357   -3448.5892   -3869.0357            0    4653.6816    17.354824    20.441691    21.172845    7511.3199    4525.3428    5369.9654    4065.7366    755.95289    638.96053     219.7991   -2938.8022 
12780000    279.43928   -3866.0441   -3387.0948   -3866.0441            0    3806.1836    17.239211    20.305513    21.031797    7362.2023    2774.1213    4330.2143    4314.2154    -1568.431   -778.87771    602.25136   -2978.4242 
12781000    274.82967    -3838.174   -3367.1253    -3838.174            0    3624.4019    17.313283     20.39276    21.122165    7457.5104    3091.7257    4359.9811     3421.499    148.70157    182.70961    393.28985   -2972.9349 
12782000    274.66316    -3877.991   -3407.2277    -3877.991            0    5196.0158     17.33683    20.420496    21.150892    7487.9796    4290.8876    6030.7936    5266.3662   -952.78801    89.341581    924.79945   -2839.7994 
12783000    276.65071   -3899.7832   -3425.6134   -3899.7832            0    5113.3113    17.284252    20.358566    21.086747    7420.0593    3911.3961     6004.694    5423.8437   -176.22278   -1353.6009     242.6039   -2872.2817 
12784000    253.97274   -3885.6163   -3450.3157   -3885.6163            0    5950.9194    17.256008    20.325299     21.05229    7383.7439    5634.3574    7367.8744    4850.5265   -272.08475   -647.19584    892.48894    -2809.495 
12785000    258.16311   -3912.0423   -3469.5596   -3912.0423            0    4577.7222    17.267084    20.338344    21.065802    7397.9705    4575.6698    6004.7466    3152.7502    349.40958   -553.78247   -435.91748   -2975.6609 
12786000    263.69658   -3883.3018   -3431.3349   -3883.3018            0    5369.2024    17.282992    20.357081     21.08521     7418.436    5462.9746    5645.0119    4999.6206    1213.6803    1018.9046   -761.05488   -2850.4394 
12787000    265.17142   -3849.5599   -3395.0651   -3849.5599            0    8132.7625    17.218239    20.280811    21.006211    7335.3654    9406.4146    6373.8305    8618.0425   -682.28176    212.57145   -1933.4172   -2525.0321 
12788000    273.17353    -3877.317   -3409.1069    -3877.317            0     5604.082    17.255192    20.324337    21.051294    7382.6956    7104.1909    6403.6298    3304.4253    340.47687   -999.45902    613.09308   -2805.7208 
12789000    271.87821   -3886.9579    -3420.968   -3886.9579            0    3672.2036    17.281304    20.355093     21.08315    7416.2626    3276.9805     3721.117    4018.5133   -1334.3303     373.5763   -1166.5885   -3023.7876 
12790000    263.09793   -3880.2834   -3429.3425   -3880.2834            0    4390.3195    17.287128    20.361953    21.090256    7423.7633    4150.5278    4213.0121    4807.4187   -276.55804   -787.86977    527.61613   -2954.0115 
12791000    261.67132   -3877.0168   -3428.5211   -3877.0168            0    4667.7251    17.313454    20.392962    21.122373    7457.7313    2758.7555    6356.8871    4887.5326   -57.610359    795.58552   -1153.2012   -2920.8436 
12792000    266.86612   -3896.8684   -3439.4691   -3896.8684            0    4542.7583    17.261491    20.331757    21.058979    7390.7844    4720.2674    4492.9906     4415.017    2637.9836    -943.0132    890.86742   -2949.8187 
12793000    266.55887   -3841.7569   -3384.8842   -3841.7569            0    3306.3201    17.366846    20.455851    21.187512    7526.9405    1323.7819    4216.1218    4379.0566   -1066.7553   -1227.2254    1546.1258   -3021.9404 
12794000    280.02399   -3866.3922   -3386.4407   -3866.3922            0    5681.1515    17.272477    20.344696    21.072381    7404.9043     7485.539    4025.5955      5532.32   -584.69215   -106.90891   -851.07386   -2772.9165 
12795000    253.98635   -3870.9248   -3435.6009   -3870.9248            0    4995.7237    17.288661    20.363759    21.092126    7425.7383    5566.0006    4315.4555     5105.715   -1438.6024   -215.72212   -351.41781   -2894.5801 
12796000     271.6265   -3865.7885   -3400.2299   -3865.7885            0    5484.9987    17.273153    20.345493    21.073206    7405.7738    4701.3635     5568.935    6184.6975   -837.33258   -1168.2726    1104.5332   -2807.8193 
12797000    264.39019   -3885.1918   -3432.0361   -3885.1918            0    6689.6926    17.268225    20.339688    21.067194    7399.4373    7938.1899    5654.8016    6476.0863   -9.4397529    1395.6442    77.968732   -2710.1299 
12798000    266.88456   -3863.7143   -3406.2833   -3863.7143            0    5764.0227    17.220508    20.283484     21.00898    7338.2664    5873.2901    4767.4902    6651.2879    953.88668   -745.97019    1229.2327   -2789.4113 
12799000    271.53788   -3872.7313   -3407.3247   -3872.7313            0    4314.3375    17.278795    20.352138     21.08009    7413.0335    3989.1217    4112.5358    4841.3549    821.41538   -1407.2118    1135.5713   -2940.8953 
12800000    264.24419   -3892.1263   -3439.2208   -3892.1263            0    4763.3119    17.280455    20.354094    21.082115    7415.1704    5024.5847    3911.4766    5353.8745   -244.28597    -575.1587   -908.82388   -2924.1036 
12801000    273.93186   -3880.4266   -3410.9167   -3880.4266            0    5638.8658    17.293062    20.368943    21.097496    7431.4114    6515.1827    6272.8717    4128.5429    -450.0112    603.71992   -332.59432   -2799.7792 
12802000    267.32383   -3897.8178   -3439.6339   -3897.8178            0    4293.2253    17.292687    20.368501    21.097038    7430.9276    4759.8393    4924.7668    3195.0698   -1092.3611    634.02407    778.70417   -2974.3665 
12803000    266.30676   -3904.0917    -3447.651   -3904.0917            0     5937.461    17.304351     20.38224    21.111268    7445.9747    3860.4751    8255.1445    5696.7634     115.4848    69.603098    1518.9414   -2802.8908 
12804000    272.76346   -3867.5034   -3399.9962   -3867.5034            0    4487.4491    17.323617    20.404933    21.134773    7470.8725    4008.5347    6044.9153    3408.8974   -302.18736    729.06053    529.75441   -2911.0661 
12805000    254.29679   -3870.9145   -3435.0585   -3870.9145            0    7313.5422    17.260464    20.330547    21.057726    7389.4649    5914.5035    7979.3004    8046.8227   -680.56401    1370.2879    1266.2336   -2646.8944 
12806000    277.47025   -3866.0883   -3390.5138   -3866.0883            0      4667.82    17.327725    20.409771    21.139784    7476.1882    4058.9039    3507.8044    6436.7517   -724.76823    1070.6206   -619.79189   -2881.5696 
12807000    266.78762   -3845.5216   -3388.2568   -3845.5216            0    5734.8607    17.325056    20.406627    21.136527    7472.7336    6840.6343    4004.3416    6359.6061   -336.27718    -927.2479    -103.5469   -2763.2593 
12808000    261.76605   -3839.6681   -3391.0101   -3839.6681            0    5179.3275    17.309146    20.387888    21.117118     7452.166    5140.4171    4841.0645     5556.501    666.25633    501.39328   -971.94921   -2828.1094 
12809000    268.51987   -3856.0176   -3395.7837   -3856.0176            0    6660.7615    17.282044    20.355965    21.084054    7417.2159    5675.1586    6385.2574    7921.8685    1032.2781    6.8791074    773.97035   -2675.2726 
12810000    243.59606    -3883.758   -3466.2426    -3883.758            0    4270.0274    17.352261    20.438671    21.169718    7507.9919    3735.3386    3503.7779    5570.9658    1030.0445    117.34088   -682.97251   -2998.6902 
12811000    247.08189   -3846.3405   -3422.8506   -3846.3405            0    4750.6774    17.326388    20.408196    21.138153    7474.4576    6166.6441    4986.0434    3099.3447    75.890657   -370.91142   -1519.6182   -2904.9921 
12812000    268.08147   -3851.8085   -3392.3261   -3851.8085            0    4585.0737    17.313405    20.392905    21.122314    7457.6686    2788.4121    6089.1139    4877.6952   -550.20099    51.037001   -566.58379   -2893.6422 
12813000    267.59405   -3824.6584   -3366.0113   -3824.6584            0    6913.6177    17.210667    20.271893    20.996974    7325.6933    7969.1248    5984.3898    6787.3386   -33.556091   -986.54529    974.99044   -2627.3762 
12814000    253.47352   -3825.2872   -3390.8423   -3825.2872            0     3790.866    17.208066    20.268828      20.9938    7322.3714    4708.2523    4683.2841    1981.0615    95.611784   -247.39579     857.1073   -2986.0185 
12815000    247.63705   -3863.1377   -3438.6963   -3863.1377            0    5598.5283     17.23056    20.295324    21.021243    7351.1243    7025.9617    4909.8074    4859.8157    928.19526    266.84313    402.83621   -2838.4859 
12816000    285.78192   -3856.1153   -3366.2949   -3856.1153            0    5219.2774     17.20496    20.265171    20.990011    7318.4079    4166.0593    3187.2939    8304.4789     252.5154    1132.5525    1322.4663   -2809.2338 
12817000    260.85314   -3881.3062   -3434.2128   -3881.3062            0    4459.8237    17.224506    20.288193    21.013857    7343.3788    4385.1768     4180.505    4813.7895    947.58252    245.22416   -803.60659   -2956.5851 
12818000    262.52612   -3843.5683   -3393.6076   -3843.5683            0    5893.4404    17.193661    20.251862    20.976227    7303.9988    5676.0791    7584.9593    4419.2828    1052.7731   -78.466169    344.49823   -2765.8304 
12819000    243.19551   -3844.0218   -3427.1931   -3844.0218            0    3454.1781    17.368889    20.458257    21.190004    7529.5962    1069.3065    5698.5648    3594.6629    727.74371    357.38261   -373.09829   -3047.8848 
12820000    260.25522   -3848.1888   -3402.1203   -3848.1888            0    4925.9443    17.274344    20.346896     21.07466    7407.3062    5153.3638    4137.0596    5487.4096    13.663877   -371.05485    472.43463   -2869.9805 
12821000    262.28413   -3856.0721   -3406.5261   -3856.0721            0    5160.7865    17.257298    20.326817    21.053863    7385.3988    5139.8548    5358.4183    4984.0866   -891.62258    163.71235   -308.91104   -2850.6657 
12822000    290.57602   -3840.1455   -3342.1081   -3840.1455            0    5591.1524    17.279702    20.353207    21.081196    7414.2011    5807.5179    5210.0984    5755.8409    684.83581   -88.062544    299.00099   -2737.5451 
12823000    255.37611   -3889.7207   -3452.0148   -3889.7207            0    5200.8867    17.299842    20.376929    21.105767    7440.1551    4124.9546    7599.1281    3878.5774   -408.14445    397.00783   -970.80712    -2887.682 
12824000    270.83454   -3849.4897   -3385.2886   -3849.4897            0    4333.2478    17.338111    20.422004    21.152455    7489.6396     5471.848    5736.2477    1791.6479    318.99272    1061.7287   -226.15231   -2911.9735 
12825000    259.90057    -3847.264   -3401.8034    -3847.264            0    6692.4898    17.247021    20.314713    21.041326    7372.2134    4740.1097    8061.1901    7276.1697    626.43942    -228.0015    646.79846   -2682.2525 
12826000    254.44014   -3861.7063   -3425.6046   -3861.7063            0    4661.6494    17.357872    20.445281    21.176564     7515.278    3572.7916    6325.9646     4086.192   -1372.7965    931.46545    -378.5426   -2914.6757 
12827000    263.95923    -3906.105   -3453.6879    -3906.105            0    4892.9792    17.320221    20.400932    21.130629    7466.4792    6374.3773    4631.2494     3673.311    60.331213    185.98377    538.12641   -2920.8868 
12828000    280.23865   -3847.1183   -3366.7988   -3847.1183            0    3648.4541    17.328017    20.410115     21.14014    7476.5662    3996.8069    3299.9696     3648.586    1191.5272   -574.26153    420.70362   -2968.9785 
12829000     252.7356   -3870.2534   -3437.0732   -3870.2534            0    4744.5933    17.228096    20.292422    21.018237    7347.9715    2935.9502    5558.1592    5739.6703    51.342083    -1088.829    533.51095   -2928.6301 
12830000    272.23913   -3836.0333   -3369.4247   -3836.0333            0    4189.7808    17.339044    20.423103    21.153593    7490.8485    3821.4008    5004.5399    3743.4016     246.8567    1153.1347    -127.2634   -2911.7065 
12831000    270.01589   -3871.4356   -3408.6376   -3871.4356            0    6008.1498    17.271233    20.343231    21.070864    7403.3045    5914.3411    7375.7542    4734.3542    -653.1788   -364.28178   -237.47891   -2759.9401 
12832000    250.15397   -3873.4862   -3444.7309   -3873.4862            0    4324.8761     17.23154    20.296478    21.022438    7352.3786    5219.7586    4086.1087    3668.7611    1405.2393    732.59042   -1335.0448   -2980.9878 
12833000    255.18281   -3878.1384   -3440.7638   -3878.1384            0    4007.0654    17.264323    20.335092    21.062433    7394.4217    4937.0537    3362.5133    3721.6291   -251.69224    -432.5297    187.70883   -3008.6416 
12834000    267.79478    -3816.356   -3357.3649    -3816.356            0    5531.9148    17.112582    20.156361     20.87731    7201.1562     6611.792    4009.1209    5974.8315     506.0278   -1137.8023   -185.83022   -2776.3951 
12835000    262.69682   -3864.8375   -3414.5842   -3864.8375            0    3357.2681    17.231386    20.296297    21.022251    7352.1816    3130.8902    4162.2199    2778.6944   -432.86489   -689.38496   -1613.8717   -3054.6044 
12836000    273.38414    -3862.358   -3393.7869    -3862.358            0    5340.5952    17.236881    20.302769    21.028954    7359.2174     5760.947    4610.3002    5650.5383   -1586.8606   -1337.7832   -1711.7253   -2820.5988 
12837000    267.58612   -3872.4062   -3413.7727   -3872.4062            0     6760.385    17.157135    20.208838    20.931664    7257.5473    5462.3702     6230.492    8588.2929    347.82349   -1180.1923   -117.26161   -2698.2273 
12838000    271.31084   -3840.4556   -3375.4382   -3840.4556            0    5239.0997    17.226619    20.290682    21.016435    7346.0818    6550.6086    4426.2815    4740.4089    1098.0733   -1642.9288   -1303.1436   -2814.1469 
12839000    257.28276   -3902.8702   -3461.8964   -3902.8702            0    6668.0279    17.203979    20.264015    20.988814     7317.156    6533.8306     7203.296    6266.9571   -71.448407     252.7343   -118.89252   -2750.3297 
12840000    259.14253   -3834.9032   -3390.7417   -3834.9032            0     5203.242    17.232315     20.29739    21.023384    7353.3703    5953.2813    4997.3293    4659.1156    -1202.198    1117.7522    281.67217    -2832.739 
12841000    249.31231   -3856.1297    -3428.817   -3856.1297            0    5067.1629    17.186418     20.24333     20.96739    7294.7718    5144.1277     4746.868     5310.493  -0.99398024   -778.41691   -1152.0874   -2889.7379 
12842000    278.43191   -3865.4635   -3388.2407   -3865.4635            0    6316.8323    17.156182    20.207716    20.930502    7256.3386     7292.094    6033.4426    5624.9602    367.86838    1232.4678   -1879.8858    -2719.754 
12843000    264.51003   -3875.7677   -3422.4066   -3875.7677            0    7175.9992    17.258516    20.328252    21.055349    7386.9631    7630.5061    8371.4609    5526.0307    1117.2684   -456.28774    399.93332    -2649.327 
12844000     264.1163   -3874.9947   -3422.3084   -3874.9947            0    5470.9972    17.242595    20.309499    21.035925    7366.5383    6118.9829     7421.292    2872.7167   -193.32411    -826.0994   -576.49551   -2834.5405 
12845000    258.03782    -3890.619    -3448.351    -3890.619            0    5540.1007    17.267519    20.338856    21.066333    7398.5295    4747.6946    5492.3183    6380.2892   -701.58425    367.95217    333.79951   -2850.5743 
12846000    275.23292   -3861.3528    -3389.613   -3861.3528            0    7569.2146    17.206806    20.267344    20.992263    7320.7629    8275.5828    7744.1103    6687.9507   -876.43522    103.65113   -325.56875   -2581.4797 
12847000    274.31438   -3860.6852   -3390.5198   -3860.6852            0    4818.0546    17.283809    20.358044    21.086207     7419.489    5782.6365     5277.858    3393.6693    -400.7406    1848.2547   -879.82949   -2869.1791 
12848000    249.16353   -3874.4434   -3447.3856   -3874.4434            0    5927.1431    17.267251    20.338541    21.066006    7398.1856    4967.1606    6960.6326     5853.636    1081.1198   -114.44994   -790.83419   -2807.8768 
12849000    272.59965   -3880.8479   -3413.6214   -3880.8479            0    5434.6269    17.166895    20.220334    20.943571    7269.9399    5535.3073    5640.3443    5128.2292   -1166.4895   -545.54946   -73.554076   -2837.4172 
12850000    246.40572   -3869.2388   -3446.9078   -3869.2388            0     5059.028    17.225599     20.28948     21.01519    7344.7762    4800.5369    5208.2837    5168.2633    1413.5535    627.98284   -555.57912   -2905.0049 
12851000    262.71505   -3892.3712   -3442.0865   -3892.3712            0    6194.2859    17.151714    20.202454    20.925051    7250.6708    5861.0917    6421.7246    6300.0414    305.97473   -138.11718    630.87651   -2787.0805 
12852000    284.26635   -3879.3535   -3392.1307   -3879.3535            0    5618.3886    17.266621    20.337799    21.065237    7397.3752    4923.6437    6268.2831     5663.239    914.57241   -389.59234   -929.29612   -2786.0014 
12853000    261.15101   -3841.4883   -3393.8844   -3841.4883            0    4747.5325    17.311796    20.391009    21.120351     7455.589    4055.5522    4808.8577    5378.1876   -687.37586   -367.16887    881.33076   -2877.6752 
12854000     251.4504   -3845.0567   -3414.0793   -3845.0567            0    5349.9673    17.303736    20.381515    21.110517    7445.1802     3807.136    6177.6229    6065.1429    1502.1878    1016.6079    115.87015   -2833.1781 
12855000    286.58401   -3896.0102   -3404.8151   -3896.0102            0     3820.305    17.320674    20.401467    21.131182    7467.0658    2729.5072    4651.1501    4080.2578    414.13821   -472.86722   -246.66948   -2988.7858 
12856000    257.61432   -3907.1325   -3465.5904   -3907.1325            0    5719.7388    17.286552    20.361275    21.089553    7423.0214    5685.2572    5923.1769    5550.7823    262.02967   -347.35978   -761.35465   -2846.3877 
12857000    258.69809   -3879.1793   -3435.7797   -3879.1793            0    5414.9233     17.32422    20.405643    21.135508     7471.653    6655.7484    4054.4269    5534.5945    265.06343    1163.0747   -335.78238    -2845.735 
12858000     250.6557   -3831.8514   -3402.2361   -3831.8514            0    4168.5036    17.389098    20.482061    21.214659      7555.91    3804.6994    4199.8625    4500.9488     1447.285    633.98279   -651.73139    -2942.887 
12859000    265.59644   -3857.1947   -3401.9715   -3857.1947            0    6437.3007    17.188965     20.24633    20.970497    7298.0155    7158.5111    6249.2778    5904.1132   -49.479805    82.420184   -1010.7574   -2716.8234 
12860000    253.58732   -3840.8256   -3406.1857   -3840.8256            0    3312.8614    17.340661    20.425008    21.155565    7492.9443     3198.462    4042.0172     2698.105    528.46123   -941.77932    53.397437   -3044.1664 
12861000    261.91948   -3852.5149   -3403.5939   -3852.5149            0    4772.3656    17.296537    20.373036    21.101734    7435.8916    6130.9079    4641.3237    3544.8652    402.52767    729.22876    413.90172   -2886.0554 
12862000    264.51151   -3860.8911   -3407.5275   -3860.8911            0     3642.212    17.342993    20.427755    21.158411    7495.9687    3621.8564    4210.8767    3093.9029   -159.77208   -104.90649     827.4268   -3009.3572 
12863000    264.66957   -3880.5952   -3426.9606   -3880.5952            0    7185.6062    17.199349    20.258562    20.983166    7311.2501    7483.6948    7434.1291    6638.9947    851.95837     412.0073   -2669.8831   -2660.7804 
12864000    265.35262   -3829.2142   -3374.4089   -3829.2142            0    4851.1718     17.32033    20.401061    21.130762    7466.6207    3011.4941    5304.3614    6237.6601   -920.27547    1125.3452    540.73923   -2846.1502 
12865000    267.09803   -3835.8447   -3378.0478   -3835.8447            0    5789.8478    17.213695    20.275458    21.000667    7329.5593    6035.0596    6210.0801    5124.4035    -1086.408   -461.77934    -351.1274   -2759.1472 
12866000    254.56772   -3864.1133    -3427.793   -3864.1133            0    5195.3594    17.225351    20.289188    21.014888    7344.4596    6983.8165    3447.4418    5154.8201    2309.2187   -448.83142    159.61239   -2871.3107 
12867000    246.02272    -3879.731   -3458.0565    -3879.731            0    6440.8431    17.247599    20.315394    21.042031    7372.9543    8034.5312    5672.6075    5615.3905   -103.71664    1388.2833   -142.69791   -2765.4921 
12868000    253.83767    -3870.863   -3435.7939    -3870.863            0    3834.1728    17.278395    20.351667    21.079602    7412.5184    1746.3962    6646.1215    3110.0006   -2116.8632    263.16069    -508.1649   -3021.3046 
12869000    260.51834   -3858.0579   -3411.5383   -3858.0579            0    4761.0729    17.311571    20.390744    21.120077    7455.2988    5222.8916    4716.8272    4343.4999    251.40037   -454.23143   -127.17163   -2893.8769 
12870000    262.34112   -3853.2995   -3403.6558   -3853.2995            0    6922.6792     17.22224    20.285524    21.011093    7340.4813    5917.1148    7571.7882    7279.1346   -1018.8998     682.4545   -846.69543   -2662.5595 
12871000    265.00293   -3871.7488   -3417.5428   -3871.7488            0     8638.734    17.258104    20.327767    21.054847    7386.4343    9737.1664    6156.7634    10022.272     1553.198   -2121.9738    91.054421   -2486.9476 
12872000    275.84287   -3835.3089   -3362.5237   -3835.3089            0    4992.4076    17.238872    20.305114    21.031383    7361.7675    5617.9472    4970.7154    4388.5601    967.08384    295.43525   -518.56152   -2826.5197 
12873000    260.42265   -3868.5739   -3422.2184   -3868.5739            0    6402.7523    17.254215    20.323187    21.050102    7381.4423    7244.3324     4982.995    6980.9294    1308.5288   -562.62991   -485.48891   -2732.9572 
12874000    262.46025   -3822.5116   -3372.6637   -3822.5116            0    5486.1676    17.392896    20.486534    21.219292    7560.8611    4180.7552    4475.2438    7802.5039   -138.64802    487.79802   -561.16378   -2767.7183 
12875000    279.36543   -3831.2565   -3352.4337   -3831.2565            0    5641.0565    17.359298    20.446961    21.178304    7517.1307    3948.9011    6736.6917    6237.5768    1700.3101     426.2935    633.16629   -2734.0067 
12876000    260.85698    -3837.928   -3390.8281    -3837.928            0    7082.3749    17.299673    20.376729     21.10556    7439.9369    8148.0323    6158.5173    6940.5749    -1075.163    2045.9725    1423.5508   -2622.3632 
12877000     263.4536   -3832.9186   -3381.3681   -3832.9186            0    3268.6857    17.335864    20.419358    21.149714    7486.7283    4470.4679    2379.7918    2955.7975   -80.697854   -146.10168    969.83457   -3024.4726 
12878000    264.45421    -3845.577   -3392.3115    -3845.577            0    3735.0548    17.306939    20.385289    21.114426    7449.3162    4249.3488    3440.8124    3515.0031    648.59991    965.32081    42.155956   -2986.5328 
12879000    275.18604   -3838.1609   -3366.5014   -3838.1609            0    4760.6606    17.261491    20.331756    21.058979    7390.7841     3686.866    5569.7381    5025.3776   -347.36611    7.8962794    206.51991   -2853.3641 
12880000    251.41307   -3851.7892   -3420.8758   -3851.7892            0    4911.7691    17.246355    20.313928    21.040513    7371.3589    4004.4901    5486.4884    5244.3289   -153.68641    63.621424    556.68823   -2892.8424 
12881000    270.41104   -3885.8625   -3422.3873   -3885.8625            0    4110.8782    17.255227    20.324378    21.051336    7382.7404    4329.0224    4444.5624    3559.0497    1550.4021    1757.4567      635.411   -2979.7703 
12882000    260.29034   -3783.3293   -3337.2005   -3783.3293            0    4695.3633    17.265774    20.336801    21.064204    7396.2865    3696.0642    6269.2201    4120.8055     919.1471    1099.0345    145.22053   -2830.7246 
12883000    265.06406   -3840.9901   -3386.6793   -3840.9901            0    3647.5358    17.318209    20.398562    21.128174    7463.8775    3148.3017    6078.3157    1715.9901   -751.35317    1842.3703   -355.70032   -2989.6341 
12884000    249.68993    -3846.327    -3418.367    -3846.327            0    5691.3065    17.224065    20.287674    21.013319    7342.8149    4973.0279    5264.5349    6836.3568   -831.78196    1312.1184    1713.0462   -2808.8997 
12885000    258.23051    -3860.611   -3418.0127    -3860.611            0    3267.5785    17.283724    20.357944    21.086103    7419.3791    3900.2047    2790.0467    3112.4842    522.32588   -331.38269    793.59525   -3064.4475 
12886000    252.63335   -3844.1463   -3411.1414   -3844.1463            0    4802.5097    17.323166    20.404401    21.134222    7470.2886    4373.7422    6375.6971    3658.0899    214.87539   -491.17518   -1171.8562   -2887.9248 
12887000    262.90256   -3848.1416   -3397.5356   -3848.1416            0    7684.3011    17.111873    20.155526    20.876445    7200.2612    6718.7689     8983.914    7350.2203   -465.62357   -1073.9156   -165.23192   -2590.6193 
12888000    263.73986   -3828.2222   -3376.1811   -3828.2222            0    5314.6506    17.241461    20.308164    21.034542    7365.0854    6215.9818    4870.2652    4857.7048   -266.58958   -260.90992   -67.318806   -2805.3227 
12889000    247.28079   -3889.4134   -3465.5826   -3889.4134            0    1923.8635    17.336799     20.42046    21.150855    7487.9402    2073.2356    1989.2664    1709.0884   -1119.7423     758.8369   -712.40549   -3255.4891 
12890000    259.96014   -3834.5397   -3388.9769   -3834.5397            0    5949.7192    17.238612    20.304808    21.031067    7361.4354    6722.7577    5780.1278     5346.272    400.43411   -836.51899    -23.16339   -2750.2211 
12891000    250.49053   -3843.1643   -3413.8321   -3843.1643            0    3000.8288    17.475254    20.583541     21.31977     7668.777      2068.22    3541.9934     3392.273    918.28801   -903.13062    -1797.495   -3078.2156 
12892000    253.59486   -3846.0238   -3411.3709   -3846.0238            0    4898.8541     17.38175    20.473405    21.205694    7546.3346    4072.3736    4545.3219    6078.8668    222.16761   -2204.5752   -40.392726   -2872.2248 
12893000     262.1594   -3884.9744   -3435.6421   -3884.9744            0    5331.4156    17.371916    20.461823    21.193697    7533.5343    4432.1477    7398.3935    4163.7056    356.69969   -514.25395    388.84367   -2849.8855 
12894000    267.37463   -3883.2517   -3424.9807   -3883.2517            0    5481.7945    17.431495    20.531999    21.266383    7611.3117    5840.6364    5864.2424    4740.5049    -869.1399   -658.80298    701.96373   -2816.4841 
12895000    267.22313   -3837.1686   -3379.1573   -3837.1686            0    5083.7108    17.357909    20.445324    21.176608    7515.3255    4323.9103    5032.6297    5894.5924   -892.17349   -1513.9348   -96.063999   -2821.9657 
12896000    263.75577   -3876.2998   -3424.2314   -3876.2998            0    6388.3814     17.28571    20.360283    21.088525    7421.9363     6673.006    5791.2737    6700.8644   -1558.4185   -214.71004    754.22953   -2732.7445 
12897000    256.13171   -3885.2915   -3446.2905   -3885.2915            0    7110.9657    17.210182    20.271322    20.996382    7325.0739    6110.7169    6100.3149    9121.8652    -78.63723    -1366.928    888.15185   -2686.6353 
12898000    239.33084   -3862.6299    -3452.425   -3862.6299            0    5630.0652     17.26812    20.339565    21.067067    7399.3027     5544.805     4546.921    6798.4696   -670.46019   -331.36663    758.10073   -2844.8777 
12899000    265.69926   -3830.5045    -3375.105   -3830.5045            0    3880.2923    17.313315    20.392798    21.122203    7457.5513    2584.3456    4948.2954     4108.236   -47.453867    506.28201   -1583.4661   -2953.0816 
12900000    243.14753   -3853.6871   -3436.9406   -3853.6871            0    4594.6452    17.287199    20.362037    21.090342    7423.8548    6485.1156    4866.9799      2431.84   -1813.9089    718.31317   -1430.3287   -2939.4815 
12901000    276.73683   -3857.1876   -3382.8701   -3857.1876            0    4733.2338    17.268753     20.34031    21.067838    7400.1159    6152.3214    4191.0881    3856.2918    1045.4308   -591.17218    1055.2465   -2872.0449 
12902000    243.89614   -3877.4933   -3459.4637   -3877.4933            0    3139.1432    17.296162    20.372595    21.101278    7435.4087    1620.3634    4294.4235    3502.6427     560.2279   -53.382442   -704.80599   -3119.0619 
12903000     283.8613   -3898.0088   -3411.4803   -3898.0088            0    3837.1851    17.303998    20.381824    21.110837    7445.5186    4919.2212    4257.0762     2335.258    850.94882     360.0661    1530.5971   -2994.8186 
12904000    249.02294   -3860.4832   -3433.6664   -3860.4832            0    5524.9943    17.272113    20.344268    21.071938    7404.4366    4441.4544    5804.5777    6328.9509    1278.4468    486.53515   -1997.1148   -2837.0437 
12905000    265.31023    -3900.375   -3445.6424    -3900.375            0      3906.24    17.344672    20.429733     21.16046    7498.1458    3540.3333    4391.8899    3786.4968   -1068.1357    225.23914    1621.1159   -3018.4842 
12906000    244.74087   -3904.6157   -3485.1382   -3904.6157            0    5003.8766    17.317435    20.397651     21.12723    7462.8768    5759.3753    5702.9252    3549.3293   -486.06403    336.81243   -763.79548   -2940.5243 
12907000     265.3325   -3905.6582   -3450.8874   -3905.6582            0    6941.4822    17.318822    20.399285    21.128923    7464.6706    7003.3597    8007.7657    5813.3213     1665.785   -12.110066    1807.3427   -2695.2059 
12908000     256.1945    -3870.062   -3430.9534    -3870.062            0    5324.2191    17.273644    20.346071    21.073806    7406.4057    5735.6911    4246.0298    5990.9366   -518.16123   -49.186885    880.12428   -2855.8587 
12909000     256.5308   -3854.3724   -3414.6874   -3854.3724            0    5380.8348        17.23    20.294664     21.02056     7350.408    5112.2187    6569.2371    4461.0486   -133.95366   -1251.3121   -614.26886   -2837.8718 
12910000    274.17636   -3835.6974   -3365.7685   -3835.6974            0    5471.5757    17.220082    20.282982     21.00846    7337.7221    5226.3078    5788.3145    5400.1049    69.227182    727.82672    -410.7926    -2780.238 
12911000    261.31639   -3894.5426   -3446.6552   -3894.5426            0    2524.3052    17.324718    20.406229    21.136115    7472.2961    2417.3237    2942.4348    2213.1572    111.82749     940.6446   -146.46241   -3171.5671 
12912000     265.2335   -3888.9349   -3434.3338   -3888.9349            0    4919.9111      17.1996    20.258857    20.983472    7311.5695    6320.8858    4925.8921    3512.9555   -1952.5578   -152.78383   -159.04472   -2909.7151 
12913000    251.75614   -3863.3641   -3431.8627   -3863.3641            0    6830.1865    17.172306    20.226708    20.950173    7276.8169    7730.0673    6749.0988    6011.3933   -226.66789   -232.83107   -651.26863   -2707.0097 
12914000    258.98152    -3877.232   -3433.3465    -3877.232            0    4830.3383    17.301052    20.378354    21.107243     7441.717    5440.8145    5248.0868    3802.1135   -700.35111    53.068247    1001.1235   -2909.1108 
12915000    269.96179   -3871.2429   -3408.5376   -3871.2429            0    6151.9692    17.237422    20.303406    21.029615    7359.9107     7136.932    4654.4354    6664.5402    -625.8955   -1129.5134   -1330.1576   -2748.2052 
12916000     267.3273   -3872.5163   -3414.3264   -3872.5163            0    4478.6559    17.298794    20.375694    21.104488    7438.8029    3935.1275    5930.0074    3570.8329   -761.61103    -682.1989   -91.599079   -2928.4491 
12917000     255.5388   -3898.8682   -3460.8834   -3898.8682            0    4865.0799    17.285402    20.359921    21.088151    7421.5408    5643.1146    5436.1434    3515.9816    397.22596   -1064.1798    1023.8125   -2934.3088 
12918000     273.4233   -3826.9222    -3358.284   -3826.9222            0    5104.7182    17.260806     20.33095    21.058143    7389.9042     5952.585    4307.1333    5054.4364   -503.57611    167.74021    819.69962   -2808.1272 
12919000    269.95354   -3840.8124   -3378.1213   -3840.8124            0     4944.874    17.258713    20.328484    21.055589    7387.2158    6110.7057    4433.0103    4290.9061   -603.88787    1271.2977   -644.83462   -2845.3854 
12920000    273.18731   -3878.5089   -3410.2752   -3878.5089            0    6676.2856    17.208573    20.269426    20.994418    7323.0186    5042.1396    9456.6726    5530.0447    134.74108    30.894352   -355.29211   -2697.2565 
12921000     271.1042   -3887.9133   -3423.2499   -3887.9133            0    5807.8337     17.25821    20.327891    21.054976      7386.57    7327.8153    5072.7983    5022.8875    215.37217    1220.3907   -906.94001   -2797.5979 
12922000    261.66682   -3878.7856   -3430.2976   -3878.7856            0    8901.5966    17.249221    20.317304     21.04401    7375.0349    8530.5181     10760.05    7414.2217   -1309.7355   -946.35668    212.47695   -2472.8658 
12923000    261.80047   -3865.2746   -3416.5575   -3865.2746            0    5891.1664    17.341238    20.425687     21.15627    7493.6925    6006.9171    6850.1811    4816.4012   -930.90322    1121.6371    987.17145   -2772.7248 
12924000    258.32526   -3868.5813   -3425.8206   -3868.5813            0    5662.6286    17.242038    20.308844    21.035246    7365.8252    5127.5905    3995.7937    7864.5016   -156.88148    181.72731   -106.34677   -2817.5241 
12925000    272.90729    -3854.947   -3387.1932    -3854.947            0    4696.1894    17.271872    20.343984    21.071643    7404.1262    4578.9549    6077.0585    3432.5548   -188.09216    147.25933     592.9815   -2880.0912 
12926000    262.74638    -3883.925   -3433.5867    -3883.925            0    5698.6948    17.270989    20.342944    21.070566    7402.9911    4736.9877    5292.6174    7066.4792   -611.88032   -545.87475    -1731.035   -2818.3269 
12927000    262.12956   -3847.1371    -3397.856   -3847.1371            0    4836.2165    17.241556    20.308275    21.034657    7365.2064    4640.8779    3951.5453    5916.2264    158.78329    251.27568     159.9709   -2878.3788 
12928000    276.78692   -3860.2783    -3385.875   -3860.2783            0    6304.7979    17.210475    20.271667     20.99674    7325.4481    6478.9342    4843.6231    7591.8365    1057.4437    378.54053    865.75235   -2712.3073 
12929000    262.17466   -3873.3748   -3424.0164   -3873.3748            0    6705.4417     17.29055    20.365985    21.094431    7428.1736    7617.5442    6999.9114    5498.8696   -335.55109   -768.87058     1162.764   -2697.6005 
12930000    263.33169   -3900.2688   -3448.9273   -3900.2688            0    2604.1678    17.348257    20.433955    21.164833     7502.796    3046.3846     1883.761    2882.3579     1135.054     -121.802   -1238.5811   -3163.9777 
12931000    266.77999   -3882.9456   -3425.6938   -3882.9456            0    5025.7138    17.255393    20.324573    21.051539    7382.9535    5096.5167    5574.3259    4406.2988    1128.5954   -94.833226   -293.03218   -2884.5611 
12932000    268.25538   -3868.0384   -3408.2579   -3868.0384            0    5519.7822    17.270909    20.342849    21.070469    7402.8878    6359.4692    5389.7981    4810.0794   -21.544654   -320.67175    97.847645   -2812.3227 
12933000    253.42085   -3878.6977    -3444.343   -3878.6977            0    5786.0081    17.266902     20.33813     21.06558    7397.7368     6313.673    6337.6861    4706.6652    494.61359   -967.54984     625.1148   -2820.0999 
12934000    254.37259   -3887.5352   -3451.5492   -3887.5352            0    5399.5434    17.300147    20.377287    21.106138    7440.5482    6700.8406    5812.8728    3684.9169    -626.5085   -704.11033   -606.30068   -2865.6299 
12935000    275.20833   -3894.1257    -3422.428   -3894.1257            0    5094.0117    17.325233    20.406836    21.136743    7472.9626    5012.7094    5323.6224    4945.7033   -1553.6077   -526.69775    2207.9885   -2867.2546 
12936000    270.88785   -3901.6387   -3437.3462   -3901.6387            0    4226.6012     17.31272    20.392097    21.121477    7456.7824    5668.9966    2734.2818    4276.5253    261.25625   -197.59602    851.00548   -2977.7053 
12937000    262.89474   -3898.6556    -3448.063   -3898.6556            0    6157.3586    17.222285    20.285577    21.011148    7340.5388    6175.3477    5655.7735    6640.9545   -1329.1307   -1867.0819   -641.48309   -2788.8917 
12938000    282.80668    -3876.065    -3391.344    -3876.065            0    6583.6723    17.271243    20.343243    21.070877    7403.3181    8652.9239    4846.5753    6251.5176    65.481361   -1089.3522    1397.1007   -2680.5062 
12939000    261.36548   -3884.3777   -3436.4062   -3884.3777            0     5082.211    17.245073    20.312418    21.038949    7369.7151    4013.0623    4044.2664    7189.3043    219.88829    1147.1916    795.41834   -2890.1715 
12940000    268.49495   -3865.7523   -3405.5611   -3865.7523            0    5039.4649    17.381253     20.47282    21.205088    7545.6876    6164.1773    3898.9762    5055.2413   -127.04176   -786.24375   -513.07138   -2850.9876 
12941000    258.41015   -3860.8795   -3417.9733   -3860.8795            0    3495.3075    17.419188    20.517502    21.251368    7595.2012    2484.5807    3712.4303    4288.9116   -498.38415   -1181.6111    95.868625   -3030.8043 
12942000    263.80904   -3855.6442   -3403.4846   -3855.6442            0    4248.0827    17.313914    20.393504    21.122935    7458.3258    4324.0756    4887.5794    3532.5929    341.25099    630.86889   -50.661249    -2941.412 
12943000    266.57521   -3844.0565   -3387.1557   -3844.0565            0    5907.0657    17.401772    20.496989    21.230121    7572.4432    6352.1862    4132.1839     7236.827   -560.17531   -1075.8226   -127.79996   -2734.8011 
12944000    267.29029   -3833.5479   -3375.4215   -3833.5479            0    6120.4941    17.224553    20.288249    21.013915    7343.4392    5580.9496    6587.1983    6193.3344    945.16589    544.78691   -1189.6037   -2719.9378 
12945000    257.65579   -3860.4733   -3418.8601   -3860.4733            0     5494.713    17.244019    20.311177    21.037663    7368.3643    5262.6854    5537.5206    5683.9331    169.57183   -246.54398    -172.9504    -2828.398 
12946000    268.66557   -3839.6676    -3379.184   -3839.6676            0    4881.2794    17.250139    20.318386     21.04513    7376.2124    5415.4537    7154.7132    2073.6715    856.96883   -584.59104   -453.53295   -2854.0829 
12947000    261.70895    -3853.176   -3404.6158    -3853.176            0    6621.5682    17.234902    20.300438     21.02654     7356.683     7398.803    4237.6587    8228.2429   -284.43332   -448.82871    478.42244   -2694.1899 
12948000    258.93351   -3831.8651    -3388.062   -3831.8651            0    5881.7115    17.228378    20.292754    21.018581    7348.3322    7040.9935    5777.7366    4826.4045   -1031.4202   -1541.9388   -909.24586   -2757.7314 
12949000    267.92978   -3861.7763   -3402.5539   -3861.7763            0    6633.4665     17.28136    20.355159    21.083218    7416.3345    7483.5712    7494.5711    4922.2572    -231.1868    1351.8631    -637.9067   -2685.0806 
12950000    261.79982   -3845.9196   -3397.2037   -3845.9196            0    5474.8955    17.298862    20.375775    21.104572    7438.8915    3899.4667    6674.7531    5850.4669   -1108.3371   -354.03554   -1265.7865   -2803.2399 
12951000    259.23673   -3829.3853   -3385.0624   -3829.3853            0    6813.8342    17.332239    20.415088    21.145291     7482.032    5392.1243     6117.215    8932.1633    358.03409   -2012.2137    238.39359   -2641.5521 
12952000      273.029   -3850.2686   -3382.3063   -3850.2686            0    5264.7493    17.312863    20.392266    21.121652    7456.9678    4335.3021    4776.6473    6682.2986   -264.41947    698.93289    635.39256   -2809.7531 
12953000    256.98731   -3863.5284    -3423.061   -3863.5284            0    4815.1814     17.21224    20.273745    20.998893    7327.7017    4696.1372    3879.6892    5869.7177    1206.3978    177.70574   -583.53662   -2908.4769 
12954000     254.8799    -3854.025   -3417.1696    -3854.025            0    4146.1887    17.264692    20.335527    21.062884    7394.8967    1935.8196    5129.0568    5373.6899   -1034.7224   -1506.8618   -517.22854   -2970.0156 
12955000    247.48184   -3849.1229   -3424.9475   -3849.1229            0    4075.5081    17.290664    20.366118     21.09457    7428.3199    2841.0784     5114.633     4270.813    195.40992   -67.645828    -89.75226   -2983.4297 
12956000    259.31824   -3867.1918   -3422.7292   -3867.1918            0    4523.2721    17.256875    20.326319    21.053347    7384.8565    4238.5091    3904.2578    5427.0493    494.19463    428.67011    372.97185   -2935.5702 
12957000    251.51989   -3862.4471   -3431.3506   -3862.4471            0    5520.0786    17.323801    20.405149    21.134996    7471.1097    7135.0434     5352.624    4072.5684    121.67654   -661.69798    1065.5258   -2829.8912 
12958000    261.57373    -3829.654   -3381.3256    -3829.654            0    4472.0209    17.305839    20.383993    21.113084    7447.8958    4198.8429    5172.6347    4044.5851     1.742317    1122.7236   -1322.2656   -2895.5751 
12959000    263.06416   -3872.4942   -3421.6112   -3872.4942            0    5070.6194    17.267869    20.339269     21.06676    7398.9798    4491.6053    5731.9498    4988.3031    1145.5756    146.02861    2045.6129   -2874.4582 
12960000    286.28347   -3883.9573   -3393.2772   -3883.9573            0    2843.7217    17.293122    20.369014    21.097569    7431.4885    2991.5843    3022.3273    2517.2537   -1562.1226    858.13804    1196.8474   -3085.0728 
12961000    264.55661   -3875.7826   -3422.3416   -3875.7826            0    4167.4205    17.238705    20.304917     21.03118     7361.554    3553.3357    4697.9432    4250.9825   -2675.7849   -494.06469     1144.793   -2974.9244 
12962000    267.57916   -3878.5247   -3419.9032   -3878.5247            0     5812.153    17.255629    20.324852    21.051827    7383.2566    5103.1747    5825.3116    6507.9728    285.71697    1146.5967    1813.1486   -2794.0667 
12963000    267.26653   -3844.2401   -3386.1544   -3844.2401            0    6295.8608    17.245733    20.313195    21.039754    7370.5609    7845.4104    6785.7993    4256.3727    286.21509   -368.89572    1526.3722   -2709.3993 
12964000    267.10302   -3872.7069   -3414.9015   -3872.7069            0    4103.7057    17.243964    20.311112    21.037596    7368.2934    4651.4629    3464.5916    4195.0626    1568.6783    348.01323    531.97272   -2973.9213 
12965000    257.61465   -3916.3348   -3474.7921   -3916.3348            0    5226.1599    17.233707     20.29903    21.025082    7355.1529    4670.8499    6970.3272    4037.3025   -1260.6306   -108.21896    567.35302   -2914.1957 
12966000    255.99778    -3880.388   -3441.6166    -3880.388            0    5831.3947    17.317952     20.39826    21.127861    7463.5459    6163.5374    6127.6775    5202.9693    790.31087    286.07511   -520.92692     -2806.88 
12967000    262.22018   -3885.2489   -3435.8124   -3885.2489            0    5645.2182    17.179588    20.235286    20.959058    7286.0787    4467.2276    6980.2247    5488.2023    152.44958   -1855.8613    2366.5899   -2835.9517 
12968000    273.14587   -3852.7823   -3384.6196   -3852.7823            0    4544.6357    17.272563    20.344798    21.072487    7405.0154    5501.9558    4312.6679    3819.2834   -438.72121   -333.03895   -466.96669   -2893.8237 
12969000    269.56418     -3840.43   -3378.4062     -3840.43            0    5086.7346    17.199738     20.25902     20.98364    7311.7459     4534.798    6307.8056    4417.6003   -418.37342   -517.82317    839.38271   -2835.9857 
12970000     261.7619   -3879.4947   -3430.8438   -3879.4947            0    5798.3561    17.231593    20.296541    21.022504     7352.447    6066.8607    5611.7281    5716.4796    234.28719    2306.8037    419.39931   -2809.0982 
12971000    256.11854   -3858.0845   -3419.1061   -3858.0845            0    6172.0971    17.248059    20.315936    21.042592    7373.5445    7154.8459    6582.8822    4778.5632   -197.93733   -32.125885    153.58839    -2755.386 
12972000     259.9044   -3906.7438   -3461.2765   -3906.7438            0    2786.5494    17.375405    20.465932    21.197954    7538.0744     1285.063    4723.9604    2350.6249    239.39569    399.87984    523.51332    -3154.937 
12973000    261.72534   -3915.8529   -3467.2646   -3915.8529            0    5854.9548    17.382828    20.474675    21.207009     7547.739    5414.6483    5069.7886    7080.4275    1075.8081   -311.30804    599.73596   -2822.7744 
12974000    258.11342    -3874.031   -3431.6334    -3874.031            0    6450.8536    17.315722    20.395633     21.12514    7460.6624    5784.9896    6854.6899    6712.8812   -302.07539    210.65236    1860.0642   -2729.7411 
12975000    268.00536   -3890.6445   -3431.2925   -3890.6445            0    7123.1906    17.231081    20.295938    21.021879    7351.7914    5967.6925    7532.7166    7869.1626   -349.87999   -1334.9104   -1429.1019   -2667.5558 
12976000    263.06833   -3853.7907   -3402.9006   -3853.7907            0    5927.4896    17.290679    20.366136    21.094588    7428.3392    5121.9587    5701.6944    6958.8159    933.23345    258.41138    378.81158   -2760.7477 
12977000     267.1181   -3801.8815   -3344.0502   -3801.8815            0    5549.9323    17.304504     20.38242    21.111455    7446.1719    4310.2439      6668.25    5671.3031   -967.45412    885.88788   -240.59641   -2741.3566 
12978000    268.26143   -3815.1597   -3355.3688   -3815.1597            0    4972.1267    17.357737    20.445121    21.176398    7515.1019    5659.2073    5781.0059     3476.167   -61.555597     71.38521    911.96086   -2810.4234 
12979000    262.94604   -3838.7035   -3388.0229   -3838.7035            0    4985.4631    17.290446    20.365861    21.094303    7428.0385     5486.168    6119.7288    3350.4925   -479.52827    999.94031    719.08896   -2847.9461 
12980000    262.96352   -3809.0933   -3358.3828   -3809.0933            0    4329.4117    17.313473    20.392984    21.122396    7457.7558    4920.1381       2855.9    5212.1971    1086.0234    382.49428    106.47285   -2887.4999 
12981000    277.07444   -3848.8204   -3373.9243   -3848.8204            0    4984.7711    17.229701    20.294312    21.020196    7350.0255    3416.0505    7296.5117     4241.751   -304.64934    549.51659    -1150.865   -2839.5938 
12982000    274.85153    -3857.932   -3386.8459    -3857.932            0    6205.9435    17.147773    20.197812    20.920243    7245.6739    6613.1172    5818.6972    6186.0161     638.8378   -500.22949   -290.14863   -2731.0594 
12983000    263.30949   -3876.1907   -3424.8873   -3876.1907            0    6911.3351    17.214005    20.275825    21.001046    7329.9565    7735.1939     7237.773    5761.0385   -376.53785   -301.30276   -638.14713   -2686.0663 
12984000    262.73454   -3825.8698   -3375.5518   -3825.8698            0    7324.1898    17.301659    20.379069    21.107984    7442.4998    7702.7447    7999.2217     6270.603   -606.98048    1553.5699    -970.8677   -2580.5752 
12985000    258.20349   -3864.2492   -3421.6972   -3864.2492            0    5672.7028    17.335878    20.419374     21.14973    7486.7459    6638.4467    5343.4226    5036.2391     264.9232      209.972    1038.7209   -2802.3146 
12986000     257.7214   -3838.6184   -3396.8927   -3838.6184            0     4801.189    17.317943     20.39825    21.127851    7463.5344    6414.8214    2227.1582    5761.5875    1446.0064    308.93559   -683.67086   -2874.2929 
12987000    261.11199   -3843.6787   -3396.1417   -3843.6787            0    5514.2141    17.184148    20.240657    20.964621    7291.8817    5802.6881    6539.1953    4200.7589   -733.16315    472.86847    125.49364   -2809.7347 
12988000     260.1198   -3832.4773   -3386.6409   -3832.4773            0    3763.6658    17.304446    20.382352    21.111384    7446.0971     3332.381    2915.3205    5043.2959   -108.86402    292.91215     305.4242   -2977.9305 
12989000    264.00345    -3869.985   -3417.4921    -3869.985            0    5337.6209    17.168287    20.221974     20.94527    7271.7087    6788.6072    4884.9363    4339.3191   -45.978137    -589.6559    303.76257   -2851.4352 
12990000     265.0158   -3846.3885   -3392.1605   -3846.3885            0    6133.0192    17.204076    20.264129    20.988932     7317.279    7092.7011    7277.7927    4028.5638   -1329.0242    702.89718    184.97971   -2737.6753 
12991000    262.52886   -3876.5974   -3426.6319   -3876.5974            0    4994.3903    17.136299    20.184296    20.906244    7231.1381    4868.8519    4108.8392    6005.4797    264.50212    1233.6062    253.02225   -2899.9298 
12992000    266.00114   -3841.6251   -3385.7083   -3841.6251            0    4772.7552    17.226718    20.290798    21.016556    7346.2079    4231.6596    5980.7411    4105.8649    356.74353    296.98499   -1167.7606   -2874.3701 
12993000    271.51051   -3836.5836   -3371.2239   -3836.5836            0    6689.4737    17.273425    20.345813    21.073538    7406.1235    6571.8079    5917.1667    7579.4464   -513.91755   -61.815404   -1054.1685   -2648.6891 
12994000    260.72989   -3852.6446   -3405.7625   -3852.6446            0    5932.4032    17.386299    20.478764    21.211245    7552.2622    6155.3158    5805.6795    5836.2145    207.58881   -671.84599   -941.83055   -2752.3558 
12995000    267.18949   -3816.6797    -3358.726   -3816.6797            0     3952.332    17.392741    20.486351    21.219103    7560.6591    3059.6509    3541.9342    5255.4109    2.8564188   -187.63058     269.2057   -2922.9243 
12996000    256.33468   -3828.5052   -3389.1564   -3828.5052            0    6023.2154    17.255236    20.324389    21.051347    7382.7522    4393.3514     7472.509    6203.7859    1133.2253   -277.07135    196.57645   -2740.6376 
12997000    251.27212    -3845.669   -3414.9972    -3845.669            0    4304.2308    17.340976    20.425379     21.15595    7493.3529    2919.7126    5074.7539     4918.226    403.78716   -112.04561     4.945906   -2944.6185 
12998000    268.40235   -3819.0617   -3359.0293   -3819.0617            0    4314.3343    17.328315    20.410466    21.140504    7476.9517    3094.0315    5682.9476    4166.0239    -366.0388    -710.8212   -24.293554   -2888.5784 
12999000    252.77894   -3863.6435   -3430.3891   -3863.6435            0    3976.3625    17.300542    20.377753    21.106621    7441.0587    4757.5327    4181.4561    2990.0988    207.86433    1092.9586   -483.84218   -2998.8734 
13000000    271.58895   -3825.2652   -3359.7711   -3825.2652            0    3161.3376    17.354789    20.441649    21.172802    7511.2742    3731.6223    2687.8184     3064.572    113.80537   -1251.2305    621.81791   -3013.4648 
Loop time of 385.747 on 64 procs for 250000 steps with 864 atoms

Performance: 111.991 ns/day, 0.214 hours/ns, 648.094 timesteps/s
191.9% CPU use with 32 MPI tasks x 2 OpenMP threads

MPI task timing breakdown:
Section |  min time  |  avg time  |  max time  |%varavg| %total
---------------------------------------------------------------
Pair    | 25.562     | 31.739     | 37.047     |  55.1 |  8.23
Bond    | 0.87619    | 1.1271     | 1.4265     |  13.6 |  0.29
Kspace  | 173.52     | 181.95     | 188.48     |  29.4 | 47.17
Neigh   | 3.9883     | 4.4066     | 4.7945     |  12.1 |  1.14
Comm    | 73.589     | 78.591     | 83.254     |  26.1 | 20.37
Output  | 0.58744    | 0.58772    | 0.59012    |   0.1 |  0.15
Modify  | 70.522     | 72.943     | 77.897     |  18.7 | 18.91
Other   |            | 14.4       |            |       |  3.73

Nlocal:        27.0000 ave          32 max          21 min
Histogram: 3 0 4 4 0 4 7 5 1 4
Nghost:        2479.50 ave        2511 max        2438 min
Histogram: 1 2 0 6 4 5 3 5 5 1
Neighs:        8220.25 ave       10699 max        5791 min
Histogram: 2 1 1 3 11 5 4 4 0 1

Total # of neighbors = 263048
Ave neighs/atom = 304.45370
Ave special neighs/atom = 2.0000000
Neighbor list builds = 14337
Dangerous builds = 3

unfix		3
unfix		2
unfix		1

write_data	data.final.${pid}
write_data	data.final.1
System init for write_data ...
PPPM initialization ...
  extracting TIP4P info from pair style
  using 12-bit tables for long-range coulomb (../kspace.cpp:340)
  G vector (1/distance) = 0.37399927
  grid = 24 24 25
  stencil order = 5
  estimated absolute RMS force accuracy = 0.0031010995
  estimated relative force accuracy = 9.3388691e-06
  using double precision FFTW3
  3d grid and FFT values/proc = 3822 576
Last active /omp style is kspace_style pppm/tip4p/omp
WARNING: Not all mixed pair coeffs generated from mixing. Use write_data with 'pair ij' option to store all pair coeffs. (../write_data.cpp:312)

write_restart   restart.lmp.${pid}
write_restart   restart.lmp.1
System init for write_restart ...
PPPM initialization ...
  extracting TIP4P info from pair style
  using 12-bit tables for long-range coulomb (../kspace.cpp:340)
  G vector (1/distance) = 0.37399927
  grid = 24 24 25
  stencil order = 5
  estimated absolute RMS force accuracy = 0.0031010995
  estimated relative force accuracy = 9.3388691e-06
  using double precision FFTW3
  3d grid and FFT values/proc = 3822 576
Last active /omp style is kspace_style pppm/tip4p/omp
Total wall time: 0:06:25
