#include		in.partitions
include		in.temp
variable        temperature equal 136.51
variable	tempDamp equal 100.0
include		in.pressure
variable        pressure equal 11543.8
variable        pressureDamp equal 1000.0 # This is 1 ps
include		in.seed
variable        seed equal 745823

units		real
atom_style	full
box tilt large
read_restart	restart.lmp.${pid}
read_restart	restart.lmp.0
Reading restart file ...
  restart file = 30 Jul 2021, LAMMPS = 30 Jul 2021
  restoring atom style full from restart
  triclinic box = (-10.589210 -9.0223420 0.26237888) to (12.569210 12.012340 21.597620) with tilt (-9.0299766 1.9004635 2.5335365)
  4 by 4 by 4 MPI processor grid
  restoring pair style lj/cut/tip4p/long/omp from restart
  restoring bond style harmonic/omp from restart
  restoring angle style harmonic/omp from restart
  1296 atoms
  864 bonds
  432 angles
Finding 1-2 1-3 1-4 neighbors ...
  special bond factors lj:    0        0        0       
  special bond factors coul:  0        0        0       
     2 = max # of 1-2 neighbors
     1 = max # of 1-3 neighbors
     1 = max # of 1-4 neighbors
     2 = max # of special neighbors
  special bonds CPU = 0.005 seconds
  read_restart CPU = 0.013 seconds
include 	in.setup
variable	out_freq equal 1000
variable	out_freq2 equal 10000
variable	out_freq3 equal 1000

timestep	2.0

neigh_modify    delay 7 every 1

include		in.tip4p
# This is TIP4P/Ice

# create groups ###
group ox type 2
432 atoms in group ox
group hy type 1
864 atoms in group hy

# set charges - beside manually ###
set group ox charge -1.1794
Setting atom values ...
  432 settings made for charge
set group hy charge 0.5897
Setting atom values ...
  864 settings made for charge

# ### TIP3P Potential Parameters ###
pair_style lj/cut/tip4p/long/omp 2 1 1 1 0.1577 8.5
pair_coeff 1 1*2 0.000 0.000
pair_coeff 2 2 0.21084 3.1668
bond_style  harmonic
bond_coeff  1 450 0.9572
angle_style harmonic
angle_coeff 1 55 104.52
kspace_style pppm/tip4p/omp 1.0e-5
pair_modify tail yes

thermo          ${out_freq}
thermo          1000
thermo_style    custom step temp pe etotal epair emol press lx ly lz vol pxx pyy pzz pxy pxz pyz enthalpy

restart 	${out_freq3} restart.lmp.${pid} restart2.lmp.${pid}
restart 	1000 restart.lmp.${pid} restart2.lmp.${pid}
restart 	1000 restart.lmp.0 restart2.lmp.${pid}
restart 	1000 restart.lmp.0 restart2.lmp.0


include         in.dump
dump            myDump all atom ${out_freq2} dump.water.${pid}
dump            myDump all atom 10000 dump.water.${pid}
dump            myDump all atom 10000 dump.water.0
dump            myDump2 all dcd ${out_freq2} dump.dcd
dump            myDump2 all dcd 10000 dump.dcd
dump_modify     myDump append yes
dump_modify     myDump2 append yes


variable natoms 	equal  "count(all)"                        # NUMBER ATOMS
variable H      	equal  "enthalpy/v_natoms"                 # ENTHALPY-per-atom
variable Vol      	equal  "vol/v_natoms"                 # volume-per-atom
fix AVG all 		ave/time ${out_freq} 1 ${out_freq} v_Vol v_H file vol_enthalpy.dat
fix AVG all 		ave/time 1000 1 ${out_freq} v_Vol v_H file vol_enthalpy.dat
fix AVG all 		ave/time 1000 1 1000 v_Vol v_H file vol_enthalpy.dat


timer           timeout 10:00:00 every 1000
New timer settings: style=normal  mode=nosync  timeout=10:00:00

fix 		1 all shake 1e-6 200 0 b 1 a 1
       0 = # of size 2 clusters
       0 = # of size 3 clusters
       0 = # of size 4 clusters
     432 = # of frozen angles
  find clusters CPU = 0.002 seconds
fix             2 all nph tri ${pressure} ${pressure} ${pressureDamp}
fix             2 all nph tri 11543.8 ${pressure} ${pressureDamp}
fix             2 all nph tri 11543.8 11543.8 ${pressureDamp}
fix             2 all nph tri 11543.8 11543.8 1000
fix             3 all temp/csvr ${temperature} ${temperature} ${tempDamp} ${seed}
fix             3 all temp/csvr 136.51 ${temperature} ${tempDamp} ${seed}
fix             3 all temp/csvr 136.51 136.51 ${tempDamp} ${seed}
fix             3 all temp/csvr 136.51 136.51 100 ${seed}
fix             3 all temp/csvr 136.51 136.51 100 745823


run             250000
PPPM initialization ...
  extracting TIP4P info from pair style
  using 12-bit tables for long-range coulomb (../kspace.cpp:340)
  G vector (1/distance) = 0.3725988
  grid = 30 36 32
  stencil order = 5
  estimated absolute RMS force accuracy = 0.0034839465
  estimated relative force accuracy = 1.0491801e-05
  using double precision FFTW3
  3d grid and FFT values/proc = 4896 600
Last active /omp style is kspace_style pppm/tip4p/omp
Neighbor list info ...
  update every 1 steps, delay 7 steps, check yes
  max neighbors/atom: 2000, page size: 100000
  master list distance cutoff = 10.8154
  ghost atom cutoff = 10.8154
  binsize = 5.4077, bins = 7 5 4
  1 neighbor lists, perpetual/occasional/extra = 1 0 0
  (1) pair lj/cut/tip4p/long/omp, perpetual
      attributes: half, newton on, omp
      pair build: half/bin/newton/tri/omp
      stencil: half/bin/3d/tri
      bin: standard
Per MPI rank memory allocation (min/avg/max) = 9.424 | 9.434 | 9.440 Mbytes
Step Temp PotEng TotEng E_pair E_mol Press Lx Ly Lz Volume Pxx Pyy Pzz Pxy Pxz Pyz Enthalpy 
38250000    141.47103    -6634.782   -6270.8564    -6634.782            0    11981.852    23.158419    21.034682    21.335241    10393.036    11481.389    12190.045    12274.121    746.89444   -717.27948     634.0633    -4454.746 
38251000    139.28557   -6651.7323   -6293.4287   -6651.7323            0    11966.833    23.170515    21.014891    21.328386    10385.342    10846.747    13308.703    11745.049    450.72331    1323.0767    304.37612   -4480.9374 
38252000    139.76429    -6658.922   -6299.3869    -6658.922            0    11301.146    22.971849    21.239925    21.340698     10412.56    10796.819    12012.084    11094.535    1208.4796   -134.24171   -1283.6326   -4583.2343 
38253000    137.87749   -6650.4511   -6295.7697   -6650.4511            0     12049.59    22.942326    21.340967    21.191636    10375.667     11780.07    11406.414    12962.287    672.60899   -237.66315     1106.174   -4472.4443 
38254000    135.84737    -6664.439     -6314.98    -6664.439            0    11602.563    23.011166    21.111117    21.383671    10388.004    12442.133    11039.091    11326.466   -754.58418    485.82878    236.66233   -4557.2104 
38255000    139.54603    -6661.427   -6302.4534    -6661.427            0     10815.37    23.127405    21.082263    21.378125    10423.504     10012.93    11793.053    10640.126   -142.67023    155.22155   -490.08294   -4658.3429 
38256000    143.05944    -6652.697   -6284.6853    -6652.697            0    11405.354    23.163801    21.021713    21.332604    10387.758    11517.726    11935.155    10763.182    204.18264    115.89312    681.73049   -4556.8335 
38257000    132.43432   -6647.0609   -6306.3817   -6647.0609            0    11881.673    23.033663     21.15142    21.341016    10397.229    10954.231    12397.985    12292.802   -258.93179    526.15606    8.5567908   -4504.7289 
38258000    139.32377   -6650.1329    -6291.731   -6650.1329            0    11360.953    22.981611      21.2082    21.359734    10410.705    11941.263    10942.256    11199.338    93.463294   -722.89747   -1692.2836   -4566.8038 
38259000    140.53882   -6640.6703   -6279.1428   -6640.6703            0    10568.808    23.055416    21.244275    21.276966    10421.365    10783.607     10758.94    10163.878    56.345514    1008.1812   -362.63757   -4672.8434 
38260000    137.56448   -6642.6912   -6288.8149   -6642.6912            0    11842.003    22.926651    21.250975    21.318447    10386.639    12111.873    11724.679    11689.457    -154.1117   -409.52891   -67.115396   -4495.0063 
38261000    141.72468   -6665.3938   -6300.8157   -6665.3938            0    10922.228    23.134711    21.117448    21.359468    10435.084    11265.601    11131.886    10369.197    32.460147   -133.99598   -350.92901   -4638.6164 
38262000    137.83844   -6627.9591   -6273.3781   -6627.9591            0    11801.824    23.168676    21.075502    21.309171    10405.087    11271.747    12245.936    11887.789    1270.9677   -104.32085    239.35547   -4482.4805 
38263000    139.04168   -6646.7168   -6289.0406   -6646.7168            0     10731.49    23.055981    21.125732    21.422597      10434.4    11307.108    10658.991    10228.372    379.90709   -947.64711    224.03858   -4655.9758 
38264000    133.59068   -6655.4022   -6311.7483   -6655.4022            0    11474.976    23.011192    21.255138    21.204554    10371.276    11513.676    10082.751    12828.501    -109.2587    9.3101683    127.66775   -4576.1073 
38265000    141.25298   -6664.6279   -6301.2632   -6664.6279            0    10879.846    22.926718     21.30373     21.34879    10427.274    11573.038    9933.4184    11133.082    276.53069    -388.7144    681.67835    -4646.753 
38266000    141.19426   -6659.9325   -6296.7189   -6659.9325            0     11251.35      22.9489    21.348903    21.209405    10391.205      10959.3     11003.58    11791.169    845.71488   -151.65157   -358.02187   -4591.6323 
38267000    138.68832   -6647.8105   -6291.0432   -6647.8105            0    12109.167    23.089312    21.094537    21.290911    10369.916    11972.011    12608.395    11747.094     -709.178    346.80833   -7.1638457   -4459.7184 
38268000    131.14116   -6649.7352   -6312.3825   -6649.7352            0    12421.857      23.0544    21.027243    21.382459    10365.585    12966.562    12514.403    11784.607    483.04574   -761.85623   -135.21764   -4434.5527 
38269000     132.3368   -6649.0168   -6308.5884   -6649.0168            0    10329.558    23.140498    21.102917    21.388295    10444.589    9391.7762    11660.181    9936.7161    1092.8301    85.793734    629.27174   -4735.1528 
38270000    140.68803   -6670.9386   -6309.0272   -6670.9386            0    10806.791    22.997869    21.214373    21.358602    10420.549    10288.211    11543.611     10588.55    653.18101    832.81448   -459.64297   -4666.6865 
38271000    134.08392   -6659.1597   -6314.2369   -6659.1597            0    11639.152    23.002126     21.20389     21.34707    10411.704    12984.184    11457.068    10476.203    345.41902    36.599876   -1528.2328   -4546.9014 
38272000    133.86947   -6629.9085   -6285.5374   -6629.9085            0    11796.767      23.0341    21.163295    21.265239    10366.324    11413.632     11613.86    12362.808    916.45995    159.68018    1320.1603   -4502.0762 
38273000    144.06936   -6681.0786    -6310.469   -6681.0786            0    10492.338     22.95864    21.192079    21.416696    10420.107    10634.228    11783.107    9059.6797    709.49721    38.011021   -368.86317   -4715.9842 
38274000    147.06308   -6642.5683   -6264.2575   -6642.5683            0    11359.357    23.051972    21.181893    21.347429    10423.617    11534.602    11805.201    10738.267    342.89709   -227.66621   -481.90373   -4537.4335 
38275000    139.53586   -6632.3117   -6273.3642   -6632.3117            0    11791.969    23.114806    21.126215    21.262328    10382.998    11342.288    11866.382    12167.237    392.72381   -152.31158    1040.6479   -4487.7609 
38276000    136.81129   -6634.0343   -6282.0956   -6634.0343            0    11850.688    23.041922    21.084615    21.439935    10416.164    12766.493    12027.638    10757.933    7.6631136   -220.25804   -66.201516   -4481.8686 
38277000    132.80196   -6621.0462   -6279.4212   -6621.0462            0    12925.186    23.052379    21.155311    21.261704    10368.913    12626.223    14161.755    11987.579   -645.72126   -626.78278   -424.05414   -4324.8751 
38278000    136.32534   -6658.5402   -6307.8516   -6658.5402            0    12228.677    22.999835    21.105277    21.313822    10346.111    11034.466    13210.441    12441.125    758.57543    102.80539   -370.61942   -4462.6982 
38279000    130.66792   -6649.2856   -6313.1504   -6649.2856            0    11167.124    22.996352    21.250124    21.288586    10403.207    11858.273    10764.531    10878.568   -291.97388   -653.97129   -560.13434   -4618.8731 
38280000    144.07566   -6649.4794   -6278.8536   -6649.4794            0    11561.236    22.922972    21.298094    21.355736    10426.204    12484.846    10319.914    11878.948   -559.83438   -241.87141   -185.29476   -4520.9042 
38281000    139.08624   -6633.3536   -6275.5627   -6633.3536            0    12014.514     23.05413     21.07157    21.359623    10376.221    11014.858    12464.543    12564.142    455.21693    231.40528    1033.2519   -4457.4478 
38282000    144.10056   -6653.2737   -6282.5838   -6653.2737            0    12329.676    23.126386    21.055093     21.28923    10366.326    11983.491    12631.729    12373.807    189.96431   -5.0827359   -163.48975   -4418.5558 
38283000    133.06467   -6638.0811   -6295.7803   -6638.0811            0    12042.567    23.071672    21.131737    21.331881    10400.241    12175.246    11782.057      12170.4    177.92697    461.16733   -517.95509   -4469.2016 
38284000    130.92552   -6647.5217   -6310.7238   -6647.5217            0    10119.285    23.022333    21.223257    21.393056    10452.838    9938.4761    9823.5198    10595.858    436.12432    287.81821    507.48276   -4768.1004 
38285000    130.52557   -6645.5283   -6309.7592   -6645.5283            0    11717.677    22.968927    21.270385    21.271824    10392.518    12511.439    11195.464    11446.128    991.14501   -594.08712    -416.1613   -4533.7787 
38286000    131.96313   -6648.7178   -6309.2507   -6648.7178            0    11124.904    22.997841    21.233258    21.343605     10422.49    12246.094    10456.051    10672.567     780.3761    143.31069    689.20158   -4618.2505 
38287000     138.4613   -6646.4846   -6290.3013   -6646.4846            0    11214.502    23.004832    21.170979    21.367146    10406.544    11243.924    12164.656    10234.926   -590.46184   -282.69471   -1078.9771   -4588.2901 
38288000    139.43053   -6666.1979   -6307.5214   -6666.1979            0    9980.9082    23.175081    21.142229    21.330721    10451.474    10145.142    10721.621    9075.9623    169.68895   -212.75786   -1335.7293   -4786.1911 
38289000     136.0578    -6650.746   -6300.7456    -6650.746            0    10747.639    23.168017    21.049356    21.367273    10420.217    10547.588    10067.218     11628.11    1295.5433   -196.36259    934.63396   -4667.4465 
38290000    135.87283   -6645.7571   -6296.2326   -6645.7571            0    12369.829    22.984396    21.132157    21.339233    10364.676    12594.259    12150.248     12364.98   -52.509395    532.11683    -874.9282   -4426.4319 
38291000    130.78083   -6647.8583   -6311.4325   -6647.8583            0    10840.286    23.023398    21.311395    21.225352    10414.447    10184.986    10455.221    11880.652   -1436.0879     1180.478   -678.74017   -4664.9663 
38292000    134.99697    -6645.421   -6298.1496    -6645.421            0     11782.43    22.876718    21.259899    21.347995    10382.741    12435.799     10985.47     11926.02   -978.56239    -934.6306    33.073338    -4514.035 
38293000    142.28831   -6653.5134   -6287.4854   -6653.5134            0    11990.409    23.067681    21.152841    21.273326    10380.255    10613.688    13216.672    12140.866   -43.152155    392.46431    355.45199   -4472.3129 
38294000    140.23882   -6647.1259   -6286.3701   -6647.1259            0    11814.475    23.173332    21.006505    21.328942    10382.731    12055.654    11366.869    12020.902   -283.06128   -554.65273    259.45821   -4497.4047 
38295000    124.15438   -6647.3046    -6327.925   -6647.3046            0    12267.455    22.978542    21.235416    21.241077    10364.772    12215.206    11923.595    12663.564   -138.64157   -127.45422    228.01529   -4473.5817 
38296000    135.51447   -6632.4195   -6283.8168   -6632.4195            0    12891.992    23.035592    21.127021    21.303643    10367.917    13064.007    13342.805    12269.164   -362.04671    772.02257    132.86924   -4334.4775 
38297000    133.90991   -6651.6601    -6307.185   -6651.6601            0    12255.767    22.888491    21.262164    21.324048    10377.537    12462.334    12130.944    12174.024    -154.8651    20.564934    150.32453    -4452.327 
38298000    140.33467    -6645.815   -6284.8126    -6645.815            0    11646.347    23.105015     21.11163     21.32922    10404.063    11465.799    11893.662    11579.579    14.155981    318.26857    151.46379   -4517.6822 
38299000    138.48055   -6633.0106   -6276.7778   -6633.0106            0     12356.99    23.041465    21.096652     21.33632    10371.538    12227.716     12812.88    12030.373    28.576747   -301.35893   -204.12418   -4407.6813 
38300000    140.67048   -6652.4946   -6290.6284   -6652.4946            0    12186.518    23.087375    21.073068    21.334523    10379.711    12758.579    11764.388    12036.588    219.67074   -1078.9355    538.97111   -4445.8645 
38301000    139.64835   -6643.0572   -6283.8203   -6643.0572            0    11094.181    23.225788    21.016918    21.335237    10414.465    9343.4067    11817.789    12121.348    1424.4344     222.2908    609.19848   -4598.7886 
38302000    135.48494   -6660.2494   -6311.7226   -6660.2494            0    11608.155    22.895251    21.260072    21.384788    10409.146    12532.245    11360.108    10932.112   -1012.3614    245.77451    55.994506   -4549.5267 
38303000    131.81201   -6642.8218   -6303.7434   -6642.8218            0    12285.707     22.96929     21.30666    21.195179    10372.896    13370.307    11209.617    12277.196   -525.71379   -583.26761   -613.78672   -4445.1856 
38304000    140.33391   -6647.3813   -6286.3809   -6647.3813            0    11769.272    22.932594    21.128053    21.414724    10375.885    12040.977    11941.089    11325.751    822.63089   -49.808009    137.69281   -4505.4354 
38305000    140.13656   -6654.3673   -6293.8745   -6654.3673            0    11199.561    23.127928    21.123932    21.292223    10402.375    10616.845    11022.553    11959.284    148.55377   -419.01476    1152.8832    -4594.812 
38306000    142.57303   -6649.5971   -6282.8367   -6649.5971            0    10627.973    23.181393    21.115335     21.29599    10424.023    10371.923     11353.08    10158.916    89.398448   -197.56525    379.32103   -4667.1331 
38307000    136.83051   -6641.8023   -6289.8142   -6641.8023            0    12229.578    22.927087    21.043345    21.503706    10374.734    13384.618    13094.778    10209.337   -56.392454   -313.57707   -370.28709   -4439.4198 
38308000    134.40248   -6644.5072    -6298.765   -6644.5072            0     12109.18    22.966716    21.244766    21.270818    10378.511    11888.814    12408.643    12030.082     1357.645   -356.83976    101.59302   -4465.9204 
38309000    137.33892   -6642.6867   -6289.3907   -6642.6867            0    12033.724    23.006619    21.198066    21.279512    10377.929     12216.21    10441.055    13443.905    89.910466     568.0251    1959.4316   -4468.0692 
38310000    135.16221   -6662.5712   -6314.8746   -6662.5712            0    12175.215    22.993097    21.094133    21.423393    10390.762    12426.278    12715.814    11383.554    202.17132    -475.9726    202.58322   -4469.8594 
38311000    129.25516   -6634.3972   -6301.8962   -6634.3972            0    11140.832    23.162668    21.148999    21.262964     10416.03    10261.762      11321.2    11839.535     758.3233    267.42984    478.93829   -4609.5245 
38312000    135.26507   -6636.8345   -6288.8734   -6636.8345            0    12120.594    23.064347    21.065514    21.372563    10384.123    11200.397    12724.833    12436.552     108.3043    184.56731   -63.003818    -4453.309 
38313000    140.21986    -6640.697     -6279.99    -6640.697            0    10585.538    22.949887    21.253762     21.39936    10437.997    12280.646    10160.522     9315.445   -1762.5741   -122.20015   -875.92208   -4668.5803 
38314000    134.40583   -6645.7924   -6300.0416   -6645.7924            0    12174.337     22.99487    21.230779    21.263325    10380.734    13552.827    11340.243    11629.942   -167.56394    49.112948    385.39491     -4456.94 
38315000    129.33948   -6654.1819    -6321.464   -6654.1819            0    11234.764     22.95008    21.197611    21.343431    10383.299    11555.217    10951.504     11197.57    1318.7768    348.41043    360.33559   -4620.1863 
38316000    141.83292   -6640.7886   -6275.9321   -6640.7886            0    11878.221    23.052515    21.214675    21.227031    10381.114     11210.84     12312.96    12110.864    360.97908   -406.21224   -405.07523   -4477.5944 
38317000    135.06288   -6664.7346   -6317.2935   -6664.7346            0    11436.237    23.126668    21.025153    21.358665    10385.474    12091.677    11287.079    10929.953   -406.06426    189.83896   -610.33521   -4585.1441 
38318000    138.22546   -6665.5274   -6309.9508   -6665.5274            0    11222.627    23.059549    21.031962    21.430114    10393.338    11381.245    12231.494    10055.141   -979.01535    462.04375   -114.54656   -4608.8679 
38319000     129.9911   -6666.4753   -6332.0811   -6666.4753            0    10789.874    23.110315    21.194294    21.264615    10415.553    10516.641    10667.549    11185.433    924.89845   -982.47467   -472.65951   -4693.0975 
38320000    134.83088   -6650.6681   -6303.8238   -6650.6681            0     10880.52    23.018293    21.212332    21.351078    10425.127     11293.74    11678.047     9669.774    388.39922    365.04519    382.36091   -4649.5519 
38321000    136.82591   -6653.8865   -6301.9102   -6653.8865            0    10420.744    23.076486    21.143545    21.399173    10441.057    11267.709    10000.892    9993.6318   -182.92581    224.42434   -105.19378   -4715.1215 
38322000    145.43468   -6639.8883   -6265.7665   -6639.8883            0    12065.192     23.01828    21.253553     21.23233    10387.286    12020.334    11961.408    12213.834    873.75958    -1800.978   -376.34785   -4438.0358 
38323000     132.8819    -6660.998   -6319.1674    -6660.998            0    10851.077    23.008649    21.233582    21.328866    10420.346    11418.609    10706.034    10428.587   -200.25391   -53.209145   -627.59358   -4670.1286 
38324000    142.07429   -6663.1087   -6297.6312   -6663.1087            0    11121.272    23.067061    21.084686    21.380162    10398.493    10392.091    11537.705    11434.019     803.1186    707.49887    757.36597   -4611.0754 
38325000    140.21483   -6656.3881    -6295.694   -6656.3881            0    11904.929    23.032728    21.120113    21.332131    10377.096    10486.872    13302.832    11925.084    705.15069    398.65867    165.55529   -4494.0103 
38326000    133.21386   -6651.7648   -6309.0802   -6651.7648            0    9964.8826    23.265212      21.1041     21.29467    10455.499    9716.0892    9878.0061    10300.552    1667.5283   -947.12344    473.08303   -4789.6078 
38327000    133.34788   -6645.0851   -6302.0559   -6645.0851            0    12363.012    23.032538    21.114773    21.294005    10355.845    13003.882    12630.517    11454.636   -387.35469   -30.437422   -164.10161   -4434.8779 
38328000    136.62966   -6628.4058   -6276.9343   -6628.4058            0    11752.507    23.015135    21.207472    21.314829    10403.615    11560.835    12981.349    10715.336    1035.7332    154.47299   -1190.3446   -4493.7729 
38329000    134.98268   -6670.0542   -6322.8195   -6670.0542            0    10315.595     22.99371    21.290738     21.33367    10443.964    11340.722    8967.6117    10638.452    313.78243    210.74092    756.17401   -4751.6048 
38330000    135.03136   -6624.5975   -6277.2376   -6624.5975            0    11974.813    22.905626    21.267346    21.335222     10393.28    11988.955    12168.847    11766.636   -246.30389    417.12566    276.18591   -4462.1513 
38331000    137.33759   -6667.6775   -6314.3849   -6667.6775            0    10534.128    23.147072    21.169694    21.271763    10423.514    10814.986    10115.768    10671.629   -891.34124    50.374702    226.31371   -4713.0262 
38332000    136.82184   -6652.4619   -6300.4961   -6652.4619            0    12751.816     23.08127    21.058639    21.307291    10356.625    12415.749    12505.379    13334.319    295.94511   -356.56974      365.893   -4374.4522 
38333000    137.77769   -6658.9231   -6304.4984   -6658.9231            0    10297.745    23.181293    21.003834     21.43849    10438.316    8846.4264    11891.251    10155.559   -281.19634    226.29771   -158.30291   -4736.8507 
38334000    145.73947   -6647.0709    -6272.165   -6647.0709            0    10984.679     23.07163    21.252191    21.249706    10419.213    10746.081     10896.51    11311.446    631.26475   -947.01698   -378.69165   -4603.0041 
38335000     133.6882   -6648.2296   -6304.3249   -6648.2296            0    11285.435    22.946833    21.265043    21.302428    10394.848    12772.062    10016.804    11067.439   -165.57927   -1220.3492   -226.18177   -4593.4734 
38336000    141.13947   -6664.7253   -6301.6526   -6664.7253            0     12156.27    22.966193    21.210255    21.265706    10358.925     12505.94    11865.488    12097.383    1084.3506    502.25996   -136.79025   -4465.1526 
38337000    132.72879   -6664.6627    -6323.226   -6664.6627            0    10428.642    23.082862    21.192135    21.350785    10444.273    10646.462    10738.045    9901.4187   -106.70026    363.75174   -554.48064   -4734.7457 
38338000    135.70269   -6642.7565   -6293.6696   -6642.7565            0    10539.805    23.086815    21.138019    21.334232    10411.309    10207.808     11302.41    10109.196   -603.32312    638.86354   -647.07008    -4693.324 
38339000    132.12985     -6658.16   -6318.2641     -6658.16            0    12022.807      23.0389    21.140168    21.263881    10356.493    11665.647    11925.953    12476.822   -672.00207     490.0843    499.36805   -4502.3533 
38340000    131.13172   -6647.1855   -6309.8571   -6647.1855            0    11203.206    23.066599    21.204754    21.311485    10423.907    11526.453    11011.463    11071.702    502.45238    -393.0607   -762.08394   -4606.7234 
38341000    137.61192   -6668.2581   -6314.2599   -6668.2581            0    11684.939    23.044697    21.197859    21.270242    10390.476    10690.606    12136.149     12228.06    45.028476    674.80741    91.675628   -4543.5894 
38342000    137.62491   -6648.1399   -6294.1082   -6648.1399            0    11208.721    23.029323    21.116309    21.367451     10390.87    11627.496    11204.994    10793.675   -304.14617    131.22143   -745.75679   -4595.5366 
38343000    134.51303   -6649.3471   -6303.3205   -6649.3471            0    11178.084    23.095971    21.138723    21.329443    10413.447    11191.277    11636.162    10706.814   -421.47883   -63.544934   -451.03872   -4605.7111 
38344000      135.594   -6636.9434   -6288.1361   -6636.9434            0    11821.268    23.234452    21.024078    21.257857    10384.101    11248.291    12010.942    12204.572   -612.95235    267.66837    1255.3676   -4497.9061 
38345000    132.18177    -6667.054   -6327.0244    -6667.054            0    10934.548     23.10065    21.219115    21.268577    10425.332    11066.486    10907.366    10829.793   -133.59947   -390.24733   -137.85758   -4664.5053 
38346000    143.81023   -6658.4101   -6288.4671   -6658.4101            0    11131.964    22.917926    21.302635    21.379015    10437.496    11476.442    11436.339    10483.111    833.97152   -281.11026    -245.5559   -4593.9575 
38347000    135.40675   -6644.8286    -6296.503   -6644.8286            0    11844.731    22.992003    21.190986    21.291605    10373.764    12994.457     10408.97    12130.767    619.65684   -697.89278    650.79003   -4504.5052 
38348000    140.96668   -6685.5954   -6322.9672   -6685.5954            0    11466.413      23.0212    21.159754    21.325275     10388.03    11263.049    11833.799    11302.392   -524.45257    -235.1629   -80.503437   -4585.8198 
38349000    134.21023   -6642.2545   -6297.0069   -6642.2545            0     11452.93    23.226962    21.089798    21.243227    10406.036    10678.147    12211.027    11469.617    1391.8911    -966.8226   -137.08398   -4558.8946 
38350000      134.147   -6657.8751   -6312.7901   -6657.8751            0    11226.592    23.103376    21.075606    21.354805    10398.032    12139.747    11784.659    9755.3697   -214.88239   -1072.9664   -477.37699   -4610.3377 
38351000    131.78049    -6655.544   -6316.5467    -6655.544            0    12267.112    22.978186    21.149655     21.35195    10376.636    13461.088    12490.638    10849.608   -368.19965    114.06557    260.32364   -4460.1329 
38352000    138.79429   -6665.4001   -6308.3603   -6665.4001            0    11138.869    23.021609    21.254322     21.30262    10423.557    11323.293    10209.712    11883.602   -38.734172    634.79123    384.29177   -4615.0641 
38353000    140.29882   -6645.7717   -6284.8616   -6645.7717            0    11376.091    22.872339    21.245421    21.450667    10423.576    12018.226    10982.534    11127.513   -824.72781   -143.43417    293.58724   -4555.5005 
38354000    141.53225   -6646.5892   -6282.5061   -6646.5892            0     13104.26    23.097354    21.139033    21.166594    10334.711    12569.053    13647.481    13096.244    339.46019   -948.29683    5.5121143    -4307.417 
38355000    136.74926   -6642.9632   -6291.1841   -6642.9632            0    11795.687    23.190941    21.071435    21.270676    10394.265    12957.235    11413.582    11016.245   -785.13487   -1155.0081    -509.7815   -4503.0795 
38356000    134.24723   -6648.8358    -6303.493   -6648.8358            0     12340.76     23.01469    21.057096    21.391481    10366.794    12646.425    12738.196    11637.659   -630.64071   -501.20825    475.37721   -4437.7051 
38357000     138.3137    -6660.012   -6304.2084    -6660.012            0    11956.811    23.014461    21.199258    21.275464    10380.075    13216.147    10999.858    11654.426     -1034.32    502.18678    -1111.027   -4494.1535 
38358000     136.8382   -6652.4819    -6300.474   -6652.4819            0     12169.73    22.953928    21.279522    21.237335    10373.346    11867.488    12135.178    12506.522    49.861688    187.17895   -47.475234   -4459.3811 
38359000    127.68861   -6627.0742    -6298.603   -6627.0742            0     13004.83    22.892404    21.209597    21.311265    10347.443    13258.384    12009.145    13746.961    101.21011     550.0635     442.7749   -4336.0851 
38360000    137.82305   -6660.1708   -6305.6294   -6660.1708            0    12353.894    23.060296    21.075512    21.346276    10374.451    12721.004    12674.502    11666.176   -539.66745   -502.18933   -185.94661   -4436.4762 
38361000    133.44789   -6642.5482   -6299.2616   -6642.5482            0    11370.676    23.188131    21.068439    21.314213    10412.797    10567.898    12288.551     11255.58    431.19221   -1305.4406    393.08582   -4572.5111 
38362000    136.92748   -6652.4847   -6300.2471   -6652.4847            0    10625.866    22.997895    21.168111     21.42058     10428.01    10092.261    11691.372    10093.965     381.0161      858.445    695.87665    -4684.246 
38363000    137.89295   -6648.3767   -6293.6555   -6648.3767            0    11439.634    22.971136    21.302911    21.235287    10391.531    12669.225    10885.421    10764.255   -81.625584   -85.351657   -526.73963    -4559.981 
38364000    141.50098   -6654.5729   -6290.5702   -6654.5729            0    11030.407     22.89701     21.34303    21.326463    10422.063    11611.489    10953.861    10525.871    670.91521    726.46463   -44.475042   -4614.0024 
38365000    144.28169    -6663.024   -6291.8681    -6663.024            0    10945.044    22.879893    21.341384    21.291196    10396.248    11805.938    10980.898    10048.295   -50.213005   -312.70801    157.29424   -4632.3958 
38366000    134.67889    -6665.074   -6318.6208    -6665.074            0    12438.509    23.122276     21.07248    21.276135    10366.663    12496.012    12768.729    12050.784    -266.7244    227.38025   -787.26006   -4438.0782 
38367000    127.98635   -6661.8512   -6332.6141   -6661.8512            0    11619.523     23.10948    21.000317    21.423892    10397.152     11773.17    12222.814    10862.585   -1042.3627    222.67977    242.56657    -4570.725 
38368000    133.90646   -6660.4271   -6315.9609   -6660.4271            0    10803.579    23.150794    21.155606    21.231716    10398.638    9876.3495    11528.093    11006.293   -213.23345    859.35605   -52.946707   -4677.5607 
38369000    137.74283   -6661.9713   -6307.6362   -6661.9713            0    10719.472    22.987573    21.222034    21.342719    10411.897    12096.363    10074.852       9987.2    40.065952   -120.13407   -419.73661   -4679.9183 
38370000    131.11928   -6635.8765   -6298.5802   -6635.8765            0    12922.753    22.831446    21.345092    21.270273     10365.84    13253.009     12063.29    13451.961    236.01647   -24.831422    225.47009    -4344.981 
38371000    133.35841   -6646.9162   -6303.8598   -6646.9162            0    11674.967    23.109597    21.230323    21.214895    10408.541     11623.77    10974.739    12426.392    578.34843   -31.859171    84.693389   -4531.6244 
38372000    139.88772   -6637.0285   -6277.1759   -6637.0285            0    11659.978    23.117129    20.992243    21.443388    10406.055    11724.191    11751.825    11503.918   -1247.5484    406.40976   0.86091183   -4507.6385 
38373000    135.53857   -6647.6106   -6298.9459   -6647.6106            0    12222.012    23.151814    21.046915     21.24321     10351.27    11053.247    12836.315    12776.473    387.35723   -550.49096   -501.45536   -4453.8786 
38374000    136.67752   -6655.3389   -6303.7443   -6655.3389            0    10374.491    23.008767    21.176852     21.42018    10437.052    11218.233     10065.44    9839.7988    185.79043   -189.75002     732.6545   -4724.6047 
38375000    137.24179   -6646.2012    -6293.155   -6646.2012            0    10394.353    23.039043     21.22396    21.367495    10448.272    10772.007    10451.393    9959.6592   -313.96205    316.45265   -25.717005   -4709.2913 
38376000    139.87686    -6659.867   -6300.0423    -6659.867            0    11869.859    23.055813     21.27529    21.162284    10380.505    12008.688    10746.246    12854.643   -525.59863   -587.79799     67.03775   -4503.0761 
38377000    134.49267   -6649.2934   -6303.3192   -6649.2934            0    11713.804    22.927257     21.13808     21.46672    10403.592    12429.176    11283.705    11428.532    642.53776   -94.224924     1188.847   -4526.0337 
38378000    136.15611   -6654.7336   -6304.4803   -6654.7336            0    10941.191    23.246237    21.115223    21.240968    10426.118    9819.3231    12112.825    10891.424   -140.66213    491.92423    -320.7408   -4640.8259 
38379000     140.1053     -6636.82   -6276.4077     -6636.82            0    11777.021    23.105722    21.138126    21.294206    10400.339    11680.154    10672.516    12978.391   -583.38827   -282.95394    32.260321   -4490.0895 
38380000    126.98693   -6656.1933   -6329.5272   -6656.1933            0    10668.457    23.080228    21.056438    21.430728    10415.063    10526.419    10240.874    11238.077    218.90431    177.75853    740.68163   -4709.0631 
38381000    130.12003   -6654.5452   -6319.8194   -6654.5452            0    11215.417    23.109586    21.197886    21.194796    10382.787    10185.889     11025.75    12434.612    1166.0812    890.93616    781.67982   -4621.5551 
38382000    137.89844   -6638.1966   -6283.4613   -6638.1966            0    11190.878    22.912241    21.271564    21.384321    10422.273    10863.179    11534.851    11174.603    681.58533   -128.41877    269.24479   -4582.4684 
38383000    143.35957   -6658.1799   -6289.3962   -6658.1799            0    12016.947    23.068298    21.146681    21.264749    10373.326    11114.795    12335.271    12600.776    1362.0687    1108.1733   -119.75414   -4471.4205 
38384000    129.26885   -6650.2787   -6317.7425   -6650.2787            0    12099.009    23.009371    21.232814    21.262197    10387.725    11839.132    12664.059    11793.838    137.61634    291.74227   -160.49011   -4484.8113 
38385000    134.86919   -6664.5048    -6317.562   -6664.5048            0    11617.752    23.039748     21.13353      21.3278    10384.745    11060.931    12556.358    11235.968    519.51541   -682.21209    673.71191   -4558.0436 
38386000    137.15513   -6632.4713   -6279.6481   -6632.4713            0    12549.336    23.168711    20.909104    21.419626    10376.459    11935.231    13741.556     11971.22    60.764164    493.78645    17.362611    -4380.557 
38387000    140.17921   -6670.0683   -6309.4658   -6670.0683            0     10573.56    23.071269    21.169485    21.357471    10431.135    10797.405    10634.061    10289.214    232.83853   -435.00364    732.19157   -4700.9375 
38388000    129.69308   -6652.3483   -6318.7207   -6652.3483            0    10923.825    23.113622    21.175335    21.268079    10409.421    10773.676    10887.753    11110.046    357.20502     462.1082   -188.01299    -4660.367 
38389000    130.18464   -6639.1874   -6304.2953   -6639.1874            0    11956.238     22.87024    21.227117    21.391429    10384.881    11948.946    12313.235    11606.534    1475.6808    -324.8936    258.97213   -4493.4891 
38390000     133.4185   -6639.2042   -6295.9933   -6639.2042            0    11910.456    22.983715    21.222677    21.278096    10378.944     13496.81     11358.08    10876.479   -973.32708    148.25811    126.55681   -4493.1522 
38391000    130.95986   -6646.8932   -6310.0069   -6646.8932            0    12251.117    23.082606    21.072004    21.358052    10388.487    12286.121    12892.213    11575.017     892.3107   -630.13815   -990.65137   -4453.8961 
38392000    137.40809   -6643.0773   -6289.6034   -6643.0773            0    13042.637    23.062595    21.003292    21.340732    10337.246    13840.543    13267.135    12020.234      509.761    251.39417    205.88077   -4323.3198 
38393000    135.57315    -6647.549   -6298.7953    -6647.549            0    11755.468    23.066217     21.21951    21.240632    10396.309     11179.16    11859.524     12227.72   -551.36901    461.37787    23.822539   -4516.4372 
38394000      134.683   -6657.9544   -6311.4906   -6657.9544            0    10268.048    23.031012    21.204053    21.387343    10444.526    11177.309    9780.2617    9846.5735   -258.58142    61.275522   -804.92153   -4747.4338 
38395000    140.04866   -6627.5374   -6267.2708   -6627.5374            0    13124.652    23.032405    21.091453    21.299858    10347.192    13131.661     12969.74    13272.556   -509.54139    847.11997    289.40738    -4286.719 
38396000    134.50695   -6649.9097   -6303.8988   -6649.9097            0    11537.669    23.047705    21.245301    21.211241    10386.199    11511.136    11030.123    12071.747   -346.83105    818.32761    303.36582   -4556.2643 
38397000    133.09958   -6664.7113   -6322.3208   -6664.7113            0    10292.236    22.936516    21.201647    21.461678     10436.64    10859.838    9946.9802    10069.891    76.499365   -704.58459    55.048074   -4755.7632 
38398000    128.13364   -6646.0762   -6316.4602   -6646.0762            0    11746.949    23.079461     21.23747    21.186439    10384.519    12114.569    10401.719    12724.559    1483.9557   -366.75967    386.92726   -4537.4135 
38399000    137.62401   -6638.1271   -6284.0977   -6638.1271            0    11547.378    23.079662    21.119911    21.358816     10411.15    12174.808    10575.965    11891.361   -603.72826   -474.22848    398.55668   -4530.7906 
38400000    135.89339   -6658.8397   -6309.2622   -6658.8397            0    11179.456    23.179531    20.998694    21.396025    10414.299    11624.777    11437.377    10476.215   -841.96348    399.30527    55.342922   -4611.3056 
38401000    138.95035   -6642.7295   -6285.2882   -6642.7295            0    11346.122    23.051307    21.210466    21.270094    10399.565    10369.128    12351.667    11317.572   -996.04355   -441.85184    518.03855   -4564.4561 
38402000    134.52231   -6663.6566   -6317.6062   -6663.6566            0    11555.367    23.070582    21.137334    21.310076    10391.871    11897.744    10939.473    11828.883   -194.97868    155.39346    63.933016    -4566.335 
38403000    139.42445   -6646.4897   -6287.8288   -6646.4897            0    10997.324    23.094655    21.186629    21.330223    10436.833     10813.39    10678.442    11500.139    143.49347    119.48551    -642.4767   -4613.9206 
38404000    139.28574   -6656.4388   -6298.1347   -6656.4388            0    11271.856    22.913227    21.343954    21.266142    10400.395    11305.651    10225.122    12284.794   -185.30307   -602.73443    326.14004   -4588.4299 
38405000    131.80325   -6649.2337   -6310.1778   -6649.2337            0    12528.909    23.079233    21.096575      21.2757    10358.985    11765.616    13065.919    12755.191    499.85429      701.236   -387.31704   -4417.3709 
38406000    130.44883    -6666.151   -6330.5793    -6666.151            0    11478.782    22.964505    21.214155    21.348795    10400.547    11336.663    10888.687    12210.995   -766.04088    153.82872   -56.673422   -4589.4627 
38407000    129.83323   -6642.5068   -6308.5187   -6642.5068            0     12482.02    23.123237    21.055525    21.306008    10373.297    11473.169    13379.359    12593.531    1105.5067   -315.62368     881.4309   -4420.1902 
38408000    137.44949   -6661.3863   -6307.8059   -6661.3863            0    11710.575    23.251254    20.992965    21.241766    10368.377    10995.845    12120.929    12014.949      1032.57    44.701612    -216.2628   -4537.0248 
38409000    133.83764   -6647.7005   -6303.4113   -6647.7005            0    11495.943    22.987576    21.246393    21.311499    10408.601    10864.497    11691.675    11931.657   -318.50231   -437.91607    464.31121   -4558.3412 
38410000    134.75981   -6651.3821   -6304.7207   -6651.3821            0    10979.071    22.994699    21.129478    21.401908    10398.459    11309.887     11931.18    9696.1459    471.02825   -95.723567     -822.558   -4639.7351 
38411000    133.94059   -6662.4957   -6317.9417   -6662.4957            0    11226.485    23.119084    21.179214    21.203511    10382.172    11152.989    9879.4699    12646.997   -275.41368    441.24072    744.28968   -4618.1021 
38412000    138.78214   -6660.2793   -6303.2707   -6660.2793            0    11373.329    23.040306    21.144375    21.365136    10408.515    10848.031    12389.435     10882.52   -968.00339   -489.61513    692.57959   -4576.8277 
38413000    134.58188     -6642.29   -6296.0863     -6642.29            0     12205.09    23.080554      21.0462    21.351069    10371.452    11358.199    12746.032     12511.04   -219.13185    202.97971   -69.147252   -4449.9811 
38414000    131.49487   -6640.6964   -6302.4338   -6640.6964            0    12831.833    23.048225     21.20813    21.164928    10345.624    12806.141    12336.533    13352.826    61.285502   -580.03401   -197.52388   -4366.3628 
38415000    138.07243   -6658.2085   -6303.0255   -6658.2085            0    11743.715     22.86872    21.256074    21.425158    10414.753    12914.943    10523.372    11792.831   -89.979849    560.08097   -676.02434   -4519.2904 
38416000    138.02761   -6632.8868   -6277.8192   -6632.8868            0    11991.634    23.037253    21.257265    21.208616     10386.05    12092.854    11135.123    12746.926   -237.59827     856.8996   -51.739361   -4461.4477 
38417000    135.29974   -6653.2722   -6305.2219   -6653.2722            0    11504.446    22.958042    21.169872    21.408979    10405.167    11216.332    13182.515    10114.492    86.215336    42.630421   -400.96338   -4559.4373 
38418000    138.76662   -6647.8055   -6290.8368   -6647.8055            0    10357.756    23.158496    21.212974    21.244053    10436.366    9994.8457    10732.348    10346.074   -1047.2241    588.23007   -137.96853   -4714.3481 
38419000    142.83804   -6637.1827   -6269.7406   -6637.1827            0    12438.618     23.14872    20.998681     21.36229    10384.051    13199.438    13063.789    11052.627   -888.11342   -413.21877   -410.42926   -4386.0272 
38420000    136.78836   -6652.9839   -6301.1042   -6652.9839            0    11809.023    23.101944    21.090824    21.318455    10387.184    11608.911    12577.324    11240.833   -874.97272    515.32289    198.16323   -4512.1976 
38421000    140.69326   -6669.3353   -6307.4105   -6669.3353            0    10257.194    22.988904    21.250403    21.375042     10442.21    10423.214    10670.771    9677.5958   -277.74517    118.82135   -584.87164   -4745.3536 
38422000     137.9501     -6651.53   -6296.6618     -6651.53            0    11595.176    22.851108    21.309736    21.360034    10401.292    12434.137    10916.435    11434.955    13.015939   -297.64792   -886.75082   -4537.7644 
38423000    133.60015   -6651.0626   -6307.3843   -6651.0626            0     11593.73    22.920982    21.308804    21.256325    10381.987    11976.473    10052.576     12752.14    23.790708    27.593455    444.18735   -4551.9704 
38424000    138.07109   -6675.7772   -6320.5977   -6675.7772            0      9943.15    23.073605    21.182155    21.373116    10446.082    10356.875    9963.3866    9509.1887    418.84702   -597.31785   -433.53586   -4805.8046 
38425000    139.82496   -6648.1775   -6288.4863   -6648.1775            0    12304.706    23.155271    21.024757    21.253721    10347.033    11832.193    13779.832    11302.092    7.3364694   -265.46417    341.69619   -4431.6956 
38426000    136.69827   -6668.1503   -6316.5023   -6668.1503            0     11327.67     23.12364    21.112384    21.328764      10412.6    10604.364    11984.208    11394.439   -1187.5445    1139.9554    211.39301   -4596.3153 
38427000    143.44616   -6647.3956    -6278.389   -6647.3956            0    11660.828    23.097198    21.113664    21.360874    10416.982    11803.365    12386.105    10793.015   -671.04096    499.78843   -743.68595   -4506.8643 
38428000    139.13541   -6652.0473   -6294.1299   -6652.0473            0    11048.458    22.950929     21.28425    21.303684    10406.707     11538.91    10961.743     10644.72    764.84101   -521.24706   -186.53583   -4617.2928 
38429000     136.6951    -6646.438   -6294.7982    -6646.438            0    12105.273    22.889527    21.359184    21.251124    10389.709     13656.27    9990.1378     12669.41   -776.88606    307.11252   -801.45129   -4460.5679 
38430000    138.61498   -6644.1223   -6287.5438   -6644.1223            0    11941.393    22.929766    21.273042     21.25269    10366.762    11783.271    11892.346    12148.562   -362.30025     870.2738    72.233495   -4482.1415 
38431000    135.30549   -6647.7857   -6299.7205   -6647.7857            0    12079.718     23.01879    21.069027    21.401721    10379.482    12016.006    12431.262    11791.886    341.12865     205.8255       534.01   -4471.1642 
38432000    139.17007   -6641.5005    -6283.494   -6641.5005            0    12966.286    23.084163    21.057784    21.281239    10344.838    12651.744    13747.722    12499.393   -55.802312   -880.34021    116.37805   -4327.2852 
38433000    137.51678   -6669.9949   -6316.2413   -6669.9949            0    10884.264    23.205209    21.059356    21.296501    10407.318    11188.597    11333.277    10130.917   -714.77496   -18.547796   -233.31431   -4664.2272 
38434000    134.71017   -6654.7374   -6308.2037   -6654.7374            0    11789.534    23.009676    21.173735    21.285091    10370.113     12603.29    11257.256    11508.057    312.38155   -1844.6854     961.1273   -4525.1845 
38435000    134.84982   -6644.2956   -6297.4027   -6644.2956            0    10603.952    23.071548    21.185532    21.359422    10440.123    10567.079    12213.827    9030.9487    -439.3244    602.05333   -1150.5152    -4682.861 
38436000    134.04236   -6639.8258     -6295.01   -6639.8258            0    11106.207    23.087039    21.256047    21.296332    10450.944    10074.039    11818.681    11425.901    1282.0806   -213.53734   -586.25213    -4602.243 
38437000    138.85921   -6674.2735   -6317.0666   -6674.2735            0    11941.774    22.958046    21.205318    21.315905    10377.279    12515.507     10997.28    12312.534    287.91031    -376.6142    788.71077   -4509.7751 
38438000    137.54827   -6643.7227   -6289.8882   -6643.7227            0    11040.608    23.119348    21.085649    21.409021    10436.608    10864.001     11382.97    10874.852    630.10076   -59.510768    168.06661    -4609.428 
38439000    130.28142   -6657.3776   -6322.2366   -6657.3776            0    12106.852    23.119223    21.090281    21.295167     10383.33    10989.273    13149.141    12182.141    589.52455   -1402.8429   -658.87014   -4488.8935 
38440000    143.31302   -6627.2342   -6258.5701   -6627.2342            0    12508.029    23.066492    21.048099    21.305629    10344.007    13430.603    11652.506    12440.977   -586.58586    368.13021     1781.183   -4371.6499 
38441000    137.23571   -6636.5601   -6283.5296   -6636.5601            0    11718.352    23.058083    21.187428     21.27376    10393.114    12410.875    11006.948    11737.233    777.78221   -250.88777    403.98983   -4507.3449 
38442000    132.55345   -6632.3136   -6291.3279   -6632.3136            0    11851.965    23.010868    21.200475    21.305488    10393.698    12666.791    12538.581    10350.524   -759.47775    399.69198     -355.898   -4494.7903 
38443000     134.3519   -6646.4947   -6300.8827   -6646.4947            0    11346.094    23.063541    21.128581    21.280851    10370.156      10928.4    11597.819    11512.063    175.16735    215.86966    938.08722   -4584.9211 
38444000    132.13824   -6639.3577   -6299.4402   -6639.3577            0     11607.21    23.078551    21.065744    21.409118    10408.404    10945.428    12093.434    11782.768    389.63992   -170.56483    155.20411   -4537.5133 
38445000    137.69698   -6647.4443   -6293.2272   -6647.4443            0    10698.893     23.09309    21.165602    21.361436    10441.025    10438.443    11658.713    9999.5217    504.79838   -580.32335   -71.480438   -4664.0894 
38446000    133.18338    -6648.254   -6305.6478    -6648.254            0    11397.989    23.119312    21.109978    21.302877     10396.83     10765.96    11656.151    11771.856    725.68411    640.96604    296.24482   -4577.4038 
38447000    131.96324   -6633.6689   -6294.2015   -6633.6689            0    11419.362    22.942396    21.305453    21.266192    10394.875    11566.837    10935.005    11756.244   -453.92609   -553.86264    655.58713   -4563.0422 
38448000    139.24377   -6648.4298   -6290.2337   -6648.4298            0    11676.226    22.998997    21.220775    21.269373    10380.657    12736.904    10771.857    11519.917    130.40256   -552.32236   -511.26709   -4522.5555 
38449000    148.07455   -6662.2797    -6281.367   -6662.2797            0    13144.337    23.027937    21.043232    21.334262    10338.204    12462.598    15218.665    11751.747    439.95428    622.58154   -581.23871   -4299.5678 
38450000    133.68736   -6648.0881   -6304.1855   -6648.0881            0    12325.643    23.168509    21.096473    21.186712     10355.51    10825.607    12936.379    13214.943    156.92444   -360.83179    371.63391   -4442.7114 
38451000    142.33983   -6657.8043   -6291.6437   -6657.8043            0      12341.9    23.122659    21.034955    21.313339    10366.469    12986.348    13165.005    10874.348   -58.636592   -1424.2287   -755.50153    -4425.742 
38452000    137.16559    -6651.489   -6298.6389    -6651.489            0    11667.168    22.928238    21.152961    21.396792    10377.447    13312.975    10969.097    10719.432   -404.96862   -389.71129     169.8675   -4532.8782 
38453000    131.61732    -6662.506   -6323.9284    -6662.506            0    12611.671    22.999895    21.240801    21.214237    10363.923    11152.327    12212.534    14470.151    675.99678    419.17583    -435.7759   -4417.7099 
38454000     133.5954   -6654.9242   -6311.2582   -6654.9242            0    11178.378    23.103595     21.19417    21.268358    10414.296    11188.058    10526.522    11820.553   -211.68222   -601.40084    122.78204   -4613.4658 
38455000    135.22424   -6663.2198   -6315.3637   -6663.2198            0    10968.447    23.028563    21.135712    21.411071    10421.305     10985.39    11358.034    10561.915   -320.67018    188.18973    1386.5575   -4648.3347 
38456000    133.45551   -6655.4133   -6312.1072   -6655.4133            0     13318.79    23.003088    21.207074    21.197778    10340.874    13861.328    12361.417    13733.625    216.72319   -235.21634    150.25297   -4303.4866 
38457000    134.38192   -6670.8483    -6325.159   -6670.8483            0    10266.533     23.03159    21.222472    21.368452    10444.627    10543.104    9763.0504    10493.445   -329.19343    224.51158   -86.354548   -4761.3178 
38458000      135.219   -6646.4733   -6298.6306   -6646.4733            0    9833.8549     23.11238    21.153585    21.332572    10429.702    9589.6377    9952.5642     9959.363     262.7297   -537.51172    1401.2449   -4802.8374 
38459000    135.58578   -6636.3187   -6287.5325   -6636.3187            0    11648.717    23.017239    21.186125    21.323995    10398.563     11566.07     11088.11     12291.97   -1388.9814   -497.07673   -1321.2273    -4520.977 
38460000    136.00451   -6650.6787   -6300.8154   -6650.6787            0    11928.997     23.01915    21.230025    21.223679    10371.951    12203.016     10906.88    12677.096    862.52692   -101.48533    1101.8938   -4496.3845 
38461000    133.98561   -6633.1089   -6288.4391   -6633.1089            0     12037.75    23.012808    21.071458    21.428266    10390.854    13098.187    12295.315    10719.749   -247.30309     59.82007   -103.35043   -4464.2391 
38462000    131.61482   -6643.8331    -6305.262   -6643.8331            0    12613.682    23.068461    21.160215    21.232556    10364.324    12357.837    13969.529    11513.679   -523.66124      219.507   -1146.1183   -4398.6658 
38463000    133.28796    -6647.771   -6304.8958    -6647.771            0    11045.704    23.099277    21.161876    21.272268    10398.396    11557.342     9863.854    11715.916     439.6705   -45.145543    399.31419   -4629.8155 
38464000     142.5735   -6664.9006    -6298.139   -6664.9006            0    11634.735    22.924664    21.193309     21.38067    10387.788    11162.637    11870.783    11870.785    553.78641    185.55397    430.78921   -4535.5321 
38465000    130.35558    -6653.711   -6318.3792    -6653.711            0    12131.424    23.096963    21.150362    21.209765    10361.164    11293.901    12642.884    12457.488   -596.05072    1018.6331   -267.15742   -4485.2367 
38466000    132.38541   -6645.6809   -6305.1274   -6645.6809            0    11682.723    23.038971    21.164285    21.348407    10409.555    11588.267    12271.334    11188.568   -292.65423   -407.96674   -338.18628   -4531.5419 
38467000    140.10623   -6664.2543   -6303.8396   -6664.2543            0    11088.823    23.125793    21.143073    21.277022    10403.407    10235.415    11989.298    11041.755   -922.76454    390.32299    156.13697   -4621.4099 
38468000     139.9418   -6647.9566   -6287.9649   -6647.9566            0    11547.615    23.092888    21.144692    21.301346    10401.277    10611.031     12490.67    11541.143    267.35579    392.45647   -563.26815   -4536.2846 
38469000    132.75147   -6655.3013   -6313.8062   -6655.3013            0    10025.687    23.043874    21.212747    21.356937    10439.781    9085.3883    10390.203    10601.471    570.18675    201.07401    637.27737   -4787.3603 
38470000    135.25148   -6663.1502    -6315.224   -6663.1502            0    12407.975    23.015188    21.090673    21.326026    10351.777    13244.942    11950.679    12028.305   -240.11102    255.36579    462.37597   -4441.9914 
38471000    128.10089    -6625.896   -6296.3643    -6625.896            0    13798.425    22.927156    21.219167    21.215123    10321.055     14270.19    13660.196    13464.888   -687.39307   -637.97123   -1303.1793   -4219.3978 
38472000    135.41101   -6657.8799   -6309.5433   -6657.8799            0    11460.964    22.985441    21.165748    21.334616    10379.377     11170.75    11829.975    11382.166    828.86475     504.6718    64.272384   -4574.6678 
38473000    136.83811   -6657.5426   -6305.5349   -6657.5426            0    13024.473    23.131251    21.071547    21.236546    10350.931    11938.699    13265.991    13868.729   -5.0097665   -39.456642   -344.11032   -4339.3902 
38474000    138.10924   -6644.0748   -6288.7972   -6644.0748            0    11139.929     23.07795    21.161763    21.321895    10412.976    10585.309    12325.496    10508.981    73.088897   -754.28558   -1396.2601   -4597.0589 
38475000    132.50206   -6641.0218   -6300.1683   -6641.0218            0    13070.948    23.077802    21.091274    21.228547    10332.788    11842.837    13768.136    13601.869    770.02867    560.21205    9.9900124   -4330.4665 
38476000     132.7053   -6650.8497   -6309.4734   -6650.8497            0    10997.049    22.998928    21.192203    21.405585    10433.038    10766.606    12025.827    10198.715    368.12547   -144.42894   -372.90443   -4636.2156 
38477000    143.28057   -6645.7089   -6277.1283   -6645.7089            0    10001.881    23.057224    21.405172    21.172248    10449.432      9675.14    9665.2673    10665.236   -124.68302    218.48284   -63.441881   -4752.8991 
38478000    141.22374   -6636.8774   -6273.5879   -6636.8774            0    12157.207    23.058947    21.105134    21.320442    10375.852     12377.73    11586.142    12507.749  -0.53124997    316.77407     764.9184   -4433.9452 
38479000    137.39412   -6647.5383   -6294.1003   -6647.5383            0    11678.446    23.200535    20.996529    21.355066    10402.708    11777.269    12533.749    10724.319   -1143.6429    -375.6951   -172.76842   -4522.3304 
38480000    145.72027   -6660.3342   -6285.4777   -6660.3342            0    11471.641    23.183447    21.115008    21.293689    10423.658    11944.646    11276.615    11193.663   -747.85512   -684.50899     391.2534   -4541.5775 
38481000    142.19096   -6644.4826    -6278.705   -6644.4826            0     11935.53    22.972677    21.161273    21.361451    10384.466    12192.772    12381.386     11232.43   -74.170184   -407.58883   -533.85788   -4471.1074 
38482000    137.38232   -6649.2834   -6295.8758   -6649.2834            0     11582.19    23.007284    21.288992    21.244397    10405.545     10659.32    11601.325    12485.925    234.90173     931.0135   -193.64154   -4538.2298 
38483000    135.10174   -6650.6836   -6303.1426   -6650.6836            0    12744.765    23.030202    21.174514    21.265691    10370.286    12525.985    12916.812    12791.499    242.68875    360.78633   -1319.7935   -4375.6245 
38484000     138.5534   -6654.9702     -6298.55   -6654.9702            0    11339.838    23.002325    21.158929    21.342335    10387.411    12188.847    10851.111    10979.555   -159.61955   -1079.7972    745.63266   -4580.6809 
38485000    136.63569   -6657.0539    -6305.567   -6657.0539            0     12079.94    23.157839    21.078578    21.255413    10375.496    11515.825     11703.53    13020.465   -337.50978    686.31768    917.77684   -4477.6791 
38486000     137.1425   -6658.3785   -6305.5878   -6658.3785            0    11312.487    23.040851    21.052453    21.451008    10405.164    11803.213    11609.867    10524.382    -114.8153   -877.53666   -762.42987   -4588.9332 
38487000    132.03476   -6649.6344    -6309.983   -6649.6344            0     12189.18    22.994324    21.277696    21.186647    10365.911    11582.911    11615.883    13368.745   -151.63342    686.84798    749.23574   -4467.2694 
38488000    137.01671   -6644.8655   -6292.3984   -6644.8655            0    11150.771    23.087064    21.110749     21.40457     10432.27    10911.888    12273.926    10266.499    875.47891   -288.94452   -1019.7693   -4595.8759 
38489000    136.19721   -6662.0667   -6311.7077   -6662.0667            0    10951.332    23.106685    21.116562    21.399752    10441.662    11013.291    11081.928    10758.778    274.80047    205.78957    117.00587   -4644.0287 
38490000    133.61356   -6637.8442   -6294.1315   -6637.8442            0    11696.239    23.096182    21.131786    21.298665    10395.103    11576.707    11770.917    11741.095    572.74417    564.37983    756.75533   -4520.9593 
38491000    135.60529      -6662.2   -6313.3636      -6662.2            0    11428.575    23.034607    21.109228    21.431466    10420.895    11227.737     11853.42    11204.566    404.86902   -84.727357   -399.03946    -4576.471 
38492000     136.7258   -6657.0344   -6305.3156   -6657.0344            0    11954.023    23.064702    21.179355    21.253472    10382.226    12311.073    11040.509    12510.488   -467.73291    500.75143    153.21216   -4495.3077 
38493000    137.61972   -6645.9696   -6291.9513   -6645.9696            0    11752.657    23.011947    21.216915    21.287867    10393.642    11875.145    11412.386    11970.441     1275.892   -546.04874   -168.31798   -4510.4763 
38494000    133.17251   -6646.8275   -6304.2494   -6646.8275            0    11367.404    23.029947    21.217717    21.294843    10405.574    10268.443    11622.484    12211.285    933.15296    517.87832   -462.13369   -4579.1933 
38495000    140.68193   -6638.5887    -6276.693   -6638.5887            0    11657.594    22.896135    21.253715    21.372676    10400.541    12379.863    11354.693    11238.227   -713.41177    1336.6735   -226.70599   -4508.4549 
38496000    133.24924   -6648.8058   -6306.0303   -6648.8058            0    11672.549     23.11553    21.076789    21.315924    10385.143    12234.443    10828.781    11954.424   -85.906733    1136.7551   -103.94546    -4538.145 
38497000    128.99284   -6639.6736   -6307.8474   -6639.6736            0    10655.737    23.234595    21.088578    21.322342    10447.619    10682.263    10038.184    11246.764    -668.6676   -987.42844    190.73487   -4684.2561 
38498000    140.75333   -6653.1383   -6291.0589   -6653.1383            0    12072.775    23.045158    21.154259    21.300363    10383.996    11286.689    12924.713    12006.924    717.53856   -496.84406    421.06983   -4462.7587 
38499000    137.98534   -6652.9122   -6297.9534   -6652.9122            0    13275.391    22.938848    21.128752    21.305008    10325.882    13546.992    12790.647    13488.535     705.2093    961.48835    351.99115   -4298.7803 
38500000    146.09902   -6649.9621   -6274.1313   -6649.9621            0     11119.42     22.95208    21.260223    21.348374    10417.288    11757.721    10774.118     10826.42    30.399463    567.57407    26.413771   -4584.8083 
Loop time of 505.032 on 64 procs for 250000 steps with 1296 atoms

Performance: 85.539 ns/day, 0.281 hours/ns, 495.018 timesteps/s
99.1% CPU use with 64 MPI tasks x 1 OpenMP threads

MPI task timing breakdown:
Section |  min time  |  avg time  |  max time  |%varavg| %total
---------------------------------------------------------------
Pair    | 30.879     | 42.102     | 53.178     | 109.0 |  8.34
Bond    | 0.27982    | 0.28674    | 0.29576    |   0.6 |  0.06
Kspace  | 244.1      | 255.25     | 266.39     |  44.5 | 50.54
Neigh   | 1.9659     | 1.9852     | 2.0093     |   0.6 |  0.39
Comm    | 90.962     | 92.369     | 93.919     |   8.5 | 18.29
Output  | 0.58637    | 0.58759    | 0.58863    |   0.1 |  0.12
Modify  | 98.494     | 101.95     | 104.88     |  24.6 | 20.19
Other   |            | 10.5       |            |       |  2.08

Nlocal:        20.2500 ave          27 max          13 min
Histogram: 4 3 9 6 4 10 8 14 4 2
Nghost:        2684.86 ave        2705 max        2664 min
Histogram: 3 5 6 7 9 12 7 6 5 4
Neighs:        6706.73 ave        8969 max        4352 min
Histogram: 4 7 5 6 7 7 9 13 4 2

Total # of neighbors = 429231
Ave neighs/atom = 331.19676
Ave special neighs/atom = 2.0000000
Neighbor list builds = 3511
Dangerous builds = 0

unfix		3
unfix		2
unfix		1

write_data	data.final.${pid}
write_data	data.final.0
System init for write_data ...
PPPM initialization ...
  extracting TIP4P info from pair style
  using 12-bit tables for long-range coulomb (../kspace.cpp:340)
  G vector (1/distance) = 0.37123461
  grid = 30 40 32
  stencil order = 5
  estimated absolute RMS force accuracy = 0.0037450123
  estimated relative force accuracy = 1.1277993e-05
  using double precision FFTW3
  3d grid and FFT values/proc = 5168 640
Last active /omp style is kspace_style pppm/tip4p/omp
WARNING: Not all mixed pair coeffs generated from mixing. Use write_data with 'pair ij' option to store all pair coeffs. (../write_data.cpp:312)

write_restart   restart.lmp.${pid}
write_restart   restart.lmp.0
System init for write_restart ...
PPPM initialization ...
  extracting TIP4P info from pair style
  using 12-bit tables for long-range coulomb (../kspace.cpp:340)
  G vector (1/distance) = 0.37123461
  grid = 30 40 32
  stencil order = 5
  estimated absolute RMS force accuracy = 0.0037450123
  estimated relative force accuracy = 1.1277993e-05
  using double precision FFTW3
  3d grid and FFT values/proc = 5168 640
Last active /omp style is kspace_style pppm/tip4p/omp
Total wall time: 0:08:25
