#include		in.partitions
include		in.temp
variable        temperature equal 131.12
variable	tempDamp equal 100.0
include		in.pressure
variable        pressure equal 6918.8
variable        pressureDamp equal 1000.0 # This is 1 ps
include		in.seed
variable        seed equal 745823

units		real
atom_style	full
box tilt large
read_restart	restart.lmp.${pid}
read_restart	restart.lmp.0
Reading restart file ...
  restart file = 30 Jul 2021, LAMMPS = 30 Jul 2021
  restoring atom style full from restart
  triclinic box = (-10.688767 -9.1030790 0.16403295) to (12.668767 12.093077 21.695966) with tilt (-9.1836802 1.9724989 2.7360226)
  4 by 4 by 4 MPI processor grid
  restoring pair style lj/cut/tip4p/long/omp from restart
  restoring bond style harmonic/omp from restart
  restoring angle style harmonic/omp from restart
  1296 atoms
  864 bonds
  432 angles
Finding 1-2 1-3 1-4 neighbors ...
  special bond factors lj:    0        0        0       
  special bond factors coul:  0        0        0       
     2 = max # of 1-2 neighbors
     1 = max # of 1-3 neighbors
     1 = max # of 1-4 neighbors
     2 = max # of special neighbors
  special bonds CPU = 0.007 seconds
  read_restart CPU = 0.019 seconds
include 	in.setup
variable	out_freq equal 1000
variable	out_freq2 equal 10000
variable	out_freq3 equal 1000

timestep	2.0

neigh_modify    delay 7 every 1

include		in.tip4p
# This is TIP4P/Ice

# create groups ###
group ox type 2
432 atoms in group ox
group hy type 1
864 atoms in group hy

# set charges - beside manually ###
set group ox charge -1.1794
Setting atom values ...
  432 settings made for charge
set group hy charge 0.5897
Setting atom values ...
  864 settings made for charge

# ### TIP3P Potential Parameters ###
pair_style lj/cut/tip4p/long/omp 2 1 1 1 0.1577 8.5
pair_coeff 1 1*2 0.000 0.000
pair_coeff 2 2 0.21084 3.1668
bond_style  harmonic
bond_coeff  1 450 0.9572
angle_style harmonic
angle_coeff 1 55 104.52
kspace_style pppm/tip4p/omp 1.0e-5
pair_modify tail yes

thermo          ${out_freq}
thermo          1000
thermo_style    custom step temp pe etotal epair emol press lx ly lz vol pxx pyy pzz pxy pxz pyz enthalpy

restart 	${out_freq3} restart.lmp.${pid} restart2.lmp.${pid}
restart 	1000 restart.lmp.${pid} restart2.lmp.${pid}
restart 	1000 restart.lmp.0 restart2.lmp.${pid}
restart 	1000 restart.lmp.0 restart2.lmp.0


include         in.dump
dump            myDump all atom ${out_freq2} dump.water.${pid}
dump            myDump all atom 10000 dump.water.${pid}
dump            myDump all atom 10000 dump.water.0
dump            myDump2 all dcd ${out_freq2} dump.dcd
dump            myDump2 all dcd 10000 dump.dcd
dump_modify     myDump append yes
dump_modify     myDump2 append yes


variable natoms 	equal  "count(all)"                        # NUMBER ATOMS
variable H      	equal  "enthalpy/v_natoms"                 # ENTHALPY-per-atom
variable Vol      	equal  "vol/v_natoms"                 # volume-per-atom
fix AVG all 		ave/time ${out_freq} 1 ${out_freq} v_Vol v_H file vol_enthalpy.dat
fix AVG all 		ave/time 1000 1 ${out_freq} v_Vol v_H file vol_enthalpy.dat
fix AVG all 		ave/time 1000 1 1000 v_Vol v_H file vol_enthalpy.dat


timer           timeout 10:00:00 every 1000
New timer settings: style=normal  mode=nosync  timeout=10:00:00

fix 		1 all shake 1e-6 200 0 b 1 a 1
       0 = # of size 2 clusters
       0 = # of size 3 clusters
       0 = # of size 4 clusters
     432 = # of frozen angles
  find clusters CPU = 0.004 seconds
fix             2 all nph tri ${pressure} ${pressure} ${pressureDamp}
fix             2 all nph tri 6918.8 ${pressure} ${pressureDamp}
fix             2 all nph tri 6918.8 6918.8 ${pressureDamp}
fix             2 all nph tri 6918.8 6918.8 1000
fix             3 all temp/csvr ${temperature} ${temperature} ${tempDamp} ${seed}
fix             3 all temp/csvr 131.12 ${temperature} ${tempDamp} ${seed}
fix             3 all temp/csvr 131.12 131.12 ${tempDamp} ${seed}
fix             3 all temp/csvr 131.12 131.12 100 ${seed}
fix             3 all temp/csvr 131.12 131.12 100 745823


run             250000
PPPM initialization ...
  extracting TIP4P info from pair style
  using 12-bit tables for long-range coulomb (../kspace.cpp:340)
  G vector (1/distance) = 0.36850443
  grid = 30 40 32
  stencil order = 5
  estimated absolute RMS force accuracy = 0.0042838499
  estimated relative force accuracy = 1.2900687e-05
  using double precision FFTW3
  3d grid and FFT values/proc = 5168 640
Last active /omp style is kspace_style pppm/tip4p/omp
Neighbor list info ...
  update every 1 steps, delay 7 steps, check yes
  max neighbors/atom: 2000, page size: 100000
  master list distance cutoff = 10.8154
  ghost atom cutoff = 10.8154
  binsize = 5.4077, bins = 7 5 4
  1 neighbor lists, perpetual/occasional/extra = 1 0 0
  (1) pair lj/cut/tip4p/long/omp, perpetual
      attributes: half, newton on, omp
      pair build: half/bin/newton/tri/omp
      stencil: half/bin/3d/tri
      bin: standard
Per MPI rank memory allocation (min/avg/max) = 9.445 | 9.450 | 9.454 Mbytes
Step Temp PotEng TotEng E_pair E_mol Press Lx Ly Lz Volume Pxx Pyy Pzz Pxy Pxz Pyz Enthalpy 
19500000    136.31829   -6668.9324   -6318.2619   -6668.9324            0    5212.2351    23.357535    21.196156    21.531933    10660.244    5446.5409    5233.3479    4956.8166   -1011.2668    235.48797   -374.11866   -5507.9224 
19501000    129.15308   -6670.8041   -6338.5657   -6670.8041            0    6426.6292    23.299682    21.079215    21.593087    10605.207    7415.2069    6550.6902    5313.9904     -858.619   -304.82211    116.33588   -5344.5842 
19502000    133.57932   -6682.6666    -6339.042   -6682.6666            0    6797.6512     23.31645    21.154077     21.48479    10597.114    6112.2132    7630.9181    6649.8222   -1042.1393   -180.38619   -150.32684   -5288.4783 
19503000    134.07546   -6686.5348   -6341.6338   -6686.5348            0    5634.4059    23.208095    21.286802    21.502768    10622.929    4705.4187    6500.5425    5697.2563   -21.129235   -163.64634   -138.32917   -5468.7262 
19504000    125.02217   -6676.7428   -6355.1309   -6676.7428            0    7661.0292    23.080651     21.32792    21.497362     10582.34    7818.3407    8015.4696    7149.2773      100.449    -118.5004   -740.88715   -5172.7845 
19505000    131.84578   -6678.4304   -6339.2651   -6678.4304            0    6246.0239    23.120737     21.34717    21.501217     10612.19    6236.2023    5690.8547    6811.0148    15.404281    856.46898    657.62715   -5372.5811 
19506000    131.74291   -6667.9391   -6329.0385   -6667.9391            0    6282.0412    23.041292    21.383248    21.569043    10627.017    6517.8274    5535.7164    6792.5798    114.01221   -170.89139    228.76308   -5355.4217 
19507000    135.92852   -6689.1666   -6339.4987   -6689.1666            0    8386.9753    23.013899    21.432814    21.343152    10527.565    8338.7719    8702.0492    8120.1049    303.99886    1217.4406   -1259.1412    -5051.815 
19508000    138.72898   -6688.2909    -6331.419   -6688.2909            0    6586.5763    23.055243    21.363736    21.494428    10586.997    6447.4891    5938.6116    7373.6284    295.03815    211.29862    170.86609   -5314.4484 
19509000    136.06141   -6658.7966   -6308.7869   -6658.7966            0    8335.8661    23.087001    21.288774    21.450526    10542.804    9812.0386    6873.3733    8322.1862   -445.13641    106.81332    83.421349   -5027.0977 
19510000    132.05363   -6673.1166   -6333.4167   -6673.1166            0    5992.4829    23.072488     21.35617    21.553935    10620.485    6508.4862    5679.1955    5789.7669   -461.43169   -161.32941   -368.93664   -5405.2477 
19511000    131.05696   -6674.9384   -6337.8024   -6674.9384            0    6677.8738    23.184072    21.285672    21.464559    10592.514    7868.9811    5596.2188    6568.4215   -843.15222    175.45051    115.35123   -5306.1981 
19512000    133.06991   -6662.0792   -6319.7649   -6662.0792            0    6318.5074     23.18552    21.317578    21.498859    10626.008    5794.6022      6554.02       6606.9    82.921049   -91.356284    583.43958   -5340.5895 
19513000    131.25023   -6662.2559   -6324.6227   -6662.2559            0    6343.6674    23.157816    21.219679    21.614062    10621.181     6400.251    6429.1169    6201.6343   -874.31536   -626.09843   -645.69881   -5341.9948 
19514000    126.40586   -6675.1551   -6349.9837   -6675.1551            0    7011.2088     23.25219    21.193581    21.444408    10567.743    6592.4028    7677.8717    6763.3519   -190.42969    585.67494    658.86911   -5269.4184 
19515000    137.59822   -6686.6797   -6332.7167   -6686.6797            0    7823.3167    23.135437    21.257635    21.475806    10561.902    7817.3791    8475.8634    7176.7076    8.0005857   -271.22998   -129.60969   -5127.6559 
19516000    130.99355   -6674.0348   -6337.0618   -6674.0348            0    6442.1062    23.144835     21.20357    21.606769    10603.589    7084.5011    7371.5041    4870.3134    957.63064   -80.459903   -1190.1148   -5340.8386 
19517000    136.16789   -6681.2528   -6330.9692   -6681.2528            0    7345.7479    23.132916    21.268177    21.448386    10552.498    6529.5288    7321.0169    8186.6981    539.41779   -427.73219     1140.306    -5200.478 
19518000    123.29347   -6670.4624   -6353.2974   -6670.4624            0    7027.1992    23.182834    21.251893    21.535653    10610.166    7795.2202    6411.8556    6874.5219   -189.51944   -167.04126    133.93492   -5265.9199 
19519000    130.83518   -6674.3832   -6337.8177   -6674.3832            0    7032.2259    23.224772    21.304399    21.380582    10578.894     6846.682    6960.3345    7289.6613   -1320.1306     282.3586     186.4898   -5252.8695 
19520000    130.21438    -6681.847   -6346.8784    -6681.847            0    6921.2054    23.200684     21.22646    21.502324    10589.215    6427.3723    7204.1283    7132.1154    605.67506    130.33004   -424.32589    -5278.017 
19521000     126.0815   -6681.7068   -6357.3698   -6681.7068            0     5964.297     23.27095     21.27312    21.474689    10630.952    5503.4649     5804.828    6584.5981    63.628554   -480.96939   -467.32616   -5432.6561 
19522000    134.55981   -6673.6022   -6327.4553   -6673.6022            0    8113.3233    23.132903    21.171515    21.489009    10524.427    7555.3986    9441.8611    7342.7104    655.48715    474.45906   -195.58434   -5082.1578 
19523000     126.4543   -6672.6431   -6347.3471   -6672.6431            0    6153.3407    23.085212    21.324227    21.545259    10606.177    6442.9898    5611.3452    6405.6869   -550.25178    432.72361    484.79001    -5395.547 
19524000    143.69344   -6668.5322   -6298.8896   -6668.5322            0    7411.1357    23.168462    21.274304    21.478786    10586.741    7190.6456     7601.428    7441.3336     274.7387    143.34321   -289.62495   -5154.6343 
19525000    139.03368   -6667.8073   -6310.1516   -6667.8073            0    8112.1224    23.111448    21.278704    21.454775    10551.065    8042.0565    8179.4004    8114.9104   -326.97268   -331.35878   -46.201569    -5061.887 
19526000    135.63479   -6669.5331   -6320.6209   -6669.5331            0    6518.1355    23.147783    21.167286    21.622505    10594.503    5930.7151    8327.3459    5296.3455    211.03398    29.258033    559.63256   -5313.5041 
19527000    136.71212   -6675.4387   -6323.7551   -6675.4387            0    7849.0102    23.193574     21.30527    21.360143    10555.015    7238.3694    7251.1655    9057.4956    653.37015   -189.59209    996.58582    -5115.525 
19528000    130.84403   -6690.9539   -6354.3656   -6690.9539            0    5872.1185    23.140397    21.295889    21.508268    10599.174    6629.6715    5501.9976    5484.6863   -824.86343   -189.02459    435.90878   -5446.6648 
19529000    128.36712   -6678.6666     -6348.45   -6678.6666            0    6970.9762    23.109206    21.273047    21.520649     10579.62    6851.7066    6903.8577    7157.3642    -617.5503    876.47964   -689.34752   -5272.8777 
19530000    137.97349   -6664.1867   -6309.2584   -6664.1867            0     7841.639    23.155075    21.448601    21.229514     10543.51    7055.7664    6580.7819    9888.3688   -1234.4803    1457.9931   -330.83036   -5103.4787 
19531000    140.63044   -6683.0047   -6321.2415   -6683.0047            0    6967.4226     22.95235     21.30561    21.665728    10594.841    8369.2689    7200.8254    5332.1735    873.11329   -212.88949   -798.81494    -5244.671 
19532000    134.33476   -6670.7441   -6325.1762   -6670.7441            0    6759.2519    23.146878    21.359063    21.392237    10576.228    6821.7909    5987.3406    7468.6243    615.88247    726.27907     394.0611   -5282.6059 
19533000    135.86998   -6685.0225   -6335.5053   -6685.0225            0    7650.7737    23.029891    21.310217    21.530126    10566.383    7965.7794    8104.1961    6882.3455   -171.10623    291.46873   -71.984134   -5156.5222 
19534000    128.79255   -6675.7409   -6344.4299   -6675.7409            0    6549.7353    23.067129    21.390178    21.461339    10589.239    6312.9705     6322.925    7013.3104   -320.53751    1476.6659    612.80036   -5332.9334 
19535000     133.2382    -6692.941   -6350.1939    -6692.941            0    7513.1478    23.088532    21.301333     21.47775    10563.112     8713.532    6623.6229    7202.2885   -240.37041   -1193.3247    16.437474   -5192.7772 
19536000    126.05264    -6671.607   -6347.3442    -6671.607            0    5952.3123    23.145126    21.274242     21.59317    10632.369    6426.7402     5273.981    6156.2157    303.47271   -803.31627    221.73796   -5424.3656 
19537000    133.55723   -6677.5611   -6333.9932   -6677.5611            0    6783.7283    23.187381    21.306989    21.451554     10598.21    6203.5761    6282.7045    7864.9044   -345.88521    320.80353    466.44891   -5285.4729 
19538000    132.10653   -6676.8043   -6336.9683   -6676.8043            0    6866.6432    23.167091    21.143249    21.624277    10592.167    7230.1176    7885.4296    5484.3824    12.099241   -981.38693    58.305853   -5276.2375 
19539000    128.48624   -6662.7988   -6332.2758   -6662.7988            0    7763.3632    23.247563    21.234888    21.388422    10558.595     6802.602    7648.3686    8839.1189     660.5924   -408.53488    431.16534   -5136.8244 
19540000    131.85411    -6683.741   -6344.5544    -6683.741            0     6821.949    23.190186    21.178069    21.583786    10600.302    6893.7534    7334.8617     6237.232    461.39064   -40.816284    11.518878   -5289.9184 
19541000    134.65226   -6699.6753   -6353.2906   -6699.6753            0    5761.0045    23.242745     21.27316    21.504323     10632.74     5614.898    5732.8141    5935.3012    1085.4941   -733.87523    723.22007   -5459.9454 
19542000    129.09385   -6671.2575   -6339.1715   -6671.2575            0    6600.1941    23.197257    21.288031    21.459791    10597.358    6629.5415    6521.3269    6649.7138   -520.26646    161.82312    510.39336   -5319.1009 
19543000    133.60193   -6667.1485   -6323.4657   -6667.1485            0    7564.9284    23.029438    21.242095    21.624993    10578.806    8062.2914     8312.438    6320.0559   -215.00066   -287.55534   -1508.6494   -5156.3407 
19544000     130.0669   -6663.6357   -6329.0466   -6663.6357            0    7351.8799    23.225584    21.375529    21.289255    10569.245    7062.4994    7234.1734     7758.967    677.57618   -112.98366    229.75794    -5195.816 
19545000    124.57838    -6687.693   -6367.2227    -6687.693            0    7296.7417     23.00839    21.246235    21.613682    10565.668    8884.7318    7042.4564    5963.0367   -626.34568    355.83603   -313.87816   -5242.8719 
19546000    131.12699   -6666.4787   -6329.1625   -6666.4787            0    7367.5924    23.094095    21.425609    21.369323    10573.649    7909.2213    7383.2337    6810.3222     133.9711   -268.31974     37.99009   -5193.0369 
19547000    134.09295   -6694.5847   -6349.6388   -6694.5847            0    6985.9974    23.048259    21.341343    21.508646     10579.69    7451.0383    7133.7221    6373.2318   -309.92074    377.10244   -751.35769   -5271.7418 
19548000    135.56767    -6676.729   -6327.9895    -6676.729            0    6687.5333    23.053499    21.340048    21.556709    10605.098    6649.1404    6656.0864    6757.3729   -106.89465    1259.4436    107.22308   -5293.6656 
19549000    132.46535    -6669.455   -6328.6959    -6669.455            0     6455.027    23.187995    21.327487    21.473579    10619.579    7178.4326    5661.9581    6524.6904   -133.88487   -375.12608    133.32269   -5328.9693 
19550000    134.53207   -6675.8807   -6329.8052   -6675.8807            0    7748.1821    23.046214      21.2526    21.582054    10570.717    7891.6258    8440.5948    6912.3255   -3.8638225    145.02044    83.736958   -5135.3217 
19551000    135.11289   -6673.2825   -6325.7128   -6673.2825            0    6447.0728    23.222738    21.279437    21.473197    10611.341    6356.3884    5757.7619    7227.0681    610.32095   -595.80541   -214.84364   -5327.9926 
19552000    127.98175   -6678.3377   -6349.1124   -6678.3377            0     7603.521    23.083226    21.215725    21.560016     10558.53     8049.088    6503.8631    8257.6118    113.17784   -709.54644    934.24168   -5178.2817 
19553000    127.62999   -6674.3728   -6346.0524   -6674.3728            0    6791.0359    23.329927    21.214643    21.401932    10592.588     5595.215    7563.5708    7214.3218    1180.5654   -27.597271   -216.54046   -5296.9594 
19554000    128.57869   -6660.2121   -6329.4513   -6660.2121            0    7368.2911    23.148939    21.273341    21.495226    10585.438    6694.6147    8390.2255    7020.0332   -385.15765   -66.281778   -960.07002    -5191.951 
19555000    129.38034   -6663.2436   -6330.4206   -6663.2436            0    6865.4734    23.131846    21.257581    21.557105    10600.213     7073.961    7068.1562    6454.3029    563.41065     13.28115   -363.61005   -5269.0649 
19556000    133.40334   -6661.6789   -6318.5069   -6661.6789            0     7059.095    23.149386    21.326404     21.43573    10582.674    6548.6422    6670.4855    7958.1574    123.77221   -234.04653    -279.6918   -5229.0243 
19557000    132.52376   -6673.0139   -6332.1046   -6673.0139            0    7580.7618    23.003399    21.374752    21.482863    10562.951    8671.0054    6495.8818    7575.3982   -432.56285   -84.039777   -486.47878   -5164.2897 
19558000    131.06701   -6671.0957   -6333.9338   -6671.0957            0    7359.7723    23.031065    21.394102    21.382887    10535.967    7139.4493    7454.4008    7485.4669    792.23279    708.09856    150.84321   -5203.0587 
19559000    134.36628   -6680.1893   -6334.5403   -6680.1893            0    6827.3281    23.044886    21.376338    21.519084    10600.629    7570.7117     6491.492    6419.7805    714.08058   -918.62873   -23.446331   -5279.0401 
19560000    133.27738   -6700.5075   -6357.6595   -6700.5075            0    6599.1361    23.128007    21.268418    21.514955    10583.123    6844.8487     6595.509    6357.0506   -1228.6682    578.82636   -458.60464   -5339.1225 
19561000    126.89912   -6666.0179   -6339.5777   -6666.0179            0    7044.8908    23.240758    21.214299    21.452919     10577.07    6567.3921    7378.4326    7188.8476    1281.5487   -882.21046    459.20063    -5252.863 
19562000    129.86488   -6662.5833   -6328.5138   -6662.5833            0    6269.7157    23.268977    21.111083    21.626397    10623.606    6218.4742    7050.5512    5540.1218   -532.36617    360.04735    319.40932   -5357.1192 
19563000    137.69937   -6667.3389   -6313.1156   -6667.3389            0    7185.5515     23.29891    21.194433    21.406136    10570.504    7707.0852    6756.2906    7093.2786    -144.2666   -1301.0127    758.55924   -5205.3913 
19564000    130.78397   -6682.8492   -6346.4154   -6682.8492            0    6168.8947    23.361795    21.040887    21.623828    10629.255    5259.7578    7808.1134    5438.8131     235.3129   -306.42573   -297.17309   -5390.1331 
19565000    127.41369   -6684.8942   -6357.1303   -6684.8942            0     7628.218    23.259341    21.165878     21.46063    10565.162    6918.2578    7734.3539    8232.0423   -1133.3908    698.38741    104.07581   -5181.7588 
19566000    138.64926   -6673.2425   -6316.5757   -6673.2425            0    7648.9606    23.186477    21.141591    21.536396    10557.121      7059.89    8154.2498    7732.7422    184.79885    99.859056    768.32532   -5138.9052 
19567000    127.31026   -6688.4048   -6360.9069   -6688.4048            0    6454.5375    23.205895    21.269182    21.514074     10618.71    6449.7872     5769.631    7144.1943   -1327.1193    970.25878    71.530637   -5361.3379 
19568000    126.96986   -6684.3433   -6357.7211   -6684.3433            0    6231.8477    23.235241    21.270919    21.479958    10616.145    5471.3681    6923.0457    6301.1293    146.76217    914.37376   -415.18088   -5392.8716 
19569000    131.58613   -6700.7545   -6362.2572   -6700.7545            0    7556.3923    22.974206    21.266729     21.64006    10573.035    8236.4292    8575.7505    5856.9971    251.52353   -881.17469   -1592.6336   -5197.0852 
19570000    132.62346   -6685.8906   -6344.7249   -6685.8906            0    6115.0056    23.234376    21.336853    21.406989    10612.482    4754.5281    6501.2775    7089.2113    471.32329    812.35289    89.662042   -5398.2922 
19571000    131.88963   -6665.5936   -6326.3156   -6665.5936            0    7822.0208      23.0067    21.294984    21.551139    10558.492    8842.6781    7376.6742    7246.7102   -832.24417    144.89174    -73.78497   -5121.8435 
19572000    131.34227   -6648.1711   -6310.3011   -6648.1711            0    5980.3346    23.120642      21.4204    21.462685    10629.468    6943.8097    5419.9444    5577.2496    140.69474    147.36294   -1468.3473   -5383.2303 
19573000     132.1571   -6691.3905   -6351.4244   -6691.3905            0    6899.3977    23.039413     21.41338    21.434376    10574.686     6666.593    6172.4365    7859.1636     110.4482    1185.7825     764.1073   -5287.3928 
19574000    134.18489   -6681.7443   -6336.5619   -6681.7443            0     7692.133    22.962665    21.295783     21.59857    10561.872    9221.5856    7090.9577    6763.8555   -176.43378   -109.33871   -103.79588   -5151.7113 
19575000    131.87514   -6673.7962   -6334.5555   -6673.7962            0    7652.5913    23.084239    21.497078    21.280117    10560.124    8198.0505    6448.0607    8311.6627    1163.3966   -76.694245   -732.63166   -5155.9908 
19576000     129.2335   -6673.4588   -6341.0135   -6673.4588            0    6492.3831    23.091956    21.358943     21.51005    10609.182    6208.3679    6704.5317    6564.2498   -50.665013    594.96578   -316.80855   -5336.4857 
19577000    127.61042   -6673.6712   -6345.4011   -6673.6712            0    6959.6896    23.129674    21.289934    21.473563     10574.21    7473.8097    5804.4025    7600.8566    13.343149    6.6556266    1142.3734   -5272.1195 
19578000    136.44288   -6668.4428   -6317.4518   -6668.4428            0    7382.6297    23.126316     21.27381    21.520192    10587.609    6629.0638    7108.7462    8410.0793   -163.81672   -217.32557    92.181974   -5177.5042 
19579000    126.66523   -6677.3515   -6351.5129   -6677.3515            0    6398.3386    23.183246    21.306101    21.469941    10604.961    6214.4991    6274.9437    6705.5731   -629.10622     232.3905   -556.99157   -5361.9299 
19580000    139.52844   -6674.8697   -6315.9413   -6674.8697            0    7286.5629    23.133626    21.190265    21.553049     10565.47    7484.0643    7954.8973     6420.727   -135.75976    115.59523    356.81029     -5193.18 
19581000    128.49656    -6674.038   -6343.4884    -6674.038            0    7341.3262    23.194226    21.090825    21.563264    10548.433    7902.0764    8136.8574    5985.0449   -1014.8151   -526.87941   -397.77856   -5214.1129 
19582000    128.39857   -6672.8467   -6342.5492   -6672.8467            0    7543.6736    23.309677    21.156083    21.391115    10548.846    5601.3365    8820.4158    8209.2684    374.91393    165.21898   -481.99787   -5181.9996 
19583000    131.00902   -6681.2117    -6344.199   -6681.2117            0    5581.9603    23.241193    21.181976    21.606941    10636.976    4892.3887    6585.4225    5268.0696    375.78893      169.817    131.83796    -5478.273 
19584000    140.53945   -6666.8389   -6305.3097   -6666.8389            0    7945.0578    23.191226    21.148543     21.49585    10542.868    7923.4082    7710.2383    8201.5267    1555.3117   -594.82474     278.8845   -5083.7021 
19585000    130.40511    -6683.992   -6348.5328    -6683.992            0    6193.0692    23.222166    21.324738    21.426718    10610.652    6073.9526    5711.1792    6794.0759   -1321.7322   -299.45045    473.11152   -5390.1833 
19586000    130.33311   -6680.7218   -6345.4479   -6680.7218            0    7039.3451    23.155683    21.211703    21.560659    10589.981    7346.1835    7231.7729    6540.0787    989.32186   -727.39628    326.43996   -5258.2632 
19587000    130.65393   -6692.2584   -6356.1591   -6692.2584            0    6580.7773    23.092543    21.318627     21.50188    10585.404    6788.8645    6128.9648    6824.5025    532.52993    217.70107     1244.138   -5340.2368 
19588000    133.83621    -6676.607   -6332.3215    -6676.607            0    7320.8234    23.092774    21.311602    21.500144    10581.167    8179.5203    6855.2565    6927.6933    942.22325   -484.49827   -568.99647   -5202.6052 
19589000    131.40942   -6703.5356   -6365.4929   -6703.5356            0    7139.7445    23.033846    21.396797    21.458575     10575.87    7460.4547    7197.0364    6761.7423   -1305.5798    304.87043   -142.05699   -5264.2714 
19590000    127.67787   -6677.0762   -6348.6327   -6677.0762            0    6017.8688    23.072435    21.380201    21.551687    10631.303    6234.9759    5486.4109    6332.2195    246.94034    278.51911    824.64811   -5415.5823 
19591000    129.44372   -6685.4684   -6352.4823   -6685.4684            0    7116.5107     23.01684    21.488579    21.375622    10572.365    8311.7146    5531.6848    7506.1326   -1288.7055   -164.69137    590.88042   -5255.2082 
19592000    129.74676   -6669.8146    -6336.049   -6669.8146            0     7342.662    23.098234    21.313905    21.500364    10584.921    6667.5857    7534.8293    7825.5709    1177.6966   -116.65058   -75.021342   -5202.5607 
19593000    128.04086   -6671.5446   -6342.1673   -6671.5446            0     6277.121    23.125966    21.325737    21.543883    10624.975    6527.3594    6116.6321    6187.3716   -167.05627    1088.7974    897.68638      -5369.5 
19594000    126.78983   -6653.3857   -6327.2266   -6653.3857            0    7442.3391    23.191247    21.228847    21.449964     10560.32    6460.7689    7586.1129    8280.1355   -927.69803     527.2815    36.115934   -5181.0213 
19595000    127.09681   -6687.8845   -6360.9357   -6687.8845            0    7150.3783    23.256635    21.276512    21.344037    10561.458    6498.6377    7476.6571    7475.8401   -31.375062   -289.56044   -375.35589    -5259.577 
19596000    135.30689   -6672.5537    -6324.485   -6672.5537            0    6033.6687    23.103128    21.193076    21.711366    10630.457    6499.7129    6548.1294    5053.1639   -173.82539   -193.55291   -246.61811   -5389.0593 
19597000    134.64826   -6684.7325    -6338.358   -6684.7325            0    7430.3698    23.215687    21.260824    21.382325    10553.987    7575.5875    6701.2231    8014.2988   -321.56923   -1061.8139    93.311772   -5194.6823 
19598000      118.803   -6666.9135   -6361.3001   -6666.9135            0    6835.0762    23.215033     21.21801    21.538386    10609.309    7067.3085    7224.6589    6213.2613   -833.22525   -360.88877    29.469305   -5303.7368 
19599000    129.51761   -6668.3398   -6335.1636   -6668.3398            0    6241.6587    23.204877    21.214161    21.555825    10611.329    5944.2483     6574.423    6206.3048   -547.96914   -78.501274    383.20698   -5369.2336 
19600000    130.97142   -6686.6821   -6349.7661   -6686.6821            0    6962.4319    23.244956    21.220949    21.440875    10576.355    5789.1323     6242.342    8855.8215   -1021.1664    1162.0964    1108.0732   -5275.8438 
19601000    129.62193   -6685.9402   -6352.4957   -6685.9402            0    8450.4184    23.108432    21.241496    21.446137    10527.001    8504.9887    8404.3818    8441.8845   -537.68825   -349.96047   -536.32065   -5055.1409 
19602000    133.35282   -6686.4535   -6343.4115   -6686.4535            0    6600.0889    23.126023    21.215522     21.59453    10594.938    6466.3934     7410.945    5922.9283    544.88181    703.78571   -387.57095   -5323.5901 
19603000    128.42694   -6657.7366   -6327.3661   -6657.7366            0    6122.7636    23.052785    21.468695    21.486607    10634.006    6218.7599    5473.6299    6675.9011   -128.97621    -130.3913    448.22668   -5377.8108 
19604000    131.49971   -6675.7251   -6337.4501   -6675.7251            0    6367.3709    23.149371    21.348038    21.462746    10606.753     7043.472    6284.4683    5774.1724   -157.22319   -384.57098   -1230.0433   -5352.4904 
19605000    129.53343   -6657.7335   -6324.5166   -6657.7335            0    8344.0848    23.021263    21.336172     21.44406    10533.014    8559.8839    7306.6198    9165.7505   -487.20545    414.85798    548.70131    -5042.755 
19606000    128.25344   -6678.5846   -6348.6604   -6678.5846            0    7644.0444    23.152703    21.266002    21.458066     10565.21    7596.6227    6998.1727    8337.3378    631.67475    485.04381    422.68491    -5170.845 
19607000    127.59491   -6672.7327   -6344.5026   -6672.7327            0    6413.8988    23.138741    21.287153    21.533505    10606.498    5995.8094    5621.2291    7624.6577    84.509894   -243.82044    1131.0101   -5352.3693 
19608000    126.04484   -6669.7175   -6345.4748   -6669.7175            0    7996.9356    23.204354    21.177933    21.473793    10552.657    8228.2779    7693.0017    8069.5271    1094.9674   -706.42023     424.1334    -5114.749 
19609000    131.30753   -6688.6813   -6350.9007   -6688.6813            0     6316.076    23.235662    21.183183    21.590765    10627.089    5292.5679    7306.5362     6349.124   -137.95957   -54.527389    548.21128   -5372.0024 
19610000    127.23189   -6670.6893    -6343.393   -6670.6893            0    7499.0463    23.246055    21.096921    21.530735    10559.107    7028.9456     9333.122    6135.0713   -315.20734     442.0977    -1277.755   -5188.5867 
19611000     130.5299   -6673.4317   -6337.6515   -6673.4317            0     7173.504    23.236212    21.253249    21.430319    10583.256    5998.2752    7384.7732    8137.4637     769.5991    59.620269    760.95802   -5230.4504 
19612000    138.43616   -6698.3934   -6342.2748   -6698.3934            0      5763.88    23.198176    21.214504    21.608818    10634.516    6366.8975     5741.123    5183.6195     17.17446   -702.12052    543.58974   -5448.3344 
19613000    124.92628   -6651.3595   -6329.9943   -6651.3595            0    7335.8652    23.264729    21.230639    21.437627    10588.581    5906.1597    7997.9208     8103.515     387.4229    945.47898   -324.61185   -5197.1636 
19614000     139.3449     -6688.56   -6330.1037     -6688.56            0    6852.2491    23.098063     21.30629    21.511498     10586.54    7386.8322    6906.7283    6263.1867     62.81847   -298.88186   -308.40148   -5272.1587 
19615000    133.46744   -6676.6276   -6333.2907   -6676.6276            0    6182.5525    23.063114    21.399813     21.49603    10609.287    7285.4447    5306.6465    5955.5663     652.8799   -804.26309    -375.8994   -5376.6918 
19616000    124.93077   -6681.2715   -6359.8947   -6681.2715            0    8105.6046    23.017645    21.339143     21.46975    10545.444    8188.8781    8204.5447     7923.391    77.177841    868.36866    350.51151   -5113.2975 
19617000    124.03356    -6690.712   -6371.6432    -6690.712            0    6615.2059    23.022695    21.468169    21.443186    10598.404    6909.5592    6458.4995     6477.559    149.33879    307.70424    249.26615   -5349.1517 
19618000    129.31598    -6686.367   -6353.7095    -6686.367            0    6928.5597    23.140493    21.326344    21.445536    10583.417    6431.4678     7172.108    7182.1034      430.491    724.17591   -749.94328   -5284.2982 
19619000    128.07285   -6674.3594   -6344.8998   -6674.3594            0    7314.0509    22.994539    21.316969    21.597869    10586.711    8168.6567    7237.4151    6536.0808   -479.41647    507.40748    457.13835   -5215.6373 
19620000    131.20793   -6678.4262   -6340.9018   -6678.4262            0    7109.9996    23.190968    21.267052    21.452403    10580.401     6871.601    7439.4638     7018.934   -80.039779    -65.89848   -629.91562   -5243.7983 
19621000    128.38481   -6672.5536   -6342.2915   -6672.5536            0    6600.3389    23.155991    21.290708    21.483787    10591.666    7158.5992    6190.8984    6451.5189   -410.83018    10.917266   -138.25003   -5322.7465 
19622000    133.69819   -6662.0703   -6318.1399   -6662.0703            0    8095.8574    23.196688    21.173017    21.483783    10551.628    7365.9758     8542.748    8378.8482    688.38911   -6.9185828    -713.4183   -5072.3115 
19623000    129.55949    -6678.019   -6344.7351    -6678.019            0    6380.5764    23.314121    21.152089    21.525375    10615.074    5226.8554    7122.4025    6792.4713   -190.73693     270.3996    1134.2347   -5356.9583 
19624000    132.13913   -6674.8324   -6334.9126   -6674.8324            0    6629.5134    23.292732     21.16847    21.506506    10604.245    5941.4198    7176.3357    6770.7848   -598.00666    264.77818   -324.00952   -5309.6448 
19625000    139.35733   -6682.1747   -6323.6865   -6682.1747            0    7138.3458    23.274792    21.102648    21.525627    10572.521    6317.0797    7938.2451    7159.7126   -37.211364    233.77011   -60.671377   -5223.0294 
19626000     133.5138   -6686.8889   -6343.4328   -6686.8889            0     6062.359    23.301211    21.090722    21.576618      10603.6    5719.6152    6701.2025    5766.2592   -154.01676    288.34618   -41.156307   -5405.9337 
19627000    128.13867   -6676.4214   -6346.7925   -6676.4214            0    6710.0901    23.242477    21.234471    21.459611    10591.213    6450.0295    6682.8051    6997.4357   -283.04799   -256.73969   -258.76235   -5310.3388 
19628000    132.05902   -6676.5132   -6336.7994   -6676.5132            0    6920.1009    23.106226    21.237578    21.568243    10583.974    6854.1701    6003.2511    7902.8815   -369.47153    227.69442    1106.8262   -5268.6375 
19629000    134.70345   -6661.6243   -6315.1079   -6661.6243            0    7205.1527     23.14234    21.295392    21.457568     10574.83    7689.8729     6503.162    7422.4233   -268.28967   -1347.9052   -62.602225   -5203.9073 
19630000    126.64637     -6687.88   -6362.0899     -6687.88            0    7071.3993    23.051711    21.321329    21.506057    10570.079    7732.6577    6925.6183    6555.9217   -94.820615   -578.07122   -537.04637   -5272.0072 
19631000    127.62213   -6682.2314   -6353.9312   -6682.2314            0     7943.734    22.997972    21.342175     21.45545    10530.908    9195.7013    6374.5105    8260.9901    424.80507    607.75399    1238.0753   -5133.9127 
19632000    137.08227    -6676.799   -6324.1632    -6676.799            0    6271.1581    23.110871    21.476306     21.37698    10610.168    6697.5479     5356.463    6759.4634     12.42387    278.89841    339.72379   -5353.7741 
19633000    135.35021   -6676.8454   -6328.6652   -6676.8454            0    6712.3849    23.074656    21.324895    21.535314    10596.766    6456.7126     5890.219    7790.2232    134.28528    982.00806   -140.34746   -5291.3134 
19634000    128.50609   -6681.9752   -6351.4011   -6681.9752            0     8061.013    23.094238    21.270706    21.405436    10515.008    7089.4115     8704.776    8388.8516   -298.15546    1242.1134   -220.06494   -5115.2398 
19635000    129.99636   -6698.7239   -6364.3162   -6698.7239            0    6463.5329    23.167117     21.28289    21.475962    10589.007    6346.1515    6615.9635    6428.4837    332.40677   -82.879537   -175.22889   -5366.1541 
19636000     133.7356   -6671.8211   -6327.7944   -6671.8211            0    5644.9286    23.221113    21.265605    21.532785    10633.126    4900.8919    6096.1602    5937.7337     61.14705    720.79845    620.69739    -5452.417 
19637000    130.23101   -6676.3013     -6341.29   -6676.3013            0    7982.1195    23.203183    21.153609    21.488923    10547.431     6927.814    8827.2615    8191.2828    70.559907   -27.566166    262.07624   -5113.4528 
19638000     127.9615   -6684.6561   -6355.4829   -6684.6561            0    7124.5639    23.221874    21.167226    21.515299    10575.687    6650.4334    7347.4584    7375.7999    195.93504   -271.75154     550.0325   -5256.6219 
19639000    130.62863   -6684.1578   -6348.1236   -6684.1578            0    6571.3404    23.374803    21.099003    21.486744    10596.941    6027.4217    7071.4908    6615.1087    276.17483     207.4396   -487.90645   -5332.5524 
19640000    130.02622   -6672.2438   -6337.7593   -6672.2438            0    7835.8615    23.225289    21.175094    21.458677    10553.327    7002.8967    8573.2784    7931.4093    399.39512    61.257319    586.82438   -5131.7462 
19641000    129.31167     -6686.39   -6353.7436     -6686.39            0    6402.9783    23.208272    21.137057    21.648208    10619.627    7206.1759    7319.5902     4683.169    957.20396   -1000.0057   -45.940324   -5362.0736 
19642000    135.96895   -6686.7468    -6336.975   -6686.7468            0     7338.411    23.186804    21.264068    21.413404    10557.788    7497.4679    7153.0522    7364.7129    169.51901   -528.76332    516.63286   -5207.0467 
19643000    130.33387   -6674.4226   -6339.1466   -6674.4226            0    6765.4133    23.075744    21.297691    21.566375    10599.012    7410.4673    6432.9581    6452.8145   -125.21219    321.33127   -159.06074    -5293.378 
19644000    126.07998   -6668.8736   -6344.5405   -6668.8736            0    6409.9003    23.105097    21.378195    21.477746    10608.831    7139.5295    6201.5746    5888.5966   -90.565518    196.43762   -476.95084   -5352.8077 
19645000    136.88421   -6670.0496   -6317.9233   -6670.0496            0    7448.6763    23.038171    21.429071    21.373568    10551.844    7276.8527    6840.3271    8228.8492   -32.786316   -75.433801   -445.62322   -5171.6628 
19646000    132.28474   -6685.3338   -6345.0394   -6685.3338            0    7766.3786    22.944694    21.336178    21.559001    10554.253    8044.1244    7350.5332    7904.4781    547.56109    723.39658     208.8705   -5149.6154 
19647000    130.44964   -6689.8096   -6354.2358   -6689.8096            0    6412.6742    23.097207    21.416715    21.390971    10581.392    7206.9415    4689.4918    7341.5893   -516.36082    526.22513   -356.42281   -5364.6399 
19648000    129.17757   -6689.0074    -6356.706   -6689.0074            0    6374.2919    23.009662    21.327754    21.600348     10600.25    6586.3167    6712.5387    5824.0203    115.07311    88.701632   -455.97222   -5371.2802 
19649000    134.96628   -6671.3227   -6324.1302   -6671.3227            0    6369.9534    23.209298    21.433313    21.323522    10607.432    6888.9472    4927.9803    7292.9327    796.66978    677.43165   -289.10417   -5338.7079 
19650000    128.57752   -6678.3599   -6347.6021   -6678.3599            0    7882.3463    23.134749     21.24456    21.531689    10582.557    8283.1796    8511.9882    6851.8711    46.539412   -152.70261   -580.87946   -5131.0743 
19651000    128.83781   -6660.9887   -6329.5613   -6660.9887            0    5977.5811     23.28955    21.218903    21.496605    10623.164    4971.7378    6963.9483    5997.0573   -229.54129     780.4617    76.370473   -5403.4669 
19652000    129.18662    -6687.567   -6355.2422    -6687.567            0    6804.1851    23.162834    21.163665    21.572132    10574.885    7205.2258    6866.9347    6340.3947   -567.94484   -65.799908   -273.99074   -5305.8746 
19653000    130.61307   -6654.9268   -6318.9326   -6654.9268            0    7829.3821    23.230268    21.108566    21.527538    10556.193    7463.2854    8227.0085    7797.8523   -359.89273   -428.21854   -337.11543   -5113.5895 
19654000    131.19098   -6673.0379   -6335.5571   -6673.0379            0    7976.3339    23.228002    21.193405    21.400502    10535.048    7638.4904    7747.4975     8543.014   -686.84399    34.204806    553.19194   -5110.0502 
19655000    127.27119   -6686.4412   -6359.0438   -6686.4412            0    5935.7914    23.144068    21.182542    21.680118    10628.682    6630.7198    6223.3733    4953.2811     625.7371   -136.57862   -212.02738   -5438.9461 
19656000    122.69781   -6682.6933   -6367.0606   -6682.6933            0    6901.2396    23.221699    21.309151    21.365006    10572.146    6568.6227    6581.9556    7553.1405   -1367.9114    428.51507    -263.1305   -5303.0006 
19657000    128.44235   -6683.0419   -6352.6318   -6683.0419            0    6551.3519    23.131071     21.27806    21.568173    10615.517    5937.5985    6797.1688    6919.2883    788.10248   -368.20367    393.62022   -5338.3749 
19658000    130.58992   -6686.1364   -6350.2018   -6686.1364            0     7276.976    23.048137    21.318266    21.500283    10564.084    8059.9457    6513.0525    7257.9297   -1034.4057    444.30521    130.39701   -5229.0648 
19659000    131.60985   -6677.6078   -6339.0495   -6677.6078            0    7353.5936    23.137895    21.279721    21.484368    10578.214    6446.5671    7849.0265    7765.1872   -336.28002    332.24521   -251.34493   -5204.5929 
19660000    134.76114   -6688.2779    -6341.613   -6688.2779            0    7844.1534    23.057316    21.284608    21.447144    10525.528    8752.3661    7673.3316    7106.7625    447.49915   -174.81968    64.415401   -5137.5039 
19661000    127.30093   -6684.0267   -6356.5528   -6684.0267            0    7323.9518    23.042092    21.302059    21.540171    10572.864    7663.4046     6794.013    7514.4378   -20.133084    337.54703     713.8103   -5227.2406 
19662000    128.42538   -6674.5035    -6344.137   -6674.5035            0    6249.1324    23.098228    21.383302    21.508163    10623.234    5734.1128    5584.1744      7429.11   -79.994883    178.74489    370.04347   -5375.9653 
19663000    129.70388   -6675.3943    -6341.739   -6675.3943            0    6888.9094    23.179441     21.28587    21.432618    10574.737    7642.8815    6544.3133    6479.5334    821.48383    45.186075   -645.90758   -5279.3197 
19664000    130.52144   -6692.6631   -6356.9046   -6692.6631            0    5849.1712    23.099424    21.257289     21.66801    10639.667    5678.1347    6624.2496    5245.1293   -1221.8401    849.29868    419.33709   -5449.2967 
19665000    133.38636   -6679.5998   -6336.4715   -6679.5998            0    7684.7154    23.214698     21.19952    21.461027     10561.84    7706.5917    7749.4788    7598.0759    609.91602   -678.25468    126.07894   -5152.7671 
19666000    135.95318   -6670.9047   -6321.1734   -6670.9047            0    7066.0359    23.164949    21.214353    21.515613    10573.405    7074.9321    7279.3947     6843.781    911.25297   -1064.6069    529.19926   -5231.5747 
19667000    129.67092   -6675.1223   -6341.5518   -6675.1223            0     7475.241    23.251375    21.045403    21.565037    10552.518    6655.6896    8960.1181    6809.9153    214.20815    642.28762    810.35325   -5191.1297 
19668000     131.7724   -6665.2972   -6326.3207   -6665.2972            0    6435.0236    23.325484    21.177354    21.469038    10605.104    5469.3723     7113.259    6722.4394   -25.274806   -533.95378    376.17923   -5331.0506 
19669000    138.08316   -6660.5842   -6305.3737   -6660.5842            0    8386.1778    23.285889    21.060884    21.443004    10516.108    8024.4776    8470.4313    8663.6245    257.02621   -752.14348   -41.384458   -5019.2137 
19670000    132.05749   -6687.1399   -6347.4301   -6687.1399            0    6458.0047    23.146754    21.210858    21.604241    10606.873    6346.4237     8059.434    4968.1564    941.91548   -36.415479   -196.35424    -5348.439 
19671000    130.94183   -6679.7968   -6342.9569   -6679.7968            0    6616.6299    23.254759    21.307369    21.395829    10601.585    5685.2208    6805.0789      7359.59    139.18108   -432.83398    191.80534   -5319.9383 
19672000    134.44256   -6689.5601   -6343.7148   -6689.5601            0    5596.2289    22.986232    21.317742    21.729284    10647.666    7771.8098    4773.9521    4242.9249   -973.46222   -828.06571    332.77034   -5474.7029 
19673000    131.83207   -6688.4392   -6349.3092   -6688.4392            0    7181.8919    23.140417    21.342472    21.392981    10565.431    6756.6405    7084.4826    7704.5525   -442.35966    934.03568    348.43153   -5242.6805 
19674000    126.93742   -6680.3784   -6353.8396   -6680.3784            0    5975.8428    23.059175    21.373596    21.577495     10634.63      6625.88    4847.6205    6454.0279   -946.40982    114.09573    84.866433   -5427.0153 
19675000    133.25541   -6678.9875   -6336.1961   -6678.9875            0    6766.5128    23.091488    21.363163    21.458312    10585.541     7209.426    5710.7901    7379.3222   -121.71856     140.8012   -298.01904   -5291.5869 
19676000    124.29729    -6672.899   -6353.1518    -6672.899            0    7299.6245    23.094196    21.377078    21.399006    10564.399    7794.2088    6256.1084    7848.5564   -551.33915    596.09896   -229.38671   -5228.4919 
19677000    132.36962   -6659.2319   -6318.7191   -6659.2319            0    6485.0813    22.943788    21.362228    21.634843    10603.895    7116.6695    6299.7405     6038.834    1072.8753   -128.55321    342.10213   -5315.8212 
19678000    128.10065   -6663.6047   -6334.0736   -6663.6047            0    6612.7139    23.118013     21.45304    21.365149    10596.081    7035.6632    5450.1077    7352.3707   -1187.9858    311.80124   -20.743139   -5312.1913 
19679000    130.39741   -6675.8572   -6340.4178   -6675.8572            0    6974.6169     23.13069    21.298629    21.507596     10595.76    7150.1031    6773.7445     7000.003     342.4022    500.05192    148.11541   -5262.6422 
19680000    135.68562   -6684.9413   -6335.8984   -6684.9413            0    5763.5704    23.182274    21.275534    21.513844    10610.956    4907.9812    5870.8529    6511.8771   -653.52513    701.32039    151.81742   -5443.9863 
19681000    130.50285   -6678.5801   -6342.8695   -6678.5801            0    7388.7366    23.180892    21.194546    21.532945    10579.319     7797.362    7488.3254    6880.5223    710.22322   -1074.3879   -489.35532   -5202.8723 
19682000    135.22969   -6675.9168   -6328.0467   -6675.9168            0    6665.3574    23.245068     21.18279     21.56947    10620.708    6114.8674    7724.1149      6157.09     465.6441   -1026.4004   -136.59939   -5295.6353 
19683000    128.84004   -6682.0228   -6350.5896   -6682.0228            0    7317.0666    23.384524    21.052691    21.437261    10553.718    6621.9246    8440.9256    6888.3495   -945.00636   -28.795091   -281.05507   -5224.3823 
19684000    129.20073   -6682.5429    -6350.182   -6682.5429            0    7051.8768    23.186531    21.186717    21.548139    10585.447    7467.2146    7124.2725    6564.1434   -299.39616   -726.72022    84.738737   -5261.5281 
19685000    134.86521   -6679.3176    -6332.385   -6679.3176            0    5927.7658    23.298815    21.235066    21.442292    10608.614    6017.1566     5562.825    6203.3158    365.17728   -1122.5979    631.31652   -5415.2663 
19686000    135.06836    -6675.814   -6328.3589    -6675.814            0    7140.5693    23.144386    21.165588    21.635965    10598.692    6842.1967     8149.722    6429.7893   -212.26636     146.9471     154.8923   -5224.6336 
19687000    126.37383   -6685.6097   -6360.5207   -6685.6097            0    6551.4998    23.227387    21.300767    21.436913    10606.152    6471.0484    6540.1763    6643.2748   -254.41277    -423.2312   -450.93279   -5347.1357 
19688000    132.61263   -6663.3882   -6322.2503   -6663.3882            0    7527.1549     23.15142    21.284967    21.467037    10578.466    8432.1574    6617.8101    7531.4973   -1315.8522    281.82817   -94.512141   -5160.9903 
19689000     125.0466   -6686.4613   -6364.7866   -6686.4613            0    6613.4696     23.08274    21.258816    21.598119     10598.45    6908.7777    6221.3107    6710.3204   -157.66579   -136.95993    281.58095    -5342.559 
19690000    135.38549   -6654.0886   -6305.8177   -6654.0886            0    7674.3503    23.205274    21.359299    21.291769    10553.231    6802.6813    8763.0828    7457.2868    950.44193    38.815695   -822.43574   -5124.6735 
19691000    134.68983   -6672.3273   -6325.8459   -6672.3273            0    7195.4155    23.082156    21.274588    21.587954    10601.053    6881.5402    7723.8506    6980.8558    1010.1604     156.2652    99.567434   -5213.3952 
19692000     131.6103   -6676.0241   -6337.4646   -6676.0241            0    5566.4167    23.207894    21.347862     21.50058    10652.224    5491.5971    6294.4048    4913.2483   -99.860989    306.54852    22.140473   -5472.7119 
19693000    129.66239   -6673.6174   -6340.0688   -6673.6174            0    7523.2822    23.213013    21.226155    21.424386    10556.288    7747.9885    6630.7637    8191.0943    402.20632   -850.19323   -722.23256   -5181.8397 
19694000    129.62521    -6675.464   -6342.0111    -6675.464            0    5854.1834     23.15078    21.243179    21.584073    10614.965    5549.8025    6079.5237     5933.224     51.81747    223.32264    511.25455   -5435.7345 
19695000    130.02838   -6659.6457   -6325.1557   -6659.6457            0    8034.9275    23.146305     21.22893    21.474044    10551.729    8315.6696    7444.1004    8345.0126    464.48079    345.48121    547.41788   -5088.6916 
19696000    133.51596   -6686.7488   -6343.2871   -6686.7488            0    8178.7006    23.087098    21.317556     21.42382    10543.958    7943.8604    7951.1136    8641.1277   -235.97761   -778.73424   -245.77977   -5085.6253 
19697000    130.69017   -6677.1947   -6341.0022   -6677.1947            0    5073.0356    23.230168    21.258298    21.579293    10656.584    5180.1853    4299.5022    5739.4192   -109.83893    884.92206   -83.815997   -5552.5746 
19698000    133.37464   -6671.2963   -6328.1982   -6671.2963            0    7120.5429    23.111008    21.294586    21.443607    10553.243    7168.4184    7142.5877    7050.6225   -104.11126   -119.67725    581.86653   -5232.2881 
19699000    134.38569   -6675.2343   -6329.5353   -6675.2343            0    7151.3209    23.162814    21.256388    21.492852    10582.173    6472.6898    7855.6595    7125.6135    177.11439    182.62278   -1173.1799    -5225.871 
19700000    126.99172   -6676.9256   -6350.2471   -6676.9256            0    6924.0327     23.14809    21.318614    21.451084    10585.792    6427.1046    7373.3931    6971.6003   -55.427176    445.06931    -26.07385   -5281.2947 
19701000    129.96585   -6669.8081   -6335.4789   -6669.8081            0    6318.1555    23.068622    21.322646    21.538947    10594.665    5365.7399    7304.2913    6284.4352    954.61912     936.1934   -112.15253    -5359.246 
19702000    131.86867   -6686.7133   -6347.4891   -6686.7133            0    6250.8332    23.063755    21.407386    21.470183    10600.575    6474.9812     6046.369    6231.1495   -268.62783    202.15236   -577.57777   -5381.1196 
19703000    125.76449   -6690.2824   -6366.7609   -6690.2824            0    6962.2267    23.097558    21.313877    21.503484    10586.133    7481.3509     6698.341    6706.9882    1136.1296   -105.33596    -377.3622   -5291.8774 
19704000    129.89364   -6678.7756   -6344.6322   -6678.7756            0     7315.275    23.052428    21.303554     21.52391    10570.363    6732.7194    7449.4781    7763.6274   -263.50829   -143.61479    571.48158   -5216.9248 
19705000    133.06556   -6690.0946   -6347.7916   -6690.0946            0    7015.6489    23.182615    21.251219    21.469899    10577.335    7135.9174    6075.4442     7835.585    92.479427    467.38244    671.16851   -5265.5605 
19706000    129.50821   -6688.7938   -6355.6418   -6688.7938            0    7177.8398    23.133645    21.212313    21.530866    10565.586    7460.6463    7066.1985    7006.6745   -1166.4161   -607.19038    542.35502   -5249.6211 
19707000    126.90717   -6684.0761   -6357.6151   -6684.0761            0    6551.6608    23.254795    21.186113    21.504339     10594.73    5366.9068    7560.1736    6727.9019     1313.835   -60.494997    352.51151   -5345.2965 
19708000    132.32437   -6681.7718   -6341.3754   -6681.7718            0    6571.5126    23.217997    21.225344    21.502647    10596.719    6192.1315    6746.4642    6775.9422    157.64863    228.55433    316.83186   -5325.7989 
19709000    130.86922   -6664.2006   -6327.5475   -6664.2006            0    7257.3705    23.264647    21.082422    21.574061     10581.54    7848.9795    8083.3207    5839.8112   -565.92159   -291.30931   -630.64853   -5207.5835 
19710000    131.14181   -6678.0753    -6340.721   -6678.0753            0    7339.0473    23.291498    21.202528       21.387    10561.727     6113.421    8212.9845    7690.7364    547.62087   -933.93812   -1.8650065   -5210.2732 
19711000    128.21748   -6661.7544   -6331.9227   -6661.7544            0    6412.8209     23.17504    21.179996    21.606402    10605.443      6643.76    7315.7241    5278.9787   -140.70062    249.81479   -312.35245   -5340.0548 
19712000    128.20739   -6678.7073   -6348.9016   -6678.7073            0     6943.397    23.237741    21.278478    21.384875    10574.046    6104.7581    6777.4633    7947.9697    449.15697   -351.86116    -519.7238   -5278.1491 
19713000    127.61052   -6672.8686   -6344.5983   -6672.8686            0    6820.3399    23.175595    21.260851    21.495638    10591.607    7048.5849    6070.2413    7342.1936   -621.62836   -757.29147    134.00187   -5291.0759 
19714000    133.08806   -6679.7969   -6337.4359   -6679.7969            0    7653.9248    23.102921    21.283236    21.435718    10540.048    7913.3867    7525.5134    7522.8742   -568.03627   -270.99841    257.80107   -5160.9069 
19715000    127.77795   -6689.9881   -6361.2872   -6689.9881            0    8123.6588    23.044495    21.320077    21.501527    10563.924    7737.6928    8735.8128    7897.4708    255.45959    424.68907     157.5994   -5109.7239 
19716000    131.59923   -6683.6505   -6345.1195   -6683.6505            0     5410.656    23.132132    21.403138    21.468472    10629.045     4558.396     5390.714    6282.8579    715.43338   -338.73286    20.569177   -5506.3936 
19717000    127.79213   -6668.0791   -6339.3417   -6668.0791            0    7948.5987    23.106573    21.310356    21.419691    10547.255    7577.0225     7884.852    8383.9216    142.32036    494.89967    606.27041   -5116.6811 
19718000    132.03992   -6665.8437    -6326.179   -6665.8437            0    7599.0095    22.965108    21.315523      21.6051    10575.983      8041.12    7595.9607    7159.9479    360.92578     79.12221     42.61701   -5154.1088 
19719000    129.99958   -6680.1418   -6345.7258   -6680.1418            0    6788.3697    23.202108    21.282477    21.428557    10581.386    6582.5532    7134.7916    6647.7645   -32.823196   -291.22464   -217.64209   -5298.1537 
19720000    126.67901   -6690.0087   -6364.1347   -6690.0087            0    6205.9238    23.168057    21.261659    21.506274    10593.804    5635.5064    6844.1931    6138.0718   -224.58941    -231.7144   -103.80626   -5405.3209 
19721000    128.44638   -6678.4378   -6348.0173   -6678.4378            0    7318.9727    23.129983    21.253948    21.540514    10589.391    7113.3627    8211.7072     6631.848    992.21266    220.91377    185.05391   -5217.7088 
19722000    124.49272   -6674.7214   -6354.4714   -6674.7214            0    6251.2494    23.228517    21.305659    21.425505    10603.458    6367.6022    5961.1654    6424.9805   -299.91477   -403.25753    626.24577   -5387.7747 
19723000    134.92796   -6701.2273   -6354.1334   -6701.2273            0    6163.0534     23.22641    21.111592      21.6399    10611.049    5983.7491    6938.3066    5567.1045   -244.39121   -630.41897   -103.80532   -5400.3931 
19724000    134.06459   -6663.5683   -6318.6953   -6663.5683            0    8090.0821    23.291908    21.113077    21.440907    10543.863    8055.3525    8829.3175    7385.5763    16.295036   -923.33383   -65.964108   -5074.6718 
19725000     128.9896   -6682.1016   -6350.2837   -6682.1016            0    6309.7736    23.324948    21.107049    21.543632    10606.378    5778.6621    6630.5909    6520.0678   -225.15137    137.28134    519.60385   -5374.2681 
19726000    129.73847   -6675.9445   -6342.2002   -6675.9445            0    6814.3044    23.243702    21.168655    21.485348    10571.606    5504.3868    7473.3265    7465.1998    343.23496   -306.90584    659.42769   -5291.5979 
19727000     134.4072   -6659.6589   -6313.9046   -6659.6589            0    6472.0898    23.226084    21.085944    21.637519    10596.843     5488.066    7700.2836    6227.9197    934.36115     351.0542    238.14937   -5313.6814 
19728000    132.99971   -6657.4243   -6315.2906   -6657.4243            0    7284.3081    23.127881    21.242341    21.551553     10588.07    6997.2273    7519.7432    7335.9537    404.22682    71.471088    780.52252   -5190.4759 
19729000    126.76403   -6659.9451   -6333.8524   -6659.9451            0    6602.0204    23.157951    21.311535    21.460503    10591.434    7770.5646    5721.1992    6314.2973   -509.59066    155.39384   -24.793212     -5314.07 
19730000    134.33595   -6669.7826   -6324.2116   -6669.7826            0    6790.7606     23.04006     21.32235    21.598915    10610.861    7905.7774    6610.1424     5856.362    52.699929   -725.84875    549.30265   -5273.3514 
19731000    134.04472   -6668.3453   -6323.5234   -6668.3453            0     6942.271    23.041362     21.40437    21.458431    10582.995    5564.5625    6235.2235    9027.0268   -197.12795    1111.1142      381.147   -5252.0386 
19732000    131.13136    -6675.288   -6337.9606    -6675.288            0    6709.7519    23.068796    21.387462    21.476017    10595.902    8086.1589    5821.2283    6221.8684    417.94915   -902.07102     453.2018   -5301.1002 
19733000     126.9449   -6676.1232   -6349.5651   -6676.1232            0     6785.499     23.08372    21.258048    21.568547    10584.006    7202.2174    7498.9454    5655.3341   -9.3795785   -662.21838    443.91624   -5302.1767 
19734000    131.05927   -6672.5832   -6335.4412   -6672.5832            0    8025.7744    23.103241    21.280165    21.414925     10528.45    8200.8893    6958.7402    8917.6937   -497.97735   -277.83367   -112.94393   -5103.1104 
19735000    130.07233   -6688.0942   -6353.4911   -6688.0942            0    5666.1265    23.239608    21.222441    21.591202    10648.807    5996.3528    5688.2457     5313.781    82.219363   -244.68795   -586.86406   -5473.5308 
19736000     129.3325   -6673.7823   -6341.0823   -6673.7823            0    7609.4806    23.182597    21.228845    21.445197    10554.034    7140.3358    8284.0662    7404.0398    527.13182   -473.04294    318.79297   -5169.8329 
19737000     127.2976    -6677.972   -6350.5067    -6677.972            0    7131.6429    23.303718     21.17918    21.418685     10571.27    6656.5292    7755.2061    6983.1933    3.4199593   -639.14369   -338.44559   -5251.0133 
19738000    134.06455   -6671.7409    -6326.868   -6671.7409            0    5798.6397    23.217635    21.157491    21.644825     10632.52    6257.4058    6722.9822    4415.5311   -571.82422   -794.59289    -323.7419   -5427.7054 
19739000    127.64097    -6673.403   -6345.0544    -6673.403            0     6235.313    23.351097    21.196137    21.418822    10601.311    5634.7597    5304.5526    7766.6266     624.8758   -532.72043    1539.5535   -5381.0174 
19740000     131.2278   -6675.9911   -6338.4156   -6675.9911            0    6709.7018    23.162495    21.201197    21.605022    10609.635    6920.6936    6572.5442    6635.8678    666.91636   -384.26973    136.29672   -5300.2191 
19741000     124.3015   -6665.7464   -6345.9883   -6665.7464            0    7365.5465    23.258803    21.161095    21.494159    10579.033    6735.3364    7026.0519    8335.2511    316.06643     -423.726    300.14265   -5209.5998 
19742000    131.25914   -6683.2666   -6345.6104   -6683.2666            0    6614.0479    23.176063    21.290568    21.443171    10580.737     7424.582     6055.533    6362.0288    117.38897    -537.5011    626.60215    -5325.002 
19743000    130.07447   -6671.1174   -6336.5088   -6671.1174            0    6615.2362    23.130992    21.267812    21.556035    10604.396    6749.5532    6572.6778    6523.4775   -277.16399   -265.59072   -190.76441   -5313.4345 
19744000    130.31981   -6680.7309   -6345.4911   -6680.7309            0     5852.994    23.207402    21.369837    21.392092     10609.16    6192.6078    4412.5534    6953.8206    307.84587   -321.34117 -0.041419987   -5439.8942 
19745000     140.3722    -6675.276    -6314.177    -6675.276            0    7487.0719    22.966284    21.287674    21.619543    10569.768    9048.2231    7255.4972    6157.4952   -557.18303    407.20272   -960.14542   -5160.0507 
19746000    127.67664   -6677.8655   -6349.4251   -6677.8655            0    6097.8341    23.010215    21.455124    21.500421    10614.479    6379.7147    6050.7319    5863.0559    11.294803   -450.80685    429.81202   -5405.4725 
19747000    130.13945   -6676.2486   -6341.4728   -6676.2486            0     6213.799    23.102433    21.436348    21.436548     10616.06    5673.5239    5590.3108    7377.5624    399.77421    1084.3639    -939.4315   -5379.4254 
19748000    132.39853   -6671.6587   -6331.0715   -6671.6587            0    7407.4928    22.983142    21.370143    21.518151    10568.705    7354.8764    7787.7235    7079.8785    599.33017    749.76897    49.880529   -5189.3271 
19749000    129.84976    -6677.944   -6343.9134    -6677.944            0    7726.6802    23.060815    21.317986    21.453891     10546.95    7264.1927    7956.7437    7959.1041    1282.8239    183.61089   -382.33551   -5155.4229 
19750000    137.51329   -6665.2977   -6311.5531   -6665.2977            0    7190.5662    23.160924    21.349722    21.395637    10579.699    5998.3589    7345.7692    8227.5703    35.785363    558.53374    869.90572   -5202.0915 
Loop time of 541.365 on 64 procs for 250000 steps with 1296 atoms

Performance: 79.798 ns/day, 0.301 hours/ns, 461.796 timesteps/s
99.1% CPU use with 64 MPI tasks x 1 OpenMP threads

MPI task timing breakdown:
Section |  min time  |  avg time  |  max time  |%varavg| %total
---------------------------------------------------------------
Pair    | 30.107     | 41.638     | 52.395     | 110.8 |  7.69
Bond    | 0.2805     | 0.28906    | 0.29831    |   0.8 |  0.05
Kspace  | 274.18     | 285.52     | 297.05     |  42.4 | 52.74
Neigh   | 1.8745     | 1.8953     | 1.9238     |   1.0 |  0.35
Comm    | 91.602     | 93.755     | 96.862     |  16.2 | 17.32
Output  | 0.5514     | 0.55223    | 0.55363    |   0.0 |  0.10
Modify  | 104.29     | 106.91     | 110.28     |  13.1 | 19.75
Other   |            | 10.81      |            |       |  2.00

Nlocal:        20.2500 ave          26 max          14 min
Histogram: 6 8 3 7 3 11 5 8 5 8
Nghost:        2640.53 ave        2673 max        2615 min
Histogram: 3 7 6 8 12 16 6 4 1 1
Neighs:        6602.30 ave        8519 max        4479 min
Histogram: 5 9 3 8 2 9 7 8 7 6

Total # of neighbors = 422547
Ave neighs/atom = 326.03935
Ave special neighs/atom = 2.0000000
Neighbor list builds = 3399
Dangerous builds = 0

unfix		3
unfix		2
unfix		1

write_data	data.final.${pid}
write_data	data.final.0
System init for write_data ...
PPPM initialization ...
  extracting TIP4P info from pair style
  using 12-bit tables for long-range coulomb (../kspace.cpp:340)
  G vector (1/distance) = 0.36861513
  grid = 30 40 32
  stencil order = 5
  estimated absolute RMS force accuracy = 0.00427485
  estimated relative force accuracy = 1.2873584e-05
  using double precision FFTW3
  3d grid and FFT values/proc = 5168 640
Last active /omp style is kspace_style pppm/tip4p/omp
WARNING: Not all mixed pair coeffs generated from mixing. Use write_data with 'pair ij' option to store all pair coeffs. (../write_data.cpp:312)

write_restart   restart.lmp.${pid}
write_restart   restart.lmp.0
System init for write_restart ...
PPPM initialization ...
  extracting TIP4P info from pair style
  using 12-bit tables for long-range coulomb (../kspace.cpp:340)
  G vector (1/distance) = 0.36861513
  grid = 30 40 32
  stencil order = 5
  estimated absolute RMS force accuracy = 0.00427485
  estimated relative force accuracy = 1.2873584e-05
  using double precision FFTW3
  3d grid and FFT values/proc = 5168 640
Last active /omp style is kspace_style pppm/tip4p/omp
Total wall time: 0:09:01
