#include		in.partitions
include		in.temp
variable        temperature equal 7.99
variable	tempDamp equal 100.0
include		in.pressure
variable        pressure equal 9128.6
variable        pressureDamp equal 1000.0 # This is 1 ps
include		in.seed
variable        seed equal 745823

units		real
atom_style	full
box tilt large
read_restart	restart.lmp.${pid}
read_restart	restart.lmp.0
Reading restart file ...
  restart file = 30 Jul 2021, LAMMPS = 30 Jul 2021
  restoring atom style full from restart
  triclinic box = (-10.486173 -9.0737833 0.30559676) to (12.466173 12.063781 21.554402) with tilt (-9.0562383 1.7670393 2.7106483)
  2 by 4 by 4 MPI processor grid
  restoring pair style lj/cut/tip4p/long/omp from restart
  restoring bond style harmonic/omp from restart
  restoring angle style harmonic/omp from restart
  1296 atoms
  864 bonds
  432 angles
Finding 1-2 1-3 1-4 neighbors ...
  special bond factors lj:    0        0        0       
  special bond factors coul:  0        0        0       
     2 = max # of 1-2 neighbors
     1 = max # of 1-3 neighbors
     1 = max # of 1-4 neighbors
     2 = max # of special neighbors
  special bonds CPU = 0.002 seconds
  read_restart CPU = 0.008 seconds
include 	in.setup
variable	out_freq equal 1000
variable	out_freq2 equal 10000
variable	out_freq3 equal 1000

timestep	2.0

neigh_modify    delay 7 every 1

include		in.tip4p
# This is TIP4P/Ice

# create groups ###
group ox type 2
432 atoms in group ox
group hy type 1
864 atoms in group hy

# set charges - beside manually ###
set group ox charge -1.1794
Setting atom values ...
  432 settings made for charge
set group hy charge 0.5897
Setting atom values ...
  864 settings made for charge

# ### TIP3P Potential Parameters ###
pair_style lj/cut/tip4p/long/omp 2 1 1 1 0.1577 8.5
pair_coeff 1 1*2 0.000 0.000
pair_coeff 2 2 0.21084 3.1668
bond_style  harmonic
bond_coeff  1 450 0.9572
angle_style harmonic
angle_coeff 1 55 104.52
kspace_style pppm/tip4p/omp 1.0e-5
pair_modify tail yes

thermo          ${out_freq}
thermo          1000
thermo_style    custom step temp pe etotal epair emol press lx ly lz vol pxx pyy pzz pxy pxz pyz enthalpy

restart 	${out_freq3} restart.lmp.${pid} restart2.lmp.${pid}
restart 	1000 restart.lmp.${pid} restart2.lmp.${pid}
restart 	1000 restart.lmp.0 restart2.lmp.${pid}
restart 	1000 restart.lmp.0 restart2.lmp.0


include         in.dump
dump            myDump all atom ${out_freq2} dump.water.${pid}
dump            myDump all atom 10000 dump.water.${pid}
dump            myDump all atom 10000 dump.water.0
dump            myDump2 all dcd ${out_freq2} dump.dcd
dump            myDump2 all dcd 10000 dump.dcd
dump_modify     myDump append yes
dump_modify     myDump2 append yes


variable natoms 	equal  "count(all)"                        # NUMBER ATOMS
variable H      	equal  "enthalpy/v_natoms"                 # ENTHALPY-per-atom
variable Vol      	equal  "vol/v_natoms"                 # volume-per-atom
fix AVG all 		ave/time ${out_freq} 1 ${out_freq} v_Vol v_H file vol_enthalpy.dat
fix AVG all 		ave/time 1000 1 ${out_freq} v_Vol v_H file vol_enthalpy.dat
fix AVG all 		ave/time 1000 1 1000 v_Vol v_H file vol_enthalpy.dat


timer           timeout 10:00:00 every 1000
New timer settings: style=normal  mode=nosync  timeout=10:00:00

fix 		1 all shake 1e-6 200 0 b 1 a 1
       0 = # of size 2 clusters
       0 = # of size 3 clusters
       0 = # of size 4 clusters
     432 = # of frozen angles
  find clusters CPU = 0.001 seconds
fix             2 all nph tri ${pressure} ${pressure} ${pressureDamp}
fix             2 all nph tri 9128.6 ${pressure} ${pressureDamp}
fix             2 all nph tri 9128.6 9128.6 ${pressureDamp}
fix             2 all nph tri 9128.6 9128.6 1000
fix             3 all temp/csvr ${temperature} ${temperature} ${tempDamp} ${seed}
fix             3 all temp/csvr 7.99 ${temperature} ${tempDamp} ${seed}
fix             3 all temp/csvr 7.99 7.99 ${tempDamp} ${seed}
fix             3 all temp/csvr 7.99 7.99 100 ${seed}
fix             3 all temp/csvr 7.99 7.99 100 745823


run             250000
PPPM initialization ...
  extracting TIP4P info from pair style
  using 12-bit tables for long-range coulomb (../kspace.cpp:340)
  G vector (1/distance) = 0.37219292
  grid = 30 36 32
  stencil order = 5
  estimated absolute RMS force accuracy = 0.0035755485
  estimated relative force accuracy = 1.0767658e-05
  using double precision FFTW3
  3d grid and FFT values/proc = 7344 1080
Last active /omp style is kspace_style pppm/tip4p/omp
Neighbor list info ...
  update every 1 steps, delay 7 steps, check yes
  max neighbors/atom: 2000, page size: 100000
  master list distance cutoff = 10.8154
  ghost atom cutoff = 10.8154
  binsize = 5.4077, bins = 7 5 4
  1 neighbor lists, perpetual/occasional/extra = 1 0 0
  (1) pair lj/cut/tip4p/long/omp, perpetual
      attributes: half, newton on, omp
      pair build: half/bin/newton/tri/omp
      stencil: half/bin/3d/tri
      bin: standard
Per MPI rank memory allocation (min/avg/max) = 10.63 | 10.63 | 10.63 Mbytes
Step Temp PotEng TotEng E_pair E_mol Press Lx Ly Lz Volume Pxx Pyy Pzz Pxy Pxz Pyz Enthalpy 
14500000    11.091853   -6978.3576   -6949.8245   -6978.3576            0    9052.8333    22.952347    21.137565    21.248805        10309    9200.8131    8941.5197    9016.1672   -169.11403    -71.89081   -20.334037   -5588.7654 
14501000    8.0270797   -6984.0681   -6963.4189   -6984.0681            0    9101.6644    22.996828    21.049067    21.282556    10302.072    9095.4688    9276.2393    8933.2851   -43.913287    57.386777   -13.984098    -5595.938 
14502000    8.0585594   -6984.1179   -6963.3877   -6984.1179            0    9192.0973    22.977501    21.063514     21.28648    10302.378    9162.3141    9398.5252    9015.4525    9.0420433    62.000683    59.323564   -5582.2787 
14503000    7.7972253   -6983.8966   -6963.8388   -6983.8966            0     9151.752    22.956026     21.14398    21.224286    10301.881    9301.6512    8912.7903    9240.8143   -87.549391    58.525278   -168.50302   -5588.8579 
14504000    7.5112962   -6984.1801   -6964.8577   -6984.1801            0     9233.183    22.970459    21.097358     21.25065    10298.405    9019.0407     9334.686    9345.8222    153.44384    133.20367    -43.43811   -5578.1105 
14505000    7.8989984   -6984.5688   -6964.2491   -6984.5688            0    9093.3785    22.971325    21.068508    21.290713    10304.099    9088.7623    9171.7237    9019.6496    44.258362    19.223554     69.75583   -5597.7442 
14506000    7.8552935   -6983.4659   -6963.2586   -6983.4659            0    9156.0824    22.967448    21.123752    21.237664    10303.637     9110.196    9181.2011    9176.8502    145.95446   -152.91496   -269.13228   -5587.3926 
14507000    8.1350131   -6985.1781   -6964.2513   -6985.1781            0     9174.182    22.988102    21.084959    21.253444    10301.612    9173.2241    9133.4689    9215.8529    -41.83455   -150.82567   -34.170557   -5585.9364 
14508000     8.090733   -6984.3134   -6963.5005   -6984.3134            0    9163.5042    22.970057    21.046696    21.308648    10301.534    8996.9729    9475.6173    9017.9225     173.4224    62.127722    256.79679   -5586.8003 
14509000    8.4446436   -6985.0284   -6963.3051   -6985.0284            0    9069.1585    22.963541    21.122923    21.251332     10308.11    9105.6417     8847.626    9254.2077   -55.618826    -46.79768    23.144387   -5599.9094 
14510000    7.9727828   -6984.3588   -6963.8493   -6984.3588            0    9067.5209    22.982796    21.125366    21.226514    10305.897    9054.0557    9081.1072    9067.3997     -15.4549   -60.785571   -291.13527   -5600.9925 
14511000    8.0274451   -6984.1064   -6963.4563   -6984.1064            0    9187.6605    22.948126    21.061899    21.311487    10300.504    9300.7217    9240.8472    9021.4126    140.51546   -3.6845929    323.04627   -5583.2648 
14512000    7.7608999   -6982.5478   -6962.5834   -6982.5478            0    9160.7405    22.964945    21.104167    21.258854    10303.232    9219.8755    8990.4362    9271.9096    44.232608    99.061688   -58.353593   -5586.0715 
14513000    8.5237756   -6984.8478   -6962.9209   -6984.8478            0     9139.281    23.000565    21.121138    21.202767    10300.264    9145.5287    8993.5092    9278.8051    48.488891   -175.09364   -101.74067   -5590.0292 
14514000     7.726171   -6984.3792   -6964.5041   -6984.3792            0    9164.9322    22.965511    21.068137    21.290135     10301.03    9124.3522    9286.0642    9084.3802    24.830075    97.115339    179.04845   -5587.6567 
14515000    8.1704864   -6984.9638   -6963.9457   -6984.9638            0    9091.5961    22.950294    21.112485    21.263076    10302.763     9203.497    9125.2772    8946.0141    75.463833   -65.566931   -159.37199   -5597.8858 
14516000     7.993608   -6984.6594   -6964.0963   -6984.6594            0    9097.2183    22.986945    21.130241    21.214001    10304.058    9118.6879    8960.7312    9212.2359    -58.68182   -152.57844   -277.05798   -5597.0198 
14517000    8.0160872   -6984.9761   -6964.3552   -6984.9761            0    9099.1381     22.97121    21.056282     21.30475    10304.858    8948.6204    9314.3935    9034.4004     104.6462    97.100243    137.81905   -5596.8841 
14518000    7.7627803   -6984.9095   -6964.9403   -6984.9095            0    9054.9589    22.958269    21.090522    21.278418     10303.05    9005.0084    9206.2028    8953.6654   -59.610256    1.3953531    16.632724   -5604.3474 
14519000    8.0587749    -6984.868   -6964.1372    -6984.868            0    9176.1942    22.982786    21.133388    21.214019    10303.737    9149.9979    9180.7321    9197.8526   -121.55271   -81.401188   -257.54642   -5585.2358 
14520000    8.0605016   -6985.4936   -6964.7584   -6985.4936            0    9122.6412     22.96938    21.080904    21.281568    10304.861    8999.0981    9276.2991    9092.5265    3.7277058    70.629936     26.74698   -5593.7547 
14521000    7.9581535   -6985.6886   -6965.2167   -6985.6886            0    9150.6027    22.951682    21.052945    21.323281     10303.42    9296.2527    9276.7104    8878.8449     102.7661    46.468177    158.82591   -5590.2031 
14522000    8.0142232   -6985.0089   -6964.3928   -6985.0089            0    9047.6157    22.971863    21.147177    21.219603    10308.272    8912.9805    8978.2848    9251.5817   -67.731544   -11.468593   -212.37784   -5604.2143 
14523000    7.7967463   -6984.7269   -6964.6702   -6984.7269            0    9101.5354     22.98179    21.092986    21.255836    10303.864    9027.4732    9118.6913    9158.4418   -89.469011    191.27926    88.961765   -5596.9708 
14524000    8.6376483   -6983.5559    -6961.336   -6983.5559            0    9126.4569    22.933067    21.076013    21.312859    10301.307    9268.6136    9323.5993    8787.1578    187.26311   -128.28728    167.59066    -5590.232 
14525000    8.0457137   -6983.7658   -6963.0687   -6983.7658            0    9158.1001    22.995599    21.120243    21.219157    10305.564    9058.9938    9009.8867      9405.42      -111.07   -77.080038   -212.23215   -5586.6421 
14526000    8.2456077   -6984.2601   -6963.0488   -6984.2601            0    9179.7814    22.986825    21.087671    21.253749    10302.513    9047.6221    9280.4719    9211.2502    81.584491     164.7969   -13.777385   -5583.7721 
14527000    8.1510868    -6983.864   -6962.8958    -6983.864            0    9191.0941    22.951171    21.046518     21.32707    10301.875    9187.6498     9374.955    9010.6775    87.449607    135.12231    267.58629   -5582.0048 
14528000     7.844905   -6985.0017   -6964.8211   -6985.0017            0    9152.6475    22.992497    21.116008    21.219058     10302.06    9061.8775    9030.2149    9365.8501   -1.8655157   -49.860701     36.24513   -5589.6819 
14529000    7.9166767   -6985.2352   -6964.8701   -6985.2352            0    9121.1413    22.980512    21.121249    21.225206    10302.229    9065.6151    9088.5406    9209.2681   -118.01686    10.164578   -122.63184   -5594.4419 
14530000    8.3532985   -6984.6618   -6963.1734   -6984.6618            0     9116.493    22.953278    21.062868     21.31621    10305.575    9252.6306    9360.0393    8736.8091   -139.05205   -23.333824    73.313104   -5592.9988 
14531000    8.0415686   -6983.6613   -6962.9748   -6983.6613            0    9143.7152    22.979726     21.10617    21.246725    10304.959    9096.6574    9163.0859    9171.4021   -124.49181   -13.556643   -208.49198    -5588.791 
14532000    8.3789948   -6985.0119   -6963.4575   -6985.0119            0    9110.6073    22.986024     21.11314    21.228122    10302.159    8988.2518    9103.5488    9240.0215   -201.91363   -127.95905   -131.20531   -5594.6213 
14533000    8.0198179   -6984.4837   -6963.8532   -6984.4837            0    9140.8878    22.966819    21.051889    21.309286    10302.931    9117.8569    9317.1657    8987.6408    107.54851    70.392531    198.79618   -5590.3646 
14534000    7.9136569   -6984.5267   -6964.1693   -6984.5267            0    9123.9561    22.941134    21.142124    21.242517    10303.137    9302.4233    8885.3714    9184.0735   -56.359419   -151.45866   -87.672568   -5593.1974 
14535000    7.8430889   -6984.8345   -6964.6587   -6984.8345            0    9127.2255    22.991989    21.127034      21.2086    10302.131     9017.253    9074.2236       9290.2   -16.233753   -11.796451   -314.04708   -5593.3294 
14536000    7.7035921   -6984.6175   -6964.8005   -6984.6175            0     9121.071    22.951891    21.068567    21.306843    10303.211    9193.3629    9221.4105    8948.4395    37.804202     109.3423    230.00637   -5594.2523 
14537000    7.9247805   -6984.5574   -6964.1714   -6984.5574            0     9072.279    22.976124    21.081905     21.27624    10305.795    9143.8488    8987.1536    9085.8346    19.980818   -54.507374    117.62194   -5600.6129 
14538000    7.9856407     -6985.04   -6964.4975     -6985.04            0    9082.9469    22.991512    21.122983    21.221007    10305.968    9041.2543    8957.5707    9250.0157    78.553489   -11.938563   -252.93922   -5599.3127 
14539000     8.210098   -6985.1617   -6964.0417   -6985.1617            0    9160.6277     22.94127    21.075757    21.309015    10303.007    9365.6697    9166.2765    8949.9368    61.266691    62.851219    97.718388   -5587.5768 
14540000    7.7854195   -6985.0162   -6964.9886   -6985.0162            0    9136.7959    22.977385    21.083616    21.269248     10303.81    9101.2404    9250.2955    9058.8518   -38.722305   -107.79382     53.84667   -5591.9977 
14541000    7.9328146   -6984.8343   -6964.4276   -6984.8343            0    9100.3793    22.970673    21.144134    21.212568    10302.838    9125.5805    9101.8983     9073.659   -39.276938   -96.009337   -388.18753   -5597.0381 
14542000    7.9050151   -6984.0147   -6963.6795   -6984.0147            0    9258.3938    22.950295    21.070276    21.297194    10298.664     9340.997    9227.4931    9206.6913    62.043024   -20.253552    280.03015   -5573.1109 
14543000    8.0373479   -6984.3434   -6963.6679   -6984.3434            0    9152.5002    22.971582    21.065523    21.289987    10302.403    9071.0428    9335.2458     9051.212    4.2687208    205.58836    127.97429   -5588.5049 
14544000    8.1516728   -6985.0093   -6964.0396   -6985.0093            0    9123.9225    22.973956    21.147978    21.207326    10303.637    9140.6589    8908.9434    9322.1652   -45.791512    -10.35039   -243.24244   -5593.0063 
14545000    7.4364557    -6985.017   -6965.8872    -6985.017            0    9217.4024    22.966556    21.084672    21.272105    10300.854    9290.0218    9204.2386    9157.9467   -89.770183    126.39969    167.86923    -5581.181 
14546000    8.0327396   -6984.4338   -6963.7701   -6984.4338            0    9025.8606    22.982786    21.050721    21.298515    10304.311    8893.4979    9330.9794    8853.1045   -4.5014864     76.02824   -61.959277   -5607.3835 
14547000    7.9818659   -6984.9842   -6964.4513   -6984.9842            0    9093.9344    22.961428    21.137535    21.229341    10303.618    9189.7076    8907.1619    9184.9337    64.921949   -142.85472    -150.2302   -5597.9267 
14548000    7.9373916   -6983.9493   -6963.5309   -6983.9493            0    9111.1673    22.974162     21.10024    21.253967     10303.08    9125.9718    9002.5495    9204.9805     66.59779    39.660911    130.95452   -5594.4883 
14549000    8.3612616   -6984.5445   -6963.0356   -6984.5445            0    9138.6541    22.991437    21.049843    21.284878     10301.16    9008.3036    9387.2392    9020.4196   -2.5733376    80.410312    138.14169   -5590.1187 
14550000    8.3412729   -6986.0267   -6964.5693   -6986.0267            0    9049.0345    22.950316    21.139175    21.245274     10307.16     9224.657    8852.4611    9069.9853    31.943008   -151.28859    -138.2025   -5604.3242 
14551000    8.1546612   -6984.1301   -6963.1527   -6984.1301            0      9137.81    22.967009    21.101748    21.257548    10302.344    9072.9555    9076.8046      9263.67   -45.514449    98.349805    44.285388   -5590.2049 
14552000    8.1007903   -6985.8819   -6965.0432   -6985.8819            0     9122.433    22.979635    21.053143    21.296129     10302.93    8998.9074    9356.4659    9011.9258    84.006577   -34.658445    169.25653   -5594.3277 
14553000    7.8803587   -6985.4224   -6965.1506   -6985.4224            0    9031.1426    22.958954    21.136767    21.243132    10308.826    9139.5797    8838.3855    9115.4627   -132.72612    43.375058   -49.204235   -5607.3757 
14554000    8.2085455   -6984.6999    -6963.584   -6984.6999            0    9134.0783    22.975738    21.106601    21.248662    10304.321    9181.0908     9153.783    9067.3612    16.827639   -33.785708   -163.29282   -5590.9334 
14555000     8.018837   -6983.6272   -6962.9992   -6983.6272            0    9187.0737     22.99372      21.0326    21.300808    10301.448    9073.4847    9448.7425    9038.9938   -78.593194    87.244121    104.73894   -5582.7695 
14556000    8.3461753    -6984.741    -6963.271    -6984.741            0    9063.4885    22.948273    21.120276    21.267263    10307.687    9256.7721    8998.0914    8935.6021    68.970613   -109.24652    92.567692   -5600.7836 
14557000    8.1516578   -6984.4696      -6963.5   -6984.4696            0    9187.8927    22.976507    21.121925    21.224732    10300.533    9098.2848     9021.325    9444.0684    44.232375   -149.09218   -91.332711   -5583.2698 
14558000    8.2362938   -6985.0682   -6963.8808   -6985.0682            0    9254.5422    22.978084    21.050659    21.291611    10298.833    9145.6154    9349.4032    9268.6079    213.17404    173.07811    158.35075   -5573.8678 
14559000    8.0544767   -6984.5186    -6963.799   -6984.5186            0    9155.7221    22.943327    21.119682    21.261701     10302.48    9292.8914    9033.3659    9140.9091    110.36232   -123.69006    13.071281   -5588.1416 
14560000    7.9129829   -6985.3718   -6965.0162   -6985.3718            0    9159.1774    22.981053    21.126491    21.217456    10301.266    9212.7786    8923.5413    9341.2122   -6.9647521    -127.5836   -325.05571   -5589.0018 
14561000    7.9709229   -6984.7118   -6964.2071   -6984.7118            0    9058.5292    22.975653    21.079946    21.275053    10304.052    9067.5732    9084.9806     9023.034   -59.556018    18.088983    117.07178   -5602.9455 
14562000    8.2250155   -6984.5706   -6963.4123   -6984.5706            0    9073.6782    22.930007    21.114317    21.282479    10303.943    9337.5756    8895.4385    8988.0206    15.495969   -123.41031    71.322114   -5599.8885 
14563000    8.1900989   -6983.6896   -6962.6211   -6983.6896            0    9159.6068    22.983195    21.130853    21.212052    10301.729    9088.5175    8981.7449    9408.5579   -118.33412   -67.885138   -207.69538   -5586.4804 
14564000    7.9895752   -6985.1871   -6964.6344   -6985.1871            0    9066.1619    22.992122     21.06212    21.281465    10305.822    8778.3105    9363.3642     9056.811    11.397176    194.41378    97.758327   -5601.9916 
14565000    7.6133808    -6984.844    -6965.259    -6984.844            0    9198.4045    22.918625     21.09817    21.308372    10303.473    9393.4158    9206.5193    8995.2785    83.083827   -180.98444   -15.932696   -5583.0554 
14566000    8.0923431   -6984.3993   -6963.5822   -6984.3993            0     9030.228    22.991974    21.125025    21.218706    10306.053    9025.5721    8906.9347    9158.1772    24.598432   -50.352745   -91.464455   -5606.3099 
14567000    7.7194272   -6985.5095   -6965.6517   -6985.5095            0    9133.8593    22.993197    21.064698    21.273953    10303.928    8839.4215      9348.73    9213.4263   -20.705018    115.22705     75.49116   -5593.0865 
14568000     7.868255   -6985.1759   -6964.9352   -6985.1759            0      9175.54    22.922224    21.083973    21.324516    10305.958    9555.5628    9130.9223    8840.1347    139.61108   -120.38152    229.65797   -5585.8348 
14569000    7.7073436   -6985.2838   -6965.4571   -6985.2838            0    9173.3104    22.978071    21.127885    21.221475     10302.56    9085.8807    9093.2365    9340.8139   -120.54566     -39.9986   -176.37593   -5587.1464 
14570000    8.0010077   -6985.2673   -6964.6852   -6985.2673            0    9149.3314    22.984593    21.086326    21.257764    10302.801    9009.3783    9305.9076    9132.7083    58.054743    209.33758    109.82418   -5589.9452 
14571000     7.837964   -6984.3269   -6964.1642   -6984.3269            0    9090.4554    22.911201    21.109319    21.306307    10304.579    9426.6776    9102.6719    8742.0168    108.31838   -10.597709    129.77403   -5598.0349 
14572000    8.1882092   -6983.9635   -6962.8998   -6983.9635            0    9024.8413     23.00787    21.108907    21.225565    10308.641    8852.6711     9080.411    9141.4418   -35.019315    24.586829   -300.28581   -5606.0966 
14573000    7.8949204   -6984.6769   -6964.3677   -6984.6769            0      9153.51    22.981332     21.08451    21.256904    10300.036     9101.619     9300.998    9057.9131    46.698066    53.949321    4.1606712   -5589.3691 
14574000    7.8932696   -6984.2008   -6963.8958   -6984.2008            0    9142.6369    22.941972    21.068503    21.310837    10300.657    9261.5144    9242.1511    8924.2452    33.564633   0.14591095    293.52181   -5590.4476 
14575000    8.2281751   -6985.2877   -6964.1212   -6985.2877            0    9076.7546    23.002505    21.116399    21.213375    10303.974    8940.8186    8952.1104    9337.3349   -17.490091    56.627197   -57.278147    -5600.131 
14576000    8.0570692   -6984.7848   -6964.0585   -6984.7848            0    9151.9549    22.980592    21.105538    21.238029    10300.821    9070.8829    9097.5208    9287.4608   -88.353459   -7.6018139   -5.3724373   -5589.1886 
14577000     7.902245   -6984.7792   -6964.4512   -6984.7792            0    9162.4678    22.929613    21.068742    21.328872    10303.938    9498.6327    9233.1938    8755.5768    80.698943   -5.7359776    66.777736   -5587.5855 
14578000    8.1151772   -6984.1461   -6963.2703   -6984.1461            0    9146.5995    22.997503     21.10171     21.23818    10306.605    8973.5178    9086.4701    9379.8108     2.594209    -69.95029    -179.2392   -5588.4333 
14579000    7.8455421    -6985.227   -6965.0448    -6985.227            0    9100.4766    22.976975    21.095873    21.257519    10303.931    9080.2711    9160.1967     9060.962   -10.222384    12.053273   -65.262636   -5597.4956 
14580000    8.2453123   -6984.6005     -6963.39   -6984.6005            0    9041.8513    22.917151    21.090424    21.327721    10308.379    9309.7264    9019.1115     8796.716   -77.235956   -61.785165     168.3031    -5604.064 
14581000    7.8620158   -6984.3957   -6964.1712   -6984.3957            0     9185.147    23.021731    21.106156    21.201218    10301.677    8979.1816    9196.6642    9379.5953     -93.4059   -96.578947   -152.25438   -5584.2003 
14582000      8.07956   -6985.0036   -6964.2195   -6985.0036            0    9159.2157    22.963964    21.120674    21.242777    10303.053    9149.5909    9100.2814    9227.7747   -15.406359   -52.571866    49.407218   -5587.9607 
14583000    7.6773401    -6983.929   -6964.1795    -6983.929            0    9143.0087    22.930559    21.061783    21.332467    10302.696    9338.1909      9302.51    8788.3251    37.674632    110.10191   -5.0987066   -5590.4036 
14584000    8.3342107   -6984.1991   -6962.7598   -6984.1991            0    9097.7032    23.010191    21.079677    21.244334    10304.509    8893.7294    9295.6599    9103.7204    39.300452    79.509187   -136.62206   -5595.5507 
14585000    8.0449279   -6985.3634   -6964.6684   -6985.3634            0    9129.6599    22.959161    21.137669    21.232917    10304.401    9144.7069     8906.256    9338.0167  -0.45638171   -16.405076   -56.412266   -5592.6711 
14586000    8.1274164   -6985.7685   -6964.8612   -6985.7685            0    9102.0957    22.945622    21.084183    21.300411     10304.92    9280.9122    9070.6381    8954.7368    143.99298    84.957376    234.40551   -5596.9374 
14587000    7.7613313   -6984.9006   -6964.9351   -6984.9006            0    9106.0911    22.995157    21.090877      21.2415    10301.874     8792.745    9157.0857    9368.4424   -82.511545    119.01735    110.73138   -5596.8154 
14588000    8.0147383   -6984.9554    -6964.338   -6984.9554            0    9107.0601    22.975822    21.108766    21.251018    10306.558    9201.3766    9112.2865     9007.517   -108.89232   -27.045625   -66.642072   -5595.4506 
14589000    7.6933312   -6984.9314   -6965.1408   -6984.9314            0    9134.2579    22.948168    21.067799    21.307763    10301.609    9314.6315    9256.0845    8832.0576   -70.806562   -121.03402    72.824771   -5592.8246 
14590000    7.8595431   -6984.4991   -6964.2809   -6984.4991            0    9153.1569    23.011298     21.06917    21.244343    10299.872    8889.2455    9322.7451    9247.4801    75.313378   -28.179249    47.713842    -5589.357 
14591000    8.1394438   -6986.0942    -6965.156   -6986.0942            0    9190.9034    22.951223    21.139126    21.235838    10302.966    9313.6481     8965.497    9293.5652    72.773663   -47.690409   -129.53187   -5584.1475 
14592000     7.964205   -6984.4736   -6963.9862   -6984.4736            0    9141.9359    22.945119    21.091423    21.289354    10302.881    9293.7288    9103.0489    9029.0299   -144.84817    73.131711    80.102785   -5590.3468 
14593000    7.8909621   -6984.3862   -6964.0872   -6984.3862            0    9116.3457    22.991413    21.066228    21.271405    10302.642    8895.0272    9309.1901    9144.8198    130.31871    86.879937   -10.671493   -5594.3246 
14594000    8.3510817   -6985.4412   -6963.9586   -6985.4412            0      9070.03    22.935647    21.147009    21.248883     10306.14    9352.3162    8836.4258    9021.3479   -37.111686   -36.352365   -199.93933   -5600.6924 
14595000    7.8995349   -6985.6228   -6965.3018   -6985.6228            0    9106.5527    22.968567    21.086699    21.272695    10303.031    9196.5854    9145.2335    8977.8391   -52.941405   -58.430358   -18.122355   -5596.9589 
14596000    7.9891241   -6982.9676   -6962.4161   -6982.9676            0    9194.9404    23.004377     21.05348    21.263642    10298.453    9025.4016    9298.4968    9260.9227   -74.503467    100.81434    271.64049   -5581.4061 
14597000    7.6635841   -6984.0858   -6964.3717   -6984.0858            0    9114.8234    22.953268    21.137732    21.237938    10304.223    9213.6633    8977.1717    9153.6351   -37.512712   -146.56016   -11.357549   -5594.6278 
14598000    7.7953515   -6985.1738   -6965.1207   -6985.1738            0    9189.3741    22.997435     21.06667    21.262894    10301.434    8968.1566    9343.3194    9256.6462   -207.69476    127.54594    41.109215   -5584.5473 
14599000    8.0396551    -6984.886   -6964.2045    -6984.886            0     9076.384    22.968421     21.06332     21.30114    10305.304    9090.8127    9360.4636    8777.8756   -165.67465    137.39776    44.064653    -5600.094 
14600000    7.9030226   -6985.0621   -6964.7321   -6985.0621            0     9158.576    22.954898    21.132015    21.241252    10303.775    9220.3002    9046.0503    9209.3774    62.541184   -98.107511   -209.10849    -5588.473 
14601000    7.9945486   -6986.1095    -6965.544   -6986.1095            0    9133.1865    22.971203    21.103759     21.25803    10305.441    9152.5943      9095.91    9151.0553   -27.746642    277.17967   -43.760875   -5592.8783 
14602000    7.9048229   -6984.7211   -6964.3864   -6984.7211            0    9093.8723    22.952542    21.064154    21.315121    10305.347    9237.3703    9162.4202    8881.8265     41.80627    137.89864    198.40026   -5597.6418 
14603000    8.1781798   -6984.9302   -6963.8923   -6984.9302            0    9049.5691    22.960941    21.121026    21.256711    10308.626    9156.7174    8970.5696    9021.4203    8.5679201   -254.53474   -317.22529   -5603.3735 
14604000    7.9505985   -6984.1767   -6963.7243   -6984.1767            0    9122.1907    22.991586    21.104976     21.23414    10303.588    9042.8172    9238.9224    9084.8324   -68.560788   -63.965091   -87.348257   -5592.9577 
14605000    8.0740966   -6983.8868   -6963.1166   -6983.8868            0    9145.8747    22.984689    21.047938    21.288743    10299.075    9070.8197    9209.1379    9157.6666    35.271763   -44.393873    106.24623    -5589.393 
14606000    8.1588728   -6985.8552    -6964.867   -6985.8552            0    9068.0067    22.956821    21.123782     21.24948    10304.614     9237.584    8894.4692    9071.9668   -102.28472   -114.74146    4.6834758   -5602.1068 
14607000    8.0317697   -6985.2902    -6964.629   -6985.2902            0    9048.9156     22.99425    21.116881    21.221971    10304.685    8883.1059    8949.7676    9313.8734    23.996484   -22.953647   -197.78551   -5604.7284 
14608000    7.9558307   -6984.5398   -6964.0739   -6984.5398            0    9152.5244    22.942601    21.071505    21.306353     10300.24    9286.7586    9183.8049    8987.0098   -49.035935    72.049431    171.62862   -5589.1961 
14609000    7.9084492    -6985.385    -6965.041    -6985.385            0    9147.9598    22.955116    21.105349    21.270384    10304.985    9195.6487    9195.6493    9052.5812    94.997922   -16.208596   -123.91877   -5590.2158 
14610000    7.8398661   -6984.0236    -6963.856   -6984.0236            0    9199.2088    22.998011    21.131611     21.19181    10298.902    8972.0925    9026.1156    9599.4182    44.099441    2.2784208   -74.699633   -5582.1447 
14611000    8.1102261   -6985.1281    -6964.265   -6985.1281            0    9069.9069     22.95148     21.07222    21.302244    10302.588    9095.1329     9210.262    8904.3259    160.11223     106.6272     197.0603   -5601.4873 
14612000    8.4094858   -6985.2593   -6963.6264   -6985.2593            0    9160.8439    22.968158    21.073933    21.284916    10302.526    9286.9977    9253.1308    8942.4032   -117.64423    10.322536    9.9493239   -5587.1934 
14613000    8.1261562   -6985.1096   -6964.2056   -6985.1096            0    9056.8604     22.99316    21.123515    21.216763    10304.905    8885.4302    9206.1463    9079.0048   -37.066765    -225.0353   -178.15625   -5603.0821 
14614000    8.1604302   -6984.8837   -6963.8915   -6984.8837            0    9107.9747    22.968903    21.062369    21.299109    10304.072    9123.5667      9225.85    8974.5074   -42.136519   -60.890688    29.054428   -5595.1967 
14615000    8.2234254   -6985.1581   -6964.0038   -6985.1581            0    9080.9036    22.961492    21.092242    21.276316    10304.318    8961.2623    9281.2692    9000.1795    107.23967     142.9028    132.03781   -5599.3445 
14616000    7.5929193   -6984.8742   -6965.3419   -6984.8742            0    9123.8675    22.972576    21.149064     21.20733    10303.549    9139.3114    8797.6577    9434.6334   -137.68379    14.655936   -160.25032   -5594.3285 
14617000    7.8072611   -6986.6888   -6966.6051   -6986.6888            0    9109.1127    22.972429    21.063048    21.294559    10303.785    9000.6422    9381.3014    8945.3944    62.785476    244.42063   -70.039301   -5597.7776 
14618000    7.7502652   -6985.2873   -6965.3502   -6985.2873            0    9048.2863    22.938048    21.089874    21.304213    10306.138    9344.7887    8983.5054    8816.5647   -76.618344   -41.869929    98.440296   -5605.3526 
14619000    7.9495948   -6984.7024   -6964.2526   -6984.7024            0    9198.0897     22.98427    21.123859    21.219944    10302.632    9133.5954    9121.8655    9338.8083   -131.91092   -82.531076   -209.00036    -5582.209 
14620000    7.9330018   -6984.4279   -6964.0207   -6984.4279            0    9189.3948    22.975565    21.083251    21.262994    10299.786    9087.6783    9271.4708    9209.0353    69.405941     18.29611    84.380039    -5583.665 
14621000    8.0648175   -6985.8785   -6965.1323   -6985.8785            0    9049.8995    22.956616    21.060352    21.316016    10305.748    9281.4158    9050.5298     8817.753    77.599348   -83.586335    220.59153   -5604.9435 
14622000    8.0645804   -6983.6161   -6962.8705   -6983.6161            0    9110.1081    22.990273    21.128634    21.213513    10304.529    9091.0924    8899.2633    9339.9686    49.304044   -61.812112   -169.15809   -5593.7945 
14623000    7.8520685   -6984.1531   -6963.9541   -6984.1531            0    9291.5688    22.964793    21.097754    21.252127    10296.773    9276.3161    9230.7114    9367.6788     72.08557    -17.46703    20.888654    -5568.659 
14624000     8.385314   -6985.8515   -6964.2807   -6985.8515            0     9056.674    22.932858    21.071009    21.327058    10305.628    9267.5479    9093.1674    8809.3067   -121.59298    131.53284    187.69623   -5603.0896 
14625000    7.9691749   -6983.8987   -6963.3985   -6983.8987            0    9101.0063    22.980347    21.120716    21.231749    10305.071    9058.5178    9053.1575    9191.3437   -155.46133    42.184696   -127.29644   -5595.6184 
14626000    7.8005173   -6984.5754    -6964.509   -6984.5754            0    9118.6445    22.992055    21.102046    21.235634    10303.092    9093.2242    9009.7513     9252.958   -121.23738   -129.66361   -71.099947   -5594.3412 
14627000    7.9312384   -6984.7156    -6964.313   -6984.7156            0    9134.9989    22.929187    21.056172    21.339469    10302.715    9378.8053    9299.1834     8727.008     42.67651   -34.596374    63.678652    -5591.738 
14628000    8.1604483   -6985.1668   -6964.1746   -6985.1668            0    9183.0902    22.996155    21.086402      21.2459    10302.268    9175.7541    9198.6536    9174.8629    143.55051   -22.753064   -122.92157   -5584.4335 
14629000    8.1513406    -6983.941   -6962.9722    -6983.941            0    9152.6906    22.972267    21.133075    21.222756     10303.11    9112.6892    8869.3384    9476.0441   -101.09402    102.04503   -110.20259   -5587.6863 
14630000    7.5581806   -6985.7856   -6966.3426   -6985.7856            0    9085.4021    22.944918    21.064383    21.322324    10305.517    9020.0987    9373.9568    8862.1506    241.91682    86.637205    186.84658   -5600.8485 
14631000    7.7448503   -6985.5874   -6965.6642   -6985.5874            0    9084.1762    22.981618    21.089377    21.262102     10305.06    9164.9346    9000.4653    9087.1287   -50.483007   -76.647721    13.787497   -5600.4149 
14632000    8.0549094   -6984.5268    -6963.806   -6984.5268            0    9046.1682    22.980632    21.123359    21.235621    10308.368    8930.3098    9124.5763    9083.6185   -34.292482   -101.19742   -133.88218   -5603.8325 
14633000    7.9919933   -6984.0035   -6963.4446   -6984.0035            0    9169.4314    22.953363    21.041801    21.333559    10303.685    9254.2651    9423.6536    8830.3756    99.959677    48.953854    92.199166   -5585.5663 
14634000    7.5110607   -6984.6999   -6965.3782   -6984.6999            0    9176.4346     22.96804    21.088382    21.269264    10301.955    9140.7754    9189.4932    9199.0353    88.566583    81.631279   -32.236074    -5586.679 
14635000    7.7700587   -6985.4724   -6965.4844   -6985.4724            0    9094.3826    22.977239    21.132834    21.225503    10306.556    8992.0395    9094.8836    9196.2246    38.651908    98.802962   -61.726154   -5598.5028 
14636000    8.5687118   -6985.5901   -6963.5476   -6985.5901            0    9094.5999    22.952531     21.08799    21.290225    10304.953    9142.1192    8971.9398    9169.7406    51.731919   -88.431489     51.81156   -5596.7459 
14637000    8.1856672   -6985.3787   -6964.3216   -6985.3787            0    9130.2118    22.979602    21.059855    21.289519    10303.001     9056.419    9390.0597    8944.1567    37.764498   -24.901362    143.66079   -5592.4279 
14638000    7.7638814   -6984.9369   -6964.9648   -6984.9369            0    9220.5081      22.9826     21.11818    21.227246    10302.658    9170.9459    9141.7188    9348.8595    116.18129   -141.39901   -128.66938   -5579.5494 
14639000    8.1375344   -6985.8435   -6964.9102   -6985.8435            0    9050.8882    22.964095    21.081587    21.282835    10303.437    9142.6613    9085.7364     8924.267   -26.951143    37.318871    205.02931    -5604.878 
14640000     8.066961   -6984.5865   -6963.8347   -6984.5865            0    9207.9381    22.986619    21.056773    21.280123    10300.091    9066.8327    9287.0817       9269.9    25.874008   -59.080383    224.11093   -5580.6527 
14641000    7.8582272   -6984.9071   -6964.6923   -6984.9071            0    9160.9128    22.958942    21.142015    21.225318    10302.733    9205.3229    9009.4771    9267.9385   -11.004075    117.65081   -140.14758   -5588.2212 
14642000    8.3642413   -6985.6409   -6964.1244   -6985.6409            0     9153.523    22.947461    21.103395    21.276795    10303.699    9376.7343    9007.1646      9076.67    4.6700921   -18.214033   -29.832158   -5588.6347 
14643000    7.8691718   -6984.7486   -6964.5057   -6984.7486            0    9070.1516    22.970582    21.058378    21.305107    10305.775    9083.1838    9270.4089    8856.8621   -52.121394   -37.625649    61.606053   -5601.2696 
14644000    8.0024586   -6984.7623   -6964.1764   -6984.7623            0    9137.1135    22.981158    21.119933    21.227885    10303.177    9125.8752    8918.2706    9367.1949   -34.904508    -27.09492   -129.18853   -5591.2221 
14645000    8.1499232   -6984.1282    -6963.163   -6984.1282            0     9076.594    22.987837    21.107741    21.237132    10304.709    9068.8202    8860.7018      9300.26   -113.79645   -21.751299    77.898601   -5599.0997 
14646000    7.7902908   -6984.1836   -6964.1435   -6984.1836            0    9225.3642    22.974319    21.055864    21.286591    10297.263    9246.0691    9286.3807    9143.6428    118.11686   -115.44639    151.42897   -5578.7243 
14647000    8.0228913   -6986.3727   -6965.7343   -6986.3727            0    9053.7539    22.976319     21.11254    21.244948    10305.679    9095.1168    8990.4091    9075.7357    71.328996   -102.99552   -103.97822   -5604.9755 
14648000    7.8237936   -6985.4702   -6965.3439   -6985.4702            0     9114.064    22.961531     21.13137    21.237857    10304.791     9217.305    9017.1429    9107.7442    -105.4003   -31.461172   -166.24862   -5595.6386 
14649000    7.8846299   -6982.9296   -6962.6468   -6982.9296            0    9167.3995    22.971144    21.070663    21.282184    10300.944    9134.4166    9249.5421    9118.2399    142.59597    137.48826    119.78608   -5585.4403 
14650000    7.6880613   -6984.8993   -6965.1222   -6984.8993            0    9148.7756    22.930442    21.123857    21.274702    10305.027    9219.3476    9000.9238    9226.0555    26.829177     136.8537    91.266628   -5590.1688 
14651000    8.0157811   -6984.1406   -6963.5205   -6984.1406            0    9130.9123    22.998008    21.117853    21.217385    10304.617    9052.6544     9007.763    9332.3197    94.431253   -20.134535   -167.47945   -5591.3063 
14652000    7.8040424   -6985.3236   -6965.2482   -6985.3236            0     9205.005    22.984032    21.056175    21.284044    10300.537    9101.6653    9378.3545    9134.9954   -41.134132    27.818632    189.56553    -5582.447 
14653000    8.2916187   -6983.7495   -6962.4198   -6983.7495            0    9239.7514    22.935638    21.111055    21.270636    10299.147    9432.2047    9113.8758    9173.1737   -101.38264   -39.079115    12.607076   -5574.5861 
14654000    8.0254486   -6985.0056   -6964.3606   -6985.0056            0    9118.4683    23.018813    21.100614    21.215033    10304.377     8883.079    9121.7378     9350.588    9.1204124    61.307943   -33.731286   -5594.0484 
14655000    7.5166646   -6984.9449   -6965.6087   -6984.9449            0    9111.9275     22.96467    21.066707    21.299048    10304.266    9079.4972    9249.6789    9006.6065   -3.2696026    118.30524    187.30626   -5596.2943 
14656000    7.7584712   -6986.1906   -6966.2324   -6986.1906            0    9092.4976    22.938379    21.099395    21.291942        10305    9313.0785      9007.48    8956.9342     104.2573    26.946361   -21.814042   -5599.7405 
14657000    7.9952311   -6985.0175   -6964.4502   -6985.0175            0    9120.0164     23.01036    21.130482    21.188795    10302.416    8793.8041    9049.7209    9516.5242   -32.317128    65.690007   -183.86292   -5594.1663 
14658000    8.0631692   -6985.5045   -6964.7625   -6985.5045            0    9147.0401    22.959698    21.086703     21.27829    10301.763    9247.9308    9001.7147    9191.4749    137.19975     69.92011    130.04594   -5590.5052 
14659000    8.1917568   -6985.2322   -6964.1595   -6985.2322            0    9161.9166     22.93454    21.096865    21.295419    10303.723    9418.9823    9042.2068    9024.5607    39.422296    -179.6417    91.682593   -5587.4053 
14660000    7.8869827   -6984.9409   -6964.6522   -6984.9409            0    9041.9497    23.029672    21.116098    21.192635    10305.911    8774.3895    9004.8842    9346.5752   -163.63374    43.434767   -358.09214   -5605.6368 
14661000    7.5318516   -6984.7109   -6965.3357   -6984.7109            0    9152.8392    22.953822    21.089278    21.280323    10301.369    9227.1921    8994.0979    9237.2276   -13.163069   -31.808727    234.75625   -5590.2597 
14662000    8.0360089   -6985.5878   -6964.9156   -6985.5878            0    8998.1355    22.953979    21.080333    21.300683    10306.922    9152.5104    9177.1803    8664.7159   -62.105146   -54.406678    120.94987   -5612.3529 
14663000     7.862321   -6984.3338   -6964.1084   -6984.3338            0    9065.4464    23.026281    21.111153    21.200298    10305.705     8801.711    9055.9205    9338.7076   -31.936475   -75.821609   -243.94206   -5601.5887 
14664000    7.7835128   -6985.5792   -6965.5566   -6985.5792            0    9116.4089    22.928681    21.097946    21.302163     10304.88    9331.6171    9112.3147    8905.2949      99.1579   -14.846149    108.26007    -5595.487 
14665000    8.0065504   -6985.2496   -6964.6532   -6985.2496            0    9097.0795    22.960674    21.082128    21.289198    10305.246    9103.4854     9130.986    9056.7669    -99.91925    155.03475    75.295238     -5597.44 
14666000    8.0501166   -6984.2045   -6963.4961   -6984.2045            0    9078.3668    23.013593    21.127082    21.193457    10304.472    8906.2742    8982.2535    9346.5725    85.729947   -49.012804   -325.28637   -5599.1977 
14667000    7.9296035   -6984.8711   -6964.4726   -6984.8711            0    9109.7568     22.94234    21.101431    21.281886    10302.906    9312.9492    8972.0667    9044.2544   -32.109465   -71.445024    58.575195    -5595.665 
14668000    8.5006025   -6985.0355   -6963.1682   -6985.0355            0    9124.6038    22.972111    21.069072    21.284588    10301.763    9106.1238    9254.6856    9013.0019    88.647576   -192.88795    38.755455   -5592.2818 
14669000    8.3877708   -6984.2883   -6962.7113   -6984.2883            0    9069.9051    23.023644    21.106078    21.207443     10305.52    8782.3469     9070.561    9356.8074   -133.63851   -93.275312   -182.94647   -5599.5459 
14670000    7.5453006   -6984.3206   -6964.9108   -6984.3206            0     9102.134    22.941317    21.102047    21.287959    10305.687    9225.8129    9077.9077    9002.6815    33.893498   -85.769367   -30.978156   -5596.8794 
14671000    8.0149363   -6985.1116   -6964.4937   -6985.1116            0     9130.877    22.959922    21.069966     21.29864    10303.532     9005.366    9272.2093    9115.0557    278.24898    109.47949   -6.2886869   -5592.4293 
14672000    8.0664319   -6984.8878   -6964.1374   -6984.8878            0    9209.5463    22.976719    21.111956    21.239816    10303.084    9214.0521    9040.8857    9373.7012    30.974001    63.328693   -82.088479   -5580.3117 
14673000     7.789196   -6985.4394   -6965.4022   -6985.4394            0    9121.1632    22.954573    21.114074    21.268837    10308.251    9170.7324    9078.8514    9113.9059   -43.303795   -113.75478    79.655373   -5594.1696 
14674000    7.8296839   -6984.1075   -6963.9661   -6984.1075            0    9137.2599    22.970817    21.061719    21.287208    10298.855    9107.9476    9280.6962    9023.1358    26.107753    98.074687    250.40931   -5591.5658 
14675000    7.9264159    -6984.552   -6964.1617    -6984.552            0    9132.3553    22.983226    21.106242    21.239965    10303.285    9130.1188    9015.6313    9251.3158   -15.916545   -17.933028   -31.986849   -5591.9081 
14676000    7.7226414   -6985.0459   -6965.1799   -6985.0459            0    9073.9336    22.957129    21.118211    21.257984    10306.157    9188.8862    8938.9835    9093.9311   -133.13686   -146.05994   -3.4782245   -5601.3247 
14677000    8.3088175   -6984.0564   -6962.6825   -6984.0564            0    9072.3792    22.997585    21.044477    21.292114     10304.79    8932.7904    9341.5093    8942.8379    111.60936    46.911487    27.402191   -5599.2419 
14678000    8.0452981   -6984.5355   -6963.8395   -6984.5355            0    9126.7164     22.94122    21.125679    21.263238    10305.204    9289.5095    9059.3147    9031.3249    137.05286   -116.79689   -66.599442   -5592.1777 
14679000    7.9318001   -6984.0226   -6963.6185   -6984.0226            0    9240.9306    22.972375    21.139309    21.207972    10299.018    9121.8766    9090.0494    9510.8656   -57.420596    -16.95428   -174.47509    -5575.625 
14680000    7.9976922   -6984.8021   -6964.2285   -6984.8021            0    9032.7401    22.981299    21.066175    21.288282    10306.254    8893.2424    9244.0503    8960.9276   -71.606461    139.17616    182.69372   -5606.5521 
14681000    8.0879237   -6984.9243   -6964.1186   -6984.9243            0    9146.6313    22.945534    21.096845    21.282177    10302.242     9287.387    9111.8137    9040.6931    21.984102    49.237694     14.37115    -5589.859 
14682000    8.1110849   -6983.9959   -6963.1306   -6983.9959            0    9235.6788    22.998692    21.120715    21.204751    10300.183    9151.7633    9102.1369    9453.1362   -52.462687   -74.189374   -254.18912   -5575.7691 
14683000    8.0573527   -6985.8606   -6965.1336   -6985.8606            0    9122.1223    22.979828     21.07082    21.277294    10302.547     9076.036    9224.0116    9066.3194   -101.16352     23.54479    71.877651   -5594.5157 
14684000    7.9194255    -6985.054   -6964.6818    -6985.054            0    9167.1519    22.940149      21.0762    21.309122    10302.773     9197.018    9265.7819    9038.6559    30.426329     39.57248    50.112794    -5587.268 
14685000    8.2859362    -6984.797    -6963.482    -6984.797            0    9136.6709    22.980515    21.142448     21.20563    10303.059    8988.8456    8954.1456    9467.0215   -3.2489819     128.7361   -76.398598   -5590.6099 
14686000    8.4062063   -6985.0589   -6963.4345   -6985.0589            0    9190.0321     22.96939    21.086415      21.2709    10302.392    9207.1739     9137.531    9225.3914    131.09158     19.93598    115.11353   -5582.6338 
14687000    7.9722464   -6985.8767   -6965.3686   -6985.8767            0    9195.5456    22.904575    21.107765      21.3116      10303.4    9446.8605    9108.2425    9031.5337     255.2982    132.66863    134.91796   -5583.6044 
14688000    8.2105568     -6984.53   -6963.4089     -6984.53            0    9079.4647    23.014538    21.106556    21.213559    10304.648    8864.7249    8994.9424    9378.7268   -88.317731    53.088755   -95.760913   -5598.9221 
14689000    7.5212192    -6984.519   -6965.1711    -6984.519            0    9235.5318    22.960814    21.079129    21.280893    10299.824    9278.8469    9149.6807    9278.0677    -25.55048   0.49669856    182.82485   -5577.8801 
14690000    8.2545884   -6984.4309   -6963.1965   -6984.4309            0    9036.1314    22.959778    21.072143    21.303613    10306.937    9126.4481    9213.9027    8768.0435    102.51612    -94.98963    197.64854   -5604.9203 
14691000    8.1368021   -6984.6791   -6963.7477   -6984.6791            0    9110.7814    23.011777    21.119548    21.204688    10305.442    9005.2406    8953.1098    9373.9939   -214.64798    35.568293   -272.94309   -5594.4491 
14692000    8.0568394    -6984.799   -6964.0732    -6984.799            0    9114.4516    22.949083    21.091658    21.291457    10305.794    9132.5045    9298.0471    8912.8034    65.702119   -148.78515    67.546905   -5594.1763 
14693000    7.6771683   -6984.1779   -6964.4288   -6984.1779            0    9090.9599    22.946423    21.060208    21.322621    10304.294    9251.2382    9217.9253    8803.7164    85.565746    216.55089    45.535708   -5598.2616 
14694000    8.1113412   -6985.1805   -6964.3145   -6985.1805            0    9082.2538    22.992037    21.131261    21.212943    10306.324    9087.1832    8912.1058    9247.4724   -114.75808   -5.6993894   -145.33022   -5599.1867 
14695000    8.1924288    -6984.891   -6963.8165    -6984.891            0    9131.0986    22.959275    21.098799    21.269761    10303.351    9179.3571      9161.47    9052.4686  -0.94047883   -32.777816    123.54027   -5591.7428 
14696000    7.9957937   -6985.0134   -6964.4447   -6985.0134            0    9115.0048    22.955049    21.065585    21.304972    10302.265     9385.061    9113.5652    8846.3882   -68.546215   -114.81797    41.501996   -5594.9338 
14697000    7.9737934   -6984.7763   -6964.2642   -6984.7763            0     9179.079    23.007657    21.103476    21.219383    10302.892    9072.3082    9083.7448    9381.1841    -104.4336   -21.569959    2.3003298   -5585.0423 
14698000    8.0498375   -6984.3169   -6963.6092   -6984.3169            0    9145.4862    22.958582    21.102111    21.265344    10302.518    9303.1031    9008.1691    9125.1865    72.466544   -29.815191    10.177155   -5589.4848 
14699000    8.0975022   -6984.4737   -6963.6434   -6984.4737            0      9112.81    22.963856    21.053413      21.3132     10304.24    9078.6633    9458.7049    8801.0619   -34.621234    220.26185   -13.937341   -5594.1997 
14700000    7.9458818   -6984.7262   -6964.2859   -6984.7262            0    9176.1368    22.999396    21.120869     21.20793    10302.118    9137.1011    8945.0627    9446.2467   -36.106533   -17.816441   -89.793282   -5585.6097 
14701000    8.1274875   -6984.4626   -6963.5552   -6984.4626            0    9234.5813    22.939605    21.130914    21.248746    10300.007    9451.7328    9031.6921    9220.3191   -42.159462   0.46731579    34.518236   -5576.3822 
14702000    7.6898909   -6984.1688    -6964.387   -6984.1688            0     9149.696    22.985263    21.050528    21.289821    10301.121    8993.3075    9277.0784    9178.7022   -25.179393    146.27798    227.95377   -5589.8165 
14703000    7.7262844   -6985.4417   -6965.5663   -6985.4417            0    9198.7292    22.985047    21.095142    21.241632     10299.49    9031.4852    9256.4461    9308.2563    130.03251    6.1022959    57.836612   -5583.8482 
14704000    7.7687498   -6985.1235   -6965.1389   -6985.1235            0    9139.7721    22.955513    21.126495    21.251009    10306.092     9284.555    9049.0862    9085.6751   -128.90786   -26.245662   -6.3451307   -5591.3965 
14705000     7.854948   -6984.7178   -6964.5114   -6984.7178            0    9082.0435    22.994274    21.050759    21.283632    10302.276    8868.5569    9333.6911    9043.8825   -32.879394    145.78379    85.501771   -5599.9513 
14706000     7.798728   -6985.4716   -6965.4099   -6985.4716            0    9047.0924    22.958473    21.110441     21.26104     10304.45     9001.115    9100.4938    9039.6682   -116.31487    67.995564    85.421577   -5605.8143 
14707000    7.8376832   -6985.3596   -6965.1976   -6985.3596            0     9144.228    22.955795    21.150039    21.226522    10305.815    9254.8634    8996.9187    9180.9018   -180.54542    46.170679   -189.40044   -5590.8225 
14708000    7.6598205   -6983.0477   -6963.3432   -6983.0477            0    9201.4981    22.973412     21.06404    21.280769    10298.038    8982.2079    9380.0658    9242.2207  -0.15151932    14.603079    170.80944   -5581.4041 
14709000    8.2161816   -6984.7359   -6963.6003   -6984.7359            0    9154.1124    22.972425    21.075381     21.28164    10303.561    9119.0588    9273.9073    9069.3712    56.603599   -43.793129  -0.93832804   -5588.0405 
14710000    7.8810706   -6985.3364   -6965.0628   -6985.3364            0    9101.4175    22.982121    21.134638    21.218277    10306.116    9110.2389    8922.5614    9271.4523    16.909657   -96.384559   -184.72859   -5597.0822 
14711000    7.7289844    -6982.989   -6963.1067    -6982.989            0    9162.6585    22.982633    21.062894    21.275657    10299.137    9067.8575    9438.9943    8981.1238    63.585381    11.095859    60.016304   -5586.8539 
14712000    7.7108489   -6984.2994   -6964.4637   -6984.2994            0    9141.3141     22.95674    21.085913    21.280485    10301.113     9091.592    9198.7872    9133.5632   -84.744906    40.074426   -1.0773216   -5591.1534 
14713000    7.7419553   -6984.4355   -6964.5198   -6984.4355            0    9186.6613    22.986326    21.126947    21.214675    10302.501    9105.9247      9178.41     9275.649    77.202475   -126.66321   -109.78882    -5584.211 
14714000    8.0278273   -6985.2066   -6964.5555   -6985.2066            0    9095.9758    22.973248    21.074053    21.282249    10303.576    9050.3664    9189.4572    9048.1039   -204.22431    119.07746    109.01688   -5597.7297 
14715000    7.4734865   -6984.1032   -6964.8781   -6984.1032            0    9214.7666    22.947457    21.079986    21.291191    10299.232    9278.7512    9383.5898    8981.9586    138.01377   -26.751074    17.460003   -5580.7858 
14716000     7.631303   -6984.1757   -6964.5446   -6984.1757            0    9187.9183    22.978566    21.129818    21.220657    10303.328    9181.9129    9006.0183    9375.8238   -124.48606    -55.91607     4.608748   -5583.9361 
14717000    8.0357985   -6985.4527   -6964.7811   -6985.4527            0     9052.924    22.975177    21.079208    21.280566    10306.146    8991.7574    9232.3466     8934.668   -21.812104    115.98484   -62.900836   -5604.0852 
14718000    7.8601866   -6983.3801   -6963.1603   -6983.3801            0    9160.9296    22.954815     21.05048    21.320363     10302.21    9219.9445    9420.8781    8841.9662    168.68733   -9.7904852    126.24732   -5586.7566 
14719000    7.8616865   -6985.0551   -6964.8314   -6985.0551            0    9194.5083    22.971171    21.132426    21.225569    10303.668    9081.2003    9213.1227     9289.202   -65.174543   -2.7860387   -211.14652   -5583.1871 
14720000    7.8822746   -6985.9309   -6965.6543   -6985.9309            0    9083.6558    23.000788    21.093813    21.235155    10302.752    8999.3522    9000.2058    9251.4095     12.70145    17.111803    22.522896   -5600.7889 
14721000    7.7626924   -6984.3935   -6964.4244   -6984.3935            0    9154.4822    22.954681    21.057834    21.316072    10303.675    9090.5399     9423.336    8949.5708     209.6518   -65.427777    83.975373   -5588.7939 
14722000    7.7828676    -6984.863    -6964.842    -6984.863            0    9151.7423    22.970552    21.130465    21.222866    10301.122    9169.6123    8901.2794    9384.3352    62.832558   -36.021159   -145.37363   -5589.9639 
14723000    7.9588065   -6985.8208   -6965.3472   -6985.8208            0    9087.7491    22.997734    21.106347    21.226128    10303.124    8943.8532    9114.4161    9204.9781    112.17252   -2.0255552   -133.41908   -5599.8176 
14724000    8.2202118   -6984.4924   -6963.3464   -6984.4924            0    9108.9397    22.944117    21.062444    21.324755    10305.384    9190.1539    9393.0968    8743.5683    11.235435   -48.799043    88.565194   -5594.3324 
14725000    8.0071658   -6984.7556   -6964.1576   -6984.7556            0     9179.897    22.986866    21.102376     21.23151    10298.927     9074.438     9188.227    9277.0259    7.1088325   -68.381611   -99.394321   -5585.3436 
14726000    7.9956322   -6984.1225   -6963.5542   -6984.1225            0    9259.9237    22.989932    21.115058    21.215685    10298.809    9284.6673     9053.381     9441.723   -184.55813   -81.934052    19.279814   -5572.7362 
14727000    8.3838624   -6983.8996   -6962.3326   -6983.8996            0    9147.9015    22.948181    21.066989    21.305019    10299.892    9160.3502    9229.2041    9054.1501   -17.102466    169.75222    207.61732   -5588.1956 
14728000    8.3453562   -6984.6632   -6963.1953   -6984.6632            0    9144.0277    22.983737    21.102536    21.242471     10302.92    9136.9283    9008.2219     9286.933    80.519751   -42.731406   -11.260013   -5589.2364 
14729000    8.0953076   -6984.4793   -6963.6546   -6984.4793            0    9208.0045    22.978757    21.125268    21.224694    10303.154    9194.2094    9063.4956    9366.3086   -12.024363   -26.216845   -127.53562   -5580.0512 
14730000    8.0570204   -6983.9843   -6963.2581   -6983.9843            0    9137.2051    22.926919    21.072338    21.323788    10302.029    9343.8821    9178.9051    8888.8281     133.4242    78.516771    128.81912    -5590.443 
14731000    8.1059556    -6984.511   -6963.6589    -6984.511            0     9115.086    22.991453    21.083025    21.263982    10307.276     8767.773    9351.5384    9225.9467     52.42277    85.792328     57.14256   -5593.4696 
14732000    8.2618248   -6984.8864   -6963.6333   -6984.8864            0    9112.2602    22.997635    21.117872    21.213938    10302.785    9049.5429    8999.4286    9287.8091   -3.8543158   -113.65261   -112.88252   -5594.4657 
14733000    7.6026024    -6984.447   -6964.8898    -6984.447            0    9102.0336    22.965368    21.050975    21.309442    10301.909    9117.2461    9289.3236     8899.531    45.023524    -96.73523    229.10613    -5597.375 
14734000    8.2816797   -6985.7707   -6964.4666   -6985.7707            0    9050.9977    22.987709    21.068605     21.27992    10306.269    8912.1162    9327.4305    8913.4463    151.51364   -1.0724228     81.14516   -5604.0441 
14735000    7.8342052   -6984.3628   -6964.2098   -6984.3628            0     9139.577     22.98153    21.128767      21.2132    10300.523    9060.5678    9101.6993     9256.464   -62.844629   -35.470101   -166.90693   -5591.2391 
14736000    8.1075409   -6985.6166   -6964.7604   -6985.6166            0    9095.4527    22.930872    21.096857    21.304914    10306.664    9361.0889     9017.906    8907.3631    88.341244    37.841866    78.427053   -5597.6036 
14737000    7.6670685   -6984.5507   -6964.8276   -6984.5507            0    9170.1631    22.957641    21.091352    21.275762    10301.888    9081.6741    9248.1402    9180.6749    123.26989    104.01508    29.535014   -5587.0797 
14738000    8.0421966   -6983.8726   -6963.1846   -6983.8726            0    9124.0835    22.975473    21.135833    21.219443    10304.283    9148.8411    8881.7407    9341.6686    -98.46896    24.943657   -183.24959    -5592.041 
14739000    7.8267571   -6985.1947   -6965.0608   -6985.1947            0    9081.4873    22.969521    21.071713    21.296553    10307.684    9109.8795    9193.4814     8941.101   -54.555279   -102.19415    158.90378   -5599.8681 
14740000    8.0640475   -6984.1623    -6963.418   -6984.1623            0    9199.6684    22.999331    21.043682    21.277261    10297.994     8945.332    9463.8579    9189.8154     112.3955    61.013249    97.474336   -5581.7596 
14741000    8.0794664   -6985.6092   -6964.8252   -6985.6092            0    9110.5012    22.970144    21.130198    21.228978    10303.775    9048.4633    9004.7995    9278.2409   -34.375639   -34.296632    -71.64781   -5595.7903 
14742000       7.8551   -6985.1618    -6964.955   -6985.1618            0    9071.3022    22.960554    21.089329    21.283708    10306.054    9209.1767    9019.1108     8985.619    48.627109   -122.75123    19.317988    -5601.509 
14743000    8.3110445   -6984.9072   -6963.5276   -6984.9072            0    9128.4883    22.974378    21.069685    21.280868    10301.279       8940.3    9333.8367    9111.3281    66.924287     192.5723    117.00769    -5592.122 
14744000    8.1566632   -6985.6621   -6964.6796   -6985.6621            0    9072.1724    22.951813     21.14493    21.236961    10306.605    9199.8244    8930.9942    9085.6986    31.408297   -37.155685   -327.40232   -5601.0299 
14745000    8.5151321   -6984.6637    -6962.759   -6984.6637            0    9147.7643    22.980758    21.085684    21.259195    10301.462    9148.2888    9156.9132    9138.0908    51.134729   -3.7070885   -11.740767   -5588.4332 
14746000    8.0921045   -6985.1656   -6964.3492   -6985.1656            0    9124.6678    22.995816    21.054834    21.272111    10299.384    8956.5169    9328.4731    9089.0134    154.27712    3.4107736    185.32212   -5593.7698 
14747000    8.1400445   -6985.5359   -6964.5961   -6985.5359            0    9113.0145    22.975808    21.118639    21.233569    10302.906    9144.2827    8956.7149    9238.0457   -28.694433   -94.230166   -97.709124   -5595.2991 
14748000    7.7799126   -6984.0782   -6964.0648   -6984.0782            0    9108.8382    22.987102    21.091514    21.249505    10302.457    9025.4442    9252.8267    9048.2438    110.13937   -174.51531   -29.791977   -5595.4549 
14749000    8.1187722   -6986.1334   -6965.2484   -6986.1334            0    9067.0393    22.982119    21.057095    21.295553    10305.699    8935.9137     9277.304    8987.9001   -19.282034    243.34473    46.809106   -5602.4901 
14750000    8.3708363   -6984.4988   -6962.9654   -6984.4988            0     9142.852    22.926344    21.127782    21.278166    10306.777    9416.5698    8985.6745    9026.3118    28.444969    48.293119   -51.583238   -5588.6688 
Loop time of 598.014 on 64 procs for 250000 steps with 1296 atoms

Performance: 72.239 ns/day, 0.332 hours/ns, 418.050 timesteps/s
195.8% CPU use with 32 MPI tasks x 2 OpenMP threads

MPI task timing breakdown:
Section |  min time  |  avg time  |  max time  |%varavg| %total
---------------------------------------------------------------
Pair    | 37.546     | 48.68      | 61.57      |  92.2 |  8.14
Bond    | 0.84014    | 1.0977     | 1.7314     |  17.8 |  0.18
Kspace  | 307.6      | 322.75     | 336.71     |  40.2 | 53.97
Neigh   | 0.13604    | 0.14652    | 0.15708    |   1.6 |  0.02
Comm    | 85.333     | 89.346     | 93.684     |  25.5 | 14.94
Output  | 0.83858    | 0.83891    | 0.8408     |   0.0 |  0.14
Modify  | 112.3      | 115.05     | 117.23     |   9.4 | 19.24
Other   |            | 20.1       |            |       |  3.36

Nlocal:        40.5000 ave          50 max          30 min
Histogram: 2 3 1 1 6 6 4 3 1 5
Nghost:        3230.19 ave        3254 max        3215 min
Histogram: 4 6 6 3 3 2 2 2 1 3
Neighs:        13548.5 ave       16790 max       10075 min
Histogram: 2 3 1 2 10 4 1 4 2 3

Total # of neighbors = 433551
Ave neighs/atom = 334.53009
Ave special neighs/atom = 2.0000000
Neighbor list builds = 250
Dangerous builds = 0

unfix		3
unfix		2
unfix		1

write_data	data.final.${pid}
write_data	data.final.0
System init for write_data ...
PPPM initialization ...
  extracting TIP4P info from pair style
  using 12-bit tables for long-range coulomb (../kspace.cpp:340)
  G vector (1/distance) = 0.37221131
  grid = 30 36 32
  stencil order = 5
  estimated absolute RMS force accuracy = 0.003572392
  estimated relative force accuracy = 1.0758152e-05
  using double precision FFTW3
  3d grid and FFT values/proc = 7344 1080
Last active /omp style is kspace_style pppm/tip4p/omp
WARNING: Not all mixed pair coeffs generated from mixing. Use write_data with 'pair ij' option to store all pair coeffs. (../write_data.cpp:312)

write_restart   restart.lmp.${pid}
write_restart   restart.lmp.0
System init for write_restart ...
PPPM initialization ...
  extracting TIP4P info from pair style
  using 12-bit tables for long-range coulomb (../kspace.cpp:340)
  G vector (1/distance) = 0.37221131
  grid = 30 36 32
  stencil order = 5
  estimated absolute RMS force accuracy = 0.003572392
  estimated relative force accuracy = 1.0758152e-05
  using double precision FFTW3
  3d grid and FFT values/proc = 7344 1080
Last active /omp style is kspace_style pppm/tip4p/omp
Total wall time: 0:09:58
