#include		in.partitions
include		in.temp
variable        temperature equal 248.27
variable	tempDamp equal 100.0
include		in.pressure
variable        pressure equal 8369.1
variable        pressureDamp equal 1000.0 # This is 1 ps
include		in.seed
variable        seed equal 745823

units		real
atom_style	full
read_restart	restart.lmp.${pid}
read_restart	restart.lmp.0
Reading restart file ...
  restart file = 30 Jul 2021, LAMMPS = 30 Jul 2021
  restoring atom style full from restart
  orthogonal box = (-0.14272543 -0.12488914 -0.033785635) to (24.872726 24.854890 22.843786)
  4 by 4 by 2 MPI processor grid
  restoring pair style lj/cut/tip4p/long/omp from restart
  restoring bond style harmonic/omp from restart
  restoring angle style harmonic/omp from restart
  1920 atoms
  1280 bonds
  640 angles
Finding 1-2 1-3 1-4 neighbors ...
  special bond factors lj:    0        0        0       
  special bond factors coul:  0        0        0       
     2 = max # of 1-2 neighbors
     1 = max # of 1-3 neighbors
     1 = max # of 1-4 neighbors
     2 = max # of special neighbors
  special bonds CPU = 0.003 seconds
  read_restart CPU = 0.010 seconds
include 	in.setup
variable	out_freq equal 1000
variable	out_freq2 equal 10000
variable	out_freq3 equal 1000

timestep	2.0

neigh_modify    delay 7 every 1

include		in.tip4p
# This is TIP4P/Ice

# create groups ###
group ox type 2
640 atoms in group ox
group hy type 1
1280 atoms in group hy

# set charges - beside manually ###
set group ox charge -1.1794
Setting atom values ...
  640 settings made for charge
set group hy charge 0.5897
Setting atom values ...
  1280 settings made for charge

# ### TIP3P Potential Parameters ###
pair_style lj/cut/tip4p/long/omp 2 1 1 1 0.1577 8.5
pair_coeff 1 1*2 0.000 0.000
pair_coeff 2 2 0.21084 3.1668
bond_style  harmonic
bond_coeff  1 450 0.9572
angle_style harmonic
angle_coeff 1 55 104.52
kspace_style pppm/tip4p/omp 1.0e-5
pair_modify tail yes

thermo          ${out_freq}
thermo          1000
thermo_style    custom step temp pe etotal epair emol press lx ly lz vol pxx pyy pzz pxy pxz pyz enthalpy

restart 	${out_freq3} restart.lmp.${pid} restart2.lmp.${pid}
restart 	1000 restart.lmp.${pid} restart2.lmp.${pid}
restart 	1000 restart.lmp.0 restart2.lmp.${pid}
restart 	1000 restart.lmp.0 restart2.lmp.0


include         in.dump
dump            myDump all atom ${out_freq2} dump.water.${pid}
dump            myDump all atom 10000 dump.water.${pid}
dump            myDump all atom 10000 dump.water.0
dump            myDump2 all dcd ${out_freq2} dump.dcd
dump            myDump2 all dcd 10000 dump.dcd
dump_modify     myDump append yes
dump_modify     myDump2 append yes


variable natoms 	equal  "count(all)"                        # NUMBER ATOMS
variable H      	equal  "enthalpy/v_natoms"                 # ENTHALPY-per-atom
variable Vol      	equal  "vol/v_natoms"                 # volume-per-atom
fix AVG all 		ave/time ${out_freq} 1 ${out_freq} v_Vol v_H file vol_enthalpy.dat
fix AVG all 		ave/time 1000 1 ${out_freq} v_Vol v_H file vol_enthalpy.dat
fix AVG all 		ave/time 1000 1 1000 v_Vol v_H file vol_enthalpy.dat




fix 		1 all shake 1e-6 200 0 b 1 a 1
       0 = # of size 2 clusters
       0 = # of size 3 clusters
       0 = # of size 4 clusters
     640 = # of frozen angles
  find clusters CPU = 0.001 seconds
fix             2 all nph aniso ${pressure} ${pressure} ${pressureDamp}
fix             2 all nph aniso 8369.1 ${pressure} ${pressureDamp}
fix             2 all nph aniso 8369.1 8369.1 ${pressureDamp}
fix             2 all nph aniso 8369.1 8369.1 1000
fix             3 all temp/csvr ${temperature} ${temperature} ${tempDamp} ${seed}
fix             3 all temp/csvr 248.27 ${temperature} ${tempDamp} ${seed}
fix             3 all temp/csvr 248.27 248.27 ${tempDamp} ${seed}
fix             3 all temp/csvr 248.27 248.27 100 ${seed}
fix             3 all temp/csvr 248.27 248.27 100 745823


run             250000
PPPM initialization ...
  extracting TIP4P info from pair style
  using 12-bit tables for long-range coulomb (../kspace.cpp:340)
  G vector (1/distance) = 0.37437729
  grid = 30 30 30
  stencil order = 5
  estimated absolute RMS force accuracy = 0.0032841504
  estimated relative force accuracy = 9.8901213e-06
  using double precision FFTW3
  3d grid and FFT values/proc = 5400 960
Last active /omp style is kspace_style pppm/tip4p/omp
Neighbor list info ...
  update every 1 steps, delay 7 steps, check yes
  max neighbors/atom: 2000, page size: 100000
  master list distance cutoff = 10.8154
  ghost atom cutoff = 10.8154
  binsize = 5.4077, bins = 5 5 5
  1 neighbor lists, perpetual/occasional/extra = 1 0 0
  (1) pair lj/cut/tip4p/long/omp, perpetual
      attributes: half, newton on, omp
      pair build: half/bin/newton/omp
      stencil: half/bin/3d
      bin: standard
Per MPI rank memory allocation (min/avg/max) = 10.54 | 10.55 | 10.55 Mbytes
Step Temp PotEng TotEng E_pair E_mol Press Lx Ly Lz Volume Pxx Pyy Pzz Pxy Pxz Pyz Enthalpy 
 3000000    253.17457   -9130.1562   -8164.9393   -9130.1562            0    8995.1487    25.015452    24.979779    22.877571    14295.747    8829.4942    8529.3046    9626.6473    49.992774   -1094.0614    29.620925   -6289.5514 
 3001000    247.83888   -9167.3995   -8222.5247   -9167.3995            0    7506.3815    25.101643    24.878116    22.977223    14348.853    5621.5697    8342.5254    8555.0496   -257.07802   -1270.0765   -222.47295   -6651.7145 
 3002000    245.69304   -9141.9826   -8205.2887   -9141.9826            0    8014.9756    25.028363    24.815414    23.047344    14314.456    7411.1016    9312.8484    7320.9768    1.1336365    570.88669    391.06316   -6532.0691 
 3003000      252.039   -9170.7108   -8209.8232   -9170.7108            0    8656.2089    24.923885    24.888469    23.017637    14278.239    8304.4596    9400.0752    8264.0919   -197.86536   -151.21217      559.796   -6407.3107 
 3004000    245.62252   -9190.9767   -8254.5516   -9190.9767            0    8323.7909    25.014593    24.997062    22.871934    14301.622    6801.2087    9180.0993    8990.0647   -559.96453   -452.11828   -100.61801   -6518.4212 
 3005000    245.99365    -9136.508   -8198.6681    -9136.508            0    7453.9492    24.981895    25.083579    22.963963    14390.031    7848.5606     6591.882     7921.405    181.47633    685.66958   -369.57055   -6634.3536 
 3006000    256.47362   -9145.2855   -8167.4911   -9145.2855            0    7710.9089    24.864979    25.029909    23.055289    14348.878    8654.2381     6913.281    7565.2075    73.403578   -549.36048   -942.72405    -6553.878 
 3007000    243.82161   -9157.5599   -8228.0007   -9157.5599            0    8847.2983    24.891572    24.923922    23.039942    14293.878    8380.2966    9129.5116    9032.0867    630.65514     -724.896    978.08625   -6383.6792 
 3008000    250.43053   -9185.9431   -8231.1877   -9185.9431            0    8548.8654    24.926899    24.946516    22.962997    14279.294    9546.3584    8661.9485    7438.2894    810.95145   -868.04269   -544.68212   -6450.8962 
 3009000    251.87576   -9121.0129   -8160.7477   -9121.0129            0    9575.5746    24.998854    25.034869    22.812931    14277.313    8311.7511    9433.1472    10981.825   -195.86924    30.822911   -1037.6031   -6166.9218 
 3010000    246.15633   -9125.3439   -8186.8837   -9125.3439            0    8100.3767     24.93433    24.991145    22.988978    14325.293    8123.8503    8221.2235    7956.0563    571.89092    555.29088   -388.84003   -6494.5554 
 3011000    242.01322   -9140.6907    -8218.026   -9140.6907            0    7399.8882    24.965687      24.9427    23.068739    14365.172    6813.9731    8698.9056     6686.786    941.63609    1858.1952   -833.56775   -6667.7398 
 3012000    257.25378   -9149.7241   -8168.9554   -9149.7241            0    7044.4193    25.003603    25.107316    22.963308    14415.753    7663.1825    5885.2646    7584.8108    25.030619   -15.625965    192.57652   -6687.9439 
 3013000      248.827   -9128.1007   -8179.4587   -9128.1007            0    8625.1596     24.94179    24.956401    22.991976    14311.524    8157.4057    9049.3127    8668.7605   -359.26095    493.41935   -250.02618   -6379.2249 
 3014000    248.15241   -9203.6851   -8257.6149   -9203.6851            0    7851.4799    24.935467    25.044196    22.921082    14313.958     8256.279     7586.538    7711.6228    71.819303   -405.24424    182.30802    -6618.584 
 3015000    250.08768   -9157.5453    -8204.097   -9157.5453            0    8703.2095    24.930416    24.983153    22.927315    14280.058     9418.019    8609.9419    8081.6675   -630.49425   -487.07416    449.34196   -6391.5667 
 3016000    251.24079   -9156.6859   -8198.8414   -9156.6859            0    9252.8407    24.781313    24.900702    23.117302    14265.042    9976.8093    8823.2431    8958.4698   -185.64598   -256.91858   -477.94541   -6273.8711 
 3017000    254.32492   -9172.6821   -8203.0796   -9172.6821            0    8833.2686    24.922579    24.930953    22.982805     14280.22    9412.0535     8366.863    8720.8892   -1116.5286     827.5233    1204.5723   -6363.4422 
 3018000    249.59748   -9196.8015   -8245.2221   -9196.8015            0    8080.9562    25.017314     24.98725    22.831141    14272.063    6182.9495    8313.3376    9746.5814    42.929049    -515.4271    347.94759   -6563.2245 
 3019000    256.20853   -9185.7228   -8208.9391   -9185.7228            0    10027.085    24.986321    24.862952    22.909231    14231.987    9315.2104    10935.256    9830.7886   -815.69469   -874.46425    319.62055    -6127.728 
 3020000     251.9253   -9196.2071   -8235.7529   -9196.2071            0    8546.2221    24.914326    24.834805    23.078239    14279.486    9481.9666    8115.6947    8041.0051    -1253.174     946.4119   -884.34187   -6455.9881 
 3021000    239.60915   -9145.7233    -8232.224   -9145.7233            0    7782.5585    24.987752    24.977922    22.986231    14346.675    7591.8999    8099.9526    7655.8232   -397.75409   -11.394951    1397.8925   -6603.8673 
 3022000    252.52829   -9139.5909   -8176.8379   -9139.5909            0    8927.6885    24.968226    24.983253    22.928704     14302.64    9117.2954    8952.7135    8713.0565   -334.03061    966.82303   -294.01416   -6314.6174 
 3023000     242.0452   -9173.5844   -8250.7977   -9173.5844            0    9302.6515    24.911972    24.878747    22.988953    14248.063    9185.3283    10822.387     7900.239    124.67594   -1023.5814    678.33928   -6317.7683 
 3024000    251.33032   -9106.5369   -8148.3511   -9106.5369            0    8823.1053    25.065969    24.943481    22.881539    14306.282    7658.2644    9621.7122    9189.3394   -135.03474   -1549.3949   -791.55772   -6307.4768 
 3025000    254.16412   -9180.7673   -8211.7777   -9180.7673            0    6609.8689    24.930843    24.974661    23.106927    14387.281    5539.6901    7512.6136    6777.3029   -85.339242    -577.6164   -763.91746   -6824.8703 
 3026000    254.58441   -9141.6794   -8171.0875   -9141.6794            0    7480.6989    24.922692    24.907199    23.166435    14380.668    7352.3242    7722.0491    7367.7235   -767.11778    379.14463   -10.050023   -6602.1808 
 3027000    245.68343    -9134.264   -8197.6067    -9134.264            0    8278.9274    24.918554    25.041783    22.953588    14323.154    9237.3293    6114.6727    9484.7803   -410.44569    1294.2119   -1222.7588   -6468.2339 
 3028000    256.58125   -9194.8975   -8216.6928   -9194.8975            0    8312.8778    24.943419    24.951098    22.962597    14291.132    7155.7846    9531.0959    8251.7528    1294.7076   -348.35577   -108.49653   -6484.1103 
 3029000    245.98299   -9166.1911   -8228.3917   -9166.1911            0     8178.102    25.001558     24.90894     22.98305    14312.978     7758.654    8930.1159    7845.5362    185.07875     389.2558   -112.69502   -6521.2939 
 3030000    248.06948   -9123.4008   -8177.6468   -9123.4008            0    8386.1183    24.997402    24.902667    22.978045    14303.879    7941.7876    8372.3422    8844.2252    68.817292   -414.66776     701.9865   -6428.2405 
 3031000    257.64037    -9136.308   -8154.0654    -9136.308            0    8642.7035    24.966451    24.930884    22.987878    14308.475    8866.7525    7997.9794    9063.3786   -1034.8816   -83.971189    1133.0501   -6350.5541 
 3032000     256.8452   -9159.3829   -8180.1718   -9159.3829            0    8832.5212    24.983057    24.936894    22.916694    14277.097    8265.5157    8283.8635    9948.1845    491.66014       940.95   -404.51937   -6341.0924 
 3033000     255.3883   -9169.4429   -8195.7862   -9169.4429            0    8817.0284    24.920921    24.947052     23.00228    14300.598    8395.7079    8585.4895    9469.8878    805.02087   -85.681537   -691.63568   -6356.9107 
 3034000    240.67599   -9174.7999   -8257.2333   -9174.7999            0    7871.6254    24.892894    24.990077    23.049381    14338.451    8623.3648    7247.2895    7744.2219   -603.70797    774.28469   -142.65567   -6611.1851 
 3035000    239.31799   -9185.2391   -8272.8497   -9185.2391            0    7102.1349    24.903971    25.028987    23.041022    14361.957    7757.9386    6572.6475    6975.8186   -25.156259   -653.27078    23.852827   -6785.2763 
 3036000    236.79447   -9122.5378   -8219.7693   -9122.5378            0    7543.0047    24.944039    25.094614    22.978272    14383.503    6876.5199    7353.0217    8399.4725   -859.23986   -266.71288    287.73339   -6637.4834 
 3037000    246.62847   -9154.7656   -8214.5054   -9154.7656            0    8059.7085    24.863728    24.995691    23.048568    14324.363    7731.4089    8969.8249    7477.8917    550.01754   -726.18386    389.74862   -6530.7827 
 3038000    251.06195   -9141.0931   -8183.9305   -9141.0931            0    9588.9673     24.82058    25.112777      22.8854    14264.783    9673.3164    9356.3533    9737.2321    96.058776    904.87823   -684.46298   -6189.0683 
 3039000    243.47788   -9175.1224   -8246.8737   -9175.1224            0    6379.8862    24.915996     25.10768    22.968217    14368.522    6960.5065    5882.8209    6296.3313    672.66995    -306.8463   -548.19975   -6909.9675 
 3040000    238.97085   -9130.4798   -8219.4139   -9130.4798            0    10084.908    24.823574     25.08358     22.87015    14240.421    10431.081    9553.2768    10270.365   -734.45707   -625.15831    75.443068   -6124.9607 
 3041000    242.84812   -9184.8258    -8258.978   -9184.8258            0    8375.4664    24.923408    24.896645    23.024831    14287.121    8622.8573    9566.3196    6937.2224   -439.98281    667.89766    939.13216   -6513.8407 
 3042000    246.63726    -9162.012   -8221.7182    -9162.012            0    7760.3211    25.018848    24.843809      23.0653    14336.548    7954.4695    8905.9229    6420.5709   -917.49868      -999.54   -1212.8999   -6599.1605 
 3043000    245.30575   -9126.7073   -8191.4899   -9126.7073            0    8652.5024    24.990174    24.934553    22.990673    14325.921    8507.5339    8315.1456    9134.8275   -609.55841      1306.67   -622.05744   -6383.7324 
 3044000    248.19139   -9170.3702   -8224.1515   -9170.3702            0    8083.5875    25.018917    24.833958    23.047992    14320.149    7968.6576    8546.0151    7736.0898    678.84084   -406.60662    110.10885   -6535.9372 
 3045000    242.79206   -9196.1518   -8270.5177   -9196.1518            0    8430.0079    25.052445    24.888329    22.902862    14280.244      6656.51    8930.3772    9703.1364   -824.41713    -21.26225       355.23   -6514.8615 
 3046000    261.69323   -9155.5818   -8157.8879   -9155.5818            0    8796.0565    25.032783    24.948566     22.87235    14284.516    6907.5031    8877.9436    10602.723    403.38875    1104.3866    457.74418   -6325.4493 
 3047000    255.00977   -9199.5878   -8227.3743   -9199.5878            0    9017.6434    24.886752    24.768044    23.089488    14232.272    8391.6012    10476.614    8184.7146    517.74846   -965.29951   -196.94239   -6355.6443 
 3048000    248.19615   -9175.7148   -8229.4779   -9175.7148            0    7586.2771    24.994225    24.971155    22.952061    14325.177    6485.3614    8674.1043    7599.3656    217.94057   -134.58815    396.94745    -6644.568 
 3049000    247.53978   -9141.8005   -8198.0659   -9141.8005            0    5994.6773    25.064595     25.07149    23.010293    14459.823    4710.1207    6420.7784    6853.1329    262.23769   -480.08647   -197.99558   -6933.8983 
 3050000    249.32437    -9125.451   -8174.9127    -9125.451            0    8339.7005    24.950629    24.951124    23.007334    14323.129    7883.5611     7836.312    9299.2283    2.5784384   -125.67242    322.48537   -6432.8481 
 3051000      245.065    -9140.443   -8206.1434    -9140.443            0    8251.4374    24.884058    24.873664    23.154694    14331.776    8826.5473    8485.7618    7442.0031   -487.54983   -885.55345   -275.37359   -6481.4754 
 3052000    247.55594   -9168.3887   -8224.5926   -9168.3887            0    8489.7836    24.930292    25.018717    22.905292    14286.579    8411.1938    8282.1013    8776.0556   -2.2707275   -420.45564    229.95856   -6455.7029 
 3053000    248.64812    -9170.448    -8222.488    -9170.448            0    8088.2362    24.960923    25.036778    22.907599    14315.899    7754.4294    8127.0719    8383.2073    664.67972   -914.14776   -967.49749   -6533.8041 
 3054000    247.30104   -9147.7922   -8204.9678   -9147.7922            0    5878.3315    25.054861    24.998198    23.096035    14465.656    4627.4525    7425.1084    5582.4335    433.82253   -21.734556   -609.95146   -6964.8353 
 3055000    256.82923   -9165.0604   -8185.9103   -9165.0604            0     7310.137    25.040077    24.951837    22.974601    14354.437    6376.1634    8766.3932    6787.8544    -257.5563   -269.32429   -693.66257   -6655.5715 
 3056000    246.51514   -9109.1225   -8169.2943   -9109.1225            0    9205.0784    25.033851    24.877762    22.976882    14309.685     9962.129    8567.2325    9085.8736   -263.57382    -501.0288    567.52589   -6248.2674 
 3057000    248.73324   -9158.8161   -8210.5316   -9158.8161            0    8585.3802    25.088658    24.851913    22.922478    14292.192    7692.9066    8931.9418    9131.2923    358.82321    352.25554   -141.72196   -6421.0211 
 3058000    240.77382   -9145.9667   -8228.0271   -9145.9667            0    8078.1553    24.855013    24.963464    23.095669    14330.106    9383.6915    7577.5822    7273.1921    315.24471   -68.151868    336.31768   -6539.7742 
 3059000    247.78464   -9160.0388   -8215.3708   -9160.0388            0    8227.6362    24.838901    24.958892    23.044934     14286.74    7907.1678    8470.8381    8304.9026     75.41828   -53.285464    361.76024   -6501.0814 
 3060000    249.16842   -9203.8472   -8253.9036   -9203.8472            0    9719.6451    25.000645    25.024881    22.773213    14247.792    9386.3243    8394.7616    11377.849    22.844225    793.73331    985.22377   -6234.2641 
 3061000    246.69815   -9172.5596   -8232.0337   -9172.5596            0    7697.6759    24.942562    24.953498    23.007967    14320.255    5838.0419    9059.6052    8195.3807   -531.00255   -114.43736   -146.13264   -6624.4031 
 3062000    249.95533   -9160.2962   -8207.3525   -9160.2962            0    8325.8667      24.8557    24.835679     23.14819    14289.567    8783.8402    8859.8924    7333.8675   -695.89142   -503.64388   -216.66442   -6472.2528 
 3063000    251.06434   -9117.7114   -8160.5396   -9117.7114            0    9430.1394     24.99613    24.973131    22.886544    14286.505    9787.3388     8899.675    9603.4043   -1032.6982   -708.45429   -833.99122   -6195.7322 
 3064000    265.47335   -9214.2698   -8202.1644   -9214.2698            0    9155.1315    24.901415    24.943006    22.969038     14266.44    8868.2765    9513.9232    9083.1948    70.163797    146.02246    300.40424   -6297.3349 
 3065000    244.00596   -9195.6347   -8265.3727   -9195.6347            0    7265.8726    24.996859    24.866153    23.079008    14345.351    6860.3289    8194.9124    6742.3765   -314.60507   -9.7115525    132.33658   -6745.2633 
 3066000    254.39216   -9117.5809    -8147.722   -9117.5809            0    8085.5283    25.100405    24.933604    22.923213    14346.345    6698.3708    9051.9075    8506.3066    112.91866   -1241.1251      456.761   -6456.0134 
 3067000    249.55685   -9204.7066   -8253.2821   -9204.7066            0    7953.5496    25.045694    24.923447    22.894134    14291.091     6489.791    9094.6829    8276.1749    1033.9468   -813.24968    670.48727   -6595.5961 
 3068000    239.36028   -9151.0073   -8238.4568   -9151.0073            0    9481.5355    24.954432    24.867663    22.978394    14259.436    9389.9613    9874.8553      9179.79    125.51637   -446.81201    295.87108   -6266.6838 
 3069000    251.20205   -9213.1442   -8255.4474   -9213.1442            0    7928.1668    24.910846    24.868638    23.104168    14313.004    7573.4846    8870.4119     7340.604   -160.63042    290.72472    448.20532    -6600.518 
 3070000    242.73122   -9166.8712   -8241.4691   -9166.8712            0    8440.3416    24.916319    25.002116    22.957117    14301.382    9158.0648    6806.4409    9356.5191    274.98574    -625.6043   -675.77989   -6481.0588 
 3071000    248.62281   -9148.1343   -8200.2708   -9148.1343            0    8906.8039    24.884955    25.066547    22.901176    14285.293    9421.1684    8310.0365    8989.2069    -294.3647    1220.6941    185.77953   -6344.6597 
 3072000    247.01261   -9112.2023   -8170.4776   -9112.2023            0    10025.177    24.767382    24.926536    23.094982    14258.035      10313.1    9475.1662    10287.264    833.47172    -362.3793    577.71239   -6085.8543 
 3073000    242.24601   -9203.5769   -8280.0247   -9203.5769            0     8750.544    24.776195    25.067142    22.903571    14224.684    9246.3055    7583.4909    9421.8356    74.198638    2123.2493    110.15789   -6464.7031 
 3074000    258.90535   -9181.2447   -8194.1795   -9181.2447            0    8712.7654    24.908426    24.978529    22.970468     14291.67     8471.445    8734.5832    8932.2681   -89.725177   -252.25156    36.590471   -6378.1835 
 3075000    252.69053   -9128.2002   -8164.8286   -9128.2002            0    10541.568    24.839703    24.963105    22.939141    14224.014    10072.379    10420.095    11132.232     -8.54918     38.94777   -654.68008   -5978.0578 
 3076000    250.56414   -9162.4786   -8207.2138   -9162.4786            0     9491.889    24.869439    24.910257    22.997081    14246.787    10188.471    9292.4934    8994.7027    224.18997   -1630.2678   -424.40797   -6235.0387 
 3077000    242.11885   -9184.2666   -8261.1991   -9184.2666            0    9209.1516    24.917039    24.990485    22.888475    14252.399    9744.0657    8723.1228    9160.2661    44.869934    425.20355    203.21071    -6347.016 
 3078000    251.24744   -9139.5685   -8181.6986   -9139.5685            0    6780.5752    25.046192    24.956284    23.039767    14401.234    6617.5912    7092.2471    6631.8874   -725.08507    194.97682    412.88058   -6757.5932 
 3079000    247.99076   -9174.4713   -8229.0174   -9174.4713            0    8093.1822    24.941723    24.878097    23.055428    14305.953    7748.2578    8702.8658    7828.4231    306.89248    1493.2377    656.32258   -6540.4748 
 3080000    245.85201    -9147.743    -8210.443    -9147.743            0     7624.788    25.132656    24.878459    22.975099    14365.451    6761.8885    8058.6278    8053.8478   -401.74954    427.67184   -428.24136    -6613.009 
 3081000    256.10084    -9148.844   -8172.4708    -9148.844            0    8955.2218    25.048682    24.922086    22.900772     14296.16    7779.3994    9095.6269    9990.6391    219.37485   -180.70315   -545.59484   -6305.3534 
 3082000     243.8618   -9146.0694    -8216.357   -9146.0694            0    8968.8713    24.991462    24.843194    23.040745    14305.256    9091.6395    8753.0533    9061.9212   -1039.1574   -1548.2766    53.942023   -6345.2039 
 3083000    244.63902   -9187.1025    -8254.427   -9187.1025            0         8212    24.969066    24.754035    23.082408    14266.893    6993.3157    10401.904    7240.7804   -433.25703    175.36808   -1731.3262   -6545.7726 
 3084000    251.69866   -9128.1032   -8168.5132   -9128.1032            0    8207.7957    25.018697     24.92146    22.985916    14331.775    8350.2715    8251.9105    8021.2049    6.9788729   -304.60244   -96.919794    -6452.967 
 3085000    248.69637    -9169.465    -8221.321    -9169.465            0    9211.4259    25.068324    24.835106    22.889328    14250.312    7735.2114    9452.1589    10446.907    417.50311   -608.19154    494.51756   -6306.9456 
 3086000    248.25717   -9149.9295   -8203.4599   -9149.9295            0    8596.7468    24.900136     24.90395     23.07757    14310.673    9524.2521    9269.4811    6996.5073    807.36439    445.03688   -395.72716   -6409.2631 
 3087000    249.39203   -9153.0355   -8202.2393   -9153.0355            0    10250.774    24.803733    24.790929    23.122156    14217.989    10764.398    11845.068    8142.8553    -51.06233    619.04502   -766.81605   -6076.6923 
 3088000    256.83982   -9152.2169   -8173.0264   -9152.2169            0    9254.3023    24.915716    24.967539    22.954757    14279.789    9497.8937    8921.2254    9343.7878   -94.938627    88.518934    914.03822   -6245.7617 
 3089000    244.77371   -9209.8412   -8276.6522   -9209.8412            0    8283.1239    24.941046    24.987808    22.902088    14273.087    7995.0371     7264.842    9589.4925   -660.91579   -179.14161    476.79393    -6552.451 
 3090000    251.99249    -9161.902   -8201.1917    -9161.902            0    8720.9175     24.77952    24.990497     23.09136    14299.383    10102.494    7783.2417    8277.0167   -551.57763   -528.34735    410.22561   -6382.5156 
 3091000    236.71151   -9155.9583   -8253.5061   -9155.9583            0    8886.0575    24.877942    25.027813    22.962766    14297.548    9515.1126     8339.083    8803.9769    109.71071    155.58195    741.70154   -6400.6292 
 3092000      254.603   -9181.3602   -8210.6974   -9181.3602            0    7821.0133    24.865509     25.10985    22.937231    14321.301    9051.7786     5677.629    8733.6324    98.010654    718.09687   -136.81589    -6577.189 
 3093000    255.98377   -9181.4485   -8205.5217   -9181.4485            0    7837.1514    24.733893    25.102496    23.097859    14341.055    9154.8324    7160.1735    7196.4483   -509.11231   -318.83856   -340.74961   -6566.3847 
 3094000    249.83061   -9168.7906   -8216.3224   -9168.7906            0     9466.228    24.869979    25.089013    22.881409    14277.158    10146.273    7837.8386    10414.572    364.20743    859.16705   -1307.0736   -6245.2861 
 3095000    242.44821   -9198.2133   -8273.8901   -9198.2133            0     8801.714    24.778404     25.04697    22.959384    14249.143    9223.2482    7893.5137    9288.3802   -1131.6584   -616.71551   -97.195889   -6444.8135 
 3096000     248.5399   -9165.1758   -8217.6284   -9165.1758            0    7555.8352    24.747545    24.910138    23.300897    14364.182    9185.4656    8419.7448    5062.2951    152.99517    627.59426    64.619044   -6634.7802 
 3097000    251.70574   -9160.8968   -8201.2797   -9160.8968            0    7626.8866    24.928273    25.053773    23.019601     14376.83    8273.2175    7126.0437    7481.3987    59.324496    395.43391    1338.9762   -6602.1404 
 3098000    243.23617   -9204.8249   -8277.4977   -9204.8249            0     7162.832    25.003713    25.020652    22.933495    14347.406     7769.064    7141.3489    6578.0831    33.004612   -434.36072   -136.85023    -6778.731 
 3099000    247.73515    -9136.001   -8191.5216    -9136.001            0    8095.3513    24.931681    24.962516    23.044361    14341.831    7620.2088    8521.0368    8144.8082    4.8384664    123.42908    -124.7705   -6498.2907 
 3100000    244.59945   -9186.2312   -8253.7065   -9186.2312            0    8369.3417    24.930162     24.90436    23.030738    14299.088    8786.6984    8189.7351    8131.5916   -930.31013   -918.65255   -443.71726   -6508.3847 
 3101000     249.2003   -9174.4545   -8224.3893   -9174.4545            0    9829.9101    24.971736    24.871375    22.895856    14220.191    7554.2692    11184.257    10751.204   -361.45075    298.29479    473.17133   -6185.7948 
 3102000    250.54171   -9138.0517   -8182.8725   -9138.0517            0    8215.1929    25.033186    24.904106    22.965998    14317.672    8408.5009    8366.3838    7870.6938    178.92358   -788.53752    494.38778   -6467.4699 
 3103000    256.03134   -9182.1686   -8206.0603   -9182.1686            0    7841.3377    25.068875    24.896682    22.918533    14304.185    6790.6616    8546.2435    8187.1079    917.38458    -275.4998   -815.73545   -6570.2642 
 3104000    246.78715   -9163.3757   -8222.5106   -9163.3757            0    7179.6313    25.052955    25.063724    22.925909    14395.645    6384.8839    6605.4003    8548.6095   -93.910407   -707.89981   -555.59443   -6715.1778 
 3105000    250.85651   -9153.1623   -8196.7828   -9153.1623            0    7320.4376     24.99062    24.907509    23.066643    14357.926    7202.6421    8021.9937     6736.677    -469.3373    483.04654   -725.22527   -6663.9152 
 3106000    251.64786   -9201.5183   -8242.1219   -9201.5183            0    8007.2314    24.924702    24.831778    23.061496    14273.329    7892.7661    8204.9295    7923.9984    276.23486   -364.38345    1089.8691   -6575.3217 
 3107000    255.01519   -9195.3427   -8223.1085   -9195.3427            0    8681.3349    24.910289    24.962308    22.961443    14277.845    8971.5332    8316.9404    8755.5312    629.42964    887.17768    239.31993   -6415.4139 
 3108000    257.45262   -9193.4877   -8211.9609   -9193.4877            0    8485.6165    25.019355     24.93581    22.873767    14270.438    8353.4556    8394.7051    8708.6889    1220.6778    548.92235    207.12578    -6445.937 
 3109000    249.99718   -9180.9235   -8227.8203   -9180.9235            0    8105.6096    25.127485    24.840737    22.966568    14335.393    7209.7174    8639.0204    8468.0909    429.68987   -807.03783    1189.8069   -6533.2048 
 3110000    245.57323   -9169.3098   -8233.0727   -9169.3098            0    8059.0818    25.039504    24.814721    23.008619    14296.366    9126.6883    7793.2596    7257.2974   -51.745112   -225.02025     984.1663   -6552.7716 
 3111000    252.95525   -9174.4702   -8210.0894   -9174.4702            0    7905.7884    25.093665    24.877177    22.923693    14310.334    6503.9931    9066.8442    8146.5277   -1215.5182   -403.86821   -1144.6181   -6560.1391 
 3112000    244.58931   -9132.8557   -8200.3697   -9132.8557            0    7498.7903    25.153062    24.835542    22.990508    14361.939    5709.6516    9119.7077    7667.0117   -1313.5529   -234.33276   -511.72395   -6629.7169 
 3113000    247.71233    -9154.817   -8210.4246    -9154.817            0    8295.9214    25.003419    24.949831    22.955377    14320.278    7035.4701    8713.4163    9138.8777   -686.68793    1447.3088   -998.05332   -6477.8499 
 3114000    259.28878   -9143.2026   -8154.6755   -9143.2026            0    8058.8514    24.919378    24.906379    23.126089    14353.241    7397.8654    9368.7051    7409.9836    713.64427     92.36665    1820.1243    -6467.738 
 3115000    257.47542   -9145.7762   -8164.1625   -9145.7762            0    9425.2492     24.86825    24.881594    23.081989     14282.25    8730.9166    10202.142    9342.6891    573.13244   -155.39165    494.65159   -6200.9587 
 3116000    241.78748   -9158.5503   -8236.7462   -9158.5503            0    9470.3672    24.920213    24.942513    22.887162    14226.036    8824.6724    10331.392     9255.037    896.65044   -271.78399   -584.79143   -6271.9087 
 3117000    245.25716   -9205.6468   -8270.6146   -9205.6468            0    8709.3124    24.920955    24.913342    22.968005    14260.014    7932.5677    9720.6638    8474.7058   -312.55854   -289.09464    200.37659   -6459.3591 
 3118000    240.97928   -9203.5726   -8284.8497   -9203.5726            0    7894.9723    24.922091    24.964991    23.021564    14323.552    7431.6051    7695.7763    8557.5355   -589.27867    1235.8332   -484.24293   -6635.6349 
 3119000     245.0178   -9148.3529   -8214.2333   -9148.3529            0    8671.4981    24.899322    24.994953    22.954552    14285.935    7969.0128    8695.6413    9349.8402   -898.47582   -1219.4111    1455.7703   -6407.5639 
 3120000    242.81622   -9159.6481   -8233.9219   -9159.6481            0    8247.5154    24.987376     24.99581    22.885969    14294.112    7794.3997    8845.3891    8102.7574    163.02046   -703.25659    238.04806   -6514.6039 
 3121000    250.44889   -9187.4058   -8232.5804   -9187.4058            0    7500.2899    25.006224    24.874699    23.022223    14320.336    7783.5179     7589.272    7128.0799   -203.25842    235.65576   -2166.2048   -6666.1642 
 3122000    251.03627   -9149.7229   -8192.6581   -9149.7229            0    7297.4484    25.063915    24.940014    22.996633    14375.066    6803.7742    7406.7274    7681.8435   -379.87707   -707.18429   -813.54922   -6662.7802 
 3123000     251.9641   -9207.6082   -8247.0061   -9207.6082            0    6867.9023    24.992504    24.985906    22.988038    14355.119    5008.0951     7782.011    7813.6008    246.63583   -307.26675    -961.2403   -6809.1786 
 3124000    255.31013   -9158.1527   -8184.7941   -9158.1527            0    8464.9848    25.000979    24.838317    23.066098    14323.637    8358.3432    9421.8837    7614.7274   -100.89052     710.5151   -445.84197   -6416.4964 
 3125000    252.61499   -9134.2949   -8171.2114   -9134.2949            0    8110.1882    24.937217     24.85842    23.114567    14328.716     7699.543    9076.2091    7554.8127   -73.501915   -589.63315   -1198.5035   -6476.4284 
 3126000    245.61615   -9159.0597    -8222.659   -9159.0597            0    8163.6919    24.944616    25.027641    22.956183    14331.658    7821.6867    7498.5842    9170.8047   -160.69641   -1364.1525    81.182377   -6516.3451 
 3127000    246.54778   -9135.2906    -8195.338   -9135.2906            0     9454.221    24.954703    24.982494    22.889711    14270.149    9254.3923     8942.909    10165.362    420.88117    17.421552   -230.72619   -6227.7683 
 3128000    244.01461   -9173.9365   -8243.6415   -9173.9365            0    7847.0514    25.068986    25.005707    22.868691    14335.645     6103.042    8576.5582    8861.5541   -1078.8248   -607.37652   -951.09026   -6603.0532 
 3129000    245.62652   -9139.5324   -8203.0921   -9139.5324            0    8567.8851    24.944733    24.927864    23.053858    14335.324    7198.0935    10676.987    7828.5752    283.26868    -1112.608    227.03368   -6411.8386 
 3130000    245.16655   -9199.8277    -8265.141   -9199.8277            0    8130.0628     24.93991    24.844288    23.086268    14304.582    8154.2093    8403.9401    7832.0388   -680.90958   -345.65455    438.85343   -6569.0663 
 3131000    252.41072   -9215.2157   -8252.9109   -9215.2157            0    8534.9988    24.907147    24.966988    22.927113    14257.373    8265.3256    9345.2373    7994.4334   -430.10185   -180.22903   -22.088213   -6478.2357 
 3132000    244.31616   -9155.0254   -8223.5808   -9155.0254            0    6287.0837    24.939737    25.112072     23.04101    14430.319     7144.891     5929.874    5786.4863     746.5527   -1019.6269   -966.93634   -6900.4552 
 3133000    241.96071   -9150.2398   -8227.7752   -9150.2398            0    7562.5936     24.95978    24.976353    22.996178    14335.916    8406.5169    6967.2488     7314.015    102.80524    704.42801   -413.76393   -6646.6288 
 3134000    246.69669    -9193.188   -8252.6677    -9193.188            0    7459.9565    25.039378     24.99309    22.900825    14331.598    6843.3765     7711.251    7825.2419   -574.00913    162.53738    784.95564   -6693.4499 
 3135000    241.58998   -9193.9226   -8272.8715   -9193.9226            0    9109.1433     24.88732    24.887145    23.011047    14252.452    8826.1056    9637.7564    8863.5679    37.661178    370.28307   -201.03359   -6379.4687 
 3136000    240.42803    -9134.964   -8218.3427    -9134.964            0     8154.143    24.782356    25.054417    23.116922     14353.47    9596.4971    7868.5105    6997.4214    220.62871   -993.82527    221.97465   -6511.4308 
 3137000    241.26547   -9166.5333   -8246.7193   -9166.5333            0    7206.2771    24.970765    25.058124    22.920374    14341.748    7713.1226    6776.6797    7129.0289    224.19378   -64.953627    59.061121   -6739.4566 
 3138000     246.4817   -9145.8016   -8206.1009   -9145.8016            0    8796.7404     24.95902    25.049189    22.861661    14293.184    10454.435    7057.2378    8878.5482   -356.90378    -360.2077    572.11581   -6372.4078 
 3139000    245.65273   -9192.6229   -8256.0827   -9192.6229            0    8451.7537    24.894103    24.878759    23.076092    14291.818    9138.3982    9146.4813    7070.3816   -177.84758   -563.95458    1496.7463    -6494.471 
 3140000    247.53481    -9151.374   -8207.6584    -9151.374            0    8414.6119    24.894729    24.882664    23.081795    14297.952    8751.8525    8880.8576    7611.1257     1247.834    858.18622    -40.81772   -6453.0354 
 3141000    242.69196   -9168.8107   -8243.5583   -9168.8107            0    9073.9521    25.004743    24.963203    22.880342    14281.874    9062.1121     8319.163    9840.5812   -292.36018   -568.24661    169.28209   -6353.5768 
 3142000    243.43538   -9182.8067     -8254.72   -9182.8067            0    8595.1381    25.007544     24.96837    22.911121    14305.649    7141.4528    8814.0599    9829.9018    590.55489    398.20752    652.00279   -6461.4886 
 3143000    246.02352   -9149.4665   -8211.5126   -9149.4665            0    8135.2649    25.023358    24.997847    22.881337    14312.964    7728.0107    7454.5966    9223.1875    166.90932    -581.4307    971.60172   -6513.3582 
 3144000    246.99495   -9160.3004    -8218.643   -9160.3004            0    8127.4354    24.851318     24.94242    23.090315    14312.578     8443.141    8387.3188    7551.8463    1279.8835   -80.506533    491.83693   -6522.1686 
 3145000    252.56782    -9131.279   -8168.3753    -9131.279            0    8095.9732    24.898216    25.014493    23.007194    14329.254    8058.8679    9197.1285    7031.9231   -707.53976   -330.43871   -293.93568   -6476.4993 
 3146000    244.62774   -9166.1812   -8233.5487   -9166.1812            0    7689.0495    24.895757    25.143436    22.936102    14357.194    8014.0115    7165.9451    7887.1919    775.95002    656.13937    454.26732   -6623.5775 
 3147000    247.59618   -9162.7529   -8218.8034   -9162.7529            0    9777.2976    24.667459    25.088279    23.033679    14254.717    11726.642     8061.881    9543.3702   -555.98816    587.22282   -324.51429   -6186.1968 
 3148000    242.54574   -9185.2734   -8260.5784   -9185.2734            0    8759.8551    24.880343    24.909341    23.044126    14281.665    8581.4836    8978.7708     8719.311    1066.7281    164.70536   -162.63121   -6436.0457 
 3149000    245.43604   -9154.2116   -8218.4975   -9154.2116            0    8707.2808    24.919635    25.018247    22.949819    14307.963     8740.586    9095.8536    8285.4027    908.02088    727.37829    1003.1634   -6401.5756 
 3150000    249.88285   -9194.5865   -8241.9191   -9194.5865            0    7706.5384    24.968045    24.990644    22.923084     14303.26    8082.7302    6189.7586    8847.1265   -557.71479    -984.4184   -41.227062   -6634.3477 
 3151000    243.78399   -9133.8613   -8204.4456   -9133.8613            0    8995.5202    24.993705    24.956609    22.881533    14272.542    8522.5705    9885.1384    8578.8519    476.25327    454.03869    731.30099   -6332.0246 
 3152000    243.49153   -9169.3107     -8241.01   -9169.3107            0    8651.4793    24.865219    24.923725    23.045277    14281.939    10169.598    8627.6462    7157.1938   -590.31155   -666.64891    301.30954   -6439.0156 
 3153000    246.95516   -9159.8741   -8218.3684   -9159.8741            0    6315.3222    25.060261    25.049848    22.971866     14420.72    6190.7856    7007.3665    5747.8144   -169.97085    395.07757   -445.01646    -6890.184 
 3154000    243.74594   -9187.7686   -8258.4979   -9187.7686            0    7577.1307    25.093492    24.932873     22.91706    14338.124    6627.0057    7985.8939    8118.4925    166.19349   -792.69124   -4.3502887   -6674.0682 
 3155000    247.31136   -9167.7627    -8224.899   -9167.7627            0    8248.9868    24.992512    24.923321    22.977905    14312.854      8406.12     7488.134    8852.7064    80.305854   -116.83441   -805.90686   -6503.0195 
 3156000    242.11495   -9228.9161   -8305.8635   -9228.9161            0    8768.5211    24.975186    24.791364    22.988698    14233.887    9740.5556    8456.2814    8108.7262   -921.58814   -924.08159   -599.33557   -6485.6356 
 3157000     248.3183   -9158.6114   -8211.9088   -9158.6114            0     9754.319    24.999029    24.762125     22.99273    14233.168    8853.7895    12269.006    8140.1615   -475.39053    477.39572    109.43812   -6187.1448 
 3158000    250.72649   -9170.7475   -8214.8638   -9170.7475            0    8915.4758    24.937533    24.901444    23.019448     14294.63     8303.864    8870.6029    9571.9607    419.57256    460.06046    333.34689   -6356.2321 
 3159000    251.83308   -9148.5511   -8188.4486   -9148.5511            0    8935.5231    24.997871    24.878637    22.985686    14295.096      7243.34    9654.4453    9908.7841   -270.04699    732.62601     1312.693   -6325.5769 
 3160000    250.09774   -9175.8105   -8222.3238   -9175.8105            0    8898.8984    24.987777    24.967173    22.884759    14277.209    8796.3279    8245.4279    9654.9394   -19.956918   -20.648758   -101.89044    -6369.409 
 3161000    245.78583   -9200.2366    -8263.189   -9200.2366            0    9259.8312    24.898323     24.86486    22.974536    14223.382    9206.4148    9759.9888    8813.0899    76.812737    675.00796    174.33413   -6342.3903 
 3162000    254.45828   -9199.5434   -8229.4323   -9199.5434            0     8364.483     24.96555    24.874575    23.055006     14317.33    7675.9385    9846.6666    7570.8437   -1113.6753    632.54831   -248.13276   -6482.8984 
 3163000      247.575   -9152.3613   -8208.4925   -9152.3613            0    7981.4722    25.010892    24.826596    23.097189    14341.861    8453.8066    8125.3373    7365.2727   -660.38845    1015.4273    19.352624   -6539.0772 
 3164000     240.6377   -9159.2501   -8241.8295   -9159.2501            0    8561.4564    25.028251    24.917376    22.913096    14289.485    6979.8319    9848.2964    8856.2407   -153.08876   -517.22578    -988.2905   -6457.6435 
 3165000    248.13344   -9160.5575   -8214.5597   -9160.5575            0    10045.972    25.019363    24.770608    22.955188    14226.359    8266.2617    10684.746    11186.909   -25.944387   -376.73522    10.557266    -6130.253 
 3166000    242.16606   -9107.6851   -8184.4376   -9107.6851            0    8710.7183    25.015686     24.89567    22.991711     14318.83    8688.0724    8922.7075    8521.3749    441.85413    209.21849    183.40574   -6365.4179 
 3167000    238.74746   -9189.6731   -8279.4589   -9189.6731            0    7992.6493    24.982089    24.932649    23.008824    14331.498    7880.8959    7740.9596    8356.0924   -886.47742   -1368.5953    738.53282   -6608.9136 
 3168000    253.69065   -9139.3503   -8172.1659   -9139.3503            0    7128.8377    24.991597    24.934051    23.090707    14388.784    7775.7451    6810.4294    6800.3387   -34.656694   -217.86366    629.76357   -6676.2102 
 3169000    242.48985   -9140.7529    -8216.271   -9140.7529            0    8183.6757     25.01357    24.983607    22.927658    14328.163    8179.8163    7858.5466    8512.6643   -461.79326    61.384858    196.05563   -6506.1974 
 3170000    246.93956   -9155.5759   -8214.1297   -9155.5759            0    9460.5451    24.887957    24.910573    23.032638     14279.62    8954.1811    10005.081    9422.3729    265.66084   -135.12615   -584.43819    -6243.937 
 3171000    247.05295   -9158.3787   -8216.5002   -9158.3787            0    9953.7706    24.675904    24.990868    23.077902    14231.502    11342.434    9263.8874    9254.9909   -71.454876    950.76701   -116.71246   -6150.5766 
 3172000    248.90207   -9171.1609   -8222.2327   -9171.1609            0    9228.9442    24.831796    25.000793    22.954845    14250.703    8718.9996    9580.4503    9387.3828    191.79588    7.3388241   -46.868003   -6304.1639 
 3173000    249.15259   -9170.9109   -8221.0276   -9170.9109            0    8981.2655    24.850996    24.957546    23.017687    14276.027     9679.616    8973.3747    8290.8057    90.873172   -975.05064   -1048.4225   -6351.1172 
 3174000    245.58973   -9174.2462   -8237.9462   -9174.2462            0    8953.2056    24.758138    25.006533    23.042557    14265.997    10622.998    7876.5323     8360.087   -939.45566    101.67643    683.51563   -6375.1876 
 3175000    248.84517   -9174.0933   -8225.3821   -9174.0933            0    8371.9587    25.004482     25.03734    22.826542    14290.459    7836.7617    8501.2531    8777.8613   -556.74052   -458.04974    -223.4843    -6480.568 
 3176000    245.99804   -9182.7669   -8244.9102   -9182.7669            0    9014.3464    25.004157    24.916024    22.882115    14255.653    8615.6731    9112.5741    9314.7919   -444.13997   -1504.7687    18.802335   -6370.7908 
 3177000    249.98476   -9164.4447   -8211.3888   -9164.4447            0    7996.6019    24.978912    24.887867    23.061574    14336.731    6950.3186    9688.7679    7350.7191    278.67101   -451.93292    -47.88888   -6539.4072 
 3178000    247.12144    -9165.376   -8223.2364    -9165.376            0    6634.0562    25.214011     24.97224    22.846799    14385.495    5557.9465    6322.8002     8021.422   -158.11193    381.14028    757.72646   -6831.4268 
 3179000     242.1011   -9153.0205   -8230.0207   -9153.0205            0    7994.2708    24.993027    24.914035    23.008499    14326.866    7618.7947     8729.403    7634.6146   -334.81052   -629.64515   -282.89621   -6559.6766 
 3180000    246.61544    -9183.158   -8242.9475    -9183.158            0    8764.8858    24.916143    24.853399    23.103386    14306.792    9946.3156    7852.9294    8495.4124   -577.39542     1191.456    548.74569   -6414.1551 
 3181000    248.36678   -9163.2403   -8216.3528   -9163.2403            0    10148.997    25.013192    24.877955    22.852451    14220.556    9266.6892    10440.374    10739.929   -720.68494   -567.64947    1046.2343   -6111.5297 
 3182000    246.65677   -9127.9154   -8187.5473   -9127.9154            0    8549.3884    25.012933    24.998955    22.897139    14317.516    8229.9586         7698    9720.2065    -905.0977   -113.37755    971.58887   -6402.3812 
 3183000    249.35277    -9173.223   -8222.5765    -9173.223            0    8534.2001    24.890594    24.834086    23.120048    14291.314    8594.1811    9192.3986    7816.0205     1074.695   -1.1198641    261.40412   -6443.8431 
 3184000     246.4176   -9148.6574   -8209.2012   -9148.6574            0    9637.5443    24.906873    24.906985    22.986986    14260.095    8630.1592    9997.5658    10284.908   -315.38707   -249.19347    108.54527   -6204.8921 
 3185000    254.82156   -9138.3163   -8166.8203   -9138.3163            0     9578.053    24.884641    25.003876    22.908436    14253.915    10146.379    9238.9399    9348.8401   -466.19996    347.21149   -655.07984   -6175.7467 
 3186000    249.65579   -9143.9671   -8192.1653   -9143.9671            0    7844.5819    25.050925    25.003734    22.961623    14382.396    6706.4414    9500.2736    7327.0308   -1270.3012     448.9399    367.86225   -6546.7448 
 3187000    246.83955   -9218.6058   -8277.5408   -9218.6058            0    6865.3742    24.934328     24.92842    23.117385    14369.151    7183.2961    7670.7069    5742.1194   -493.19282   -1465.9021   -628.81688   -6838.8376 
 3188000    256.56314   -9164.4911   -8186.3554   -9164.4911            0       7168.7    25.015915    24.905219    23.078719    14378.662    6064.1927    8071.6411    7370.2663    21.796819   -259.84667    861.95239   -6683.0931 
 3189000    241.63349   -9189.1796   -8267.9626   -9189.1796            0    8735.9781    24.975322     24.85842    22.983619    14269.312    8028.9781    9418.4204     8760.536   -152.88078    2177.5769    810.30662   -6449.9769 
 3190000    250.63358   -9124.0929   -8168.5634   -9124.0929            0    8570.9648    24.956839    24.931398    23.017272    14321.552    7764.8918    9455.6717     8492.331   -43.775129    56.193049    1094.5463   -6378.3877 
 3191000    251.80584   -9169.4893   -8209.4906   -9169.4893            0    7662.8971    24.926183    24.945991    23.037622    14324.986     7206.891    7683.8882    8097.9121    217.44508   -1101.9635    788.37349   -6608.5947 
 3192000    252.65231   -9154.8781   -8191.6523   -9154.8781            0    8903.9947    24.911079    24.997072    22.934419    14281.355    9144.7396    7876.6049    9690.6395    145.58241   -962.26763    -116.1646   -6337.1379 
 3193000    245.52112   -9164.3844   -8228.3459   -9164.3844            0    8169.4386    24.889799    25.057959    22.938103     14306.21    8950.2128    7574.5281     7983.575    438.14246   -596.85611    129.60491   -6523.8628 
 3194000    246.16974     -9167.78   -8229.2686     -9167.78            0    8287.3121     24.80808     25.02253     23.05983    14314.641     9935.659    7094.4236    7831.8536   -448.04038    203.65245   -583.81265   -6499.1733 
 3195000    251.57275   -9176.7799   -8217.6698   -9176.7799            0    8051.2736      24.8749    25.031283    22.991696    14315.795    9048.9074    6812.7681    8292.1453   -518.84934   -517.54266   -316.21342   -6536.7154 
 3196000    262.13592   -9193.1866   -8193.8049   -9193.1866            0     8036.189    24.880332    24.974742    23.045436     14319.97    8900.5187     7999.764    7208.2843   -452.07325    50.901907   -44.623008   -6515.5105 
 3197000    241.34143   -9134.8551   -8214.7515   -9134.8551            0    8484.7056     24.98957    24.943353    22.942333      14300.5      8037.01    8396.5228     9020.584   -552.75865    507.53859   -778.96124   -6445.1973 
 3198000    251.34112   -9141.9333   -8183.7063   -9141.9333            0    9835.0976    24.994767    24.850273    22.898054    14222.595    9664.3086    10876.904    8964.0802    359.58241    250.53839    901.35959   -6143.6911 
 3199000    247.37578   -9114.0137   -8170.9044   -9114.0137            0    10693.898    24.897299    24.848281    22.983371    14218.779    9007.9333    12052.138    11021.621    830.82513   -502.01274   -468.54769   -5953.3504 
 3200000    245.01078   -9150.7581   -8216.6652   -9150.7581            0     8800.926    24.871002     24.95388    23.023572    14289.074    8866.8025    9633.5571    7902.4184    7.7360615    87.137827    592.09722   -6382.6272 
 3201000    250.02473   -9146.8819   -8193.6736   -9146.8819            0    9170.9335    24.947257    24.802381    23.072555    14276.175    8351.8058    10768.118    8392.8769    921.79362    100.87683    780.24052   -6284.2544 
 3202000    244.35705    -9166.721   -8235.1205    -9166.721            0    8392.7622    24.922603    24.915544    23.036943    14305.025    7208.0803    8654.0414    9316.1648   -709.17236   -569.40213     1115.996   -6484.1879 
 3203000    244.95199   -9204.6673   -8270.7986   -9204.6673            0    8254.1322    24.948406    25.075981    22.827761    14281.179    7979.5053    8220.4179    8562.4734    59.767852   -688.20544    694.93847   -6551.6581 
 3204000    251.78954   -9164.1296   -8204.1931   -9164.1296            0    7515.8727    24.991842    24.970425    22.966134    14332.174     7633.763    7594.6611    7319.1939    173.90105   -481.77027     29.62288   -6633.2249 
 3205000    246.08339   -9193.5511   -8255.3689   -9193.5511            0    6903.6326    24.977237    24.882059     23.11795    14367.461    5948.1181    8576.8333    6185.9464   -484.34289   -416.74465    612.36459   -6808.8185 
 3206000    231.72474   -9184.7597   -8301.3193   -9184.7597            0    7622.4458    25.049243    24.935487    22.947843    14333.569     6778.282    8481.6562    7607.3992    357.22304   -1206.1077   -113.29221   -6707.9202 
 3207000    254.90454   -9185.5608   -8213.7485   -9185.5608            0     8797.288    24.998855    24.958274    22.878318    14274.429    8839.3195    8413.6764     9138.868   -274.27029   -74.259811   -864.43862   -6382.3475 
 3208000    249.92799   -9171.7315   -8218.8921   -9171.7315            0    8635.9927    24.923638    24.818419     23.10576    14292.421    9140.6768    8904.9523    7862.3492   -432.66109   -563.77234   -443.04092   -6418.8031 
 3209000    247.15365   -9124.9575   -8182.6951   -9124.9575            0     8812.965    24.994989     24.82734    23.033061    14293.375    8434.1215    9924.7453    8080.0282   -260.45425    367.45023   -333.05013   -6345.5954 
 3210000    245.72545     -9147.56   -8210.7425     -9147.56            0    9764.4381    25.062235    24.906414    22.840253    14257.124    8982.0257    10021.457    10289.832   -583.54208   -87.075879   -59.909173   -6180.4666 
 3211000    254.95789   -9160.6463   -8188.6305   -9160.6463            0    8682.0248    24.945959    24.940158    23.000241    14309.742    8913.6157    7952.2214    9180.2373   -213.91771   -954.77122    405.92813   -6376.7535 
 3212000    251.39676   -9199.8674   -8241.4283   -9199.8674            0    6957.1116    25.009745    24.897485     23.06991    14365.166    5955.3382    8696.4764    6219.5201    915.56829    558.74568   -588.15505    -6783.905 
 3213000    248.30992    -9178.739   -8232.0684    -9178.739            0     7201.331    25.142336    24.992048     22.85686    14362.301    6221.3526    7430.9429    7951.6975   -27.478824   -552.73463    207.55042   -6723.6817 
 3214000    251.95087   -9155.4388   -8194.8872   -9155.4388            0    8218.0069     24.91444    24.917397    23.045799    14306.901    8320.0436    8919.8927    7414.0845    155.60009    827.96662   -879.58301   -6480.1879 
 3215000    247.32954   -9182.4691   -8239.5362   -9182.4691            0    9116.9608    24.890376    24.865234    23.050038    14265.784    8945.6684    8652.3042    9752.9097   -672.59852   -51.372301    312.76676   -6342.7357 
 3216000    244.86156    -9191.077   -8257.5531    -9191.077            0    7323.3569    25.013293    25.062505    22.859447     14330.49    6962.0948    6975.0523    8032.9235    91.787759    879.12915    701.92521   -6727.0045 
 3217000    241.57416   -9109.8755   -8188.8846   -9109.8755            0    9048.7017    24.900546     25.03587    22.958404    14312.426    8746.9935    8678.8989    9720.2126   -684.56331   -189.02362    238.42679   -6300.1306 
 3218000    252.90562   -9179.9084   -8215.7168   -9179.9084            0    8977.4712    24.821369     24.84563     23.19494    14304.378    8894.3694    10296.558     7741.486   -572.76539     915.0182    430.33741   -6342.8845 
 3219000    243.86868   -9185.9468   -8256.2082   -9185.9468            0    8307.5707    24.902819    24.927619    23.043972     14304.96     8740.816    7867.7437    8314.1525   -739.64801    1322.5517   -343.54664   -6523.0564 
 3220000     245.0055    -9162.591   -8228.5182    -9162.591            0    8230.9386    24.858819    25.076364    22.974853    14321.807    9050.9117    7642.3215    7999.5825    410.29061   -106.89185   -579.85451   -6509.3315 
 3221000    248.56267   -9163.0102   -8215.3759   -9163.0102            0    9913.9765     24.79824    25.057002     22.92994    14247.966    10925.682    8637.4038    10178.844   -392.57273   -398.09998   -296.77411   -6155.3312 
 3222000    244.44525   -9176.7436   -8244.8068   -9176.7436            0    8523.6763    24.854907    24.947652    23.017345    14272.402    9783.7238    7233.3113    8553.9937    83.868771    693.52787   -148.19133   -6470.6178 
 3223000    248.88448    -9178.754   -8229.8929    -9178.754            0     7020.913    24.875567    25.149151    22.995345    14385.874    7763.8551    5599.5887    7699.2953   -93.951336    113.30238   -176.57546   -6756.8828 
 3224000    255.83773   -9129.0428   -8153.6727   -9129.0428            0    9244.1004    24.881186    25.077642    22.906731    14292.918    10022.163    8648.0095    9062.1284    432.56044   -463.01071    1096.5854   -6226.7626 
 3225000    237.04656   -9141.5916    -8237.862   -9141.5916            0    8212.8875    24.909566    24.975192    23.019289    14320.788    9014.7025    8705.5767    6918.3832   -86.484496   -396.84056    732.25119   -6522.5676 
 3226000    245.56808   -9154.4434   -8218.2259   -9154.4434            0    8304.5496    24.832426    24.873805    23.157182    14303.657    9228.2696    8176.2839    7509.0952    433.99773    350.87723   -896.83221   -6485.8623 
 3227000     252.8807   -9164.7966   -8200.7001   -9164.7966            0     6714.414    25.052815    24.995015    23.006545    14406.595    6202.3977    7262.3667    6678.4776   -612.37966    -616.8329   -74.079124   -6789.9654 
 3228000    248.38898   -9141.4213   -8194.4492   -9141.4213            0    8108.9923    25.029988    25.008431    22.901334    14335.336    7789.0026    7543.1263    8994.8478   -170.45672    373.33821   -983.74602   -6499.1333 
 3229000    247.80139    -9172.255    -8227.523    -9172.255            0    9211.8813    24.838187    24.890427    23.049785     14250.14    9154.0023    10355.839    8125.8029   -202.81241    19.623038    1207.1382    -6313.076 
 3230000     252.7704   -9169.6821   -8206.0061   -9169.6821            0    9097.9985    24.919845    24.880405    22.979619    14247.727    9278.6521     9636.652    8378.6913   -375.72763   -989.30216    338.68832   -6315.5467 
 3231000    246.55123   -9124.9212   -8184.9555   -9124.9212            0    8060.7209    25.088188    24.990178    22.858675    14331.435    6869.9838     8769.265    8542.9139    -76.14261    -61.14844    1827.2835     -6500.19 
 3232000    245.45518   -9148.0858   -8212.2987   -9148.0858            0    8340.1941    25.045866    24.975125    22.897844    14323.143     7171.148    8918.1178    8931.3164    21.676639   -214.15754    290.50273   -6470.1294 
 3233000    254.68522   -9156.5852    -8185.609   -9156.5852            0    8164.6803    24.977117    24.879024    23.022174    14306.124    6489.3421     10224.44    7780.2584   -189.10153   -242.44448   -169.01892    -6482.129 
 3234000    253.97027   -9161.6775    -8193.427   -9161.6775            0    7209.1639    24.973995    24.995003    23.051758    14389.485    7455.5809    7468.1295    6703.7812   -93.374976   -453.82771   -99.143688   -6680.5416 
 3235000    244.94937   -9179.7402   -8245.8815   -9179.7402            0    7984.6023    24.917625    24.990431    23.003586    14324.384    7928.6294    8577.8269    7447.3505     388.4336   -220.80687   -33.463703   -6577.8466 
 3236000    255.02138    -9167.845   -8195.5872    -9167.845            0    10371.674    24.834376    24.806579    23.093765    14227.051    10968.271    10674.017    9472.7336    501.81462    -908.3307   -3.5120678   -6043.6003 
 3237000    243.13956   -9163.3467   -8236.3878   -9163.3467            0    8884.7233    24.879874     25.01169    22.934789    14272.037      10033.8    7806.0817    8814.2876    27.761432    564.33689   -99.046199   -6387.0947 
 3238000    262.21902   -9168.9878   -8169.2893   -9168.9878            0    6856.5467    24.832033    25.111299    23.069702     14385.45    8266.2139    5979.3674    6324.0589   -766.40948    346.90558   -155.81656   -6730.8061 
 3239000    242.36268   -9132.6162   -8208.6191   -9132.6162            0    8013.6852    24.975225    24.964597    22.969669    14321.506    7234.8962    9517.5255    7288.6339   -259.96593    70.105938   -16.359498    -6534.845 
 3240000    253.03667   -9140.2506   -8175.5594   -9140.2506            0    8284.1471    25.097797    24.932144    22.849722    14298.028    7509.3231    9004.5513    8338.5667    222.55507    764.49524     748.6605   -6448.1319 
 3241000    249.12004    -9143.396   -8193.6368    -9143.396            0    8311.2544     25.01386     24.88851    22.979641    14306.153    8693.2503    8405.2424    7835.2706    393.33246   -423.53292    -488.2792    -6459.572 
 3242000    254.96466   -9156.1069   -8184.0653   -9156.1069            0    8860.5995    24.980291    24.826855    23.044796    14291.969     8171.008    9876.6892    8534.1013    48.237326    157.17023   -354.68759   -6337.2176 
 3243000    246.23245   -9154.6953   -8215.9449   -9154.6953            0    9460.2416    24.941669    24.847223    23.025773     14269.79    9812.3682    9306.0861    9262.2705    73.405883    74.733052   -1126.0316   -6247.1716 
 3244000    240.07494   -9160.9292   -8245.6541   -9160.9292            0    8281.1428    25.000932    24.910566    22.969686     14305.23    8609.3402    7883.9356    8350.1525    -44.67408   -199.47541    512.73896   -6517.9832 
 3245000    245.77425   -9133.5434   -8196.5399   -9133.5434            0    9748.5486    24.903455    24.798376    23.109164    14271.416    9764.1225    10522.527    8958.9961    -69.08389   -1433.3973   -425.45123   -6167.5358 
 3246000    244.86638    -9165.046   -8231.5037    -9165.046            0    9742.5762    24.853869    24.932557    22.979709    14239.849    10099.563    9323.7348    9804.4305    -1086.505    108.16199    111.73326    -6208.228 
 3247000    257.64765   -9151.1514    -8168.881   -9151.1514            0    9120.2588     24.94716    24.984111    22.941243    14298.878    9545.0159    9267.1765    8548.5839   -129.98574   -192.07513    491.70109   -6266.9926 
 3248000    245.47302   -9198.6678   -8262.8127   -9198.6678            0    7427.2093    24.890877     24.97614    23.034288    14319.911    7129.2953    7773.6839    7378.6489   -301.73446    111.33943    285.05265   -6711.7053 
 3249000     243.5596   -9206.4273    -8277.867   -9206.4273            0    8499.2099    24.770093    25.043022    22.990889    14261.662     8903.513    8023.3924    8570.7243    406.91977   -279.44409    966.44182   -6510.1019 
 3250000    253.53514   -9147.8543   -8181.2627   -9147.8543            0    9011.7227    24.833726    25.016511    22.977786    14275.022    9888.0386    8249.3698    8897.7598    17.861825   -20.975141    413.04667   -6305.1432 
Loop time of 565.559 on 64 procs for 250000 steps with 1920 atoms

Performance: 76.385 ns/day, 0.314 hours/ns, 442.040 timesteps/s
195.5% CPU use with 32 MPI tasks x 2 OpenMP threads

MPI task timing breakdown:
Section |  min time  |  avg time  |  max time  |%varavg| %total
---------------------------------------------------------------
Pair    | 71.997     | 75.429     | 82.577     |  23.9 | 13.34
Bond    | 0.85957    | 1.0104     | 1.4902     |  12.8 |  0.18
Kspace  | 268.21     | 276.29     | 285.51     |  29.7 | 48.85
Neigh   | 4.6615     | 5.1401     | 5.7458     |  15.8 |  0.91
Comm    | 81.838     | 91.576     | 100        |  53.2 | 16.19
Output  | 0.64974    | 0.6508     | 0.65268    |   0.1 |  0.12
Modify  | 91.845     | 97.595     | 102.02     |  26.6 | 17.26
Other   |            | 17.86      |            |       |  3.16

Nlocal:        60.0000 ave          64 max          55 min
Histogram: 1 2 1 3 6 6 6 1 4 2
Nghost:        3378.09 ave        3415 max        3350 min
Histogram: 3 1 9 3 6 1 2 3 2 2
Neighs:        21282.1 ave       22711 max       19119 min
Histogram: 1 1 2 1 9 0 6 3 6 3

Total # of neighbors = 681028
Ave neighs/atom = 354.70208
Ave special neighs/atom = 2.0000000
Neighbor list builds = 9326
Dangerous builds = 0

unfix		3
unfix		2
unfix		1

write_data	data.final.${pid}
write_data	data.final.0
System init for write_data ...
PPPM initialization ...
  extracting TIP4P info from pair style
  using 12-bit tables for long-range coulomb (../kspace.cpp:340)
  G vector (1/distance) = 0.37447844
  grid = 30 30 30
  stencil order = 5
  estimated absolute RMS force accuracy = 0.0032685317
  estimated relative force accuracy = 9.8430861e-06
  using double precision FFTW3
  3d grid and FFT values/proc = 5400 960
Last active /omp style is kspace_style pppm/tip4p/omp
WARNING: Not all mixed pair coeffs generated from mixing. Use write_data with 'pair ij' option to store all pair coeffs. (../write_data.cpp:312)

write_restart   restart.lmp.${pid}
write_restart   restart.lmp.0
System init for write_restart ...
PPPM initialization ...
  extracting TIP4P info from pair style
  using 12-bit tables for long-range coulomb (../kspace.cpp:340)
  G vector (1/distance) = 0.37447844
  grid = 30 30 30
  stencil order = 5
  estimated absolute RMS force accuracy = 0.0032685317
  estimated relative force accuracy = 9.8430861e-06
  using double precision FFTW3
  3d grid and FFT values/proc = 5400 960
Last active /omp style is kspace_style pppm/tip4p/omp
Total wall time: 0:09:25
