LAMMPS (30 Jul 2021)
  using 1 OpenMP thread(s) per MPI task
package omp 0
using multi-threaded neighbor list subroutines
echo both

include		in.partitions
variable        pid world 0
include		in.temp
variable        temperature equal 255.10
variable	tempDamp equal 100.0
include		in.pressure
variable        pressure equal 1750.0
variable        pressureDamp equal 1000.0 # This is 1 ps
include		in.seed
variable        seed world 745823

units		real
atom_style	full
read_restart	restart.lmp.${pid}
read_restart	restart.lmp.0
Reading restart file ...
  restart file = 30 Jul 2021, LAMMPS = 30 Jul 2021
  restoring atom style full from restart
  orthogonal box = (0.24850516 1.3842375 0.30317572) to (17.959067 22.244940 21.910020)
  4 by 4 by 4 MPI processor grid
  restoring pair style lj/cut/tip4p/long/omp from restart
  restoring bond style harmonic/omp from restart
  restoring angle style harmonic/omp from restart
  864 atoms
  576 bonds
  288 angles
Finding 1-2 1-3 1-4 neighbors ...
  special bond factors lj:    0        0        0       
  special bond factors coul:  0        0        0       
     2 = max # of 1-2 neighbors
     1 = max # of 1-3 neighbors
     1 = max # of 1-4 neighbors
     2 = max # of special neighbors
  special bonds CPU = 1.802 seconds
  read_restart CPU = 2.131 seconds
include 	in.setup
variable	out_freq equal 1000
variable	out_freq2 equal 10000
variable	out_freq3 equal 1000

timestep	2.0

neigh_modify    delay 7 every 1

include		in.tip4p
# This is TIP4P/Ice

# create groups ###
group ox type 2
288 atoms in group ox
group hy type 1
576 atoms in group hy

# set charges - beside manually ###
set group ox charge -1.1794
Setting atom values ...
  288 settings made for charge
set group hy charge 0.5897
Setting atom values ...
  576 settings made for charge

# ### TIP3P Potential Parameters ###
pair_style lj/cut/tip4p/long/omp 2 1 1 1 0.1577 8.5
pair_coeff 1 1*2 0.000 0.000
pair_coeff 2 2 0.21084 3.1668
bond_style  harmonic
bond_coeff  1 450 0.9572
angle_style harmonic
angle_coeff 1 55 104.52
kspace_style pppm/tip4p/omp 1.0e-5
pair_modify tail yes

thermo          ${out_freq}
thermo          1000
thermo_style    custom step temp pe etotal epair emol press lx ly lz vol pxx pyy pzz pxy pxz pyz enthalpy

restart 	${out_freq3} restart.lmp.${pid} restart2.lmp.${pid}
restart 	1000 restart.lmp.${pid} restart2.lmp.${pid}
restart 	1000 restart.lmp.0 restart2.lmp.${pid}
restart 	1000 restart.lmp.0 restart2.lmp.0


include         in.dump
dump            myDump all atom ${out_freq2} dump.water.${pid}
dump            myDump all atom 10000 dump.water.${pid}
dump            myDump all atom 10000 dump.water.0
dump            myDump2 all dcd ${out_freq2} dump.dcd
dump            myDump2 all dcd 10000 dump.dcd
dump_modify     myDump append yes
dump_modify     myDump2 append yes


variable natoms 	equal  "count(all)"                        # NUMBER ATOMS
variable H      	equal  "enthalpy/v_natoms"                 # ENTHALPY-per-atom
variable Vol      	equal  "vol/v_natoms"                 # volume-per-atom
fix AVG all 		ave/time ${out_freq} 1 ${out_freq} v_Vol v_H file vol_enthalpy.dat
fix AVG all 		ave/time 1000 1 ${out_freq} v_Vol v_H file vol_enthalpy.dat
fix AVG all 		ave/time 1000 1 1000 v_Vol v_H file vol_enthalpy.dat


timer           timeout 23:50:00 every 1000
New timer settings: style=normal  mode=nosync  timeout=23:50:00

fix 		1 all shake 1e-6 200 0 b 1 a 1
       0 = # of size 2 clusters
       0 = # of size 3 clusters
       0 = # of size 4 clusters
     288 = # of frozen angles
  find clusters CPU = 0.499 seconds
fix             2 all nph iso ${pressure} ${pressure} ${pressureDamp}
fix             2 all nph iso 1750 ${pressure} ${pressureDamp}
fix             2 all nph iso 1750 1750 ${pressureDamp}
fix             2 all nph iso 1750 1750 1000
fix             3 all temp/csvr ${temperature} ${temperature} ${tempDamp} ${seed}
fix             3 all temp/csvr 255.1 ${temperature} ${tempDamp} ${seed}
fix             3 all temp/csvr 255.1 255.1 ${tempDamp} ${seed}
fix             3 all temp/csvr 255.1 255.1 100 ${seed}
fix             3 all temp/csvr 255.1 255.1 100 745823

run             250000
PPPM initialization ...
  extracting TIP4P info from pair style
  using 12-bit tables for long-range coulomb (../kspace.cpp:340)
  G vector (1/distance) = 0.37232076
  grid = 24 24 25
  stencil order = 5
  estimated absolute RMS force accuracy = 0.003294112
  estimated relative force accuracy = 9.9201205e-06
  using double precision FFTW3
  3d grid and FFT values/proc = 2730 288
Last active /omp style is kspace_style pppm/tip4p/omp
Neighbor list info ...
  update every 1 steps, delay 7 steps, check yes
  max neighbors/atom: 2000, page size: 100000
  master list distance cutoff = 10.8154
  ghost atom cutoff = 10.8154
  binsize = 5.4077, bins = 4 4 4
  1 neighbor lists, perpetual/occasional/extra = 1 0 0
  (1) pair lj/cut/tip4p/long/omp, perpetual
      attributes: half, newton on, omp
      pair build: half/bin/newton/omp
      stencil: half/bin/3d
      bin: standard
Per MPI rank memory allocation (min/avg/max) = 9.233 | 9.238 | 9.245 Mbytes
Step Temp PotEng TotEng E_pair E_mol Press Lx Ly Lz Volume Pxx Pyy Pzz Pxy Pxz Pyz Enthalpy 
 9000000    256.33126   -3884.0981   -3444.7551   -3884.0981            0    2715.8325    17.710562    20.860703    21.606844    7982.7517    4565.5745    279.27926    3302.6438   -13.568908   -334.25301     417.7696   -3128.5772 
 9001000    251.29747   -3902.0269   -3471.3116   -3902.0269            0    2393.9753    17.718226     20.86973    21.616195    7993.1201     2928.882    2275.6792    1977.3648    -437.6687   -935.75468    949.88122   -3192.2424 
 9002000    240.12346   -3874.4451   -3462.8817   -3874.4451            0     1275.166    17.760818    20.919898    21.668157    8050.9012    798.91296    1714.2587    1312.3262   -1490.0317    183.82823    199.35018   -3313.1592 
 9003000    265.65975    -3907.719   -3452.3873    -3907.719            0    769.99962    17.823127    20.993289    21.744173    8135.9312    1577.3103    1287.5078    -554.8192    396.47485    58.313307   -74.865554   -3361.0236 
 9004000    248.19442   -3915.8169   -3490.4201   -3915.8169            0    808.95435    17.720538    20.872453    21.619015    7996.2489   -284.22097    1382.4647    1328.6193   -1022.8382    802.76344    313.47501   -3396.0822 
 9005000    255.16941   -3886.7209   -3449.3693   -3886.7209            0    1297.7025    17.712047    20.862452    21.608656    7984.7603    2223.2413     1581.951    87.915166    845.85747    600.14563    2045.4953   -3298.2524 
 9006000    254.28288   -3885.3673   -3449.5351   -3885.3673            0    2412.5307    17.725704    20.878538    21.625318    8003.2446    3097.0735    2265.8805    1874.6381    1027.6292    18.183347    567.31819   -3167.9467 
 9007000    263.71956   -3913.2284   -3461.2221   -3913.2284            0     2232.047    17.762609    20.922007    21.670341    8053.3363     2356.032    2385.0153    1955.0938    69.559219    48.862534   -698.28082    -3199.069 
 9008000    248.32944   -3859.5512    -3433.923   -3859.5512            0    2460.2524    17.711415    20.861707    21.607885    7983.9049    3471.1689    1486.9338    2422.6545    132.33847    300.64471   -611.06328   -3147.4584 
 9009000    263.96864   -3865.1282    -3412.695   -3865.1282            0    2034.0022     17.78025    20.942786    21.691864    8077.3556    3085.8449    2296.4776    719.68414   -141.73953    1484.5201   -1039.0666   -3173.0896 
 9010000    261.87468   -3886.9375   -3438.0933   -3886.9375            0    2779.6006    17.712594    20.863096    21.609323    7985.4995    2983.7024     2042.187    3312.9125    509.61957   -789.39305   -265.28569   -3114.3801 
 9011000    252.93404   -3892.4543    -3458.934   -3892.4543            0    870.72762    17.659555    20.800623    21.544616    7913.9781    944.30484    295.20611    1372.6719    520.88096     982.6929   -798.67087    -3358.437 
 9012000    263.48589   -3878.6903   -3427.0845   -3878.6903            0     1640.442     17.69497    20.842338    21.587822    7961.6869    1007.5337    1249.6933     2664.099      -124.42   -989.46004    132.39294   -3236.6078 
 9013000    263.04482   -3892.9398     -3442.09   -3892.9398            0    1909.9809     17.72934    20.882821    21.629754    8008.1708    752.02495    475.68604    4502.2318    -521.3304   -267.27728    -37.67082   -3219.0215 
 9014000    248.90167   -3913.9868   -3487.3779   -3913.9868            0    2915.8827    17.698588    20.846599    21.592236    7966.5717    2293.0791    3576.3582    2878.2107   -51.117318   -763.64011   -1381.2712   -3148.5982 
 9015000    262.40099    -3901.718   -3451.9717    -3901.718            0    2568.9548    17.733339    20.887531    21.634632    8013.5905    3348.1282    1761.5245    2597.2118   -250.97982   -166.78587    495.55157   -3151.7379 
 9016000    263.92594   -3910.9183   -3458.5583   -3910.9183            0    1338.2702     17.72281    20.875129    21.621787    7999.3246    1252.9285    1319.6958    1442.1862   -539.52824   -917.19644    1390.1804   -3302.4331 
 9017000    254.26972   -3903.4132   -3467.6036   -3903.4132            0    1785.8119    17.753391    20.911149    21.659095    8040.8047    2505.8544    1051.3752    1800.2062   -353.44639   -416.53134    263.13867    -3258.187 
 9018000    236.58902   -3924.8697   -3519.3643   -3924.8697            0    447.68814    17.864752    21.042318    21.794956    8193.0685    2462.6363   -894.97665   -224.59523    1519.7416    478.28712    256.86153   -3465.8711 
 9019000     260.0456   -3913.4034   -3467.6942   -3913.4034            0    2559.7426    17.717788    20.869214     21.61566    7992.5263    3499.2379    1819.7402    2360.2496    112.15604   -129.12456   -355.43549   -3169.3234 
 9020000    250.61962   -3919.7607   -3490.2073   -3919.7607            0    1045.6672    17.682027    20.827092    21.572032    7944.2289    935.09904    826.36579    1375.5369   -385.25881   -211.82575    26.606859   -3369.0579 
 9021000    252.20537   -3921.0396   -3488.7682   -3921.0396            0    1884.3046    17.758903    20.917642     21.66582    8048.2968    960.53992    2885.4748    1806.8992    -542.8015    -209.4146   -183.01793   -3267.5958 
 9022000    263.47551   -3899.0062   -3447.4182   -3899.0062            0    1568.6704    17.735209    20.889734    21.636914    8016.1262    1515.8542    1455.4029     1734.754   -66.085718   -1195.2157    108.65079   -3264.0297 
 9023000    243.31545   -3913.8332   -3496.7988   -3913.8332            0    766.21749    17.778924    20.941224    21.690246    8075.5481   -559.84283    379.79985    2478.6954    413.50901    110.95954    380.74755   -3406.5587 
 9024000    265.64627   -3873.7789   -3418.4703   -3873.7789            0    2045.7261    17.702427     20.85112    21.596919    7971.7559      1521.19    2123.0564     2492.932    1216.5943   -9.5259064    100.61306   -3180.6344 
 9025000    255.27638    -3859.435      -3421.9    -3859.435            0    2175.1559    17.641209    20.779014    21.522234    7889.3389    2392.1253    1321.3894     2811.953     832.8503   -935.27592   -368.12322   -3171.6311 
 9026000    256.73616   -3848.4408   -3408.4038   -3848.4408            0    1374.1834    17.718225    20.869729    21.616193    7993.1183    129.63166    1892.3636    2100.5551   -690.70095    1081.4321    757.41427   -3248.2132 
 9027000    255.23434    -3851.808   -3414.3451    -3851.808            0    1461.7412    17.880792    21.061211    21.814524    8215.1561    1347.8359     1388.227    1649.1607    912.35348    185.00008    646.85959   -3239.2144 
 9028000    251.22285   -3884.3128   -3453.7254   -3884.3128            0    2608.2404    17.722233     20.87445    21.621083    7998.5436    3785.5629    1605.6823    2433.4759    -701.8854    11.418983     300.4143   -3149.4727 
 9029000    240.73767   -3900.6961     -3488.08   -3900.6961            0    3392.3495    17.683596     20.82894    21.573945    7946.3432    4078.8604    3530.2748    2567.9133   -12.991305   -417.05282    -1303.999   -3094.9431 
 9030000    261.05288   -3867.8243   -3420.3886   -3867.8243            0      802.592    17.890364    21.072486    21.826202    8228.3568     1565.329   -1778.2102    2620.6572    525.35759   -223.87393    1136.9655   -3324.0759 
 9031000    250.73094   -3865.2399   -3435.4956   -3865.2399            0    464.96743    17.840277     21.01349    21.765097    8159.4408    995.24413    773.69127   -374.03311    1114.3163   -736.77595   -449.26385   -3380.1659 
 9032000    258.69398   -3890.7287   -3447.3361   -3890.7287            0    1183.5586    17.860032    21.036759    21.789198     8186.576    405.68588    2133.5302    1011.4596   -1016.4151   -1315.7493    166.49854   -3306.0277 
 9033000    268.66618    -3913.882   -3453.3973    -3913.882            0     2256.956     17.83467    21.006886    21.758256    8151.7498    1279.5822    1777.2045    3714.0812     197.5456   -54.668291    882.54679   -3185.0793 
 9034000    259.63591   -3957.2606   -3512.2535   -3957.2606            0    547.42661    17.832348    21.004151    21.755423    8148.5663     924.5418    11.405514    706.33251   -783.02988    225.17324    901.94095   -3447.1981 
 9035000    242.27482   -3908.4494   -3493.1987   -3908.4494            0    2063.5079    17.836812    21.009408    21.760868    8154.6864    2515.4965    1950.4577    1724.5696     358.1199    103.01963   -953.02536   -3247.7903 
 9036000    238.86577    -3880.832   -3471.4242    -3880.832            0     3490.816    17.726063    20.878961    21.625756    8003.7308    4290.4412    1285.0909     4896.916   -1218.0873   -1043.8214     108.0281   -3063.9545 
 9037000    247.85667   -3879.0435   -3454.2256   -3879.0435            0    3200.2261    17.758148    20.916752    21.664899      8047.27    4554.4559    3308.9198    1737.3025    1263.0148    352.08483    219.51095   -3078.6433 
 9038000    250.24331   -3897.3031   -3468.3947   -3897.3031            0    3129.7619    17.742299    20.898085    21.645563    8025.7434     3157.054    3840.8584    2391.3732    641.60644    456.92845    187.35549   -3102.0647 
 9039000    266.25003   -3923.2119   -3466.8684   -3923.2119            0    2993.6169    17.676582    20.820679    21.565389    7936.8919    3487.8262    3066.1496     2426.875   -1051.4647   -498.61497    742.01301    -3120.353 
 9040000    256.11294   -3914.6188     -3475.65   -3914.6188            0    2001.0313    17.727553    20.880716    21.627573     8005.749    1763.4821    2447.7686    1791.8433    517.81975   -55.790529   -393.64993   -3242.0184 
 9041000    252.13564   -3896.0411   -3463.8893   -3896.0411            0     173.9566    17.720154    20.872001    21.618547    7995.7294   -402.13479    728.98448    195.02012   -1195.6781    718.57455    130.57789   -3443.6043 
 9042000    251.50217   -3901.9705   -3470.9044   -3901.9705            0    2275.8233    17.634648    20.771286    21.514229    7880.5396    2500.7527    1699.8338    2626.8833    1211.2593   -202.82555    6.3168586    -3209.345 
 9043000    259.69272   -3869.3496   -3424.2452   -3869.3496            0    2389.7176    17.699206    20.847327     21.59299    7967.4062    2573.4175    2917.4802    1678.2551   -895.94266   -1450.3383    100.78124   -3146.5685 
 9044000    254.84343   -3879.6534   -3442.8605   -3879.6534            0    1541.0901    17.734894    20.889363    21.636529    8015.6988    1830.2138    2321.3859    471.67055     699.6436    -1511.243   -1230.6026   -3262.7059 
 9045000    244.72974   -3912.8671   -3493.4087   -3912.8671            0    1101.4261    17.757003    20.915404    21.663502    8045.7136   -235.44554    3219.0401    320.68368   -812.17653    131.43889   -462.41856   -3364.1691 
 9046000    260.37725   -3884.8651   -3438.5874   -3884.8651            0    2398.6326    17.697052     20.84479    21.590362    7964.4974    524.21599    3864.1441    2807.5378    191.98149   -1181.3558    241.02022   -3159.9766 
 9047000    244.29005   -3867.7351   -3449.0303   -3867.7351            0    1294.6653    17.712482    20.862964    21.609187    7985.3484    -19.67905    2753.0703    1150.6048   -518.18483    54.427237   -76.377798    -3298.256 
 9048000    256.38992   -3888.7093   -3449.2658   -3888.7093            0    2333.5566    17.647233    20.786109    21.529583    7897.4234    3324.8287    1956.8601    1718.9811   -835.51404    356.18957   -162.23615   -3180.4965 
 9049000    265.28373   -3903.2061   -3448.5188   -3903.2061            0    2327.8347    17.664377    20.806302    21.550498    7920.4624    1299.4825    2654.7356     3029.286    40.022599    30.521712   -500.66325   -3179.6264 
 9050000    255.77076   -3910.7675   -3472.3852   -3910.7675            0    1585.6309    17.706935     20.85643    21.602419    7977.8476    864.07422    3084.7384    808.07997     1922.577    139.28333    645.72912   -3287.8991 
 9051000     269.8214   -3889.7519   -3427.2873   -3889.7519            0    2093.5069    17.699532    20.847711    21.593388    7967.8463    2425.6063    1136.0545    2718.8599    1767.2223   -576.96046   -250.74184   -3184.0158 
 9052000    261.96463   -3910.0818   -3461.0834   -3910.0818            0    1718.7775    17.657812     20.79857    21.542489     7911.635    1277.5248    2654.5628    1224.2448   -869.79919   -348.94015    943.56874   -3262.7655 
 9053000    256.41638   -3901.4242   -3461.9353   -3901.4242            0    2732.3357    17.730746    20.884477    21.631469    8010.0756    1915.1342    2828.8836    3452.9894   -614.77687    1870.0265    779.33013   -3142.7473 
 9054000    261.58955   -3867.8704   -3419.5148   -3867.8704            0    1398.8989    17.635281    20.772032    21.515002     7881.389    2348.6493    2602.1172   -754.06992    461.18761   -364.16783    728.62978   -3258.7226 
 9055000    246.57989   -3864.2697   -3441.6402   -3864.2697            0    2821.1178    17.704918    20.854055    21.599958    7975.1219    4795.5984    2647.9929    1019.7623    -75.64565   -127.73351    731.53076   -3113.5189 
 9056000    258.52535   -3835.1858   -3392.0822   -3835.1858            0    620.83819    17.762508    20.921888    21.670219    8053.1996    881.13067    133.83671     847.5472   -777.63707   -349.85348    549.07985   -3319.1662 
 9057000    248.54311   -3879.3143   -3453.3199   -3879.3143            0    2995.6109     17.69546    20.842914    21.588419    7962.3475    3225.0325    2611.8824    3149.9178    1457.1056    731.10081    458.46964   -3105.4616 
 9058000    235.77001   -3843.4817   -3439.3799   -3843.4817            0    1970.6947    17.863412     21.04074    21.793321    8191.2248    2182.1613    2664.4688     1065.454     638.3906   -282.95405    1212.1866   -3203.9595 
 9059000    262.10779   -3879.0226   -3429.7788   -3879.0226            0    1488.9644    17.835973     21.00842    21.759845    8153.5361     1349.029    1375.8933    1741.9708   -645.00538   -986.62732    247.69289   -3252.7246 
 9060000    255.41645   -3904.9629   -3467.1878   -3904.9629            0     762.7243    17.844761    21.018772    21.770567    8165.5945    1321.3346   -224.85957    1191.6979    1361.2981   -1307.7189   -773.77715   -3376.3574 
 9061000    261.21137   -3882.5997   -3434.8924   -3882.5997            0    1726.0208    17.760524    20.919552    21.667798    8050.5017    1974.8825    1295.9682    1907.2117    341.64939    721.91861   -534.41145   -3232.2432 
 9062000    258.40119   -3867.7695   -3424.8787   -3867.7695            0    452.20621    17.851467     21.02667    21.778748    8174.8039    401.27282    653.41464    301.93116   -341.67303   -245.16639   -105.96193   -3370.9662 
 9063000    264.80173   -3857.1684   -3403.3073   -3857.1684            0    1536.4486    17.781279    20.943998    21.693119     8078.758    1651.0951    1390.8592    1567.3917    851.21538     346.2539    413.01671   -3222.2823 
 9064000    253.25852   -3883.9145    -3449.838   -3883.9145            0    2743.1497    17.742581    20.898417    21.645908    8026.1263    3188.9053     2627.691    2412.8528    1012.1134   -492.58149   -599.37272   -3128.7446 
 9065000    247.34637   -3901.0925   -3477.1493   -3901.0925            0    2220.8783    17.731334    20.885169    21.632186    8010.8727    1741.9312    3409.6188    1511.0849    445.26269   -101.79998   -427.18575   -3217.6833 
 9066000     266.8295   -3873.2016    -3415.865   -3873.2016            0    1513.0559    17.735078    20.889579    21.636753    8015.9475    1910.4946    479.85522    2148.8179   -194.76657   -504.00769     1184.631   -3238.9821 
 9067000    249.59253   -3923.1106   -3495.3176   -3923.1106            0     1220.747    17.749294    20.906324    21.654098    8035.2404    868.67206    1937.8618    855.70697    44.905659    1896.6544   -133.91158   -3352.2635 
 9068000    256.94425   -3911.3509   -3470.9572   -3911.3509            0    656.90961    17.807412     20.97478    21.725001    8114.4304    494.50823    445.40416    1030.8164   -481.09086    890.04964    435.78103   -3393.2181 
 9069000      234.886   -3902.9348   -3500.3483   -3902.9348            0    103.16691    17.832954    21.004864    21.756162    8149.3965     984.4975   -544.68085   -130.31593   -75.150303   -53.554607   -1054.6318   -3488.0868 
 9070000    247.20317   -3884.2034   -3460.5057   -3884.2034            0    2196.4518    17.678623    20.823083    21.567879    7939.6418    1350.2527    3614.9114    1624.1915   -796.53346    467.18346    33.263379   -3206.1751 
 9071000    238.79399   -3868.5495   -3459.2647   -3868.5495            0    359.41707    17.649048    20.788247    21.531797    7899.8609   -289.42984     154.4784    1213.2027   -188.22766   -20.085684   -1267.8961   -3417.8558 
 9072000    270.54605   -3825.8977    -3362.191   -3825.8977            0    3779.4134    17.552777    20.674852    21.414347    7771.2892    4723.4985    4750.5514    1864.1904    1599.0283    1112.1259   -448.97563   -2933.8464 
 9073000    245.28868   -3898.4931   -3478.0767   -3898.4931            0    2186.0629     17.57992    20.706824    21.447462    7807.3975    1476.3332    2791.9738    2289.8816     657.8459   -748.60752   -333.34122   -3229.1653 
 9074000    259.36912   -3908.0439   -3463.4941   -3908.0439            0    1100.2551    17.688102    20.834247    21.579443     7952.419   -460.03134    2657.9563    1102.8404    499.24123    667.44335    982.87061   -3335.8889 
 9075000    253.40814   -3884.5501   -3450.2172   -3884.5501            0     4468.033    17.595932    20.725683    21.466996    7828.7494    4467.7233    3863.3171    5073.0586    851.20192    280.42088   -543.79217   -2940.0827 
 9076000    252.20977   -3880.5955   -3448.3166   -3880.5955            0    793.32065    17.654019    20.794103    21.537862    7906.5383   -511.28516    2048.1685    843.07864   -838.29792    62.458725     60.58773   -3356.8397 
 9077000    249.57662   -3908.6923   -3480.9265   -3908.6923            0    2882.0916      17.5983    20.728473    21.469885    7831.9115    3280.3348    1235.4921    4130.4478    1544.0767    1207.2208     1060.892   -3151.7329 
 9078000    264.99209   -3881.2345   -3427.0471   -3881.2345            0    1820.0695    17.607335    20.739115    21.480908    7843.9803    728.87628    1825.5771     2905.755    1574.9744    924.93316   -1230.5205   -3218.8377 
 9079000    241.27183   -3891.6427   -3478.1111   -3891.6427            0    1235.4153    17.678245    20.822638    21.567418    7939.1323    1081.5188    1169.7193    1455.0079    313.24473   -281.53777    3.1727782   -3335.0696 
 9080000    273.92055   -3923.1938   -3453.7033   -3923.1938            0    1059.8651    17.722638    20.874927    21.621577    7999.0925    1362.1836    119.49996    1697.9118   -1604.4623    632.14333   -199.22242    -3330.061 
 9081000    258.19769   -3935.6789   -3493.1369   -3935.6789            0    2238.6094    17.692239     20.83912     21.58449    7958.0003    3235.2758    1167.3168    2313.2357    108.39168    649.26436   -307.63566   -3233.3255 
 9082000    257.02512   -3956.6448   -3516.1125   -3956.6448            0    3.0428893    17.772576    20.933747    21.682502    8066.9014   -354.34708   -609.97172    973.44747    -515.7766    1310.4404   -83.718614   -3515.7545 
 9083000    244.78599   -3914.8638    -3495.309   -3914.8638            0    852.28127    17.684539    20.830051    21.575096    7947.6147    1974.7108    880.05679   -297.92378   -317.71762    354.28026   -308.46877    -3396.523 
 9084000    269.83858   -3882.7027   -3420.2086   -3882.7027            0    1569.3025    17.624742    20.759618    21.502144    7867.2675    2540.4694    1900.7777    266.66036   -288.52721   -928.76881   -324.29123   -3240.1531 
 9085000    264.47669   -3915.1821   -3461.8781   -3915.1821            0    1004.8421    17.692875     20.83987    21.585267    7958.8596    734.33329    1564.9358    715.25728    832.77323   -435.38542    964.75675   -3345.2443 
 9086000    253.77833   -3903.6891   -3468.7217   -3903.6891            0    3333.3769    17.598323    20.728499    21.469912    7831.9411    3409.8503    3633.8345    2956.4459   -1399.1498    28.717512    108.20024   -3087.9806 
 9087000    249.40058   -3908.7371   -3481.2731   -3908.7371            0    2685.6373    17.622977    20.757539    21.499991    7864.9039    2196.7178    3389.3807    2470.8133    503.45289    1080.3345    1468.2987   -3173.2263 
 9088000    266.82459    -3891.841   -3434.5128    -3891.841            0    2439.9491      17.6884    20.834599    21.579807    7952.8222     1654.318    1752.3647    3913.1646   -430.47414     181.7397    1171.5972   -3151.5184 
 9089000    241.42237   -3921.6472   -3507.8575   -3921.6472            0    1050.7956    17.694481    20.841762    21.587226    7961.0269     1258.468    837.39168    1056.5271    53.469609    1028.9996    550.57495   -3385.8566 
 9090000    254.34678   -3891.5487    -3455.607   -3891.5487            0    3271.4481    17.582469    20.709826    21.450572    7810.7943    2127.2678    2746.6622    4940.4142    1086.7361    244.52894   -2005.0432   -3082.9484 
 9091000    242.38813   -3897.1334   -3481.6884   -3897.1334            0    2977.4832    17.584503    20.712221    21.453052    7813.5042    2955.2092    3786.2065     2191.034    119.77423    793.16816    469.30561   -3142.3984 
 9092000    254.48958   -3862.9537   -3426.7673   -3862.9537            0     3035.409    17.481866    20.591329    21.327836    7677.4844    3611.4162    3531.5447     1963.266    156.77361   -109.12094   -1263.7642   -3086.8979 
 9093000    259.56385    -3931.218   -3486.3345    -3931.218            0    1279.3088     17.60555    20.737013     21.47873     7841.595    1717.1874    1717.1788    403.56031    1446.2152    449.16442    137.65784   -3340.0306 
 9094000    250.29179    -3914.022   -3485.0304    -3914.022            0    2486.2177    17.643688    20.781933    21.525258     7892.665    3732.9898    3757.9651   -32.301787    154.80989   -936.41352    650.76114   -3198.8508 
 9095000    258.14743   -3951.7709   -3509.3151   -3951.7709            0    2838.3347     17.63448    20.771088    21.514024    7880.3148    2030.0327    4618.2901    1866.6812   -305.82985    73.261496    1119.9808   -3183.1157 
 9096000    260.12287   -3918.3305   -3472.4888   -3918.3305            0    229.53556    17.705014    20.854167    21.600075    7975.2514    1332.8119    -409.3075   -234.89777   -688.15547   -1282.0536    985.64857   -3445.7913 
 9097000    261.13361    -3914.097   -3466.5229    -3914.097            0    1858.9018    17.573567     20.69934    21.439711    7798.9358    810.84161    1135.1323    3630.7316    565.73032   -367.15573   -50.714607   -3255.0924 
 9098000    238.62061    -3901.445   -3492.4574    -3901.445            0    2265.5073     17.53467    20.653525    21.392256    7747.2642     3869.249    1452.5478    1474.7253    28.009001    564.67889   -478.37821    -3236.487 
 9099000    249.64201   -3902.2123   -3474.3344   -3902.2123            0    1843.5718    17.620796     20.75497     21.49733    7861.9843    1931.3549    2346.9897    1252.3709    287.93451    432.92193    520.38243   -3262.9524 
 9100000    261.54929   -3915.5145   -3467.2279   -3915.5145            0    2147.5546    17.579458     20.70628    21.446898    7806.7817    4658.8151    1194.1868    589.66197    284.87062    251.09957   -259.26439   -3222.7205 
 9101000    254.45284   -3925.2637   -3489.1402   -3925.2637            0    2430.6823    17.691983    20.838819    21.584178     7957.655    1792.1822    2639.7328    2860.1319   -729.55933   -268.17843   -497.97114   -3207.0492 
 9102000    256.96382   -3876.3735   -3435.9463   -3876.3735            0    1760.7258    17.606423    20.738041    21.479795    7842.7615    1819.8448    1263.1194    2199.2133    837.54498    127.06238   -1075.9821   -3234.5569 
 9103000    268.58779   -3894.7029   -3434.3526   -3894.7029            0    2679.9984    17.577225    20.703649    21.444173    7803.8064     2316.666    3678.1833     2045.146   -1214.4053    85.036555   -1043.2676   -3129.3406 
 9104000    247.93343   -3893.5724    -3468.623   -3893.5724            0    1691.4053    17.668618    20.811299    21.555673    7926.1696    1106.3418    2312.9821     1654.892    156.63207   -368.03664     -644.118   -3273.1049 
 9105000    249.29254   -3871.3532   -3444.0743   -3871.3532            0   -313.79953    17.748322    20.905179    21.652911    8033.9197   -549.32899   -1561.0115    1168.9419    117.23213    273.35043    257.25778   -3480.8411 
 9106000    254.26267   -3924.4747   -3488.6772   -3924.4747            0    392.33537    17.835968    21.008414    21.759839     8153.529    499.25437   -1022.6827    1700.4344    715.97119   -33.032971   -917.62726   -3442.0243 
 9107000    237.15697   -3900.2909    -3493.812   -3900.2909            0    2105.2628    17.720393    20.872282    21.618838    7996.0527    1656.8049    2216.3887    2442.5948    603.25144   -834.90972   -822.74906   -3248.3084 
 9108000    250.99094    -3899.003   -3468.8131    -3899.003            0    1587.8789    17.770046    20.930767    21.679415    8063.4567    1654.6658    1296.5163    1812.4545   -618.89369    376.15929   -342.03898   -3282.0829 
 9109000    258.55314   -3921.3961   -3478.2448   -3921.3961            0    1857.0726    17.749222    20.906238    21.654009    8035.1413    1932.3438      749.517    2889.3569    -1253.923    25.943461   -218.06467   -3260.6251 
 9110000    255.21335   -3925.3639   -3487.9369   -3925.3639            0    2765.5149     17.61682    20.750287    21.492479    7856.6634    2731.8118    1187.9305    4376.8024    -1271.404    620.88442   -255.63414   -3171.0604 
 9111000    252.09828   -3894.8871   -3462.7993   -3894.8871            0    2522.4947    17.663589    20.805374    21.549537    7919.4026     1753.664    2201.8572    3611.9629   -163.18603   -1101.5505    435.82395   -3171.4604 
 9112000    249.26701   -3895.1187   -3467.8835   -3895.1187            0    2582.0468    17.727942    20.881174    21.628048     8006.276    3455.5065    1288.0591    3002.5749   -341.50441     545.6564    -350.7225   -3166.3952 
 9113000    263.61533   -3929.3349   -3477.5073   -3929.3349            0    2356.1951    17.653418    20.793394    21.537129    7905.7303    574.45068    3356.9227    3137.2119     814.5353   -419.32593    899.19808   -3205.8451 
 9114000     258.5598   -3863.3393   -3420.1767   -3863.3393            0    1972.7423    17.829607    21.000922    21.752079    8144.8089    819.96412    3471.9562    1626.3067    922.16182    46.282879    216.92884   -3185.8471 
 9115000    267.55045   -3899.7506   -3441.1783   -3899.7506            0    2011.7133    17.791905    20.956514    21.706082    8093.2493    1900.3362    1852.5957    2282.2079    254.11443    994.24513    383.48694   -3203.7323 
 9116000    249.85372   -3891.7255   -3463.4848   -3891.7255            0    856.02738    17.838872    21.011835    21.763382    8157.5129    1552.3052    361.39682    654.38014   -72.885281    377.24748    -553.6397   -3361.6441 
 9117000    241.99605   -3889.0394   -3474.2665   -3889.0394            0    834.44856    17.875213    21.054639    21.807718    8207.4688    478.22976    1240.1392     784.9767   -308.20584   -903.97266   -1008.1937   -3374.3851 
 9118000    254.09644   -3890.6554   -3455.1428   -3890.6554            0    2566.9441    17.678822    20.823318    21.568122    7939.9102    3098.9564    2954.1892    1647.6866   -1436.8267   -541.85009   -346.62864   -3157.9023 
 9119000    260.07933   -3900.2813   -3454.5143   -3900.2813            0    1980.3706    17.795516    20.960768    21.710488    8098.1788    2535.1883    1356.2904    2049.6331    674.17442    237.30363    403.27807   -3220.6253 
 9120000    260.27939   -3905.4405   -3459.3305   -3905.4405            0    3178.5771    17.688729    20.834986    21.580207    7953.2648    4159.8535    3099.2732    2276.6047   -1351.1651   -385.14624    -734.1469   -3090.6467 
 9121000    257.19698   -3885.6184   -3444.7916   -3885.6184            0    1579.1663    17.754371    20.912304    21.660291    8042.1366    2236.0363   -15.566329    2517.0288    163.21837    451.26694    705.24325    -3259.577 
 9122000    268.02146   -3890.3838   -3431.0042   -3890.3838            0    1266.3151    17.709363     20.85929    21.605382    7981.1306    880.40383    1279.6715    1638.8698    96.821397   -612.84206    468.84057   -3283.6094 
 9123000    249.53648    -3918.419    -3490.722    -3918.419            0    1255.7553    17.679631     20.82427    21.569109    7940.9999    171.94449     1801.056    1794.2653     513.0383    302.89991   -1466.0211   -3345.2913 
 9124000    263.50653   -3913.5288   -3461.8876   -3913.5288            0    1165.4169    17.731286    20.885112    21.632127     8010.807    458.23134    963.79208    2074.2272    320.40471    626.66007   -24.094647   -3325.7327 
 9125000    263.75538   -3878.3235   -3426.2558   -3878.3235            0    1837.3198    17.787544    20.951377    21.700762    8087.2998    1982.9638    894.04368     2634.952    822.32994   -480.17424   -74.689128   -3209.5532 
 9126000    262.88555   -3936.9586   -3486.3818   -3936.9586            0    545.00058     17.78893     20.95301    21.702453    8089.1908    1502.5962   -828.50756    960.91311    -530.2162    248.71578   -846.33336   -3422.0867 
 9127000    260.55617   -3894.0289   -3447.4445   -3894.0289            0    589.60112     17.73044    20.884116    21.631095    8009.6607   -1036.3057    1265.8524    1539.2566   -1585.5992   -1356.6075    -672.4933   -3378.5716 
 9128000    250.64283   -3857.1135   -3427.5203   -3857.1135            0   -206.21247    17.827459    20.998391    21.749458     8141.865   -437.36656   -303.09678    121.82592   -89.933366   -21.229508    694.31325   -3452.0061 
 9129000    253.25487   -3863.9722    -3429.902   -3863.9722            0    1312.0947    17.773093    20.934356    21.683132    8067.6056     1796.701    2020.7441    118.83882   -774.09967   -1201.6707    1203.4945   -3275.5239 
 9130000    258.58664   -3909.2978   -3466.0891   -3909.2978            0    2464.9631    17.657876    20.798646    21.542568    7911.7214    1245.4153    4273.1135    1876.3607    164.95748    319.00316    2189.8235    -3181.671 
 9131000    259.57713   -3923.2437   -3478.3373   -3923.2437            0    1710.7497    17.782338    20.945245    21.694411    8080.2012    1695.2539    1140.6042    2296.3909    407.72001   -572.75008   -251.43416   -3276.7401 
 9132000    252.21389   -3827.2539   -3394.9679   -3827.2539            0    3131.2397    17.792301    20.956981    21.706566    8093.7908    3997.0237    2247.4221    3149.2734    879.27221    -1094.043   -893.59666   -3025.3575 
 9133000    245.84514   -3874.9726   -3453.6025   -3874.9726            0    1231.8471    17.879089    21.059206    21.812447    8212.8101    1654.1051    1409.1652    632.27104   -601.42366    285.36925   -1064.0138   -3306.0575 
 9134000    236.99635   -3893.3996    -3487.196   -3893.3996            0    968.13166    17.872847    21.051852    21.804831    8204.2101   -7.3027688    1961.2041    950.49363    333.89214   -826.83139   -597.09028   -3371.3591 
 9135000    257.69569   -3945.0089   -3503.3273   -3945.0089            0    1626.8737    17.887197    21.068755    21.822338    8223.9873    1220.3961    1509.3731    2150.8517    1699.8075   -78.540357    1033.7287   -3308.2027 
 9136000    250.31365   -3872.2666   -3443.2376   -3872.2666            0    2081.0067     17.79189    20.956496    21.706064    8093.2291    1505.7275    1612.8632    3124.4293   -433.74802    864.37897   -638.30503   -3197.6133 
 9137000    250.13259   -3869.3705   -3440.6518   -3869.3705            0    1315.4555    17.776658    20.938556    21.687482    8072.4613    1345.3134    1391.8113    1209.2419   -137.15367   -695.25911   -256.16967   -3285.7851 
 9138000    257.55537   -3873.3193   -3431.8782   -3873.3193            0    2748.4273    17.702116    20.850754     21.59654     7971.336    1240.8956    3576.1232    3428.2631   -130.36695      188.365    237.84303   -3112.3632 
 9139000    235.06012   -3894.2277   -3491.3428   -3894.2277            0    1694.4425    17.664074    20.805946    21.550129    7920.0558    2405.2675    2308.6006    369.45931    396.04461    514.18957    552.92278   -3295.6247 
 9140000    245.32552   -3873.2653   -3452.7858   -3873.2653            0    1198.7033    17.747741    20.904495    21.652203    8033.1312    1954.9173     1261.405    379.78761     71.65375    813.63333     123.1608   -3312.3517 
 9141000    253.45368    -3901.899   -3467.4881    -3901.899            0    1643.0825    17.667993    20.810562     21.55491    7925.3275    1620.0574    878.61452    2430.5755   -484.39223   -194.64792    587.64126   -3277.5761 
 9142000    247.62027    -3887.711   -3463.2984    -3887.711            0    803.48998    17.796664     20.96212    21.711889    8099.7463    1001.1477   -231.19582    1640.5181    291.05477   -786.35308   -140.89968   -3368.3849 
 9143000    240.18019   -3878.0948   -3466.4342   -3878.0948            0    2771.6969    17.798319    20.964069    21.713908     8102.006    3969.6818    1559.4934    2785.9154    357.06016    2021.1257    -159.1755    -3138.932 
 9144000    245.41285   -3875.1005   -3454.4713   -3875.1005            0    2706.2152    17.717333    20.868679    21.615105    7991.9115    2297.7798    4022.1944    1798.6715    74.445153   -1012.9711   -95.856292   -3139.0515 
 9145000    258.16731    -3865.735   -3423.2451    -3865.735            0    2539.9552    17.814296    20.982887    21.733399    8123.8438    2965.3454    1858.0864    2796.4336   -1174.5183    2009.8813   -50.770581   -3122.3164 
 9146000    247.35716   -3916.4787    -3492.517   -3916.4787            0    524.22236    17.889222    21.071141     21.82481    8226.7818    1452.3179   -1450.1438    1570.4929   -278.37039   -105.26003   -937.42998   -3429.6212 
 9147000    256.02721   -3931.0262   -3492.2043   -3931.0262            0    1405.0638    17.775845    20.937597    21.686489     8071.353     904.8553    1332.7198    1977.6164   -516.80508   -331.46978   -445.68292   -3326.8108 
 9148000    256.40237   -3955.6074   -3516.1425   -3955.6074            0    1278.6088    17.848086    21.022688    21.774624      8170.16    1147.9098    1780.3352    907.58137    562.81043    175.62715   -1168.0683   -3363.7919 
 9149000    260.34964   -3896.9239   -3450.6935   -3896.9239            0    1663.0542    17.875093    21.054499    21.807572    8207.3046    720.37951    2027.9618    2240.8214    901.18848   -1282.5886    1221.7123    -3251.634 
 9150000    248.44168   -3910.6541   -3484.8335   -3910.6541            0    2403.5874    17.756359    20.914646    21.662717    8044.8394    2140.4782    2504.6442    2565.6398    253.10456   -599.67696    896.18938   -3202.8309 
 9151000    253.79862    -3869.063   -3434.0609    -3869.063            0    1894.9936    17.771047    20.931946    21.680636    8064.8193    2477.5565    1592.9569    1614.4675   -952.55839    733.53513   -103.92208   -3211.1772 
 9152000    236.64224   -3906.1857    -3500.589   -3906.1857            0    1488.5162    17.795721    20.961009    21.710738    8098.4582    1602.9405    972.74143    1889.8666   -27.231042   -584.76551   -1418.6977   -3324.7838 
 9153000    259.23518   -3901.1422    -3456.822   -3901.1422            0    2615.1536    17.770912    20.931787    21.680472    8064.6359    2062.6853    2542.1513    3240.6242    353.01523    -305.7519   -611.61915   -3149.2422 
 9154000    248.48805   -3920.0824   -3494.1824   -3920.0824            0    944.27874    17.779628    20.942053    21.691105    8076.5077    450.53552    96.530924    2285.7698    1859.7061   -978.73398    981.10916   -3382.9581 
 9155000    253.31705   -3909.9332   -3475.7564   -3909.9332            0   -850.17102    17.871868      21.0507    21.803637    8202.8627   -836.24624    268.55364   -1982.8205    363.12308     648.5152   -67.725128   -3577.4627 
 9156000    235.49653   -3928.5699   -3524.9369   -3928.5699            0    2258.7271    17.885158    21.066353    21.819851    8221.1754    1805.8838    3622.3511    1347.9465    536.71633   -688.89137    1327.1778   -3254.1214 
 9157000    247.94659   -3897.8893   -3472.9173   -3897.8893            0    3702.0119    17.855558    21.031489    21.783739    8180.4253    3917.8801    3974.6061    3213.5494     1243.106    -196.6183   -554.61802   -3031.2558 
 9158000    246.42113   -3899.1818   -3476.8244   -3899.1818            0    3966.2565    17.809146    20.976821    21.727116    8116.8004    3408.8723    4227.5238    4262.3734    1304.1478    128.05685   -918.66349    -3007.318 
 9159000    253.52371   -3909.9695   -3475.4385   -3909.9695            0    1184.2511     17.86323    21.040525    21.793099    8190.9739    2023.3577    503.33421    1026.0614   -35.301536   -482.87842    162.06071   -3333.9715 
 9160000    262.51433   -3878.0817   -3428.1411   -3878.0817            0    2348.0686    17.773095    20.934358    21.683134    8067.6077    4717.3862     1275.692    1051.1277   -27.996449    176.85813    743.17089   -3151.8726 
 9161000    237.38462   -3902.4977   -3495.6286   -3902.4977            0    3377.2506    17.775594    20.937301    21.686183    8071.0106    2512.9805     4509.981    3108.7901   -70.440525     205.0229    666.76387   -3098.1012 
 9162000    240.38041   -3886.9332   -3474.9294   -3886.9332            0    1181.7065    17.821556    20.991439    21.742256    8133.7801    1858.6938    792.38834    894.03742    64.342002   -374.93031   -109.80485    -3334.752 
 9163000    262.42129   -3899.4196   -3449.6385   -3899.4196            0    1282.5291    17.899048    21.082714    21.836796    8240.3446    672.77489    1149.5604     2025.252     3.900236    1625.8951     -188.732    -3295.508 
 9164000    251.60556   -3912.7494   -3481.5061   -3912.7494            0    2313.0209    17.791784    20.956371    21.705935    8093.0847    2601.4199    2692.9302    1644.7127    1300.7343   -34.907495   -540.28112   -3208.5017 
 9165000    252.44008   -3927.3863   -3494.7126   -3927.3863            0    1929.1343     17.82912    21.000348    21.751485    8144.1413    2955.7845    1862.0913     969.5272   -517.02234   -693.78276    425.29314   -3265.5817 
 9166000    254.70946   -3890.7053    -3454.142   -3890.7053            0    2968.4571    17.679217    20.823782    21.568603    7940.4413    4166.0087    2880.3614    1859.0012     -147.179    1114.5808    278.26776   -3110.3852 
 9167000    239.83664   -3918.9894   -3507.9176   -3918.9894            0    1761.4521    17.819099    20.988545    21.739259    8130.4172   -87.985849    1818.7031    3553.6391    364.48693   -259.12108    329.34522   -3299.0555 
 9168000    251.20949   -3871.2395    -3440.675   -3871.2395            0    1780.3796    17.749461    20.906521    21.654301    8035.4665    1469.8615    3110.0402    761.23693    862.17941   -377.02527    1050.8139   -3232.0341 
 9169000    269.85238   -3900.0259   -3437.5081   -3900.0259            0    684.30585     17.86235    21.039489    21.792026    8189.7641    1315.8476    1055.2653    -318.1953   -412.85003   -716.38555   -145.09291   -3355.7751 
 9170000    253.91097   -3909.0463   -3473.8516   -3909.0463            0    3913.8204    17.780747    20.943371     21.69247    8078.0323    3861.2738    3160.3243    4719.8631   -436.79159    -888.3076    898.61981   -3012.7651 
 9171000    245.28208    -3896.279   -3475.8739    -3896.279            0    1569.7836    17.844081    21.017971    21.769738    8164.6613     3500.744    370.82519    837.78154   -1402.0888    511.31621    612.22004   -3288.9548 
 9172000     244.6271   -3901.4692   -3482.1867   -3901.4692            0    2150.2381    17.850656    21.025715    21.777759    8173.6895    2680.2889    1881.7688    1888.6567   -98.705483    -452.5822   -347.13113   -3225.8678 
 9173000    258.24081   -3932.5396   -3489.9236   -3932.5396            0    1535.9276    17.841116    21.014478     21.76612    8160.5921    1886.4069    1781.3014    940.07451    536.45829   -664.47367   -540.64475    -3307.127 
 9174000    242.02742     -3926.71   -3511.8833     -3926.71            0    789.84929    17.855257    21.031134    21.783372    8180.0112     1055.415     133.3066    1180.8263    211.13187   -183.06721   -247.79679   -3417.6566 
 9175000    262.88044   -3903.0635   -3452.4954   -3903.0635            0    1232.1019    17.872768     21.05176    21.804735     8204.102    2657.2454    996.56942    42.491044    306.57779   -686.14931   -37.482888   -3305.0764 
 9176000    247.12988   -3907.0972    -3483.525   -3907.0972            0    1420.6018    17.794024     20.95901    21.708668    8096.1425    524.31191    1861.0524    1876.4412    236.44562   -575.87402    244.07754    -3315.789 
 9177000    250.71213   -3879.1021   -3449.3901   -3879.1021            0   -360.92813    17.954684    21.148246    21.904673    8317.4249   -159.61115   -770.72176   -152.45147   -886.71759   -860.19887    675.67943   -3493.1711 
 9178000    262.25754   -3902.4998   -3452.9994   -3902.4998            0    1137.8119    17.846164    21.020424    21.772278    8167.5202    1662.2452    294.41743    1456.7731    -919.2408    750.73337   -142.07751    -3317.469 
 9179000    239.95871   -3892.1759   -3480.8949   -3892.1759            0    412.74544    17.910813    21.096572     21.85115    8256.6047    688.83733    273.42672    275.97227   -1088.6032   -904.84254    407.51092   -3431.1945 
 9180000    255.94488   -3919.6608     -3480.98   -3919.6608            0    746.12924    17.862127    21.039226    21.791753    8189.4565    1550.5631    999.71439   -311.88973    -373.8695    53.261675    446.03483   -3391.8662 
 9181000    267.88325   -3933.4481   -3474.3054   -3933.4481            0    3505.8326    17.774089    20.935529    21.684347    8068.9613    3097.9599    2156.9467    5262.5914    401.53997    1711.5833   -855.21928   -3061.7477 
 9182000    264.28119   -3912.4335   -3459.4646   -3912.4335            0    2211.7456    17.829121    21.000349    21.751486    8144.1426    3265.9568    1327.7006    2041.5793    189.31715   -2384.7633    890.33512   -3196.7668 
 9183000    253.90691   -3956.7002   -3521.5124   -3956.7002            0    2504.8038    17.778976    20.941285    21.690309    8075.6187    346.02093    4320.4433     2847.947   -1151.4527   -531.98117   -734.01885   -3226.5102 
 9184000    261.89942    -3977.918   -3529.0313    -3977.918            0    1889.9194    17.791086    20.955549    21.705083     8092.132    2099.4602    1700.4336    1869.8645   -1083.8104    545.42403    256.25554   -3305.9917 
 9185000    261.06721   -3897.4082    -3449.948   -3897.4082            0    1273.6248    17.803526    20.970202     21.72026    8109.1189    1024.8773    1882.7805    913.21666    1337.9356    354.90106   -144.66782   -3299.3251 
 9186000    261.05459   -3891.4217    -3443.983   -3891.4217            0    1222.4633    17.737266    20.892157    21.639423    8018.9155    2219.9061   -126.26803    1573.7519   -177.74656    74.289789    994.21769   -3301.0188 
 9187000     242.6594    -3895.105   -3479.1951    -3895.105            0   -195.17086    17.852783     21.02822    21.780354    8176.6118   -500.81046    927.90933   -1012.6115    1178.5536    1397.7795    719.39546   -3502.4687 
 9188000     265.5537   -3898.9584   -3443.8084   -3898.9584            0    1818.4632    17.783342    20.946427    21.695635    8081.5694    1934.2887    2327.5795    1193.5213    905.27891    638.33052    783.50155   -3229.4818 
 9189000    244.46378   -3903.2623   -3484.2597   -3903.2623            0    2308.2965    17.729811    20.883376    21.630328    8008.8089    2082.6899    1843.3455    2998.8541    641.12621    173.98476    -74.19424   -3214.6501 
 9190000    260.11275   -3859.5292   -3413.7049   -3859.5292            0     212.7853     17.78515    20.948558    21.697842    8084.0356   -587.35661   -129.40405    1355.1166    662.09553    339.14713   -189.21995    -3388.618 
 9191000    257.43807   -3887.6532   -3446.4131   -3887.6532            0     1204.609    17.816669    20.985683    21.736295    8127.0912    2041.9134   -467.57927    2039.4927   -556.42965    725.64128   -463.38355   -3303.6365 
 9192000    249.75778   -3891.8896   -3463.8133   -3891.8896            0    623.46945    17.821704    20.991613    21.742437    8133.9833    151.96292    570.64649    1147.7989   -888.77178    316.97646   -723.14472   -3389.8538 
 9193000    254.19675   -3916.8497   -3481.1651   -3916.8497            0     1159.034    17.866717    21.044633    21.797354    8195.7726    1565.2814    53.397914    1858.4226    147.97389    320.25174    338.85648   -3342.6294 
 9194000     261.1054   -3911.4871   -3463.9614   -3911.4871            0     1944.746    17.868042    21.046194     21.79897    8197.5958    2320.4863    1694.5185    1819.2331    239.54849    -895.2364     62.51101   -3231.4601 
 9195000    239.16201   -3905.2681   -3495.3526   -3905.2681            0     2909.791    17.726053    20.878949    21.625743    8003.7172    1999.4185    3721.0419    3008.9125   -313.40607   -374.60853   -594.63966   -3155.7043 
 9196000    248.82136   -3884.2892   -3457.8179   -3884.2892            0    1116.3287    17.822372      20.9924    21.743252    8134.8981    1711.7963    328.33113    1308.8587    635.34324   -668.74466   -964.41801   -3325.3776 
 9197000    253.76487   -3914.9613    -3480.017   -3914.9613            0    2949.5023    17.727556     20.88072    21.627577    8005.7535    3728.6564    2888.6931    2231.1574   -918.98887    1044.8918    883.58196   -3135.6458 
 9198000    250.79535   -3900.8265   -3470.9719   -3900.8265            0    474.80459    17.861323     21.03828    21.790773    8188.3516   -199.46577    960.44005    663.43949      22.1328    1013.7978    205.68031   -3414.2713 
 9199000    247.52266    -3871.843   -3447.5976    -3871.843            0    1065.3495    17.829788    21.001136      21.7523    8145.0577    1789.0073    428.62262    978.41874   -311.64896   -604.39659   -813.23803   -3321.0476 
 9200000    251.15159   -3899.2718   -3468.8066   -3899.2718            0    2896.9956     17.81407    20.982622    21.733124    8123.5351    3051.8159    2406.6022    3232.5687    -709.3674    523.75967   -1110.2198   -3125.5896 
 9201000     242.6716   -3873.0484   -3457.1176   -3873.0484            0    1518.3717    17.896286    21.079461    21.833427    8236.5303    1073.6526     2448.998    1032.4645    509.24926   -745.04185    490.19031   -3274.7287 
 9202000    249.04736    -3862.393   -3435.5343    -3862.393            0    278.90314    17.959462    21.153875    21.910502    8324.0674    415.60308   -706.73631    1127.8427   -619.41078   -1016.9959   -450.78669    -3401.676 
 9203000    247.39776    -3913.918   -3489.8867    -3913.918            0    2371.1188    17.728868    20.882265    21.629177    8007.5304    2755.9432    1831.8061    2525.6072   -942.58371    206.35139    31.036408   -3212.9836 
 9204000    245.14619     -3882.28   -3462.1078     -3882.28            0    1200.1041    17.738118     20.89316    21.640463    8020.0713    2404.3579    90.354588       1105.6   -558.75337   -1250.9148   -781.48343   -3321.7382 
 9205000    253.14484    -3920.768   -3486.8864    -3920.768            0    866.90726    17.721291     20.87334    21.619933     7997.268    514.35278    1279.4821    806.88691    543.09171   -603.02912    521.17478   -3385.7773 
 9206000    243.22469   -3879.2238    -3462.345   -3879.2238            0     2005.352    17.724516    20.877139    21.623868     8001.635    996.74844    1062.5762    3956.7314     411.8444    229.32151   -26.684405   -3228.3291 
 9207000    248.61849   -3879.2871   -3453.1635   -3879.2871            0    818.79101    17.794914    20.960058    21.709753    8097.3567    555.86331    2191.3917   -290.88195    635.22175    1167.2295    281.54215   -3356.4711 
 9208000    239.47818   -3857.2768   -3446.8194   -3857.2768            0    1931.0209    17.712931    20.863493    21.609735    7985.9556    1772.2705    2662.1784    1358.6139   -145.23496    633.66307    288.17044   -3221.9192 
 9209000    260.14813    -3917.082    -3471.197    -3917.082            0    1317.0701    17.745317     20.90164    21.649246      8029.84    1567.3437     1411.875    971.99158   -31.435179    -5.755471   -720.29891   -3316.9589 
 9210000    264.12552   -3894.5604   -3441.8584   -3894.5604            0     2468.327    17.744741    20.900961    21.648543    8029.0582    2098.0655    852.04739    4454.8681   -1572.2208   -718.25437    1173.5001   -3152.8282 
 9211000    256.23812   -3896.1578   -3456.9744   -3896.1578            0    3973.2031    17.618071    20.751761    21.494006    7858.3376    4802.1206    3413.7353    3703.7534    794.08498   -258.36516    1307.6769   -3001.6223 
 9212000    253.56796   -3889.1277   -3454.5209   -3889.1277            0    1163.4069    17.810537     20.97846    21.728813    8118.7022    1355.8882    540.10042     1594.232   -505.82741    498.06689   -115.05315   -3316.7701 
 9213000    279.10526    -3919.395   -3441.0181    -3919.395            0    2824.4806    17.771923    20.932978    21.681705     8066.012     2949.175     2512.306    3011.9609    140.74183   -875.79984    74.188004   -3108.7617 
 9214000    253.02433   -3904.5151   -3470.8401   -3904.5151            0    174.53518    17.911742    21.097666    21.852284    8257.8898   -347.43737    1251.3353   -380.29238    251.58207   -1253.2023    731.74738   -3449.8203 
 9215000    236.90977   -3915.2379   -3509.1827   -3915.2379            0    2026.7983    17.817318    20.986447    21.737086    8127.9789    2559.7066    1422.9857    2097.7025   -148.34838    759.19018   -977.31153   -3268.9296 
 9216000    256.67011    -3916.068   -3476.1442    -3916.068            0    1613.4157    17.812908    20.981253    21.731707     8121.946    1514.2656    2155.5289    1170.4525   -189.06884    702.56116   -1091.8561   -3285.0347 
 9217000    252.89738   -3918.7717   -3485.3142   -3918.7717            0    1921.9834    17.829985    21.001367     21.75254    8145.3268     855.6959    1909.7003     3000.554   -207.27658   -889.93762   -302.13037   -3256.9994 
 9218000    261.38799   -3886.4085   -3438.3985   -3886.4085            0    1896.4446    17.855984     21.03199    21.784258    8181.0102    1388.7657    2365.0073    1935.5608    78.310446   -264.28691   -843.44617   -3212.1305 
 9219000    257.41781   -3897.7198   -3456.5144   -3897.7198            0    2645.1244    17.757812    20.916357     21.66449    8046.8144    2642.0761    1918.7181     3374.579    686.37883   -957.54866   -967.40413   -3146.0971 
 9220000    249.10328   -3909.6762   -3482.7217   -3909.6762            0    1543.4172    17.812122    20.980327    21.730747    8120.8703    1711.6866    2612.2688    306.29606    189.88728    850.73675    -185.6137   -3299.9277 
 9221000    254.44504   -3891.9602   -3455.8501   -3891.9602            0    1383.0927    17.729222    20.882682     21.62961    8008.0105    826.14151    1254.1889    2068.9476    -423.9729    -1434.349   -57.646119   -3294.3207 
 9222000    246.85851   -3909.0418   -3485.9348   -3909.0418            0    1058.2798    17.811861     20.98002    21.730429    8120.5135    2704.1415    768.69821   -298.00028   -1236.2235    -576.0601   -49.071656   -3360.6034 
 9223000      251.708   -3928.0732   -3496.6543   -3928.0732            0    1141.4374    17.881096    21.061569    21.814896    8215.5757    1220.1557   -29.469702    2233.6263    701.65768   -811.28529   -175.03924   -3359.8921 
 9224000     255.3573   -3929.8999   -3492.2262   -3929.8999            0    705.26397    17.942793     21.13424    21.890165    8300.9103    572.11042    992.88709    550.79439   -844.98864   -1609.9738   -24.110504   -3406.8468 
 9225000    260.36992   -3956.3816   -3510.1165   -3956.3816            0    1029.6945    17.840892    21.014214    21.765846    8160.2835    341.74249    98.791072      2648.55   -171.13282   -42.081237   -861.31095   -3387.5732 
 9226000    260.57006   -3913.8439   -3467.2357   -3913.8439            0    1391.3805    17.784203    20.947442    21.696686    8082.7431    1381.3226    396.11856    2396.7003    941.05438    734.86437   -183.75196   -3303.2218 
 9227000     258.3743   -3848.6673   -3405.8226   -3848.6673            0   -187.15229    17.945433     21.13735    21.893386    8304.5751   -1581.2876    971.94249    47.888265   -215.79092   -767.28142   -26.323715   -3428.4893 
 9228000    264.12524   -3880.2802   -3427.5785   -3880.2802            0    2151.9456    17.841809    21.015294    21.766965    8161.5424    3738.5486    1211.9435    1505.3445    1019.7329    173.84775   -737.58418   -3171.4374 
 9229000    258.20216   -3908.5132   -3465.9636   -3908.5132            0    1788.5691    17.865484     21.04318    21.795848    8194.0746    1550.1789    1284.9648    2530.5635    769.97238    642.40034   -315.73687   -3252.2257 
 9230000    259.05114   -3899.2957   -3455.2909   -3899.2957            0    454.09877    17.870124    21.048645    21.801509    8200.4607    940.56006   -643.73899    1065.4752    657.34174   -1306.3818   -1663.3213   -3400.9828 
 9231000    263.33481   -3882.5416   -3431.1948   -3882.5416            0    3695.3157    17.721561    20.873658    21.620263    7997.6334      3421.35    3329.4616    4335.1356    54.365049    616.93283    340.79116   -3000.1832 
 9232000    258.79393   -3885.0429    -3441.479   -3885.0429            0    812.87258     17.78561    20.949099    21.698403    8084.6624   -1195.0989    2760.1561    873.56058   -501.23355    104.79684    1024.9338    -3345.636 
 9233000    259.58223   -3903.7717   -3458.8567   -3903.7717            0    3166.3583    17.691108    20.837789    21.583111     7956.475    2985.2454    3602.4643    2911.3653   -1888.8971   -601.26108   -703.01249   -3091.4419 
 9234000    248.88969   -3865.6592   -3439.0708   -3865.6592            0    1900.8234    17.818064    20.987326    21.737997    8129.0006    1722.0032    1620.0712    2360.3957    1659.6338    -24.29872   -397.64493   -3213.7223 
 9235000    247.98533   -3910.7815   -3485.7432   -3910.7815            0    2755.1226    17.853185    21.028694    21.780845    8177.1646    4378.1627    2105.4984    1781.7066    1177.9844    450.60177   -453.94422   -3157.1795 
 9236000    245.94731   -3899.1926   -3477.6473   -3899.1926            0    2200.3724    17.811813    20.979963    21.730371     8120.448    2426.2175    1822.6252    2352.2745   -358.55173     503.8734    435.49929   -3217.0607 
 9237000    257.86906   -3927.1576   -3485.1789   -3927.1576            0    2331.6281    17.862936    21.040179     21.79274    8190.5692    2584.5008    1312.3948    3097.9886    733.65546   -200.07668   -610.84759   -3206.6634 
 9238000     256.7059   -3896.5468   -3456.5617   -3896.5468            0    2124.2524    17.834405    21.006574    21.757933    8151.3864    3859.4868    735.04069    1778.2296   -48.837316    989.84671   -200.10234   -3204.0314 
 9239000    270.07491   -3927.2197   -3464.3205   -3927.2197            0    24.508956    17.833212    21.005169    21.756477    8149.7508   -2552.2278    547.53968     2078.215   -46.257048     325.0081   -177.42415   -3461.4075 
 9240000    270.14176   -3932.1541   -3469.1404   -3932.1541            0    739.83484    17.847525    21.022027    21.773939    8169.3889    36.224116    312.40708    1870.8733    1434.0221   -409.18404   -177.25242   -3380.9949 
 9241000    247.06346   -3893.3976   -3469.9393   -3893.3976            0    2308.6643    17.774262    20.935733    21.684558    8069.1972    1650.2209     2270.533    3005.2391    194.42651   -238.27591   -533.83658   -3198.2534 
 9242000    247.97119   -3897.7226   -3472.7085   -3897.7226            0    1886.9674    17.796469     20.96189    21.711651    8099.4795    825.23385    2605.1117    2230.5566    47.532613   -1147.4306    411.84603    -3249.815 
 9243000    249.82638   -3856.6646   -3428.4707   -3856.6646            0    1812.1809    17.867833    21.045948    21.798715    8197.3085      1694.32    2583.1096    1159.1131     865.3625      418.323    497.85691   -3211.8257 
 9244000    256.95882   -3885.9516   -3445.5329   -3885.9516            0    2909.2814    17.780666    20.943276    21.692372    8077.9227    2630.3591     1181.837     4915.648    544.06072    1030.1665     297.9358   -3102.7957 
 9245000    271.19302   -3896.8163   -3432.0008   -3896.8163            0    2746.6639    17.776269    20.938096    21.687006    8071.9303    3815.1002    288.64673    4136.2447   -248.98693   -139.76421   -1019.6458   -3108.6612 
 9246000    249.30659    -3904.831    -3477.528    -3904.831            0    2153.7807    17.721714    20.873839     21.62045    7997.8414    1212.2906    3375.3402    1873.7112   -524.86131   -427.16384    803.12478   -3226.3103 
 9247000    248.47271   -3898.8392   -3472.9655   -3898.8392            0    1435.5957    17.823361    20.993565    21.744459    8136.2526     152.3107    3263.3366    891.13977    29.678009    125.73028    1166.7045   -3302.6193 
 9248000    265.72524   -3888.0321   -3432.5881   -3888.0321            0    2203.6595    17.788762    20.952812    21.702248    8088.9609    1857.5609    2378.6283    2374.7893    327.30298    954.94237   -161.50543   -3172.6242 
 9249000    251.61569   -3907.3005   -3476.0398   -3907.3005            0    3570.8661     17.71851    20.870064    21.616541    7993.5034    5834.3232    1240.3284    3637.9468    1201.9723   -591.12297   -147.98305   -3059.7587 
 9250000    251.89186   -3852.4843   -3420.7503   -3852.4843            0    2766.0418    17.787622    20.951469    21.700858    8087.4067    2570.7782    1971.0378    3756.3094    250.99019   -1540.5058     557.3259   -3094.5053 
Loop time of 430.116 on 64 procs for 250000 steps with 864 atoms

Performance: 100.438 ns/day, 0.239 hours/ns, 581.239 timesteps/s
99.1% CPU use with 64 MPI tasks x 1 OpenMP threads

MPI task timing breakdown:
Section |  min time  |  avg time  |  max time  |%varavg| %total
---------------------------------------------------------------
Pair    | 20.151     | 23.215     | 26.175     |  26.5 |  5.40
Bond    | 0.26583    | 0.27766    | 0.28892    |   0.9 |  0.06
Kspace  | 195.77     | 203.43     | 211.54     |  26.8 | 47.30
Neigh   | 4.2438     | 5.0247     | 5.8458     |  21.0 |  1.17
Comm    | 85.388     | 94.92      | 103.13     |  48.1 | 22.07
Output  | 1.3433     | 1.3452     | 1.3631     |   0.4 |  0.31
Modify  | 93.304     | 95.77      | 99.718     |  15.5 | 22.27
Other   |            | 6.135      |            |       |  1.43

Nlocal:        13.5000 ave          19 max           7 min
Histogram: 2 2 0 7 8 22 12 5 4 2
Nghost:        2010.56 ave        2066 max        1954 min
Histogram: 3 3 5 6 15 10 9 7 2 4
Neighs:        3816.78 ave        5498 max        2083 min
Histogram: 3 1 8 9 7 15 12 3 4 2

Total # of neighbors = 244274
Ave neighs/atom = 282.72454
Ave special neighs/atom = 2.0000000
Neighbor list builds = 13133
Dangerous builds = 0

unfix		3
unfix		2
unfix		1

write_data	data.final.${pid}
write_data	data.final.0
System init for write_data ...
PPPM initialization ...
  extracting TIP4P info from pair style
  using 12-bit tables for long-range coulomb (../kspace.cpp:340)
  G vector (1/distance) = 0.37195994
  grid = 24 24 25
  stencil order = 5
  estimated absolute RMS force accuracy = 0.0033370097
  estimated relative force accuracy = 1.0049306e-05
  using double precision FFTW3
  3d grid and FFT values/proc = 2730 288
Last active /omp style is kspace_style pppm/tip4p/omp
WARNING: Not all mixed pair coeffs generated from mixing. Use write_data with 'pair ij' option to store all pair coeffs. (../write_data.cpp:312)

write_restart   restart.lmp.${pid}
write_restart   restart.lmp.0
System init for write_restart ...
PPPM initialization ...
  extracting TIP4P info from pair style
  using 12-bit tables for long-range coulomb (../kspace.cpp:340)
  G vector (1/distance) = 0.37195994
  grid = 24 24 25
  stencil order = 5
  estimated absolute RMS force accuracy = 0.0033370097
  estimated relative force accuracy = 1.0049306e-05
  using double precision FFTW3
  3d grid and FFT values/proc = 2730 288
Last active /omp style is kspace_style pppm/tip4p/omp
Total wall time: 0:07:14
