LAMMPS (30 Jul 2021)
  using 1 OpenMP thread(s) per MPI task
package omp 0
using multi-threaded neighbor list subroutines
echo both

include		in.partitions
variable        pid world 0
include		in.temp
variable        temperature equal 269.09
variable	tempDamp equal 100.0
include		in.pressure
variable        pressure equal 11625.0
variable        pressureDamp equal 1000.0 # This is 1 ps
include		in.seed
variable        seed world 745823

units		real
atom_style	full
read_restart	restart.lmp.${pid}
read_restart	restart.lmp.0
Reading restart file ...
  restart file = 30 Jul 2021, LAMMPS = 30 Jul 2021
  restoring atom style full from restart
  orthogonal box = (0.69291000 1.9076877 0.84534858) to (17.514662 21.721490 21.367847)
  4 by 4 by 4 MPI processor grid
  restoring pair style lj/cut/tip4p/long/omp from restart
  restoring bond style harmonic/omp from restart
  restoring angle style harmonic/omp from restart
  864 atoms
  576 bonds
  288 angles
Finding 1-2 1-3 1-4 neighbors ...
  special bond factors lj:    0        0        0       
  special bond factors coul:  0        0        0       
     2 = max # of 1-2 neighbors
     1 = max # of 1-3 neighbors
     1 = max # of 1-4 neighbors
     2 = max # of special neighbors
  special bonds CPU = 1.385 seconds
  read_restart CPU = 1.720 seconds
include 	in.setup
variable	out_freq equal 1000
variable	out_freq2 equal 10000
variable	out_freq3 equal 1000

timestep	2.0

neigh_modify    delay 7 every 1

include		in.tip4p
# This is TIP4P/Ice

# create groups ###
group ox type 2
288 atoms in group ox
group hy type 1
576 atoms in group hy

# set charges - beside manually ###
set group ox charge -1.1794
Setting atom values ...
  288 settings made for charge
set group hy charge 0.5897
Setting atom values ...
  576 settings made for charge

# ### TIP3P Potential Parameters ###
pair_style lj/cut/tip4p/long/omp 2 1 1 1 0.1577 8.5
pair_coeff 1 1*2 0.000 0.000
pair_coeff 2 2 0.21084 3.1668
bond_style  harmonic
bond_coeff  1 450 0.9572
angle_style harmonic
angle_coeff 1 55 104.52
kspace_style pppm/tip4p/omp 1.0e-5
pair_modify tail yes

thermo          ${out_freq}
thermo          1000
thermo_style    custom step temp pe etotal epair emol press lx ly lz vol pxx pyy pzz pxy pxz pyz enthalpy

restart 	${out_freq3} restart.lmp.${pid} restart2.lmp.${pid}
restart 	1000 restart.lmp.${pid} restart2.lmp.${pid}
restart 	1000 restart.lmp.0 restart2.lmp.${pid}
restart 	1000 restart.lmp.0 restart2.lmp.0


include         in.dump
dump            myDump all atom ${out_freq2} dump.water.${pid}
dump            myDump all atom 10000 dump.water.${pid}
dump            myDump all atom 10000 dump.water.0
dump            myDump2 all dcd ${out_freq2} dump.dcd
dump            myDump2 all dcd 10000 dump.dcd
dump_modify     myDump append yes
dump_modify     myDump2 append yes


variable natoms 	equal  "count(all)"                        # NUMBER ATOMS
variable H      	equal  "enthalpy/v_natoms"                 # ENTHALPY-per-atom
variable Vol      	equal  "vol/v_natoms"                 # volume-per-atom
fix AVG all 		ave/time ${out_freq} 1 ${out_freq} v_Vol v_H file vol_enthalpy.dat
fix AVG all 		ave/time 1000 1 ${out_freq} v_Vol v_H file vol_enthalpy.dat
fix AVG all 		ave/time 1000 1 1000 v_Vol v_H file vol_enthalpy.dat


timer           timeout 23:50:00 every 1000
New timer settings: style=normal  mode=nosync  timeout=23:50:00

fix 		1 all shake 1e-6 200 0 b 1 a 1
       0 = # of size 2 clusters
       0 = # of size 3 clusters
       0 = # of size 4 clusters
     288 = # of frozen angles
  find clusters CPU = 0.001 seconds
fix             2 all nph iso ${pressure} ${pressure} ${pressureDamp}
fix             2 all nph iso 11625 ${pressure} ${pressureDamp}
fix             2 all nph iso 11625 11625 ${pressureDamp}
fix             2 all nph iso 11625 11625 1000
fix             3 all temp/csvr ${temperature} ${temperature} ${tempDamp} ${seed}
fix             3 all temp/csvr 269.09 ${temperature} ${tempDamp} ${seed}
fix             3 all temp/csvr 269.09 269.09 ${tempDamp} ${seed}
fix             3 all temp/csvr 269.09 269.09 100 ${seed}
fix             3 all temp/csvr 269.09 269.09 100 745823

run             250000
PPPM initialization ...
  extracting TIP4P info from pair style
  using 12-bit tables for long-range coulomb (../kspace.cpp:340)
  G vector (1/distance) = 0.3750081
  grid = 24 24 24
  stencil order = 5
  estimated absolute RMS force accuracy = 0.0030768678
  estimated relative force accuracy = 9.265896e-06
  using double precision FFTW3
  3d grid and FFT values/proc = 2535 216
Last active /omp style is kspace_style pppm/tip4p/omp
Neighbor list info ...
  update every 1 steps, delay 7 steps, check yes
  max neighbors/atom: 2000, page size: 100000
  master list distance cutoff = 10.8154
  ghost atom cutoff = 10.8154
  binsize = 5.4077, bins = 4 4 4
  1 neighbor lists, perpetual/occasional/extra = 1 0 0
  (1) pair lj/cut/tip4p/long/omp, perpetual
      attributes: half, newton on, omp
      pair build: half/bin/newton/omp
      stencil: half/bin/3d
      bin: standard
Per MPI rank memory allocation (min/avg/max) = 9.239 | 9.241 | 9.243 Mbytes
Step Temp PotEng TotEng E_pair E_mol Press Lx Ly Lz Volume Pxx Pyy Pzz Pxy Pxz Pyz Enthalpy 
30500000    289.98954   -3839.3073   -3342.2751   -3839.3073            0    11206.523    16.821752    19.813802    20.522499    6840.2078    11250.135    12147.655    10221.778   -171.97121    967.88103    597.64937   -2224.3414 
30501000    267.31366   -3822.0234    -3363.857   -3822.0234            0    11213.783     16.84621     19.84261    20.552337    6870.0866    11439.915     9619.508    12581.927    71.761002    146.89143   -1365.6662   -2240.3125 
30502000      270.105   -3842.6435   -3379.6927   -3842.6435            0    10413.966    16.872975    19.874136    20.584991    6902.8845    10627.546    9532.7239    11081.629     445.5613   -598.29745   -644.80205   -2331.3032 
30503000    262.29566   -3824.8559   -3375.2902   -3824.8559            0    9953.1485    16.878076    19.880144    20.591213    6909.1465    12540.305    10065.192    7253.9486    1024.1305    428.48917    781.02339   -2372.3829 
30504000     261.0782   -3852.1455   -3404.6665   -3852.1455            0    11098.449    16.835957    19.830534    20.539829    6857.5508    9997.3553    9894.3521     13403.64     687.7438    790.99218    56.858845   -2294.7067 
30505000    270.77004   -3834.1338   -3370.0433   -3834.1338            0    8106.7312     16.89063    19.894931    20.606529    6924.5754    6638.1024    8447.4615    9234.6296   -864.29109    -1386.189   -382.85369   -2551.3621 
30506000    279.85906   -3833.0419    -3353.373   -3833.0419            0    11002.691    16.777452    19.761622    20.468452    6786.3087    9304.4035    13765.381    9938.2886    935.80166    278.91755   -1095.1691   -2264.4218 
30507000    285.99444     -3841.86   -3351.6753     -3841.86            0    13549.465    16.742685    19.720672    20.426037    6744.2077    12689.062    15285.175    12674.158    289.29181    684.27005    49.970069   -2018.9858 
30508000    276.36517   -3849.8014    -3376.121   -3849.8014            0    11803.072    16.781883    19.766842    20.473859    6791.6875    11808.391    10744.454    12856.372   -323.98335   -155.43698   -831.94325   -2207.0291 
30509000    283.26639   -3828.3369    -3342.828   -3828.3369            0    10566.335    16.787459    19.773409    20.480661    6798.4589    9908.3308    10712.202    11078.473   -816.00064    584.92986   -457.26462   -2295.1912 
30510000    254.71281   -3800.9464   -3364.3773   -3800.9464            0     12208.86    16.758635    19.739458    20.445495    6763.5003    11664.174    12291.348    12671.056   -91.652494    -525.5153   -470.55849   -2160.1111 
30511000     271.4842   -3842.8352   -3377.5206   -3842.8352            0    11828.866    16.747161    19.725943    20.431497    6749.6174    11235.503     13016.69    11234.405    1281.9636   -1442.1948    891.46392   -2213.1314 
30512000    272.97259   -3800.2015   -3332.3358   -3800.2015            0    10689.597    16.810535     19.80059    20.508813     6826.533    10024.524    10657.582    11386.683    1345.6437    295.49433    881.25499   -2268.1012 
30513000    297.29104   -3823.1947    -3313.648   -3823.1947            0    11082.645    16.755472    19.735733    20.441637    6759.6714    9952.0566    12913.912    10381.967    1825.4432    301.74233   -455.70323    -2221.089 
30514000    256.16634   -3816.5241   -3377.4638   -3816.5241            0    12687.772    16.778227    19.762535    20.469398    6787.2489    13491.329    13231.766    11340.222    485.22563   -182.07302   -672.49788   -2121.5638 
30515000    268.72909    -3834.072   -3373.4796    -3834.072            0    13269.405    16.757927    19.738624    20.444632    6762.6429    12862.841    11477.954    15467.422    -297.7006   -247.16001    194.71627   -2064.7684 
30516000    260.07632   -3830.1278   -3384.3659   -3830.1278            0    11173.876     16.80747     19.79698    20.505074    6822.7997    9390.7574    11179.737    12951.134    414.82009    938.58037   -227.64401   -2272.5257 
30517000    266.57791   -3833.8728   -3376.9674   -3833.8728            0    12553.786    16.795509    19.782891    20.490481    6808.2432    10593.765    15008.459    12059.132   -1035.7393    1246.8357   -946.20605   -2130.4864 
30518000    265.43029   -3858.4959   -3403.5575   -3858.4959            0     12214.58    16.758074    19.738797    20.444811    6762.8207     11134.14    12121.347    13388.253    1251.5389    578.63956    915.96816    -2198.848 
30519000    256.73977    -3845.306   -3405.2629    -3845.306            0    8831.9631    16.845907    19.842253    20.551967    6869.7162    6654.2931    8197.4021    11644.194    135.12766   -641.90383    178.96559   -2520.4082 
30520000    259.62534   -3875.1288   -3430.1399   -3875.1288            0    11174.456    16.813738    19.804362    20.512721    6830.4353    9690.0281    13470.443    10362.895    607.09933    450.17562   -2853.2024   -2316.9977 
30521000    273.45012   -3890.4205   -3421.7363   -3890.4205            0    13090.217    16.757997    19.738707    20.444717    6762.7275    12936.406    13796.836    12537.409   -5.9439676   -1678.9288   -820.16836   -2130.6817 
30522000    267.61966   -3831.9533   -3373.2624   -3831.9533            0    10248.305    16.815571    19.806521    20.514957    6832.6695    7764.3248    10398.147    12582.444    2714.5065   -965.43622   -29.652271   -2352.0446 
30523000    256.37822   -3874.2286   -3434.8051   -3874.2286            0    12166.292     16.74564    19.724152    20.429641    6747.7785    14097.422    10816.686    11584.769    1114.0466    419.10493   -887.69181   -2237.5273 
30524000    271.44104   -3817.3227   -3352.0821   -3817.3227            0     11654.29    16.768236    19.750767    20.457209    6775.1314     13760.86    10082.409      11119.6    2576.9161    -1262.733   -1540.0836    -2200.541 
30525000    270.01517    -3850.358   -3387.5613    -3850.358            0    11990.326    16.763267    19.744914    20.451147      6769.11    13749.897    11059.232    11161.849   -72.987566    561.26283    -1200.419     -2203.87 
30526000     273.9129   -3808.6979   -3339.2206   -3808.6979            0    12712.458    16.760406    19.741544    20.447656    6765.6443    13250.805    13475.541    11411.029   -1854.8503   -712.61951   -406.19228   -2084.8826 
30527000    281.76957   -3862.7252   -3379.7818   -3862.7252            0    8671.4736    16.821914    19.813993    20.522696    6840.4052    8422.7196     9525.638    8066.0631   -1757.6538    741.34034   -160.98421    -2514.713 
30528000    263.31276   -3836.6554   -3385.3463   -3836.6554            0    11366.921    16.769362    19.752094    20.458583    6776.4969    10758.913    11410.363    11931.486    739.05581   -346.31851    -1431.343   -2261.9734 
30529000    261.03304   -3841.1073   -3393.7056   -3841.1073            0    9942.4633    16.827715    19.820826    20.529773    6847.4843    10243.863    8352.9419    11230.585   -180.41592    1882.0039    661.26416   -2400.8161 
30530000      278.153   -3821.3797    -3344.635   -3821.3797            0    11387.874    16.861504    19.860624    20.570995    6888.8149    10204.175     12792.89    11166.559    860.90112   -1397.6435   -2037.5317   -2200.5374 
30531000     269.8672   -3793.5407   -3330.9976   -3793.5407            0    13860.564    16.830073    19.823603     20.53265    6850.3629    12816.436    13470.518    15294.738     882.4092   -2706.3446    1818.0191   -1946.2508 
30532000    276.05203   -3830.5563   -3357.4126   -3830.5563            0    12972.482    16.817253    19.808502    20.517009      6834.72    12014.437     14504.54    12398.468     634.3949   -2271.0094   -574.76954   -2064.3496 
30533000    271.54779   -3828.0038   -3362.5802   -3828.0038            0    12121.203    16.770288    19.753185    20.459713    6777.6195    11813.008    11728.985    12821.614    2277.6348    43.119714    248.32621   -2164.4644 
30534000    265.83932   -3858.6412   -3403.0017   -3858.6412            0    9932.0173    16.749851    19.729112    20.434779    6752.8704    9182.1253    9898.3523    10715.574   -1090.2277    -341.2051   -287.55764     -2424.86 
30535000    272.60115   -3886.9902   -3419.7612   -3886.9902            0    10067.563    16.828145    19.821332    20.530297    6848.0088    10438.513    9467.2045     10296.97    775.43243     618.4067    88.013691   -2414.3018 
30536000    268.45546     -3845.52   -3385.3965     -3845.52            0    11985.316    16.770109    19.752973    20.459494    6777.4017    11535.076    12884.737    11536.134   -932.67041   -2096.4615    659.77451   -2200.7505 
30537000    264.37363    -3812.759   -3359.6316    -3812.759            0    12328.572    16.763704    19.745429     20.45168    6769.6395    12819.532     11868.76    12297.424   -1602.9477   -490.98373    1080.9197   -2142.4533 
30538000    278.54274   -3850.6326   -3373.2199   -3850.6326            0    9718.2753    16.797104     19.78477    20.492427    6810.1835    9105.6504    9877.2921    10171.883    664.27968     2086.465   -562.78776   -2408.0053 
30539000    268.07831   -3817.3449   -3357.8678   -3817.3449            0    13394.416    16.761324    19.742625    20.448776    6766.7563    15660.632    15090.233    9432.3828    1347.7604   -1442.2381   -568.19946   -2036.0238 
30540000    266.95227   -3828.5592   -3371.0121   -3828.5592            0     11058.43    16.838252    19.833236    20.542628    6860.3549    12985.659    10295.907    9893.7248    -317.4369    1167.0027    996.56524   -2264.6025 
30541000    268.71989   -3839.9999   -3379.4232   -3839.9999            0    13151.697    16.755847    19.736174    20.442094    6760.1253    13856.477    13161.046    12437.568   -377.03672    43.329316   -73.916409   -2082.8041 
30542000    279.26425   -3893.0697   -3414.4203   -3893.0697            0    10440.151    16.813741    19.804366    20.512724    6830.4391    11361.502    11560.936    8398.0167    2160.0113    215.32623   -768.58961   -2374.4252 
30543000    276.10622    -3862.512   -3389.2754    -3862.512            0    11480.736    16.756693    19.737171    20.443126    6761.1494    11941.533    12922.699    9577.9756   -723.21914   -720.48653    767.77539    -2257.224 
30544000    276.43342   -3852.0013   -3378.2039   -3852.0013            0    10605.154    16.766436    19.748647    20.455013    6772.9501    10313.551    10008.497    11493.413     1580.397   -1387.6677   -656.73892   -2330.6636 
30545000    256.76143   -3871.6657   -3431.5854   -3871.6657            0    11062.472     16.71287    19.685554    20.389663    6708.2422      11330.2    10123.119    11734.097    836.99749    92.522313   -2703.3718   -2349.3125 
30546000    279.33917   -3856.3588    -3377.581   -3856.3588            0    11580.449    16.777494    19.761671    20.468503    6786.3591    11304.831    11792.453    11644.061     959.1118   -2197.9577    584.64976   -2231.4399 
30547000    261.46435    -3833.566    -3385.425    -3833.566            0    12282.163    16.756997    19.737529    20.443498    6761.5177    12824.438    12458.339    11563.714   -1459.5523    1573.3973   -1243.6905   -2174.2833 
30548000    271.31099   -3844.7211   -3379.7034   -3844.7211            0    12473.421    16.765792    19.747888    20.454227    6772.1691    12498.604    12891.317    12030.341   -1671.2035    141.70288   -807.09143   -2147.7643 
30549000    274.30281   -3811.3979   -3341.2523   -3811.3979            0    13708.205    16.738241    19.715437    20.420615    6738.8386    13212.321    15094.648    12817.647   -337.10147    1134.6468   -606.11341   -1994.0229 
30550000    267.99727   -3818.4769   -3359.1388   -3818.4769            0    12554.414    16.694025    19.663356    20.366671    6685.5749    14103.568    10872.455    12687.219    990.88032    112.98932   -1886.4968   -2135.0552 
30551000    267.53146   -3802.0902   -3343.5504   -3802.0902            0    10179.354    16.806009    19.795258    20.503291    6821.0204    10753.769    9757.1425    10027.151    31.718169    914.45695   -2195.2126   -2330.9329 
30552000    267.31741   -3829.5863   -3371.4134   -3829.5863            0    11829.633    16.806811    19.796203     20.50427    6821.9967    11479.639    10645.512    13363.748   -467.19373    2084.9823   -357.85296   -2194.4617 
30553000    267.87323   -3835.9564   -3376.8308   -3835.9564            0    11151.725    16.783584    19.768845    20.475933    6793.7521    10749.742    10298.023    12407.411   -629.61751    1933.0451   -42.066018   -2271.9189 
30554000    277.84534   -3799.5983   -3323.3809   -3799.5983            0    13397.377    16.683939    19.651476    20.354366    6673.4645    10610.491    14944.325    14637.314   -1027.2991    85.042557   -885.84422   -2019.4727 
30555000    261.88455   -3835.9443   -3387.0832   -3835.9443            0    12060.219    16.799023    19.787031    20.494769    6812.5185    9554.6996    12005.622    14620.337    392.82024    705.22824    -42.57565    -2188.857 
30556000    279.61931   -3823.2565   -3343.9986   -3823.2565            0     9196.632    16.862678    19.862008    20.572428    6890.2545    9637.5757    9110.6643     8841.656   -826.84944    49.604878    1607.4364   -2419.8539 
30557000    274.64666   -3825.5709   -3354.8359   -3825.5709            0    12674.857    16.821625    19.813652    20.522343    6840.0524    12038.871    12843.055    13142.647    45.560829    1766.9063    -642.3189   -2090.4537 
30558000    256.22587   -3791.4215   -3352.2591   -3791.4215            0    15274.151     16.73912    19.716473    20.421688    6739.9006    15922.544    13432.683    16467.226    975.38046    491.89403     122.7514   -1850.8935 
30559000    272.59131   -3826.6742    -3359.462   -3826.6742            0    10308.559    16.830657    19.824291    20.533363    6851.0767    10725.989    10358.584    9841.1033   -1862.0732   -735.29484   -174.08531   -2329.4728 
30560000    265.42503   -3880.0054    -3425.076   -3880.0054            0    10724.846    16.831011    19.824707    20.533794     6851.508    11744.281    11780.923    8649.3336    1695.4279    287.52867    1205.6707   -2353.4256 
30561000    249.76019   -3808.0873   -3380.0069   -3808.0873            0    12563.666    16.808981    19.798759    20.506917    6824.6399    10747.329    14211.395    12732.275    726.01069   -326.42899    804.04863   -2129.5405 
30562000    274.08182    -3832.055   -3362.2882    -3832.055            0    10631.845    16.870407     19.87111    20.581857    6899.7322    9258.4901    11704.356    10932.689   -535.09491    178.22564    2719.2597   -2292.4533 
30563000     283.7639   -3846.8586   -3360.4969   -3846.8586            0    11948.312    16.862688    19.862019     20.57244     6890.266    14055.912    10048.637    11740.387   -140.92168   -823.14477    372.33232   -2159.8414 
30564000    260.30422    -3834.523   -3388.3705    -3834.523            0    11755.194     16.83668    19.831385     20.54071     6858.434    14202.124    11338.626     9724.833    62.533619   -2951.4317    1965.1889    -2212.578 
30565000    258.73954   -3835.4528   -3391.9821   -3835.4528            0    10955.956    16.787898    19.773927    20.481197    6798.9927    8815.9101    12794.202    11257.757   -447.20067   -353.47834    852.63017   -2305.6296 
30566000    277.42817   -3824.5249   -3349.0225   -3824.5249            0    10683.824    16.863205    19.862628     20.57307    6890.8996    10021.828    11139.184     10890.46   -913.19247   -1091.1269     814.7719   -2275.3335 
30567000    264.98205    -3853.108   -3398.9379    -3853.108            0    10911.876     16.78806    19.774118    20.481394    6799.1897    11135.929     10509.89    11089.808   -1867.0083   -496.04678    260.10259   -2316.9249 
30568000    274.51873   -3852.4338   -3381.9181   -3852.4338            0    11335.693    16.798759    19.786719    20.494446    6812.1965    12842.682    10137.753    11026.645    -10.99887    -243.9409   -825.40396   -2255.7295 
30569000    259.89766   -3870.2881   -3424.8324   -3870.2881            0    10993.323    16.748507    19.727529     20.43314    6751.2456    10948.207    9799.1205    12232.642   -823.24902    784.37477    549.87346   -2342.4299 
30570000     273.4539   -3865.6741   -3396.9835   -3865.6741            0    11849.167    16.806597    19.795951    20.504009    6821.7367    10716.966    13903.001    10927.534   -1171.2608   -1085.4782    -915.1511   -2218.1332 
30571000    277.34523   -3875.4573    -3400.097   -3875.4573            0    12115.982    16.737533    19.714603    20.419752    6737.9837    11826.088    11371.134    13150.723   -1303.9686    540.30018    458.22461   -2209.5009 
30572000     293.3246   -3841.2983     -3338.55   -3841.2983            0    11786.682    16.787565    19.773534     20.48079    6798.5872    12189.405    10870.184    12300.457   -2339.9948    1332.0866    125.09999   -2169.8955 
30573000    253.81609   -3838.0697   -3403.0376   -3838.0697            0    14580.064    16.764302    19.746134    20.452409    6770.3642    15359.114    15464.725    12916.355   -39.780013   -293.17442   -953.05563   -1963.4193 
30574000    288.19653   -3886.8085   -3392.8495   -3886.8085            0    10527.419    16.772631    19.755944    20.462571    6780.4603    12375.906    10285.919    8920.4307   -1891.7624     -937.258   -27.766256   -2351.8346 
30575000    260.85052    -3841.316   -3394.2271    -3841.316            0    12599.674    16.738955    19.716277    20.421485    6739.7002    11618.237    13585.478    12595.305   -177.32147    1170.8173    9.4019305   -2155.7848 
30576000    258.20282    -3820.017   -3377.4662    -3820.017            0    13429.098    16.787554    19.773521    20.480777    6798.5744    12817.111    15025.254     12444.93    138.32663   -1185.0325      310.283   -2045.9679 
30577000    259.95108   -3849.0755   -3403.5282   -3849.0755            0    11049.651    16.800352    19.788595     20.49639    6814.1347    11606.508    10596.567     10945.88    -144.6674    311.06942   -905.57489   -2305.4452 
30578000    280.68202   -3826.3795   -3345.3001   -3826.3795            0    9727.7401    16.849724    19.846749    20.556624    6874.3868    10384.546    10798.018    8000.6562   -89.188368   -1069.3679    202.44031    -2370.037 
30579000    263.10097   -3836.4269   -3385.4809   -3836.4269            0    12305.865    16.762609    19.744139    20.450344     6768.313    12289.638    13014.414    11613.544    849.18259   -1482.1094    831.40663   -2170.7824 
30580000     280.7425   -3806.0799   -3324.8968   -3806.0799            0    12601.767    16.785888    19.771558    20.478744    6796.5502    13695.872    12021.461    12087.969    1267.3511    843.45165    52.966221   -2075.8006 
30581000    267.18788   -3842.7554   -3384.8045   -3842.7554            0    11815.885    16.835286    19.829743    20.539009    6856.7302    13116.338    11122.831    11208.488    1328.8152   -964.04738    416.66174   -2203.2351 
30582000    263.87446   -3861.0448    -3408.773   -3861.0448            0    11496.523    16.811064    19.801213    20.509459    6827.1772    12199.839    11960.867    10328.863    159.61665   -345.84466   -260.71813   -2264.0944 
30583000    244.10909   -3793.0619   -3374.6672   -3793.0619            0    12601.796    16.795277    19.782618    20.490199    6807.9623    15387.365    10658.356    11759.666   -842.73996    1513.5152   -125.24319   -2123.4709 
30584000    288.08121   -3826.4291   -3332.6677   -3826.4291            0    8597.6937    16.882657     19.88554    20.596803    6914.7744    8861.6266    7382.4714    9548.9831   -421.28661   -65.427246    1170.7654   -2465.6342 
30585000    283.98096   -3871.8249   -3385.0913   -3871.8249            0    11852.557    16.803863    19.792732    20.500674    6818.4086    12733.671    12115.264    10708.736    787.06794   -505.56169    1461.5837    -2206.479 
30586000    263.87171     -3848.34    -3396.073     -3848.34            0    10476.935    16.845014    19.841202    20.550878    6868.6242    13183.603    9260.9612    8986.2401   -35.252255    1365.5387   -798.45862   -2346.5792 
30587000    266.89901   -3855.9498    -3398.494   -3855.9498            0    11617.869    16.806405    19.795725    20.503774    6821.5024    12907.064    11334.199    10612.345    980.33592    130.24068    210.95989   -2242.6948 
30588000    274.48789   -3815.1499   -3344.6871   -3815.1499            0    14530.534    16.787146    19.773041    20.480279    6798.0789    16037.481     14285.27     13268.85    292.94464    130.51654   -537.60987   -1904.0863 
30589000    263.24275   -3867.2382   -3416.0492   -3867.2382            0    13297.889     16.76446     19.74632    20.452602    6770.5556      13629.4    11969.413    14294.852   -46.857946    -1040.299     1390.103   -2102.9943 
30590000    268.27415   -3856.1856   -3396.3729   -3856.1856            0    11248.083    16.779159    19.763633    20.470535    6788.3802    11462.603    11805.434    10476.211    82.874482   -62.114068    355.70041   -2282.7951 
30591000    265.94975    -3852.742   -3396.9132    -3852.742            0    10293.655    16.774935    19.758658    20.465382    6783.2548     10147.54    9663.3484    11070.077    1855.7039   -903.35023   -270.44869   -2378.5947 
30592000     258.2162   -3790.5116   -3347.9378   -3790.5116            0    14130.694    16.775625    19.759471    20.466224    6784.0922    14225.243    14654.173    13512.666    332.46101   -305.74558   -1312.5721   -1949.8607 
30593000    275.02015   -3865.8553   -3394.4802   -3865.8553            0    11503.381    16.739063    19.716405    20.421617    6739.8309    13458.147    10132.727    10919.267   -1705.2649    60.800063   -1404.1338   -2263.7724 
30594000    250.62302   -3795.8829   -3366.3237   -3795.8829            0     13897.66    16.766445    19.748658    20.455024    6772.9612    13614.395    16327.166     11751.42    168.45376    1392.5236   -201.49213   -1993.5587 
30595000    263.56275   -3822.0395    -3370.302   -3822.0395            0    14089.257    16.751703    19.731293    20.437038    6755.1107    14591.066     14121.71    13554.994   -490.04598   -1395.5526    183.87828   -1982.2797 
30596000    266.86086   -3823.8799   -3366.4896   -3823.8799            0    11097.726    16.792455    19.779294    20.486756    6804.5303     12533.42    8305.9351    12453.824    326.94118   -959.54217   -263.00871   -2265.1834 
30597000    265.87179   -3837.7912   -3382.0961   -3837.7912            0    11310.888    16.857307    19.855681    20.565875    6883.6724     11927.32    11363.989    10641.354    495.58532    1541.6621    1258.5589   -2246.5813 
30598000    256.07874    -3849.536   -3410.6258    -3849.536            0    11446.357     16.81416     19.80486    20.513236    6830.9503    10662.797    12032.441    11643.832    864.39835   -1937.9204    242.70019   -2270.3122 
30599000    279.21729    -3856.644   -3378.0751    -3856.644            0    10983.054    16.787425     19.77337     20.48062    6798.4183    12163.371    9981.0043    10804.786    788.12009    244.44031     303.3743   -2289.1278 
30600000    258.90051   -3839.1539   -3395.4073   -3839.1539            0    11682.605    16.788112    19.774178    20.481457    6799.2522    11764.534    11152.289    12130.994    -1985.587   -480.80159   -1091.5523   -2236.9588 
30601000    271.10184   -3879.9443    -3415.285   -3879.9443            0    11945.023    16.800479    19.788745    20.496545    6814.2895    11320.983    11742.837    12771.248    364.49001   -375.31191     227.9634   -2228.1956 
30602000    282.36006   -3850.2286   -3366.2731   -3850.2286            0    10070.205    16.816936    19.808129    20.516623    6834.3341    8866.4493    9861.3743    11482.791   -787.34962   -1081.2634   -64.747268   -2362.5581 
30603000    264.83706   -3816.3912   -3362.4696   -3816.3912            0    13180.632    16.743774    19.721955    20.427366    6745.5239    14258.197    13557.601    11726.099   -1060.9433    472.05951    1007.4533   -2065.8044 
30604000    271.10272   -3849.6962   -3385.0354   -3849.6962            0    10486.959     16.75904    19.739936     20.44599    6763.9911    9033.0398    13066.736    9361.0995     563.9757   -35.837632    -1501.701   -2350.5402 
30605000    268.38006   -3843.5842   -3383.5899   -3843.5842            0    10655.162    16.810696     19.80078     20.50901    6826.7293     9135.963    11758.792    11070.731   -1507.4084    603.54081   -371.75272    -2322.753 
30606000    249.76148   -3858.6376    -3430.555   -3858.6376            0    10016.934    16.879256    19.881534    20.592652    6910.5953    9904.2123     10438.86    9707.7288   -1259.2051   -745.88665      390.039   -2421.0089 
30607000    266.99765   -3884.0208    -3426.396   -3884.0208            0    10855.824    16.816286    19.807364     20.51583    6833.5416     10852.58    9855.8017    11859.092    403.56881   -653.03896   -1500.3183   -2344.5024 
30608000    281.59176   -3849.9492   -3367.3106   -3849.9492            0    9660.1959    16.861255    19.860331    20.570692      6888.51    11596.698    8044.7971    9339.0928   -210.34229    879.30002    1055.6878   -2396.8294 
30609000    271.98815   -3834.9356   -3368.7573   -3834.9356            0    9124.2937    16.890593    19.894887    20.606484    6924.5296     9330.703    7231.7931    10810.385     829.7242    1394.6902    920.97157   -2447.3207 
30610000    275.82642   -3861.1866   -3388.4296   -3861.1866            0    10338.253    16.807047    19.796482    20.504558     6822.285    10603.317    9723.6879    10687.754     166.5886    111.11118   -1601.5563   -2359.8144 
30611000    267.21253   -3822.1227   -3364.1296   -3822.1227            0    11099.298    16.846824    19.843333    20.553086    6870.8378    10316.491     11263.54    11717.864   -244.96323    1949.8722     576.6648   -2251.9342 
30612000    258.77313   -3830.2916   -3386.7634   -3830.2916            0    12364.499    16.818363     19.80981    20.518364    6836.0744    13837.229    12551.897    10704.373   -2986.4771     266.7323    373.89317   -2154.0582 
30613000    273.25742    -3838.938   -3370.5841    -3838.938            0    13482.054    16.703777    19.674843    20.378569    6697.2988    13488.638    13327.832    13629.694   -1022.8889   -184.48206    1507.2693   -2053.7483 
30614000    271.46167   -3798.4945   -3333.2185   -3798.4945            0    11965.101     16.79226    19.779064    20.486518    6804.2933    11781.719     12456.55    11657.034    1742.6319    308.81034    -1777.221    -2145.878 
30615000    288.02637   -3833.4457   -3339.7784   -3833.4457            0    12037.047    16.808129    19.797756    20.505878    6823.6026     11519.63    12152.315    12439.197    380.26208    1588.9456    225.09794   -2141.9087 
30616000    269.58248   -3870.6376   -3408.5824   -3870.6376            0    11581.311    16.743862    19.722058    20.427473    6745.6299    10667.432    11120.487    12956.014    647.62172   -663.53558    173.75128   -2269.2351 
30617000    263.75809   -3877.6603   -3425.5879   -3877.6603            0    10511.631    16.765343     19.74736     20.45368    6771.6256    11170.598      9880.23    10484.064     658.0334    1447.9642    785.38802   -2387.4886 
30618000    267.33964   -3851.3737   -3393.1627   -3851.3737            0    11159.955     16.75873     19.73957    20.445612    6763.6156    11425.288    11288.599    10765.977    2105.7228   -1048.2615    773.72251   -2292.3404 
30619000    282.25769   -3850.8514   -3367.0714   -3850.8514            0    14805.497    16.726797    19.701957    20.406653    6725.0253    12645.831    15390.504    16380.156   -1.6891079    1812.8947   -1677.4561   -1914.9839 
30620000    269.51542   -3865.4809   -3403.5407   -3865.4809            0    11742.371    16.771279    19.754352    20.460921    6778.8208    11970.632    11495.981    11760.499    -446.2335   -474.93484    336.22019   -2242.6647 
30621000    263.04041   -3864.1717   -3413.3295   -3864.1717            0     9138.201     16.86452    19.864177    20.574676    6892.5128     8019.103     8220.807    11174.693    834.20149    77.725718   -607.50907   -2494.7554 
30622000    274.70778   -3809.5811   -3338.7414   -3809.5811            0    14621.345    16.724228    19.698932     20.40352     6721.928    14046.581    14928.532    14888.922    381.96997   -270.00379    -1110.927   -1905.3755 
30623000    254.27566   -3862.7664   -3426.9466   -3862.7664            0    11737.072    16.769225    19.751932    20.458415    6776.3301    10730.337    12410.474    12070.403    931.15887    764.69534    673.99416   -2267.0209 
30624000    263.83253   -3822.7628   -3370.5629   -3822.7628            0    10033.431    16.820491    19.812317     20.52096    6838.6692    10456.143    10526.742    9117.4086    276.08833    1036.2725   -11.714243   -2369.8789 
30625000    281.44172   -3820.3974   -3338.0159   -3820.3974            0     11243.47    16.833898    19.828108    20.537316    6855.0349    10745.597    13324.474    9660.3379    635.67341     824.0404   -1031.3412   -2213.9652 
30626000     274.1504   -3847.4007   -3377.5163   -3847.4007            0    11214.291    16.797937    19.785751    20.493444    6811.1974    10889.319    11455.411    11298.142    1667.8549   -1080.2109    79.869076   -2263.5523 
30627000    272.88609   -3830.0625    -3362.345   -3830.0625            0    12796.543    16.781808    19.766753    20.473767    6791.5959     11949.33    12263.075    14177.224    601.74045    680.43149    -84.25938   -2094.8672 
30628000     274.3572   -3845.1633   -3374.9244   -3845.1633            0    10252.519    16.875742    19.877395    20.588366    6906.2806    9767.5803     8256.294    12733.682   -490.75739    646.54942   -1162.3134   -2342.2803 
30629000    279.31148   -3818.5871   -3339.8568   -3818.5871            0    13129.076    16.775265    19.759047    20.465785    6783.6555    12778.934    12206.374    14401.919   -577.87934   -983.52865    111.18323   -2040.9625 
30630000    253.84656   -3831.4705   -3396.3862   -3831.4705            0    10859.623    16.811559    19.801796    20.510063    6827.7811    9163.9685     10936.77    12478.129     653.5762    -803.0748    329.81455   -2315.0264 
30631000    266.00632    -3863.875   -3407.9493    -3863.875            0    12642.654    16.745704    19.724227    20.429719    6747.8557    12126.224    15105.455    10696.284   -155.18799    2479.0748    2462.5939   -2163.7787 
30632000    255.24157   -3781.6755   -3344.2002   -3781.6755            0    10095.737     16.85803    19.856532    20.566757    6884.5575    8872.2467    11934.466    9480.4991   -245.99513   -931.81256    909.75537   -2330.5456 
30633000    269.79018   -3833.3132    -3370.902   -3833.3132            0    9799.1808    16.816923    19.808114    20.516607     6834.318    9634.5874    9834.8249    9928.1299    1419.4021    528.38272   -237.25355   -2394.2028 
30634000    268.52543    -3853.218   -3392.9746    -3853.218            0    10439.483    16.761383    19.742695    20.448848    6766.8276     9588.447    11088.549    10641.453   -968.35249    1274.2782    434.48536   -2362.7308 
30635000    264.14076   -3856.5214   -3403.7932   -3856.5214            0    10810.976    16.850384    19.847527    20.557429    6875.1947     11527.67    10415.804    10489.454   -605.92926    -1772.305   -629.25704   -2319.8019 
30636000    269.70202   -3840.6139   -3378.3539   -3840.6139            0    11676.066    16.832416    19.826363    20.535508    6853.2246    10906.743    11157.361    12964.092    2356.3471    193.55682    -704.6744   -2211.3632 
30637000    264.37041   -3851.0296   -3397.9078   -3851.0296            0    12822.009    16.821264    19.813227    20.521903    6839.6123    14329.758    13865.176    10271.094    87.714179    1309.4208   -610.08184   -2118.9286 
30638000    270.56419   -3827.7407   -3364.0029   -3827.7407            0    11547.256    16.815321    19.806227    20.514653    6832.3656    9979.0578     11556.23     13106.48   0.16337348   -1595.9106   -896.70601   -2213.3992 
30639000    239.78097   -3843.0976   -3432.1212   -3843.0976            0    11255.093    16.847244    19.843828    20.553598    6871.3516    10087.127    11582.996    12095.154    1277.1878    577.78695   -941.55729   -2304.2302 
30640000    266.71567   -3842.7651   -3385.6235   -3842.7651            0    10328.542    16.778333     19.76266    20.469527    6787.3772    12229.207     9229.039    9527.3809   -1357.8006   -416.08113    -297.6037   -2363.2328 
30641000    258.69924    -3875.156   -3431.7543    -3875.156            0    12230.759    16.760611    19.741786    20.447906    6765.8929    11605.995    12981.908    12104.375    -924.1641   -748.25892   -180.79407   -2224.9012 
30642000    249.63769   -3848.1466   -3420.2761   -3848.1466            0    9581.2127    16.812564    19.802979    20.511289    6829.0049    10224.695    11253.212    7265.7304   -1660.7683   -1282.9145   -776.76222   -2466.0445 
30643000    266.08225   -3868.2319    -3412.176   -3868.2319            0    9950.0792    16.813489    19.804069    20.512417     6830.132    10248.631     10735.85    8865.7562    -712.3497     517.8191   -1662.0496    -2421.044 
30644000    269.49501   -3880.8075   -3418.9023   -3880.8075            0    12475.346    16.796018     19.78349    20.491103    6808.8627    14904.906    14438.752    8082.3807    -593.0235    506.66641   -427.39968    -2180.097 
30645000    287.13574   -3858.8946   -3366.7538   -3858.8946            0    13743.638    16.752233    19.731917    20.437685    6755.7518    12994.716     13024.88     15211.32   -994.17896    24.085579    1535.4782   -2012.6521 
30646000    258.54869   -3840.5801   -3397.4365   -3840.5801            0    10661.264    16.820577    19.812418    20.521065    6838.7742    8805.7126    11231.749    11946.331     1094.499    437.97486    -839.3144   -2334.1192 
30647000     247.4077    -3844.713   -3420.6647    -3844.713            0    12948.243    16.725435    19.700353    20.404991    6723.3827    12704.455    12679.456    13460.819   -1739.3549    258.79769    1311.0814   -2151.0423 
30648000    265.04971    -3876.547   -3422.2609    -3876.547            0    12527.837    16.707407    19.679119    20.382998    6701.6655    11877.661    13044.411    12661.439    355.19584   -2728.8345    158.96037   -2197.8287 
30649000    284.52935   -3837.2951   -3349.6215   -3837.2951            0    12250.725    16.841194    19.836702    20.546217    6863.9516    11737.485     14160.05     10854.64   -1422.5071   -1038.8125     461.7781   -2123.2787 
30650000    267.31082   -3891.4523   -3433.2907   -3891.4523            0    10882.501     16.82234    19.814494    20.523215    6840.9245    11901.992    11476.258    9269.2543     1339.799   -182.26272    327.30047   -2347.5668 
30651000    263.54118   -3855.1666   -3403.4661   -3855.1666            0     11154.69    16.834201    19.828466    20.537686    6855.4054    11523.004    10534.485     11406.58    945.70598    2161.4842   -466.52454   -2288.2307 
30652000    246.09517   -3840.0203   -3418.2216   -3840.0203            0    11212.146    16.796202    19.783708    20.491327    6809.0868    12683.863    10122.051    10830.525    -1494.438     359.6679   -654.10477   -2304.8158 
30653000    265.04012   -3816.0845   -3361.8148   -3816.0845            0    12185.523    16.754399    19.734469    20.440328     6758.373    12647.901    11392.619    12516.049     1764.735    571.08155    2379.4039   -2160.7617 
30654000     261.7804   -3866.7533   -3418.0706   -3866.7533            0    11643.833    16.739476    19.716892    20.422122    6740.3306    11075.804    12568.164    11287.531   -317.88365    439.75475    1660.8595   -2273.4725 
30655000    273.80203   -3871.3508   -3402.0635   -3871.3508            0    12104.986    16.691802    19.660738     20.36396    6682.9048    10829.293    13565.811    11919.854   -247.27606    2117.3576   -1180.2073   -2222.2715 
30656000    246.86552   -3874.3972   -3451.2781   -3874.3972            0     12320.55    16.781898     19.76686    20.473877    6791.7056    12191.982     11979.63    12790.037    271.64938    1894.6241    1360.5478   -2230.9269 
30657000    268.02048   -3877.3575   -3417.9795   -3877.3575            0     10104.08    16.817014    19.808221    20.516718    6834.4291    8695.5495    11486.703    10129.988     -1021.45   -467.86818    1007.3819   -2410.8742 
30658000    264.92177   -3860.1566   -3406.0898   -3860.1566            0    11113.714    16.773392     19.75684    20.463499    6781.3826    10832.585    9635.8194    12872.737    1266.5334    48.998651     314.5879   -2306.9489 
30659000    257.75844   -3834.8179   -3393.0287   -3834.8179            0    11830.492     16.77372    19.757227      20.4639    6781.7813    12923.249    9832.4639    12735.763   -1019.1131   -1387.8409    916.80732   -2222.9301 
30660000    274.40876   -3810.6299   -3340.3027   -3810.6299            0    11698.803    16.765234    19.747231    20.453547    6771.4934    12748.185    11756.796    10591.427   -2218.8584    260.57884    843.24206   -2184.9841 
30661000    258.92308   -3865.9352   -3422.1499   -3865.9352            0    12613.471    16.765527    19.747576    20.453904    6771.8483     12118.35    12267.576    13454.485   -294.77543   -2519.0786   -2043.8997   -2176.4377 
30662000     270.1055   -3848.6936    -3385.742   -3848.6936            0    11560.216    16.749828    19.729085    20.434751     6752.843    12266.398    10534.729    11879.521    601.96528    876.78523   -308.33735   -2247.2539 
30663000    271.15757    -3858.611   -3393.8562    -3858.611            0    12007.946    16.764939    19.746884    20.453187     6771.136    12707.558    14836.206    8480.0731   -496.42742   -348.92585   -341.20047   -2208.0707 
30664000    274.37353   -3889.5033   -3419.2365   -3889.5033            0    11199.746    16.778991    19.763436     20.47033    6788.1768    10315.414    11263.813    12020.011   -552.35275   -10.409436    70.371863   -2310.4774 
30665000    254.02947   -3840.7052   -3405.3073   -3840.7052            0    11001.354    16.779937    19.764549    20.471484    6789.3243    10315.069    11808.816    10880.177    -548.7076   -528.99144   -734.44859   -2316.0046 
30666000    271.73592    -3848.679   -3382.9329    -3848.679            0    11011.726    16.789422    19.775721    20.483056    6800.8442    10244.562    10565.043    12225.572   -387.55496   -78.169323   -762.19331   -2290.7532 
30667000    250.09499   -3859.6207   -3430.9665   -3859.6207            0    9818.0909      16.8112    19.801372    20.509624    6827.3426    9600.5005    9697.3716    10156.401   -1151.9117    374.71009     879.9698   -2453.3812 
30668000    282.47822   -3823.4358   -3339.2778   -3823.4358            0    12368.629    16.767286    19.749648     20.45605    6773.9801    12642.482    10067.934    14395.471    602.54893   -268.37651     428.1475   -2117.3617 
30669000    279.52795   -3835.4583   -3356.3569   -3835.4583            0    12655.187    16.832653    19.826642    20.535798    6853.5144    12864.988    11906.485    13194.087    42.431399    631.39097    385.34625   -2091.4523 
30670000    264.70459   -3818.6529   -3364.9583   -3818.6529            0    12398.754    16.771252    19.754319    20.460888    6778.7876     11280.48     12429.21    13486.571   -587.71803    185.34123   -163.91221   -2139.1968 
30671000    276.68353     -3840.27   -3366.0439     -3840.27            0    11417.274    16.751918    19.731547    20.437301     6755.371    12389.967    9383.1233    12478.731    23.991747   -372.41585   -505.62022   -2241.2123 
30672000    275.77242   -3846.5543   -3373.8898   -3846.5543            0    12634.595    16.715696    19.688881     20.39311    6711.6446    13318.057    11155.354    13430.374   -547.14617   -1122.9613   -80.115229   -2137.1847 
30673000    265.31789   -3850.4029   -3395.6571   -3850.4029            0    12264.421    16.800165    19.788375    20.496162    6813.9076    10009.631    12802.871    13980.762     12.93295    228.36411    888.89753   -2176.8943 
30674000    268.49272   -3878.0636   -3417.8763   -3878.0636            0    10856.363    16.807708     19.79726    20.505365      6823.09     11759.28    9658.1969    11151.612    1037.3526    621.63415    2071.9756   -2337.5838 
30675000    278.87195   -3834.3522   -3356.3752   -3834.3522            0    14389.282    16.730683    19.706535    20.411394     6729.714     14905.17    15359.877    12902.798   -593.12255   -1085.9823    524.59788   -1944.1251 
30676000    268.04396   -3852.5288   -3393.1106   -3852.5288            0    14100.758    16.759503    19.740481    20.446555    6764.5515     12179.37    15512.656     14610.25    902.52516   -2303.7512    713.46211   -2002.0138 
30677000    272.46221   -3858.6217   -3391.6308   -3858.6217            0    11548.422    16.848581    19.845403     20.55523    6872.9885     11120.44    11487.807     12037.02   -994.78989    877.11381    529.19284    -2234.069 
30678000    277.98579    -3866.395   -3389.9368    -3866.395            0    12506.131    16.776244      19.7602    20.466979     6784.843    12509.113    13978.316    11030.963    625.80342    2099.4197   -516.16774   -2152.4555 
30679000    251.85568   -3833.2171   -3401.5451   -3833.2171            0    11170.951    16.789171    19.775426     20.48275    6800.5396    10150.703    11872.179    11489.971   -362.46684   -81.021355    1117.1725   -2293.6225 
30680000    259.02856   -3858.4489   -3414.4828   -3858.4489            0    11758.613    16.815818    19.806812    20.515259    6832.9712    10004.295    14062.307    11209.239   -417.01205   -1163.1151    758.30907   -2242.7149 
30681000    283.37019   -3868.2943   -3382.6075   -3868.2943            0    11642.432    16.766563    19.748797    20.455168    6773.1041    10497.082    11480.414    12949.799   -1511.7534   -84.294059   -2118.2287   -2232.5823 
30682000    280.69309   -3807.3168   -3326.2185   -3807.3168            0    12865.982    16.742975    19.721013     20.42639    6744.5573    13030.689    12171.497    13395.761    890.24366   -945.06208   -1282.6658   -2060.6889 
30683000    261.44662   -3844.2853   -3396.1747   -3844.2853            0    12576.449    16.834189    19.828452    20.537672    6855.3908    14307.134    12958.997    10463.217   -1308.0954    1477.8035    277.47234   -2138.7959 
30684000    261.52291   -3813.8864   -3365.6451   -3813.8864            0    11118.437    16.828105    19.821285    20.530249    6847.9603    9139.4827    11125.818    13090.011   -213.11674   -1297.9561    1043.0157   -2255.2415 
30685000    277.45706    -3798.454   -3322.9021    -3798.454            0    14153.898    16.837799    19.832703    20.542075    6859.8013     13954.24    15593.996    12913.457   -720.98601     989.2864    273.32781   -1906.9013 
30686000    270.89633   -3812.1323   -3347.8253   -3812.1323            0    11298.781    16.916125    19.924961    20.637633    6955.9787    11341.472    11432.048    11122.824    778.16731    1062.3919   -2181.7864   -2201.6112 
30687000    264.75996   -3831.2707   -3377.4812   -3831.2707            0     13535.34    16.769862    19.752682    20.459192    6777.1023    13322.382    15340.087    11943.552    3172.9949   -356.47162   -350.99389   -2039.6876 
30688000    274.55408    -3816.737   -3346.1607    -3816.737            0    9358.0336    16.892512    19.897147    20.608825    6926.8895    7780.7726     10358.41    9934.9183   -1605.5875   -534.60289    356.80485   -2400.7974 
30689000     255.4046   -3826.9583   -3389.2035   -3826.9583            0    12518.252    16.787071    19.772952    20.480187    6797.9875    12988.534    13358.121    11208.101    419.87496   -312.40489   -567.66753   -2148.1231 
30690000    275.44813   -3795.9413   -3323.8327   -3795.9413            0    9374.5952    16.896194    19.901485    20.613317    6931.4204    8560.7719    8840.8103    10722.203   -632.39201   -1097.0717    -463.2906   -2376.1768 
30691000    266.85191   -3811.5145   -3354.1395   -3811.5145            0    12953.491    16.855134    19.853121    20.563224      6881.01    10731.528    14936.887    13192.057    1036.2268     1080.447   -936.65054   -2054.2247 
30692000    276.64769   -3821.8025   -3347.6378   -3821.8025            0    10661.199    16.824223    19.816712    20.525513     6843.222    10903.141    9055.5407    12024.916   -96.400333   -40.893006   -799.99968   -2283.6355 
30693000    276.81961   -3813.2717   -3338.8124   -3813.2717            0    10854.071    16.783328    19.768544    20.475621    6793.4419    13223.719    9145.9946      10192.5    132.45453    1117.6932    785.14364   -2263.4411 
30694000    283.30812    -3803.589   -3318.0086    -3803.589            0    10486.186    16.843243    19.839115    20.548717    6866.4574    12100.056    8046.4357    11312.068   -564.53426   -720.92148   -347.90284   -2267.9194 
30695000    268.34919   -3808.0036   -3348.0623   -3808.0036            0    11509.945    16.809062    19.798855    20.507016    6824.7386    12859.282     9700.188    11970.364    1259.0855    2518.3972   -1646.9217   -2202.4566 
30696000    258.20851   -3810.2262   -3367.6657   -3810.2262            0    9435.3678    16.844205    19.840249    20.549891    6867.6341    7089.9828    10851.275    10364.846    1095.8177   -262.15068   -200.34787   -2422.6438 
30697000     266.7379   -3834.3284   -3377.1488   -3834.3284            0    10293.255    16.812249    19.802609    20.510905    6828.6216    9992.8604    9979.3787    10907.527    -492.9551    570.03675    2001.2567   -2352.0595 
30698000    269.54735   -3834.4457   -3372.4507   -3834.4457            0    11665.466    16.760123    19.741211    20.447311    6765.3025    9782.9625    12092.239    13121.198   -451.32449    1060.8291     1585.944   -2221.4775 
30699000     272.5714   -3806.3588   -3339.1808   -3806.3588            0    11326.226    16.820758    19.812631    20.521286     6838.995    12746.292    10654.093    10578.293    -51.24557    976.92665   -1005.5962   -2209.5061 
30700000    276.29429   -3848.2456   -3374.6867   -3848.2456            0    13420.632    16.787396    19.773335    20.480584    6798.3828    14669.807    12546.076    13046.014   -1854.1361   -1772.1747   -828.08082   -2044.0654 
30701000    265.30995   -3826.4603   -3371.7282   -3826.4603            0    13462.066    16.771064    19.754098    20.460659    6778.5599    14457.911    12171.257    13757.032   -1347.4703     201.5326     1262.655   -2040.8906 
30702000    274.12419   -3856.9544   -3387.1149   -3856.9544            0     12978.76    16.775497     19.75932    20.466067    6783.9368    14943.341    13302.415    10690.523    742.52403    352.71318   -163.71265   -2103.0385 
30703000    254.07578    -3861.526   -3426.0488    -3861.526            0    12429.035    16.763329    19.744987    20.451222    6769.1847    11442.512    13658.944    12185.648   -695.53853    1664.5357    1287.6401   -2199.0344 
30704000    266.09005   -3877.5998   -3421.5305   -3877.5998            0    11029.318    16.846145    19.842533    20.552257    6870.0067    10334.693     11440.74    11312.521    123.08295    -457.3369   -35.719426   -2316.4811 
30705000    263.12292   -3877.0243   -3426.0406   -3877.0243            0    12087.012    16.795808    19.783243    20.490846    6808.6073    14985.374    11893.574    9382.0876   -19.629375    1353.2434     -1489.72    -2225.842 
30706000    260.00376   -3880.8127   -3435.1752   -3880.8127            0     10123.09     16.82461    19.817168    20.525985    6843.6944    10094.811    8919.5292     11354.93   -5.7803143    508.05864   -932.01957   -2424.8071 
30707000    266.45282   -3853.0352   -3396.3442   -3853.0352            0    11163.634    16.806074    19.795335     20.50337    6821.0992    12379.021    10721.033    10390.849    283.78292    265.15636   -939.26057      -2285.8 
30708000    271.40592   -3842.5173   -3377.3369   -3842.5173            0    11419.646    16.765782    19.747876    20.454214    6772.1567    10911.619    11476.765    11870.553    1238.3165   -351.80504   -997.91365    -2249.476 
30709000    272.33459   -3852.6983   -3385.9261   -3852.6983            0    12162.642    16.692286    19.661308     20.36455    6683.4856    13402.816    10434.383    12650.727   -760.16206    684.11178    266.36685   -2200.4117 
30710000     281.9596   -3823.8014   -3340.5323   -3823.8014            0     11963.51    16.768135    19.750648    20.457086     6775.009     11989.42    12581.681     11319.43   -1545.0195    778.24614   -87.671718    -2158.459 
30711000    266.98312   -3846.1625   -3388.5626   -3846.1625            0    11520.083    16.779418    19.763938    20.470851    6788.6949    12659.719    11125.112    10775.417    53.298156    758.83632    -532.8442   -2248.0035 
30712000    265.76022   -3842.7036   -3387.1997   -3842.7036            0    10416.618    16.855895    19.854018    20.564152    6881.9422    12039.574    8151.2955    11058.985   -272.00517   -61.785377   -1101.1191   -2341.7247 
30713000    281.63173   -3846.6044   -3363.8972   -3846.6044            0    10393.457    16.821727    19.813772    20.522467    6840.1767    8851.4062    10751.514    11577.451    665.10315   -77.979861    461.50693   -2327.0776 
30714000    273.10208   -3864.4673   -3396.3797   -3864.4673            0    12084.802    16.787187    19.773089    20.480329     6798.129    12916.564     11368.11    11969.732   -554.99893    -265.4583    806.46956   -2198.2473 
30715000    257.05817   -3870.8404   -3430.2515   -3870.8404            0    12499.725    16.728481    19.703941    20.408708    6727.0572    12328.712    11884.353    13286.109   -954.66268    488.40951    1162.2477   -2203.9381 
30716000    268.36214   -3849.8881   -3389.9245   -3849.8881            0    10818.992    16.756707    19.737188    20.443144    6761.1665    9672.3608    11811.628    10972.987   -631.09734   -1476.1693    141.89712   -2323.1213 
30717000    260.73652   -3852.3021   -3405.4087   -3852.3021            0    10524.817    16.760874    19.742095    20.448227    6766.2114    9622.4388    11747.396    10204.616    555.10435   -1103.8671   -1926.1313   -2366.8381 
30718000    270.63659   -3809.9183   -3346.0565   -3809.9183            0    9579.1362    16.818435    19.809895    20.518452    6836.1624    9059.5767    8653.2001    11024.632   -39.687137    799.41243    219.01754   -2391.0318 
30719000    276.64495   -3796.9391   -3322.7791   -3796.9391            0    11333.959    16.745538    19.724031    20.429517     6747.655      11873.7    12311.723    9816.4545   -833.63892    405.66739    -678.2589   -2207.4311 
30720000    270.76381   -3854.6286   -3390.5487   -3854.6286            0    13235.699    16.760674    19.741861    20.447984    6765.9699    12324.566    13944.234    13438.296    1534.2553     1227.607   -355.32377   -2084.5198 
30721000    264.35051   -3827.8734   -3374.7857   -3827.8734            0    10287.918    16.800789    19.789111    20.496924    6814.6673    11211.817    10814.956    8836.9806   -903.23744   -135.66198    -658.0712   -2352.3217 
30722000    268.18148   -3864.6857   -3405.0318   -3864.6857            0    12723.678    16.778594    19.762968    20.469846    6787.6947    13481.618    11332.571    13356.846    919.02843   -432.18897   -79.871075    -2145.495 
30723000    257.24311   -3828.0143   -3387.1084   -3828.0143            0    11252.205     16.80329    19.792056    20.499975    6817.7108    10133.149    11159.461    12464.005   -117.06528   -192.80854    537.74112   -2268.3094 
30724000     257.5498   -3817.3136    -3375.882   -3817.3136            0    11968.064    16.839883    19.835158    20.544618    6862.3493    14069.004    10992.645    10842.542   -462.06377     836.8664    1039.2367   -2178.1143 
30725000    261.63647   -3845.7098   -3397.2738   -3845.7098            0     12330.91    16.804172    19.793094     20.50105    6818.7836    12157.583    11463.082    13372.064   -564.29409    497.99719   -410.64245    -2171.027 
30726000    271.09742   -3851.8807    -3387.229   -3851.8807            0     10783.36    16.793702    19.780762    20.488277    6806.0462    12885.698    9087.3874    10376.994   -769.81627    813.91563   -1150.3842   -2316.8813 
30727000     273.6628   -3784.1423   -3315.0936   -3784.1423            0    12202.056    16.780838    19.765611    20.472584    6790.4186    11294.098    12156.795    13155.276    1094.6695    380.50503    290.45353   -2106.7082 
30728000    278.24445   -3828.7308   -3351.8293   -3828.7308            0    11831.104    16.768026     19.75052    20.456953    6774.8772    10222.138    11500.445    13770.728    1218.2836    575.03872   -520.51362   -2182.8614 
30729000    255.09172   -3809.1333   -3371.9148   -3809.1333            0    10716.114    16.812566    19.802982    20.511291    6829.0075    9306.1339    12274.277    10567.932    1612.6052    271.19642    656.48981   -2304.6534 
30730000     271.0438    -3831.436   -3366.8762    -3831.436            0    9617.6091     16.82145    19.813446     20.52213    6839.8391    9857.6074    10501.063    8494.1567   -773.29452   -903.76365    293.14656   -2407.5001 
30731000    271.41525   -3834.1007   -3368.9042   -3834.1007            0    10938.663    16.778599    19.762974    20.469852    6787.7008    11125.792    10812.799    10877.397    1130.4365   -1060.5534    1333.4972   -2286.0679 
30732000    266.17533   -3848.4185    -3392.203   -3848.4185            0    12246.637    16.771788    19.754951    20.461542    6779.4375    12532.836    9903.8396    14303.236    518.75672    605.55056    578.94138    -2181.364 
30733000    263.50434   -3854.2328   -3402.5954   -3854.2328            0    12027.114    16.795437    19.782806    20.490394    6808.1562    12722.534    11834.909    11523.899   -616.57033   -1100.1161    1191.9675   -2208.4236 
30734000    265.20475   -3807.6234   -3353.0715   -3807.6234            0    13879.432    16.687371    19.655519    20.358554    6677.5842    13960.866     12960.62    14716.809    354.93335   -431.30017    230.83485   -2001.4131 
30735000    272.33744   -3863.9948   -3397.2178   -3863.9948            0    13280.662    16.731576    19.707586    20.412483    6730.7912    14894.626    12696.104    12251.255    208.79848    120.22165    1416.0576   -2093.5656 
30736000    265.50778   -3810.2314   -3355.1602   -3810.2314            0    12496.918    16.741588    19.719379    20.424698    6742.8817    12589.433    14507.682    10393.638    -135.0325   -1096.7108   -106.57374   -2126.2381 
30737000    263.26887   -3816.8945   -3365.6607   -3816.8945            0    11306.692     16.76811    19.750619    20.457055    6774.9788    11827.499    10519.564    11573.012   -110.99862    1540.0343    382.61769   -2248.4904 
30738000     275.4882   -3795.6448   -3323.4674   -3795.6448            0     14477.86    16.729967    19.705692    20.410521    6728.8505     13409.05    13994.231    16030.298   -155.11167   -710.85297    619.37857   -1902.7061 
30739000    251.10507   -3788.4922   -3358.1067   -3788.4922            0    11241.125    16.765845    19.747951    20.454292    6772.2334    9866.6855    12428.878    11427.812    -26.58342    450.28674   -756.17109   -2247.8649 
30740000    259.90403   -3820.4914   -3375.0248   -3820.4914            0    9720.3182    16.843717    19.839674    20.549296    6867.0375    10303.227    8529.0991    10328.629    836.27303    1010.6588   -749.01868   -2401.5476 
30741000    271.79512   -3874.8492   -3409.0017   -3874.8492            0    13899.677    16.757249    19.737826    20.443805    6761.8224    14531.499    14214.587    12952.945   -274.21358    595.63016     -744.579   -2038.2956 
30742000    274.13994   -3839.7141   -3369.8477   -3839.7141            0    9443.3469    16.810383    19.800411    20.508628    6826.3479    9090.0682    10239.294    9000.6784   -1319.2842    914.39892   -302.69176   -2429.7126 
30743000    270.53897   -3790.1486   -3326.4541   -3790.1486            0    11648.201      16.7592    19.740124    20.446185    6764.1849    12037.374    9825.5947    13081.633   -9.4136199   -553.19615    28.636219   -2177.3743 
30744000     271.1414   -3826.0511    -3361.324   -3826.0511            0    10765.686    16.805197    19.794302    20.502301    6820.0322    12321.162    7821.0306    12154.865    307.11809   -2058.8794   -424.37993   -2290.5347 
30745000    273.51261   -3817.0504   -3348.2592   -3817.0504            0    9918.4191    16.865001    19.864744    20.575262    6893.1022    10724.956    7201.3348    11828.967    261.02101   -346.18424   -459.18443   -2351.1721 
30746000    260.73146   -3830.2469   -3383.3621   -3830.2469            0    9006.8192    16.795562    19.782954    20.490547    6808.3088    8775.5543    8933.8196    9311.0838    794.88325    1338.9771    151.60034   -2489.0552 
30747000     265.1465   -3852.0733   -3397.6213   -3852.0733            0    11679.375    16.829327    19.822724    20.531739    6849.4516    9132.0865    14509.275    11396.764   -155.19658   -537.71726    2598.8001   -2230.9425 
30748000    272.70026   -3823.2544   -3355.8555   -3823.2544            0    13645.115    16.743702    19.721869    20.427277     6745.436    12798.239    13136.603    15000.504    413.13734     1054.819    1403.2895   -2013.5136 
30749000    256.27409   -3869.3504   -3430.1054   -3869.3504            0    12413.246    16.770369     19.75328    20.459811    6777.7172     10007.41    12249.336    14982.993    -1093.424    1247.0419    2781.5263    -2203.105 
30750000    273.77721   -3788.5537    -3319.309   -3788.5537            0    11254.679    16.756659    19.737131    20.443085    6761.1088    12613.529    12080.732    9069.7744   -2269.9952    1068.1145    187.48748   -2209.5545 
Loop time of 469.895 on 64 procs for 250000 steps with 864 atoms

Performance: 91.935 ns/day, 0.261 hours/ns, 532.033 timesteps/s
99.1% CPU use with 64 MPI tasks x 1 OpenMP threads

MPI task timing breakdown:
Section |  min time  |  avg time  |  max time  |%varavg| %total
---------------------------------------------------------------
Pair    | 22.906     | 28.089     | 32.93      |  46.2 |  5.98
Bond    | 0.27632    | 0.28562    | 0.30911    |   1.0 |  0.06
Kspace  | 192.98     | 203.65     | 223.18     |  50.9 | 43.34
Neigh   | 5.5752     | 6.6802     | 9.0476     |  39.7 |  1.42
Comm    | 94.807     | 112.59     | 123.69     |  73.5 | 23.96
Output  | 1.512      | 1.515      | 1.5269     |   0.3 |  0.32
Modify  | 110.36     | 112.65     | 114.8      |  11.0 | 23.97
Other   |            | 4.437      |            |       |  0.94

Nlocal:        13.5000 ave          18 max           8 min
Histogram: 1 0 2 6 14 10 11 7 9 4
Nghost:        2324.62 ave        2375 max        2284 min
Histogram: 5 5 11 13 4 9 5 6 0 6
Neighs:        4557.23 ave        6303 max        2113 min
Histogram: 1 1 1 7 14 13 9 9 5 4

Total # of neighbors = 291663
Ave neighs/atom = 337.57292
Ave special neighs/atom = 2.0000000
Neighbor list builds = 14742
Dangerous builds = 1

unfix		3
unfix		2
unfix		1

write_data	data.final.${pid}
write_data	data.final.0
System init for write_data ...
PPPM initialization ...
  extracting TIP4P info from pair style
  using 12-bit tables for long-range coulomb (../kspace.cpp:340)
  G vector (1/distance) = 0.37532641
  grid = 24 24 24
  stencil order = 5
  estimated absolute RMS force accuracy = 0.0030416153
  estimated relative force accuracy = 9.1597342e-06
  using double precision FFTW3
  3d grid and FFT values/proc = 2535 216
Last active /omp style is kspace_style pppm/tip4p/omp
WARNING: Not all mixed pair coeffs generated from mixing. Use write_data with 'pair ij' option to store all pair coeffs. (../write_data.cpp:312)

write_restart   restart.lmp.${pid}
write_restart   restart.lmp.0
System init for write_restart ...
PPPM initialization ...
  extracting TIP4P info from pair style
  using 12-bit tables for long-range coulomb (../kspace.cpp:340)
  G vector (1/distance) = 0.37532641
  grid = 24 24 24
  stencil order = 5
  estimated absolute RMS force accuracy = 0.0030416153
  estimated relative force accuracy = 9.1597342e-06
  using double precision FFTW3
  3d grid and FFT values/proc = 2535 216
Last active /omp style is kspace_style pppm/tip4p/omp
Total wall time: 0:07:52
