#include		in.partitions
include		in.temp
variable        temperature equal 147.72
variable	tempDamp equal 100.0
include		in.pressure
variable        pressure equal 1883.9
variable        pressureDamp equal 1000.0 # This is 1 ps
include		in.seed
variable        seed equal 745823

units		real
atom_style	full
#include		in.box
read_restart	restart.lmp.${pid}
read_restart	restart.lmp.0
Reading restart file ...
  restart file = 30 Jul 2021, LAMMPS = 30 Jul 2021
  restoring atom style full from restart
  orthogonal box = (0.10345107 0.079728309 0.15505299) to (18.104121 23.549449 22.058143)
  2 by 4 by 4 MPI processor grid
  restoring pair style lj/cut/tip4p/long/omp from restart
  restoring bond style harmonic/omp from restart
  restoring angle style harmonic/omp from restart
  864 atoms
  576 bonds
  288 angles
Finding 1-2 1-3 1-4 neighbors ...
  special bond factors lj:    0        0        0       
  special bond factors coul:  0        0        0       
     2 = max # of 1-2 neighbors
     1 = max # of 1-3 neighbors
     1 = max # of 1-4 neighbors
     2 = max # of special neighbors
  special bonds CPU = 0.002 seconds
  read_restart CPU = 0.009 seconds
include 	in.setup
variable	out_freq equal 1000
variable	out_freq2 equal 10000
variable	out_freq3 equal 1000

timestep	2.0

neigh_modify    delay 7 every 1

include		in.tip4p
# This is TIP4P/Ice

# create groups ###
group ox type 2
288 atoms in group ox
group hy type 1
576 atoms in group hy

# set charges - beside manually ###
set group ox charge -1.1794
Setting atom values ...
  288 settings made for charge
set group hy charge 0.5897
Setting atom values ...
  576 settings made for charge

# ### TIP3P Potential Parameters ###
pair_style lj/cut/tip4p/long/omp 2 1 1 1 0.1577 8.5
pair_coeff 1 1*2 0.000 0.000
pair_coeff 2 2 0.21084 3.1668
bond_style  harmonic
bond_coeff  1 450 0.9572
angle_style harmonic
angle_coeff 1 55 104.52
kspace_style pppm/tip4p/omp 1.0e-5
pair_modify tail yes

thermo          ${out_freq}
thermo          1000
thermo_style    custom step temp pe etotal epair emol press lx ly lz vol pxx pyy pzz pxy pxz pyz enthalpy

restart 	${out_freq3} restart.lmp.${pid} restart2.lmp.${pid}
restart 	1000 restart.lmp.${pid} restart2.lmp.${pid}
restart 	1000 restart.lmp.0 restart2.lmp.${pid}
restart 	1000 restart.lmp.0 restart2.lmp.0


include         in.dump
dump            myDump all atom ${out_freq2} dump.water.${pid}
dump            myDump all atom 10000 dump.water.${pid}
dump            myDump all atom 10000 dump.water.0
dump            myDump2 all dcd ${out_freq2} dump.dcd
dump            myDump2 all dcd 10000 dump.dcd
dump_modify     myDump append yes
dump_modify     myDump2 append yes


variable natoms 	equal  "count(all)"                        # NUMBER ATOMS
variable H      	equal  "enthalpy/v_natoms"                 # ENTHALPY-per-atom
variable Vol      	equal  "vol/v_natoms"                 # volume-per-atom
fix AVG all 		ave/time ${out_freq} 1 ${out_freq} v_Vol v_H file vol_enthalpy.dat
fix AVG all 		ave/time 1000 1 ${out_freq} v_Vol v_H file vol_enthalpy.dat
fix AVG all 		ave/time 1000 1 1000 v_Vol v_H file vol_enthalpy.dat


timer           timeout 23:50:00 every 1000
New timer settings: style=normal  mode=nosync  timeout=23:50:00

fix 		1 all shake 1e-6 200 0 b 1 a 1
       0 = # of size 2 clusters
       0 = # of size 3 clusters
       0 = # of size 4 clusters
     288 = # of frozen angles
  find clusters CPU = 0.000 seconds
fix             2 all nph aniso ${pressure} ${pressure} ${pressureDamp}
fix             2 all nph aniso 1883.9 ${pressure} ${pressureDamp}
fix             2 all nph aniso 1883.9 1883.9 ${pressureDamp}
fix             2 all nph aniso 1883.9 1883.9 1000
fix             3 all temp/csvr ${temperature} ${temperature} ${tempDamp} ${seed}
fix             3 all temp/csvr 147.72 ${temperature} ${tempDamp} ${seed}
fix             3 all temp/csvr 147.72 147.72 ${tempDamp} ${seed}
fix             3 all temp/csvr 147.72 147.72 100 ${seed}
fix             3 all temp/csvr 147.72 147.72 100 745823


run             250000
PPPM initialization ...
  extracting TIP4P info from pair style
  using 12-bit tables for long-range coulomb (../kspace.cpp:340)
  G vector (1/distance) = 0.3718118
  grid = 24 27 25
  stencil order = 5
  estimated absolute RMS force accuracy = 0.0031437179
  estimated relative force accuracy = 9.4672131e-06
  using double precision FFTW3
  3d grid and FFT values/proc = 4410 672
Last active /omp style is kspace_style pppm/tip4p/omp
Neighbor list info ...
  update every 1 steps, delay 7 steps, check yes
  max neighbors/atom: 2000, page size: 100000
  master list distance cutoff = 10.8154
  ghost atom cutoff = 10.8154
  binsize = 5.4077, bins = 4 5 5
  1 neighbor lists, perpetual/occasional/extra = 1 0 0
  (1) pair lj/cut/tip4p/long/omp, perpetual
      attributes: half, newton on, omp
      pair build: half/bin/newton/omp
      stencil: half/bin/3d
      bin: standard
Per MPI rank memory allocation (min/avg/max) = 10.21 | 10.22 | 10.23 Mbytes
Step Temp PotEng TotEng E_pair E_mol Press Lx Ly Lz Volume Pxx Pyy Pzz Pxy Pxz Pyz Enthalpy 
21250000    161.29229   -4474.6785   -4198.2291   -4474.6785            0    1523.5602     18.00067    23.469721     21.90309    9253.4139    600.96765    1077.7682    2891.9446      366.599    179.71823     -528.607   -3992.6223 
21251000    149.61612   -4473.4389    -4217.002   -4473.4389            0    1230.0035    18.015951    23.213885    22.156653      9266.36    537.51571    2464.8346    687.66023   -159.54393    493.36768      407.287   -4050.7789 
21252000    145.62644   -4464.4682   -4214.8694   -4464.4682            0    2228.4541    17.886318    23.320886    22.062709    9202.9027    3033.0334    2227.8641    1424.4647     323.3911   -249.81216    146.16502   -3915.7777 
21253000    149.91594   -4477.0956   -4220.1448   -4477.0956            0    1653.9264    18.008395    23.437402    21.801088    9201.5847    1355.6723    1169.8016    2436.3054   -67.962661    342.31531   -31.270654    -3998.195 
21254000    141.57137   -4479.9314   -4237.2829   -4479.9314            0    2617.9159    18.012107    23.393877    21.756998    9167.8114    2637.5036    1528.5444    3687.6996   -468.31512    201.40964    275.93864   -3887.2594 
21255000    145.91693   -4460.6013   -4210.5047   -4460.6013            0    1813.6606      17.9444     23.25129    22.131104    9233.7704    2538.1185    1755.3467    1147.5168    1168.6221    102.56863    401.36356    -3966.268 
21256000    148.50968   -4460.0468   -4205.5063   -4460.0468            0    1939.7169    17.925327     23.38682    22.035244    9237.5354    1607.1522    1865.2262    2346.7721     -330.235   -310.99801    181.71509   -3944.1876 
21257000    149.88881   -4473.5176   -4216.6134   -4473.5176            0    1506.8488    18.137054    23.474987    21.728369    9251.2248    1346.1387    432.08554    2742.3222   -211.74997   -76.980823    951.19455   -4013.3099 
21258000    151.76367    -4465.732   -4205.6143    -4465.732            0    1670.3767    17.969719    23.375782    21.911839    9204.2046    1223.6583    1713.4496     2074.022    369.15804   -787.81381    124.27539   -3981.3932 
21259000    153.50535   -4461.1682   -4198.0653   -4461.1682            0    2491.7994    17.870963    23.265734    22.088771    9184.0928    3347.0922    2694.5035    1433.8026   -750.60156    1115.1926    632.85965   -3864.3123 
21260000    147.50359   -4465.4358   -4212.6197   -4465.4358            0    1881.1557    18.014094    23.338489    21.983991    9242.5477    1950.4776    1869.3933    1823.5962   -709.38247    149.95999    661.28795    -3959.053 
21261000    145.35807   -4467.5402   -4218.4015   -4467.5402            0    664.76684    18.107069    23.422662    21.971661    9318.5273   -94.753223      796.215    1292.8387   -543.86243   -233.65876    228.49054   -4128.0589 
21262000     162.3619   -4471.6513   -4193.3685   -4471.6513            0     918.7236    18.008804    23.465387    21.952208    9276.6418    209.27454     1220.642    1326.2542    578.61685    386.15898   -225.72211   -4069.0741 
21263000     156.0887   -4467.6611   -4200.1304   -4467.6611            0    1747.1771    17.962582    23.427047    21.915803    9222.3943    2073.1644    1280.2955    1888.0714   -525.92855     19.69722   -401.93109   -3965.1365 
21264000     145.5389   -4478.0993   -4228.6506   -4478.0993            0    1979.0402    17.970255    23.290784    21.989171    9203.3767    1853.7572    1744.1549    2339.2084   -686.27737   -162.46734   -42.901772   -3963.0203 
21265000    150.46118   -4477.3978   -4219.5125   -4477.3978            0    2214.1941    17.875606     23.38752    22.045276    9216.3823    2769.5645    1867.1026    2005.9153    123.83612    104.23402   -103.36334   -3921.8994 
21266000     153.0562   -4478.8894   -4216.5563   -4478.8894            0    1444.7797    18.104158     23.26109    21.931045    9235.6556     1306.106    1844.0724    1184.1605    52.022567    196.87309   -30.882759   -4021.9553 
21267000    148.02055   -4468.1188   -4214.4166   -4468.1188            0    1778.4889    17.964542    23.418733    21.943775    9231.8954    2615.2758    1513.4642    1206.7265    180.69405   -640.24493    125.15248   -3974.9649 
21268000     140.3911   -4472.0136   -4231.3881   -4472.0136            0    1649.3174     17.98678    23.395829    21.911579    9220.7351    1697.5617    1582.0141    1668.3762    967.37753   -322.79914    -373.9292   -4009.5962 
21269000    152.06174   -4479.1083   -4218.4797   -4479.1083            0    1492.7134    17.988708    23.432681    21.972799    9262.0545    1884.1877    1218.9048    1375.0478    523.43147   -493.96934    310.82407   -4016.8476 
21270000    145.96414   -4476.6497   -4226.4722   -4476.6497            0    1455.7151    18.013022    23.099538    22.166557    9223.3378    1787.3917     2498.287    81.466746    99.238899    22.235796   -570.56854   -4030.6597 
21271000    152.44532   -4490.5017   -4229.2156   -4490.5017            0    2146.9189    17.842945    23.498243    21.972147    9212.4348    3198.6189    775.32218    2466.8157   -256.54352    179.53025    647.74609   -3940.7687 
21272000    148.29493   -4456.1341   -4201.9617   -4456.1341            0    2376.9639    18.188566    23.107575    21.890954    9200.6286    2020.2034    2268.9817    2841.7065    747.02737   -123.74281    320.55793   -3883.0165 
21273000    143.29009   -4478.4566   -4232.8622   -4478.4566            0     2099.325    17.887506    23.433801    21.999042    9221.3884    2049.0836      2293.14    1955.7513    67.162584    154.93103      586.573   -3950.5356 
21274000    147.09765   -4435.7716   -4183.6513   -4435.7716            0    1597.0179    18.107297    23.210607    22.050085    9267.2395     1681.595    2448.5605    660.89831    312.78453   -32.887362   -258.10506   -3967.8092 
21275000    145.52189   -4459.5603   -4210.1407   -4459.5603            0    2595.0042    17.847423    23.650517     21.79481    9199.6064    2427.1602    2168.3136    3189.5389    58.153369    195.49165     409.5703   -3861.9773 
21276000    158.76833   -4469.0632   -4196.9397   -4469.0632            0    1149.3591    18.065516    23.304446    22.010689    9266.6508    419.98832    1171.3865    1856.7024   -571.15483    196.20715   -614.91872     -4041.61 
21277000    152.68646   -4464.8362   -4203.1368   -4464.8362            0    3327.1691    17.746435    23.523545    21.956038    9165.7472    3750.3616    3204.5115    3026.6341   -705.29466    351.62918    129.77564   -3758.3841 
21278000    146.24452    -4476.489   -4225.8309    -4476.489            0    2070.7678    18.097774     23.28037    21.896882    9225.6572     2512.018    2638.4622    1061.8232   -146.21423   -166.32534    217.08605   -3947.2159 
21279000    148.51468   -4487.3122   -4232.7631   -4487.3122            0    2396.3676     17.93431    23.389531    21.894434    9184.1698    1946.3074    1776.8227    3465.9729   -405.21906    256.48252   -277.06587   -3911.7896 
21280000    155.53496   -4467.0444   -4200.4628   -4467.0444            0    1723.3748    17.906369    23.227393    22.165047    9218.8478    2957.7447    1259.7686    952.61118   -421.84272    257.85217   -178.75736   -3968.7595 
21281000    153.36168   -4457.2013   -4194.3447   -4457.2013            0    2398.2179    18.007111    23.369373    21.831795    9187.1444    2386.0218    1780.9733    3027.6586    373.14836    8.9629375   -25.298604   -3873.0193 
21282000    150.71769   -4465.7619    -4207.437   -4465.7619            0     1598.723    18.054892    23.334515    21.959069    9251.4028    1159.2819    2209.3877    1427.4995   -178.98565    440.25636    882.80376   -3991.7337 
21283000    153.29385   -4472.7604   -4210.0199   -4472.7604            0    2339.4377    17.944579      23.4326    21.873796    9197.6718    813.88443    2606.6692    3597.7593    292.67805    -309.8652    131.00104    -3896.211 
21284000    142.78693    -4475.332   -4230.6001    -4475.332            0    2662.8707    17.862453    23.346984    22.086852     9210.977    2537.3857    3194.7205    2256.5059   -229.04074    130.20217    338.41608   -3872.8896 
21285000    146.56206   -4490.9554    -4239.753   -4490.9554            0    1695.0124    18.057828    23.239287    21.988112    9227.3346     1737.832     2261.664    1085.5413    195.70211    505.69668    213.46248   -4011.6531 
21286000    142.28696   -4473.5764   -4229.7014   -4473.5764            0    1634.4906    18.026826    23.582229    21.785836     9261.436    2379.6396    1052.2712    1471.5609   -403.84876   -280.00207   -268.17913   -4008.9332 
21287000    147.26117     -4463.89   -4211.4894     -4463.89            0    1599.8669    18.036395    23.341631    22.009589    9266.0122    950.86539    1896.9936    1951.7416   -231.74556    115.31112    44.817735   -3995.2909 
21288000    152.78631    -4475.211   -4213.3405    -4475.211            0    2066.3154    17.733928    23.378548    22.191942    9200.6345    2487.9446    2371.7204    1339.2811    723.04537   -24.588506    30.350025   -3936.0786 
21289000    154.90866   -4479.6861   -4214.1779   -4479.6861            0    1503.5919    18.087554    23.294638    21.903556    9228.9104    980.24365    1401.6416    2128.8905   -176.82809   -325.15575    427.88543   -4011.8032 
21290000    147.53845    -4476.509   -4223.6331    -4476.509            0    1263.9442    17.916422    23.540453    21.963689    9263.4202     2788.031    677.43031    326.37115   -239.39993    -360.3166    563.51879   -4052.8774 
21291000    147.37621   -4470.0781   -4217.4804   -4470.0781            0    2201.4632     17.91945    23.135019     22.19087    9199.5981    2281.8179    2123.1049    2199.4668     27.11677    44.939282    459.70782   -3922.1173 
21292000    144.23851   -4467.0868   -4219.8669   -4467.0868            0     2138.673    17.879574    23.454829    21.999611    9225.8088    2931.1894    2270.9834    1213.8461    988.42257   -534.18028   -71.764925   -3932.1107 
21293000    148.89588    -4461.756   -4206.5536    -4461.756            0    1623.6328    18.269482    23.337326    21.718635    9259.9758   -254.92522    1716.0831    3409.7406   -389.57454    45.488276   -70.744701   -3987.2864 
21294000    151.50632   -4473.3312   -4213.6546   -4473.3312            0     2634.609    17.895027    23.435249    21.972655    9214.7695    2511.4156    2599.6143    2792.7972   -856.88641   -465.23868    345.68848   -3859.5949 
21295000    141.81119   -4486.9441   -4243.8845   -4486.9441            0    1031.8457    17.991879    23.354671    21.982085    9236.7492    1179.5077    726.45071    1189.5788   -642.73999   -75.733677   -635.36716   -4104.8861 
21296000    150.43547   -4465.3607   -4207.5194   -4465.3607            0    2225.3189    17.985882    23.353428    21.985453    9234.5942    3154.1564    1593.7172     1928.083    451.43181   -492.82245   -429.96606     -3907.82 
21297000    140.62429   -4466.4481   -4225.4229   -4466.4481            0     586.5522    17.975541    23.395798    22.047318    9272.0463     789.2664    533.97921    436.41099     508.5824    447.99465    693.59002   -4146.1074 
21298000    146.01685   -4456.2867   -4206.0189   -4456.2867            0    2199.4322     18.00614    23.140381    22.090198    9204.2993    1021.4322    3945.7506    1631.1138   -821.62125   -20.541282    300.61966   -3910.7775 
21299000    148.01594   -4456.4226   -4202.7283   -4456.4226            0    2555.3044    17.844511    23.477933    21.908992    9178.8209    2993.4227    1659.3654    3013.1251    375.67375    442.88794    206.98027   -3860.6658 
21300000     145.3822   -4471.6731    -4222.493   -4471.6731            0    2408.5531    18.126818    23.035172    22.009896    9190.3281    1659.8908    3666.4702    1899.2982   -411.86171    163.42346   -55.376461    -3899.671 
21301000    154.00709   -4464.6372   -4200.6743   -4464.6372            0    1964.5021    17.875644    23.489761    21.870698    9183.3881    3405.7051     1103.112    1384.6893    472.87332   -335.72798    423.41907   -3937.5679 
21302000    146.19791   -4471.6764   -4221.0982   -4471.6764            0    1326.1966    18.008907     23.37902    22.020781    9271.4226    1462.6685    1246.3457    1269.5757     140.5049   -620.04358   -44.511283   -4041.7776 
21303000    145.36272   -4476.3989   -4227.2522   -4476.3989            0    1194.6247    17.956034    23.323179    22.107587    9258.4759     1977.264    1548.0854    58.524653   -513.81195   -127.10154    -507.7489   -4065.9475 
21304000    147.46554   -4458.0662   -4205.3153   -4458.0662            0    1919.1846    17.973903    23.445522    21.878362    9219.7068    2491.6943    1161.6262    2104.2334    122.35353    550.41929   -616.09504   -3947.2618 
21305000    149.54586   -4474.1403   -4217.8238   -4474.1403            0    1823.3219    17.994739    23.429478    21.916308    9240.0767    2821.0053    810.25888    1838.7016    323.45544   -526.03347    850.77807   -3972.1183 
21306000    153.82547    -4458.274   -4194.6224    -4458.274            0    1921.8596    17.984788     23.44907    21.837595    9209.4938    2857.4901    481.70245    2426.3862    204.46243   -384.81597   -50.448801   -3936.4955 
21307000    154.28387   -4478.2572   -4213.8199   -4478.2572            0    2714.4139    17.902606    23.386485    21.912733    9174.4014    3102.4268    2819.3636    2221.4514   -263.55677    420.18033    434.98323   -3850.6334 
21308000    141.45093   -4455.9009   -4213.4588   -4455.9009            0    3497.8301    17.805226    23.343133    22.054938    9166.6885    5316.3864    2123.1196    3053.9842   -608.89699    392.12444     385.5184   -3745.8453 
21309000    150.64474   -4469.9376   -4211.7377   -4469.9376            0    1950.4989    18.065719    23.340559    21.921992    9243.7147    252.51263    2126.0005    3472.9835   -107.06951    26.040462   -257.23606   -3948.7908 
21310000    141.70409   -4479.0851   -4236.2092   -4479.0851            0    1306.3616    17.953957    23.605746    21.768486    9225.8446   -188.74772    1308.3962    2799.4363   -462.60849    99.342838   -112.89059   -4060.4389 
21311000    146.84506   -4468.5358   -4216.8484   -4468.5358            0    811.38192    17.977741     23.23528    22.140708    9248.5684    1297.0745     1019.867    117.20426   -304.59053    174.28831   -440.64289   -4107.4085 
21312000    153.11728   -4468.7653   -4206.3275   -4468.7653            0    1743.6814    17.914771    23.321816    22.063034    9218.0462     2071.318    1617.0296    1542.6965    707.76932   -127.24685   -63.524702   -3971.9144 
21313000    155.58007   -4463.0802   -4196.4213   -4463.0802            0    1755.3348    18.100534    23.396008    21.779396    9223.1442    1692.2105    1717.8984    1855.8955    273.67688     260.0878   -439.46267    -3960.311 
21314000    143.10437   -4463.2002   -4217.9243   -4463.2002            0    1570.4487    18.020146    23.301033    21.974656    9226.8953      703.988    1566.8868    2440.4714    508.84404    427.89432    661.12132   -4006.5971 
21315000    142.71554   -4474.1685    -4229.559   -4474.1685            0     2969.398    17.729235    23.357599    22.065215    9137.4784    3581.2705    2578.8137    2748.1097    511.67046   -298.85795    7.7727474   -3833.8548 
21316000    152.78592   -4461.4617   -4199.5918   -4461.4617            0    2294.4905    18.034734     23.23487    21.913501    9182.5172    1344.6066    3526.8883    2011.9766   -1182.9026   -422.25571    388.94241   -3892.3192 
21317000    144.88837   -4487.5152   -4239.1815   -4487.5152            0    2020.9371    17.918279    23.537464    21.809048    9197.9846    1810.0317    2370.0234    1882.7562   -275.35498   -167.32416    255.97884   -3968.0866 
21318000    151.27386   -4477.9144   -4218.6362   -4477.9144            0     2377.611    17.947731    23.284158    21.974794    9183.2182    2741.3041    1456.6327    2934.8963   -181.24511   -249.80715    140.95775   -3900.2079 
21319000    139.35453   -4476.1297   -4237.2808   -4476.1297            0    1375.8536    17.893294     23.34642    22.050382    9211.4224    1503.8095    1438.6328    1185.1186   -495.61457   -50.861159    520.70227   -4052.4498 
21320000    143.22287   -4460.9203   -4215.4412   -4460.9203            0    1873.3656    18.102686    23.295224    21.816258    9200.0495    784.09272    3695.4373    1140.5668    329.81038   -262.46679    159.12597   -3964.0856 
21321000    151.50335   -4479.6683   -4219.9967   -4479.6683            0    1326.2904    17.972971    23.426243     21.86626    9206.5523    1149.2631    874.67329     1954.935    219.61036   -496.46681   -272.26168   -4041.9182 
21322000    154.36435   -4448.9202    -4184.345   -4448.9202            0    1485.7587    17.989849    23.332566    22.060193    9259.7512   -41.651691    2161.1795    2337.7482   -247.52052    385.95379    1085.8552   -3983.7023 
21323000    144.50316   -4484.6525    -4236.979   -4484.6525            0    1898.9093     17.99591    23.290943    21.990767    9217.2481    1985.2995    2067.0141    1644.4142    90.612294   -405.86403    213.75469   -3981.7198 
21324000    149.84903   -4474.1866   -4217.3505   -4474.1866            0    2629.0515      17.7218    23.531571    21.951137    9154.1029    3590.6745    1420.1604    2876.3195    382.22077    124.81263   -180.29402   -3866.3637 
21325000    138.99991   -4459.6934   -4221.4523   -4459.6934            0    2158.7176     17.98931    23.257119    22.077081    9236.5987    3172.1636    1787.5736    1516.4154    -897.5272   -1020.5087    174.80066   -3930.6594 
21326000    144.10339    -4467.813   -4220.8247    -4467.813            0    1327.9341    17.797491    23.630647    22.013491    9258.1309     1823.273    975.38633    1185.1428   -460.77883   -150.56083    180.71938   -4041.5266 
21327000    139.39979    -4468.233   -4229.3065    -4468.233            0    1704.2645    18.087201    23.215702    21.951108    9217.4255    1204.7936    2077.4349    1830.5648    699.04618   -119.89599   -60.448724   -4000.2079 
21328000    153.26885   -4452.5942   -4189.8967   -4452.5942            0    1762.2737    17.748698    23.550306    22.020644    9204.3488    1871.6292    1815.9728    1599.2189    126.71864   -555.91019    671.35762   -3953.3361 
21329000    151.29865   -4476.7514   -4217.4307   -4476.7514            0    2081.3706    18.021867    23.178819    22.042303    9207.6339    2253.2566    2010.4299    1980.4253    80.207264   -1019.0067   -729.53208   -3937.9362 
21330000    157.73749   -4461.5925   -4191.2359   -4461.5925            0    2767.4251    17.962658    23.379218    21.834957    9169.6531    2258.8443    2991.6296    3051.8014   -179.99282   -219.38047   -170.39438   -3821.1481 
21331000    150.64189   -4475.8144   -4217.6194   -4475.8144            0    1815.0721    17.994085    23.595889    21.746767    9233.3822    383.49708    2188.0976    2873.6216   -22.912707   -233.91779    73.832539   -3973.2028 
21332000    144.03357   -4475.5546    -4228.686   -4475.5546            0    2325.1194    17.988423    23.293659    21.990802    9214.5018    2471.2884    2170.5464    2333.5235   -376.92917    540.64509    332.57189    -3916.227 
21333000    145.83148   -4484.3848   -4234.4346   -4484.3848            0    1186.1942    17.973151    23.384787    22.006912    9249.4678    1397.6028      -51.534    2212.5137     1.824105   -476.50091    311.27685   -4074.4242 
21334000    160.82724   -4468.9333   -4193.2809   -4468.9333            0    1605.8858    18.017582    23.381302    21.957462    9250.1194    1429.3204    796.53904     2591.798   -552.46778   -313.91458    400.44485   -3976.6413 
21335000    152.35622   -4476.6334   -4215.5001   -4476.6334            0     2641.621    17.882086    23.418727    21.957198    9195.1408    2049.2038    2570.7677    3304.8916   -499.52872     609.7439   -680.27191   -3861.2542 
21336000    149.47255    -4473.411   -4217.2202    -4473.411            0    3119.7758    17.939744    23.163526    22.079433     9175.058    1959.0419    5116.9781    2283.3073    1115.8156     85.57444    539.77228   -3799.7667 
21337000    144.26319   -4472.8058   -4225.5436   -4472.8058            0    2074.4798    17.975395    23.406585     21.90063    9214.5282     1709.581    2240.5057    2273.3526   -392.57289   -417.87101   -567.69573   -3946.7658 
21338000    148.90693   -4453.6085   -4198.3871   -4453.6085            0    710.42262    18.060863    23.463712    21.947674    9300.8734    787.33563    1187.2193    156.71299   -293.80101    608.77451    146.93289   -4102.0228 
21339000    142.24431   -4480.6549    -4236.853   -4480.6549            0    2081.8264    17.940441      23.3205     22.08671    9240.6389    3273.6002     1023.532    1948.3471   -152.16374    350.94915    204.20207   -3956.2952 
21340000    147.57725   -4467.9826   -4215.0402   -4467.9826            0    788.42918    17.942588      23.4957    22.060688    9300.2053    1343.3469    467.38671    554.55395    597.56516    169.72113    314.40323   -4108.1025 
21341000    142.60904   -4478.9808   -4234.5538   -4478.9808            0    2155.7719     18.02892    23.283356    21.928001    9204.7999    1694.3378    2026.2934    2746.6844   -371.35793    -96.82706   -15.647581   -3945.1575 
21342000    148.37593    -4460.433   -4206.1217    -4460.433            0    1731.1096    17.853062    23.612553    21.917977    9239.6626    1750.6379    1464.6894    1978.0015   -612.71952     66.00898    123.61031    -3972.853 
21343000    140.47123   -4469.9694   -4229.2065   -4469.9694            0    1597.1545    18.160405    23.073218     22.08547    9254.2312    2188.0266     2363.288    240.14903   -44.837665    238.75056   -260.40803    -4013.649 
21344000    144.66933    -4469.986   -4222.0277    -4469.986            0    2425.1707    17.755367    23.427319     22.08175    9185.1387    4093.0791    2111.9588    1070.4741   -15.477054   -289.41999    0.2918847   -3897.1619 
21345000    140.61748   -4471.6357   -4230.6222   -4471.6357            0    2652.1343     18.02735    23.217287    21.975409     9197.723    2612.4665    2354.6524    2989.2841     289.3851   -317.43488   -44.020803   -3874.8666 
21346000    148.14008   -4462.8658   -4208.9588   -4462.8658            0    1857.1444     18.00096    23.357617    22.005937     9252.606    2564.7879    1128.9338    1877.7116   -279.35514   -127.82593    170.95072   -3958.3562 
21347000    149.75543   -4472.1396   -4215.4639   -4472.1396            0     1421.839    18.063543    23.137308      22.0766    9226.7333    1676.6472    930.58357    1658.2863   -1067.4722   -382.30861    -214.2091   -4024.1378 
21348000    143.62863   -4487.4719   -4241.2974   -4487.4719            0    1369.8318    17.966892    23.375784    22.049683    9260.6507    1875.4131    979.02304    1255.0593     583.9652   -339.65018   -77.826059   -4056.2919 
21349000    155.11815   -4481.4928   -4215.6257   -4481.4928            0    726.81464     18.01145    23.338451    22.080024    9281.5446    1927.3406    581.87513   -328.77182   -275.82662   -142.73311    242.89882   -4117.2427 
21350000    150.26573   -4485.3147   -4227.7644   -4485.3147            0    2335.4764    17.893111    23.465912    21.906034    9197.8652    3215.0951    1808.7792    1982.5548    449.00585   -672.85321    789.05872   -3914.4802 
21351000    143.33298   -4475.9222   -4230.2543   -4475.9222            0     3704.119    18.102274    23.015753    21.927806    9135.9457    2630.8073    4498.5329    3983.0168   -1179.8891    394.56421    1073.9157   -3736.7235 
21352000    152.01424   -4469.6588   -4209.1116   -4469.6588            0    1418.9244     17.86343    23.518864    22.003151    9244.1306    1923.0043    2292.6674    41.101283    722.54414   -415.54778    448.94829   -4017.8177 
21353000    147.58104   -4462.2652   -4209.3164   -4462.2652            0    1233.1455    18.270502    23.152476    21.919048     9271.919    834.13806    2129.1248    736.17367   -709.60883   -59.396824    617.02266   -4042.5687 
21354000    145.62543    -4462.929    -4213.332    -4462.929            0    2173.5043    17.809946    23.584467     21.94868     9219.282    3138.1436    1618.2176    1764.1517   -660.53942   -306.20014   -478.60755   -3921.0962 
21355000    150.13422   -4454.0263   -4196.7014   -4454.0263            0    2964.6897    17.980249     23.12981    22.036121    9164.3763    3278.5669    2533.7875    3081.7147    184.33161    240.61755    85.047925   -3800.4616 
21356000    140.76143   -4472.1469   -4230.8866   -4472.1469            0    2827.6876    17.941017    23.472002    21.815928    9186.9401    2484.8077    1625.6356    4372.6195   -145.53965   -471.35076   -164.67987   -3852.0271 
21357000    146.40861   -4481.6014    -4230.662   -4481.6014            0    2066.4423    18.095644    23.326452    21.857363    9226.1496    238.91776    2245.6222    3714.7871    -1024.997   -26.212369    797.58046   -3952.6141 
21358000    149.16374    -4473.361   -4217.6995    -4473.361            0    1626.0946    17.996677    23.370983    21.977958    9243.9298    1918.3074    1851.5658    1108.4107    395.34449   -230.33526   -510.08752   -3998.4804 
21359000    150.53698   -4481.4486   -4223.4333   -4481.4486            0    1319.0629    17.880803    23.334668    22.109705    9225.1107    1154.7033    2255.9683    546.51698   -714.88529    -302.4338    104.94588   -4045.9682 
21360000    142.22642   -4466.5415   -4222.7703   -4466.5415            0    2597.1907    18.091485    23.181465    21.960526    9209.9619    2267.5961    3019.5024    2504.4736   -461.32285    344.64112    -486.2747   -3873.9213 
21361000    144.88738   -4458.1714   -4209.8394   -4458.1714            0    1151.2312     17.97304    23.549296    21.853459    9249.5301    1730.1331    67.716613    1655.8439    -429.3487    438.33763    -420.7811   -4054.5441 
21362000    152.40701   -4478.0075   -4216.7871   -4478.0075            0    1714.7486    18.106335    23.230295    21.964943    9238.7952    1429.5279    878.68362    2836.0343    428.21232    597.85488    84.866319   -3985.7447 
21363000    146.76276   -4475.5359   -4223.9896   -4475.5359            0    1570.3038    17.957932    23.380137    21.983756     9230.076    1449.5784    1396.0226    1865.3103   -543.77132    99.496667    614.65377   -4012.6091 
21364000    157.29616   -4463.4846   -4193.8843   -4463.4846            0    2086.7864    17.949783    23.488732    21.876684     9223.596     2079.347    1092.4161    3088.5961    584.29346     154.2631   -569.33338   -3913.1768 
21365000    157.72611   -4475.4885   -4205.1514   -4475.4885            0    2358.8214    18.103516    23.218844    21.871781    9193.6439    2236.3681    2353.3519    2486.7442    291.74086    346.48424    114.53627   -3888.8809 
21366000     142.0853   -4471.7845   -4228.2552   -4471.7845            0    1614.7214    17.866579    23.566616    21.880987    9213.0944    2063.1717    1538.9142    1242.0785    422.18727   -124.55463   -337.39959   -4011.2955 
21367000    142.49648   -4478.8912   -4234.6571   -4478.8912            0    1843.8911    18.236876    22.909773    22.087854    9228.3652    924.56972     3650.413     956.6905    433.12014   0.72492131    -72.39232   -3986.4948 
21368000    139.10022   -4467.4722   -4229.0592   -4467.4722            0    1873.0257      17.8366    23.569301    21.898647    9206.1076    2537.1998    1308.0633    1773.8141   -251.76884    154.91532    80.484685   -3977.5837 
21369000    152.97515   -4472.3328   -4210.1386   -4472.3328            0    2843.2657    18.100119    23.035223    22.048876    9193.0646    3354.1026    3365.2076    1810.4869    121.81448   -263.61286    9.5595403    -3828.938 
21370000    146.19125   -4472.9464   -4222.3796   -4472.9464            0    2146.4108    17.862885    23.468497    21.938224    9196.8339    2529.8574    1802.9453    2106.4298   -289.53273   -238.25379    784.34233   -3934.4893 
21371000    149.94673   -4483.6447   -4226.6412   -4483.6447            0    2327.6113    18.034208     23.31972      21.8949    9207.9591    1906.8683    2456.3189    2619.6468    49.458613   -314.36215    679.31635   -3914.0694 
21372000    155.63509   -4465.6044   -4198.8512   -4465.6044            0    2489.6998    17.901886    23.425419    21.896988    9182.7035    1486.4158    2297.6923    3684.9912    442.78103    516.91721    146.75125   -3865.4298 
21373000    136.76432   -4470.8591   -4236.4497   -4470.8591            0    1855.0005    18.020905     23.25291    21.968089    9205.4749    1717.5575    1489.3412    2358.1029   -193.70422   -106.42836    59.705402   -3987.4114 
21374000    154.42037   -4470.5683   -4205.8971   -4470.5683            0    1868.3778    17.813075    23.514114    22.009055    9218.6832    2508.4257    814.83067    2281.8769   -39.906012    739.80851   -5.3954918    -3954.703 
21375000    154.64638   -4460.1393   -4195.0807   -4460.1393            0    2030.1043    18.012228    23.283195    22.013847     9232.216    1875.8612    1881.6718      2332.78   -602.29799   -39.587038    149.40527   -3921.7426 
21376000    147.27075   -4470.9313   -4218.5142   -4470.9313            0    2001.2103    17.995823    23.427983    21.896227    9231.5773    1655.1143    2598.7709    1749.7456   -854.30561    -348.5324   -451.14484   -3949.0851 
21377000    152.48038   -4474.8116   -4213.4654   -4474.8116            0     2367.095     17.86905    23.467991    21.944691    9202.5214    3840.7806    2090.9175    1169.5867   -156.54297   -146.12543   -409.36174   -3895.7792 
21378000    151.23399   -4477.8299     -4218.62   -4477.8299            0    1175.3292    18.060854    23.043029    22.205976    9241.6117    215.93882    3010.8853    299.16358    300.88923    598.11983    737.05057   -4060.2098 
21379000     147.2805    -4453.659   -4201.2253    -4453.659            0    2133.5378    17.885286     23.40317    22.093217    9247.6109    2755.8185     1482.028     2162.767    144.11684     462.3075    175.82294   -3913.4816 
21380000    150.20658   -4488.7413   -4231.2923   -4488.7413            0    2395.6328    18.145372    23.211312    21.792867     9178.674    2363.1968    2386.0584    2437.6432    460.93045      250.016    226.96203   -3910.6092 
21381000    139.60956   -4472.1177   -4232.8317   -4472.1177            0    2989.0937    17.905184    23.427797    21.863859    9171.4299    3147.0138    2404.3149    3415.9523   -10.247257   -99.451988     -271.066   -3833.0228 
21382000    150.33574   -4461.2103     -4203.54   -4461.2103            0    1082.9948    18.061279    23.315698    22.031585    9277.7503    1430.8852    531.85399    1286.2451    439.59509   -331.35636    72.908776   -4057.0038 
21383000    147.20953    -4480.144   -4227.8319    -4480.144            0    853.82764    17.930001     23.53396    21.934796    9255.6929    641.14259    471.19259    1449.1477   -173.76406   -218.56271    -155.7986   -4112.5781 
21384000    146.63406   -4483.3156   -4231.9899   -4483.3156            0     2024.442    18.224553    23.214989    21.728942    9193.1417    1523.3174    1682.2316    2867.7769    102.30197    167.15156    40.617607   -3960.5678 
21385000    137.12823   -4476.5449   -4241.5118   -4476.5449            0    2172.6699    17.867975    23.387428    22.010648    9197.9416    2736.7017    3064.0316    717.27631    552.46132     39.58917   -133.08462   -3950.0643 
21386000    138.73585   -4458.3827   -4220.5942   -4458.3827            0    1972.6532     17.98341    23.238752    22.119253    9243.9014    2876.9207    2378.5703    662.46877    736.35285    14.129495    363.69991   -3954.6552 
21387000    147.20961   -4484.0931   -4231.7809   -4484.0931            0    1196.6794    18.022304    23.384222     21.98574    9265.6168    1107.9054    1365.7824    1116.3505    -220.8747   -514.48715   -567.51027   -4070.0742 
21388000    146.80885   -4467.4023   -4215.7769   -4467.4023            0    1714.0897    18.047429    23.343802    21.935398    9241.2867    1598.0842    1504.5277    2039.6571    2.3467896   -855.86251    -240.5189    -3984.761 
21389000    135.61168   -4483.0694   -4250.6356   -4483.0694            0    958.68988    18.069188    23.290715     21.98231    9251.1299    696.71063    218.65213    1960.7069   -1002.4281    536.45301    -13.65835   -4121.2908 
21390000    135.15139   -4448.6305   -4216.9856   -4448.6305            0    1989.3745    17.846522    23.592141    21.863112    9205.1933    2300.0849    1297.4343    2370.6044   -56.886172   -304.87853   -52.451765   -3949.9154 
21391000    142.05197   -4480.7609   -4237.2887   -4480.7609            0    1842.0024    18.098462    23.141647    22.072046    9244.3962    1431.3061    2272.8892     1821.812   -212.77343    520.77763   -180.07016   -3988.9498 
21392000    147.51761   -4481.1488   -4228.3087   -4481.1488            0    2479.0919    17.826902    23.483443    21.950322    9189.2175    2898.4033    3051.4082    1487.4641   -1187.3626   -165.62715   -160.19077   -3896.0724 
21393000    141.02697    -4467.053   -4225.3376    -4467.053            0    1998.7186    18.092452    23.231375    21.892715    9201.7823    1365.1849    2379.5646    2251.4064    498.72224    119.42832   -160.46319   -3957.1125 
21394000    140.46088   -4463.4883   -4222.7431   -4463.4883            0    1827.2469    17.857194    23.560378    21.897653    9212.8294     2260.431    1532.5193    1688.7905   -152.38088   -398.17206    -0.967725   -3977.2348 
21395000    152.10998   -4462.2653    -4201.554   -4462.2653            0    1953.5084    18.048042    23.225464    21.998418    9221.1681    1654.2097    1315.9129    2890.4027    38.766985   -81.548292   -199.51684   -3938.8437 
21396000    143.85846    -4473.528   -4226.9595    -4473.528            0    1474.9627     17.81871    23.499561    22.083643    9247.1248    2368.8125    1767.1686    288.90696   -469.78747   -600.47316   -414.35124   -4028.0463 
21397000    142.50146   -4483.0802   -4238.8376   -4483.0802            0    1283.7641    18.057048     23.29697    21.983793    9248.0211    1059.1971    903.13997    1888.9551   -714.64304   -194.13351    122.00978   -4065.6926 
21398000    146.21807   -4491.8925   -4241.2797   -4491.8925            0    836.37802    18.012661    23.398882    21.977098    9262.8218   -35.445064    1614.5798    929.99931    441.10782    722.31161    -477.4868   -4128.2944 
21399000    151.06671   -4457.9305   -4199.0074   -4457.9305            0    3563.7501    17.934215    23.366442    21.928379    9189.2804    3850.4704    3190.0757     3650.704   -48.157833     216.0697   -97.104056    -3721.407 
21400000    144.17683    -4473.692   -4226.5778    -4473.692            0    1219.2129    18.091904    23.327701     21.95543    9266.1252    894.09129    653.76349    2109.7839    249.78786    -638.8613   -860.10622   -4061.8172 
21401000    142.24773   -4448.2396   -4204.4319   -4448.2396            0    995.76092    17.817131    23.680004    21.921375    9248.8418    1949.0409     415.5959    622.64591   -664.79664    392.15094   -802.93691   -4070.1188 
21402000    142.06919   -4480.8411   -4237.3394   -4480.8411            0    2165.3741    18.081785    23.125427    21.996318    9197.7383    2165.2075    2737.5952    1593.3196   -349.93088    212.95809    383.51772    -3946.877 
21403000    152.55919   -4477.1714   -4215.6902   -4477.1714            0    1479.8849    17.875044    23.562266    21.979431    9257.2207    2809.9238    263.90003    1365.8308    39.524775   -490.40406    39.244273   -4015.8953 
21404000    144.47681   -4481.6446   -4234.0163   -4481.6446            0    1379.7506    18.125148    23.239211    21.962263    9250.8157    387.91137    1554.6963    2196.6442   -254.45421   -290.03089    93.448265   -4047.8691 
21405000     138.6586   -4463.4835   -4225.8275   -4463.4835            0    1776.7982     17.86061    23.548693     21.94695    9230.7561    2897.8369    1777.1848    655.37284    -575.4332    2.0390628    190.37687   -3986.6329 
21406000    138.43214   -4485.0208   -4247.7529   -4485.0208            0    2836.4354    17.955504    23.252006    22.036596    9200.3114    2437.0505    3710.5541    2361.7017   -269.85728    -469.8595   -93.147011   -3867.1682 
21407000    146.60054   -4480.8869   -4229.6186   -4480.8869            0     866.9368    17.877677    23.459678    22.061764    9252.8045    1462.4339    113.19651      1025.18    88.602512   -54.840208    608.52599   -4112.6318 
21408000    145.64305   -4476.7445   -4227.1173   -4476.7445            0     1992.768    18.033082    23.267666    21.950316    9210.0834    1900.7195    1507.9094    2569.6752   -129.26973   -143.94181    121.28769   -3959.4495 
21409000    146.39165    -4473.379   -4222.4688    -4473.379            0    2121.6613    17.959758    23.422794    21.916411    9219.5263    3711.0099    1158.3218    1495.6523   -1038.9385   -403.04073    120.70797   -3937.1958 
21410000    143.05712     -4450.19    -4204.995     -4450.19            0    1246.2092    17.950739    23.432136    22.038575    9269.9566    2098.3717    1098.8719     541.3839    168.70151   -362.51188   -29.102438   -4036.5165 
21411000    140.89197   -4479.6946   -4238.2106   -4479.6946            0    2699.1813    17.970124    23.266338    21.955982    9179.7736    4050.0483    1704.1003    2343.3953    -281.7912   -87.815089    205.94992   -3876.8508 
21412000    148.21462   -4478.7988    -4224.764   -4478.7988            0    3118.7067    17.822783    23.500257    21.855657    9154.0228    1900.1272    2663.4273    4792.5654   -394.98425    278.98541    123.18793   -3808.4103 
21413000    144.99037   -4465.5572   -4217.0487   -4465.5572            0    1240.1704    18.125611    23.302061    21.960983     9275.531    859.18571    1611.0518    1250.2736   -165.68657   -185.61489    1089.6893   -4049.2858 
21414000     142.9074   -4473.2502   -4228.3118   -4473.2502            0    1647.1687    17.930371    23.459809    21.948192    9232.3553    2023.0705    1545.6512    1372.7844    140.71083   -339.78501    104.29778   -4006.5297 
21415000    149.22931   -4469.8215   -4214.0475   -4469.8215            0    3668.5175    18.086522    23.010235     21.89352    9111.5383    3556.2302    5572.7126    1876.6099   -688.79874    604.10581    41.067778    -3726.566 
21416000    152.06951   -4475.1927   -4214.5507   -4475.1927            0    1554.3978    17.892768    23.479146    21.966131    9228.1236    2218.0625    1495.2458    949.88504    169.67598    61.340791   -395.27655   -4005.3556 
21417000    142.18881   -4478.1732   -4234.4664   -4478.1732            0    1805.2749    18.000643    23.149171    22.115019    9215.3278    1164.3091    3401.6988    849.81668    115.44101   -297.75487    -226.9589   -3991.8445 
21418000    158.91971   -4467.1301   -4194.7472   -4467.1301            0    2612.2493    17.969053    23.460543    21.796849    9188.7616    2146.6762    2038.4768    3651.5951    335.04169    136.37034    387.92881   -3844.6831 
21419000    151.40744   -4461.6289   -4202.1217   -4461.6289            0     1985.564     17.96824    23.434479    21.930207    9234.2914     2268.312    2692.5028    995.87731   -164.61807   -233.75436    68.215246   -3934.7205 
21420000    149.18569   -4475.2002    -4219.501   -4475.2002            0    1350.9356    18.059222    23.192699     22.10069    9256.6993    1130.0164     2116.058    806.73233    331.38721   -406.60564    -314.1702   -4037.1254 
21421000     148.0471   -4474.9191   -4221.1714   -4474.9191            0    1882.0017    17.713177    23.566668    22.053618    9206.0743     3723.426    1126.0144    796.56468   -318.95184    162.76345    -111.7343   -3968.4917 
21422000    148.06492   -4479.6849   -4225.9067   -4479.6849            0    2427.0966     18.02327    23.221762     21.96089    9191.3375    2827.6875    2185.3841    2268.2183   -592.64265   -83.853349    212.61857   -3900.5635 
21423000    141.48898   -4468.2392   -4225.7319   -4468.2392            0    1967.8508    18.022142     23.29714    21.973667    9225.9599    1911.4959    2589.6477    1402.4088   -402.72926    240.18058    10.082264   -3960.9553 
21424000    143.97191   -4476.7588   -4229.9959   -4476.7588            0    2691.7478    17.867851    23.435028    21.920846    9178.9942    3447.5214    2644.3423    1983.3796    869.98827   -8.3721109     453.9946   -3869.6618 
21425000    150.94633   -4468.2577   -4209.5409   -4468.2577            0    1602.4635    18.083274     23.14633    22.081929     9242.644    937.36132    2064.8458    1805.1835    99.039931     32.44616    415.98871   -3993.5376 
21426000    146.52477   -4471.7681   -4220.6297   -4471.7681            0    1905.1915     17.79609    23.529642    22.021152    9221.0407    2293.2045    1838.6217    1583.7483   -1042.6472   -461.53915    389.21975   -3964.4206 
21427000    147.45771   -4454.7319   -4201.9944   -4454.7319            0    3264.0872    18.007421    23.259543    21.919212    9180.7389    2525.7325    3794.3658    3472.1634   -40.765643   -72.876424    752.31105   -3764.9604 
21428000     151.2576   -4469.6216   -4210.3712   -4469.6216            0    1673.2512    17.975795    23.554144    21.800051    9230.2387    629.97068    1922.4685    2467.3144   -549.99498   -586.68673   -320.40056   -3985.1289 
21429000    143.91156   -4465.5801   -4218.9206   -4465.5801            0    1746.4672    18.074829    23.356841    21.898457    9244.8915    994.18126    1376.5372     2868.683   -585.95816   -227.61384   -124.20567   -3983.4492 
21430000    143.41651   -4471.4303   -4225.6193   -4471.4303            0    1123.8048    17.919905     23.47436    22.022948    9264.1355    1447.4537    677.56126    1246.3994    269.67861    -292.6077    212.69159   -4073.7844 
21431000    152.38565   -4474.5422   -4213.3584   -4474.5422            0     911.9202    17.922313    23.339926     22.25631    9309.9357    902.84619     2116.916   -284.00154   -603.46664    11.083103   -82.490987   -4089.5416 
21432000    161.76605    -4477.109   -4199.8476    -4477.109            0    1499.1744    17.970042     23.29462    22.116766    9258.1953     1877.319    1707.9918    912.21223    430.87594    377.17886    655.48708   -3997.4271 
21433000    147.25251   -4481.5888   -4229.2031   -4481.5888            0    2349.4748    17.887239    23.476439    21.892804    9193.4164    1829.6292    2692.9468    2525.8483    14.293352   -85.357278   -149.22697   -3914.1936 
21434000    152.00072   -4491.0764   -4230.5524   -4491.0764            0    2686.3172    18.034684     23.27399    21.883106     9185.194    2403.1171    2371.3051    3284.5295    88.448134   -15.024786    422.80582   -3870.7024 
21435000    150.81822   -4464.7607   -4206.2635   -4464.7607            0    2311.7445    17.865646    23.464164    21.968021    9209.0483    3007.2396    2239.7424    1688.2516    382.27155    131.87868    604.02734   -3895.7857 
21436000    152.17012   -4468.3614    -4207.547   -4468.3614            0    1761.4139    18.093419    23.227892    21.947596    9223.9595    1111.3058    2493.6235    1679.3123     3.566903   -50.576064    314.06143   -3970.5981 
21437000    142.56636   -4469.0622   -4224.7084   -4469.0622            0    1892.1363    17.940956    23.496248    21.935628    9246.8574     2823.499    935.50006    1917.4097    497.54246   -1088.6018    250.93171   -3969.5426 
21438000    153.09076   -4462.4259   -4200.0335   -4462.4259            0      2290.55    18.070729    23.066862    22.153325    9234.2814    3056.6465    3167.8343    647.16919   -98.997626    380.88423    87.665114   -3891.5594 
21439000    146.76248   -4482.1691   -4230.6232   -4482.1691            0    1942.0708    17.894645      23.4606    21.927285    9205.4932    2552.5398    941.68187    2331.9908    306.03024   -461.06646   -259.89145    -3969.895 
21440000    157.62529   -4466.9667   -4196.8024   -4466.9667            0    813.92043    18.158935    23.306224     21.93517    9283.3194    244.10745    2052.5321    145.12177    104.68616    507.91018    393.21229   -4086.6075 
21441000    143.52801   -4460.4131    -4214.411   -4460.4131            0    2020.0013    17.841946     23.45929    22.074466    9239.4749    2990.6007    1857.7486    1211.6547    330.83542   -737.47994    462.88815   -3942.2193 
21442000    146.45123   -4461.6658   -4210.6535   -4461.6658            0    2630.9554    18.004552    23.203155    22.031695    9204.0142    2603.8352    3091.2944    2197.7366   -840.98467   -199.77113    532.40435   -3857.4974 
21443000    150.83885   -4474.2501   -4215.7175   -4474.2501            0    1288.5304    17.911874    23.456983    22.003983    9245.1609    1724.2379    1469.6118    671.74155    208.51961    279.70655    601.32842   -4041.9834 
21444000    151.90552   -4462.6606   -4202.2998   -4462.6606            0    1748.8065    18.170189    23.230754    21.894085    9241.6502    641.30628    2067.0805    2538.0328    0.4124004   -196.88442   -82.154772   -3966.5956 
21445000    148.92127   -4474.8412   -4219.5952   -4474.8412            0    2316.6587    17.937766    23.403054     21.99394    9233.0232    1360.4133    2724.7036    2864.8591   -398.34781   -308.80169    191.51727   -3907.6475 
21446000    146.41779   -4464.6681   -4213.7131   -4464.6681            0    2078.6983    17.889367    23.127683    22.249164    9205.3604    2758.2222    1014.6415    2463.2311    445.74647    496.29942   -166.74322   -3934.6463 
21447000    139.30073   -4452.8949   -4214.1382   -4452.8949            0    1191.8088     18.03918    23.350908    22.021193    9276.0148    817.73381    1844.5999    913.09274    -211.8971    50.616513    225.41993   -4052.9089 
21448000    149.35142   -4470.5298   -4214.5466   -4470.5298            0    2191.6511    18.013378    23.430602    21.848655    9221.5371    2453.5578    1418.2687    2703.1269    307.22237   -889.67517    51.122474   -3919.7988 
21449000    154.02497   -4468.2506   -4204.2571   -4468.2506            0    1747.8565    17.951445    23.334977    22.008322    9219.2105    759.08924    3276.2052    1208.2751     333.2446   -197.84021    303.46293    -3969.253 
21450000    141.67636   -4465.7039   -4222.8755   -4465.7039            0     1093.614    17.988115    23.436221    21.973029    9263.2456    1269.8119    2180.1905   -169.16055   -104.06003    266.97163    318.61802   -4075.1338 
21451000     142.2969   -4459.7145   -4215.8225   -4459.7145            0    1191.2911    18.071151    23.307504    21.980135     9257.888    1834.5839    804.50206    934.78731    45.622599    232.35925   -81.335637   -4054.9782 
21452000    145.19365   -4458.2652   -4209.4083   -4458.2652            0    2625.5145    17.671802    23.508307    22.100077    9181.1263    3293.7856    3715.0808    867.67719    -938.3789    48.943725     -171.812   -3857.8589 
21453000    149.34355   -4485.2077   -4229.2379   -4485.2077            0    937.61528    18.102732    23.251421    22.020189     9268.611    1168.0362    856.90238    787.90728   -12.357955   -115.27825   -433.56719   -4102.4975 
21454000    142.75544    -4473.384   -4228.7061    -4473.384            0     3265.807    17.976497    23.593389     21.60487    9163.1978      3904.45    2139.4165    3753.5543    845.47807    2.6250691     49.80654   -3792.2772 
21455000    145.00158   -4483.7017    -4235.174   -4483.7017            0    249.92517    18.020874    23.304187    22.126354     9292.224    1005.3245    586.90788   -842.45686   -772.89495   -113.72157    868.89201   -4201.3048 
21456000    147.90509   -4483.6563    -4230.152   -4483.6563            0     2717.196    17.846945    23.207026    22.156367    9176.6025    3654.9722    2281.6236    2214.9922   -365.73879   -145.78502   -279.63755   -3866.5061 
21457000    143.32363   -4469.0963   -4223.4445   -4469.0963            0    852.75496    18.058035    23.412964    21.940324    9276.1961    1438.1168    596.42951    523.71858    222.19633    187.04956    -50.42635   -4108.0806 
21458000    145.78567   -4459.0662   -4209.1946   -4459.0662            0    1468.9983    18.000088    23.374337    21.947336    9234.1245    1183.2823    2155.3796     1068.333   -455.05465     142.6728   -201.14124   -4011.3643 
21459000    151.18115   -4478.9697   -4219.8503   -4478.9697            0    1595.5382    17.905587    23.337803    22.072332    9223.5212    1460.0909    1381.3484    1945.1752   -129.64586   -651.49523       67.392   -4005.2256 
21460000    143.57961   -4449.5593   -4203.4688   -4449.5593            0    1722.2081     18.17502     23.09818    22.008345    9239.3205    677.66976    2284.3662    2204.5882     432.5668   -155.07895    274.40407   -3971.4081 
21461000    151.95903   -4484.5314   -4224.0789   -4484.5314            0    2476.8059    17.870231    23.468509    21.866792    9170.6634    2400.0341    1812.8956     3217.488   -708.18189    -369.6579    152.11064   -3892.8191 
21462000    150.66585   -4473.0112   -4214.7751   -4473.0112            0    1855.9573     18.15526    23.052946    21.949276    9186.4796    857.96921    2209.2411    2500.6615    72.960186    57.645705    446.68462   -3966.1225 
21463000    150.13528   -4461.5917    -4204.265   -4461.5917            0    2538.1312    17.855793    23.361834    22.009721    9181.2248    3243.3499    1964.7788     2406.265   -747.99689   -620.51174   -195.20119   -3864.4124 
21464000    144.57565   -4469.3527    -4221.555   -4469.3527            0    1452.6133    18.064841    23.299997    21.940022    9234.7911    960.25033    1220.4862    2177.1034   -464.04257   -1006.8057   -31.786767   -4025.9171 
21465000    136.57011   -4484.9804   -4250.9039   -4484.9804            0    1560.4697    18.004625    23.403945    21.959174    9253.1402    970.98766    2392.7011    1317.7204    88.231864    -27.28456    431.28188   -4040.3223 
21466000    150.23205   -4482.8621   -4225.3695   -4482.8621            0    1385.4574    17.926193    23.386491     22.02637     9234.132    2240.3961    1251.8744    664.10157   -49.992551    72.507934    347.51128   -4038.7895 
21467000    142.53413   -4476.1953   -4231.8966   -4476.1953            0    2137.9712    17.828588    23.354843    22.100714     9202.381    1998.4311    2651.0953    1764.3871   -313.15879   -144.59463   -157.54396   -3944.9653 
21468000    145.10113   -4461.8916   -4213.1932   -4461.8916            0    1817.4154    18.023762    23.272624    21.990982    9224.3425    2032.5805     1398.586    2021.0797   -120.49866    10.803669   -200.03675   -3968.7007 
21469000    151.83917   -4471.8081    -4211.561   -4471.8081            0    2684.1718    17.888848    23.553328    21.886414    9221.6632    1987.8212      2206.41     3858.284    596.72922    16.629466   -317.35229   -3850.5707 
21470000    142.77276   -4477.2859   -4232.5782   -4477.2859            0    2751.6367    18.029732    23.366198    21.853328    9206.5074    2378.0104    1853.4938    4023.4059    653.69922    -24.00121    29.525626    -3863.123 
21471000    142.13159   -4465.0704   -4221.4617   -4465.0704            0    1959.5789    18.140085    23.329679    21.887792    9262.9652    1790.7243    2718.2533    1369.7592    -1355.473    78.101796    770.53003   -3956.7405 
21472000    142.73749   -4477.9773   -4233.3301   -4477.9773            0    1607.6846     17.93625    23.420414    22.031476    9254.8585    1146.4115    725.32834    2951.3139   -444.74337    445.31877    645.87427   -4016.3367 
21473000    142.40191   -4471.6345   -4227.5625   -4471.6345            0    1835.2918    17.836404    23.313666    22.221373    9240.3573     1349.471    2780.2587    1376.1456      1.61624    519.70091    509.37688   -3980.2365 
21474000    141.87925   -4463.8633   -4220.6871   -4463.8633            0    2519.7997    17.881947    23.370631    22.020262    9202.5401    3933.7023    1809.2935    1816.4034   -578.96641    566.87782   -220.78031   -3882.5058 
21475000    139.80225   -4469.9721   -4230.3559   -4469.9721            0    1984.6152    18.074742     23.40739    21.801693    9223.9154    2855.9844    1566.9504     1530.911     107.7217   -43.631581    267.83658   -3963.3827 
21476000    150.67879     -4477.36   -4219.1017     -4477.36            0    1449.6398    17.811614    23.532303     22.07411    9252.3255    2837.8943    1511.2318  -0.20670114    235.64091   -215.95443   -12.081744   -4023.4936 
21477000    161.58949   -4461.9201   -4184.9613   -4461.9201            0    2256.2318    17.973976    23.242695    22.052611     9212.779    1721.9998    2115.3122    2931.3832   -991.67402   -547.70046     1.057998   -3881.8164 
21478000    157.04743   -4474.7107   -4205.5367   -4474.7107            0    1089.0926    18.023052    23.471227    21.838577    9238.2235     1292.301   -216.30474    2191.2815    69.453909   -54.747495     368.6193   -4058.8033 
21479000    151.63056   -4467.7019   -4207.8123   -4467.7019            0    2528.2895    18.130759    23.251979    21.858228    9214.9048    1693.5112    2577.5246    3313.8325    211.30206    587.69874    444.02702   -3868.0357 
21480000    153.70695   -4464.7552   -4201.3068   -4464.7552            0    1521.5502    17.813488    23.491097    22.052132    9227.8993    2428.5832    1869.6809    266.38639   -130.20387    110.63914    468.23521   -3996.5374 
21481000     154.4689   -4473.1963   -4208.4419   -4473.1963            0    1583.1252    18.073103    23.225221    22.041111    9251.7961     1184.315    2588.8311    976.22959    -252.6584   -14.004141   -285.38929    -3994.834 
21482000    146.26953   -4466.7533   -4216.0523   -4466.7533            0     1437.838    17.784493    23.643794    21.993283    9248.0192    2001.1155    1315.3281    997.07034    452.68048   -880.17321   -511.82873    -4022.127 
21483000    142.17563   -4470.4804   -4226.7963   -4470.4804            0    2149.9295    18.086236    23.310684    21.895457    9231.1798    1537.2668    2241.4334    2671.0883   -881.74436   -219.11318    420.26668   -3937.3571 
21484000    151.73491   -4465.3805   -4205.3121   -4465.3805            0    2407.5488    17.847591    23.393369    22.020306    9193.8138    3072.2653     1896.666    2253.7151    612.96927    437.62574   -215.80669   -3882.5023 
21485000    137.71836   -4465.8971   -4229.8525   -4465.8971            0    2274.4034    17.998513    23.243233    21.973756    9192.5806    2350.5535    3029.9114    1442.7453    535.36559   -325.09382    6.4873173   -3924.9361 
21486000    141.57268   -4465.7396   -4223.0889   -4465.7396            0    2094.5596    17.964435    23.327264    21.969159      9206.42    2324.4315     2456.364    1502.8833     96.01529   -468.72147   -188.62034   -3941.8604 
21487000    148.45049   -4476.1848   -4221.7457   -4476.1848            0    538.90542    17.945077    23.455898    22.037294    9275.8917    528.73511    439.94524    648.03591    8.0254623    509.20346   -61.198061   -4148.8429 
21488000    147.02617   -4461.4029   -4209.4051   -4461.4029            0      2255.42    18.034471    23.254492    21.952624    9206.5458    2081.6371    3014.3113    1670.3116    104.29286    -691.0586    104.56161   -3906.5743 
21489000    146.21996   -4466.6845   -4216.0685   -4466.6845            0    78.865364    17.883226    23.671573    21.998758    9312.6043    227.12402   -169.03247    178.50454     190.6322    70.673339    177.17933   -4205.3574 
21490000    147.17294   -4468.3605   -4216.1111   -4468.3605            0    1325.5677    18.028107    23.239831    22.123051    9268.8981    3098.3052    2125.5512   -1247.1534    582.61602   -218.14785   -425.37397   -4036.9243 
21491000    142.45914   -4476.9906   -4232.8205   -4476.9906            0    3064.5838    17.697528    23.425944    22.124728    9172.4983    3573.9556    3492.6017     2127.194   -655.91941   -869.66132   -457.45731   -3822.8666 
21492000    149.40044   -4474.9234   -4218.8562   -4474.9234            0    1788.7791     18.07059    23.300295    21.860481    9204.3573    1560.7381      1455.83    2349.7692   -121.85761    462.07062    340.25997   -3978.7374 
21493000    149.61086   -4459.8897   -4203.4619   -4459.8897            0    1802.7786    17.994749    23.515029    21.868726    9253.6866    1748.7946    1608.4233    2051.1179    520.47884    251.95214    152.20507   -3960.1669 
21494000    154.52704   -4474.4527   -4209.5986   -4474.4527            0    3238.1429    17.970834    23.167182    22.060897    9184.6923    3518.8039    3213.3847    2982.2402    98.692986    295.31637    494.19553   -3775.8516 
21495000    151.11191    -4457.692   -4198.6913    -4457.692            0     3342.684    17.770242    23.457949    22.004014    9172.4488    3151.5879    2996.8852    3879.5788   -647.76995   -13.574311    167.65515    -3751.538 
21496000    151.86522   -4481.0614   -4220.7697   -4481.0614            0    889.93354    18.117046    23.417548    21.843869    9267.4102     34.22112    532.07028    2103.5092    550.13179    346.60321    593.21381   -4100.4901 
21497000    142.43367   -4464.7136   -4220.5871   -4464.7136            0    2055.5722     17.95705    23.422171    21.927765    9222.6666    1564.4558    2617.5107    1984.7499   -484.25964   -168.23775   -138.77962   -3944.1063 
21498000    150.97709   -4462.5146   -4203.7451   -4462.5146            0    2158.1287    17.878804    23.341457    22.031087    9193.9547    3619.1008    1788.9746    1066.3107    -690.6851    766.54223   -402.49379   -3914.3737 
21499000    143.09347   -4477.0045   -4231.7472   -4477.0045            0    1645.1486    18.089247    23.289545    21.829058    9196.3715    1919.1985    1170.8688    1845.3786     1242.608    428.67045     87.44417   -4011.1004 
21500000    152.99409   -4458.2337   -4196.0071   -4458.2337            0    2018.2548    17.918259    23.423343    21.997537    9232.4881    2026.6582    2231.5783    1796.5278   -403.56254   -687.33564   -715.27018   -3924.2564 
Loop time of 381.947 on 64 procs for 250000 steps with 864 atoms

Performance: 113.105 ns/day, 0.212 hours/ns, 654.541 timesteps/s
192.5% CPU use with 32 MPI tasks x 2 OpenMP threads

MPI task timing breakdown:
Section |  min time  |  avg time  |  max time  |%varavg| %total
---------------------------------------------------------------
Pair    | 17.283     | 25.102     | 33.962     | 105.5 |  6.57
Bond    | 0.99084    | 1.2009     | 1.6975     |  11.4 |  0.31
Kspace  | 189.05     | 200.25     | 209.51     |  41.0 | 52.43
Neigh   | 0.87997    | 0.92385    | 0.99912    |   3.0 |  0.24
Comm    | 57.249     | 61.253     | 64.788     |  22.6 | 16.04
Output  | 0.57006    | 0.57137    | 0.57312    |   0.1 |  0.15
Modify  | 69.74      | 71.446     | 75.287     |  16.1 | 18.71
Other   |            | 21.2       |            |       |  5.55

Nlocal:        27.0000 ave          38 max          18 min
Histogram: 3 6 3 4 2 4 0 3 1 6
Nghost:        2128.97 ave        2219 max        2031 min
Histogram: 11 5 0 0 0 0 0 0 1 15
Neighs:        6580.00 ave        9347 max        4361 min
Histogram: 5 6 2 3 2 4 2 1 2 5

Total # of neighbors = 210560
Ave neighs/atom = 243.70370
Ave special neighs/atom = 2.0000000
Neighbor list builds = 3200
Dangerous builds = 0

unfix		3
unfix		2
unfix		1

write_data	data.final.${pid} nocoeff
write_data	data.final.0 nocoeff
System init for write_data ...
PPPM initialization ...
  extracting TIP4P info from pair style
  using 12-bit tables for long-range coulomb (../kspace.cpp:340)
  G vector (1/distance) = 0.37177611
  grid = 24 27 25
  stencil order = 5
  estimated absolute RMS force accuracy = 0.0031533768
  estimated relative force accuracy = 9.4963006e-06
  using double precision FFTW3
  3d grid and FFT values/proc = 4410 672
Last active /omp style is kspace_style pppm/tip4p/omp

write_restart   restart.lmp.${pid}
write_restart   restart.lmp.0
System init for write_restart ...
PPPM initialization ...
  extracting TIP4P info from pair style
  using 12-bit tables for long-range coulomb (../kspace.cpp:340)
  G vector (1/distance) = 0.37177611
  grid = 24 27 25
  stencil order = 5
  estimated absolute RMS force accuracy = 0.0031533768
  estimated relative force accuracy = 9.4963006e-06
  using double precision FFTW3
  3d grid and FFT values/proc = 4410 672
Last active /omp style is kspace_style pppm/tip4p/omp
Total wall time: 0:06:22
