LAMMPS (30 Jul 2021)
Processor partition = 0
  using 1 OpenMP thread(s) per MPI task
using multi-threaded neighbor list subroutines
variable        pid world 0 1
variable        phase world IceII IceIII

shell cd ${phase}
shell cd IceII
include Restart.lmp
echo both
log log.lammps
#include		in.partitions
include		in.temp
variable        temperature equal 117.85
variable	tempDamp equal 100.0
include		in.pressure
variable        pressure equal 4293.8
variable        pressureDamp equal 1000.0 # This is 1 ps
include		in.seed
variable        seed equal 745823

units		real
atom_style	full
box tilt large
read_restart	restart.lmp.${pid}
read_restart	restart.lmp.0
Reading restart file ...
  restart file = 30 Jul 2021, LAMMPS = 30 Jul 2021
  restoring atom style full from restart
  triclinic box = (-10.659756 -9.0963315 0.12472314) to (12.639756 12.086329 21.735276) with tilt (-9.1332794 1.9974315 2.8790353)
  4 by 4 by 4 MPI processor grid
  restoring pair style lj/cut/tip4p/long/omp from restart
  restoring bond style harmonic/omp from restart
  restoring angle style harmonic/omp from restart
  1296 atoms
  864 bonds
  432 angles
Finding 1-2 1-3 1-4 neighbors ...
  special bond factors lj:    0        0        0       
  special bond factors coul:  0        0        0       
     2 = max # of 1-2 neighbors
     1 = max # of 1-3 neighbors
     1 = max # of 1-4 neighbors
     2 = max # of special neighbors
  special bonds CPU = 0.007 seconds
  read_restart CPU = 0.019 seconds
include 	in.setup
variable	out_freq equal 1000
variable	out_freq2 equal 10000
variable	out_freq3 equal 1000

timestep	2.0

neigh_modify    delay 7 every 1

include		in.tip4p
# This is TIP4P/Ice

# create groups ###
group ox type 2
432 atoms in group ox
group hy type 1
864 atoms in group hy

# set charges - beside manually ###
set group ox charge -1.1794
Setting atom values ...
  432 settings made for charge
set group hy charge 0.5897
Setting atom values ...
  864 settings made for charge

# ### TIP3P Potential Parameters ###
pair_style lj/cut/tip4p/long/omp 2 1 1 1 0.1577 8.5
pair_coeff 1 1*2 0.000 0.000
pair_coeff 2 2 0.21084 3.1668
bond_style  harmonic
bond_coeff  1 450 0.9572
angle_style harmonic
angle_coeff 1 55 104.52
kspace_style pppm/tip4p/omp 1.0e-5
pair_modify tail yes

thermo          ${out_freq}
thermo          1000
thermo_style    custom step temp pe etotal epair emol press lx ly lz vol pxx pyy pzz pxy pxz pyz enthalpy

restart 	${out_freq3} restart.lmp.${pid} restart2.lmp.${pid}
restart 	1000 restart.lmp.${pid} restart2.lmp.${pid}
restart 	1000 restart.lmp.0 restart2.lmp.${pid}
restart 	1000 restart.lmp.0 restart2.lmp.0


include         in.dump
dump            myDump all atom ${out_freq2} dump.water.${pid}
dump            myDump all atom 10000 dump.water.${pid}
dump            myDump all atom 10000 dump.water.0
dump            myDump2 all dcd ${out_freq2} dump.dcd
dump            myDump2 all dcd 10000 dump.dcd
dump_modify     myDump append yes
dump_modify     myDump2 append yes


variable natoms 	equal  "count(all)"                        # NUMBER ATOMS
variable H      	equal  "enthalpy/v_natoms"                 # ENTHALPY-per-atom
variable Vol      	equal  "vol/v_natoms"                 # volume-per-atom
fix AVG all 		ave/time ${out_freq} 1 ${out_freq} v_Vol v_H file vol_enthalpy.dat
fix AVG all 		ave/time 1000 1 ${out_freq} v_Vol v_H file vol_enthalpy.dat
fix AVG all 		ave/time 1000 1 1000 v_Vol v_H file vol_enthalpy.dat


timer           timeout 10:00:00 every 1000
New timer settings: style=normal  mode=nosync  timeout=10:00:00

fix 		1 all shake 1e-6 200 0 b 1 a 1
Finding SHAKE clusters ...
       0 = # of size 2 clusters
       0 = # of size 3 clusters
       0 = # of size 4 clusters
     432 = # of frozen angles
  find clusters CPU = 0.001 seconds
fix             2 all nph tri ${pressure} ${pressure} ${pressureDamp}
fix             2 all nph tri 4293.8 ${pressure} ${pressureDamp}
fix             2 all nph tri 4293.8 4293.8 ${pressureDamp}
fix             2 all nph tri 4293.8 4293.8 1000
fix             3 all temp/csvr ${temperature} ${temperature} ${tempDamp} ${seed}
fix             3 all temp/csvr 117.85 ${temperature} ${tempDamp} ${seed}
fix             3 all temp/csvr 117.85 117.85 ${tempDamp} ${seed}
fix             3 all temp/csvr 117.85 117.85 100 ${seed}
fix             3 all temp/csvr 117.85 117.85 100 745823


run             250000
PPPM initialization ...
  extracting TIP4P info from pair style
  using 12-bit tables for long-range coulomb (../kspace.cpp:340)
  G vector (1/distance) = 0.36691501
  grid = 30 40 32
  stencil order = 5
  estimated absolute RMS force accuracy = 0.0046600343
  estimated relative force accuracy = 1.4033555e-05
  using double precision FFTW3
  3d grid and FFT values/proc = 5168 640
Last active /omp style is kspace_style pppm/tip4p/omp
Neighbor list info ...
  update every 1 steps, delay 7 steps, check yes
  max neighbors/atom: 2000, page size: 100000
  master list distance cutoff = 10.8154
  ghost atom cutoff = 10.8154
  binsize = 5.4077, bins = 7 5 4
  1 neighbor lists, perpetual/occasional/extra = 1 0 0
  (1) pair lj/cut/tip4p/long/omp, perpetual
      attributes: half, newton on, omp
      pair build: half/bin/newton/tri/omp
      stencil: half/bin/3d/tri
      bin: standard
Setting up Verlet run ...
  Unit style    : real
  Current step  : 9250000
  Time step     : 2
  Walltime left : 9:59:59.90
Per MPI rank memory allocation (min/avg/max) = 9.446 | 9.450 | 9.455 Mbytes
Step Temp PotEng TotEng E_pair E_mol Press Lx Ly Lz Volume Pxx Pyy Pzz Pxy Pxz Pyz Enthalpy 
 9250000    122.62563   -6701.6737   -6386.2268   -6701.6737            0    4976.9758    23.299513    21.182661    21.610553    10665.795    4860.2611    6012.5456    4058.1206   -462.37587     207.0037    -667.1177   -5612.0598 
 9251000    116.62425   -6707.4179   -6407.4091   -6707.4179            0    3596.9036    23.323502    21.172419    21.695302    10713.465    2282.9087    4529.9296    3977.8723    294.37004    73.190026    906.11766   -5845.4113 
 9252000    122.71341   -6725.5942   -6409.9215   -6725.5942            0    3754.9474    23.333308    21.237988    21.555394     10681.83    2676.9174    4228.1733    4359.7514    501.16465   -450.81929    673.59779   -5824.9625 
 9253000    120.59097   -6721.5266   -6411.3137   -6721.5266            0    4242.3181    23.168499    21.354859    21.602664    10688.135    4420.6973    4114.9495    4191.3076    -138.2533    529.19776   -320.64612   -5750.0403 
 9254000    114.24601   -6718.6606   -6424.7697   -6718.6606            0    4122.5675    23.178025    21.427717    21.525768    10690.819    5098.1884    2510.5693    4758.9447   -157.89937   -810.84225    421.37608   -5782.0011 
 9255000      120.076   -6719.1328   -6410.2446   -6719.1328            0    3714.5223    23.109776    21.473171    21.552156    10695.046    3845.4264    2994.1372    4304.0034   -518.23476    1020.1346    142.28718   -5830.8672 
 9256000    120.39417   -6705.5538   -6395.8471   -6705.5538            0     4249.158     23.06208    21.502343    21.536417    10679.667    4421.5719    3731.4288    4594.4731    420.75359    169.03979    649.55459   -5734.0323 
 9257000    115.82559   -6717.0805   -6419.1262   -6717.0805            0    3790.0624     23.05942    21.482674    21.612725    10706.469    4842.1201    3016.5044    3511.5626    306.24748   -818.89812    224.51777    -5827.335 
 9258000    121.28764   -6712.4493   -6400.4442   -6712.4493            0     6150.035    23.055506    21.369194    21.545947    10615.205     7941.448    4920.2209     5588.436   -342.48726   -975.61951   -571.11617   -5448.3457 
 9259000    125.77375   -6713.8891   -6390.3438   -6713.8891            0    3531.4693    23.232758    21.358183    21.620807     10728.45    3467.4937    3990.0109    3136.9033    -105.9629    287.67291   -311.35332    -5837.798 
 9260000    119.71358   -6709.6152   -6401.6593   -6709.6152            0    4097.2993    23.243927    21.243961    21.639361    10685.367    4669.3856    4500.8005    3121.7118   -348.43739    -274.7774    -405.1412   -5763.1561 
 9261000    118.14034   -6712.0119   -6408.1031   -6712.0119            0    4325.9664    23.320583    21.202333     21.63472    10697.304    3838.7328    5541.1004    3598.0659    810.13747   -1516.1358    380.60429   -5733.2125 
 9262000    118.66828   -6694.5871   -6389.3202   -6694.5871            0    3814.8453    23.267398     21.28482     21.61479     10704.56    3582.3496    3908.6416    3953.5447    33.597643    17.631719   -142.28069   -5793.7655 
 9263000    122.97686   -6710.7927   -6394.4422   -6710.7927            0    4701.3446    23.314299    21.257935     21.51807    10664.653      4853.84    4519.2401    4730.9536    238.19055    -39.19686    158.38697   -5663.2278 
 9264000    118.30283   -6727.7136   -6423.3867   -6727.7136            0    3921.2457    23.180351    21.294074    21.670911     10696.85    4066.4475    4077.9944    3619.2954   -74.681978    286.63601    33.064338   -5811.6622 
 9265000    121.42828   -6716.7677   -6404.4008   -6716.7677            0    4941.5733    23.171884    21.297764    21.575377     10647.65    4819.1607    4590.5359    5415.0233    1454.6333    4.6084407    323.49193   -5637.0483 
 9266000    118.30606   -6714.2146   -6409.8795   -6714.2146            0    3569.6104    23.120913    21.444901    21.630882    10725.147    3280.5703    4180.3808    3247.8802   -986.79968    1125.0474   -355.61629   -5851.5379 
 9267000    119.12374   -6709.8553   -6403.4167   -6709.8553            0    5160.5751    23.168773    21.363527    21.499538    10641.556    4604.6403    5133.1158    5743.9694    149.88929    498.43999   -409.47849   -5602.5152 
 9268000    111.91383   -6711.2123   -6423.3208   -6711.2123            0    3429.6895    23.038363    21.378311    21.769494    10721.939    4696.2969    3114.4798    2478.2916   -152.37045    288.27422     492.1333   -5887.0254 
 9269000    116.45739   -6710.3171   -6410.7376   -6710.3171            0    4760.2869    23.191872    21.337566    21.539764    10659.127    4377.0122    4349.9303    5553.9183   -544.18198    240.50977    177.66478   -5670.7394 
 9270000    118.76284   -6720.9823   -6415.4722   -6720.9823            0    3333.7373    23.172094    21.307054    21.734167     10730.79    3812.1327    4285.1023    1903.9768   -276.55617   -238.62256    -937.9025   -5893.7504 
 9271000     118.1486   -6727.6204   -6423.6903   -6727.6204            0    4584.5615    23.285219    21.374217    21.449427    10675.451    4388.2491    4062.3223     5303.113    1093.4267    -1011.334   -87.661819   -5709.9176 
 9272000    122.50745   -6717.7191   -6402.5761   -6717.7191            0     4168.084    23.034108    21.340518    21.775241    10703.833    4318.0206    5224.1007    2962.1307   -677.57564    209.06427    -398.6947   -5751.9198 
 9273000    121.05209   -6725.1329   -6413.7337   -6725.1329            0    4251.3157    23.227021    21.362702    21.494027    10665.163     3987.173    3578.1717    5188.6024    639.85074    -153.5967    558.02188   -5752.4822 
 9274000     127.0515   -6704.3576   -6377.5254   -6704.3576            0    4368.8202    23.164585    21.323157    21.668439    10702.953    5412.2796    3760.6599     3933.521    -49.77317   -175.49784   -583.54729   -5695.5892 
 9275000    122.07573   -6701.7228   -6387.6904   -6701.7228            0    4544.8645    23.264501    21.379862     21.47683    10682.399    4210.3883    4593.7161    4830.4892    -949.7876   -280.05873   -579.08845   -5679.6376 
 9276000    121.28323   -6703.5074   -6391.5137   -6703.5074            0     4197.968    23.145546     21.28152    21.734203    10705.668    4270.8921    4127.0946    4195.9174    189.98341    27.604707    737.19047   -5736.0799 
 9277000    117.50598   -6702.6677   -6400.3908   -6702.6677            0      3873.09    23.322571    21.326809    21.529938    10708.905    3435.7847    3758.9959    4424.4894    230.12096    675.40423    78.603215   -5795.4978 
 9278000    115.70585   -6720.9557   -6423.3095   -6720.9557            0    5214.1449    23.125376    21.312325    21.605651    10648.464    5286.1052     5520.116    4836.2136   -582.63276    134.53751   -224.26912   -5613.5688 
 9279000    116.32868   -6721.4095    -6422.161   -6721.4095            0      3983.31    23.192372    21.382928    21.578826    10701.389    5031.9355    3411.8248    3506.1698    244.31972   -529.06212   -996.60455   -5800.4907 
 9280000    123.09332   -6703.5391   -6386.8891   -6703.5391            0    4643.6164    23.140223     21.39227    21.557746    10671.556    4806.2212    4116.1446    5008.4835   -191.98399    877.33122    634.74243   -5664.1859 
 9281000    119.67021   -6703.5494    -6395.705   -6703.5494            0    4427.1653    23.147869    21.398885    21.568962    10683.939    4252.4012     4176.197    4852.8976    441.36309   -418.83263    268.16059   -5705.8894 
 9282000    121.15062   -6710.3434   -6398.6908   -6710.3434            0    3714.2946    23.155093    21.389031    21.607575    10701.476    4255.7299    2729.6411    4157.5129    142.38353    153.99421    27.056478   -5819.0007 
 9283000    115.65801   -6704.2308   -6406.7076   -6704.2308            0    4279.5738    23.146649    21.381742    21.626499    10703.294    4850.5069    4788.9066    3199.3079    212.06477   -1628.3454   -32.041826   -5738.6809 
 9284000    119.07288   -6721.0355   -6414.7278   -6721.0355            0    4204.3318    23.218743    21.304334      21.6094    10689.302     3777.186     4111.296    4724.5135   -137.06702    647.78283    316.96745    -5759.304 
 9285000    114.37618   -6712.1923   -6417.9665   -6712.1923            0    4204.6599    23.233379    21.285388    21.583457    10673.699    3859.1149    4728.5749      4026.29   -167.21084   -917.67953   -664.41837   -5763.4484 
 9286000    119.13377   -6723.9157   -6417.4513   -6723.9157            0    4301.5968    23.207493    21.298074    21.573674    10663.326    4479.1261     3883.536    4542.1283    -305.4752    217.08435     170.4367   -5748.4942 
 9287000    119.67145   -6710.5579   -6402.7104   -6710.5579            0     4822.811    23.187666    21.283472    21.611051    10665.357    5050.3146     5040.503    4377.6155    64.601293   -129.83565   -253.02057   -5652.5545 
 9288000     120.5157   -6718.2546   -6408.2353   -6718.2546            0    4391.9397    23.128984    21.317148     21.67275    10685.619    4249.9698    4820.0751    4105.7742   -1108.8875    622.11516   -221.15484   -5723.8008 
 9289000    116.07766   -6708.7253   -6410.1226   -6708.7253            0    3282.7149    23.253509    21.402838    21.562624    10731.526    3758.8272    3059.3378    3029.9795    365.42804   -918.06536   -532.59169   -5896.3505 
 9290000    115.90983   -6715.6662   -6417.4952   -6715.6662            0    3853.9813    23.168528    21.357208    21.648621    10712.064    3576.0885    4711.4061    3274.4493    256.26223    825.56865    174.57402    -5815.409 
 9291000     115.3314   -6714.9466   -6418.2636   -6714.9466            0    3721.4773    23.182383    21.379403    21.612276    10711.595     3744.329    2682.9921    4737.1107    400.89693   -857.58145    397.82435   -5836.9033 
 9292000    122.46478   -6721.7344   -6406.7012   -6721.7344            0    5245.9774    23.103497    21.308477    21.601178    10634.267    4845.9708    5974.2778    4917.6836   -846.14979    1086.1887   -114.36673   -5593.1032 
 9293000    117.60879   -6705.0596   -6402.5181   -6705.0596            0    3827.3623    23.221706    21.363788    21.569308    10700.611    3800.1132    3290.4228     4391.551    278.53785     -628.315   -42.123073   -5805.2298 
 9294000    117.26955   -6704.7542   -6403.0854   -6704.7542            0    4502.7252    23.140466    21.404902    21.584648    10691.296    5525.2757    3257.6747    4725.2251   -306.29601    -624.7599    421.31776   -5701.0134 
 9295000    111.90338   -6724.2263   -6436.3617   -6724.2263            0     4386.455    23.189606    21.338682    21.541245    10659.376    4717.6106    4278.0799    4163.6745    1069.3325    -36.98639   -637.26531   -5754.4607 
 9296000    121.68536   -6719.6739   -6406.6457   -6719.6739            0    3401.1602    23.208897    21.321264    21.665544    10721.043    3607.0789    2522.4989    4073.9027   -290.74682    894.97188    636.37989   -5874.8559 
 9297000    112.34291   -6703.2006   -6414.2053   -6703.2006            0     6499.441    23.167118    21.252434    21.536576    10603.698    5894.5811    8435.1947    5168.5473   -131.37436    10.100875   -404.80916   -5409.1054 
 9298000    121.61409   -6709.8339   -6396.9891   -6709.8339            0    4345.9596    23.294324    21.253057    21.592515    10689.927    4583.9682    4822.1366    3631.7741    -374.3564    606.02206   -1135.2899   -5719.4469 
 9299000    121.99877   -6713.6822   -6399.8478   -6713.6822            0    3864.2701    23.293462    21.274305    21.608403    10708.092    3291.3038    4676.3364    3625.1701    531.73206   -1007.0796   -280.86813   -5796.3781 
 9300000    115.26001   -6708.9342   -6412.4348   -6708.9342            0    3537.6841    23.219749    21.262501    21.721259    10724.001    3438.9681    4787.4565    2386.6275    -495.4462    163.94067   -815.32434   -5859.1461 
 9301000    117.63506   -6698.8451    -6396.236   -6698.8451            0     4540.384    23.165204     21.34466    21.610973    10685.619    5507.6806    3737.1529    4376.3184    159.01625   -1425.4043    1167.3422    -5688.668 
 9302000    117.67679   -6723.4689   -6420.7526   -6723.4689            0    3830.5061     23.18189    21.324967    21.640467    10698.031    3457.6623    4066.4644    3967.3915    -240.3238    777.50376    115.68025   -5823.1178 
 9303000      113.988   -6712.2596   -6419.0324   -6712.2596            0     3772.306    23.153475    21.445616    21.568118    10709.445    3852.7792    2889.6018    4574.5371    160.83849   -498.67158   -107.85484     -5829.85 
 9304000    118.82192   -6705.6407   -6399.9785   -6705.6407            0    4736.3418    23.103881    21.417745    21.544823     10661.09    4980.9492    4183.8306    5044.2457   -977.07434   -551.79229    397.02701   -5663.5671 
 9305000    127.34759   -6730.1902   -6402.5963   -6730.1902            0    4277.6425    23.071875    21.417265    21.594647    10670.703    4318.1284    4071.7525    4443.0465    822.38081   -319.22488    83.675004   -5736.9042 
 9306000    123.16165   -6706.8649    -6390.039   -6706.8649            0     4139.498    23.185231    21.374922    21.571147    10690.283    3893.4965    4209.4099    4315.5875   -118.36991    360.23137   -154.60695   -5744.6631 
 9307000    117.09777   -6709.7821   -6408.5552   -6709.7821            0    3948.6033    23.211289    21.405419    21.505709    10685.055     3712.141     3484.161    4649.5081   -195.72059   -594.65668   -326.37678   -5793.2421 
 9308000    118.91484   -6716.6992    -6410.798   -6716.6992            0    4455.8022    23.260484    21.271332    21.596542    10685.569    4068.5497    4800.9315    4497.9254    253.02221    175.48733    147.81405   -5716.4144 
 9309000    113.66684   -6698.4516   -6406.0506   -6698.4516            0    4116.1003     23.28128    21.235849    21.656616    10706.982    3790.5217    4593.0877    3964.6916    245.79297    172.20018    63.679793     -5763.32 
 9310000    112.49076     -6715.48   -6426.1043     -6715.48            0    4489.0399    23.312593    21.229065     21.56449    10672.364    4111.8104    4347.8026    5007.5066   -522.52785    920.46857    530.98441   -5727.4055 
 9311000    115.64224   -6707.8555   -6410.3728   -6707.8555            0    4155.7919    23.227297    21.273671    21.645922    10695.896    3950.7228    4742.6769    3773.9758   -410.44548   -389.81843   -172.99925   -5762.1163 
 9312000    118.27023   -6704.0379   -6399.7949   -6704.0379            0    3627.9831    23.260489    21.339629    21.560194    10701.838    3532.3382    3666.3154    3685.2958   -568.28148    15.528658    -171.9913   -5833.5563 
 9313000    119.68806    -6695.557   -6387.6668    -6695.557            0    4284.8676    23.181133    21.334158    21.646162    10705.108    4102.6549    4339.2558    4412.6922    224.10536   -238.61859    761.86317   -5718.7003 
 9314000    117.42418   -6711.2477   -6409.1811   -6711.2477            0    6003.7104    23.151718    21.304656    21.537638    10623.211    6004.0329    5813.3787    6193.7196    -638.5076    454.27634   -141.00039   -5479.0344 
 9315000    111.73118   -6719.1042   -6431.6826   -6719.1042            0    4264.0191    23.205397    21.390136     21.52168    10682.643    4319.9623    3475.8082    4996.2868   -269.23482   -411.28819    47.043386    -5767.368 
 9316000    121.57513   -6708.8722   -6396.1276   -6708.8722            0     3905.308    23.176012    21.269323    21.742624    10717.767    4332.6674     4114.256    3269.0007    -790.2252    134.08791    469.58855   -5785.6981 
 9317000    113.08668   -6716.1823   -6425.2737   -6716.1823            0    4905.1428     23.21241    21.332344    21.533295    10662.752    4989.3082    4389.7354    5336.3849    328.63684   -1277.7423    328.78617    -5662.498 
 9318000    114.01592   -6713.1773   -6419.8783   -6713.1773            0    4116.8258    23.138398    21.293438    21.699589    10691.302     4139.579    4269.1401    3941.7584   -247.58702   -71.868905   -637.43624    -5777.976 
 9319000    111.49822   -6720.8657   -6434.0433   -6720.8657            0    3881.0904    23.154808    21.474622    21.527487    10704.343    4772.3135    2712.7258    4158.2317    304.64978    -779.4608   -208.66944    -5828.159 
 9320000    114.67056   -6705.1905   -6410.2075   -6705.1905            0    4962.1588    23.069081    21.420593    21.549003    10648.513    5018.4975    4269.9681    5598.0107   -126.35545    608.60761    621.24589    -5639.596 
 9321000     120.5367   -6713.8674   -6403.7941   -6713.8674            0    4088.1261     23.13108    21.400015    21.598753    10691.501    4362.6533    3684.9855    4216.7396    1002.3186    148.51625    115.83606   -5766.3548 
 9322000    124.97122   -6704.4667   -6382.9859   -6704.4667            0     4380.671    23.187734    21.373934    21.576321    10693.507     3902.015    4823.0145    4416.9835   -161.30178    180.56774   -294.78581   -5699.8034 
 9323000    112.20962   -6711.6469   -6422.9945   -6711.6469            0    3902.4881    23.188891     21.39459    21.584941    10708.652    4979.2309    2841.2658    3886.9675   -66.709654   -813.50753    92.488596   -5813.5246 
 9324000    118.05791   -6719.4538    -6415.757   -6719.4538            0    3623.5361    23.241583    21.313842    21.638456    10718.986    4005.4443    3415.0936    3450.0705    95.116576    21.489214   -353.15619   -5849.3062 
 9325000     125.2434   -6731.5038   -6409.3228   -6731.5038            0    4853.8526    23.227948    21.219226    21.623836    10657.936    6225.8198    5061.1429    3274.5952   -513.32687   -5.8871504   -140.95142   -5654.8639 
 9326000    116.83995   -6712.9641   -6412.4004   -6712.9641            0    3916.4976    23.320507    21.238284    21.631641    10713.882    3749.6727     3798.218    4201.6019    -428.0955   -194.95816   -286.15971   -5800.4438 
 9327000    119.30866   -6725.8633   -6418.9491   -6725.8633            0    3659.6935    23.390829    21.172794    21.602053      10698.4    3094.7661    4283.1413    3601.1732     427.0632   -426.89572    3.3438144   -5847.9447 
 9328000    119.98395   -6700.8119   -6392.1605   -6700.8119            0    4394.4722    23.212482    21.298446     21.66085    10708.903    4080.0867    4592.5014    4510.8284   -598.32488    553.99751    565.86217    -5705.839 
 9329000     114.0454   -6714.1385   -6420.7636   -6714.1385            0    4470.7403    23.174823    21.312387    21.620468    10678.582    4240.7819    5395.7407    3775.6982     394.1334    162.31332    27.658252   -5724.5077 
 9330000    120.39591   -6699.7243   -6390.0132   -6699.7243            0    4665.2221    23.141994    21.382051    21.549129    10663.011    5012.4765    4852.2837     4130.906    758.63331   -122.09048   -798.93657   -5664.5288 
 9331000     112.5054   -6709.1577   -6419.7444   -6709.1577            0    3255.4343    23.008351    21.505203    21.670146    10722.373     4078.299      3404.59    2283.4138   -341.58357   -685.07435    403.52274   -5910.6765 
 9332000    112.00282   -6701.6864    -6413.566   -6701.6864            0    5533.4568    23.106154    21.433067    21.484636     10639.96    5318.8341    5203.6284    6077.9077   -205.95961    1125.4925   -310.37912   -5554.9234 
 9333000    116.98369   -6714.4013   -6413.4679   -6714.4013            0    3374.4433    23.024045    21.503074    21.677997    10732.511    3708.8228     2893.191    3521.3161   -402.38138   -383.73259     151.5605    -5885.291 
 9334000    120.79739   -6696.4289    -6385.685   -6696.4289            0    5141.2168    23.169497    21.404871    21.502402    10663.903    6310.5143    3895.1429    5217.9932   -295.40781    159.16631   -45.379473   -5586.1122 
 9335000    114.31118   -6709.7315   -6415.6729   -6709.7315            0     3579.623    23.235921     21.34614     21.60269    10714.874    3512.0478    3367.1925    3859.6286   -242.75145     234.6203    611.69625   -5856.3015 
 9336000    117.54976   -6722.3955   -6420.0059   -6722.3955            0    3165.2437    23.231182    21.315866    21.642983    10717.448    3163.3345    2907.7826     3424.614      40.9528   -387.52569    314.53799   -5925.2689 
 9337000    114.91091   -6724.1174   -6428.5161   -6724.1174            0    4169.7238    23.356546    21.229076    21.580502     10700.43    3038.2983    4546.4656    4924.4074    725.83681    607.29952    -58.02461   -5777.8106 
 9338000    117.98273   -6706.5836   -6403.0802   -6706.5836            0    4139.2411     23.27833    21.301762    21.578249    10699.995    4212.2451    4596.7667    3608.7116   -971.87926     459.2397   -1151.6288    -5757.158 
 9339000    112.50701   -6720.8951   -6431.4777   -6720.8951            0    4921.1271    23.146624    21.276241    21.607016    10640.875    4784.3057    5027.2797     4951.796   -131.31815   -177.70626    1010.3966   -5667.7864 
 9340000    114.27446   -6711.7549   -6417.7908   -6711.7549            0    3715.5493    23.249759    21.292146    21.637712    10711.474    3748.2648    3055.4412    4342.9418   -224.13717    1110.5406   -186.18751   -5837.3631 
 9341000    118.33912   -6730.2132    -6425.793   -6730.2132            0    5057.7525    23.168444    21.341365    21.558141    10659.341    5093.1971    4240.3515    5839.7088    314.57568   -401.69812    200.28786   -5639.5373 
 9342000     116.3641   -6709.3375   -6409.9979   -6709.3375            0    3897.3793    23.216281    21.399615    21.593303    10727.974    4596.9179     3644.875     3450.345   -689.08322    130.90779    52.168005   -5800.2276 
 9343000    118.50143   -6712.3954   -6407.5577   -6712.3954            0    4789.4912    23.167015    21.336907     21.55949    10657.124    4420.9675    5422.6574    4524.8486    1334.1463   -45.272179   -230.93267   -5663.1596 
 9344000    117.72103   -6707.1292    -6404.299   -6707.1292            0    4329.5262    23.069938    21.410082    21.610337    10673.977    4959.4715    4510.8092    3518.2979   -227.50301     244.3307    110.61719   -5730.3259 
 9345000    115.44008   -6729.3149   -6432.3524   -6729.3149            0    3321.3843    23.189131    21.405631    21.586486    10715.056    3775.4961    3519.7777    2668.8792   -284.64922    437.93382   -1021.6348   -5913.3259 
 9346000    122.44945   -6710.0533   -6395.0595   -6710.0533            0    4899.7241    23.203743    21.360842    21.487931    10650.524    4361.4828    5140.7267    5196.9628    188.08511   -676.69858    133.24758   -5634.0002 
 9347000    116.81541   -6713.5212   -6413.0207   -6713.5212            0    3745.1037    23.272106      21.2816    21.653673    10724.364    3435.0841    3458.2144    4342.0127   -8.4218039    927.12661   -136.01703   -5827.2721 
 9348000    115.90511   -6721.4897   -6423.3309   -6721.4897            0    4956.6524    23.360483    21.137118    21.543804    10637.755    4253.3555    5797.0333    4819.5684    655.22751   -133.66817    503.08265   -5654.3521 
 9349000    119.61636   -6717.2036   -6409.4978   -6717.2036            0    3146.6541    23.308532    21.221438    21.694483    10730.971    3293.8094    3634.0964    2512.0565   -520.25253    151.14466    423.92557   -5917.0457 
 9350000    115.62693   -6715.5964   -6418.1532   -6715.5964            0    5190.9931    23.235532    21.233583    21.553499    10633.927    4673.7596    6880.6549    4018.5647    797.36034   -839.48727   -835.38721   -5613.1084 
 9351000    114.16848   -6717.8482   -6424.1567   -6717.8482            0    3924.0537    23.278483    21.367105    21.496479    10692.215    2878.8755     4071.475    4821.8106   -742.06893    437.46433    119.23972   -5812.2594 
 9352000    117.82113    -6714.776   -6411.6884    -6714.776            0    4298.1021    23.172959    21.285281    21.690428     10698.65    3859.6749    5135.1062    3899.5251    525.76387    172.49838    473.46223   -5741.0605 
 9353000    119.33176   -6704.5077    -6397.534   -6704.5077            0    4853.8404    23.222375    21.351726    21.503169    10662.084    5156.4709    4867.7617    4537.2887   -253.89469     790.3647   -13.985647   -5642.7834 
 9354000    119.59548   -6712.2824   -6404.6303   -6712.2824            0    4606.6435    23.205323    21.452934    21.493434     10699.91    3992.6167    4046.8675    5780.4464    1051.7352   -171.15487   -440.78321   -5685.7764 
 9355000    120.79156      -6715.4    -6404.671      -6715.4            0    3487.6209    23.163692    21.433747    21.602904    10725.512    3143.3269    3385.1526    3934.3831   -49.140846    101.91675    131.17799   -5859.1353 
 9356000    118.08959    -6721.055   -6417.2767    -6721.055            0     4747.692    23.113569    21.359577    21.580004    10653.963    5256.1878    4648.5698    4338.3185   -85.981238   -269.73896    18.349318    -5679.594 
 9357000    116.05634   -6714.6976   -6416.1497   -6714.6976            0     4461.472    23.130511    21.343348    21.618591    10672.721    5887.8285    3247.6585    4248.9289    -356.0475   -27.650968   -238.84521   -5721.7186 
 9358000    116.67608   -6717.2991    -6417.157   -6717.2991            0    3919.3693    23.168384    21.451602    21.551077    10710.863    4511.8144    3462.5709    3783.7227    354.06743    -1438.851   -589.75668   -5804.9242 
 9359000    113.90785   -6709.7841   -6416.7631   -6709.7841            0    4493.9137    23.146867    21.330564    21.591222    10660.358    3824.2138    4862.9798    4794.5475   -38.925175    29.563226    782.43649   -5718.0926 
 9360000    112.38361   -6709.3026   -6420.2026   -6709.3026            0    4511.0413    23.234312     21.29291     21.55645    10664.538    4448.1756    4490.7121    4594.2363   -536.27147    507.79796   -355.08984   -5718.5943 
 9361000    117.98603   -6709.6481   -6406.1363   -6709.6481            0    4683.9803    23.155792    21.290515    21.628416    10662.782    5155.0306    4649.0196    4247.8908   -325.98454    587.75844    474.92682   -5677.7504 
 9362000    122.07193    -6723.212   -6409.1894    -6723.212            0    4738.5771    23.226033    21.311789    21.558916    10671.411     4350.089    4499.6101    5366.0322    776.04906   -520.48166   -248.50784   -5671.7171 
 9363000    118.68494   -6714.9657   -6409.6559   -6714.9657            0    3540.3289    23.292219     21.36111     21.55071    10722.505    2481.6303    3836.0503    4303.3061    109.01775    781.88385    34.869425   -5856.0308 
 9364000    121.65425   -6713.9441    -6400.996   -6713.9441            0    4192.9396    23.138634    21.263208    21.731189    10691.779    4936.8012    5005.8676    2636.1499    408.45812   -399.84399    165.24039   -5747.1966 
 9365000    119.00593   -6708.4532   -6402.3177   -6708.4532            0    4237.6271    23.253115    21.339628    21.514727    10675.883    3729.6855    4288.4859      4694.71    39.053258    -47.98156    119.37339   -5742.5327 
 9366000    113.14317   -6719.7842   -6428.7303   -6719.7842            0    4461.1093    23.169945    21.315329    21.642985    10688.929    4129.8275    4390.1438    4863.3565    1048.2677   -106.98644    523.61234   -5733.3011 
 9367000    111.36095   -6726.8895   -6440.4202   -6726.8895            0    4389.9376    23.239732    21.304821    21.541038    10665.363    4566.5821    4812.4364    3790.7943      385.627     243.7694   -727.48445   -5757.5945 
 9368000    115.50922    -6725.656   -6428.5156    -6725.656            0    3015.7948    23.154864    21.306316    21.754332    10732.387    3839.2179    3409.3519    1798.8144    842.31089   -1504.2125   -110.20514   -5956.4808 
 9369000     116.2452   -6714.0646   -6415.0309   -6714.0646            0    4458.6068    23.214433    21.310535    21.588294    10679.988    4012.8438     4855.984    4506.9925    540.53887    407.11936    1182.4805   -5720.5731 
 9370000     117.3695   -6719.8642   -6417.9383   -6719.8642            0    4169.9029    23.236257    21.347329    21.550749    10689.862    4235.5178    3656.7819    4617.4089   -286.14949   -831.27621   -387.75136   -5767.8477 
 9371000    115.12316   -6710.0999   -6413.9526   -6710.0999            0     4506.255    23.223483    21.331116     21.56237    10681.628     4324.755    4930.1618    4263.8483   -307.77946   -479.54025   -897.13172   -5711.9655 
 9372000    122.52257   -6705.9839    -6390.802   -6705.9839            0    4666.2696    23.252944    21.295864    21.530837    10661.888    3845.3113    5122.0754    5031.4222    235.69985   -315.19145    -126.0154   -5665.2311 
 9373000    118.33438    -6719.117   -6414.7091    -6719.117            0    3792.4683    23.189882    21.290135    21.644751    10686.354    4255.4101    3433.2008     3688.794   -122.58097   -386.54903    1059.1283   -5823.6547 
 9374000    115.23255   -6701.6489   -6405.2202   -6701.6489            0    4066.3082    23.279308    21.233058    21.633682    10693.332    3607.3812    4924.1624    3667.3811    1313.6888   -581.51327   -441.40215   -5771.0742 
 9375000    121.48172   -6711.6591   -6399.1547   -6711.6591            0    4834.6537    23.208655    21.303377     21.60383    10681.425    5006.8649    4417.0448    5080.0514    671.40331    29.140228    857.80288   -5646.0239 
 9376000    119.43347   -6723.1906   -6415.9553   -6723.1906            0    4628.4072     23.18466     21.37063    21.543262    10674.057    4997.1724    4502.9202     4385.129    820.58184   -775.75354   -223.25916   -5695.4504 
 9377000    117.91037   -6718.5687   -6415.2515   -6718.5687            0    3767.8728    23.109213    21.409249     21.65924    10715.928    3624.6883    3159.4991     4519.431   -285.28729    760.07898    612.69557   -5826.4052 
 9378000    119.65923     -6714.76   -6406.9439     -6714.76            0    4763.5103    23.068542      21.4632    21.475207    10632.906    4817.1522    5073.4664    4399.9121    1499.4772    -1188.132    57.806219   -5668.2663 
 9379000    119.75215   -6702.3438   -6394.2887   -6702.3438            0    3509.4302    23.148761    21.387231    21.707561    10747.151    3640.6085    3126.4594    3761.2226    1026.4879    -20.73537    451.28715   -5844.2341 
 9380000    114.41154   -6727.8464   -6433.5297   -6727.8464            0    4054.6494    23.266127    21.335819     21.50932    10677.267    3649.4732    3964.5129    4549.9622    765.13707   -1366.8704    17.466498   -5802.1519 
 9381000    114.09579   -6723.3323   -6429.8278   -6723.3323            0    3645.5097    23.239716    21.228783     21.68301    10697.332    4282.2767    3949.4307    2704.8216   -790.04457    113.64094   -146.90384   -5861.0932 
 9382000    123.20115   -6713.0972   -6396.1698   -6713.0972            0    4188.8808    23.301858    21.237329    21.590543    10684.495     3355.772    4884.9018    4325.9684   -367.09148   -195.71861    252.93264   -5743.4483 
 9383000    121.23183   -6713.3373   -6401.4758   -6713.3373            0    5096.5581    23.222738    21.211565    21.625782    10652.658    5297.1571    5276.2627    4716.2545   -776.41009   -114.02582   -255.30672   -5609.6843 
 9384000    110.50928   -6714.8659   -6430.5875   -6714.8659            0    3257.7225    23.355214    21.309755    21.578975    10739.724    2258.3962     3464.883    4049.8884    494.22889    239.63052   -28.863805   -5920.3374 
 9385000    113.97913   -6722.9788   -6429.7745   -6722.9788            0    3600.9758    23.226527     21.28593    21.658705    10708.025    2985.2455    4046.4366    3771.2453    688.91686    123.95301    112.02838   -5867.4261 
 9386000    122.95065   -6713.9246   -6397.6415   -6713.9246            0    5034.9671     23.14896    21.271594    21.629259    10650.577    5825.5455    5218.4451    4060.9106   -593.87623   -236.21084    890.06757   -5615.5714 
 9387000    120.58932   -6723.8421   -6413.6335   -6723.8421            0    4000.0155    23.152767    21.438691    21.522221    10682.878    4173.7537    3017.2588    4809.0338   -647.60408    858.84978   -109.23267   -5790.4358 
 9388000     115.2675   -6722.4667   -6425.9481   -6722.4667            0    3646.2877    23.090653    21.411248    21.638179    10697.909    4682.2208    3223.9857    3032.6565    8.3337361   -256.76484   -513.73623   -5857.0615 
 9389000    114.58667   -6713.2554   -6418.4882   -6713.2554            0    4479.2618    23.192831    21.446482     21.46017    10674.388     4289.915    3588.9122    5558.9583     481.6068    196.51348    222.05903   -5721.1791 
 9390000    114.17029   -6708.7757   -6415.0795   -6708.7757            0    3449.4548    23.037296    21.416495    21.742271    10727.161    3675.9583     3495.236    3177.1702    576.91295     819.4587    243.63171   -5875.4308 
 9391000    117.44749    -6721.864   -6419.7375    -6721.864            0    4702.0698    23.128599    21.434574    21.518666    10667.915    5243.4767    3534.1454    5328.5873    213.87506    361.69678    369.73471   -5688.1867 
 9392000    118.51461    -6713.492   -6408.6204    -6713.492            0    4984.2094    23.126787    21.337188    21.596364    10656.955     5284.715    5593.0701    4074.8432    455.88245    -213.5399   -547.30166   -5633.9708 
 9393000    118.63917   -6716.5351   -6411.3431   -6716.5351            0    4060.1373    23.289536    21.328129    21.525004    10691.948    3711.1718    4215.8453    4253.3949     -22.5589   -77.579183   -484.18292   -5778.2415 
 9394000    118.58833   -6720.1365   -6415.0752   -6720.1365            0    4037.8011     23.25097    21.287184    21.625408    10703.445    3492.6341     4335.886    4284.8833   -132.73687     82.69304    1302.3121   -5784.7794 
 9395000      119.767   -6700.5939   -6392.5006   -6700.5939            0    4992.4457    23.273879    21.235256    21.601552    10676.066    5043.9867    4946.8719    4986.4786   -173.75357   -29.747545   -53.417564   -5615.1794 
 9396000    117.01326   -6720.9479   -6419.9384   -6720.9479            0    3917.0596    23.306728    21.247501    21.640989    10716.828    3969.1474    4294.1868    3487.8446   -262.57597   -1088.5919   -571.11392   -5807.7257 
 9397000    118.74698   -6724.9936   -6419.5242   -6724.9936            0    5045.1455    23.232737    21.278641     21.54033      10648.7    5380.5244    4393.8994    5361.0125   -1394.7147    256.74964    -156.6053   -5636.0112 
 9398000    114.58935   -6725.3085   -6430.5343   -6725.3085            0     3899.313    23.260703    21.318063    21.577605    10699.755    4062.0124    3905.0989    3730.8277    283.12135   -247.11726   -393.68765   -5822.0662 
 9399000    125.08448   -6715.9977   -6394.2255   -6715.9977            0    4140.9877    23.242329    21.389628     21.47941    10678.376    4095.4223    3880.9667    4446.5741    -210.1065    335.11052    474.61192   -5749.3364 
 9400000    115.65063   -6715.0164   -6417.5122   -6715.0164            0     4206.797    23.126287    21.345758    21.616902    10671.143    4395.6839    4356.2481    3868.4588    421.11324    325.97881   -300.71615   -5762.8182 
 9401000    121.55165     -6712.93   -6400.2458     -6712.93            0    3095.5503    23.193575    21.413933    21.613784    10734.824    2956.0711    3339.6391    2990.9407   -379.51255    153.45402   -421.45055   -5915.6175 
 9402000    114.86561   -6719.2088    -6423.724   -6719.2088            0    4751.3076    23.242322     21.36422    21.440675    10646.454    4608.0915    5029.6645    4616.1667   -230.83424   -1218.5859   -411.01988   -5685.9998 
 9403000     122.5081   -6713.2224   -6398.0778   -6713.2224            0    4705.0997    23.179216    21.295978    21.637195    10680.641      4518.86     4456.961     5139.478    53.674238     208.4174     998.6187   -5665.1823 
 9404000    117.17656   -6707.7388   -6406.3093   -6707.7388            0    5274.3081    23.199807    21.348043    21.485883    10641.324    5716.1022    4447.9272    5658.8948   -209.57803   -543.32621    583.29893   -5587.7747 
 9405000    116.89337   -6728.6495   -6427.9484   -6728.6495            0    2979.0816     23.21085    21.366449    21.648477    10736.204      2804.52    2557.9091    3574.8158   -208.18496    238.83364    1116.4761   -5961.4942 
 9406000    112.35156   -6727.3616   -6438.3441   -6727.3616            0    3257.8447    23.266502     21.36208    21.550584     10711.09    3223.1672    2446.2946    4104.0725    -520.4263    104.71587    488.78759   -5929.4353 
 9407000    115.67283   -6712.6349   -6415.0736   -6712.6349            0    5584.3555    23.157673    21.244844    21.593692     10623.69    6435.2289    5098.7429    5219.0947    -101.4711   -430.70949    349.15972    -5549.858 
 9408000    123.02157   -6734.9088   -6418.4433   -6734.9088            0    4940.3829    23.265329    21.205021    21.581163     10646.89    4195.2098    5752.4282    4873.5107    626.68655   -610.54788    113.98245   -5651.3304 
 9409000    118.32558   -6717.4072   -6413.0218   -6717.4072            0    3746.3763    23.279739    21.305371    21.593494    10710.016    3300.7765    3581.4719    4356.8806    -388.5804     626.0316    14.756457   -5827.8581 
 9410000      117.229   -6716.7313   -6415.1668   -6716.7313            0    3778.5412    23.353712    21.290083    21.530836    10705.185    3174.8357    4172.3005    3988.4874    681.60564   -501.35149   -740.52329   -5825.2453 
 9411000    113.58402   -6722.7748   -6430.5868   -6722.7748            0    3576.8347     23.25706    21.291778    21.645191    10718.356    3061.2114    4179.3793    3489.9133    108.47135    373.41502   -160.82602   -5871.4695 
 9412000    118.39416   -6712.9923   -6408.4305   -6712.9923            0    4420.3741    23.189045    21.325171    21.573603    10668.369    4247.5921    5293.6773     3719.853    265.44609    383.87711   -330.05225   -5720.6767 
 9413000    113.18724    -6703.491   -6412.3237    -6703.491            0    4591.5459    23.145124    21.331457    21.614251    10671.371    4685.3131     4460.457    4628.8675   -640.97632    1260.6349    100.52289   -5697.7369 
 9414000    114.59437   -6715.5879   -6420.8009   -6715.5879            0    4383.6486    23.234293    21.463276    21.448303    10695.926    4640.2447    2819.5222    5691.1791   -547.54926   -584.82604    841.40819   -5736.9994 
 9415000    116.26182   -6709.7341   -6410.6576   -6709.7341            0    4587.3295    23.121839    21.326905    21.637422    10669.787    4634.2524    4670.1905    4457.5457    976.58483    -64.94721   -101.28141   -5696.8329 
 9416000    118.16747   -6703.1304   -6399.1518   -6703.1304            0    2655.9195    23.248229    21.373007    21.672884    10768.922    2114.0743    3004.9043      2848.78    410.88792    614.06576   -37.705382   -5982.0299 
 9417000    118.40817   -6716.3456   -6411.7478   -6716.3456            0    5581.7203    23.107385    21.368439    21.516305    10624.079    6360.9924    5347.5477    5036.6209   -1294.8575   -569.50984    526.25799   -5546.9088 
 9418000    119.22706   -6706.0767   -6399.3723   -6706.0767            0    3829.2784    23.220048    21.327884    21.616652    10705.311    3436.2237    4608.4098    3443.2016    579.23001   -122.80281   -178.25614   -5801.5225 
 9419000    127.01095   -6709.5701   -6382.8421   -6709.5701            0    5370.4849    23.237665     21.36141    21.445226     10645.18    5141.7291    4894.2721    6075.4534   -252.48775   -386.47011   -518.76529   -5549.0795 
 9420000    121.55215   -6726.0513   -6413.3659   -6726.0513            0    4484.4436     23.16238    21.300812    21.647255    10680.269    4272.2047    5163.2787    4017.8475    241.05244    221.69773   -301.38822   -5714.8655 
 9421000    115.13612    -6711.677   -6415.4964    -6711.677            0    3094.7139    23.288949    21.337664    21.598825    10733.142     2941.218    2760.7754    3582.1482    857.64581    213.29776   -263.66075    -5931.075 
 9422000    122.38876   -6726.1385   -6411.3009   -6726.1385            0    3946.1009    23.181753    21.302605    21.684112    10708.303    4513.0799     4658.437    2666.7859    715.52016   -1092.2929    231.06995   -5795.0398 
 9423000    118.36763   -6718.9577   -6414.4642   -6718.9577            0    5432.6694    23.221286    21.305561    21.497022    10635.491    4877.3772    5797.3881    5623.2429    756.65084   -1177.5243   -368.65909   -5571.8152 
 9424000    117.83693   -6726.1801   -6423.0518   -6726.1801            0    4379.3441     23.21765    21.273507     21.64388    10690.363    4875.5163    4358.0649     3904.451    -964.3275    -42.42592   -818.47339   -5740.2771 
 9425000    118.77538   -6715.1016   -6409.5592   -6715.1016            0    3714.7175    23.201805    21.374607    21.613469    10718.756    3549.6052    3477.5824    4116.9649     169.6493   -547.89738    428.29708   -5828.8669 
 9426000    115.33648   -6722.0243   -6425.3282   -6722.0243            0    3048.1582    23.228182    21.409699    21.556243      10720.1    3638.7723    1840.2132    3665.4892   -108.28007   -455.04219    -104.4659   -5948.7741 
 9427000    121.61524   -6705.1954   -6392.3476   -6705.1954            0    5105.9485    23.102499    21.393019    21.602555    10676.679    4569.9716    5236.8045    5511.0694    711.19776   -38.937154    16.018931   -5597.3085 
 9428000    119.58081   -6708.6898   -6401.0755   -6708.6898            0    4806.6579    23.122535    21.369476    21.576063    10661.088    5031.7926    4794.0029    4594.1783    -351.3074   -142.21749   -333.23552   -5653.7314 
 9429000    120.25148   -6720.1707   -6410.8311   -6720.1707            0    4273.5425    23.131658    21.338216    21.623527     10673.12    4907.2538    3884.2252    4029.1485     450.2568    104.56989    269.47658   -5745.6264 
 9430000      116.139   -6710.0797   -6411.3192   -6710.0797            0     3411.338    23.233007    21.344209    21.634982    10728.575    2966.7244    3504.7439    3762.5458    297.57144    853.51729    202.12214   -5877.5633 
 9431000    111.87606   -6703.2038   -6415.4095   -6703.2038            0    4467.9347    23.334197    21.242822    21.555621     10684.78    3893.4024    4691.8344    4818.5672   -578.86965   -800.87266    101.57866   -5719.1866 
 9432000    120.02965   -6708.4762   -6399.7073   -6708.4762            0    4665.0086    23.216647    21.193984    21.689803    10672.538    4911.9024    5053.3958    4029.7275    135.38522   -171.52918   -211.48312   -5673.6079 
 9433000    117.06792   -6721.7168   -6420.5667   -6721.7168            0    3927.4231    23.323909    21.218571    21.593205    10686.477     2974.112    4463.8398    4344.3176   -712.57457    600.79844    499.33078   -5808.4727 
 9434000     118.6867   -6723.5844   -6418.2701   -6723.5844            0    4319.0377    23.260879    21.161072    21.675392    10669.173    3754.4758    5025.5091    4177.1282   -140.11099    420.41526    318.58665   -5746.2324 
 9435000    119.70707   -6710.9456   -6403.0064   -6710.9456            0    4431.9776    23.259578    21.245505    21.626232    10686.851    4847.7855    4619.8896    3828.2578   -287.82647    299.59268   -788.42106   -5712.2527 
 9436000    119.12988    -6707.064   -6400.6096    -6707.064            0    3492.9046    23.260664    21.379877    21.550929    10717.496     3524.867     2968.342    3985.5048   -602.35626    363.74486    411.90515   -5854.6558 
 9437000    115.82207   -6724.8656   -6426.9204   -6724.8656            0    4285.5351    23.098332    21.351082    21.672048    10688.099     4948.095    3159.5699    4748.9403    400.29921   -307.18901    416.43185   -5758.9128 
 9438000     121.2752   -6707.4245   -6395.4515   -6707.4245            0    4575.3366    23.119177    21.455342    21.528932    10678.993    4695.4721    4050.9202    4979.6175   -431.35657    58.197029    560.84367   -5682.8787 
 9439000    113.62763   -6725.4612   -6433.1611   -6725.4612            0    3441.7072     23.16065    21.453909    21.564973    10715.343    4276.3298    2827.0063    3221.7857   -905.19996    112.42803    322.24593   -5895.3176 
 9440000    126.84243   -6713.7026   -6387.4082   -6713.7026            0    3916.6463    23.163978    21.453399    21.568621    10718.442    3814.0879    3682.1508    4253.7003   -249.29931     585.4083   -416.13863   -5775.1679 
 9441000    119.53317   -6703.2019   -6395.7101   -6703.2019            0     4956.398    23.115644    21.416104    21.532088    10659.396    4937.7974    4304.5539    5626.8426    134.15705    170.99257    739.87462   -5625.2065 
 9442000    117.03095   -6705.9525   -6404.8975   -6705.9525            0     3716.005    23.143254     21.31375    21.729206    10718.355    4975.9813    3111.3396     3060.694   -69.559107    341.49756   -117.31585   -5824.0256 
 9443000    113.05611   -6706.8081   -6415.9781   -6706.8081            0    4809.7933    23.323083    21.229086    21.527171      10658.7     4180.574    5868.5017    4380.3042    997.53326   -158.45974   -275.68503    -5668.314 
 9444000    119.60286   -6719.7075   -6412.0364   -6719.7075            0    3519.1554    23.303628    21.228582    21.660771    10715.648    3493.7427    3990.1346    3073.5888   -515.49738    443.59498    52.916211   -5862.0743 
 9445000    118.97551   -6706.3423    -6400.285   -6706.3423            0    5095.8841     23.44568    21.105374      21.5241    10650.767    3164.9117     6653.949    5468.7916    261.06566    761.95371     472.7552   -5608.7387 
 9446000    114.99411    -6713.014   -6417.1986    -6713.014            0     4242.971    23.254488    21.269591    21.628641    10697.817    4875.4439    4507.6066    3345.8624   -484.24383   -161.86119    498.54683   -5755.2244 
 9447000    120.45215   -6717.8347   -6407.9789   -6717.8347            0    4107.9248    23.274095    21.242493     21.62219    10690.006    3034.0168    4333.8178    4955.9397     1213.637    773.14479    338.49405    -5767.542 
 9448000    118.84129   -6704.4052   -6398.6932   -6704.4052            0    5174.7859    23.078101    21.340974    21.637492    10656.663    5162.2456    5322.7565    5039.3556   -466.09731    924.35012    447.21096   -5594.4461 
 9449000    120.63763   -6714.8181   -6404.4851   -6714.8181            0    3275.2747    23.082244    21.476468    21.634792    10724.909    4484.7852    2434.7507    2906.2881   -383.12874   -516.28683    79.543751   -5892.1935 
 9450000    115.22594   -6711.5868   -6415.1751   -6711.5868            0    5506.9437    23.057196     21.43348    21.525868    10637.997    6346.6791    4588.5353    5585.6165    318.67903   -179.52457    118.72074   -5560.8044 
 9451000    121.06857   -6718.9022   -6407.4607   -6718.9022            0    4382.0068    23.038961    21.499258    21.571173    10684.646    5727.7945    3760.9605    3657.2653   -210.58222   -499.84028    160.39867   -5724.6362 
 9452000    124.14913   -6733.7034   -6414.3373   -6733.7034            0    3900.1233    23.102574    21.377834    21.638999    10687.134    4826.6191    3293.4424    3580.3085   -62.349078    212.16395    139.86674   -5806.4607 
 9453000    112.55312   -6725.6643   -6436.1283   -6725.6643            0     4493.379    23.258278    21.359823    21.478771    10670.497    4101.6415    4263.3695    5115.1261    713.23339    353.60101   -109.17763   -5736.8765 
 9454000    116.87839   -6716.6344   -6415.9718   -6716.6344            0    4372.7877     23.21219    21.244053    21.677194    10689.479    4769.2161    4947.4109    3401.7362   -828.58394    620.13088   -506.08215   -5734.2757 
 9455000     119.1004   -6727.8401   -6421.4616   -6727.8401            0    3858.1102    23.361753    21.260973    21.517245    10687.478      2582.23    3830.2595    5161.8412   -385.58269    887.28571    420.67066   -5820.1137 
 9456000    116.59662   -6727.3408   -6427.4031   -6727.3408            0    4307.6149    23.317441    21.089647    21.711431    10676.739    3940.7165    5803.0609    3179.0672    206.30228    845.68987   -39.921742   -5756.6674 
 9457000    116.53431   -6725.2052   -6425.4278   -6725.2052            0    4043.7854    23.323938    21.211367    21.625687    10698.932    3944.8243    4907.9465    3278.5853   -526.62271    360.28731   -111.93186    -5794.464 
 9458000    119.99058   -6721.9467   -6413.2782   -6721.9467            0    3772.0448    23.248974    21.325976    21.594583    10706.747    3547.9377    3646.6371    4121.5597    -616.5826     317.6831    72.486081    -5824.285 
 9459000    117.13396   -6702.6683   -6401.3483   -6702.6683            0    5520.1849    23.110222    21.366011    21.551132    10641.373    5946.8346    5914.3848    4699.3354   -150.32322    141.38584     181.8803   -5544.6514 
 9460000    117.67528   -6712.3218   -6409.6093   -6712.3218            0    4728.6837    23.049969    21.419781    21.614834     10671.79    5906.2608    4085.1164    4194.6738   -259.14388    35.195731   -740.11393   -5673.6506 
 9461000    113.54622   -6695.5911   -6403.5004   -6695.5911            0    4258.2811    23.148679    21.415083    21.555168    10685.562    4240.1203    4047.6735    4487.0494    -8.344704   -144.56965   -103.37761   -5739.8985 
 9462000    112.03106   -6709.9085   -6421.7154   -6709.9085            0    3488.0726    23.085827    21.414921    21.652347    10704.512    3474.6847     3883.695     3105.838    650.20049    588.24575   -244.69626   -5877.1773 
 9463000    112.98101   -6708.5648    -6417.928   -6708.5648            0    3906.6112    23.227492     21.44963    21.501535    10712.519    3837.4107    3534.7979    4347.6251    611.35085   -468.54318    -187.0091   -5807.5938 
 9464000    117.51356    -6716.625   -6414.3286    -6716.625            0      4173.64      23.1525    21.357316    21.655602    10708.159    4534.6733    4153.1242    3833.1224    324.94054    195.41429   -82.318891   -5762.5416 
 9465000    114.57681   -6724.7484   -6430.0065   -6724.7484            0    5183.4249    23.112296    21.334974    21.564534    10633.477    5868.9112    4865.2414     4816.122     -110.737    174.30786     204.7949   -5626.1695 
 9466000    112.85448   -6706.0579   -6415.7467   -6706.0579            0    5006.8716    23.149906     21.37006    21.559759    10665.934    5558.3425    3626.9146    5835.3578   -40.633132    600.65193    392.55788   -5636.9193 
 9467000    119.12886   -6718.6105   -6412.1588   -6718.6105            0    4833.4556    23.164932    21.398994    21.517092    10666.156    4896.2585    4662.2513    4941.8569   -607.93531     719.7205   -465.48232   -5660.2908 
 9468000    122.51964   -6719.6987   -6404.5244   -6719.6987            0    4223.5744    23.155648    21.351802    21.641904    10700.078    3864.2426    3946.5892    4859.8914    504.83275    89.950607   -445.54985   -5745.4371 
 9469000    113.47465   -6709.0206    -6417.114   -6709.0206            0    3767.2342    23.157195    21.423259    21.615352    10723.432    3916.1247    3528.4108    3857.1672   -620.44031    872.45664   -290.55389   -5827.9552 
 9470000    113.89071   -6726.6406   -6433.6637   -6726.6406            0    4664.8956    23.115467    21.289895    21.662317    10660.586    5227.3568    5528.0647    3239.2654    911.25385   -491.90923    138.28947    -5708.395 
 9471000    111.64168   -6706.9189   -6419.7275   -6706.9189            0    4450.5633    23.272447    21.324219    21.574529    10706.722    3861.5436    4220.9237    5269.2227    254.96394   -244.25741    550.26725   -5724.7873 
 9472000    112.60084   -6709.6087   -6419.9499   -6709.6087            0    4012.2498    23.290305    21.207291    21.624299    10680.767    4617.1674    4461.9048    2957.6773   -320.58142   -1029.3909   -578.77621   -5794.9697 
 9473000     116.4818   -6724.9824   -6425.3401   -6724.9824            0     3119.688    23.353582    21.165148    21.686399    10719.197    2330.2609    3827.0079    3201.7954   -16.121414    513.40652    490.03125    -5937.644 
 9474000    120.30408   -6704.2771   -6394.8021   -6704.2771            0    5408.9355    23.187885    21.258843    21.589733    10642.608    5588.6038    4869.9524    5768.2502   -184.48543    234.53527    615.03208   -5555.2731 
 9475000    114.05505   -6715.3734   -6421.9737   -6715.3734            0    3578.4134    23.285364    21.305608    21.574038    10703.071    4061.2304    3257.8394    3416.1704     982.6883   -1574.5729   -154.60711   -5863.4074 
 9476000    112.76601   -6707.7674   -6417.6837   -6707.7674            0    3822.8278    23.253205    21.375462    21.545152    10708.975    3649.7593    2719.0723    5099.6517   -747.48561    392.61263    279.10984   -5820.6367 
 9477000    119.24229   -6692.1067   -6385.3632   -6692.1067            0    5080.3083    23.130416    21.363494    21.578789    10663.083    6098.2174    4205.9343    4936.7733   -521.78344   -660.41466    177.47757   -5595.3238 
 9478000     123.3808   -6707.6756    -6390.286   -6707.6756            0    3843.2162    23.115672    21.392987      21.6674    10714.817    4914.4756    3170.5726    3444.6005   -178.18936    1330.0586   -535.20694   -5789.7273 
 9479000    120.40118   -6710.2544   -6400.5297   -6710.2544            0     5176.817    23.165483    21.370906      21.4942    10641.077     5381.182     5079.102     5070.167   -471.44548   -473.33277   -556.22822   -5597.1437 
 9480000     122.0287   -6712.4101   -6398.4987   -6712.4101            0    4195.7429     23.14765    21.351102    21.644823    10697.474    4627.4278    3651.2783    4308.5225   -232.62496   -654.89048    209.30432   -5743.9138 
 9481000    120.50725   -6704.5665   -6394.5689   -6704.5665            0    4508.7942    23.234396    21.237937    21.605962    10661.476    4673.1903    5825.3425      3027.85   -541.37935   -439.21651   -1520.6668   -5693.5115 
 9482000    117.12618   -6706.2997   -6404.9997   -6706.2997            0    4161.2518     23.31378    21.291251    21.529779    10686.942    3031.2552    4090.8892    5361.6111   -541.02251    1271.9518    1227.9739   -5756.4349 
 9483000     118.0586   -6721.5448   -6417.8463   -6721.5448            0    5235.4268    23.171083    21.191084    21.666777    10638.828    5425.3529    5924.6701    4356.2574    197.59287   -327.03728   -121.13384   -5605.5363 
 9484000    117.31818   -6711.1074   -6409.3135   -6711.1074            0    3971.7979     23.38922    21.281272    21.465676     10684.59     3652.426    4240.1467    4022.8211   -147.42187    19.161656   -330.21701   -5790.4129 
 9485000    118.55874   -6720.4457   -6415.4606   -6720.4457            0    4967.6193    23.198672    21.301475    21.577823    10663.025    5361.1827    4933.3813    4608.2938    21.712863   -389.97948    64.823359   -5642.9497 
 9486000    115.21735   -6709.9898   -6413.6002   -6709.9898            0    4912.0466     23.20776    21.293855    21.564365    10656.736    5090.7204    4498.9943     5146.425    402.77705    241.85443   -274.84825   -5650.1819 
 9487000    116.67598   -6721.5783   -6421.4364   -6721.5783            0    4472.2167    23.197464    21.329133    21.568479    10671.691    3595.9059    5277.1477    4543.5964    1047.1372     424.5554     486.9537      -5725.4 
 9488000    116.49671   -6698.7455   -6399.0648   -6698.7455            0    3472.4937    23.192926     21.37804    21.658575     10738.74    3535.0062    2771.4545    4111.0203    200.38892     283.4748     423.3844   -5855.2254 
 9489000    116.37513   -6715.5638   -6416.1959   -6715.5638            0    3110.1708    23.257324    21.430864    21.505472    10718.855    3728.9228    3142.0117     2459.578    263.96902   -558.98579   -799.32526   -5930.0031 
 9490000    121.08865   -6716.6758   -6405.1826   -6716.6758            0    4206.7026    23.048157    21.411313    21.656622    10687.354    5301.9541    4453.1189    2865.0346   -233.65693   -55.881384    -791.5511   -5749.5087 
 9491000    113.82138   -6710.7361   -6417.9376   -6710.7361            0    4142.8654    23.197213    21.421172    21.498282    10682.744    4085.2075    3874.3446     4469.044    221.72973    381.80947    935.13104   -5772.4922 
 9492000    115.46081   -6713.5806   -6416.5647   -6713.5806            0    4718.9335    23.057147    21.367475    21.668771    10675.619    5647.6647    4652.3311    3856.8047    249.17914   -899.81018    325.91173     -5681.86 
 9493000    121.96712   -6719.4409   -6405.6879   -6719.4409            0    4291.7287    23.245237     21.40786     21.46187    10680.087    2807.1163    5226.1638    4841.9061   -231.61961    975.53264   -124.91058   -5737.2163 
 9494000    113.74873   -6704.9039   -6412.2922   -6704.9039            0     4549.496    23.149592    21.257562    21.705835    10681.526    4963.9622    3953.0775    4731.4482   -600.74643   -50.521575    673.00365   -5703.5759 
 9495000    122.15635   -6702.8316   -6388.5918   -6702.8316            0    4042.9243    23.328005    21.265053    21.554622    10692.629    3674.6528    3906.3176    4547.8025     172.8952    406.08929     182.7283   -5758.1341 
 9496000    118.89727   -6724.8854   -6419.0294   -6724.8854            0    4121.0261    23.235749    21.244964    21.630728     10677.85    3961.0725    4094.0597     4307.946   -190.48574   -198.11966   -268.40572   -5777.2806 
 9497000    122.06897   -6725.2897   -6411.2747   -6725.2897            0    3922.9019    23.323863    21.264094    21.563342    10694.573     2978.221    4604.3829     4186.102   -181.87863    88.799147   -44.501369   -5799.4222 
 9498000    118.48553   -6711.0756   -6406.2788   -6711.0756            0     3807.018     23.40328    21.149693    21.646022    10714.179    3233.2889    5287.5315    2900.2335    454.69006   -560.14254   -555.93228   -5811.4121 
 9499000    114.29108   -6711.1135   -6417.1066   -6711.1135            0    5105.2483    23.229976    21.223404     21.60203    10650.215     5225.621    5494.2198    4595.9041   -772.74625   -613.70931   -194.53372   -5624.1469 
 9500000    124.02515   -6708.8396   -6389.7924   -6708.8396            0    3956.9845    23.303394    21.276307    21.602079     10710.53    3397.5542    4594.4536    3878.9458    951.74574   -764.41041   -449.77549   -5771.7032 
Loop time of 533.671 on 64 procs for 250000 steps with 1296 atoms

Performance: 80.949 ns/day, 0.296 hours/ns, 468.453 timesteps/s
99.1% CPU use with 64 MPI tasks x 1 OpenMP threads

MPI task timing breakdown:
Section |  min time  |  avg time  |  max time  |%varavg| %total
---------------------------------------------------------------
Pair    | 29.678     | 41.132     | 52.729     | 112.0 |  7.71
Bond    | 0.27974    | 0.28891    | 0.29734    |   0.7 |  0.05
Kspace  | 270.42     | 282.22     | 293.84     |  43.0 | 52.88
Neigh   | 1.5974     | 1.6294     | 1.6511     |   1.0 |  0.31
Comm    | 90.503     | 92.403     | 95.705     |  16.6 | 17.31
Output  | 0.67659    | 0.67729    | 0.67874    |   0.0 |  0.13
Modify  | 102.37     | 104.85     | 108.19     |  13.6 | 19.65
Other   |            | 10.47      |            |       |  1.96

Nlocal:        20.2500 ave          27 max          13 min
Histogram: 3 0 17 4 4 8 6 14 6 2
Nghost:        2629.12 ave        2663 max        2600 min
Histogram: 3 6 7 7 9 15 10 3 3 1
Neighs:        6519.92 ave        8667 max        4151 min
Histogram: 3 0 16 5 5 7 6 14 6 2

Total # of neighbors = 417275
Ave neighs/atom = 321.97145
Ave special neighs/atom = 2.0000000
Neighbor list builds = 3012
Dangerous builds = 0

unfix		3
unfix		2
unfix		1

write_data	data.final.${pid}
write_data	data.final.0
System init for write_data ...
PPPM initialization ...
  extracting TIP4P info from pair style
  using 12-bit tables for long-range coulomb (../kspace.cpp:340)
  G vector (1/distance) = 0.36808641
  grid = 30 40 32
  stencil order = 5
  estimated absolute RMS force accuracy = 0.004364844
  estimated relative force accuracy = 1.3144598e-05
  using double precision FFTW3
  3d grid and FFT values/proc = 5168 640
Last active /omp style is kspace_style pppm/tip4p/omp
WARNING: Not all mixed pair coeffs generated from mixing. Use write_data with 'pair ij' option to store all pair coeffs. (../write_data.cpp:312)

write_restart   restart.lmp.${pid}
write_restart   restart.lmp.0
System init for write_restart ...
PPPM initialization ...
  extracting TIP4P info from pair style
  using 12-bit tables for long-range coulomb (../kspace.cpp:340)
  G vector (1/distance) = 0.36808641
  grid = 30 40 32
  stencil order = 5
  estimated absolute RMS force accuracy = 0.004364844
  estimated relative force accuracy = 1.3144598e-05
  using double precision FFTW3
  3d grid and FFT values/proc = 5168 640
Last active /omp style is kspace_style pppm/tip4p/omp
Total wall time: 0:08:53
