LAMMPS (30 Jul 2021)
  using 1 OpenMP thread(s) per MPI task
package omp 0
using multi-threaded neighbor list subroutines
echo both

include		in.partitions
variable        pid world 0
include		in.temp
variable        temperature equal 264.63
variable	tempDamp equal 100.0
include		in.pressure
variable        pressure equal 9000.0
variable        pressureDamp equal 1000.0 # This is 1 ps
include		in.seed
variable        seed world 745823

units		real
atom_style	full
read_restart    restart.lmp.${pid}
read_restart    restart.lmp.0
Reading restart file ...
  restart file = 30 Jul 2021, LAMMPS = 30 Jul 2021
  restoring atom style full from restart
  triclinic box = (-3.1551886 -0.062872561 -0.10449631) to (14.765188 22.642872 19.334494) with tilt (-0.23247715 -5.9622613 0.21622988)
  4 by 4 by 4 MPI processor grid
  restoring pair style lj/cut/tip4p/long/omp from restart
  restoring bond style harmonic/omp from restart
  restoring angle style harmonic/omp from restart
  1008 atoms
  672 bonds
  336 angles
Finding 1-2 1-3 1-4 neighbors ...
  special bond factors lj:    0        0        0       
  special bond factors coul:  0        0        0       
     2 = max # of 1-2 neighbors
     1 = max # of 1-3 neighbors
     1 = max # of 1-4 neighbors
     2 = max # of special neighbors
  special bonds CPU = 0.198 seconds
  read_restart CPU = 0.368 seconds

include 	in.setup
variable	out_freq equal 1000
variable	out_freq2 equal 10000
variable	out_freq3 equal 1000

timestep	2.0

neigh_modify    delay 7 every 1

include		in.tip4p
# This is TIP4P/Ice

# create groups ###
group ox type 2
336 atoms in group ox
group hy type 1
672 atoms in group hy

# set charges - beside manually ###
set group ox charge -1.1794
Setting atom values ...
  336 settings made for charge
set group hy charge 0.5897
Setting atom values ...
  672 settings made for charge

# ### TIP3P Potential Parameters ###
pair_style lj/cut/tip4p/long/omp 2 1 1 1 0.1577 8.5
pair_coeff 1 1*2 0.000 0.000
pair_coeff 2 2 0.21084 3.1668
bond_style  harmonic
bond_coeff  1 450 0.9572
angle_style harmonic
angle_coeff 1 55 104.52
kspace_style pppm/tip4p/omp 1.0e-5
pair_modify tail yes

thermo          ${out_freq}
thermo          1000
thermo_style    custom step temp pe etotal epair emol press lx ly lz vol pxx pyy pzz pxy pxz pyz enthalpy

restart 	${out_freq3} restart.lmp.${pid} restart2.lmp.${pid}
restart 	1000 restart.lmp.${pid} restart2.lmp.${pid}
restart 	1000 restart.lmp.0 restart2.lmp.${pid}
restart 	1000 restart.lmp.0 restart2.lmp.0


include         in.dump
dump            myDump all atom ${out_freq2} dump.water.${pid}
dump            myDump all atom 10000 dump.water.${pid}
dump            myDump all atom 10000 dump.water.0
dump            myDump2 all dcd ${out_freq2} dump.dcd
dump            myDump2 all dcd 10000 dump.dcd
dump_modify     myDump append yes
dump_modify     myDump2 append yes


variable natoms 	equal  "count(all)"                        # NUMBER ATOMS
variable H      	equal  "enthalpy/v_natoms"                 # ENTHALPY-per-atom
variable Vol      	equal  "vol/v_natoms"                 # volume-per-atom
fix AVG all 		ave/time ${out_freq} 1 ${out_freq} v_Vol v_H file vol_enthalpy.dat
fix AVG all 		ave/time 1000 1 ${out_freq} v_Vol v_H file vol_enthalpy.dat
fix AVG all 		ave/time 1000 1 1000 v_Vol v_H file vol_enthalpy.dat



fix 		1 all shake 1e-6 200 0 b 1 a 1
       0 = # of size 2 clusters
       0 = # of size 3 clusters
       0 = # of size 4 clusters
     336 = # of frozen angles
  find clusters CPU = 0.210 seconds
fix             2 all nph tri ${pressure} ${pressure} ${pressureDamp}
fix             2 all nph tri 9000 ${pressure} ${pressureDamp}
fix             2 all nph tri 9000 9000 ${pressureDamp}
fix             2 all nph tri 9000 9000 1000
fix             3 all temp/csvr ${temperature} ${temperature} ${tempDamp} ${seed}
fix             3 all temp/csvr 264.63 ${temperature} ${tempDamp} ${seed}
fix             3 all temp/csvr 264.63 264.63 ${tempDamp} ${seed}
fix             3 all temp/csvr 264.63 264.63 100 ${seed}
fix             3 all temp/csvr 264.63 264.63 100 745823


run             250000
PPPM initialization ...
  extracting TIP4P info from pair style
  using 12-bit tables for long-range coulomb (../kspace.cpp:340)
  G vector (1/distance) = 0.3797877
  grid = 24 27 32
  stencil order = 5
  estimated absolute RMS force accuracy = 0.0023834212
  estimated relative force accuracy = 7.1776023e-06
  using double precision FFTW3
  3d grid and FFT values/proc = 3825 384
Last active /omp style is kspace_style pppm/tip4p/omp
Neighbor list info ...
  update every 1 steps, delay 7 steps, check yes
  max neighbors/atom: 2000, page size: 100000
  master list distance cutoff = 10.8154
  ghost atom cutoff = 10.8154
  binsize = 5.4077, bins = 5 5 4
  1 neighbor lists, perpetual/occasional/extra = 1 0 0
  (1) pair lj/cut/tip4p/long/omp, perpetual
      attributes: half, newton on, omp
      pair build: half/bin/newton/tri/omp
      stencil: half/bin/3d/tri
      bin: standard
Per MPI rank memory allocation (min/avg/max) = 9.311 | 9.327 | 9.338 Mbytes
Step Temp PotEng TotEng E_pair E_mol Press Lx Ly Lz Volume Pxx Pyy Pzz Pxy Pxz Pyz Enthalpy 
20000000    269.61489   -4784.5351   -4245.2721   -4784.5351            0    8949.5908    17.920376    22.705744    19.438991    7909.6374    8694.3116    10679.892    7474.5692    58.516635    459.93226   -416.40997   -3212.9014 
20001000     260.9736   -4808.5101   -4286.5306   -4808.5101            0    9855.6582     18.11736    22.493503    19.377615    7896.8213    8496.3429    10464.165    10606.467    2598.0934   -471.32049   -1136.8556   -3151.4837 
20002000     268.4618   -4811.5303   -4274.5735   -4811.5303            0    8896.4165    17.952464    22.877933    19.230748    7898.3619    9806.2256    8675.2414    8207.7824    -25.98698   -967.28294     -643.166   -3249.7997 
20003000    256.21117   -4811.8361   -4299.3821   -4811.8361            0    8611.0318    17.857434    22.989254    19.350026    7943.7488    9045.5195     8839.663    7947.9129   -1834.3291   -360.73269    121.30288   -3301.7817 
20004000    254.09119   -4827.1763   -4318.9625   -4827.1763            0    9457.7587    17.780426    22.911617    19.335787    7876.9802    8031.0246    10684.409    9657.8421    2137.5468    806.92427    1450.8247   -3232.4772 
20005000    259.40932   -4804.9241   -4286.0734   -4804.9241            0    7815.3699    17.978984     22.93923    19.290423    7955.8342    6874.6369    8738.1535    7833.3194    934.60471    555.82148   -2696.2428   -3379.2742 
20006000    271.60147   -4817.2268   -4273.9903   -4817.2268            0    7842.2861    17.896533    23.128527    19.233582    7961.1731    9039.4681     6954.297    7533.0933    572.51977   -680.87625   -2263.5807   -3363.4574 
20007000     267.8124   -4829.8173   -4294.1594   -4829.8173            0    7250.4899    17.874082    22.935397     19.37005    7940.7357    6149.2715    8779.1622    6823.0359    960.34282    825.08747   -1971.0597   -3454.4984 
20008000    267.05249   -4804.1713   -4270.0334   -4804.1713            0    10846.604     18.00964    22.638908    19.324189    7878.8313    11092.952    10802.404    10644.456   -286.83216   -1397.7779   -3264.3098   -3023.7079 
20009000    271.03099   -4794.9703   -4252.8749   -4794.9703            0    9736.4438    17.954478    22.906067    19.295894    7935.7544    7863.4638    11373.194    9972.6731    1117.0899    1513.9129    1858.6403   -3126.0291 
20010000    278.36633    -4827.936    -4271.169    -4827.936            0    7324.2859     17.99107    22.956878    19.393785    8009.9979    6568.4862    8583.1597     6821.212   -883.24907   -147.82491   -1109.6405   -3415.5635 
20011000     268.5305   -4826.6557   -4289.5615   -4826.6557            0    9651.7687    17.748801    22.790048    19.445725    7865.7184     12025.92    9818.4792    7110.9073    119.19607   -1248.5474   -115.52956    -3182.374 
20012000    264.21779   -4766.9351   -4238.4669   -4766.9351            0     8643.985    17.984461    22.804825    19.322389    7924.7397    7755.8569    9872.2761    8303.8221   -634.45891    20.251493    99.220361   -3239.4452 
20013000    274.70478   -4786.9317   -4237.4882   -4786.9317            0     11170.36    17.775943    22.835237    19.341187    7850.9331    11299.551        11614    10597.529   -819.36067   -303.72287    683.11767   -2958.5064 
20014000    274.13179   -4834.8067   -4286.5092   -4834.8067            0    9388.1783    18.096597    22.991545    19.033943    7919.4284    8452.8878    9181.6222    10530.025   -1051.5669    252.60101   -128.33146   -3202.2052 
20015000    263.29183   -4816.7843   -4290.1681   -4816.7843            0    6635.6613     17.80368    23.043131    19.456894      7982.24    7399.0087    6751.5309    5756.4445   -1348.9075   -432.50072    38.857073   -3517.6923 
20016000    261.78201   -4794.9359   -4271.3395   -4794.9359            0    10270.831    18.002928    23.068691    19.005676    7893.1326    10473.762    9761.0264    10577.704   -464.13579    566.12568   -124.22289   -3089.0309 
20017000    255.52865   -4791.5938   -4280.5049   -4791.5938            0    8762.4313    17.697537    23.031539    19.515428    7954.5179    9571.7926    10290.639    6424.8625    900.57718    1062.0114   -41.039114   -3263.9886 
20018000       261.13   -4829.9069   -4307.6146   -4829.9069            0    7271.6416    18.017894    23.160977    19.115641    7977.1867    6288.3211     6949.041    8577.5625    810.40944    924.37587   -958.83728   -3461.6385 
20019000    248.25609   -4765.0876   -4268.5447   -4765.0876            0    10940.227    17.600325    23.021432    19.370802    7848.7523    14147.123     9821.429    8852.1289   -526.94496    76.254587    -363.7553   -3016.2607 
20020000    261.91945   -4810.2684   -4286.3971   -4810.2684            0    9097.6252    17.919745    22.997116    19.217294    7919.4945     9061.882    8021.7307    10209.263    1477.7225    149.16618    1206.8562   -3235.6423 
20021000    263.17546   -4839.8636   -4313.4801   -4839.8636            0    6364.7739    17.973841     22.96996     19.30205    7969.0139    5927.2979    6778.4212    6388.6025   -614.86072   -477.61434   -954.06576   -3573.7668 
20022000    255.14443   -4800.8464    -4290.526   -4800.8464            0    8784.2216    18.102939    22.856153    19.277753    7976.4316     7771.791    8600.7035    9980.1705    1144.5028    1088.9953    699.67052   -3268.6744 
20023000    257.18676   -4840.0726   -4325.6673   -4840.0726            0    8721.6231    18.003432    22.879139    19.301097    7950.1803    7746.7925    9595.8234    8822.2534   -66.260103    114.79295   -1839.9711   -3314.4367 
20024000    269.86661   -4777.4268   -4237.6602   -4777.4268            0    9783.1317     17.97972    22.903565    19.299137    7947.3784    9715.4921      9850.53    9783.3729   -1218.8106   -778.83233   -84.925037   -3103.7526 
20025000    276.78607   -4794.9062   -4241.2999   -4794.9062            0    10609.277    17.815429    22.981847    19.277882    7892.9713     11231.73    10087.815    10508.287    319.50321   -941.79203    1024.9893   -3020.0565 
20026000    265.33487   -4801.7368   -4271.0343   -4801.7368            0     8468.684    17.844454    23.005674    19.385431    7958.1787    9115.0454    8694.0207    7596.9859    565.25788   -388.58029   -20.222405   -3288.1429 
20027000    254.25874   -4765.3538   -4256.8049   -4765.3538            0     7431.318    18.032698    23.150101    19.171475    8003.3009    7470.8869    7052.5041     7770.563    227.05316    385.71362    329.94435    -3389.422 
20028000    247.86869   -4794.0194   -4298.2514   -4794.0194            0    8448.5323    17.861128    23.061241    19.328631    7961.4586    9644.2491    7676.9619    8024.3858    1998.8878    900.01591    1314.7481   -3317.2948 
20029000    265.02611   -4817.1884   -4287.1035   -4817.1884            0     8929.414    17.982786    22.934007    19.266608     7945.883    8848.7235    8222.6084    9716.9099   -308.33411   -1345.4105   -1138.6999   -3252.3402 
20030000     275.4357   -4807.6447   -4256.7393   -4807.6447            0    9181.2174    17.654101    22.979518     19.46872    7898.1234    10373.597    8941.0946    8228.9603    1158.1382   -447.99612    720.45489   -3199.1913 
20031000    260.97271   -4777.5609   -4255.5833   -4777.5609            0     8068.204      18.1428    22.985676    19.155639    7988.3711    6598.3503    8782.0064    8824.2551    1427.6218    326.73899   -118.43797   -3315.6198 
20032000    270.05915   -4810.6738   -4270.5222   -4810.6738            0    7705.6704    17.882534    22.911268    19.402869    7949.5791    7588.5496    7490.7979    8037.6638    626.52269    260.81362    1115.5818    -3377.154 
20033000    261.20573   -4808.9302   -4286.4865   -4808.9302            0    8625.2894    18.090731    22.793703    19.192017     7913.919    8048.1142    8941.3826    8886.3715   -759.92871    545.19631   -133.18152   -3290.9867 
20034000    256.04543   -4822.2378   -4310.1153   -4822.2378            0    9299.3827    17.820784    22.718822    19.492362     7891.818    8451.3314    11936.368    7510.4488    68.633188    -231.7569    394.02858   -3239.8115 
20035000    249.19936   -4806.6512   -4308.2217   -4806.6512            0    11982.783    17.955159    22.704891    19.209159    7830.9967    10886.071    12164.914    12897.363   -1201.2788   -1035.1926    646.63023   -2939.7034 
20036000    253.61846   -4821.1922   -4313.9239   -4821.1922            0    9206.9996    17.983862    22.833912    19.311542    7930.1287    8519.6803    9746.8545    9354.4639     525.8628    335.73843    -37.52727   -3249.1087 
20037000    260.03056   -4808.2722    -4288.179   -4808.2722            0    9020.8637    17.944513    22.783516    19.398893    7931.0259    8267.0789    9335.4695    9460.0425    610.28075     768.8481   -591.59887   -3244.7729 
20038000     257.9641    -4801.657   -4285.6969    -4801.657            0    8610.7527    18.041683    22.774416    19.331892    7943.2576    7950.7558    9143.5957    8737.9065    -1458.318   -679.81161   -1398.1971   -3288.1906 
20039000    278.12063     -4839.72   -4283.4444     -4839.72            0     10140.03     17.93514    22.793025    19.203671    7850.3858    10339.713    10614.324    9466.0543    640.81928    210.38283     259.8663   -3122.5141 
20040000    267.78059   -4813.8982   -4278.3039   -4813.8982            0    9720.3666    17.977888    22.831041    19.404031    7964.4603    11220.658    9587.3847    8353.0568   -1252.4374    872.91847   -1908.8202   -3149.2495 
20041000    266.44629   -4810.5274   -4277.6019   -4810.5274            0    8989.6953    18.060808    22.752151     19.31483    7936.8931    8475.6803    8287.8792    10205.526    607.13338    51.874599   -499.07507   -3237.0317 
20042000    272.72662   -4829.3701   -4283.8831   -4829.3701            0    10282.981    17.947649    23.008934    19.107112    7890.4017    9973.3034    9906.7936    10968.845   -736.65233   -983.22928   -515.72816   -3100.5854 
20043000    264.17027   -4787.5179   -4259.1447   -4787.5179            0    8057.6052    17.827285    22.906592    19.419863    7930.3411    8683.8807     8450.002    7038.9329     683.5114    -635.6558    443.78362   -3327.2352 
20044000     260.8743   -4838.2721   -4316.4913   -4838.2721            0    8847.3426    17.863177    23.077787    19.235358     7929.634    9043.0367    8294.1047    9204.8865    864.06917   -886.45136    1213.0977   -3293.3352 
20045000     257.4057   -4830.1873   -4315.3441   -4830.1873            0    9860.2139     17.96699    22.943945    19.181223    7907.1454    9336.3719    9266.8912    10977.379   -336.30305    1284.1116    -1776.289   -3178.2879 
20046000    259.53135   -4830.4739   -4311.3791   -4830.4739            0    8921.7209    17.781193    23.125297    19.266821    7922.4274    8569.0948    9690.6888    8505.3791   -1412.0953     2167.245   -1190.5126   -3280.5592 
20047000    263.22943   -4804.3962   -4277.9049   -4804.3962            0    8474.3425    17.994369    22.964434    19.181452     7926.361    7372.0832    8993.8514    9057.0928   -1858.2316    120.37691    141.41172   -3298.2891 
20048000    264.43219   -4835.8844   -4306.9873   -4835.8844            0    8567.2376     17.77324    23.116998    19.269192    7917.0164    9474.7675    9270.5959    6956.3494    523.40957    1670.3188   -707.19373   -3317.8007 
20049000    281.52325   -4815.4758   -4252.3946   -4815.4758            0    10219.079    17.917422    23.017581    19.078884    7868.4314    8970.5525    10807.028    10879.656     559.3835   -622.23276    1465.8233   -3079.7246 
20050000    269.21734   -4854.0627   -4315.5948   -4854.0627            0    7418.8882    17.912075    22.913293    19.474501    7992.8146    8525.5155    7171.1351    6560.0142   -296.09184    940.72197    808.13529   -3450.7972 
20051000    272.51586   -4761.3831   -4216.3177   -4761.3831            0    8333.0843    18.112097    22.984652    19.188291    7988.0901    8635.6085    7759.5263    8604.1181   -516.24912   -1365.9264     538.0061   -3245.5292 
20052000    256.52662   -4809.7808   -4296.6958   -4809.7808            0     9917.636    17.772528    22.690568    19.548327    7883.2294    12635.774    10330.545    6786.5893   -783.44906   -580.63487   -529.26409    -3156.477 
20053000    263.93518   -4849.3289   -4321.4259   -4849.3289            0    9083.0267    17.970755    23.002514    19.116593    7902.2746    7938.3111    9132.8201    10177.949    41.623438   -624.34258   -1373.2999   -3274.6383 
20054000    274.36194   -4794.4673   -4245.7096   -4794.4673            0    9265.8724    17.774196    22.822278    19.492203    7906.9663    9157.2287    9907.3421    8733.0464    153.83692     558.2895    1750.9513   -3177.2156 
20055000    268.59212   -4796.3551   -4259.1377   -4796.3551            0    9826.4679     18.02955     22.92766    19.087365    7890.2472    8855.4579    10370.508    10253.438    1368.8407    559.00985   -505.27535   -3128.3946 
20056000    275.44876   -4781.2864   -4230.3549   -4781.2864            0    7934.1574    17.859523    22.817013    19.532691    7959.5905    10331.787    8134.5414    5336.1439    1826.7623   -434.44825    695.81434   -3309.3383 
20057000    247.63993   -4818.5667   -4323.2563   -4818.5667            0     9883.928    18.067116    22.807264    19.240917    7928.4406     8878.187    10651.318    10122.279   -936.29524   -326.37465   -1174.8257   -3180.3957 
20058000    260.22934   -4803.2651   -4282.7743   -4803.2651            0    9653.9278    17.866065    22.893114    19.365191    7920.5543    10540.634    8277.9717    10143.177    613.02329    49.780183    498.12775   -3167.6185 
20059000    266.45453   -4825.3745   -4292.4326   -4825.3745            0    8509.9852    17.943505    23.109497    19.143994    7938.3513    5553.7283    9192.3271      10783.9    1386.0277    466.99249    312.54202   -3307.2085 
20060000    263.05109   -4806.4576    -4280.323   -4806.4576            0    8411.3268    17.796059    23.142819    19.238744    7923.4954    7815.0353    7187.4206    10231.524   -77.532871   -205.75831   -480.08689   -3308.3432 
20061000    269.87456   -4794.4495    -4254.667   -4794.4495            0    9367.9548    17.736691    23.254268    19.180231    7910.9584    10357.201    8683.0292    9063.6346   -794.47167   -183.85505    773.72724    -3173.856 
20062000    284.28669   -4803.2405    -4234.632   -4803.2405            0    7779.2891    17.885989    23.160858    19.235226    7968.2857    10025.908    6047.8799    7264.0792   -995.79518   -1140.5155   -1200.1545   -3330.6064 
20063000    261.61016   -4781.7108   -4258.4582   -4781.7108            0    7668.2229    17.982672    23.072791    19.258989    7990.7558    7379.3058    8510.4497    7114.9133    707.85807    843.82184   -686.79994   -3364.8267 
20064000    261.66631   -4810.4674   -4287.1025   -4810.4674            0    8548.3733     17.69218     23.38984    19.128326     7915.631    9205.9914    8079.1977    8359.9307    182.12216   -275.52342     48.33797   -3300.2667 
20065000    246.69823   -4793.9885   -4300.5615   -4793.9885            0    8567.9456    17.592063    23.353979    19.216553    7895.0182    11667.839    7700.5142    6335.4837   -855.10124   -607.72294    -563.0473   -3314.0419 
20066000    271.09496   -4788.1066   -4245.8832   -4788.1066            0    10095.682    17.951385    23.047787    19.059208    7885.5514    8439.2255    11586.398    10261.422    276.01048    993.17285    920.16508   -3084.8528 
20067000    258.48378   -4818.2721   -4301.2726   -4818.2721            0    9237.4072    17.784649    22.988291    19.373241    7920.5307    8538.2015    9833.9167    9340.1036   -339.10397    159.49005   -240.26695   -3234.2336 
20068000     270.6176   -4815.2363   -4273.9676   -4815.2363            0    10244.922    18.007592    22.862017    19.080211      7855.13    9357.2011    9998.7099    11378.856    2252.4049   -242.23706    1807.5213   -3100.3194 
20069000    269.86679   -4856.6103   -4316.8434   -4856.6103            0    9559.2428    17.805956    22.917169    19.285847    7869.8234    10178.861    8811.7812    9687.0865    1090.7569   -69.884994   -742.08402   -3219.6975 
20070000    265.02918   -4801.3255   -4271.2344   -4801.3255            0    11229.644    17.779403    22.936813    19.282468     7863.445    14578.054    9286.1902    9824.6868   -69.724604   -547.84652    17.413666   -2983.4157 
20071000    256.74502    -4792.984   -4279.4623    -4792.984            0    10463.183    17.968397    23.222007     18.94472    7904.9162    10982.466    9127.1138    11279.969    246.40898   -761.87999    1967.4206   -3073.2133 
20072000    268.68132   -4767.8072   -4230.4114   -4767.8072            0    7783.5463    17.783886    23.163289    19.428473    8003.2348    7973.2666    7274.5659    8102.8064    -685.0131    14.544229   -655.73862   -3321.9239 
20073000    258.08439   -4836.4028   -4320.2021   -4836.4028            0    8931.2966    17.909611    23.059477    19.186249    7923.6571    9331.4188    9080.1857    8382.2854    1855.5021    135.18001    332.68032   -3288.1157 
20074000    251.03042    -4819.891   -4317.7991    -4819.891            0    8337.7467    17.768628    23.057324    19.392265    7944.9531    9385.6963    6520.7615    9106.7823   -523.07008   -1425.1397    188.33903   -3351.7128 
20075000    254.63652    -4796.506   -4287.2015    -4796.506            0     10470.76    17.879703    22.814135    19.274288    7862.1741    10388.626    10614.624    10409.029    604.81347    875.67831   -1289.1001   -3086.6059 
20076000     278.3075   -4837.5313   -4280.8819   -4837.5313            0    6973.4337    17.919089    22.884349    19.403973    7956.9229    7027.3977     6869.501    7023.4023    783.98566   -54.113208    793.05275   -3471.6599 
20077000    254.90075   -4852.4654   -4342.6324   -4852.4654            0    6559.3008    18.034855    22.879627    19.374503     7994.516    7130.5163    7013.3031    5534.0829   -682.93276    1548.3502   -565.21192   -3577.8716 
20078000    270.33257   -4771.7191   -4231.0205   -4771.7191            0    10140.211    17.862121    22.807885    19.388242    7898.7155    10705.604    10344.632    9370.3968   -288.06178    850.47811   -495.76648   -3062.9223 
20079000    267.59147    -4835.362    -4300.146    -4835.362            0    8461.4189    18.054534    22.771075    19.282318    7927.3686    6589.9709    9895.0538     8899.232   -413.03874    76.730094   -1387.2461   -3321.8999 
20080000    273.19228   -4801.9555   -4255.5372   -4801.9555            0    7832.5622     18.18486    22.590628    19.458002    7993.4914    7777.1278    7876.5921    7843.9669   -818.26303    607.11077   -1068.8576   -3342.4416 
20081000    261.49363   -4805.2327   -4282.2132   -4805.2327            0    7312.0276    18.034432    22.688477    19.442808    7955.4874    6992.0401    8302.3863    6641.6563    42.948506    443.43698   -745.43275   -3433.8526 
20082000    265.98623   -4846.3892   -4314.3839   -4846.3892            0    9791.5365    17.987354    22.780084      19.2607    7892.1382    10452.995    10130.525    8791.0895    609.41256   -225.56238    3990.3341   -3187.3904 
20083000    275.01802   -4817.8037   -4267.7336   -4817.8037            0    10297.118    17.897753     22.86771    19.249455    7878.4291    8371.7111    11254.198    11265.445    277.52855    943.01725   -1057.8856   -3084.6071 
20084000    266.88642   -4778.0231   -4244.2173   -4778.0231            0    9329.4433    17.882649    22.904148    19.338671     7920.865    8347.7397    9941.9174    9698.6729    1279.8873   -424.92454    3348.7019   -3166.5015 
20085000    273.49818   -4848.2498   -4301.2196   -4848.2498            0    9893.0447    17.911596    22.848235    19.294321     7896.169    10522.067    9460.9516    9696.1161    602.49725    41.975117    2156.2201   -3161.9611 
20086000    255.64099   -4803.7018   -4292.3882   -4803.7018            0    9317.5925    17.936629    22.735338    19.306097    7872.9359    10173.173     9166.507    8613.0976    1279.6197   -699.03221    -328.7803   -3222.5544 
20087000    263.46146   -4833.5612   -4306.6058   -4833.5612            0    7254.5801    18.172439    22.856758    19.283445    8009.6304    6989.4156    6960.0939    7814.2308   -389.79894   -413.68699    595.96009    -3459.182 
20088000    257.67763   -4804.9857   -4289.5986   -4804.9857            0    6937.5227    17.851307    22.934676     19.54399    8001.5822    6767.3084    8105.1779    5940.0819    -776.6177    463.16242    623.66267   -3480.0253 
20089000     253.0289   -4829.1152   -4323.0261   -4829.1152            0    11785.566    17.837496    22.783343    19.222298    7811.8991    10850.482    11803.691    12702.523   -327.35163   -1253.5002   -591.87203   -2980.3139 
20090000    257.72511   -4810.5807   -4295.0986   -4810.5807            0    10022.579    17.934033    22.775036    19.340464    7899.5787    9526.8393    11278.791    9262.1061    73.036919    1273.4315    1456.3481   -3140.4248 
20091000     254.4535   -4812.2043   -4303.2658   -4812.2043            0    8687.0253    18.040047    22.836206    19.243106    7927.5098    8922.0658    8448.1779    8690.8321    615.63156   -289.98982   -135.37298   -3298.9189 
20092000    264.94209   -4819.1513   -4289.2344   -4819.1513            0    9605.5297    17.847387    23.016496     19.21442    7892.9826    9382.2143    9264.9518    10169.423    1780.4977     611.4272   -1362.0872   -3183.5318 
20093000    270.13033   -4808.2451   -4267.9511   -4808.2451            0    7248.9555    17.982996    23.077439    19.232392    7981.4715    6485.1151    8113.4221    7148.3293    397.28444   -480.85607    1499.7137   -3424.1612 
20094000    260.91097   -4805.3106   -4283.4565   -4805.3106            0    9213.1356    17.826713    22.898246    19.371885    7907.6126    9963.2483    8583.4095     9092.749    -504.1946   -852.86083    -753.2295   -3220.9569 
20095000    257.85214     -4844.25   -4328.5138     -4844.25            0    9779.2348    17.930418    22.869521    19.268524    7901.2523    10373.958    9148.3256    9815.4205    1208.3181   -279.47732    16.332721   -3201.6364 
20096000    271.19281   -4810.9822   -4268.5631   -4810.9822            0    9079.2822    17.875488    22.975401    19.306186    7928.9832    9206.3706    10373.229     7658.247    949.89285    498.84331   -514.83688   -3218.6704 
20097000    265.07583   -4811.8761   -4281.6916   -4811.8761            0    10298.489    17.948143    22.816484    19.239794    7878.9558    9393.9106    10832.157    10669.401   -245.39575   -122.91832    1126.6568   -3098.3284 
20098000    277.51838   -4845.9249   -4290.8538   -4845.9249            0    6645.7208    17.725475    23.087122      19.4462    7957.9726    4696.2925    6641.3663    8599.5037    518.33584   -777.54508    2455.8072    -3519.559 
20099000    260.50227   -4812.7362   -4291.6995   -4812.7362            0    8852.7312    17.917545    22.973368    19.169441    7890.6468    6185.3393     10354.25    10018.604     1435.513    163.12593    607.78841   -3272.9538 
20100000    271.58162   -4822.8925   -4279.6957   -4822.8925            0    9434.2879    17.889713    22.854684    19.303939    7892.6806    8932.3611    10541.641    8828.8618   -660.28105    1302.6347    -1480.168   -3193.7464 
20101000     258.5082   -4845.2714   -4328.2231   -4845.2714            0    8000.0978    17.873842    23.078279     19.24821    7939.8383    8918.7645    7004.9901    8076.5387    2730.3945    1253.1572    354.47125   -3401.8566 
20102000    248.12016    -4795.345   -4299.0741    -4795.345            0    6968.3653     17.76684    23.226956    19.402366     8006.767    7798.5009    6304.2678    6802.3274    -56.00032    -33.75738    301.04765   -3485.3747 
20103000    270.51284   -4799.7027   -4258.6436   -4799.7027            0    9327.0628    17.985078    23.152828    18.979819    7903.2995    8668.5305    8821.0004    10491.657    374.72676   -1998.9429   -175.70559   -3183.5922 
20104000    265.12314    -4802.194    -4271.915    -4802.194            0    9179.6142    17.749418    23.035965    19.419203    7940.0261    10894.791    8457.6029    8186.4487    -342.1432   -325.17132    718.17305    -3208.942 
20105000    273.07604   -4782.8034   -4236.6176   -4782.8034            0    10149.007    17.991708    22.959708    19.122896    7899.3693    10305.803    9519.9652    10621.253   -437.49414    -126.7574    882.65287   -3067.4094 
20106000    249.65995   -4814.1787   -4314.8279   -4814.1787            0    10597.889    17.535916    23.173507    19.393801    7881.0331     10531.04    11039.574    10223.051    1392.8704    825.53103   -720.79778   -3096.7407 
20107000    263.09077   -4797.4392   -4271.2251   -4797.4392            0    9123.9359    18.034183    23.158792    19.022246    7944.6391    6575.3992    9102.7491     11693.66    241.46279    211.68103    -1204.504   -3214.0857 
20108000    273.85514   -4820.1595   -4272.4153   -4820.1595            0    8525.7772    17.694163    23.071806    19.500434    7960.7845    10583.672    8047.0335    6946.6259    753.91133     754.3392    601.19768   -3282.5737 
20109000    262.76651   -4834.4272   -4308.8617   -4834.4272            0    8611.3559    17.949566     23.08248    19.150352    7934.3838    7877.6527    9768.3458    8188.0692   -74.215921   -8.4278215   -642.85053   -3312.3999 
20110000    263.04423    -4778.943    -4252.822    -4778.943            0     10012.94     17.77115    23.040051     19.30593    7904.7785     9172.332     10113.74    10752.748    1636.6908    364.59695   -867.57522   -3098.4994 
20111000    271.64075   -4789.1785   -4245.8635   -4789.1785            0    10092.624    17.798946    23.183024    19.200267    7922.6712    10135.811    8620.5449    11521.515   -771.61159   -311.50324   -2899.9367    -3079.721 
20112000    262.41132   -4799.0549   -4274.1998   -4799.0549            0    9502.9281    17.774851    23.054005    19.291396    7905.2574    8933.8579    10016.936    9557.9901   -448.35616   -62.271133   -1432.3856   -3178.6066 
20113000    259.29373   -4816.8648   -4298.2453   -4816.8648            0    10638.841    17.866865    23.011282    19.158792    7876.9354    8926.2611    11862.185    11128.076    1377.1474    840.85633     343.5739    -3076.087 
20114000    273.07524   -4810.6545   -4264.4703   -4810.6545            0    8468.0361     17.94883    23.031034    19.173235    7925.8342     8329.861    8108.5063     8965.741   -1834.5111   -225.15544   -2680.1489   -3285.6487 
20115000    259.59259    -4805.408   -4286.1908    -4805.408            0    8110.9006    17.822131    23.126228    19.259057    7937.7872    7098.0372    8225.6538    9009.0107     88.25825    154.28271    78.580026   -3347.2366 
20116000    254.62557   -4825.5996    -4316.317   -4825.5996            0    9412.2365    17.829865    23.145836    19.193154    7920.7674    7951.6798    9451.9052    10833.124   -341.56875    1171.6653    97.838061   -3229.0506 
20117000    250.22175   -4824.4038   -4323.9294   -4824.4038            0    8682.8989    17.869698     23.21411    19.149547    7943.7902    8595.1929    9117.7533    8335.7506     930.7582    886.18906    2.2828157   -3317.9979 
20118000    257.31458   -4815.5986   -4300.9376   -4815.5986            0    10069.395    17.713801    22.971544    19.311584    7858.1415    10833.315    10025.801    9349.0674   -237.55531   -374.42669   -627.94204   -3146.9555 
20119000    265.18765   -4839.5645   -4309.1564   -4839.5645            0    9452.0912    17.897969    22.949307     19.23739     7901.681    7832.3478    9821.2879    10702.638   -916.54461   -196.53364    152.62621   -3219.9172 
20120000    257.62719   -4810.4698   -4295.1836   -4810.4698            0    6637.4619    18.054122    23.102851    19.201147    8008.8311    6338.2915    6048.0826    7526.0115   -150.21323    562.60065   -1746.2476   -3519.9241 
20121000    262.48458   -4827.9842   -4302.9826   -4827.9842            0    9811.0667    17.942822    22.892118    19.198865    7885.9184    9870.6353    9556.6868    10005.878   -182.88761    838.25253    514.98162   -3174.6312 
20122000    274.72169   -4802.7725   -4253.2952   -4802.7725            0    9183.1566    17.915181    22.851553    19.313927     7906.923    8967.0492    9880.9111    8701.5095    638.16552    331.78582    97.992612   -3194.3453 
20123000    270.07822   -4825.0592   -4284.8694   -4825.0592            0    8869.5862    17.967286    22.798926    19.318556    7913.5534    9034.4615    9262.7379    8311.5592   -179.48509   -173.17572   -964.21625   -3261.2211 
20124000    264.27771   -4793.9038   -4265.3157   -4793.9038            0    10409.794    17.839447     22.99204    19.254079    7897.3548    8868.2715    10462.249    11898.861    1546.7073   -1338.6385   -1370.1097   -3066.3696 
20125000    267.37242   -4795.1928   -4260.4149   -4795.1928            0    7027.9563    18.038959       22.867     19.38008    7994.2227     5512.706    7841.2209     7729.942    -92.34132    237.19353   -510.31159   -3441.0428 
20126000    269.08973   -4833.8818   -4295.6691   -4833.8818            0    8677.8639    17.979666    22.910143    19.184392    7902.3717    9400.0039    8536.2325    8097.3555   -622.11249    904.17964    1056.0688   -3295.5627 
20127000    266.80711   -4835.0286   -4301.3814   -4835.0286            0    8203.6351    17.808488    22.910422    19.439921    7931.4872    7724.8967    8869.3707    8016.6379   -338.13758    958.24384    -410.6404   -3352.4455 
20128000     263.9769   -4835.4638   -4307.4774   -4835.4638            0    9865.3807    18.011539    22.897743    19.159709    7901.9158    9118.6371    8914.1524    11563.353   -291.98988   -505.33914    92.684351   -3170.5778 
20129000    265.75167   -4767.7719   -4236.2357   -4767.7719            0    10304.968    17.908521    22.881227    19.370416    7937.3951    9787.1684    9853.0706    11274.664    251.82076    1589.7409   -800.64641   -3043.3454 
20130000    253.94048   -4825.2481   -4317.3358   -4825.2481            0     10370.21    18.052142    22.686402    19.285896    7898.3101    10025.599    10850.804    10234.229   -28.680007    641.59412    248.88165   -3122.8042 
20131000    256.51232   -4840.0916   -4327.0353   -4840.0916            0    7926.8239    17.901768    22.863478    19.405912    7942.7752    7244.7941    8421.4684     8114.209    787.92297    378.06138   -256.92877    -3408.814 
20132000    278.04218    -4824.178   -4268.0593    -4824.178            0    6417.8063    18.035371    22.998405    19.329495    8017.5799    6686.5838    5287.0956    7279.7395   -666.56624   -409.64931   -38.027814   -3517.6369 
20133000     266.2172   -4796.3781   -4263.9108   -4796.3781            0    8458.9152    17.856201    23.205752    19.249889    7976.5108    6977.6846    8841.7073    9557.3537   -498.68343     1268.704    1613.2244   -3279.8917 
20134000    266.08719   -4847.9059   -4315.6987   -4847.9059            0    9174.7714    17.874266    22.968067    19.261383     7907.517    10258.522    8603.9093    8661.8833   -854.43787   -1437.2525    185.80794   -3257.6363 
20135000    264.98563   -4829.2163   -4299.2123   -4829.2163            0    10299.853    17.871595    22.893097    19.231443    7868.2784    9505.1161    10875.202     10519.24   -109.77832    370.61099    723.52858   -3117.2963 
20136000    276.41801   -4822.9787   -4270.1085   -4822.9787            0    6372.8863    18.122246    23.042687    19.154862    7998.7881    6779.3151    5577.4037      6761.94    28.472968   -90.352418   -21.940589   -3526.6851 
20137000    265.73454    -4832.924   -4301.4221    -4832.924            0    7934.9864    17.835318    22.854278    19.482436    7941.3004    9794.2524    7665.8594    6344.8475   -45.565284    1301.6121    1755.8728   -3382.4259 
20138000    267.89079     -4825.98   -4290.1654     -4825.98            0    8228.2575    17.919257     22.94489     19.21808     7901.617    8000.7008     8386.641    8297.4308    1595.6438   -413.52215   -266.65598   -3341.9658 
20139000    258.04987   -4827.3852   -4311.2536   -4827.3852            0    9409.5039    17.844522    22.947202    19.266052    7889.0989    8170.6545     9558.679    10499.178   -1911.4057   -1457.3996   -785.21476   -3228.6487 
20140000     266.0836   -4800.3858   -4268.1858   -4800.3858            0    9567.6182     17.75565    23.086237    19.247897    7889.9275     10146.87    9680.8451    8875.1397    2644.1636   -1156.3108    1667.3695   -3167.2734 
20141000    264.72679   -4829.3123   -4299.8261   -4829.3123            0    8616.8715    17.834423    23.270009    19.099581    7926.4632    8067.6062    8048.1746    9734.8338   -1201.5447   -793.99146   -700.87393   -3303.7214 
20142000    269.26376   -4823.4778    -4284.917   -4823.4778            0    9402.1936    17.781039    23.359874    19.057754    7915.8829    9951.1066    7631.3898    10624.084    50.832366    638.07582   -590.80051   -3199.4805 
20143000     257.8679     -4821.44   -4305.6724     -4821.44            0    8759.7923    17.880509    23.157141    19.157319    7932.3076    10462.903      8768.13    7048.3442   -1628.4645    68.509248    932.64008   -3292.2996 
20144000    260.97655   -4795.0105   -4273.0251   -4795.0105            0    9806.8824    17.692397    23.246008    19.188948    7891.9846    9598.6657    9957.1023    9864.8793    169.43936    736.71892   -940.25587   -3144.2873 
20145000    251.05229   -4788.9157   -4286.7801   -4788.9157            0    8298.2013    17.974817    23.221619    19.130676    7985.2274    7492.1525    8449.1505    8953.3007    -981.0269    1159.0335   -457.96656   -3320.4019 
20146000    255.06448   -4819.3576   -4309.1972   -4819.3576            0    6349.5393    17.776803    23.239777     19.38668    8009.1983    9434.8615    5918.4549    3695.3017   -369.08573    537.94675    1490.9157   -3567.5332 
20147000    261.23998   -4850.4227   -4327.9104   -4850.4227            0    7191.0348    17.921039    23.090915    19.175079    7934.9005    7566.9591    7220.8706    6785.2746   -1146.7657    250.37899    670.31956   -3495.7467 
20148000    263.19509   -4822.7883   -4296.3656   -4822.7883            0    8850.2757    17.849374    22.999387    19.286656     7917.648    10049.028    8655.8189    7845.9802   -748.17713   -182.61525   -490.20074   -3274.4174 
20149000    277.71861   -4806.0909   -4250.6194   -4806.0909            0     7816.537    17.911683     23.10719     19.23139    7959.6545      7063.41    7504.7572    8881.4438    7.8886646    226.58722    268.34904   -3343.2492 
20150000    260.50143   -4826.7173   -4305.6823   -4826.7173            0     8721.256    17.904175    23.043163    19.300392    7962.7399    10772.956    6741.6551    8649.1565   -694.36123    316.21635     256.9001   -3292.8968 
20151000    275.99876    -4797.602   -4245.5703    -4797.602            0    9698.1945    17.902895    22.888834    19.305658    7911.0029     11131.27    8362.8549    9600.4583   -100.31684    74.769422   -438.82612   -3126.6522 
20152000    263.05951   -4798.1585    -4272.007   -4798.1585            0     10278.95    17.956702     22.79257    19.265878    7885.1271    10509.956    11301.633     9025.262   -1610.1189    261.11095    150.40095   -3089.9638 
20153000    265.33557   -4806.4313   -4275.7274   -4806.4313            0     8574.609    17.989764    22.587272    19.567261    7950.9548    8834.2755     9790.167    7099.3844   -1032.0257    133.52853   -25.819171   -3281.4455 
20154000    260.58493   -4821.3667   -4300.1646   -4821.3667            0    8952.8899    18.136181    22.579855    19.340588    7920.2091    8432.7626    10404.141    8021.7658    757.63555   -30.992236    302.57052   -3266.0331 
20155000    247.25163   -4790.2894   -4295.7556   -4790.2894            0    8591.8599    17.959803    22.597259    19.534222    7927.8141    9032.5517     9100.967    7642.0611     1359.339   -764.03694    37.921288    -3302.373 
20156000    266.79149   -4856.3749    -4322.759   -4856.3749            0    7493.3823    17.995439     22.61137    19.482472    7927.4478      6762.09    8911.6005    6806.4565    131.34646    178.13641   -609.19837   -3456.4214 
20157000    268.13627   -4834.1197   -4297.8141   -4834.1197            0    9616.7438    18.012758    22.700226     19.33585    7906.3069    10778.839    8789.4789    9281.9137   -725.44888   -998.42872   -538.16917   -3188.9518 
20158000    253.11976   -4820.1841   -4313.9133   -4820.1841            0    10565.291    17.971854    22.712659    19.230109    7849.5114     11832.93    10153.334    9709.6078    -270.7063    177.70585   -102.79074   -3104.4297 
20159000    262.59149   -4829.9798   -4304.7643   -4829.9798            0     8666.704    17.862023    22.930917    19.316321    7911.8212    9574.5788    9481.8375    6943.6956    1160.1305   -712.61498   -863.36896   -3304.7498 
20160000    269.13415   -4815.1428   -4276.8413   -4815.1428            0    8755.8931    17.895525    23.008341    19.290835    7942.9309    10612.864    7664.4151    7990.4004    506.52169    268.53672   -71.593162    -3262.563 
20161000    252.77764   -4823.4878   -4317.9013   -4823.4878            0    8313.6296    17.906266    23.018148    19.236583    7928.7248    7973.4101    8852.6954    8114.7832   -624.13233   -501.54159   -609.99377    -3356.577 
20162000     277.5687   -4837.0572   -4281.8855   -4837.0572            0    10005.962    17.846252    23.044749    19.196018    7894.6004    10543.511      9213.64    10260.736    1304.3085   -784.53356   -753.69332   -3129.8526 
20163000    248.74637   -4775.0029   -4277.4795   -4775.0029            0    10908.339    17.877811    22.882286    19.209141    7858.1751    10928.904    11799.237    9996.8753   -660.47555       190.73   -1298.8477   -3027.3465 
20164000    267.34768   -4828.9308   -4294.2024   -4828.9308            0    8375.2086    17.816353    23.167889    19.219082    7933.0082    10634.272    6880.5598    7610.7941   -405.99319    183.11731    -1004.931   -3325.2344 
20165000    267.08397     -4826.94   -4292.7391     -4826.94            0    10216.541    17.953859      22.9358    19.178699    7897.5225    8384.5276    10756.039    11509.058    1525.6272    176.81015    984.84562   -3116.0258 
20166000    268.83576   -4785.5058    -4247.801   -4785.5058            0    7715.0856    17.880699    23.097711    19.257215    7953.2921    7936.5663    8463.8443    6744.8462   -618.39952   -1124.7406   -473.59974   -3352.9236 
20167000    266.87826     -4830.95   -4297.1605     -4830.95            0    8670.6599    17.906978    22.937343    19.240472    7902.8025    8693.0454    9170.7536    8148.1809    351.22201   -67.812809    32.725011   -3297.8299 
20168000    266.12633   -4798.8246    -4266.539   -4798.8246            0    8747.9624     17.83561    23.035697     19.29951    7929.3141    10850.161    8778.9766    6614.7494   -376.14724    4.7561879   -684.34035   -3254.9167 
20169000    269.29628   -4786.6656   -4248.0398   -4786.6656            0    10156.081    17.896223    23.109167    19.141868    7916.4409    8340.8351    8778.2692    13349.138    1361.4492   -535.62088    179.85441    -3075.488 
20170000    271.67027   -4817.2643   -4273.8902   -4817.2643            0    11131.165    17.836992    23.014574    19.140126    7857.2275    8464.0943    11516.751    13412.651    282.58817    103.53667   -1587.4161   -2998.3744 
20171000     264.8323   -4796.8192   -4267.1219   -4796.8192            0    8038.3764    17.638258     23.28796    19.363091    7953.5648     8344.463    8935.4655    6835.2008   -306.41415    812.76827    569.09143   -3334.7137 
20172000    264.55242   -4828.1306   -4298.9931   -4828.1306            0    10587.591    17.905208    23.105867    19.049867    7881.2223    10028.751    10160.257    11573.763   -225.14018    222.64556     -1295.52   -3082.0603 
20173000    250.27542   -4819.2297    -4318.648   -4819.2297            0    9410.2243    17.757255    23.184437    19.198615    7903.9155    10862.339    8613.9327    8754.4013   -2747.2192    718.92172   -1328.6611   -3233.9267 
20174000    265.48714   -4821.8731    -4290.866   -4821.8731            0    8661.3358    17.927426     23.24837    18.957199    7901.0463    6317.2681     8445.422    11221.317    111.64419    514.55698    1211.5809    -3292.832 
20175000    260.37257   -4810.3733    -4289.596   -4810.3733            0    9582.6858      17.6228    23.211109    19.268685     7881.754    12256.957    8231.7436    8259.3566   -539.81947   -652.44994    976.72103   -3188.0922 
20176000    269.43253   -4843.3185   -4304.4201   -4843.3185            0    8101.1645    17.993914    23.081505    19.122419    7942.0496    6304.3982    8504.5047    9494.5905   -1841.5422    843.91636   -1221.7086   -3366.0894 
20177000    262.03661   -4793.0077   -4268.9021   -4793.0077            0    9431.0902    17.839899    23.035604    19.311209    7935.9961    8871.4391     9352.208    10069.623     269.7292   -593.66857    947.97663   -3177.3632 
20178000     266.8654   -4801.6962   -4267.9324   -4801.6962            0    10504.935    17.837859    23.061384    19.123346    7866.6888    10364.738    10216.568    10933.498   -2423.1978   -759.63495   -186.95168   -3062.7266 
20179000    269.22006    -4801.744   -4263.2707    -4801.744            0    8030.4596    17.899434    22.910102    19.390341    7951.5495    7679.2601     8218.273    8193.8456     723.9496   -261.82782    522.93087   -3332.0169 
20180000     249.6774   -4777.5358   -4278.1502   -4777.5358            0    10522.744    17.805625    23.004612    19.299745    7905.3976    9731.0456    11037.113    10800.073   -585.24213    33.842372   -170.08474   -3064.9608 
20181000     263.9271   -4822.8526   -4294.9658   -4822.8526            0    10189.185    17.939301    23.026201    19.068254    7876.5987    9953.9797    10045.648    10567.929    94.900219    498.34458    979.17053   -3124.5125 
20182000    266.51526   -4806.2873   -4273.2239   -4806.2873            0    9187.6312    17.835604    22.962141    19.318402    7911.7289    10593.543    8367.8843    8601.4665   -1455.2605   -1503.6926   -1908.4861   -3213.1141 
20183000    261.97666   -4836.4365   -4312.4508   -4836.4365            0    7980.1535    17.799603    23.221945    19.202286       7937.1    8600.3122    7479.3112    7860.8371    -304.8362   -1150.4857   -375.30625   -3388.7124 
20184000    254.10308   -4828.8674   -4320.6299   -4828.8674            0    8885.3565    17.731415    23.287493    19.157439    7910.4935    10202.323    7589.4396    8864.3071   -973.10179    461.96356  -0.34902111    -3295.558 
20185000    280.88058   -4827.6065   -4265.8107   -4827.6065            0    9476.6108    17.693574    23.397295    19.091786    7903.6513    10045.365    8074.9866    10309.481    1793.1112   -53.902431    -205.9621   -3173.4735 
20186000    267.66422   -4804.0644   -4268.7029   -4804.0644            0    8682.5743    17.808049    23.190136    19.156736    7911.1778    6576.5613    9640.0397    9831.1219    832.59427    216.77217    -46.65343   -3266.9387 
20187000    262.89643   -4837.4834    -4311.658   -4837.4834            0    7540.4249    17.707215    23.226198    19.302221    7938.4488    7393.0397    7377.0931    7851.1419   -898.97263    423.80923    1022.9235   -3438.6719 
20188000    276.68623    -4817.465   -4264.0584    -4817.465            0    9333.8629    17.897154    23.200167    19.004909    7891.1604    11088.705    7696.2238    9216.6595    1875.4004    723.09133    1810.5537   -3189.8756 
20189000    258.54964   -4833.0361   -4315.9049   -4833.0361            0    9765.5534    17.837224    23.055102    19.193364    7893.0606    11236.069     8868.863    9191.7286   -539.87904    155.24615   -668.54639   -3191.7706 
20190000    276.97318   -4794.8001   -4240.8195   -4794.8001            0    7532.0981     17.74568    23.008778    19.461828    7946.3893    9354.2145    6437.2848    6804.7952   -856.94884   -1560.7596    1059.7033   -3367.9251 
20191000    277.11779   -4831.2433   -4276.9734   -4831.2433            0    9980.7452    17.850021    23.093462    19.128106    7884.9648    9897.4542    9208.7829    10835.999   -1195.5317   -515.53192    472.08499   -3129.2464 
20192000    257.64227   -4792.6229   -4277.3066   -4792.6229            0    9744.4587    17.975866    22.924435    19.293003    7950.3878    8469.9358    10084.653    10678.788    -3758.446    481.27066    147.30213   -3147.4536 
20193000    265.42216   -4824.3217   -4293.4446   -4824.3217            0    8656.8091    17.932328      22.8249    19.353116    7921.2998    8700.0022    10003.485    7266.9406    135.23799   -295.09724    239.48704   -3293.3751 
20194000    274.02095   -4827.9542   -4279.8784   -4827.9542            0    10263.428    17.961136    22.827902    19.233024    7885.8295     8423.766    10425.915    11940.604   -542.95234    118.62418   -919.51456   -3099.5151 
20195000    259.29572   -4797.6956   -4279.0721   -4797.6956            0    11189.273    18.022385    22.412492    19.464918    7862.3973    8144.2282    13330.744    12092.846    383.02794     259.5094    1410.8657   -2996.0542 
20196000    267.67815   -4833.7876   -4298.3982   -4833.7876            0    8058.9056     17.96859    22.769108    19.363141    7922.0183    9444.7467    9062.7414    5669.2287    -349.3332    884.20617     950.9939   -3367.3165 
20197000    260.25804   -4820.5309   -4299.9826   -4820.5309            0    7215.5249    18.062528    22.851207    19.322156    7975.2309    8024.9837    6949.0852    6672.5059    43.602149    91.047954    598.07253   -3460.7409 
20198000    263.05914   -4814.2008     -4288.05   -4814.2008            0    8948.0157     18.00532    22.779131    19.283634    7909.0964    8659.9645    9361.1564    8822.9263    364.43674    1195.2673    586.40392   -3255.9317 
20199000    259.91609    -4779.424   -4259.5597    -4779.424            0    9549.2778     17.86883    22.940122    19.331266    7924.1402    8688.7161    9599.8404    10359.277   -358.42521   -777.00431   -1390.2613   -3155.9931 
20200000    265.55097   -4826.5269   -4295.3922   -4826.5269            0    8275.6322    18.031263    22.977358    19.208344    7958.2243    8886.2448     8345.282    7595.3698    1153.4798   -17.721006   -1492.8773   -3334.9013 
20201000    258.22816   -4793.2575   -4276.7693   -4793.2575            0    9374.8516       17.839    22.774008    19.417673    7888.7312    9457.7615    10280.595    8386.1981    1930.8811   -671.07655    42.083139   -3198.2015 
20202000    257.66589   -4800.8608   -4285.4972   -4800.8608            0    8826.5151    18.008608    22.768395    19.357266    7937.0037    9106.8034    9297.6112    8075.1307   -1371.3167    1086.3989    171.75941   -3263.8011 
20203000     256.4668   -4838.4712   -4325.5059   -4838.4712            0    8665.9872    17.992774    22.749213    19.400547    7941.0601    8078.3893    10232.953     7686.619    217.02167      56.6019    465.73701   -3321.8787 
20204000    252.03616   -4817.0587   -4312.9552   -4817.0587            0    10170.977    17.991017    22.704671    19.317193    7890.6892    11501.375    10602.042    8409.5153    1729.5905   -174.50346    -2013.808   -3142.5035 
20205000    250.83297   -4819.7788   -4318.0819   -4819.7788            0    9266.7743    18.016441    22.764644     19.26413    7900.9488    8457.0389    9486.2556    9857.0283   -456.29086   -363.02007   -3290.8213   -3250.2971 
20206000     261.7241   -4830.9271   -4307.4465   -4830.9271            0    9749.9147    17.863801    22.900904    19.313166    7900.9622     10998.83     9047.827    9203.0872    1721.1106   -1124.9722    963.26133   -3183.9889 
20207000    260.11014   -4808.3704   -4288.1179   -4808.3704            0    8790.4367    17.987622    22.852021    19.268993    7920.5873    7847.4533     8647.976    9875.8808    1131.7677    390.10577   -1638.4082   -3272.7026 
20208000    267.43592   -4798.3548   -4263.4499   -4798.3548            0    8988.9872    17.966163    22.889903     19.27607     7927.163    8948.8211    9328.6935    8689.4469    651.97742   -350.74683   -35.404129   -3224.2372 
20209000    266.07249   -4828.2472   -4296.0694   -4828.2472            0    6780.9868    18.036553    22.963485    19.308993    7997.4397    6927.8876    7420.7794    5994.2935   -507.30154    -533.7983   -1433.1942   -3505.1727 
20210000    279.15065   -4836.2848    -4277.949   -4836.2848            0    7783.7008    18.069837    22.623967    19.472783    7960.6956    5636.8722    8791.8469    8922.3835    595.89582   -457.97382   -974.39083   -3374.2724 
20211000    268.97382   -4818.2725   -4280.2916   -4818.2725            0    8468.3131    17.971166    22.832595    19.305934    7921.7717    7273.3377     9217.027    8914.5746    59.515862   -166.41896   -985.51559   -3301.9397 
20212000    258.52384   -4807.7593   -4290.6796   -4807.7593            0    9057.4872    17.936523     22.85152    19.353308    7932.4724    7795.0801    9931.9059    9445.4756    916.76777     1115.523    313.16019   -3242.8464 
20213000    272.45647   -4836.4632   -4291.5166   -4836.4632            0    7535.0558    18.048337    22.637082    19.450143    7946.5832    6418.1713    10248.403    5938.5929    789.49262    1622.0005   -795.32086   -3418.2582 
20214000      265.813    -4820.728   -4289.0692    -4820.728            0     9697.148    18.248103    22.499796    19.328073    7935.6932    7153.0517    12310.086    9628.3067    91.443917    1309.6219   -84.477386     -3166.78 
20215000     255.4957   -4849.4701   -4338.4471   -4849.4701            0    7329.0232    18.096182    22.512023    19.439095    7919.1307    4850.2567    8041.4255    9095.3875     527.3794   -863.61855   -1587.5279   -3492.0006 
20216000    261.84787    -4814.568   -4290.8399    -4814.568            0     9652.015    18.041303    22.675955    19.335531     7910.239     9970.733    9231.9325    9753.3795   -391.71988   -1539.8119   -379.85648   -3177.3572 
20217000    249.95571   -4822.8808   -4322.9385   -4822.8808            0    9680.9315    18.110149    22.571105    19.334194    7903.1623    8766.2577    11060.011    9216.5258   -44.009965    486.95216     1897.542   -3207.1191 
20218000    267.68827   -4809.9713   -4274.5617   -4809.9713            0    9654.8317    18.061727    22.682531    19.419297    7955.8079    8858.0828    10591.567     9514.845   -656.38983    1952.6286   -1759.2684   -3154.3376 
20219000    264.97402   -4818.7729   -4288.7921   -4818.7729            0    8994.2619    17.983245    22.830968    19.259294    7907.3821    8931.3229     8452.608    9598.8546    379.20806   -113.98597    679.05528   -3251.5643 
20220000    256.66997   -4837.7145   -4324.3429   -4837.7145            0    9164.2929    17.861978    22.922668    19.301028    7902.6939    8645.5039    9474.3589     9373.016    363.02672   -802.42968    950.26502   -3268.1335 
20221000    260.44105     -4820.39   -4299.4757     -4820.39            0    7837.1169    18.024997    22.995883    19.142853    7934.7263    8503.4429    7294.5824    7713.3253   -59.748758   -732.06152   -592.50772   -3392.5658 
20222000    246.98957   -4820.1179   -4326.1082   -4820.1179            0    8669.4595    17.909141    22.860179    19.408156    7945.8186    8101.3625    10740.827    7166.1888   -696.57118    937.31326   -2405.0697   -3321.4773 
20223000    253.31243   -4830.7382    -4324.082   -4830.7382            0    8246.5131    18.070202    22.932628    19.164348    7941.6529    8265.1181    7613.0629    8861.3585    66.568724   -2389.1259    911.92531   -3368.9638 
20224000    257.47278    -4784.323   -4269.3456    -4784.323            0    9912.9823    17.746007    22.808657    19.504872    7894.8422    9702.9117    10840.584    9195.4514    246.37441   -652.54349    582.10627   -3127.9829 
20225000    257.22519    -4816.359   -4301.8768    -4816.359            0    9788.7289    18.021287    22.912101    19.125718    7897.1149    9053.6484    9808.0428    10504.496    874.72162   -1066.0613    1396.3408    -3174.496 
20226000    251.48502   -4802.9467   -4299.9456   -4802.9467            0    9603.1803    17.715916    23.092256    19.379685    7928.2384    11290.199    8626.2853    8893.0564     333.9938   -788.57276    370.10848   -3189.5757 
20227000    285.27536   -4789.0299    -4218.444   -4789.0299            0    9756.7494    17.872669    23.159205    19.112783    7911.1021    9207.6562    9589.5034    10473.089    2226.1016   -28.398082    1568.2508    -3092.756 
20228000    270.25547   -4803.5217   -4262.9774   -4803.5217            0    7843.5499    17.816543    23.277089    19.189941    7958.3998    7730.0479    7932.0286    7868.5733     1850.519   -842.82291    1619.9495    -3352.615 
20229000     276.1054   -4826.3352   -4274.0903   -4826.3352            0    9443.5771     17.52825    23.423588    19.209025    7886.7359    9666.0101     9198.334    9466.3872   -360.12932   -13.190792    -378.7235   -3187.8905 
20230000    276.65926   -4797.6484   -4244.2957   -4797.6484            0       9357.1    17.927345    23.059224    19.199441      7936.87    9141.9287    8286.8433    10642.528    1293.4812    514.05824   -1468.1905    -3161.201 
20231000    269.76261   -4800.0784   -4260.5199   -4800.0784            0    9892.0848    17.784903    23.052031    19.273092    7901.5463    10208.388    10244.045    9223.8218    1035.6992    701.76987    356.00106   -3120.5961 
20232000    272.26062   -4813.4925   -4268.9376   -4813.4925            0    10568.796    17.720576     23.11734    19.154588    7846.7263    10009.902    9623.8329    12072.653    602.79839    383.53902   -1293.8439   -3059.4821 
20233000     269.3043   -4828.6991   -4290.0573   -4828.6991            0    10913.967    17.655859    23.221064    19.125546     7841.241    13192.017    10918.886    8630.9992     1911.871     190.8502   -387.78412   -3041.9746 
20234000    267.68312   -4800.5554   -4265.1561   -4800.5554            0     7582.085    17.948671    23.179964    19.134366    7960.8447     7281.619    6613.2028    8851.4332   -309.58693   -841.44249   -2078.2048   -3384.8703 
20235000    252.54616   -4822.7497   -4317.6262   -4822.7497            0     8614.794     17.83185    23.078541    19.247977    7921.1791    5581.5892    8507.5333     11755.26   -352.65603    732.27498    266.86667   -3322.4256 
20236000    269.81149    -4847.038   -4307.3816    -4847.038            0    6760.6474     17.91767    23.230002    19.142015     7967.433    8036.3368    5300.3341    6945.2714   -1393.6257   -1708.9801   -545.92581   -3521.8158 
20237000     265.7136    -4838.775   -4307.3149    -4838.775            0    6894.2654    17.813403     23.21504    19.273779    7970.4566    6898.7469    7351.0215     6433.028   -65.246781    1280.8231   -100.90556   -3505.9191 
20238000    265.14012    -4797.397    -4267.084    -4797.397            0    10773.005    17.843457    23.133255    19.137076    7899.3497    9716.1393     11151.85    11451.026    767.49566    828.32495    1701.8126   -3025.9917 
20239000    269.34757   -4819.7743   -4281.0458   -4819.7743            0    7938.3913    17.735216    23.145438    19.290528    7918.5564    9733.1627     6844.197    7237.8142    910.08044    714.24146   -326.13525   -3364.2885 
20240000    264.86294   -4800.3505   -4270.5919   -4800.3505            0    9174.5211    17.846586    23.163168    19.151535     7916.928    9063.3934    8655.2533    9804.9166    1572.8033   -1263.5352    1451.1113   -3211.2992 
20241000    263.87557   -4832.5423   -4304.7585   -4832.5423            0    8483.6365     17.85748    22.846728    19.398389    7914.2514    8602.0781    9330.5352    7518.2962   -1369.8436    98.028056   -1028.0522   -3325.5667 
20242000    261.25191   -4819.1731    -4296.637   -4819.1731            0    8934.2586    17.946817    23.128706    19.192684    7966.6269    9001.6381    8597.0737    9204.0639    36.988333   -336.22304    2367.6235   -3258.6095 
20243000    278.16756   -4811.5497   -4255.1802   -4811.5497            0    7601.6882    18.001834    22.951731    19.238752    7948.9375    7640.6068     7485.721    7678.7367   -1571.3593    395.38839   -304.80927   -3373.9386 
20244000    262.62639   -4786.0596   -4260.7744   -4786.0596            0    9640.0696    17.902611    22.862673    19.256986    7881.9141    8583.1753    9847.2816    10489.752   -627.66762     418.7386    1247.7048   -3152.6519 
20245000     269.0081    -4780.962   -4242.9126    -4780.962            0    10013.905    18.024625    22.555876    19.515446    7934.2234    9724.8073     10985.88     9331.028   -728.08671    5.1558304    593.45733   -3084.1785 
20246000    266.03693   -4828.9174   -4296.8107   -4828.9174            0    8339.8621    18.054496    22.824677    19.309774     7957.327     7033.572    7809.6624    10176.352    706.64162   -909.81356    112.51336   -3328.9742 
20247000     270.2057   -4829.4482   -4289.0034   -4829.4482            0    8510.6678    17.964777    22.827862     19.27885    7906.2071     6721.237    9457.4968    9353.2696    508.64037   -322.81586    782.71187     -3307.69 
20248000    269.00345   -4798.7367   -4260.6965   -4798.7367            0    8245.8018    18.001209    23.235582    18.983452     7940.181    6063.2921    8300.5503    10373.563    1196.0297   -1331.1238    147.65891   -3305.8377 
20249000    263.80758   -4827.9431   -4300.2954   -4827.9431            0    9173.8678    17.799846    23.018546    19.345869    7926.5164    8702.4814    8764.9328    10054.189    265.09255   -381.07071   -940.32632   -3239.7952 
20250000    261.54655   -4778.6641   -4255.5387   -4778.6641            0     8907.869    17.962027    23.137163    19.132584    7951.3167    8862.1085    9274.0472    8587.4514    323.02587    458.47935   -899.75795   -3222.5662 
Loop time of 509.209 on 64 procs for 250000 steps with 1008 atoms

Performance: 84.837 ns/day, 0.283 hours/ns, 490.958 timesteps/s
99.2% CPU use with 64 MPI tasks x 1 OpenMP threads

MPI task timing breakdown:
Section |  min time  |  avg time  |  max time  |%varavg| %total
---------------------------------------------------------------
Pair    | 28.712     | 33.11      | 36.996     |  34.6 |  6.50
Bond    | 0.2776     | 0.28648    | 0.30154    |   1.0 |  0.06
Kspace  | 230.92     | 240.73     | 251.25     |  28.3 | 47.28
Neigh   | 4.5055     | 5.1552     | 5.6442     |  17.0 |  1.01
Comm    | 102.37     | 108.91     | 118.09     |  41.5 | 21.39
Output  | 0.92419    | 0.92572    | 0.93177    |   0.1 |  0.18
Modify  | 110.8      | 112.95     | 115.93     |  15.7 | 22.18
Other   |            | 7.139      |            |       |  1.40

Nlocal:        15.7500 ave          20 max          10 min
Histogram: 1 1 0 3 13 10 15 8 8 5
Nghost:        2494.12 ave        2539 max        2469 min
Histogram: 4 8 18 11 8 5 5 3 1 1
Neighs:        5255.98 ave        6627 max        3284 min
Histogram: 1 1 0 5 11 12 13 10 6 5

Total # of neighbors = 336383
Ave neighs/atom = 333.71329
Ave special neighs/atom = 2.0000000
Neighbor list builds = 9830
Dangerous builds = 0

unfix		3
unfix		2
unfix		1

write_data	data.final.${pid}
write_data	data.final.0
System init for write_data ...
PPPM initialization ...
  extracting TIP4P info from pair style
  using 12-bit tables for long-range coulomb (../kspace.cpp:340)
  G vector (1/distance) = 0.38318126
  grid = 24 30 32
  stencil order = 5
  estimated absolute RMS force accuracy = 0.0019716394
  estimated relative force accuracy = 5.9375336e-06
  using double precision FFTW3
  3d grid and FFT values/proc = 4080 384
Last active /omp style is kspace_style pppm/tip4p/omp
WARNING: Not all mixed pair coeffs generated from mixing. Use write_data with 'pair ij' option to store all pair coeffs. (../write_data.cpp:312)

write_restart   restart.lmp.${pid}
write_restart   restart.lmp.0
System init for write_restart ...
PPPM initialization ...
  extracting TIP4P info from pair style
  using 12-bit tables for long-range coulomb (../kspace.cpp:340)
  G vector (1/distance) = 0.38318126
  grid = 24 30 32
  stencil order = 5
  estimated absolute RMS force accuracy = 0.0019716394
  estimated relative force accuracy = 5.9375336e-06
  using double precision FFTW3
  3d grid and FFT values/proc = 4080 384
Last active /omp style is kspace_style pppm/tip4p/omp
Total wall time: 0:08:30
