LAMMPS (30 Jul 2021)
Processor partition = 1
  using 4 OpenMP thread(s) per MPI task
using multi-threaded neighbor list subroutines
variable        pid world 0 1
variable        phase world IceII IceIh

shell cd ${phase}
shell cd IceIh
include Restart.lmp
echo both
log log.lammps
#include		in.partitions
include		in.temp
variable        temperature equal 85.10
variable	tempDamp equal 100.0
include		in.pressure
variable        pressure equal 2036.0
variable        pressureDamp equal 1000.0 # This is 1 ps
include		in.seed
variable        seed equal 745823

units		real
atom_style	full
#include		in.box
read_restart	restart.lmp.${pid}
read_restart	restart.lmp.1
Reading restart file ...
  restart file = 30 Jul 2021, LAMMPS = 30 Jul 2021
  restoring atom style full from restart
  orthogonal box = (0.18561863 0.13285062 0.14597604) to (18.021954 23.496327 22.067220)
  2 by 4 by 2 MPI processor grid
  restoring pair style lj/cut/tip4p/long/omp from restart
  restoring bond style harmonic/omp from restart
  restoring angle style harmonic/omp from restart
  864 atoms
  576 bonds
  288 angles
Finding 1-2 1-3 1-4 neighbors ...
  special bond factors lj:    0        0        0       
  special bond factors coul:  0        0        0       
     2 = max # of 1-2 neighbors
     1 = max # of 1-3 neighbors
     1 = max # of 1-4 neighbors
     2 = max # of special neighbors
  special bonds CPU = 0.001 seconds
  read_restart CPU = 0.005 seconds
include 	in.setup
variable	out_freq equal 1000
variable	out_freq2 equal 10000
variable	out_freq3 equal 1000

timestep	2.0

neigh_modify    delay 7 every 1

include		in.tip4p
# This is TIP4P/Ice

# create groups ###
group ox type 2
288 atoms in group ox
group hy type 1
576 atoms in group hy

# set charges - beside manually ###
set group ox charge -1.1794
Setting atom values ...
  288 settings made for charge
set group hy charge 0.5897
Setting atom values ...
  576 settings made for charge

# ### TIP3P Potential Parameters ###
pair_style lj/cut/tip4p/long/omp 2 1 1 1 0.1577 8.5
pair_coeff 1 1*2 0.000 0.000
pair_coeff 2 2 0.21084 3.1668
bond_style  harmonic
bond_coeff  1 450 0.9572
angle_style harmonic
angle_coeff 1 55 104.52
kspace_style pppm/tip4p/omp 1.0e-5
pair_modify tail yes

thermo          ${out_freq}
thermo          1000
thermo_style    custom step temp pe etotal epair emol press lx ly lz vol pxx pyy pzz pxy pxz pyz enthalpy

restart 	${out_freq3} restart.lmp.${pid} restart2.lmp.${pid}
restart 	1000 restart.lmp.${pid} restart2.lmp.${pid}
restart 	1000 restart.lmp.1 restart2.lmp.${pid}
restart 	1000 restart.lmp.1 restart2.lmp.1


include         in.dump
dump            myDump all atom ${out_freq2} dump.water.${pid}
dump            myDump all atom 10000 dump.water.${pid}
dump            myDump all atom 10000 dump.water.1
dump            myDump2 all dcd ${out_freq2} dump.dcd
dump            myDump2 all dcd 10000 dump.dcd
dump_modify     myDump append yes
dump_modify     myDump2 append yes


variable natoms 	equal  "count(all)"                        # NUMBER ATOMS
variable H      	equal  "enthalpy/v_natoms"                 # ENTHALPY-per-atom
variable Vol      	equal  "vol/v_natoms"                 # volume-per-atom
fix AVG all 		ave/time ${out_freq} 1 ${out_freq} v_Vol v_H file vol_enthalpy.dat
fix AVG all 		ave/time 1000 1 ${out_freq} v_Vol v_H file vol_enthalpy.dat
fix AVG all 		ave/time 1000 1 1000 v_Vol v_H file vol_enthalpy.dat


timer           timeout 23:50:00 every 1000
New timer settings: style=normal  mode=nosync  timeout=23:50:00

fix 		1 all shake 1e-6 200 0 b 1 a 1
Finding SHAKE clusters ...
       0 = # of size 2 clusters
       0 = # of size 3 clusters
       0 = # of size 4 clusters
     288 = # of frozen angles
  find clusters CPU = 0.000 seconds
fix             2 all nph aniso ${pressure} ${pressure} ${pressureDamp}
fix             2 all nph aniso 2036 ${pressure} ${pressureDamp}
fix             2 all nph aniso 2036 2036 ${pressureDamp}
fix             2 all nph aniso 2036 2036 1000
fix             3 all temp/csvr ${temperature} ${temperature} ${tempDamp} ${seed}
fix             3 all temp/csvr 85.1 ${temperature} ${tempDamp} ${seed}
fix             3 all temp/csvr 85.1 85.1 ${tempDamp} ${seed}
fix             3 all temp/csvr 85.1 85.1 100 ${seed}
fix             3 all temp/csvr 85.1 85.1 100 745823


run             250000
PPPM initialization ...
  extracting TIP4P info from pair style
  using 12-bit tables for long-range coulomb (../kspace.cpp:340)
  G vector (1/distance) = 0.37205449
  grid = 24 27 25
  stencil order = 5
  estimated absolute RMS force accuracy = 0.0031229055
  estimated relative force accuracy = 9.4045372e-06
  using double precision FFTW3
  3d grid and FFT values/proc = 6300 1296
Last active /omp style is kspace_style pppm/tip4p/omp
Neighbor list info ...
  update every 1 steps, delay 7 steps, check yes
  max neighbors/atom: 2000, page size: 100000
  master list distance cutoff = 10.8154
  ghost atom cutoff = 10.8154
  binsize = 5.4077, bins = 4 5 5
  1 neighbor lists, perpetual/occasional/extra = 1 0 0
  (1) pair lj/cut/tip4p/long/omp, perpetual
      attributes: half, newton on, omp
      pair build: half/bin/newton/omp
      stencil: half/bin/3d
      bin: standard
Setting up Verlet run ...
  Unit style    : real
  Current step  : 31000000
  Time step     : 2
  Walltime left : 23:49:59.96
Per MPI rank memory allocation (min/avg/max) = 12.26 | 12.29 | 12.31 Mbytes
Step Temp PotEng TotEng E_pair E_mol Press Lx Ly Lz Volume Pxx Pyy Pzz Pxy Pxz Pyz Enthalpy 
31000000    85.951543   -4567.8233   -4420.5053   -4567.8233            0    2455.9866    17.836335    23.363477    21.921244    9134.9943    2453.7007    2781.5228    2132.7361   -49.440984     755.5318    390.39923   -4093.3077 
31001000    87.051397    -4590.846   -4441.6429    -4590.846            0     1673.161    17.815564     23.52479    21.919719    9186.7166    1735.6753    1579.2537     1704.554    142.92057    112.12415    -281.5322   -4217.4748 
31002000    83.580763   -4586.1542   -4442.8996   -4586.1542            0    2274.0311    17.908895     23.39312    21.864649     9160.084    2684.5147     1653.232    2484.3467    54.580244    623.30447   -379.42121   -4139.1108 
31003000    85.821422   -4592.2051   -4445.1101   -4592.2051            0    1642.0233    17.795724    23.408356    22.078988    9197.4137    1948.4083    1877.7114    1099.9501     7.624704   -148.24486   -466.23485   -4224.8576 
31004000    80.972703   -4594.6557   -4455.8712   -4594.6557            0    2016.5529    17.914977    23.514277    21.708329    9144.8016    2155.5394     1150.764    2743.3552    60.063905   -104.69323    17.490205   -4186.9285 
31005000    83.476317   -4583.3953   -4440.3198   -4583.3953            0    2167.1686    17.919287    23.269026    21.965108    9158.6671    2339.1894     2033.783    2128.5333   -72.876333    470.97163    118.28037   -4150.8516 
31006000    91.541379   -4593.3577   -4436.4589   -4593.3577            0    1430.0294    17.807159    23.556888    21.900566    9186.8767    1571.3427    762.10497    1956.6405    242.93405    4.4370364    328.45392   -4244.8619 
31007000    83.508103   -4585.5347   -4442.4047   -4585.5347            0    2383.1745    17.870719    23.417675    21.818837    9130.9801    3019.7607    2087.5605    2042.2023    387.16717   -139.62574    290.50499   -4125.0469 
31008000    86.440709   -4585.5294   -4437.3729   -4585.5294            0    1550.6786    17.942004    23.363911    21.920866    9189.1259    1689.1304    1946.5646    1016.3408    232.16487    188.70092   -288.84992   -4229.5603 
31009000    89.213225   -4587.3137   -4434.4052   -4587.3137            0    1967.4667    18.044749    23.310019    21.776615    9159.7549    2488.7001    2041.9304    1371.7695   -1092.8652     44.36046    73.658129     -4171.58 
31010000    89.355981   -4595.5846   -4442.4315   -4595.5846            0    2225.5491    17.921537     23.35573    21.876169    9156.7208    1907.4404    1835.1665    2934.0405    373.19615   -493.16212    319.60806   -4145.2286 
31011000    85.367628   -4587.5578   -4441.2406   -4587.5578            0    2815.9599    17.876357    23.512191    21.687098    9115.3541     3053.879    2144.1648    3249.8361    681.31418   -186.70461    19.258414   -4066.8923 
31012000    86.892805   -4576.3427   -4427.4114   -4576.3427            0    1326.6567       17.902    23.412374    21.934366    9193.3142     1701.205    962.86665    1315.8986    686.86755   -504.89647    113.57105   -4249.5398 
31013000    85.264689   -4576.8597   -4430.7189   -4576.8597            0    2365.2831     17.79169    23.334875    22.037056    9149.0551    2217.4041    1852.8892    3025.5559   -392.43544    54.636533    241.24341   -4115.1202 
31014000    84.967298   -4596.6114   -4450.9804   -4596.6114            0    900.01382    18.000792     23.23325    21.995376     9198.838    468.90671    1306.7368    924.39798   -576.30097   -20.002628     26.72988   -4330.2385 
31015000    85.742328   -4586.8893   -4439.9299   -4586.8893            0     2897.445    17.970064    23.251391    21.798681    9108.1207    2493.4843    2284.0399    3914.8108   -122.17019   -495.57929   -597.05367   -4055.0547 
31016000    87.192749   -4589.9772   -4440.5318   -4589.9772            0     1702.227    17.934544    23.289614     21.92731    9158.7879    2176.7882    2873.3455    56.547306   -387.79274   -6.0035991    413.38528   -4213.1628 
31017000     86.18885   -4587.7687    -4440.044   -4587.7687            0    1298.2146    17.826448    23.381391    22.030507    9182.4726    1349.0266    1159.3482     1386.269    56.804302   -226.65002    450.30085    -4266.191 
31018000    83.504616   -4593.5373   -4450.4132   -4593.5373            0    2454.5748    17.877105    23.165543    22.011137    9115.5347    1737.4444    3222.8586    2403.4214   -441.86137    236.85068    -627.5021   -4124.1003 
31019000    88.306168   -4593.4647   -4442.1109   -4593.4647            0    1360.5496    17.982611    23.246001    21.985997    9190.6699     1245.835    1100.2813    1735.5326   -210.33376   -205.01585    286.99292   -4259.7476 
31020000    82.409068   -4589.9365   -4448.6902   -4589.9365            0    2502.5646    17.987727    23.180406    21.940391    9148.3271    2891.3948    2777.6581    1838.6409   -114.59071    540.08522    41.807027   -4114.8006 
31021000    86.574068   -4598.3211   -4449.9361   -4598.3211            0    1943.5758    18.006142    23.228276    21.906195    9162.3019    1151.5542     2330.079    2349.0943    -306.9072    196.52088   -464.64106   -4190.2301 
31022000     91.05756   -4592.4302   -4436.3606   -4592.4302            0    2111.5948    17.947873    23.384987    21.812429    9154.9112    2073.6546    1658.6371    2602.4927    178.51372    -208.0519    67.625319   -4154.4311 
31023000    82.118154   -4589.7884   -4449.0407   -4589.7884            0    2087.1079    17.828425     23.42358    21.912548    9150.8017    2624.4636    1330.1089    2306.7513    -191.5873   -206.38808    168.05077   -4170.5056 
31024000    88.399952   -4577.9557   -4426.4412   -4577.9557            0    2223.4912    17.969906    23.238794    21.946124    9164.6781     1083.904    2346.2205     3240.349   -331.41825    351.68963    217.72322   -4129.2551 
31025000     84.58249   -4582.6594   -4437.6879   -4582.6594            0    2547.7243    17.957664    23.182913    21.941372    9134.4339    2806.0279    2786.1955    2050.9495   -464.24405    -39.51822    558.69882   -4098.2894 
31026000    90.641855   -4588.3679   -4433.0109   -4588.3679            0     984.6883      17.9314    23.216513    22.150755    9221.4606    823.54684    1750.7351      379.783   -220.33918   -368.76129    7.1225724   -4300.5845 
31027000     90.38837   -4590.0094   -4435.0869   -4590.0094            0    2441.6411    18.002455    23.358198     21.75387    9147.6094    2201.5076    2111.5112    3011.9047   -497.47334   -304.86306     287.7045   -4109.3512 
31028000    84.020205   -4592.1298    -4448.122   -4592.1298            0    1700.0774    17.968566    23.277294    21.975491    9191.4599    2004.8494    1804.4374    1290.9454   -642.73966    472.33548   -137.94346     -4220.23 
31029000    81.032789   -4595.5401   -4456.6526   -4595.5401            0    1351.2553    18.006877    23.234986    21.959356    9187.5647    1816.9818    1525.2838    711.50045    175.41276     475.8725    199.73712   -4275.5963 
31030000    85.262425   -4582.1874   -4436.0505   -4582.1874            0    1774.7695    17.930541    23.371291    21.879444    9168.7974    2401.9915    1784.4384    1137.8785    580.36006    234.50588   -118.54049   -4198.7328 
31031000    88.863011   -4582.8972   -4430.5891   -4582.8972            0    2437.4266    17.834767     23.30296    22.034454    9157.5821    3446.1747    2222.9254    1643.1796    60.518643   -288.57207   -40.234057   -4105.0612 
31032000    86.114281   -4583.6224   -4436.0255   -4583.6224            0    2800.9548    17.829763    23.288822    21.953048    9115.6563    3230.0823    2546.5686    2626.2135   -284.77438    121.35031   -185.06688   -4063.6595 
31033000    86.703639    -4588.608   -4440.0009    -4588.608            0    2656.3256    17.911282    23.174223    21.994731    9129.5738    2693.3667    3322.0607    1953.5493     439.2293   -499.74097    97.985602   -4086.3232 
31034000     82.72427   -4592.6943   -4450.9077   -4592.6943            0    2158.6858    17.894716    23.359724    21.868465    9141.3605    1927.9372    1616.9759    2931.1442   -301.46231    438.15581   -52.734716   -4163.1174 
31035000    81.120663   -4592.6631    -4453.625   -4592.6631            0    2061.0284    17.987356    23.320007    21.815572    9150.8747    1986.3227    2052.4474     2144.315   -350.04881    111.52649    574.07282   -4178.5682 
31036000    83.701716   -4591.0954   -4447.6336   -4591.0954            0    2541.6378    17.827035    23.371246    21.885744    9118.4771    2737.2996    1619.6446    3267.9693   -201.21651   -273.78534   -448.08689   -4109.6373 
31037000    86.289994   -4588.2795   -4440.3814   -4588.2795            0    1795.6736    17.884069    23.344571    21.968218    9171.6412    1827.5922    2549.7935    1009.6349    388.31405   -276.60995    198.81218   -4200.1939 
31038000    85.760674   -4588.9488   -4441.9579   -4588.9488            0    1972.1711    17.915243    23.329038    21.915616    9159.5302    2144.1034    2144.6324    1627.7774   -596.48447    237.01082    410.81035   -4178.5107 
31039000    85.112616   -4585.2673   -4439.3872   -4585.2673            0    2425.5151    17.906553     23.37546    21.842377    9142.6493    2635.4242    3250.0912    1391.0298   -900.28994    11.208905   -464.24192   -4115.9783 
31040000    85.887497   -4591.5811   -4444.3729   -4591.5811            0    1585.6474    17.884271    23.317692    21.996296    9172.8932    1774.8146    1845.1594    1136.9682   -94.624955    94.463469    34.148976   -4232.2493 
31041000    84.154014   -4589.1304   -4444.8933   -4589.1304            0     2079.766    17.992147    23.309864    21.870226    9172.2527    1671.0119    2458.6446    2109.6417    618.18757   -138.76963   -497.91144   -4166.6874 
31042000    82.051234   -4588.0597   -4447.4267   -4588.0597            0    1817.3815    17.928028    23.443996    21.835167    9177.4216    1308.6164    1213.4845    2930.0437   -19.481819   -405.60555    30.473877   -4204.1824 
31043000    84.328926   -4582.0024   -4437.4655   -4582.0024            0    2601.6428    17.860931    23.404867    21.874159    9144.1139    2281.3738    2644.7802    2878.7745   -223.87445   -186.51991    1.3355069   -4090.5169 
31044000    85.771791   -4585.2888   -4438.2789   -4585.2888            0     1650.228    17.778819    23.486789    21.978359    9177.4458    1665.7657    1939.5066    1345.4116   -50.163025   -389.58314   -8.7291921   -4217.4064 
31045000    78.706689   -4592.4965   -4457.5959   -4592.4965            0    2297.2926    17.831133    23.386081    21.922975    9141.8878    1644.0314    2306.9713    2940.8752    176.55663   -556.28301   -503.83907   -4151.3092 
31046000    90.416467   -4594.8323   -4439.8616   -4594.8323            0    1545.3709    17.890164     23.36975    21.983345    9190.9875    2107.1622    2154.7657    374.18474   -522.47878   -190.98298    73.436782   -4232.7184 
31047000    85.188739   -4593.2945   -4447.2839   -4593.2945            0    1587.9683    17.911994    23.328641    21.968938    9179.9945    1600.2413    2177.8554    985.80834     106.7407    90.923602    180.13414   -4234.6854 
31048000    88.488468   -4592.7187   -4441.0525   -4592.7187            0    2601.9596    17.861312    23.402513    21.853836    9134.8948    2856.0296    2436.8288    2513.0203    394.50907    922.18878    744.63991   -4094.4115 
31049000    85.976711    -4584.534   -4437.1728    -4584.534            0    1720.9926    17.905861    23.451327    21.855602    9177.5213    1127.3246    1391.0294    2644.6238    13.581885   -16.667144    67.027835    -4206.827 
31050000    84.949033   -4591.3691   -4445.7693   -4591.3691            0    2738.2888    17.854554    23.286272    21.938078     9121.107     2605.499    2919.6138    2689.7536   -863.45494   -365.85494    316.72727   -4081.5167 
31051000    86.143678   -4582.4093    -4434.762   -4582.4093            0    1639.6047    18.002694    23.331557     21.88132    9190.8301    999.33365     2148.562    1770.9184   -377.13968    117.13303    280.61145   -4214.9913 
31052000    84.335182   -4588.9833   -4444.4357   -4588.9833            0    1733.8594    17.978472    23.309204    21.904916    9179.5592    1491.0354    1374.8676    2335.6752    528.74995    240.29372    405.77798   -4212.3162 
31053000     85.32822    -4593.199   -4446.9493    -4593.199            0    2536.5995    17.925637    23.125957    22.023823    9129.9207    2319.5059    3492.9406    1797.3519   -109.97963    148.59939    514.89243   -4109.1998 
31054000    89.245548   -4588.7107   -4435.7469   -4588.7107            0    2094.9687    17.957828    23.379334     21.79952    9152.3553    2016.4584    2058.3711    2210.0765    101.14288    73.306844    11.531798   -4156.1153 
31055000    83.352549   -4585.0023   -4442.1389   -4585.0023            0    1817.7487    17.836775    23.316745    22.058003    9173.8249    1646.7164    1768.9172    2037.6125   -821.18914    465.89461    77.835213   -4198.9408 
31056000    87.794453   -4581.9917    -4431.515   -4581.9917            0     1442.302    17.909477    23.390323    21.931415    9187.2555    1767.6964    1720.1843    839.02521   -111.66024    229.67867     367.8856   -4238.2658 
31057000    88.378366   -4595.4108   -4443.9333   -4595.4108            0    2050.0838    17.890951    23.270454    21.979557    9150.7606    2550.3597    2305.3522    1294.5396   -687.07707   -241.62757   -306.27238   -4170.3404 
31058000    85.632037   -4586.7093   -4439.9389   -4586.7093            0    2646.7317    17.888255    23.325765    21.874932    9127.4735    2641.4626    2544.2429    2754.4896   -234.04195   -133.70976    32.894701   -4087.6197 
31059000    83.154566   -4583.4773   -4440.9532   -4583.4773            0    2118.2616     17.91328    23.344398    21.919434    9166.1537    2003.8008    1123.6728    3227.3114    423.77092   -167.13657    701.92895   -4157.7862 
31060000    82.752049   -4596.7176   -4454.8834   -4596.7176            0    1490.2372    17.929975    23.335066    21.961356    9188.5688    2440.1013    1566.4697    464.14077   -561.31374    -469.0068    116.73734   -4255.1829 
31061000    84.105535   -4587.1855   -4443.0315   -4587.1855            0    1957.7286    17.902658    23.320606    21.954061    9165.8384    2436.9019    1696.1814    1740.1025   -341.36062    15.088013    223.62765   -4181.3334 
31062000    83.936352   -4580.9807   -4437.1167   -4580.9807            0    2046.6299    17.914737    23.424236    21.800879    9148.4994    1786.5304    1978.9486    2374.4109   -664.25092    339.85281    293.45084   -4164.0523 
31063000     90.05862   -4583.6913   -4429.3339   -4583.6913            0    2266.6247    17.881468    23.378881    21.885999    9149.4136    2417.2493    2041.3269     2341.298    107.73108    251.88309    348.69584   -4126.8872 
31064000    85.441375   -4588.9289   -4442.4853   -4588.9289            0    2223.7139    17.876879    23.495052    21.741757     9131.934    1525.9215     1766.611    3378.6091    600.19931    298.05698   -239.71713   -4146.3313 
31065000     83.97078   -4595.3542   -4451.4312   -4595.3542            0     2159.313    17.888871    23.372397    21.874236    9145.7447    2439.0609    2230.9718    1807.9064   -241.20931   -533.62668    21.303178   -4163.4192 
31066000    88.351242   -4586.3391   -4434.9081   -4586.3391            0    1641.4882    17.827607    23.410126    22.012217    9186.7222    1643.5462    1137.6579    2143.2606    56.746861    11.499984    90.751432   -4214.9832 
31067000    78.837903   -4590.2262   -4455.1007   -4590.2262            0    1793.2175    18.055396    23.273438    21.834706    9175.1867    1279.7317    1546.2342    2553.6868   -1025.3342    102.91167    -471.4562    -4215.149 
31068000    84.267577   -4589.4578    -4445.026   -4589.4578            0    1969.5578    17.997253    23.226045    21.939545    9170.8401    1299.5873    2423.8831     2185.203     190.9994   -158.89152    630.36217    -4181.603 
31069000    82.269785   -4597.4499   -4456.4423   -4597.4499            0    2501.2849    17.977995    23.213762     21.85982    9122.9094    2127.2141    3485.0896     1891.551    174.38725    69.995133    6.6565119   -4123.6506 
31070000    88.365994   -4595.0791   -4443.6228   -4595.0791            0     1727.046    17.972487    23.281183     21.91194    9168.4105     1618.271    2595.9929    966.87415    149.40576   -40.062035    -231.3399   -4212.6963 
31071000    82.390284   -4584.2832    -4443.069   -4584.2832            0    3187.2006    17.921565    23.327413     21.80269    9114.9143    1981.4351    3574.1918    4005.9748    377.00245   -108.90403    903.78929   -4019.3891 
31072000    87.778367   -4574.1682   -4423.7191   -4574.1682            0    1636.9523    17.896204    23.311501    22.040155    9194.8746    1128.3386     1916.385    1866.1335   -213.12528   -252.39115   -400.66795   -4204.2073 
31073000    77.503968   -4588.5904   -4455.7513   -4588.5904            0    768.09472    17.945636    23.320705     22.02861    9219.0807    729.54004    1187.4923    387.25185   -205.95882    386.99824   -96.998021   -4352.4803 
31074000    87.132736   -4594.5041   -4445.1616   -4594.5041            0    2440.2119    17.880004    23.450834    21.822226    9150.0815    3044.8016    1969.3464    2306.4877    380.93184    705.81289    428.47752   -4119.5286 
31075000    80.902607   -4584.4039   -4445.7396   -4584.4039            0    1971.0133    18.017426    23.252997     21.87975    9166.7215    1573.9897    2310.5109    2028.5392    99.494912   -401.80073   -63.042894   -4182.2403 
31076000    83.223418   -4588.0897   -4445.4477   -4588.0897            0    2859.4962    18.105182     23.11155    21.833888    9136.1464    1363.6963    4238.0866    2976.7057     420.2633    267.72117   -12.890861   -4064.4446 
31077000    85.809331   -4596.0555   -4448.9812   -4596.0555            0    2802.2578    17.916711     23.21392    21.945707    9127.5946    2860.1141    3468.3709    2078.2885    -15.74729    152.41616   -62.678053   -4075.9542 
31078000    89.707946   -4583.7982   -4430.0418   -4583.7982            0    2393.8099    18.044261    23.213297    21.826974    9142.5948    1950.6478    2578.6619    2652.1201    72.377882    173.23725   -172.28293   -4110.8623 
31079000     79.94063    -4581.328   -4444.3125    -4581.328            0    2187.5651    17.953613    23.081372     22.09741    9157.0346    2883.0796     2643.567    1036.0488   -20.142659     -32.6009    391.55421   -4152.1721 
31080000     91.97847   -4588.8433   -4431.1953   -4588.8433            0    1505.1746    17.989323    23.295065    21.912976    9182.9058    697.78589    2043.0213    1774.7166    196.18632   -52.121509    -209.3673   -4229.6175 
31081000    86.524433   -4590.5558   -4442.2559   -4590.5558            0    1976.0933    17.813254    23.302625    22.086869    9168.1612    2374.6357    1984.2813    1569.3628   -672.90391     466.1867    9.8238412    -4178.036 
31082000    82.595925    -4593.459   -4451.8924    -4593.459            0    1055.4006    17.888936    23.309808    22.065531    9201.0546    1062.8337    752.06917     1351.299   -400.94765    151.01129   -173.30436   -4310.2703 
31083000    81.829045   -4591.4772    -4451.225   -4591.4772            0     1904.899    17.919521    23.324358    21.955796    9176.6738     2125.098    1888.2938    1701.3051   -5.8812569   -123.85311   -83.572455   -4196.2878 
31084000    88.192987   -4580.3768   -4429.2171   -4580.3768            0    2204.0286     17.94767     23.17107    21.996324    9147.5394     3034.352    2514.5607     1063.173   -603.65795     12.36538   -448.89236   -4135.1832 
31085000    83.331316   -4586.4749   -4443.6479   -4586.4749            0    1555.6817    18.056787     23.20044    21.926292     9185.481    1530.4675    1040.0313    2096.5464   -34.364602     40.28091    6.5725778   -4235.2475 
31086000    83.892476   -4587.3536   -4443.5647   -4587.3536            0    2196.3237     18.01533    23.209346    21.900309    9157.0457    2260.2171    2276.4166    2052.3372   -189.19648   -89.349472    133.22846   -4150.2542 
31087000    82.320506   -4590.3716    -4449.277   -4590.3716            0    1916.6713    18.053213    23.174758     21.86705    9148.7109    1699.0302     2433.889    1617.0946    439.29869   -577.01353     301.2134    -4193.546 
31088000    85.478598    -4578.984   -4432.4766    -4578.984            0    2648.9254    17.919195    23.279984    21.911778    9140.6865    1900.4103    2629.8891    3416.4769   -311.63469    29.458804    62.591148   -4079.3548 
31089000    78.720687   -4586.6849   -4451.7603   -4586.6849            0    2251.8103    17.880055    23.302937    21.983903    9159.7646    2105.9999    2703.9987    1945.4323    700.49382   -411.18039    142.13073   -4150.9505 
31090000    84.886572   -4586.7367    -4441.244   -4586.7367            0    1182.6739    17.999061    23.245572    22.009332    9208.6705    579.75866    2028.0436    940.21937   -785.44086    47.528849   -174.99474   -4282.4121 
31091000    81.882055   -4592.6057   -4452.2627   -4592.6057            0     2722.405    17.968768    23.161043    21.930102    9126.7692     2754.505    3106.3384    2306.3715   -175.72922    3.4920506    792.27001   -4089.8981 
31092000    88.013459   -4589.3898   -4438.5378   -4589.3898            0    1227.0573    17.967504     23.35197    21.947588    9208.6945    1299.8518    673.49405     1707.826   -863.42214   -488.06938     129.1354   -4273.7448 
31093000    83.718758    -4592.651   -4449.1599    -4592.651            0    2371.4963    17.943611    23.140135    22.038764    9150.8825    1795.8698    3490.3019    1828.3173   -8.6156551    266.16846    145.53851    -4132.669 
31094000    83.463177   -4586.9563   -4443.9033   -4586.9563            0    1927.4994    18.029694    23.124328    21.975877    9162.2828    1436.2161    1635.2928    2710.9894    496.49446    408.70499    114.00753    -4186.346 
31095000    81.582279   -4588.5546   -4448.7254   -4588.5546            0     2516.561     17.98291    23.144804    22.006899    9159.5121    2529.8638    2801.9174    2217.9018    381.13957    186.68603    278.23955   -4112.5579 
31096000    84.676835   -4580.3792    -4435.246   -4580.3792            0    2230.0143    17.950003    23.319122    21.856937    9148.8398    2021.0379    2197.6577    2471.3472   -523.55878    344.26514    122.85834   -4137.7031 
31097000    84.519633   -4585.1432   -4440.2794   -4585.1432            0     2758.915    17.914367    23.213231    21.917091    9114.2298    1122.1733    3946.9379     3207.634   -353.33634   -223.19717   -143.84194   -4073.5598 
31098000    80.770789   -4591.8552   -4453.4168   -4591.8552            0    2424.3325    17.873305    23.304371    21.944847    9140.6025    3144.6109    2980.1639    1148.2227    115.49968   -93.753157    97.594962    -4130.238 
31099000    86.598389    -4586.804   -4438.3773    -4586.804            0     2095.389    17.831824    23.404347    21.949913    9160.6251    1518.1656    2437.1433    2330.8581    568.47653    542.52945    343.41521   -4158.4369 
31100000    84.436058   -4594.4187   -4449.6982   -4594.4187            0    3003.2333      17.8345    23.357579    21.850859    9102.4286    2918.8193     2687.783    3403.0977    8.6328361   -86.387513    275.83076   -4051.0202 
31101000    83.076479   -4597.3977   -4455.0075   -4597.3977            0    1175.3603    17.895096    23.325434     22.03594    9198.0411    1266.4869    1135.5058    1124.0881     534.6626    353.39843    179.34101     -4297.34 
31102000    88.623012   -4590.2889   -4438.3921   -4590.2889            0    2100.9857    17.944306    23.465671    21.780156     9171.083    1020.2061     2084.283    3198.4678   -490.44334   -146.17744    165.02666   -4157.3835 
31103000    85.589336   -4586.1812    -4439.484   -4586.1812            0    1545.4647    17.977614     23.42583    21.786205    9175.0544    1091.8349    818.22044    2726.3388   -25.207879   -15.391026   -55.026368   -4232.6873 
31104000     81.42723   -4582.3832   -4442.8197   -4582.3832            0    1895.0706    18.004213    23.278112     21.89901    9177.9647    2640.5391    1514.6029    1530.0699   -399.78508    364.06083    21.360297   -4189.1623 
31105000    89.117601   -4590.5283   -4437.7838   -4590.5283            0    2271.3495    17.998573    23.337912    21.833334    9171.0725    1655.9738    2396.3516    2761.7232    654.75543    123.44818    101.41132   -4133.9893 
31106000    84.737808   -4597.8688   -4452.6311   -4597.8688            0     1391.054    17.981412     23.23495    21.977046    9181.9481    1226.0474    1053.6826     1893.432    233.09566   -340.70751    207.89312    -4266.356 
31107000    81.889223   -4588.9311   -4448.5758   -4588.9311            0    1426.2596    17.984076     23.26604    21.966646     9191.245    1694.4272     1759.752    824.59963    298.72897   -94.041103    484.02768    -4257.393 
31108000    84.893322   -4589.2225   -4443.7183   -4589.2225            0    1415.0717     17.97229    23.327904    21.936631    9197.0608    1947.7315    333.83709    1963.6466    384.80393    -343.2453    60.990387   -4253.9151 
31109000    82.191742   -4585.6912   -4444.8174   -4585.6912            0    2570.3469    17.861435    23.276576    21.972056    9134.9491    3094.7463    2310.0459    2306.2484     56.57441   -105.51119    578.62278   -4102.3859 
31110000    85.094005   -4593.3047   -4447.4565   -4593.3047            0    2130.1331    17.857735    23.303425    22.032922    9168.9208    3080.3728    1911.5913    1398.4352   -415.85682   -127.31602    417.13056   -4162.6166 
31111000    87.259938    -4590.319   -4440.7585    -4590.319            0    1707.5982    17.948576    23.363335    21.866268    9169.3699    1189.9206    2007.8711     1925.003   -710.58431    57.800998    65.901503   -4212.4084 
31112000    87.733887    -4593.453   -4443.0801    -4593.453            0    2015.0084    17.812263    23.328969     22.01369    9147.6065    2568.3389    1780.6411    1696.0452    800.27803     414.3319   -309.96514   -4174.2609 
31113000    81.335127   -4583.3483   -4443.9426   -4583.3483            0    2196.3731    17.970003    23.290057     21.84096    9140.9306    1778.7984    1998.0872    2812.2338    6.1964168   -118.28331  -0.73819371   -4151.1417 
31114000    87.795296   -4581.6045   -4431.1263   -4581.6045            0    2589.7796    17.917504    23.219552    21.966147    9138.7173    3059.2494      3121.12    1588.9693   -69.187734    335.30335    93.536528   -4085.9636 
31115000    86.614809   -4584.7216   -4436.2667   -4584.7216            0    1793.1517    17.921247    23.305242    21.980597    9180.3939    1442.0968    2041.3999    1895.9583    6.9970607   -176.72251   -253.06063   -4196.1877 
31116000    82.122765     -4589.58   -4448.8244     -4589.58            0    2357.2978    17.973775    23.337179     21.80755    9147.3337     2175.925     2571.295    2324.6733     233.3115    487.96004    348.05883   -4134.3503 
31117000    81.121046   -4593.5899   -4454.5512   -4593.5899            0    2300.3769    17.909549    23.340792    21.885883    9148.8035    2643.7248    2720.3604    1537.0454    608.27228   -214.58878   -198.25645   -4147.6213 
31118000    83.222858   -4593.8165   -4451.1754   -4593.8165            0    1905.1915    17.939042    23.353437    21.935479     9189.612    2828.2656    1377.6921    1509.6168    -453.8745    77.445622   -173.92165   -4195.8396 
31119000    84.624513   -4586.1257   -4441.0822   -4586.1257            0    914.27484    17.951438    23.330722    22.026258    9225.0375    718.85738    1163.4897    860.47746    30.930349    89.053388   -3.5017061   -4318.0777 
31120000    81.937854   -4587.9013   -4447.4626   -4587.9013            0    1913.3463    17.941126    23.295124    21.898178    9152.1411    1451.1367    1654.2803    2634.6218    -483.5192     130.0093    316.66347   -4192.0795 
31121000     85.62076    -4594.851      -4448.1    -4594.851            0    1786.0163     17.79374     23.35569    22.039435    9159.2604    2466.3157    1425.8477    1465.8856   -396.92072    521.16468    333.03189   -4209.5267 
31122000    86.888114   -4582.9707   -4434.0474   -4582.9707            0    1951.0717    17.887083    23.335279    21.949135    9161.5708    3023.2457    1911.0138    918.95551    150.89955    159.53749   -306.21249   -4173.3606 
31123000    81.192101   -4594.1955    -4455.035   -4594.1955            0    2173.2053    17.899346    23.262525    21.946002    9137.9641     2762.657     2010.692    1746.2668    784.74946    13.661991    35.213145   -4165.4167 
31124000    88.236075   -4588.5273   -4437.2937   -4588.5273            0    2108.8905    17.872756    23.324831     21.95192    9151.2951     2399.464    1774.7201    2152.4873   -472.80883   -610.02078   -161.33338   -4155.8365 
31125000    87.165381   -4582.6892   -4433.2907   -4582.6892            0    1540.6939    18.021139    23.232743     21.91933    9177.1962    1255.3812    2338.1913    1028.5091     76.84798    304.95712   -281.71255   -4227.0843 
31126000    85.200039   -4589.3337   -4443.3037   -4589.3337            0    2508.5129    18.001073    23.154784    21.916537    9135.0526    3652.0008    3276.1226    597.41528   -663.40553   -384.40432    40.524759   -4109.1061 
31127000    87.763144   -4590.6511   -4440.2281   -4590.6511            0    2483.7193    17.979821    23.263244    21.835304      9133.03    1745.3357    1978.6897    3727.1324    347.97811    103.20551    330.81382   -4109.4069 
31128000    83.938512   -4583.7215   -4439.8537   -4583.7215            0    2440.0506    17.976671    23.106215    22.031368    9151.2317    3051.1158    1611.4822    2657.5537   -157.69992   -271.74342     359.3077   -4114.2013 
31129000    86.582049   -4581.8954   -4433.4968   -4581.8954            0    2165.0953     17.89588    23.455616     21.83895    9167.0934    3446.3336    1645.5404    1403.4119   -159.37194     224.8733    169.21373   -4144.0394 
31130000    85.164713    -4598.449   -4452.4796    -4598.449            0    2306.8954    17.907909    23.239524    21.996356    9154.2514    1943.6638    2655.6215     2321.401   -390.86499   -146.92765    399.41415   -4144.4967 
31131000    79.817398   -4591.1246   -4454.3203   -4591.1246            0    1710.5054    17.885253    23.402771    21.894743    9164.3616    1654.5684    1397.4291    2079.5186    220.71189   -283.73094    247.57879   -4225.7064 
31132000    85.745731   -4580.7158   -4433.7506   -4580.7158            0    2273.9765    17.944852    23.150811     22.04418    9157.9874    2099.8814    3393.2146    1328.8336    82.782183    477.37057   -419.98718   -4130.0386 
31133000    85.363754    -4594.098   -4447.7874    -4594.098            0    2189.1174     17.84767    23.391462    21.915989    9149.5548     1966.296    1945.8782    2655.1782    178.49401   -322.21418    236.57893   -4155.6784 
31134000    81.074721    -4590.531   -4451.5717    -4590.531            0    1673.3813      17.8177    23.510838    21.893892    9171.5492    2292.4287    586.00832     2141.707    213.97586    447.66091   -53.283467   -4227.7441 
31135000    83.102823    -4598.968   -4456.5326    -4598.968            0    2530.9527    17.859353    23.410115    21.828005    9126.0593    2186.6406    2424.1964     2982.021    26.315167      235.883    -748.6353   -4119.6774 
31136000    80.122762   -4580.8147    -4443.487   -4580.8147            0    2569.0739    17.894891    23.264188    21.969843    9146.2675    3437.7301    1886.7227    2382.7688    115.52027     166.1228    433.49134    -4100.801 
31137000    83.711918   -4593.6861   -4450.2068   -4593.6861            0    2255.2244    18.038166    23.271211    21.801783    9151.7341    1600.1837    2452.5655    2712.9241   -63.819634   -492.59388    377.62368    -4149.205 
31138000    85.203718   -4588.9131   -4442.8768   -4588.9131            0    1648.2804    17.955449    23.231454     21.98513    9170.6833    2027.6675    2379.7202    537.45337    66.781019   -381.46114   -608.25389   -4222.4276 
31139000    82.608593   -4600.9196   -4459.3313   -4600.9196            0    2684.4247    17.992059    23.304789    21.760264    9124.1036    2235.1269    2289.8073    3528.3399   -667.12343    326.87684   -274.13403   -4102.1264 
31140000    84.932277   -4589.4847   -4443.9136   -4589.4847            0    2265.7839    17.854977    23.266074    21.987213    9133.8229    2617.2506    1655.2693    2524.8318    339.41716   -254.64272   -46.775949   -4142.0944 
31141000    79.597548   -4591.4283   -4455.0008   -4591.4283            0    1942.2321    17.875402    23.391841    21.888093    9152.2557    2022.8569    1297.2409    2506.5985   -418.98532    342.41573    162.43455   -4195.7589 
31142000    84.939177   -4593.5064   -4447.9236   -4593.5064            0    2590.9652    17.823091     23.29583    21.999197    9134.1482    3046.6061    2156.2102    2570.0793   -525.22899    225.19257   -296.51625   -4102.7755 
31143000    85.959458   -4597.4509   -4450.1194   -4597.4509            0    1876.9102    17.947379    23.293656    21.925199    9166.0505    1303.8091    2933.3688    1393.5528   -311.67799    315.06941    43.495294   -4199.2188 
31144000    84.139196   -4590.5523   -4446.3406   -4590.5523            0    2346.1828    18.037495    23.256432    21.807563    9148.0059    1674.3597    3103.2524    2260.9362   -201.23239    -451.0644    223.31674   -4133.3264 
31145000    85.704633     -4582.23   -4435.3352     -4582.23            0    1636.4182    18.018683    23.220557    21.955245     9186.159    1551.6018    1554.7936    1802.8592   -915.19395   -366.61227    -332.6331   -4216.1031 
31146000     79.49058    -4584.786   -4448.5418    -4584.786            0    2673.4906    17.969125    23.305725     21.81616    9136.2475    1803.5819    2922.9658     3293.924   -164.12175   -641.41716    283.73566   -4092.3185 
31147000    77.846603   -4588.9371   -4455.5107   -4588.9371            0    1881.1227    17.873756    23.281174    22.049887    9175.4438    1801.0925    1758.7585    2083.5172    569.48012     139.0831   -80.443445   -4203.7893 
31148000    80.081194   -4594.0642   -4456.8077   -4594.0642            0    1652.1659    17.952151    23.340872    21.915896     9183.174    1830.0168     1819.874    1306.6068    1088.1115    1.7200268    51.257515   -4235.5378 
31149000    89.401725   -4584.7975    -4431.566   -4584.7975            0    3123.5935    17.924201    23.356906    21.790191    9122.5481    3107.1382    2790.2121    3473.4302    388.04793   -62.360665    355.26257   -4015.9937 
31150000     85.21749   -4596.2669   -4450.2071   -4596.2669            0    1471.4011    17.926018    23.354366    21.931018    9181.4376    1444.4326    1504.1754    1465.5954     145.5304   -113.12173    150.31893   -4253.1837 
31151000    85.044417   -4584.4074   -4438.6441   -4584.4074            0    1909.7738    17.983615    23.194136    21.976205    9166.5919    1823.8148    1966.8712    1938.6354    186.37586    547.81596    196.49345   -4183.3354 
31152000    78.318996   -4588.6201    -4454.384   -4588.6201            0    1488.5434    17.985353    23.228934    21.961802    9175.2147    431.31031    1517.2708     2517.049    199.17914   -131.83459    290.18591   -4255.2004 
31153000    83.559959     -4584.12   -4440.9011     -4584.12            0    1621.2128    18.005961    23.115428    22.056133    9180.1045    1812.2095    1756.1361     1295.293   -1097.9374   -170.42433    540.36815   -4223.8493 
31154000    81.060293   -4590.1094   -4451.1748   -4590.1094            0    1933.2923    17.974523    23.245229    21.899274    9149.9962    1775.5535    2506.6666    1517.6569   -396.93654   -90.852947    85.214449   -4193.1899 
31155000       83.632   -4589.7038   -4446.3614   -4589.7038            0    1301.4634    17.993172    23.259684     21.94294    9183.4608    732.79708    923.06307      2248.53    154.23778   -464.16467    213.01365   -4272.0547 
31156000    83.710436   -4604.0152   -4460.5384   -4604.0152            0    2585.6678    17.890635    23.214756    21.955667    9118.7756    3297.3894    2070.6955    2388.9185     191.9859    236.62587    586.04152   -4116.6756 
31157000    81.904069   -4590.2448   -4449.8641   -4590.2448            0    1308.3643    18.109777    23.288303    21.758831    9176.6992    655.99718    1418.8761    1850.2195   -116.86167    373.59196    580.87992   -4274.7621 
31158000    86.075061   -4593.6216   -4446.0919   -4593.6216            0    2994.2233    17.881241    23.194101    21.962299    9108.6288     3449.663    2839.1121    2693.8948   -225.54348   -115.56186    64.503502   -4048.3393 
31159000    85.786128   -4590.2402   -4443.2057   -4590.2402            0    2181.8398    18.054608      23.2528    21.813769    9157.8607    1608.6433    2678.6724    2258.2037   -332.83459   -524.21236    26.651811   -4151.8035 
31160000    85.696124   -4581.3474   -4434.4672   -4581.3474            0    2390.7641    17.980437    23.241581    21.867264    9138.1937    2478.6456    1992.4943    2701.1525   -206.20232    48.757335      85.7717   -4115.8472 
31161000    81.969073   -4595.9821   -4455.4899   -4595.9821            0    1900.4332    17.889395    23.195409    22.092408    9167.2851    1888.7138     2417.502    1395.0838    502.43741    -274.6355   -171.00798   -4201.4106 
31162000     82.08353   -4588.7008   -4448.0124   -4588.7008            0    1392.4734    18.095966    23.140699    21.948804     9191.134    945.26649    1311.7625    1920.3912   -9.8601438   -218.78202    263.51393   -4261.3607 
31163000    83.824755   -4584.9231   -4441.2503   -4584.9231            0    2976.7059    17.840644    23.190326      22.0436    9120.1062    3084.0443    3730.1838    2115.8896   -334.73953    104.56982    56.904526   -4045.3264 
31164000    84.859771   -4594.2499   -4448.8031   -4594.2499            0    1498.5967    17.890223    23.357381    21.973548    9182.0591    2191.5151    762.08652    1542.1885   -1034.4837   -311.78282    -327.4067   -4248.1247 
31165000     84.64657   -4590.8704   -4445.7891   -4590.8704            0    2151.4403    17.900548    23.277553    21.948442    9145.4976    2401.5044    2647.9492    1404.8674   -69.446014   -226.68492    237.03764    -4158.835 
31166000    88.308457   -4592.0633   -4440.7056   -4592.0633            0    2039.2247    17.889919    23.283483    21.974256    9153.1484     2414.183    2076.5104    1626.9808   -101.83868   -326.38304   -27.478356    -4168.491 
31167000    80.705625   -4591.3883   -4453.0617   -4591.3883            0    2426.2621    17.983089    23.147397    21.912877    9121.4917    1949.9254    3240.8008    2088.0602    349.26371   -172.23325   -371.47788   -4130.3018 
31168000    91.432192    -4588.676   -4431.9643    -4588.676            0    2061.0588    17.991287    23.356552    21.789303    9156.1795    1999.3544    1276.9507    2906.8712    177.21209    -393.3138    246.78801    -4156.744 
31169000    86.342257   -4583.2069   -4435.2192   -4583.2069            0    2037.5325    18.049274    23.175621    21.934729    9175.3658    1994.5594    2551.2702    1566.7678   -204.46819     120.8232   -100.12941   -4162.5702 
31170000    85.120867   -4590.6437   -4444.7494   -4590.6437            0    2127.9316    18.004496    23.324593    21.802125    9155.7486     1231.444    2203.9708      2948.38   -96.606118   -75.352605    270.35835   -4160.6126 
31171000    80.505882   -4582.0878   -4444.1035   -4582.0878            0    2052.1168    17.789678    23.294413     22.12666    9169.2901    2842.0301    1250.9573     2063.363    444.38296   -161.75493   -22.438641   -4169.6848 
31172000    87.812418   -4599.2386   -4448.7311   -4599.2386            0    2042.9086    17.848112    23.332495    22.009473    9165.6463     3313.093    1540.1119     1275.521    408.50082    293.49883      424.096   -4175.6523 
31173000    85.393659   -4592.9544   -4446.5926   -4592.9544            0    2446.1711    17.863128    23.314142    21.984782    9155.8597    2239.8887    2617.1469    2481.4778   -106.08161    161.19942    423.77431   -4119.9582 
31174000    79.304962   -4586.6549   -4450.7289   -4586.6549            0    1925.3994     17.97082    23.311012     21.89827    9173.5796    2911.7501    2341.7633    522.68481   -137.22278   -313.37125    308.52086    -4193.135 
31175000    88.716014   -4591.6433   -4439.5871   -4591.6433            0     1889.994    18.026393    23.325745    21.783715    9159.5956    1210.2561    1936.4088     2523.317   -327.82176   -425.78611   -21.831629   -4187.1155 
31176000    85.218568   -4595.3022   -4449.2405   -4595.3022            0    1804.2297    18.019248    23.279436    21.858282     9169.067    1084.6887    2126.7957    2201.2045    1016.8047    93.123523   -37.444124   -4207.9763 
31177000    89.197674   -4587.4309   -4434.5491   -4587.4309            0    2207.4947    17.932739    23.296882    21.902625    9150.4108    2865.5769    1927.2313     1829.676    -149.8208    78.269725    137.72067   -4139.9604 
31178000     88.10612   -4588.7878   -4437.7769   -4588.7878            0     2043.377    18.042834    23.194156    21.901452    9165.5017    1551.5837     1802.555    2775.9922   -216.80194     -114.157    364.22367   -4164.6398 
31179000    82.979689   -4586.9243      -4444.7   -4586.9243            0    2056.1439    17.976846    23.179488    21.958858    9150.1265    1457.6999    2983.6999     1727.032    37.802812   -153.51948    771.78008   -4170.3174 
31180000     84.95668   -4591.6507   -4446.0378   -4591.6507            0    1777.6541    17.891087    23.259647    22.041871    9172.5122    1002.6813    2153.1268    2177.1542    87.514705     202.3184    -130.9414   -4208.2381 
31181000    87.064059   -4589.6602   -4440.4353   -4589.6602            0    1978.1608    17.915819    23.326013    21.910638    9156.5574    2061.5433     1533.842     2339.097    -62.46209    177.26889   -481.89459   -4176.2737 
31182000    88.646145   -4581.9871   -4430.0507   -4581.9871            0    2877.6271    17.901184    23.360247    21.828401    9128.1154    2785.2661    3247.9274    2599.6878   -123.67369    163.50944    696.83161   -4046.9689 
31183000    81.964075   -4589.6712   -4449.1876   -4589.6712            0    1877.4835    17.851539    23.456631    21.876595    9160.5388    1786.9093    2216.7691    1628.7722    240.78005    -903.7137    399.59866   -4198.3613 
31184000    84.415388   -4596.3346   -4451.6495   -4596.3346            0    2392.2419    17.935695    23.386541    21.782247    9136.6477    2445.8144    1394.6701    3336.2413    -106.4873   -919.11176    -18.13939   -4132.8866 
31185000    88.727857   -4589.3592   -4437.2827   -4589.3592            0    2110.5838    17.862077     23.33285    21.944554    9145.9011    2185.1313     2206.027     1940.593     2.873286     183.4723    269.88428   -4155.7654 
31186000    81.270978   -4577.0207    -4437.725   -4577.0207            0    2073.5075    18.022235    23.318306    21.809492    9165.3948    1644.3043    1747.0364    2829.1818    -301.3038   -320.78033    113.75838   -4160.5637 
31187000     86.72466   -4599.1087   -4450.4656   -4599.1087            0    2081.3699    18.012701    23.167485    21.952192    9160.8469     2000.949    2923.9898    1319.1708    902.07115    52.574983   -102.76055   -4172.3913 
31188000     87.20296    -4581.872   -4432.4091    -4581.872            0    2106.5539    17.966262    23.154167    22.011502    9156.6491     1689.022      2177.98    2452.6597   -263.36085   -264.51311    5.0264589   -4151.0992 
31189000    85.613134   -4599.1802   -4452.4423   -4599.1802            0    2235.4297    17.968124    23.305717    21.811711    9133.8727    1974.9465    1986.6761    2744.6663    356.29151    407.99544    202.56236   -4154.6648 
31190000    85.540521   -4578.0397   -4431.4262   -4578.0397            0    1906.3919    17.936714    23.313056    21.893086    9154.8043    2343.0484    2122.5497    1253.5777    456.12852    503.05179    188.52772   -4176.8972 
31191000    83.081034   -4582.2856   -4439.8875   -4582.2856            0    2974.6347      18.0397    23.200851    21.781079    9116.1745    2524.5742    3316.0263    3083.3036    -3.939652   -732.17217     79.91813   -4044.4097 
31192000    85.009931   -4587.2317   -4441.5276   -4587.2317            0    1953.7542    17.872837     23.40252    21.917581     9167.454    2145.2622    2045.3042    1670.6963    170.18232   -207.97979    552.94423   -4180.3148 
31193000    81.937299   -4582.1926   -4441.7549   -4582.1926            0    1999.1739     18.03943    23.197508    21.885072    9158.2424    1832.5537    3150.9357    1014.0322   -436.97835    150.45882   -92.398053   -4174.7381 
31194000    91.913846   -4591.3069   -4433.7697   -4591.3069            0    2380.4042    17.917658    23.246425    21.965071    9148.9239      2700.32    1703.9004    2736.9922    674.97014    95.935536    250.25931   -4116.1579 
31195000    84.379372   -4590.2447   -4445.6213   -4590.2447            0    2499.7042    17.933935    23.341183    21.814055    9131.3472     2990.846    1515.5577    2992.7089   -193.21897    58.307833     63.58922   -4112.7324 
31196000    84.781188   -4589.2492   -4443.9371   -4589.2492            0     2143.421    17.921564     23.36274    21.846964    9147.2547    2184.5424    1975.7435    2269.9772   -70.819798   -141.00395   -11.982401   -4157.9976 
31197000    82.891218   -4582.9092   -4440.8365   -4582.9092            0    1637.7785    17.860519    23.288274    22.075599    9182.1386    2021.3832    1641.1397    1250.8126    -312.7953   -174.86932   -1.0059884   -4221.5182 
31198000     84.67957   -4589.2575   -4444.1197   -4589.2575            0    1412.5358    17.977675    23.288188    21.973052    9199.4019    1481.0056    875.54193    1881.0599    221.10636   -395.26469    183.18821   -4254.6084 
31199000    86.723018   -4585.4697   -4436.8294   -4585.4697            0    1903.4935    18.032783    23.284012    21.865826    9180.9254    1350.8676      2131.18     2228.433   -155.99935    269.79714   -57.538996   -4181.9623 
31200000    83.184002   -4585.3943   -4442.8197   -4585.3943            0    2036.9254    17.968791    23.254355    21.930357    9163.6578    1698.4666      1846.63    2565.6795    204.50258    354.29868    269.52994   -4170.5998 
31201000    84.142756   -4587.7899   -4443.5721   -4587.7899            0    1555.5448    17.984313    23.251253    21.945002    9176.4741    2013.7738    1029.7572    1623.1035    559.27375   -344.36873    433.52023   -4235.3943 
31202000    83.823389   -4584.9205   -4441.2501   -4584.9205            0    1704.8433    17.966684    23.358917    21.905051    9193.1619    1794.9702    1376.4255    1943.1342   -121.10685   -273.94184    457.96582   -4212.6769 
31203000    82.205602   -4589.4677   -4448.5702   -4589.4677            0    2384.7543    17.922228    23.265161    21.947709    9151.3939    3021.3146    1564.6648    2568.2835   -308.97192   -283.09064    517.52928    -4130.292 
31204000     79.17178   -4587.1638   -4451.4661   -4587.1638            0    1073.1359     18.01282    23.448652    21.777626    9198.3542    1367.3182    294.21051     1557.879   -186.09728   -275.53846    249.04576   -4307.5064 
31205000     85.46625    -4600.209   -4453.7228    -4600.209            0    1311.3178    17.913638    23.295278    22.047235    9200.3812    1665.8191    1615.4801    652.65414    85.954102   -44.134851    73.090097   -4277.7726 
31206000    83.727186   -4594.1632   -4450.6577   -4594.1632            0    2416.3569    17.879791    23.327638     21.93468    9148.8078    1745.4775    3132.0992    2371.4939    226.45519    -124.5896    144.92567   -4128.2529 
31207000    82.941043   -4587.1286   -4444.9705   -4587.1286            0    1699.5737    17.919968    23.445161    21.831575     9172.242    1889.5516    939.93047    2269.2389   -50.901022     632.0719    73.988114   -4217.6224 
31208000    86.806646   -4587.4881   -4438.7045   -4587.4881            0    3104.2079    17.895255    23.266235    21.908082    9121.5442    2841.6416    4006.7645    2464.2177   -138.99304    192.88068   -163.16788   -4025.7568 
31209000    80.512641   -4582.2095   -4444.2136   -4582.2095            0     1361.285    17.969068    23.327312    21.925506    9190.5155    1434.2896    1313.9778    1335.5876    56.621715    31.093393   -40.542788   -4261.7548 
31210000     84.27661   -4577.0099   -4432.5627   -4577.0099            0    2623.6085    17.909517     23.24215    21.948564    9136.2145    2870.9078     2437.228    2562.6897   -1179.9946   -97.805034    42.377146    -4082.987 
31211000    87.606747   -4598.2724   -4448.1174   -4598.2724            0    2355.5699    17.980609    23.217957    21.913043    9148.1043    2228.3597    2524.2322    2314.1178    -541.7022    41.139771    481.79713   -4133.8474 
31212000    82.104886   -4582.4069   -4441.6819   -4582.4069            0    2819.4035    17.915718    23.216312    21.931831    9122.2579    2757.2629     3217.639    2483.3087    981.18659    314.18194    455.36801   -4066.5919 
31213000    86.004794   -4587.4471   -4440.0378   -4587.4471            0    1186.3576    17.908457    23.306452    22.029828    9194.8665    1074.0779    1581.6666    903.32809   -626.29112    30.272447    83.692201     -4280.95 
31214000    82.039386   -4588.7076   -4448.0949   -4588.7076            0    2163.8259    17.943119    23.225047    21.981614    9160.3929    2173.5796    2239.3849    2078.5133   -494.92405    756.22814    129.70888   -4159.0187 
31215000    82.212304   -4599.5248   -4458.6157   -4599.5248            0    3155.0819    17.940002    23.167674     21.88235    9094.9195    3427.1627    3534.8355    2503.2476    242.44829   -351.32105   -243.60666   -4040.1254 
31216000    84.356986   -4593.4789   -4448.8939   -4593.4789            0    1817.2449    17.920953    23.357292    21.885246    9160.8342    1781.5463    2365.7152     1304.473    626.86936   -110.59635    134.28819   -4206.1075 
31217000    83.949247   -4598.4489   -4454.5628   -4598.4489            0    1799.7811    17.913192    23.354763    21.933851      9176.21    1607.4359    2031.1227    1760.7845   -411.68644     64.42664    195.01477    -4213.706 
31218000    86.973113    -4588.724   -4439.6551    -4588.724            0    2863.9785    17.871873    23.239812    22.006677    9140.2306    3236.7834    3457.3224    1897.8297   -457.74494   -20.731418    22.530631   -4057.8842 
31219000    86.549291   -4590.2929   -4441.9504   -4590.2929            0    825.32911    17.977327    23.272108    22.064667    9231.2011    717.95957     1237.072    520.95574    105.95768    112.49224    209.00503   -4330.8383 
31220000    82.748083   -4593.6164    -4451.789   -4593.6164            0    2461.6367    17.963948    23.253913    21.873538    9137.2788    2420.1899    2179.3388    2785.3814   -581.28691   -266.30661   -263.72786   -4123.7566 
31221000    87.968732   -4596.1818   -4445.4064   -4596.1818            0     2555.839    17.911927    23.273145    21.899485    9129.1698    2954.7895    2773.3865    1939.3409     -47.7411   -281.26584    157.42794   -4105.1231 
31222000    85.357593   -4597.0662   -4450.7662   -4597.0662            0      1422.69     18.15442    23.153451    21.848186    9183.6115    1177.1601    1744.8056    1346.1043    -52.20307   -65.933128   -48.421617   -4260.2203 
31223000    81.583853   -4589.8732   -4450.0413   -4589.8732            0    1449.8132    17.922294    23.347648    21.915522    9170.4058    1906.9807    1069.0167    1373.4423   -744.10015    448.34618   -448.04005   -4256.1419 
31224000    85.853276   -4593.6907   -4446.5412   -4593.6907            0    1751.6129    18.026932    23.213812     21.90448    9166.4513    1995.6891    1593.8378    1665.3117    562.26314    241.56105    53.625873   -4212.3798 
31225000    82.281483   -4593.8044   -4452.7768   -4593.8044            0    1644.5011    17.965155    23.249074    21.949974    9167.9165    2080.2981    1866.9235    986.28165    317.84457   -307.93796    131.48666   -4232.8993 
31226000    82.167058   -4583.4472   -4442.6157   -4583.4472            0    2787.5424    17.893949    23.381372    21.786845    9115.2909    2824.1297    1937.6699    3600.8275   -123.91346     245.3073    111.38683   -4072.0477 
31227000    87.794741    -4577.077   -4426.5998    -4577.077            0     1211.506    17.836757    23.412175    21.959769    9170.3397    975.04531    1882.4088    777.06394    -571.3784   -329.33233    157.89012    -4264.573 
31228000    88.394511   -4590.8805   -4439.3753   -4590.8805            0    1616.2247    17.947574    23.302912    21.937279    9174.8438    1554.9493    1647.4317    1646.2931   -590.88587   -426.92761    138.68559   -4223.1153 
31229000     87.09425   -4589.4836    -4440.207   -4589.4836            0    2696.9633     17.92254    23.305717    21.874852    9137.0742    2690.4889    2979.7892    2420.6119   -256.59816    84.334023    239.92735   -4080.8236 
31230000    87.284565   -4582.1138   -4432.5111   -4582.1138            0    2196.7146     17.94118    23.148711    22.032838    9150.5727    2143.6592    3195.4547    1251.0298   -10.522601    38.441171    346.58485   -4139.3558 
31231000    89.193318   -4591.6812   -4438.8069   -4591.6812            0    2295.0471    17.899237    23.345196    21.933475    9165.1481    2401.9442    2374.9811    2108.2159    606.38887   -591.75792     68.64002   -4132.0411 
31232000    83.787695   -4584.1957   -4440.5864   -4584.1957            0    1990.4729    17.924309    23.350411    21.879899    9157.6126    1720.2928    1904.0012    2347.1248   -130.65846    234.10779   -131.12597     -4174.75 
31233000    84.587066   -4594.0067   -4449.0274   -4594.0067            0    2156.8071    17.880067    23.291132    21.909947    9124.3313    1830.7743    3403.7336    1235.9134    485.87534   -454.17422    461.40181   -4162.0232 
31234000    87.156496   -4585.7632   -4436.3799   -4585.7632            0    2942.0751    17.880227     23.43832    21.737494    9109.8035     3059.457    2563.1254     3203.643    6.3412045     -330.049   -51.709272   -4045.5042 
31235000     81.61937   -4588.7748    -4448.882   -4588.7748            0    2368.5711    17.864572     23.38855    21.874511    9139.7494    2027.9097     2846.968    2230.8357   -313.44592   -397.61148    455.98069    -4133.166 
31236000    83.946965   -4592.3382    -4448.456   -4592.3382            0    1848.2001    17.988532    23.453505    21.743524     9173.465     1692.059    1154.0252    2698.5163   -201.07404   -9.3984734   -428.30298   -4201.1935 
31237000    87.951974   -4595.8715   -4445.1248   -4595.8715            0    1894.3679    17.829347    23.391826    21.961053    9159.0984    2496.5775    1363.6166    1822.9097   -100.91625   -8.4028089    37.153574   -4192.0826 
31238000    88.951011   -4590.9386   -4438.4796   -4590.9386            0    2661.0447    17.959728    23.294469    21.789301    9115.8231     3545.242    1922.3458    2515.5462   -596.25766   -12.913153    354.71241   -4084.7072 
31239000    85.392749   -4588.1179   -4441.7577   -4588.1179            0     1875.539    17.911064    23.280053     21.97357    9162.3308    2139.8998    1438.8771    2047.8401   -48.169824     267.2258    574.93197   -4191.1422 
31240000    82.378539   -4586.0525   -4444.8585   -4586.0525            0    1777.3327    17.865006    23.410889    21.913041    9164.8157     1719.303    1284.2827    2328.4125   -100.86411    -704.7725   -198.52809   -4207.3012 
31241000    84.952084   -4598.0104   -4452.4054   -4598.0104            0    1880.1025    17.870254    23.432501    21.836138    9143.7679    2067.8755    2017.5995    1554.8323   -411.59669    302.92298   -92.583873   -4201.6891 
31242000     82.90368   -4586.8837   -4444.7896   -4586.8837            0    1688.1595    17.917923    23.296655    21.950943    9162.9312     1923.627    1660.7774    1480.0741   -774.66039    529.29574   -211.23292   -4219.1975 
31243000    84.313127   -4580.3454   -4435.8355   -4580.3454            0       2035.1    17.869564    23.410585    21.881507    9153.8426     1955.282     1801.638      2348.38    219.05781   -99.647956    314.27658   -4164.1509 
31244000    84.977637   -4584.1201   -4438.4714   -4584.1201            0    1733.4839    17.761927    23.507165      21.9178    9151.3953    2075.9125    1961.0249    1163.5144   -546.18179    116.87583   -336.24751   -4207.1142 
31245000    87.875901   -4586.0361   -4435.4199   -4586.0361            0    1867.6325    17.899225    23.442735    21.822611    9156.9154    1638.0087    2013.3802    1951.5087    702.08334   -95.101577    163.26903   -4186.0083 
31246000    83.789674    -4589.161   -4445.5483    -4589.161            0    2000.1816    17.932284     23.38913    21.825265     9153.964    2322.1146    1215.4009    2463.0293    195.73585    176.21099    127.23173   -4178.5217 
31247000    80.432938    -4583.761   -4445.9017    -4583.761            0    1993.8437    17.928019    23.551202    21.712441    9167.5659    891.17405    2116.7724    2973.5847     523.8579    73.747905   -391.66452   -4179.3257 
31248000    85.240757   -4580.4703   -4434.3706   -4580.4703            0    1628.0383    17.923417    23.336117     21.94729    9179.7383    1877.7936    1673.5113    1332.8101    219.21825   -19.128131    149.83249   -4216.4136 
31249000    77.026226   -4583.0751   -4451.0548   -4583.0751            0     2855.614      17.9211    23.380355    21.758053    9116.6612    2793.4366    2699.9728    3073.4327   -388.79451   -572.40353     285.2286   -4071.3805 
31250000    86.545086   -4580.2223    -4431.887   -4580.2223            0    2074.5306    17.790857    23.542163    21.897028    9171.2474    2772.4964    1441.2179    2009.8774   -1165.8931   -480.09048    52.534643   -4154.4118 
Loop time of 306.019 on 64 procs for 250000 steps with 864 atoms

Performance: 141.168 ns/day, 0.170 hours/ns, 816.942 timesteps/s
388.4% CPU use with 16 MPI tasks x 4 OpenMP threads

MPI task timing breakdown:
Section |  min time  |  avg time  |  max time  |%varavg| %total
---------------------------------------------------------------
Pair    | 24.266     | 26.499     | 29.44      |  30.1 |  8.66
Bond    | 1.5198     | 1.6699     | 1.9925     |   9.4 |  0.55
Kspace  | 163.53     | 168.69     | 171.85     |  20.5 | 55.13
Neigh   | 0.20886    | 0.23348    | 0.25025    |   2.4 |  0.08
Comm    | 39.085     | 41.856     | 44.309     |  23.0 | 13.68
Output  | 0.41387    | 0.41486    | 0.41702    |   0.1 |  0.14
Modify  | 49.411     | 54.609     | 58.474     |  46.6 | 17.84
Other   |            | 12.04      |            |       |  3.94

Nlocal:        54.0000 ave          61 max          47 min
Histogram: 2 2 3 1 0 0 2 2 2 2
Nghost:        2552.75 ave        2561 max        2533 min
Histogram: 1 0 1 0 0 0 4 4 5 1
Neighs:        13250.4 ave       14708 max       11739 min
Histogram: 1 3 4 0 0 0 2 1 1 4

Total # of neighbors = 212006
Ave neighs/atom = 245.37731
Ave special neighs/atom = 2.0000000
Neighbor list builds = 1151
Dangerous builds = 0

unfix		3
unfix		2
unfix		1

write_data	data.final.${pid} nocoeff
write_data	data.final.1 nocoeff
System init for write_data ...
PPPM initialization ...
  extracting TIP4P info from pair style
  using 12-bit tables for long-range coulomb (../kspace.cpp:340)
  G vector (1/distance) = 0.37190759
  grid = 24 27 25
  stencil order = 5
  estimated absolute RMS force accuracy = 0.0031415471
  estimated relative force accuracy = 9.4606757e-06
  using double precision FFTW3
  3d grid and FFT values/proc = 6300 1296
Last active /omp style is kspace_style pppm/tip4p/omp

write_restart   restart.lmp.${pid}
write_restart   restart.lmp.1
System init for write_restart ...
PPPM initialization ...
  extracting TIP4P info from pair style
  using 12-bit tables for long-range coulomb (../kspace.cpp:340)
  G vector (1/distance) = 0.37190759
  grid = 24 27 25
  stencil order = 5
  estimated absolute RMS force accuracy = 0.0031415471
  estimated relative force accuracy = 9.4606757e-06
  using double precision FFTW3
  3d grid and FFT values/proc = 6300 1296
Last active /omp style is kspace_style pppm/tip4p/omp
Total wall time: 0:05:06
