LAMMPS (30 Jul 2021)
  using 1 OpenMP thread(s) per MPI task
package omp 0
using multi-threaded neighbor list subroutines
echo both

include		in.partitions
variable        pid world 0
include		in.temp
variable        temperature equal 275.55
variable	tempDamp equal 100.0
include		in.pressure
variable        pressure equal 10125.0
variable        pressureDamp equal 1000.0 # This is 1 ps
include		in.seed
variable        seed world 745823

units		real
atom_style	full
read_restart	restart.lmp.${pid}
read_restart	restart.lmp.0
Reading restart file ...
  restart file = 30 Jul 2021, LAMMPS = 30 Jul 2021
  restoring atom style full from restart
  orthogonal box = (-0.10605033 -0.11460863 -0.077457661) to (24.836051 24.844610 22.887458)
  4 by 4 by 4 MPI processor grid
  restoring pair style lj/cut/tip4p/long/omp from restart
  restoring bond style harmonic/omp from restart
  restoring angle style harmonic/omp from restart
  1920 atoms
  1280 bonds
  640 angles
Finding 1-2 1-3 1-4 neighbors ...
  special bond factors lj:    0        0        0       
  special bond factors coul:  0        0        0       
     2 = max # of 1-2 neighbors
     1 = max # of 1-3 neighbors
     1 = max # of 1-4 neighbors
     2 = max # of special neighbors
  special bonds CPU = 0.793 seconds
  read_restart CPU = 0.966 seconds
include 	in.setup
variable	out_freq equal 1000
variable	out_freq2 equal 10000
variable	out_freq3 equal 1000

timestep	2.0

neigh_modify    delay 7 every 1

include		in.tip4p
# This is TIP4P/Ice

# create groups ###
group ox type 2
640 atoms in group ox
group hy type 1
1280 atoms in group hy

# set charges - beside manually ###
set group ox charge -1.1794
Setting atom values ...
  640 settings made for charge
set group hy charge 0.5897
Setting atom values ...
  1280 settings made for charge

# ### TIP3P Potential Parameters ###
pair_style lj/cut/tip4p/long/omp 2 1 1 1 0.1577 8.5
pair_coeff 1 1*2 0.000 0.000
pair_coeff 2 2 0.21084 3.1668
bond_style  harmonic
bond_coeff  1 450 0.9572
angle_style harmonic
angle_coeff 1 55 104.52
kspace_style pppm/tip4p/omp 1.0e-5
pair_modify tail yes

thermo          ${out_freq}
thermo          1000
thermo_style    custom step temp pe etotal epair emol press lx ly lz vol pxx pyy pzz pxy pxz pyz enthalpy

restart 	${out_freq3} restart.lmp.${pid} restart2.lmp.${pid}
restart 	1000 restart.lmp.${pid} restart2.lmp.${pid}
restart 	1000 restart.lmp.0 restart2.lmp.${pid}
restart 	1000 restart.lmp.0 restart2.lmp.0


include         in.dump
dump            myDump all atom ${out_freq2} dump.water.${pid}
dump            myDump all atom 10000 dump.water.${pid}
dump            myDump all atom 10000 dump.water.0
dump            myDump2 all dcd ${out_freq2} dump.dcd
dump            myDump2 all dcd 10000 dump.dcd
dump_modify     myDump append yes
dump_modify     myDump2 append yes


variable natoms 	equal  "count(all)"                        # NUMBER ATOMS
variable H      	equal  "enthalpy/v_natoms"                 # ENTHALPY-per-atom
variable Vol      	equal  "vol/v_natoms"                 # volume-per-atom
fix AVG all 		ave/time ${out_freq} 1 ${out_freq} v_Vol v_H file vol_enthalpy.dat
fix AVG all 		ave/time 1000 1 ${out_freq} v_Vol v_H file vol_enthalpy.dat
fix AVG all 		ave/time 1000 1 1000 v_Vol v_H file vol_enthalpy.dat




fix 		1 all shake 1e-6 200 0 b 1 a 1
       0 = # of size 2 clusters
       0 = # of size 3 clusters
       0 = # of size 4 clusters
     640 = # of frozen angles
  find clusters CPU = 0.015 seconds
fix             2 all nph aniso ${pressure} ${pressure} ${pressureDamp}
fix             2 all nph aniso 10125 ${pressure} ${pressureDamp}
fix             2 all nph aniso 10125 10125 ${pressureDamp}
fix             2 all nph aniso 10125 10125 1000
fix             3 all temp/csvr ${temperature} ${temperature} ${tempDamp} ${seed}
fix             3 all temp/csvr 275.55 ${temperature} ${tempDamp} ${seed}
fix             3 all temp/csvr 275.55 275.55 ${tempDamp} ${seed}
fix             3 all temp/csvr 275.55 275.55 100 ${seed}
fix             3 all temp/csvr 275.55 275.55 100 745823


run             250000
PPPM initialization ...
  extracting TIP4P info from pair style
  using 12-bit tables for long-range coulomb (../kspace.cpp:340)
  G vector (1/distance) = 0.37442661
  grid = 30 30 30
  stencil order = 5
  estimated absolute RMS force accuracy = 0.0032752785
  estimated relative force accuracy = 9.863404e-06
  using double precision FFTW3
  3d grid and FFT values/proc = 3600 512
Last active /omp style is kspace_style pppm/tip4p/omp
Neighbor list info ...
  update every 1 steps, delay 7 steps, check yes
  max neighbors/atom: 2000, page size: 100000
  master list distance cutoff = 10.8154
  ghost atom cutoff = 10.8154
  binsize = 5.4077, bins = 5 5 5
  1 neighbor lists, perpetual/occasional/extra = 1 0 0
  (1) pair lj/cut/tip4p/long/omp, perpetual
      attributes: half, newton on, omp
      pair build: half/bin/newton/omp
      stencil: half/bin/3d
      bin: standard
Per MPI rank memory allocation (min/avg/max) = 9.331 | 9.339 | 9.344 Mbytes
Step Temp PotEng TotEng E_pair E_mol Press Lx Ly Lz Volume Pxx Pyy Pzz Pxy Pxz Pyz Enthalpy 
  750000    285.60175   -9039.9318   -7951.0877   -9039.9318            0    9569.9328    24.942102    24.959218    22.964915    14296.472    10167.908    10750.268    7791.6223    642.93045    40.388175   -122.56062   -5955.7627 
  751000    274.32533   -9040.9969   -7995.1437   -9040.9969            0    11436.717    24.801313    24.882194    23.055325    14227.697    11967.728    12342.204    10000.219   -751.83299   -1570.0018    1122.7302   -5622.0665 
  752000    280.75879   -9052.8349   -7982.4543   -9052.8349            0    10700.107    24.912712    24.940149    22.902912    14230.191    10081.716    11386.179    10632.427   -222.77619    63.308852    105.33682   -5761.8317 
  753000    281.95887   -9055.6282   -7980.6724   -9055.6282            0    10773.713    24.958906    24.901018    22.944793    14260.239    10557.448    11138.362    10625.329   -162.35945   -111.61771   -855.19303   -5740.0531 
  754000    276.20695   -9088.7848    -8035.758   -9088.7848            0     9029.418    24.916111    24.925591    23.043273    14310.996    9501.2552    9403.7129    8183.2859   -282.63046    1099.0365   -19.300074   -6151.2173 
  755000    268.86521   -9003.6091   -7978.5724   -9003.6091            0    9326.8912    25.087192    24.958219    22.928257    14356.107     8081.339    10939.567     8959.768    326.94645   -271.97752    332.82013   -6025.8096 
  756000    277.94124   -9010.0169   -7950.3781   -9010.0169            0    8794.9246    25.012882    24.941126    23.048125     14378.56    8590.7582    9141.5179    8652.4976    353.81214    -490.5441    478.16337   -6106.1128 
  757000    270.04676   -9042.5702   -8013.0288   -9042.5702            0    9952.1862    24.984813    24.945031    22.949571    14303.249    9931.6172    10381.286    9543.6555    553.00341   -82.328977   -486.61179   -5937.0205 
  758000    263.45479   -9029.3247   -8024.9149   -9029.3247            0    10185.667    25.029049    24.926623    22.934217    14308.421    9852.8908    9961.0233    10743.088   -220.94338   -646.20709    1306.9447   -5899.4346 
  759000    282.12713   -9014.2077   -7938.6104   -9014.2077            0    10508.683    25.020805    24.814583    23.005386    14283.604    9694.6376      11442.4    10389.011   -910.70883   -920.14067   -747.30761   -5749.5287 
  760000    281.98168   -9044.8577   -7969.8149   -9044.8577            0    9849.7788    24.966291    24.924329    22.962719    14288.966    9941.7712    10532.002    9075.5636   -1471.3735   -572.91281    -492.7535   -5917.2203 
  761000    271.29608   -9038.1887   -8003.8843   -9038.1887            0    9542.9312    24.856838    24.870125    23.148184    14310.038    10259.994    9750.9381    8617.8613   -510.24149   -249.97456   -101.95525   -6012.3011 
  762000    281.10047   -9016.4164   -7944.7332   -9016.4164            0    9630.6067    24.999708    25.001653    22.919561    14325.505    8738.2817     9156.697    10996.841   -73.966354    870.70745   -277.29794   -5932.6799 
  763000    281.76816   -9042.5229   -7968.2942   -9042.5229            0    7966.2953    24.989736    24.910105     23.17441    14425.999    7286.2122    9093.1151    7519.5585   -488.70607   -1811.6055   -173.98687   -6292.2781 
  764000    266.08996   -9056.8919   -8042.4356   -9056.8919            0    9390.9269    24.953203    24.925637    23.024569    14320.694    9178.3437    9299.3934    9695.0435    1061.4039   -128.27629    345.91083   -6081.1158 
  765000    269.49402   -9018.2322   -7990.7981   -9018.2322            0    9606.5813    24.960231    25.013217    22.938653    14321.419    9325.5839     9990.631     9503.529    584.82125   -141.78748   -322.57723   -5984.3368 
  766000    279.77146    -9044.537   -7977.9206    -9044.537            0     10393.12    24.944785    24.915898    22.980212    14282.701    9604.6815    12133.535    9441.1424    -690.1666   -1107.2648    74.180211   -5813.0489 
  767000    271.84576   -9004.7295   -7968.3295   -9004.7295            0    11535.241    24.777922    25.005004    22.940901    14213.541    12819.277    9728.4577     12057.99    297.70624     552.3346   -101.24681   -5577.1903 
  768000    269.86018   -9057.6411    -8028.811   -9057.6411            0    8978.4753    24.825251    25.013108    23.101847    14345.247    9946.1216    8906.3514     8082.953   -1343.1981   -233.85218     114.7421   -6150.4178 
  769000    273.66642   -9039.7961   -7996.4549   -9039.7961            0    10403.162    24.888804    25.059202    22.886956    14274.447      10609.7    10108.596    10491.189   -101.62633   -8.0113267   -36.644999   -5830.7437 
  770000    271.97258   -9052.0773   -8015.1938   -9052.0773            0    9183.7961    24.752176    25.069374    23.104972    14337.133     11742.41    7769.3501    8039.6285   -36.145024    1284.4232   -466.72769    -6094.932 
  771000    276.71287   -9054.0031   -7999.0474   -9054.0031            0    10345.709    24.903578    25.042511    22.928922    14299.579    10226.826    10677.404    10132.897   -391.61298   -1291.7559   -197.71193   -5841.5047 
  772000    276.64708   -9021.2603   -7966.5555   -9021.2603            0    8373.4919    24.968507    24.908622    23.154152    14400.287     8506.692    9598.9257    7014.8581    389.82594   -194.11982   -364.61696   -6208.0099 
  773000    265.68646   -9054.6695   -8041.7516   -9054.6695            0    9748.9741     24.97304    24.902503    22.979204    14290.565    9879.3771    10041.432    9326.1131   -781.61291   -263.39401   -343.96243   -6009.9364 
  774000    283.27055   -8996.5926   -7916.6361   -8996.5926            0     10106.31    25.097965    24.933178    22.883469    14319.835    10274.406    8502.0345     11542.49   -550.61252   -529.40575   -1491.3726   -5806.0333 
  775000    273.42926   -9026.8844   -7984.4474   -9026.8844            0    9398.7321    24.952556    24.915707    23.048969    14329.788    9815.6597    9822.0937     8558.443   -452.00952    395.44475    661.55724    -6020.251 
  776000    279.09889   -9019.6188   -7955.5666   -9019.6188            0    9053.6079    24.996071    25.026687    22.935528    14347.752    10132.704    7904.3367    9123.7828    332.47426   -119.30928   -142.17286   -6061.1241 
  777000    273.38977   -9043.9776   -8001.6911   -9043.9776            0    7741.2339    25.078756     24.89483    23.141298    14447.838    7698.3423    9079.2732    6446.0863   -162.71435    1219.2968    650.31249   -6370.5597 
  778000    273.27253   -9063.0535    -8021.214   -9063.0535            0     9384.689    25.007351    24.929961    22.975498    14323.667    8223.4088    8905.8744    11024.784     195.0824   -182.02886   -806.35333   -6060.7901 
  779000    276.68565   -9074.0193   -8019.1675   -9074.0193            0    9260.8373    24.999043    25.010182    22.894237    14314.178    7980.3474    9172.1271    10630.037   -122.94951   -500.17687    16.638303   -6085.8972 
  780000    279.98657   -9017.4906   -7950.0541   -9017.4906            0    10638.915     24.86517    24.874273    23.098816    14286.688    11371.463    10315.342    10229.939   -482.30385   -181.54624   -744.31301   -5733.3651 
  781000    280.79969   -9002.4695    -7931.933   -9002.4695            0    10160.537    24.968812    25.099967    22.822671    14303.341    10197.719    8901.5053    11382.388   -1359.4731      778.411   -191.49209   -5812.4495 
  782000    269.76551   -8985.6376   -7957.1684   -8985.6376            0    9330.3109    24.915586    25.040625     23.04916    14380.413     9375.782    10476.341    8138.8097   -90.486889    74.197781   -572.31346   -6000.3822 
  783000    275.33026   -9033.7748   -7984.0903   -9033.7748            0    9340.8661    24.956836     24.92842    23.062199     14347.79    9866.7143    8893.1566    9262.7273   -315.75474    357.84449    614.41391   -6029.5346 
  784000    271.27973   -9078.0786   -8043.8365   -9078.0786            0    9363.9664     25.04067    25.028244    22.833647    14310.395    9835.3708    8559.2562    9697.2722   -51.335998   -974.29241    -735.5492    -6089.554 
  785000    269.80244   -9084.6887   -8056.0788   -9084.6887            0    9983.7859    24.931148    24.867979    22.998716    14258.911     9883.585    11263.358     8804.415   -324.60004   -462.06924   -1267.6616   -5979.9346 
  786000    271.17239   -9038.1774   -8004.3445   -9038.1774            0    9971.7202    24.957423    24.815299    23.091262    14301.017    8977.7081    11861.337    9076.1151    541.71352   -103.50236    -886.7409   -5924.5861 
  787000    281.07823   -9050.0276   -7978.4292   -9050.0276            0    10498.256    25.026192     25.00222    22.790301    14260.127    9276.0063    11519.894    10698.868   -387.97966    108.80384   -506.97817   -5795.1139 
  788000    286.01848   -9041.9572   -7951.5243   -9041.9572            0    11619.553     24.81741     24.78863    23.127568     14227.84    13372.585    12018.644    9467.4291   -264.46609   -1380.3244    564.32309   -5540.4852 
  789000    273.56446   -9058.2166   -8015.2641   -9058.2166            0    9831.6845    24.978531    25.036008     22.83137    14277.888     9967.536    8616.8058    10910.712   -201.07081    592.09598   -506.90062   -5968.0287 
  790000    273.80989   -9059.9757   -8016.0876   -9059.9757            0    9085.1346    24.824889    24.933555    23.151826    14330.349     10816.65    8937.5903    7501.1635   -495.36623   -881.01147    578.38416    -6117.354 
  791000     268.5699    -9072.997    -8049.086    -9072.997            0     9494.378    24.953646     25.03099    22.908584    14309.033    10311.919    8537.2046    9634.0108   -165.26485    538.27843    493.86617   -6067.7749 
  792000    276.18181   -9056.8467   -8003.9157   -9056.8467            0    9855.0649    24.945164    25.038109    22.934437    14324.385     9426.222    9926.8552    10212.117   -274.48751   -668.94767   -490.98268    -5945.129 
  793000    275.43688   -9023.6691   -7973.5781   -9023.6691            0    10440.504    24.794195    24.866544    23.187278    14296.022    10678.124     10657.89    9985.4988    625.27345   -270.59277    537.59362    -5796.808 
  794000    279.66833   -9054.9827   -7988.7595   -9054.9827            0     10295.23    25.045614    25.091601    22.717336    14276.359    8490.1825    10452.137     11943.37   -814.76569    48.931962   -302.88652   -5845.2303 
  795000    263.24263   -9064.0434   -8060.4424   -9064.0434            0    10409.333    24.884641    24.942689    22.998321    14274.825    10587.853    10049.906    10590.239   -145.24312   -1092.8744    610.93352   -5893.3893 
  796000    283.58526    -9015.623   -7934.4667    -9015.623            0    9956.2769    24.757954    25.049141    23.121395    14339.091    10916.259    9065.2095    9887.3618   -668.55406   -401.52351    1797.2885   -5852.4007 
  797000    274.07579    -9053.516   -8008.6141    -9053.516            0    11366.537    24.910512    24.950061    22.898864    14232.074    12119.559    10281.608    11698.445   -1106.9482    460.28105   -704.03729   -5649.3733 
  798000    281.11352   -9062.7497   -7991.0167   -9062.7497            0    11895.803    24.924276    24.829278    22.924238    14186.705    12142.986    12373.873    11170.549   -632.35294   -243.98139    477.78998   -5529.7925 
  799000    276.76324   -9025.4268   -7970.2791   -9025.4268            0    10385.404    24.985417    24.976933    22.936929    14313.999    9237.9805    10983.708    10934.522   -799.79895   -109.35533    780.26804   -5802.2742 
  800000    284.61347   -9035.3878   -7950.3114   -9035.3878            0    11284.191     24.97209    24.814208    22.952351    14222.715    9503.0438    12509.347    11840.182   -1028.4692   -472.93557   -1146.9527   -5609.7027 
  801000    277.88192    -9032.248   -7972.8354    -9032.248            0    9977.9928    24.970008    24.921641    22.983847      14302.7    10505.964    10263.168    9164.8465    901.72554    977.33136   -372.71122   -5891.5238 
  802000    275.36678   -9044.8723   -7995.0486   -9044.8723            0    9533.5546    25.072009    25.026966    22.841652    14332.596    8130.3289    9698.7084    10771.627   -545.16285   -1197.5848    176.41751   -6002.2858 
  803000    273.70704   -9040.6136   -7997.1175   -9040.6136            0      10365.2    24.952782    24.956103    22.953218    14293.525     10082.46    10253.172    10759.969   -163.66806    566.10108   -91.059657   -5836.4252 
  804000     276.1042   -9036.4991   -7983.8639   -9036.4991            0    8616.0264    25.053035    24.972363    23.042296    14416.032    7758.9549    9108.5114    8980.6129    256.79767   -986.71429     386.1487   -6172.4044 
  805000    280.41653   -9036.0723   -7966.9966   -9036.0723            0    9067.7134    24.972694    24.973792    23.015633    14353.996    9487.1842    8746.8128    8969.1433     605.1981    422.34099    630.18934   -6068.7769 
  806000    281.16185   -9012.7661   -7940.8489   -9012.7661            0    10977.848    24.926112    24.831187    23.023607    14250.345    10893.513    10819.124    11220.908    1405.5293   -203.36618    701.26004   -5659.3593 
  807000    273.95462   -9037.1358   -7992.6959   -9037.1358            0    10317.629    24.947616    24.989613    22.875246    14261.143    9838.7705    10119.162    10994.954   -706.58744     -211.798   -392.04658   -5846.7927 
  808000    274.93551   -9069.2686    -8021.089   -9069.2686            0     9871.108      24.7738    25.072332    23.016896    14296.644    11983.258     9176.339    8453.7266   -1963.7089   -47.903109   -146.49779   -5962.9444 
  809000    277.83328   -9048.6715   -7989.4443   -9048.6715            0    10617.153    24.870708    24.985007    22.931852    14249.734    11647.389    9086.7704    11117.299   -266.81295   -231.74682    468.02798   -5783.0115 
  810000    274.64002   -9085.2834   -8038.2304   -9085.2834            0    10100.424    24.957383    25.007868     22.87845    14279.148    10851.909    8259.9314    11189.431   -669.31499   -39.735122     1053.475   -5934.8501 
  811000    278.56127   -9090.2023   -8028.1997   -9090.2023            0    7892.7433    24.899566    24.957861    23.142457    14381.646    7159.4644    8614.0475    7904.7181   -285.11105   -284.79665   -175.43847   -6372.7634 
  812000    278.97767   -9049.3623   -7985.7722   -9049.3623            0    9198.2716    24.995624    24.978807    22.928994    14315.966    8415.2127    10347.268    8832.3344    865.71965   -782.02152    505.77596   -6065.3232 
  813000    277.13999   -8979.7475   -7923.1635   -8979.7475            0    11222.412    24.961843    24.921434    22.910058    14252.001    11667.462    10469.199    11530.576   -323.66116    1371.0993    610.28055   -5590.5758 
  814000    288.45097   -9080.9803   -7981.2737   -9080.9803            0    10186.725    24.909499    24.947169    22.988072    14285.282    10519.473    9196.4502    10844.251    -1821.811    -1654.459   -165.90635   -5859.0103 
  815000    266.05045   -9069.1124   -8054.8068   -9069.1124            0    8018.1935    25.084142     25.03523    22.892684    14376.314    7714.1354    7409.4713    8930.9737     -301.018   -6.6228604    1095.7561    -6373.682 
  816000    281.37246   -8997.8769   -7925.1568   -8997.8769            0    9398.7094    24.967466    24.937194    23.065564    14361.048    10588.688    7293.7957    10313.645   -330.17277    -1198.533   -867.57442   -5956.6802 
  817000    277.57012   -9106.2977   -8048.0739   -9106.2977            0    9948.3732    25.055246    24.959889    22.809348    14264.422    8954.3575    9824.5205    11066.242    590.24201   -651.36104     111.3521   -5978.4943 
  818000    272.64367   -9061.7445   -8022.3025   -9061.7445            0     10676.35    24.893668    24.874111    23.013253    14249.987    10680.568    11530.853    9817.6297   -347.96353    830.13894    11.261634    -5803.528 
  819000    268.67333   -9048.1154   -8023.8101   -9048.1154            0    11272.713    25.007344    24.949504    22.772027    14207.941    9955.0736    12038.981    11824.086   -574.09769    544.54783   -301.03665   -5688.0108 
  820000    279.86122   -9082.6712   -8015.7126   -9082.6712            0    10170.674    24.927455    24.970848    22.874128    14238.222    10723.599     9911.486    9876.9375     275.3044   -163.65356    708.85174   -5903.7734 
  821000    280.64018   -9042.2992   -7972.3708   -9042.2992            0     9421.246    24.921623      24.9501    23.020176    14313.876    8286.9882     10959.18    9017.5693    109.37804   -1322.1782     431.5386   -6005.6556 
  822000    277.28279    -8995.113   -7937.9846    -8995.113            0    10999.328    24.866366     25.09375    22.843249    14253.967    11230.413    9486.1988    12281.372    160.16097   -332.79284   -304.11346   -5651.4499 
  823000     262.0432   -9066.9273   -8067.8991   -9066.9273            0    9969.1728    24.797737    24.985344    23.042862    14276.897    10633.833    9760.5842    9513.1016   -15.334469    822.56053   -910.76869   -5992.1788 
  824000    282.65813   -9048.3455   -7970.7238   -9048.3455            0    11303.181    24.854843     25.02168    22.914295    14250.627    11518.826    9452.8987    12937.819   -418.70883   -284.35342   -148.77936   -5621.5748 
  825000    277.41313   -8998.7717   -7941.1463   -8998.7717            0    11424.143    24.893866    25.049464    22.828092    14235.096    11629.984    10336.172    12306.272   -741.80815    288.93965   -122.10851   -5569.4455 
  826000    284.48796   -9060.3445   -7975.7466   -9060.3445            0    11597.979    24.824614    24.913756     23.00527     14228.17    12423.002    11535.651    10835.285   -578.41353   -1896.6718    2321.0042   -5569.1281 
  827000     273.8208   -9076.8953   -8032.9655   -9076.8953            0    9892.9737    24.868616    24.969055    22.971388    14263.988    9900.8296     9410.447    10367.644    86.484656   -198.52297    527.43207   -5974.9734 
  828000    274.89524   -8992.3963   -7944.3703   -8992.3963            0    10225.288    24.907573    25.122681    22.891141    14324.017    10642.119     9565.966    10467.779   -69.286069    -291.3868    698.29206   -5808.2964 
  829000    272.37548   -9045.6968   -8007.2773   -9045.6968            0    10222.081    24.679524    25.133884    23.060178    14304.051    12359.545    7981.0151    10325.683    -225.6242   -505.35643    676.36221   -5874.8499 
  830000    278.44908    -9053.441   -7991.8662    -9053.441            0    9328.4117    24.873191    25.042408    22.985408    14317.257    9622.2903    8238.3521    10124.593   -314.27693    -52.91497   -70.358936   -6044.0704 
  831000    288.72716   -9058.7188   -7957.9592   -9058.7188            0    10002.273    24.994177    24.921542    22.935061    14286.099     9967.711    11140.701    8898.4059   -751.13179   -579.22986    714.16885   -5874.0047 
  832000    272.09197   -9037.3282   -7999.9895   -9037.3282            0    10204.102    25.027262    24.774416    23.051807    14292.946    8941.2522    10977.469    10693.584   -240.17328    137.59893   -542.00605   -5872.9654 
  833000    270.79815    -9077.531    -8045.125    -9077.531            0    10511.565    24.921098    24.894721    22.979307    14256.449    9601.4884    11602.987    10330.219    323.66235   -679.99718   -1243.5585   -5859.6057 
  834000    285.98499   -9025.3074   -7935.0022   -9025.3074            0    10465.031    24.955161    24.982174    22.930458    14295.631    10804.837    9555.3647    11034.892      332.457    504.20264   -25.308614   -5753.1781 
  835000    273.47747   -9057.7686   -8015.1478   -9057.7686            0    9593.2124    24.955277    24.896675    23.059765    14327.111    8979.9259    10362.488    9437.2237   -124.65036    118.80958    984.49363   -6010.6824 
  836000    281.04846   -9053.3321   -7981.8472   -9053.3321            0     9987.908    25.055184    24.972131    22.833086    14286.235    8726.6822    10542.013    10695.029   -351.69462   -61.184495    957.52611   -5900.8657 
  837000    268.80529   -9023.6146   -7998.8062   -9023.6146            0    10755.441    24.850301    24.944553    23.064711    14297.345    10932.026    11503.078    9831.2183   -547.46025   -42.071976    400.56886   -5756.1666 
  838000    278.12666   -8997.2776   -7936.9319   -8997.2776            0    11443.578    24.984795    25.015219    22.790957    14244.351    10304.068    11143.062    12883.605   -1183.0785   -232.47857   -372.76539   -5559.6515 
  839000    274.34978   -9088.8211   -8042.8746   -9088.8211            0    11720.878    24.898324    24.956454    22.838058    14190.973    11576.821     11275.52    12310.294   -980.23832    417.84469   -976.99358   -5617.1124 
  840000    282.62208   -9052.2271   -7974.7429   -9052.2271            0    10369.189    24.848576    24.847008    23.111146    14269.117    10221.179    11394.961    9491.4277   -653.12204   -831.72909    499.61746   -5816.9101 
  841000    267.65012   -9045.1444   -8024.7401   -9045.1444            0    10634.585    24.965905     24.93493    22.896262    14253.452     9813.738    11025.642    11064.376   -2174.8714   -284.25743    131.87589   -5814.1078 
  842000    281.03885   -9066.4996   -7995.0513   -9066.4996            0    8914.2448    25.044667    25.019426    22.853257    14319.924    9375.4705    7105.4956    10261.768   -147.96978    228.34327   -1342.1441    -6133.388 
  843000    280.80952   -9050.1362   -7979.5622   -9050.1362            0    9569.4837     24.94408    24.894352    23.086609    14336.016    8804.9226     10254.15    9649.3783    250.65286    605.65589   -270.99913    -5978.812 
  844000    277.06351   -9051.9651   -7995.6726   -9051.9651            0    9754.0408    25.009883    25.120006    22.764788    14301.942    9260.8668     9113.786     10887.47   -949.01974   -512.56612    487.18333    -5961.183 
  845000    259.93953   -9053.6399   -8062.6319   -9053.6399            0    10425.057    24.914444    24.972624    22.969262    14290.993    9770.3837    10463.573    11041.214   -80.809598    33.107059    966.63225   -5889.8469 
  846000    277.32269   -9050.0917   -7992.8112   -9050.0917            0     10409.25    24.802504    24.971348    23.070949    14289.037     10969.49    10827.115    9431.1454   -367.06265   -1076.5369   -649.00151   -5823.6176 
  847000    272.58297   -9006.1501   -7966.9395   -9006.1501            0    10915.496    24.973116    25.086197    22.811789    14291.141    10135.745    9770.1041    12840.638   -158.85814     -56.7146    754.74331    -5691.914 
  848000    256.21999   -9030.3473   -8053.5198   -9030.3473            0    10950.815    24.810256    24.928861    23.060594     14262.78    11416.663    10926.497    10509.286    80.732908   -502.96684   -756.54888   -5775.6625 
  849000    270.66584   -9015.1523   -7983.2507   -9015.1523            0    8271.7535    25.033203    25.051297    22.987437    14415.749    9253.7223    7445.8742    8115.6639   -252.69362    -530.1687    1387.0222   -6244.2063 
  850000    275.82808   -9088.0232   -8036.4407   -9088.0232            0    9524.6078    24.966768    24.875931    23.027455    14301.699     9879.792    9840.0585     8853.973   -146.70139   -291.96853    27.163432   -6049.8399 
  851000    273.48047   -9030.4922   -7987.8599   -9030.4922            0    12281.303     25.05587    24.853653    22.778604    14184.918    11737.003    11983.387    13123.518   -275.63688   -192.52078    306.35561   -5447.1965 
  852000    277.37187   -9005.7133   -7948.2453   -9005.7133            0    10160.395    24.925159    24.904862     23.04392    14304.689    10175.794    9953.0283    10352.363   -408.26019   -439.75284    787.87705   -5828.5916 
  853000       276.86   -9031.9572   -7976.4406   -9031.9572            0    9201.1071    25.042682    25.003009    22.907062    14343.083    8738.5171    9996.7391    8868.0651   -719.69131   -154.41804    77.967537   -6051.7608 
  854000    275.88655   -9069.2607   -8017.4554   -9069.2607            0    7576.9251    24.986482    24.973516    23.053617    14385.464    8371.7414    7727.5192    6631.5148   -134.45995   -196.49755     725.0289   -6427.8375 
  855000    277.11959   -9038.3985   -7981.8923   -9038.3985            0    8809.7524     24.91671    25.036808    22.992995    14343.833    9381.6371    9304.2059    7743.4143   -523.80429   -344.78719    1498.3746   -6138.9794 
  856000     274.6071   -9065.0325    -8018.105   -9065.0325            0    10621.914    24.735493    24.843222    23.147508     14224.36    11914.943    11186.988    8763.8127   -247.49595   -417.40368    -79.36821   -5814.6132 
  857000    272.81282   -9029.4729   -7989.3861   -9029.4729            0    10328.235    24.972636    24.942052    22.906365     14267.66    9938.4245    9923.7974    11122.484    103.96682    45.035145    154.69563   -5840.2953 
  858000    276.35661    -9037.169   -7983.5716    -9037.169            0    10450.625    25.031838    25.053564    22.758381    14272.618    10053.962    9557.4809    11740.432    460.61941    616.68034    963.90816   -5808.2585 
  859000    276.04621   -9056.3747   -8003.9606   -9056.3747            0    9943.0557    24.844781    24.910115    23.125784    14312.232    9449.0557    10711.846    9668.2658    249.97226   -526.81204   -956.21046   -5928.5543 
  860000     269.6766   -9047.1705   -8019.0403   -9047.1705            0    9056.8909    25.064284    24.999795    22.856191    14321.734    8000.8595    9552.9026    9616.9106   -197.08862   -916.48169    244.65293   -6127.3474 
  861000    269.98464   -9023.5671   -7994.2625   -9023.5671            0    9125.9756    25.017987    24.914438    23.012972    14344.195    8223.6517    9757.0774    9397.1979   -873.35962    1017.8958   -454.88808   -6085.1507 
  862000    273.91774   -9023.0518   -7978.7524   -9023.0518            0    8783.3298    25.094363    24.947445     22.94094    14361.952    8969.7542    8418.9054    8961.3299   -377.07758   -975.11977    1290.0678   -6139.0459 
  863000    282.42156    -9084.801   -8008.0812    -9084.801            0    8416.7681    24.963929    24.958582    23.015619     14340.21    8839.3217     7644.828    8766.1547   -282.85733   -539.36888   -451.50291   -6247.8214 
  864000    279.30053   -8995.9827   -7931.1617   -8995.9827            0    9924.2621    24.904273    25.052994    22.947827    14317.759     9514.309    9536.4425    10722.035   -745.78258   -423.05819   -444.43185   -5858.8782 
  865000    286.22501   -9032.7639   -7941.5436   -9032.7639            0    9454.1693    24.849336    25.052452     23.05636    14353.432    10266.914    9193.6298    8901.9639   -390.56751     896.9808    188.76939   -5962.5015 
  866000    269.89263   -9050.5262   -8021.5724   -9050.5262            0    11211.785    24.880664    25.047902    22.828678    14227.025    12593.816     9044.751    11996.789   -581.54954   -48.723696    237.43945   -5695.2777 
  867000    265.99897   -9082.5116   -8068.4023   -9082.5116            0    9922.3699    24.935153    24.921235     22.98814    14285.171    8833.1572    10201.243    10732.709    653.95135   -608.32819    1331.8911   -6001.2297 
  868000    269.23974   -9073.5926    -8047.128   -9073.5926            0    9664.5823     25.09284    24.977177    22.752678    14260.203    9476.0079     9950.703    9567.0361    994.40259    235.54732    691.89793   -6037.1806 
  869000    279.50843   -9058.9754   -7993.3618   -9058.9754            0    9214.5754    24.968398    25.013744     22.93239    14322.495    8972.0371    9059.4617    9612.2274   -825.05961   -67.290847   -298.27591   -6068.6314 
  870000     275.1209   -9065.2819   -8016.3956   -9065.2819            0    8583.3321    24.967136    24.867079    23.139337    14366.283    7664.7108    9504.9085     8580.377   -671.19754    40.498375    -807.6294   -6218.0372 
  871000    271.30138   -9052.4318   -8018.1072   -9052.4318            0    9842.9319     25.06547    24.917553    22.872709    14285.612    8573.7579    10814.018    10141.019    126.18978    -352.0797   -208.86538   -5967.4209 
  872000    273.93584    -9010.676   -7966.3076    -9010.676            0    9867.6031    25.010551     24.95055    22.949423    14321.059    8956.0904    10120.215    10526.504   -764.99239    92.617803    261.69875   -5905.3802 
  873000    271.84661   -9076.2151   -8039.8118   -9076.2151            0      9243.73    24.912637     24.96867    23.045395    14335.052    9783.0144    9495.2757    8452.8998   -290.56454   -369.54433     532.5327   -6107.2989 
  874000    280.78582   -9035.8362   -7965.3526   -9035.8362            0    8609.5527    24.976633    25.112694    22.921582    14377.116    8753.2563    8459.2331    8616.1688   -180.64897   -101.09411    -594.3265   -6160.1405 
  875000    281.62559   -9017.6494   -7943.9642   -9017.6494            0    10172.606    24.860148    25.004623    23.022514    14311.224    10303.066    9941.3389    10273.412    372.00598    537.77361    1737.6061   -5820.7937 
  876000    274.85454   -9045.2031   -7997.3322   -9045.2031            0    10819.037    24.777513     25.04057    22.989409    14263.619    12977.048    9714.2535    9765.8105   -71.129591    818.23151   -36.227859   -5746.7534 
  877000    277.44982   -9019.6024   -7961.8372   -9019.6024            0    11660.155    24.887987     24.94293    22.924283     14230.92    12380.178    10875.629     11724.66   -467.18142    46.021427   -813.96799   -5541.8492 
  878000    275.68383   -9034.8538   -7983.8213   -9034.8538            0    11354.875    24.879793    24.940613    22.936351    14232.402    11228.226    10745.566    12090.834   -1267.3572   -371.77124    38.614009   -5626.9468 
  879000    264.91496   -8982.5019   -7972.5252   -8982.5019            0    10461.439     25.02072    24.898126    22.940897    14291.469    9354.3241    12475.586    9554.4085    572.97125    223.08984    1320.9601   -5792.0849 
  880000    270.98644   -9068.9236   -8035.7997   -9068.9236            0    10374.134    25.018104    24.840922     22.91995    14244.125    10324.457    10802.069    9995.8741   -177.68782   -632.25686    875.29111   -5880.7192 
  881000     270.7418   -9056.8195   -8024.6283   -9056.8195            0    10635.532    24.942648    24.851993    23.000839    14257.634    10273.305    11153.809    10479.482   -444.99201    1095.9431    563.58263   -5813.1506 
  882000    270.81049   -9040.9701    -8008.517   -9040.9701            0    9227.5847    25.081347    24.995404    22.849164    14324.562    8257.6718    9518.3463    9906.7361    244.29585    166.82452    101.48988   -6080.7911 
  883000    277.62115   -9065.8906   -8007.4722   -9065.8906            0    8388.9293    24.845147    24.961298     23.14214    14351.994    9492.2191    7348.7142    8325.8547    783.38673   -56.379926   -1246.6651   -6251.5928 
  884000    271.86395   -9089.5153    -8053.046   -9089.5153            0    8849.0513    25.036361    24.957336    22.902103    14310.171    7586.1194       9540.1    9420.9347    258.08604   -964.91005   -309.63922   -6206.2564 
  885000    270.82094   -9084.6755   -8052.1826   -9084.6755            0    10420.193    24.906167    24.906778    22.979687    14255.044    10821.596    10155.656    10283.328   -486.82334   -502.21349   -71.535474   -5885.8745 
  886000    284.00492   -9083.0013    -8000.245   -9083.0013            0    9097.1801    24.898984    24.964936    23.057015    14332.276    9494.2331    9364.6487    8432.6584   -943.27861    462.98744    23.428973   -6098.7384 
  887000    269.64992   -9053.1873   -8025.1589   -9053.1873            0    9789.9869    25.009586    25.005306    22.852408    14291.264     8288.184    9968.5896    11113.187    66.158179    547.96235    223.63843   -5984.6962 
  888000    271.06932   -9029.8227   -7996.3829   -9029.8227            0    10599.967    24.805323    24.911045    23.096258    14271.791    10958.231    11207.108    9634.5608    670.12245    -178.5587    717.02015   -5790.1118 
  889000    275.82633   -9081.0734   -8029.4976   -9081.0734            0    11280.366    24.840159    24.963192    22.944307    14227.528    12070.795    10038.471    11731.831    168.16571   -705.08401     -560.017   -5688.8905 
  890000     284.9926   -9064.3172   -7977.7955   -9064.3172            0    10961.627    24.805602    25.060799    22.876812    14221.329     11866.64    9466.3599    11551.879    118.84534    1051.5399    1174.1654   -5704.3157 
  891000    272.55977   -9070.5575   -8031.4354   -9070.5575            0    9175.8448    24.830115     25.05026    23.002504    14307.577    9215.3431    8439.1776    9873.0136    472.27401   -325.13862    187.20993   -6116.7914 
  892000    265.11756     -9048.29   -8037.5409     -9048.29            0     10042.45    24.865545    24.965258    23.028554    14295.545    8980.9226    10563.644    10582.782   -614.59725   -814.61168    825.18187   -5943.8322 
  893000    267.72889   -9019.7328   -7999.0282   -9019.7328            0    8787.7873    25.024649    24.975093    22.967828     14354.73    7269.9643    10622.807    8470.5902   -150.49497    156.09626   -141.96241   -6159.3135 
  894000    267.67101   -9025.9151   -8005.4311   -9025.9151            0    9499.3605    24.990098    24.913688     23.03798    14343.343    8707.8687    10400.104    9390.1089    190.49178     571.5417   -266.69111   -6018.3269 
  895000    272.16803   -8967.2314   -7929.6028   -8967.2314            0    9328.9891    25.040912    24.734278    23.196987    14367.492    8903.7986    10364.999    8718.1699    228.31762    199.01514    -651.3841   -5974.8518 
  896000    281.57115    -9086.931   -8013.4534    -9086.931            0     9652.463    25.010314    24.989785    22.905549    14316.023    9795.9449    8396.9384    10764.506   -37.703967   -525.26027   -214.09184   -5998.1687 
  897000    272.93666   -9050.7767   -8010.2177   -9050.7767            0    11186.712    24.911088    24.943788    22.930488    14248.475    11187.985    10773.568    11598.582    1338.5896    314.31832    186.54291   -5685.6257 
  898000     272.5576   -9069.7914   -8030.6775   -9069.7914            0    10858.234     24.78528    24.830538    23.116157    14226.419    11945.095    11429.622    9199.9837      636.181    -257.8303    666.07509   -5777.8358 
  899000    273.29964   -9028.7742   -7986.8313   -9028.7742            0    10305.931    24.909258    25.018656    22.921986    14284.894    10907.804    9271.9765    10738.011    558.50705   -210.93047    560.06636   -5839.7913 
  900000    274.53345   -9058.7134   -8012.0667   -9058.7134            0    10400.464    24.825391     24.89225     23.10431    14277.535    9785.2475    11597.183    9818.9627    1370.6125     369.0612   -586.24749   -5846.4486 
  901000    278.14475   -9035.7953   -7975.3807   -9035.7953            0    10112.815     24.94258    25.053419    22.832116    14267.719    9568.2548    10510.122    10260.067    998.33106   -237.24447    997.40528   -5871.1057 
  902000    267.86783   -9045.3251   -8024.0907   -9045.3251            0    8764.7688    24.915879    24.991648    23.034719    14343.463    9574.1503    8954.6532    7765.5029     804.1669    32.498264    696.15123   -6190.6353 
  903000    279.05416   -9052.2009   -7988.3192   -9052.2009            0    9144.4388    24.942523    24.837486     23.16463     14350.71    9699.3882    8997.1118    8736.8165   -529.70546   -1068.3461   -677.25295    -6074.476 
  904000     267.0855   -9052.8895   -8034.6378   -9052.8895            0    9604.9464    25.005497    24.965584    22.876198     14281.08    8690.7119    10568.678    9555.4491    290.67527   -1177.8342    1032.7462   -6034.1685 
  905000    272.11594   -9048.9818   -8011.5518   -9048.9818            0    9658.0321    24.939602    24.812578    23.137861    14318.075    8366.6681    12186.921    8420.5072    589.86705   -409.36343   -182.12354   -5994.8153 
  906000    260.16595   -9082.0832   -8090.2119   -9082.0832            0    10945.947    24.977602    24.857686    22.890478    14212.363    9911.3081    12642.854    10283.678    350.14008   -698.19713   -38.391606   -5821.4156 
  907000     273.3743   -9048.8702   -8006.6427   -9048.8702            0    9833.4086     25.06443    24.894154    22.907432    14293.271     9233.618    10648.023     9618.585    641.18736    560.64792    424.74538   -5956.8422 
  908000    275.98331    -9048.585   -7996.4108    -9048.585            0    9915.6208    24.975371    24.864321    23.016322    14293.036    10311.182    9875.2896    9560.3911   -188.39568   -3.9715438   -969.89468   -5929.5069 
  909000     279.3171   -9037.2866   -7972.4024   -9037.2866            0    10579.224    24.994947    24.988818     22.84846    14271.015    9761.7128    10360.523    11615.437   -1322.5307    696.40009    657.76896   -5770.5684 
  910000    269.22259   -9026.2887   -7999.8894   -9026.2887            0    11393.777    24.811262    24.980223    22.972398    14238.082    11240.355    10920.524    12020.451   -60.021302   -1057.3718    338.72329   -5633.9964 
  911000    271.05202    -9071.955   -8038.5811    -9071.955            0    11214.383    24.853917    25.008513    22.843033    14198.305    12124.576    10040.034     11478.54     218.3175   -775.79265   -465.58891   -5716.4445 
  912000    277.19189   -9061.9028   -8005.1209   -9061.9028            0    9446.1504    24.886565    24.946333    23.035723    14301.234    10276.363    9324.5637    8737.5244   -804.78892     655.1746   -548.23159   -6034.9484 
  913000    272.42649   -9030.2139   -7991.5999   -9030.2139            0    8734.8461    25.080724    24.848845    23.058201    14370.494    7565.6156    9244.3548    9394.5678    170.27225    571.64396    981.17931   -6160.9603 
  914000    269.49928   -9048.7062    -8021.252   -9048.7062            0    10221.576    25.042622    24.911486    22.878753    14272.885    9420.1162    10820.944    10423.668   -1374.1698   -94.393605   -344.36006   -5893.5759 
  915000    267.15705   -9018.2942   -7999.7697   -9018.2942            0    9593.1011    25.054855    24.764858     23.04976    14301.913    8229.1067    12452.175    8098.0218   -309.04394   -1044.6471   -178.64071   -5998.8528 
  916000     287.7564   -9063.1584   -7966.0998   -9063.1584            0    9714.6904    25.044769    24.825663     23.03765    14323.728    7869.8502    11535.029    9739.1918    552.43836    118.22786   -418.82049   -5936.7313 
  917000    262.24774   -9070.8303   -8071.0224   -9070.8303            0    9207.4439       24.983    24.984151    22.908239    14298.842    8910.9366    8957.0189    9754.3761    79.749643    43.119947     937.9605   -6150.9577 
  918000    284.48784   -9041.7843   -7957.1869   -9041.7843            0    8451.3184    24.885826     24.99301     23.14031    14392.618    8022.9526         8709    8622.0025    142.49928    429.85315    876.93659   -6183.2419 
  919000    269.32518   -9024.5882   -7997.7978   -9024.5882            0    10456.505    24.977382    24.972698    22.888235    14276.597     9848.062    10880.805    10640.649     508.1415    1119.7903    23.848922   -5820.6538 
  920000    271.37959   -9033.8457   -7999.2229   -9033.8457            0    12501.312    24.901857    24.929298    22.868534    14196.462    12693.831    12186.431    12623.675   -826.13211   -449.59101   -301.14003   -5410.9408 
  921000    276.76195   -9056.3711   -8001.2283   -9056.3711            0    11582.456    24.898667    24.812174     22.97658    14194.703     11681.02     11152.19    11914.159   -541.59201    543.51911    -595.6506   -5603.4841 
  922000    273.89869    -9036.869   -7992.6422    -9036.869            0    11809.251      24.9309    24.954458    22.777228    14170.558    10951.707    11603.156    12872.888   -421.80044   -184.23588   -717.09848   -5552.1064 
  923000     278.7236   -9057.2544   -7994.6329   -9057.2544            0    10508.931    24.891808    24.982885    22.903646    14243.072    10717.191    10130.542     10679.06   -38.013753    181.69065   -1643.0942   -5811.7115 
  924000    270.49356    -9045.154   -8013.9092    -9045.154            0    11272.528    24.711675    24.888992    23.147586    14236.892    13504.761    11134.201    9178.6212   -399.84384   -476.83336   -362.10147    -5673.389 
  925000    274.06633   -9050.0244   -8005.1585   -9050.0244            0    9742.2365    24.982006    24.965222     22.89791    14280.999    9449.8669    9972.1756     9804.667   -708.41864    193.39765   -184.67509   -5976.1067 
  926000    277.25895   -9071.7258   -8014.6882   -9071.7258            0    10788.807    24.940359    24.862502    22.974325    14245.913    10848.818    11418.511    10099.093   -277.07546    336.76903    82.086313   -5773.1837 
  927000    276.65044   -9050.5325   -7995.8149   -9050.5325            0    9660.4911    24.903375    24.862816    23.167382    14344.502    9803.3834    10551.693    8626.3963   -276.93064    106.28243    597.04341   -5974.8416 
  928000    259.85536   -9000.5813   -8009.8942   -9000.5813            0    9916.8318     25.05615     25.01629    22.876923    14339.528    9465.4247    9592.3547    10692.716    346.00452   -1068.3615   -278.73927   -5936.0139 
  929000    273.58771   -9061.4082    -8018.367   -9061.4082            0    8689.7301    24.859915    25.007638    23.083465    14350.708    9417.7509    9202.0124    7449.4269   -697.37742   -61.642161    750.97872   -6199.6904 
  930000    266.16225   -9048.5373   -8033.8055   -9048.5373            0    9706.5596    24.929208    24.981583    22.979319    14310.855    10169.872    9626.3569    9323.4502   -729.04265   -487.71992    915.08448   -6007.9577 
  931000    276.08034   -9063.4965   -8010.9524   -9063.4965            0    8873.7853    25.013004    25.009626    22.934261    14346.891    8913.6815    8837.2573    8870.4171   -345.54955    271.98436    -227.6602   -6154.2487 
  932000    281.07781   -9036.8876   -7965.2908   -9036.8876            0    9823.5061    24.919013    24.880264    23.061521     14297.95    9903.6354    10731.484    8835.3986   -11.658348    889.12634    290.08773   -5916.8842 
  933000    280.95368   -9072.6598   -8001.5362   -9072.6598            0    9305.0547    25.066723    24.954248    22.829727    14280.479    8492.2601    8601.4902    10821.414    46.956926   -185.40522    992.57152   -6063.6084 
  934000    276.05312   -9023.5704   -7971.1301   -9023.5704            0    12064.011    24.950371    24.756949    23.019178    14218.832    12324.727    12638.564    11228.742   -1426.4518   -340.29962    210.69956   -5469.4513 
  935000    282.92068   -9015.2457    -7936.623   -9015.2457            0    10583.519    24.935476    24.874911    22.991508    14260.891    9703.4879    11205.234    10841.836    478.93963   -1265.1102    479.04622   -5735.4577 
  936000    286.38658   -9039.5962     -7947.76   -9039.5962            0    9048.6254    25.028643    24.879211     23.04201    14348.095    8627.2569     9625.141    8893.4784    968.28681    922.70693    52.908521   -6054.3147 
  937000    276.44397   -9121.2304   -8067.2999   -9121.2304            0    9469.0109    24.915888    24.975407    22.963463    14289.806    10440.565    9346.1434     8620.324    1193.8525    -152.8506   -400.35313   -6093.9375 
  938000     276.0438   -9015.3279   -7962.9231   -9015.3279            0     9669.188    24.918706    25.163438    22.885498     14350.13    9347.2321    7888.0611    11772.271   -410.00751   -39.517431    -345.7886   -5939.3368 
  939000    264.70385   -9072.3223   -8063.1505   -9072.3223            0    10248.012    24.859104    24.942914    23.038303    14285.095    11399.295    9481.1698    9863.5695    99.767905   -401.49564    589.38077   -5928.1468 
  940000    280.66529   -9023.6984   -7953.6743   -9023.6984            0    9837.5517    24.925389    25.142191    22.850639    14320.013    9735.4753    9158.6915    10618.488    175.29756    467.69368   -535.90936   -5899.1735 
  941000    278.52727   -9046.1147   -7984.2417   -9046.1147            0    10209.893    24.836459    24.940097     23.06295    14285.738    12062.887     9366.456    9200.3354   -903.26904    78.849044   -144.59622   -5857.0836 
  942000    283.08521   -9046.6084   -7967.3584   -9046.6084            0    9821.7178    24.995561    25.039391    22.832296    14290.132    8819.9753    10403.743    10241.435    -30.23025   -271.00653    152.76133   -5920.4445 
  943000     272.5468   -9038.9075   -7999.8348   -9038.9075            0    9643.2885    24.987616    24.910688    22.994318    14313.013    7724.5791    10569.728    10635.558   -651.30438    905.03823   -59.484386   -5986.8888 
  944000     274.3888   -9060.6257   -8014.5305   -9060.6257            0    8000.5731    25.086981    24.930456     23.00784    14389.791    7928.7529    9239.8113    6833.1553    519.02751   -202.97436    856.17199   -6335.5275 
  945000     273.2398   -9032.1505   -7990.4358   -9032.1505            0    10022.817    25.056955    24.811735    22.968747     14279.82    9248.7811    10977.054    9842.6157   -821.79614    -198.4807    862.17228   -5903.1187 
  946000    278.89684    -9030.638   -7967.3561    -9030.638            0     10658.51     25.03694     24.88045    22.957582    14300.974    10534.725    10560.458    10880.348   -632.17364   -817.81761    -366.0102   -5744.3634 
  947000    262.38334   -9005.5287   -8005.2038   -9005.5287            0    8118.8795     25.14567    24.944617    22.924559    14379.409    8646.9418    8561.5907    7148.1059    314.73123    153.12668    59.357263   -6302.6023 
  948000    280.99787   -9049.4401   -7978.1481   -9049.4401            0    9815.6234    24.950731    24.876482    23.025481    14291.603    10188.185    10268.525    8990.1597   -176.85658    7.8708873   -932.88382   -5932.2936 
  949000    275.76557   -9019.9293   -7968.5851   -9019.9293            0    8743.0188    25.061717    24.933824    23.043476     14399.51      8442.94    9680.6854    8105.4311    292.03075    131.57507    296.79706    -6132.533 
  950000    274.21387   -9043.2172   -7997.7889   -9043.2172            0    9836.5658    25.011695    24.927892    22.888609    14270.792     10589.42    9398.9896     9521.288    278.36722    492.11726    76.179097   -5950.5549 
  951000    284.79709    -9034.175   -7948.3986    -9034.175            0    11148.723    24.834032    24.966911    23.027533    14277.739    12398.268    10623.709    10424.191    203.54337   -738.17433   -472.41247   -5626.9427 
  952000    270.07969   -9029.7469     -8000.08   -9029.7469            0    10448.381    25.068612    25.026241    22.757219    14277.267    9823.5651    10050.905    11470.674    22.814933    868.86399    973.98513   -5824.5253 
  953000    272.14614   -9092.4621   -8054.9169   -9092.4621            0    10552.213    24.923788    24.876742     23.02765    14277.664    10579.403    11324.872    9752.3637    546.60305    -239.8579   -847.46093   -5857.6815 
  954000    276.31799   -9040.1539   -7986.7037   -9040.1539            0    9897.7266    24.918431    24.948335    23.035181    14320.358     9999.945    9662.1718    10031.063    137.11621   -430.76671     1047.869   -5919.5859 
  955000    274.93273    -9081.195    -8033.026    -9081.195            0    9868.1717    24.995206    25.087101    22.754039    14268.086    9271.8505    9243.1616    11089.503    608.15475   -800.66695    135.85383   -5979.6036 
  956000    264.52257   -9095.4253   -8086.9447   -9095.4253            0    9158.9819    24.822703    24.911192    23.097798    14282.826    10141.311     9430.326    7905.3089    561.42942     275.7448    183.13484   -6179.1254 
  957000    274.73502     -9041.85   -7994.4348     -9041.85            0    10970.672    25.035838    24.924476    22.835161    14249.258    8841.2428    11858.416    12212.357    597.98864   -441.71826   -384.83779   -5714.6106 
  958000    270.78764   -9026.3759   -7994.0099   -9026.3759            0    10218.575    25.023211    24.966968    22.885932    14298.071    9848.4076    9640.2696    11167.048   -613.83695   -334.74973   -149.90624    -5863.205 
  959000    268.28665   -8987.1579   -7964.3269   -8987.1579            0    9551.0898    24.884545    24.920532    23.167871    14367.233    10318.928    9293.0602    9041.2815    450.83319   -515.12558    99.392749   -5963.0741 
  960000    276.35272   -9030.0088   -7976.4262   -9030.0088            0    10391.765    24.765769    25.065042    23.045135    14305.384    11222.313    9393.5255    10559.456    940.34605   -1026.4333    -49.05947   -5808.3991 
  961000     281.0532   -9044.2578   -7972.7549   -9044.2578            0    9764.7586    24.999201    24.993361     22.89798     14306.98    9931.7555    8981.1403     10381.38    884.68569   -93.177639   -1586.3629   -5935.3124 
  962000    270.24601   -9046.6714   -8016.3704   -9046.6714            0    9711.8804    24.915609    24.791336    23.177656    14316.635    9631.5868    10449.365    9054.6892    106.92002    939.21324    109.74619   -5988.5935 
  963000    276.39739   -9059.5049    -8005.752   -9059.5049            0     10705.66    25.018206    24.893061    22.853709    14232.827    9182.6186    11401.096    11533.264    -448.4395   -561.73943    943.89245   -5783.5655 
  964000    284.39361    -9054.886   -7970.6479    -9054.886            0    10916.026    24.890224    24.839521    23.014908    14229.225    10164.533    10899.509    11684.037   -659.26041   -1104.8602     586.0058   -5705.3688 
  965000    269.76882   -9040.5609   -8012.0792   -9040.5609            0    12025.718    24.936078    24.793737    22.980264    14207.745    11393.669    13035.712    11647.774    129.38787     81.29544    674.23012   -5520.2855 
  966000    268.92581   -9059.1272   -8033.8594   -9059.1272            0    10348.063    24.986671    24.934589    22.858464    14241.563    9059.4002      10609.4    11375.389    118.89883   -615.26296    235.80498   -5884.5813 
  967000    283.12055   -9053.9763   -7974.5916   -9053.9763            0    10908.942    24.827655    24.808105    23.127371    14244.775     11306.43    11211.771    10208.625    1592.3979   -584.52693    858.91985   -5708.3088 
  968000    277.46054    -9048.231   -7990.4249    -9048.231            0    11446.351    24.950084     24.90076    22.928309    14244.809    11052.211    11830.028    11456.814   -373.41651    122.44743    568.75549    -5612.492 
  969000    273.72332   -9074.6682   -8031.1101   -9074.6682            0    10877.707    25.028112    24.858019    22.908516    14252.517    10373.399     11848.54    10411.182   -339.44716   -486.96095    238.13116    -5770.088 
  970000    268.68085   -9040.4467   -8016.1128   -9040.4467            0    9526.1289    25.017641    24.856069    23.025239    14318.019     8693.871    10141.797    9742.7184    5.8874734   -1141.1306   -487.94365   -6026.9274 
  971000     274.0915   -9041.2222   -7996.2604   -9041.2222            0    9985.0802    24.947011    24.946846    22.941016    14277.324    9778.7116    10246.692    9929.8368   -812.31382   -108.73261    116.85666   -5917.1658 
  972000    273.62273   -9053.6568   -8010.4822   -9053.6568            0    12808.526    24.756712    24.864554    23.003339    14160.042    12782.644    12417.168    13225.766   -65.501011   -989.92104    614.73524   -5365.3976 
  973000    280.56008    -9062.359    -7992.736    -9062.359            0    11471.458    24.861611    25.005896    22.855386    14208.893     11259.93    10463.271    12691.172    246.56871    1109.8675    939.16937   -5615.5962 
  974000    280.36356   -8977.9152   -7909.0414   -8977.9152            0    11883.151    24.869011    24.936263    22.964726     14241.35    11574.559    13398.311    10676.582   -157.80216    976.62639   -51.892675   -5440.9648 
  975000    272.11387    -9041.685   -8004.2628    -9041.685            0    10234.498    24.877428    24.887952    23.045701    14268.705    10391.652    10778.743    9533.1004   -477.22205   -209.60961   -1474.9043   -5874.5208 
  976000    274.70722   -9048.9648   -8001.6556   -9048.9648            0    10748.343     24.93259    24.975354    22.903082    14261.755    11132.179    10324.904    10787.945     381.5189    480.43034   -1517.7952   -5766.0747 
  977000    268.67973   -8995.7841   -7971.4544   -8995.7841            0    8176.7102    25.185018    24.876508    22.950486    14378.831    6268.5827    9898.0466    8363.5014    1262.4336   -321.39866   -92.003086   -6256.7941 
  978000    279.58679   -9045.0008   -7979.0885   -9045.0008            0    9483.3936    24.993607    24.895075    23.061641    14349.362    8827.6391    11114.229    8508.3124    833.87061     1050.255     110.5236   -5994.4919 
  979000     267.4485   -9045.9021   -8026.2664   -9045.9021            0    9841.1488    25.071457    24.873481    22.930023    14299.493    7885.6509    11493.648    10144.147   -1230.2813    111.50465    619.55282   -5973.9595 
  980000    263.55541   -8972.2664    -7967.473   -8972.2664            0    10525.489    24.883974    25.072325    22.924015    14302.271    11173.725    9181.0607    11221.682    51.269079     55.38924   -719.58854   -5772.0248 
  981000    281.67049   -9034.5773   -7960.7209   -9034.5773            0    9235.5504    24.811787    25.043447    23.116275    14363.821    10842.523    8477.8284    8386.3002    707.60572    31.687343   -118.00676    -6026.043 
  982000    277.85354   -9035.8249   -7976.5205   -9035.8249            0    10217.166    24.904844    25.016816    22.940643    14292.936    10624.474    9951.3421    10075.681    335.58964   -1129.6429     876.9581   -5846.7746 
  983000    282.81349   -9049.2553   -7971.0413   -9049.2553            0     10727.93    24.969965    24.994292    22.844446     14257.37    9850.0022    10657.331    11676.458    164.68853     64.03331    -123.0752   -5740.3923 
  984000    280.71367   -9037.4707   -7967.2622   -9037.4707            0    10420.088    24.992022    24.870219     22.95144     14265.63    10618.038    10441.476    10200.752   -878.36638   -10.697194    703.09948   -5799.3672 
  985000    276.13238   -9086.7748   -8034.0323   -9086.7748            0    9648.5613    25.013542    24.776683    23.038228    14278.001    8321.2704     11288.81    9335.6033   -427.04751   -1385.6677     -366.174   -6024.9123 
  986000    279.83241   -9037.7963   -7970.9475   -9037.7963            0    10582.833     24.93933    24.891599    22.925614    14231.758    9746.9937    11515.231    10486.276   -546.28071    -1125.269    379.28806   -5774.4213 
  987000    280.27122   -9081.9427    -8013.421   -9081.9427            0    10459.724    24.804085    24.916195    23.079174     14263.47    10789.173    11467.094    9122.9045    -150.1878    727.92436    120.57464   -5837.6094 
  988000    278.92622   -8997.6959   -7934.3019   -8997.6959            0    10729.293    24.899074    24.999423    22.952728    14287.212    11836.042    8955.2635    11396.572     -418.149    104.41673     47.52489      -5698.7 
  989000    274.98436   -9046.1084   -7997.7426   -9046.1084            0    9643.9871     24.84902    25.066646    22.982884    14315.615    10477.117    8384.3018    10070.543   -444.67931    192.68026     13.50382   -5984.2848 
  990000    281.26902   -9021.7578    -7949.432   -9021.7578            0    10083.024    24.992706    24.919115     22.94946    14292.835    9415.7724    10810.162    10023.137   -61.930037    41.583457    954.17419   -5847.6626 
  991000    280.18796   -9044.2768   -7976.0725   -9044.2768            0     10916.38    25.046535    24.904614     22.88296    14273.802    9499.5062    11554.138    11695.496    1241.9707    -323.0013   -583.57999   -5703.6232 
  992000    283.96386   -9038.6083   -7956.0086   -9038.6083            0     11866.53    24.929744    24.780645    22.979366    14196.081    11938.466    12444.965    11216.159   -873.11656    661.89721   -585.64616   -5499.2182 
  993000    273.10109   -9040.4525   -7999.2666   -9040.4525            0    10331.447    24.944809    24.962025    22.912346    14266.898    9669.9083    11383.526     9940.906    -179.5783    196.00101   -981.47799   -5849.6224 
  994000     274.4965   -9076.1763   -8029.6705   -9076.1763            0    9418.4725     24.90613    24.913351    23.139875     14358.18    9530.1032    9282.4574     9442.857   -968.81132    -651.5755   -1307.8793   -6057.4487 
  995000    270.47972   -9012.9572   -7981.7652   -9012.9572            0    10577.469    24.942228    24.971182     22.96597    14304.054    10393.478    9972.0426    11366.885      79.2132   -887.41543    357.09534   -5775.1999 
  996000    270.36519   -9053.0017   -8022.2463   -9053.0017            0    10070.814    25.038644    24.983276    22.843551    14289.723    9112.0154    9794.7515    11305.676   -313.84772   -104.50134   -131.16085    -5923.479 
  997000     274.3298   -8985.3379   -7939.4676   -8985.3379            0    10513.987    24.833688    24.836618    23.166823    14288.945    12173.443    10947.694    8420.8251   -681.48219    1698.5331   -160.14558    -5748.462 
  998000    270.36375   -9070.7885   -8040.0386   -9070.7885            0      10072.2    25.107255    24.895214    22.837456    14274.563    8646.2853    10442.111    11128.205    413.35882    445.20372    706.61098   -5943.2093 
  999000    267.52552   -9071.7901   -8051.8608   -9071.7901            0    10170.198    24.959929    24.848358    23.004121    14267.461    10287.597    10439.116    9783.8819   -75.784243   -756.28502    12.113506   -5935.6837 
 1000000    281.31734   -9031.8286   -7959.3186   -9031.8286            0    10308.213    24.937011    24.927877    22.998122    14296.248    10812.892     10038.97    10072.778   -220.88598   -755.30301   -527.42654   -5810.0962 
Loop time of 568.019 on 64 procs for 250000 steps with 1920 atoms

Performance: 76.054 ns/day, 0.316 hours/ns, 440.126 timesteps/s
99.2% CPU use with 64 MPI tasks x 1 OpenMP threads

MPI task timing breakdown:
Section |  min time  |  avg time  |  max time  |%varavg| %total
---------------------------------------------------------------
Pair    | 61.85      | 63.892     | 65.946     |  12.4 | 11.25
Bond    | 0.27227    | 0.28053    | 0.28935    |   0.8 |  0.05
Kspace  | 237.59     | 249.97     | 262.46     |  36.8 | 44.01
Neigh   | 6.0789     | 7.426      | 8.6414     |  23.9 |  1.31
Comm    | 103.82     | 116.99     | 134.87     |  59.8 | 20.60
Output  | 1.0473     | 1.0479     | 1.0495     |   0.1 |  0.18
Modify  | 114.35     | 121.25     | 125.91     |  27.2 | 21.35
Other   |            | 7.158      |            |       |  1.26

Nlocal:        30.0000 ave          34 max          26 min
Histogram: 2 6 4 10 0 20 6 11 4 1
Nghost:        2815.88 ave        2846 max        2768 min
Histogram: 1 1 2 7 6 15 13 7 4 8
Neighs:        10626.4 ave       12056 max        8942 min
Histogram: 2 3 3 7 14 13 5 9 7 1

Total # of neighbors = 680090
Ave neighs/atom = 354.21354
Ave special neighs/atom = 2.0000000
Neighbor list builds = 12780
Dangerous builds = 0

unfix		3
unfix		2
unfix		1

write_data	data.final.${pid}
write_data	data.final.0
System init for write_data ...
PPPM initialization ...
  extracting TIP4P info from pair style
  using 12-bit tables for long-range coulomb (../kspace.cpp:340)
  G vector (1/distance) = 0.37444568
  grid = 30 30 30
  stencil order = 5
  estimated absolute RMS force accuracy = 0.0032719119
  estimated relative force accuracy = 9.8532656e-06
  using double precision FFTW3
  3d grid and FFT values/proc = 3600 512
Last active /omp style is kspace_style pppm/tip4p/omp
WARNING: Not all mixed pair coeffs generated from mixing. Use write_data with 'pair ij' option to store all pair coeffs. (../write_data.cpp:312)

write_restart   restart.lmp.${pid}
write_restart   restart.lmp.0
System init for write_restart ...
PPPM initialization ...
  extracting TIP4P info from pair style
  using 12-bit tables for long-range coulomb (../kspace.cpp:340)
  G vector (1/distance) = 0.37444568
  grid = 30 30 30
  stencil order = 5
  estimated absolute RMS force accuracy = 0.0032719119
  estimated relative force accuracy = 9.8532656e-06
  using double precision FFTW3
  3d grid and FFT values/proc = 3600 512
Last active /omp style is kspace_style pppm/tip4p/omp
Total wall time: 0:09:30
