LAMMPS (30 Jul 2021)
Processor partition = 0
  using 2 OpenMP thread(s) per MPI task
using multi-threaded neighbor list subroutines
variable        pid world 0 1
variable        phase world IceIh Liquid

shell cd ${phase}
shell cd IceIh
include Restart.lmp
echo both
log log.lammps
#include		in.partitions
include		in.temp
variable        temperature equal 202.00
variable	tempDamp equal 100.0
include		in.pressure
variable        pressure equal 3546.9
variable        pressureDamp equal 1000.0 # This is 1 ps
include		in.seed
variable        seed equal 745823

units		real
atom_style	full
#include		in.box
read_restart	restart.lmp.${pid}
read_restart	restart.lmp.0
Reading restart file ...
  restart file = 30 Jul 2021, LAMMPS = 30 Jul 2021
  restoring atom style full from restart
  orthogonal box = (0.21662668 0.10373434 -0.0056370371) to (17.990946 23.525443 22.218833)
  2 by 4 by 4 MPI processor grid
  restoring pair style lj/cut/tip4p/long/omp from restart
  restoring bond style harmonic/omp from restart
  restoring angle style harmonic/omp from restart
  864 atoms
  576 bonds
  288 angles
Finding 1-2 1-3 1-4 neighbors ...
  special bond factors lj:    0        0        0       
  special bond factors coul:  0        0        0       
     2 = max # of 1-2 neighbors
     1 = max # of 1-3 neighbors
     1 = max # of 1-4 neighbors
     2 = max # of special neighbors
  special bonds CPU = 0.002 seconds
  read_restart CPU = 0.006 seconds
include 	in.setup
variable	out_freq equal 1000
variable	out_freq2 equal 10000
variable	out_freq3 equal 1000

timestep	2.0

neigh_modify    delay 7 every 1

include		in.tip4p
# This is TIP4P/Ice

# create groups ###
group ox type 2
288 atoms in group ox
group hy type 1
576 atoms in group hy

# set charges - beside manually ###
set group ox charge -1.1794
Setting atom values ...
  288 settings made for charge
set group hy charge 0.5897
Setting atom values ...
  576 settings made for charge

# ### TIP3P Potential Parameters ###
pair_style lj/cut/tip4p/long/omp 2 1 1 1 0.1577 8.5
pair_coeff 1 1*2 0.000 0.000
pair_coeff 2 2 0.21084 3.1668
bond_style  harmonic
bond_coeff  1 450 0.9572
angle_style harmonic
angle_coeff 1 55 104.52
kspace_style pppm/tip4p/omp 1.0e-5
pair_modify tail yes

thermo          ${out_freq}
thermo          1000
thermo_style    custom step temp pe etotal epair emol press lx ly lz vol pxx pyy pzz pxy pxz pyz enthalpy

restart 	${out_freq3} restart.lmp.${pid} restart2.lmp.${pid}
restart 	1000 restart.lmp.${pid} restart2.lmp.${pid}
restart 	1000 restart.lmp.0 restart2.lmp.${pid}
restart 	1000 restart.lmp.0 restart2.lmp.0


include         in.dump
dump            myDump all atom ${out_freq2} dump.water.${pid}
dump            myDump all atom 10000 dump.water.${pid}
dump            myDump all atom 10000 dump.water.0
dump            myDump2 all dcd ${out_freq2} dump.dcd
dump            myDump2 all dcd 10000 dump.dcd
dump_modify     myDump append yes
dump_modify     myDump2 append yes


variable natoms 	equal  "count(all)"                        # NUMBER ATOMS
variable H      	equal  "enthalpy/v_natoms"                 # ENTHALPY-per-atom
variable Vol      	equal  "vol/v_natoms"                 # volume-per-atom
fix AVG all 		ave/time ${out_freq} 1 ${out_freq} v_Vol v_H file vol_enthalpy.dat
fix AVG all 		ave/time 1000 1 ${out_freq} v_Vol v_H file vol_enthalpy.dat
fix AVG all 		ave/time 1000 1 1000 v_Vol v_H file vol_enthalpy.dat


timer           timeout 23:50:00 every 1000
New timer settings: style=normal  mode=nosync  timeout=23:50:00

fix 		1 all shake 1e-6 200 0 b 1 a 1
Finding SHAKE clusters ...
       0 = # of size 2 clusters
       0 = # of size 3 clusters
       0 = # of size 4 clusters
     288 = # of frozen angles
  find clusters CPU = 0.001 seconds
fix             2 all nph aniso ${pressure} ${pressure} ${pressureDamp}
fix             2 all nph aniso 3546.9 ${pressure} ${pressureDamp}
fix             2 all nph aniso 3546.9 3546.9 ${pressureDamp}
fix             2 all nph aniso 3546.9 3546.9 1000
fix             3 all temp/csvr ${temperature} ${temperature} ${tempDamp} ${seed}
fix             3 all temp/csvr 202 ${temperature} ${tempDamp} ${seed}
fix             3 all temp/csvr 202 202 ${tempDamp} ${seed}
fix             3 all temp/csvr 202 202 100 ${seed}
fix             3 all temp/csvr 202 202 100 745823


run             250000
PPPM initialization ...
  extracting TIP4P info from pair style
  using 12-bit tables for long-range coulomb (../kspace.cpp:340)
  G vector (1/distance) = 0.37149015
  grid = 24 27 25
  stencil order = 5
  estimated absolute RMS force accuracy = 0.0031990203
  estimated relative force accuracy = 9.6337545e-06
  using double precision FFTW3
  3d grid and FFT values/proc = 4410 672
Last active /omp style is kspace_style pppm/tip4p/omp
Neighbor list info ...
  update every 1 steps, delay 7 steps, check yes
  max neighbors/atom: 2000, page size: 100000
  master list distance cutoff = 10.8154
  ghost atom cutoff = 10.8154
  binsize = 5.4077, bins = 4 5 5
  1 neighbor lists, perpetual/occasional/extra = 1 0 0
  (1) pair lj/cut/tip4p/long/omp, perpetual
      attributes: half, newton on, omp
      pair build: half/bin/newton/omp
      stencil: half/bin/3d
      bin: standard
Setting up Verlet run ...
  Unit style    : real
  Current step  : 13500000
  Time step     : 2
  Walltime left : 23:49:59.94
Per MPI rank memory allocation (min/avg/max) = 10.19 | 10.20 | 10.22 Mbytes
Step Temp PotEng TotEng E_pair E_mol Press Lx Ly Lz Volume Pxx Pyy Pzz Pxy Pxz Pyz Enthalpy 
13500000    204.42709   -4327.9836   -3977.6026   -4327.9836            0    2947.9588    17.774319    23.421709     22.22447    9252.1564    4390.8276    2807.5575    1645.4914    1069.4596   -174.08335    308.70577    -3579.825 
13501000     201.1968   -4362.6674    -4017.823   -4362.6674            0    1522.1136     17.99761    23.433641    21.989775    9274.1771    2488.7469    1303.1734    774.42051    610.19776    218.58016   -319.95666   -3811.9505 
13502000    199.24296   -4351.4509   -4009.9552   -4351.4509            0    4093.5773    17.948724    23.166718    21.981816    9140.3256     3634.216    4618.0924    4028.4234   -385.70646   -446.36436   -564.36949   -3464.2721 
13503000    203.83701   -4365.3623   -4015.9926   -4365.3623            0    4566.7409    18.199719    23.306797     21.52847    9131.8849    4306.4811    2527.8463    6865.8953   -123.55626    357.02197   -855.88838   -3407.7978 
13504000    197.20293   -4379.5116   -4041.5125   -4379.5116            0    4076.8104    17.799874    23.432172    21.864479    9119.4493    5109.6602    2884.6293    4236.1417   -287.03128   -713.99223    824.20745   -3499.3056 
13505000    209.41222   -4369.2713   -4010.3459   -4369.2713            0      2592.09    17.775416     23.61555    21.967563    9221.4611    4197.1533    2561.1417    1017.9751    866.40966   -476.65395    547.10861   -3661.7473 
13506000    195.97846   -4331.9019   -3996.0015   -4331.9019            0    4728.9883    18.115886    23.105992    21.811439    9129.9522    3955.1791    5091.3242    5140.4614   -792.56085    258.62377    20.208645   -3366.3321 
13507000    208.51633   -4367.5871   -4010.1972   -4367.5871            0    3769.5404    17.951486    23.097553    22.024541    9132.1544    3476.7783    3918.7848    3913.0582    202.96905    -1228.996   -22.179243   -3508.1581 
13508000    203.81954   -4347.6203   -3998.2806   -4347.6203            0    2199.7179    18.031168    23.533398    21.745681    9227.4459    1830.6524    1560.2939    3208.2073    621.04407   -943.39466   -173.03219   -3702.2583 
13509000    202.42671   -4335.6358   -3988.6833   -4335.6358            0    2816.7683    17.816117    23.267206    22.176924    9193.0285     2748.967    4464.8939     1236.444   -181.59059   -580.43212    504.41638   -3611.0367 
13510000    202.31686   -4355.5018   -4008.7376   -4355.5018            0      2596.14    17.962863    23.322872    21.959887    9199.9971    2297.1735    4042.4509    1448.7957    460.25815    225.92346   -116.79238   -3660.4069 
13511000    198.42588   -4356.9757   -4016.8806   -4356.9757            0    3542.0675    17.963359     23.54135    21.770137    9206.1933    3134.6465    3366.4213    4125.1348    96.859331    173.15718    680.34731   -3541.3124 
13512000      209.963   -4339.8296   -3979.9602   -4339.8296            0    2105.6865    17.740073    23.356751    22.361969    9265.6919    2918.6821    1205.7763    2192.6011   -913.00507   -190.42305   -134.85212   -3695.4175 
13513000    211.88373   -4350.4472   -3987.2857   -4350.4472            0    3986.2289    18.022887     23.33206    21.755477    9148.4189    2882.6513    4668.5168    4407.5185    689.74784    367.88229   -32.010833   -3455.4418 
13514000    199.21138   -4371.7989   -4030.3574   -4371.7989            0    3910.3925    17.914962     23.21411    22.050752    9170.4644    4735.8393     4097.892    2897.4462    137.07433    94.464009   -553.92852   -3507.3744 
13515000    195.95197   -4342.9775   -4007.1225   -4342.9775            0    3859.8787    18.013106    23.213057    21.843856    9133.7736    3318.0216    4673.8892    3587.7255   -316.70522   -476.26637    562.10394   -3492.9607 
13516000     206.5457   -4366.0396   -4012.0274   -4366.0396            0    3024.1065    17.886835    23.324151    21.922778    9146.0787    3227.4194    3361.1441     2483.756    438.32556   -588.57619     -421.408   -3608.6534 
13517000    199.52278   -4352.1849   -4010.2097   -4352.1849            0    3472.7371    17.891623    23.531355    21.918474    9227.9874    2930.1528    3787.1415    3700.9168    227.01862    -32.16911    730.11888   -3542.8462 
13518000    190.63213   -4364.7196   -4037.9827   -4364.7196            0    2799.0045    18.056704    23.011188    22.120064    9191.0244    1569.4215    3708.1173    3119.4747   -283.59577    35.218008    81.551899   -3662.7995 
13519000    201.90244   -4357.7441   -4011.6903   -4357.7441            0    3001.0967    18.048179    23.153103    21.929259    9163.6093    3149.4177    3821.6791    2032.1933   -62.852529    1252.3865    675.97451   -3610.6182 
13520000    195.37331   -4362.0481   -4027.1849   -4362.0481            0    3681.9911    17.850731    23.339644    21.889891    9119.9786    3227.2271    3418.2525    4400.4936   -782.03684   -394.67333    525.41761   -3537.4597 
13521000    207.68617   -4379.9142   -4023.9472   -4379.9142            0    3060.6939    17.897207     23.58289    21.846037    9220.5099    3163.2167    2624.9183    3393.9466   -324.22073   -37.516821    146.93049   -3612.3705 
13522000    211.75678   -4360.0059   -3997.0621   -4360.0059            0    3196.8701    18.046997    23.018414    22.062712    9165.1428    4224.0458    3019.0428    2347.5217   -212.37033   -207.16803    585.07265    -3569.755 
13523000    195.04827   -4366.8805   -4032.5744   -4366.8805            0    3857.6772    17.848464    23.384738    21.903966     9142.314    3488.4068    4863.4669    3221.1579   -717.59879   -35.627017   -577.21846   -3518.2254 
13524000     212.2479    -4334.363   -3970.5773    -4334.363            0    3234.2468    17.804986    23.398561    21.934329    9138.0838    2496.1772     3055.949    4150.6143   -739.81181     460.4772   -333.77145   -3539.5506 
13525000    198.66531   -4346.0674   -4005.5619   -4346.0674            0    2960.1467    17.992075     23.34706    21.814784    9163.5632     3393.387    2140.9536    3346.0996    402.85982    291.29881   -346.13199   -3609.9644 
13526000    215.20982   -4355.3726   -3986.5104   -4355.3726            0    3775.3164    18.171191     22.91203    21.980551    9151.3578    4787.8956    4976.5442    1561.5095   -368.97021   -175.56461    19.226283   -3482.6447 
13527000    208.44935   -4357.2592   -3999.9842   -4357.2592            0    3029.8859    17.966801    23.506474    21.809739    9211.0409    2724.5244    1343.9309    5021.2026   -74.157877      785.191   -18.379238   -3592.9687 
13528000    198.60201   -4366.7324   -4026.3353   -4366.7324            0    4324.5849    17.816074    23.377521    21.911413    9126.0085    4488.9826    4448.9601    4035.8121   -662.23852    214.79268   -143.70055   -3450.7613 
13529000    198.47108   -4376.9473   -4036.7747   -4376.9473            0    3656.9778    18.123923    23.077826    21.787948     9113.043     2325.585    2799.8364     5845.512   -505.41085    119.90082    1194.7804   -3550.7463 
13530000    220.35713   -4371.6711   -3993.9865   -4371.6711            0    3524.2033    17.977268    23.234266    21.987348    9183.8653    2765.0829    4518.0416    3289.4854   -938.80534   -548.56744   -186.79755   -3521.9644 
13531000    203.91603    -4331.687   -3982.1819    -4331.687            0    3558.9068    17.869157    23.407103     21.90571    9162.3965    3397.4107    2987.3737    4291.9359    210.46986   -238.80909   -601.35457    -3506.626 
13532000    203.88057   -4350.9515   -4001.5072   -4350.9515            0    5004.5499    17.925789    23.397029     21.77362    9132.0784    5450.6103     4739.688    4823.3514    -191.3977    222.62214    217.87424   -3334.9912 
13533000    199.02803   -4345.9915   -4004.8642   -4345.9915            0    4113.3153     17.91039    23.095396    22.041471    9117.4002    5199.7149    3478.5675    3661.6634   -41.535084    156.79798    556.64262   -3457.9252 
13534000    201.89479   -4379.8634   -4033.8227   -4379.8634            0    3007.3358    18.052893    23.389772    21.694812    9160.7007    1565.3346     2824.043    4632.6299    643.35503    411.75154    917.17722   -3632.0443 
13535000    197.66127   -4370.9808   -4032.1961   -4370.9808            0    5187.3575    17.493113    23.439879    22.066483    9048.0624      5015.01    5203.8061    5343.2563   -28.385693   -397.94886    794.32096   -3347.6895 
13536000    203.47248   -4380.9484   -4032.2035   -4380.9484            0    3172.4479     17.97491    23.295909    21.881003     9162.492    3927.5911     4092.857    1496.8956    237.23993    112.95299   -5.1416209   -3608.2835 
13537000    209.61176   -4364.6961   -4005.4288   -4364.6961            0     4300.998     18.03388    22.961297    22.054541    9132.3723    4002.8657    4560.7362     4339.392    146.34573   -879.62485   -107.29043   -3432.5948 
13538000    202.17028   -4361.3798   -4014.8669   -4361.3798            0    4068.7591     17.88297    23.434317    21.955839    9201.1476    4067.6163    4290.4359     3848.225    1817.9358    325.04941    912.94592   -3468.8829 
13539000    199.22315   -4349.5871   -4008.1254   -4349.5871            0    3457.2773    17.779722    23.436767    21.906839    9128.5622    3843.9881    3872.3671    2655.4766     85.76453    144.55482   -89.883346   -3547.8556 
13540000      201.053   -4370.0526   -4025.4547   -4370.0526            0    3205.1057    17.989362    23.138992     22.00008    9157.6588    3299.5974     3569.282    2746.4377   -450.17457    408.88347   -322.33383   -3597.3966 
13541000    199.19243   -4346.9559   -4005.5469   -4346.9559            0    4736.2996    18.052646    23.217349    21.631163    9066.3682    4522.8784    4090.5643     5595.456   -357.45791   -344.79771    347.34387   -3379.2959 
13542000     206.2809   -4372.6348   -4019.0764   -4372.6348            0    3573.6241    17.860047     23.29679    22.012617    9159.0486    4214.9193    3912.5099    2593.4432   -1180.4242    547.61622   -179.90489   -3541.7284 
13543000    211.91835   -4361.3815   -3998.1607   -4361.3815            0    2509.8831    18.021655    23.327599    21.734401    9137.1843     3725.626    1642.6997    2161.3236   -96.342803    209.78984    504.47702   -3663.7026 
13544000    209.87562   -4371.8009   -4012.0813   -4371.8009            0    3000.5079    17.847751    23.231273      22.1448     9181.809    4400.8408    3487.9057    1112.7772    -1085.744   -454.38847   -301.58924   -3610.2915 
13545000    185.75321   -4368.1921   -4049.8175   -4368.1921            0    2971.4135    17.849727    23.369705    21.913447    9141.0376    3183.0652    3227.3434    2503.8318   -590.02908   -458.49132     67.15703   -3653.6905 
13546000    203.69598    -4348.632   -3999.5041    -4348.632            0    2725.6588    18.030224    23.224624     21.98061    9204.2742    3316.2949    1629.7245    3230.9571   -350.03711   -679.90772    269.27665   -3633.6255 
13547000    192.09383   -4355.6922     -4026.45   -4355.6922            0     3241.966    18.042097     23.15037    21.889728    9142.9281    2911.6681    2548.8194    4265.4104    331.09789    280.63265    306.40587   -3594.1655 
13548000    198.37981   -4343.8442   -4003.8279   -4343.8442            0    3612.2041    17.800137    23.528081    21.821747    9139.0148    3912.4432    3133.4083    3790.7609   -1064.8754    169.26281   -369.56282    -3522.382 
13549000    206.17565   -4354.6684   -4001.2904   -4354.6684            0     2917.301    17.811308    23.455141    21.963976    9175.8188    3036.3519     2743.254     2972.297   -737.08206    587.95562   -546.01781   -3610.8974 
13550000    200.18874   -4364.4489   -4021.3323   -4364.4489            0    3578.7422    18.062248    23.270094    21.730483     9133.544    2636.7505    3913.9441     4185.532    280.04137   -89.858662    280.37471   -3544.6317 
13551000    214.95823   -4361.5628   -3993.1318   -4361.5628            0    3067.7364     17.65256    23.301208    22.174526    9120.9582    4056.7598    3293.3439    1853.1056    420.21369   -233.30534    506.37407    -3585.062 
13552000    204.45845   -4366.4781   -4016.0433   -4366.4781            0    2828.0558    18.066284    23.376338    21.712245    9169.5929    2790.0813    2352.4698    3341.6164    606.36065   -886.92823   -227.50326   -3637.8499 
13553000    198.91865   -4364.6084   -4023.6687   -4364.6084            0     4738.047    17.884952    23.047488    22.162199    9135.3298    4911.8557    5424.5906    3877.6947    1315.8976    748.91192    873.45166   -3392.4215 
13554000    201.33575   -4345.2566    -4000.174   -4345.2566            0    3317.8038    17.985937    23.489032    21.799231    9209.5699     3322.624    2698.7173    3932.0701    120.11386   -26.782801    -247.1256   -3554.5527 
13555000    199.86928   -4353.5571    -4010.988   -4353.5571            0    3776.9976    17.707881    23.450175    22.044283    9153.9528    3729.2062    4680.6592    2921.1274   -88.815941    810.13834   -843.10191    -3506.755 
13556000    204.03366   -4328.6428   -3978.9361   -4328.6428            0    5305.8658    17.944336     23.16996    21.828862    9075.7761    6356.9696    5622.6929    3937.9349    275.36976   -1164.8963   -464.36682    -3276.647 
13557000    210.80588    -4375.645   -4014.3309    -4375.645            0    3941.1536    17.976451    23.259906    21.885842    9151.1395    3713.9815    3201.6753    4907.8039   -97.609691   -262.68878   -452.76158   -3488.3446 
13558000    196.53657   -4351.7042   -4014.8473   -4351.7042            0    2935.5856    18.037532    23.304124    21.966865    9233.7473    2909.7389    3518.8156    2378.2024   -1491.9905   -257.73553    607.71974   -3619.5274 
13559000    201.76676   -4361.4775   -4015.6562   -4361.4775            0    2042.2199    17.974438    23.532073    21.906915    9266.0948    880.26733    3076.0004    2170.3919   -204.42322   -137.97931   -861.94237   -3739.6778 
13560000    192.20098   -4371.9952   -4042.5693   -4371.9952            0    2749.7437    18.016575    23.111055    22.125549    9212.6812    4034.7034    2714.5759    1499.9519   -94.806222    261.39889    394.89764   -3673.1206 
13561000    190.16265   -4334.8393    -4008.907   -4334.8393            0    4735.5154    18.172198    23.110421    21.704055    9114.9899    2095.7776    6704.5315     5406.237    164.66242   -562.81567    823.90184   -3379.4018 
13562000    210.34109    -4358.159   -3997.6416    -4358.159            0    4012.0179    17.833835    23.300641    22.023494    9151.6381     3732.181    4512.6121    3791.2606    523.27766     85.92782    90.820637   -3462.1686 
13563000    216.69816   -4352.7827   -3981.3695   -4352.7827            0    3636.3902    17.939311    23.380735    21.793758    9141.0492    2697.1905    3175.7782    5036.2019   -372.18128    491.98429    478.42832    -3496.592 
13564000    202.95718   -4358.0583   -4010.1967   -4358.0583            0     3884.519    17.999554    23.053164    22.101955    9171.1329    3146.4009    4967.1474    3540.0088   -377.29363   -137.91172     475.2677   -3490.6362 
13565000    193.80329   -4372.0742    -4039.902   -4372.0742            0    2131.3847    17.978457     23.45537     21.91652    9242.0074    2040.7017    2196.5999    2156.8526   -37.468787    222.16636   -230.28218   -3752.6229 
13566000    209.27753   -4349.1893   -3990.4948   -4349.1893            0    2875.3846    17.850583    23.532717    21.844402    9176.2373    3779.6922    1568.4926     3277.969    493.76816    -83.85374   -63.603057   -3605.6936 
13567000    198.18249   -4380.5213   -4040.8433   -4380.5213            0    4677.2021    17.864858    23.126518    22.082973    9123.6236    4200.5698    6077.5949    3753.4416    256.65314     649.6743   -267.17997   -3418.5009 
13568000    209.14685    -4376.652   -4018.1814    -4376.652            0    4071.4557    18.038465    23.206292    21.884822    9161.1154     3162.585    5212.8852    3838.8969   -583.07717    175.31101   -860.58659   -3474.2127 
13569000    195.99963   -4382.3715   -4046.4349   -4382.3715            0    3860.5981    17.752473    23.403998    21.953796    9121.3379    3300.0478    3484.3741    4797.3725   -160.99319    442.17783    492.47941   -3532.8774 
13570000    193.56913   -4346.5476   -4014.7767   -4346.5476            0    2953.2312    18.000921    23.374515    21.867721    9201.1238    3814.8972    2919.7998    2124.9965   -43.592813   -184.66972   -1035.1133   -3618.4857 
13571000    205.47741   -4358.7983   -4006.6171   -4358.7983            0    4712.7739    17.943342    23.097478    21.923244    9085.9995    5116.1191    5957.2468    3064.9559      1100.83   -215.39436    83.222341   -3382.1275 
13572000    215.86938   -4345.1648   -3975.1721   -4345.1648            0    2397.0694    18.087383    23.418979    21.956479    9300.5018    2055.1438    3033.8564     2102.208    358.68471    179.57478     546.9868   -3650.0377 
13573000     193.0336    -4369.992    -4039.139    -4369.992            0    3217.6591    17.750823    23.546078     21.95393    9175.9147     3441.636    3516.1829    2695.1583   -263.99362     -8.07591   -125.20382   -3608.5477 
13574000    200.97768   -4369.5951   -4025.1263   -4369.5951            0     2523.833    17.959816    23.451236    21.933024    9237.7486     2149.908    1100.4305    4321.1604   -286.90421    404.09139   -666.47162   -3685.1077 
13575000    205.03442   -4371.9786   -4020.5566   -4371.9786            0    3122.3245    18.244474    23.027168    21.944132    9219.1378    1656.9492    4178.3059    3531.7184   -63.801343    169.13443   -523.05835   -3600.7549 
13576000    203.50859   -4370.0679   -4021.2612   -4370.0679            0    2637.5358    17.865603    23.450932    22.021775    9226.3544    1444.5216    3096.8674    3371.2184   -657.05044     744.3341    401.71446   -3666.3625 
13577000    199.81568   -4368.9382    -4026.461   -4368.9382            0    3346.6318    17.924053    23.474187    21.734437    9144.8204    4538.6845    3747.2656    1753.9454   -867.43285   -478.37318   -529.35215    -3580.128 
13578000    206.56946     -4328.12    -3974.067     -4328.12            0    3768.8736    18.039591    23.045751    21.953573    9126.8887    2725.2957    5265.6148    3315.7102   -36.104055    65.813213    252.23408   -3472.4061 
13579000    193.89912   -4349.4411   -4017.1046   -4349.4411            0    3965.2505    18.072317      23.3641    21.666649    9148.6003    2584.1513    3452.6236    5858.9768   -524.23086    410.41858   -250.13111   -3488.0492 
13580000    213.83006   -4354.5746   -3988.0771   -4354.5746            0    2830.8295     17.73599    23.612898     22.03892    9229.8582    3999.4833    2390.4314    2102.5737   -493.86168    840.30615    777.10351   -3607.0248 
13581000    199.81107    -4354.835   -4012.3656    -4354.835            0    3863.8764    17.881169    23.291723     22.02145    9171.5649    4050.1552    4135.7536    3405.7205   -230.07413    182.96441    1272.4338   -3495.5418 
13582000    197.71269   -4367.8871   -4029.0143   -4367.8871            0    3802.1194    18.109038    23.047944    21.813018    9104.2325    3437.6039    4797.0624     3171.692    225.77407   -325.81111   -332.04818   -3524.1845 
13583000    195.36744   -4369.8598   -4035.0067   -4369.8598            0    3660.4667    17.859782    23.289508    22.080684    9184.3617    3192.7457    4038.5371    3750.1172   -1032.3054    175.33972     232.1705   -3544.7073 
13584000    213.15557   -4343.5077   -3978.1663   -4343.5077            0    5114.6098     17.78969    23.579509    21.671792    9090.7132    5344.4574    5016.5597    4982.8122   -520.77827    284.06245    751.32393   -3300.0779 
13585000    208.03739    -4374.097   -4017.5281    -4374.097            0    4399.3524    17.859004    23.184092    22.098932    9149.9478    4036.0125    5377.3323    3784.7123   -339.21687   -637.53013   -490.12158    -3430.467 
13586000    193.77751   -4343.8064   -4011.6784   -4343.8064            0    3873.8439    17.957302    23.380629    21.798489    9152.1613    3679.1197    3261.8551    4680.5569    100.58858   -995.77404    719.89205   -3494.6175 
13587000    198.23959   -4361.2105   -4021.4346   -4361.2105            0    4035.1261    17.998213    23.108379    21.958124    9132.5931    5051.9112    3368.2322     3685.235   -562.72009   -119.35353    209.83085   -3483.9981 
13588000    213.03043   -4351.6697   -3986.5428   -4351.6697            0    4546.2909    17.986307    23.133367    21.888377    9107.4001    3697.0427    5156.5145    4785.3155    68.612845    457.10122    442.02854    -3382.695 
13589000     191.8617   -4371.2364    -4042.392   -4371.2364            0    3515.7669    17.888375    23.472318    21.855917    9176.8984    3351.3403    4089.7071    3106.2534   -1016.7226     -465.691      442.425   -3571.8571 
13590000    211.93931   -4378.0934   -4014.8367   -4378.0934            0    3600.2067    17.868427    23.178452    22.091879    9149.6275    4182.0533    4031.7274    2586.8392   -7.8949759   -368.70517     45.18207   -3534.4326 
13591000    196.28812   -4367.4052   -4030.9741   -4367.4052            0    3752.0128    17.971188    23.250385    21.886233    9144.8792    3406.2071    4871.0867    2978.7444   -496.05394    293.01719      672.665   -3530.5731 
13592000    210.42423   -4355.5855   -3994.9256   -4355.5855            0    3817.3894    17.840927    23.245348    21.999053    9123.4156    3899.1821    4234.0697    3318.9162   -23.310182    1343.2771     690.9588   -3487.0003 
13593000    186.46483   -4355.2329   -4035.6385   -4355.2329            0    1888.2804    18.097893    23.501499    21.723519    9239.6124    2507.9601    1824.6553    1332.2257   -37.170231   -35.637759   -408.44597   -3781.1923 
13594000    199.18181   -4360.2412   -4018.8504   -4360.2412            0    4413.2285    17.974681      22.9216    22.211334    9151.2567    4945.4333    5576.6729    2717.5793    259.06408    577.34041    204.84547   -3429.8534 
13595000     199.8376    -4363.453   -4020.9382    -4363.453            0    4967.5308    17.832074    23.403243    21.738464    9072.0774     4809.147    4109.2161    5984.2293    676.05131   -280.93696   -86.690003   -3363.6994 
13596000    208.48076   -4360.7268   -4003.3979   -4360.7268            0    3004.7239    17.758902    23.517269    21.963145    9172.7072    3300.1207     3754.133    1959.9182    -1189.856   -64.262865   -153.41694   -3601.4424 
13597000    202.47646   -4356.1225   -4009.0848   -4356.1225            0     4230.318    18.075018    23.122442    21.813797    9116.8269    4180.8925     3429.087    5080.9746    203.19787    57.351694    272.43263   -3446.6236 
13598000    195.86387   -4375.6636   -4039.9596   -4375.6636            0     2741.069     17.98845    23.269362    22.050217    9229.7748    2953.5992    3040.3339    2229.2739    324.36725   -917.24636    357.60261   -3670.9931 
13599000    199.07228   -4352.4748   -4011.2717   -4352.4748            0    3333.6523    17.935399    23.403642    21.919558    9200.8145    3324.5396    3470.4917    3205.9254    251.39215   -395.26878   -212.37261   -3563.9475 
13600000    197.22076   -4374.1011   -4036.0715   -4374.1011            0    3115.2768    17.939392    23.415028    21.939948    9215.9048    5116.0021    2522.4674     1707.361   -424.56176    116.35668    79.737348   -3617.3642 
13601000    196.94716   -4378.8924   -4041.3317   -4378.8924            0    2449.6521    18.203631    22.945949    22.018491    9197.1148    1730.3013    3341.9932    2276.6617    -146.8708   -428.76339    -183.9216   -3712.7587 
13602000    211.96681   -4369.8651   -4006.5613   -4369.8651            0    3490.3706    17.919086    23.317806    21.933094    9164.3875    3102.6463    3241.2656       4127.2    446.98571   -60.066503   -143.17335   -3540.0621 
13603000    197.66631   -4346.8468   -4008.0535   -4346.8468            0    3650.3566    17.991217     23.31449     21.87377    9175.0854     3230.661    3825.9328     3894.476    786.37768    146.71024    698.07051   -3519.6021 
13604000    194.91616   -4349.5549   -4015.4753   -4349.5549            0    3209.6258    17.838082    23.265534    22.095905    9170.0767    4097.4974    2605.6115    2925.7685    885.31306   -382.96046   -79.427082   -3586.2323 
13605000    210.01928    -4358.977   -3999.0112    -4358.977            0    3886.2299    17.894684    23.492137    21.827382    9175.8901    3135.3229     4487.008    4036.3588   -1243.2362    168.56145     500.8311   -3478.9522 
13606000    198.24482   -4376.4578   -4036.6729   -4376.4578            0    3511.3376    17.878979    23.207022     22.12796     9181.286    4191.6201    3342.0915    3000.3013   -120.97635    774.09005    -1470.377   -3566.5061 
13607000     199.4395   -4374.2675   -4032.4351   -4374.2675            0    4011.8131    18.141613    23.099751    21.898073    9176.7538      5115.71    3437.6913    3482.0379   -258.46653   -59.130298   -266.30305   -3495.5199 
13608000    204.12392   -4361.6724    -4011.811   -4361.6724            0    4413.6319    17.909116    23.253506    21.907197    9123.2468    3891.9782    5463.7667    3885.1508    602.17706   -57.900233     -660.525   -3424.5632 
13609000    197.03999   -4362.8762   -4025.1564   -4362.8762            0    4247.2151    17.817245    23.587745    21.826011    9172.7876    3770.4595    2945.1688    6026.0171    105.66136   -78.561808   -190.75596   -3456.9822 
13610000    197.61234   -4356.3551   -4017.6544   -4356.3551            0    4226.2922    18.043866     22.99654    21.970193    9116.4542    4398.7874    3529.6748    4750.4143   -41.852214    131.46561   -114.41584   -3455.7513 
13611000    211.42694   -4369.1114   -4006.7329   -4369.1114            0    4007.5483     17.97301     23.24085    21.985065    9183.3378     5449.641    3572.8419    3000.1622    452.27879    312.25667    295.66319   -3470.0037 
13612000    200.90361   -4362.7154   -4018.3734   -4362.7154            0    3754.8442    17.941493    23.372107    21.933452    9197.3654    3811.9168      4372.18    3080.4357   -173.50592    323.99101    -421.3587   -3514.7206 
13613000    201.22154   -4360.9168   -4016.0299   -4360.9168            0    2890.7019    17.755656    23.432666    22.029007    9165.4404    3600.0293    3392.3215    1679.7549   -1115.6845   -774.40951     656.9093    -3629.634 
13614000    207.35402   -4340.5437    -3985.146   -4340.5437            0    3391.0296    18.048827    23.219822    21.840764    9153.2582    3037.6723    2806.0494    4329.3671   -1570.5698    964.56979    273.01069   -3532.4745 
13615000     209.6394   -4354.7313   -3995.4166   -4354.7313            0    4273.4683    17.943847    23.196635    21.976273    9147.3347    4247.0463    5210.8819    3362.4765    228.25929    236.91908   -835.39182   -3425.3167 
13616000    199.24174   -4372.3706   -4030.8771   -4372.3706            0    3471.3767    17.883509    23.567711    21.775728      9177.89    4480.0372    2578.6903    3355.4027   -1069.7763    507.99687    203.35259   -3566.2329 
13617000    195.25133   -4374.5116   -4039.8575   -4374.5116            0    3296.0563    17.865082    23.285476    22.049587    9172.5605    2697.2061    4020.3404    3170.6224   -296.79931    402.96192   -129.86349   -3598.9361 
13618000    201.07289   -4371.5943   -4026.9623   -4371.5943            0    3763.6416    18.118218    23.193155    21.777031    9151.1144      2286.09    4658.4606    4346.3742    662.51402   -568.67031    160.62749   -3524.6681 
13619000    208.00512     -4358.48   -4001.9663     -4358.48            0    4541.3941    17.701282    23.395877    21.960147    9094.5098    5114.1519    3798.7587    4711.2716    63.366903   -541.88642    -689.3613   -3399.6226 
13620000     198.1771   -4373.7964   -4034.1276   -4373.7964            0    2558.2138    17.925737    23.442433    21.972963    9233.5419    3686.7175    2609.6362    1378.2876    363.96193   -334.58213    176.24113   -3689.6341 
13621000    203.19762   -4372.9669   -4024.6932   -4372.9669            0    3917.6383      18.1124    23.095019    21.893585    9158.2231    3119.4651    4903.0788     3730.371    339.01261    320.54417    339.53363   -3501.4405 
13622000     212.7997   -4355.0902   -3990.3588   -4355.0902            0    3541.8644    17.947025    23.276787    21.981975    9182.9497    3691.2584     4376.335    2557.9998    260.08916   -123.33959    334.48434   -3516.0185 
13623000    188.74939   -4367.1575   -4043.6475   -4367.1575            0    3534.7242    17.851336    23.466479    21.779144    9123.4576    4152.7997    3363.4688    3087.9042   -243.54519   -484.20652   -370.29309   -3573.3303 
13624000    204.73173   -4346.2569   -3995.3537   -4346.2569            0    3411.5448    18.077452    23.128059    21.908822    9159.9991    977.86168    3485.2457    5771.5272    36.252282   -331.22637   -299.51032   -3539.6082 
13625000    217.85165   -4361.0654   -3987.6751   -4361.0654            0    3230.5059    18.131095    23.169074    21.928989    9211.9445    3414.0189    2981.2837    3296.2152    1024.9906    13.970059   -136.35145   -3553.6671 
13626000    199.67716   -4359.1015   -4016.8616   -4359.1015            0    2680.5826    17.809926    23.567138    21.880611    9183.9261    3072.0513    1319.8131    3649.8835    594.94453   -483.44486    518.56645   -3657.8294 
13627000    197.70133   -4344.3991   -4005.5458   -4344.3991            0    3365.7929    17.944014    23.374957    21.930475    9198.5307    3045.8174     2817.081    4234.4803   -893.09471    471.34954    1318.5467   -3554.0209 
13628000    198.41463   -4352.1329    -4012.057   -4352.1329            0    3131.1459     18.04979    23.218552     22.00191    9220.7805    2546.6077    2932.2522    3914.5778    186.90438   -267.96057   -100.35863   -3590.9942 
13629000    203.16587   -4345.8916   -3997.6723   -4345.8916            0    1888.9964    17.799595    23.694898     21.88291    9229.3275    1862.5679    1241.0997    2563.3216    589.45441   -293.77247   -103.85427   -3743.4128 
13630000    195.19998   -4368.0823   -4033.5162   -4368.0823            0    4600.3137    17.776771    23.385739    21.923552    9114.1237    5815.6407    4210.3986    3774.9019   -958.60676   -174.52257    183.51265   -3422.0418 
13631000    206.88817   -4395.0812   -4040.4819   -4395.0812            0    3724.6053    18.077148    23.015662    21.942544    9129.3602     4039.277    3240.0948    3894.4441    367.60017    345.04215   -293.25674   -3544.5792 
13632000    195.91504   -4326.9547    -3991.163   -4326.9547            0    2815.8177    17.966048    23.333486    21.876912    9171.0318    2637.3299     2218.274    3591.8492   -336.40979   -514.68419     -458.271   -3614.5471 
13633000    187.79398   -4352.5832   -4030.7107   -4352.5832            0    3520.8537    17.870604    23.455123    21.902996    9180.7986    4557.4012    3238.4148     2766.745     -291.504    329.50609    582.61328   -3559.2947 
13634000    196.57827   -4372.8126   -4035.8841   -4372.8126            0    3128.2586    18.224557    23.027379    21.823619    9158.5826    1758.4279    3941.4972    3684.8506    130.96332     318.8015   -119.41625   -3618.0472 
13635000    194.33684   -4384.0296   -4050.9429   -4384.0296            0    2679.7192    17.963334    23.218362    22.069917    9204.9034    2723.3721    3574.9441    1740.8413    507.69886   -73.624967    94.593182   -3691.2064 
13636000    199.41361    -4360.649   -4018.8609    -4360.649            0     2926.469    17.883249    23.583457    21.825876    9205.0379    1802.1249    3116.1159    3861.1663    520.49412    427.69522   -659.26895    -3625.994 
13637000    190.68159   -4352.8749   -4026.0532   -4352.8749            0    4736.6041    17.849956    23.093311    22.074063    9099.2503    4575.4403    4377.7891    5256.5828    -163.5769     302.5848   -222.13847   -3397.4905 
13638000    207.53269   -4375.3524   -4019.6485   -4375.3524            0    3635.8456    18.019428    23.222031    21.946619     9183.513    2381.5047    5241.8482    3284.1838   -573.41767   -392.40601    833.94415    -3532.692 
13639000    193.46261   -4387.1452   -4055.5569   -4387.1452            0    1922.5769    17.823526    23.620011    21.894251     9217.302    3104.9534    1632.1747    1030.6026   -461.96607   -162.66383   -407.49065   -3797.1147 
13640000    198.31749    -4359.953   -4020.0437    -4359.953            0    3546.5867    17.871191    23.457579     21.87189    9169.0216     2989.623    1645.1228    6005.0142   -797.88033    512.51578   -491.50024   -3545.7913 
13641000    196.69833   -4379.7369   -4042.6027   -4379.7369            0    1967.9983     18.04192    23.202127    21.948554    9187.9044     2762.781     1576.862    1564.3519    543.53319   -409.14691   -143.25038   -3778.8985 
13642000    196.79951   -4366.3114   -4029.0037   -4366.3114            0    3149.0947    18.048263    23.200654    21.875356    9159.9011    2983.8538    3255.0148    3208.4154   -289.84351    35.227824    123.10514   -3608.3232 
13643000    197.59888   -4367.3642   -4028.6865   -4367.3642            0    4105.4332    17.846881    23.413933    21.848923    9129.9147     5370.247    2866.8747    4079.1778   -577.15007     110.9714     452.3788   -3482.0462 
13644000    192.13947   -4344.3772   -4015.0567   -4344.3772            0    3451.8447     17.75994      23.3371    22.008835    9121.9026    4226.3347    3366.1247    2763.0748    204.21685    446.99318   -153.63022   -3555.8454 
13645000    205.30083   -4344.9173   -3993.0387   -4344.9173            0    1790.6097    18.009482    23.279523    21.850933    9161.0504    912.17866    1693.1528    2766.4977   -1104.1688   -826.54649     279.3195   -3753.8052 
13646000    198.93926   -4364.8059   -4023.8308   -4364.8059            0    4094.1815    18.106436    22.983053    21.801288     9072.414    2637.5695    5671.3656    3973.6095    1048.6961    37.179332     324.8563   -3482.1221 
13647000    194.53876   -4371.8243   -4038.3915   -4371.8243            0    4567.4628    17.836762    23.538276     21.74862    9131.0847    5422.8575     3026.151    5253.3799     192.5526   -276.98463   -53.980645   -3430.1539 
13648000    193.76284   -4383.2161   -4051.1132   -4383.2161            0    2105.6361    17.871808    23.264794    22.109961    9192.9665    2856.0906    1278.0421    2182.7754    541.64602   -414.24651    277.58841   -3768.8106 
13649000    212.60954   -4351.9436   -3987.5382   -4351.9436            0    3385.6861    18.020962    23.272196    21.808882    9146.3698    3316.0151    3478.9962    3362.0471    364.69235   -664.94528   -366.08433   -3535.9201 
13650000    202.29561   -4372.3451   -4025.6174   -4372.3451            0    3423.5315    17.774645    23.442558    21.942244    9142.9631    3786.7106     2227.759    4256.1248     678.8429    128.31462   -362.22405   -3569.1212 
13651000    201.64296   -4351.5839   -4005.9748   -4351.5839            0     2144.713    17.953069    23.598916    21.833502    9250.2643     2357.534    1707.9378    2368.6673    502.55398    671.38248   -83.289247   -3716.6409 
13652000    189.50921   -4359.3097   -4034.4974   -4359.3097            0    3244.1058    18.032521    22.935855    22.059791     9123.737     3096.905    4399.7727    2235.6398    262.60929   -3.0969995    207.31335   -3602.8355 
13653000    211.60591   -4371.4298   -4008.7445   -4371.4298            0    3649.4483     17.89399    23.450215    21.841038     9164.891     3737.857    3639.6321    3570.8557    542.54303   -360.78772    298.74398   -3520.9573 
13654000    195.28098   -4372.4826   -4037.7777   -4372.4826            0    2644.7119    17.792858    23.508222    22.009753    9206.2054    3156.5414     3392.931    1384.6633    536.30086     174.6764    62.874098   -3682.6905 
13655000    206.31755    -4378.832   -4025.2108    -4378.832            0    3235.4916    17.977838    23.262125    21.909073    9162.4341     3544.607    2585.0712    3576.7966   -552.19321    647.86658   -772.39852   -3592.8692 
13656000    190.28335   -4381.9405   -4055.8014   -4381.9405            0     3231.324    18.161423    23.075777    21.869322     9165.191    2802.9959    3209.0159    3681.9602   -583.84883   -1139.5114    -142.9587   -3623.8867 
13657000    198.47825   -4367.6184   -4027.4335   -4367.6184            0    3447.2019    17.867915     23.35428    21.903494    9140.1588    3854.4029    2366.4665    4120.7364   -175.66781   -321.81711   -425.09374    -3567.922 
13658000     201.4604   -4371.5892    -4026.293   -4371.5892            0    3701.0037    17.859203    23.388811    21.814427    9112.0063    3870.1233    5019.2982    2213.5895   -479.19068   -360.33243    223.16245   -3534.4693 
13659000    198.56642   -4360.0883   -4019.7522   -4360.0883            0    2802.4146    17.983517    23.326093     21.96416      9213.64    2830.2275    3132.6743    2444.3422    1222.0479    386.43204   -429.92125   -3643.1876 
13660000    211.29923   -4351.1415   -3988.9818   -4351.1415            0    4808.9997    18.091346    23.116419    21.801252    9117.4394    4254.9986    4449.8091    5722.1915   -578.60266   -74.106749   -46.947183   -3349.5364 
13661000    191.46635   -4368.5643   -4040.3975   -4368.5643            0    3863.9194     17.95523    23.160147    22.041388    9165.8176    4104.3179    3492.1633    3995.2771    89.744254    -233.4603    72.635106   -3523.8918 
13662000    201.35358   -4381.2528   -4036.1397   -4381.2528            0    2728.3835    17.954163    23.283091    21.941633    9172.2257    2093.5119    2873.3951    3218.2436    80.184687    312.70936    50.400317   -3671.1706 
13663000    201.40383   -4363.5366   -4018.3373   -4363.5366            0    3357.4497    17.839923    23.654167    21.833489    9213.4819    4139.8253    2727.7858    3204.7382    684.78663   -339.60991     51.22714   -3567.1996 
13664000    195.97855    -4360.411   -4024.5105    -4360.411            0    4488.0313    17.790657     23.31993    21.974962    9116.9038    4591.3782    5464.8473    3407.8686    904.94797    41.359489   -407.24818   -3427.7788 
13665000    204.93456   -4373.0182   -4021.7674   -4373.0182            0    2560.2344    18.036812    23.229616    21.963316    9202.3704    2129.7805    2433.3197    3117.6029   -715.53233   -140.59011     791.1948   -3678.1657 
13666000    202.65942   -4350.4788   -4003.1275   -4350.4788            0    5155.3111    17.818166    23.222776    21.951724    9083.3443    4660.2062    5444.1536    5361.5736    176.39079   -565.52425    317.94134   -3320.1969 
13667000    198.54396   -4380.6667   -4040.3692   -4380.6667            0    3863.8664    17.975358    23.479733    21.736493    9174.0301    3016.5298    4236.7541    4338.3154   -623.12828   -61.278929    211.83355   -3523.4077 
13668000    206.82505   -4337.6907   -3983.1997   -4337.6907            0    2847.8698    17.757435    23.417332    22.011379    9153.0304    2522.2893    2648.8449    3372.4752   -671.48984   -852.43271   -147.81204   -3603.0445 
13669000    210.02866   -4355.2978   -3995.3159   -4355.2978            0    2983.0525    18.034648    23.324812    21.844708    9189.0808    1765.4547    2646.5353    4537.1675   -289.02434    228.13253    155.77848   -3595.5471 
13670000    202.64158    -4358.543   -4011.2222    -4358.543            0    2689.2119    17.775673    23.378264    21.987878    9137.3783    2591.9537    3397.7046    2077.9772    481.41575    411.43916    -439.9421   -3652.8598 
13671000    198.14223    -4356.515    -4016.906    -4356.515            0    1708.1904    17.938115    23.431587    21.901861    9205.7577    1449.1286     1637.268    2038.1745    129.83734   -541.66711    188.39801   -3787.5702 
13672000    207.91173   -4379.2945   -4022.9409   -4379.2945            0    4825.0317    17.987826    23.178344     21.86501    9116.1354    4545.9858    4205.5319    5723.5773   -1856.1412    1508.0674   -37.722441   -3381.4554 
13673000    197.24526   -4360.3618   -4022.2901   -4360.3618            0    3215.4677    17.835722    23.136178    22.188024    9155.8982    3358.2832    4053.6261    2234.4937   -928.99362    43.422034    153.33723   -3592.9307 
13674000    199.40485   -4378.2855   -4036.5125   -4378.2855            0    3521.6615    17.798356    23.558465    21.819073    9148.7795    3521.4598    3449.5407     3593.984   -573.02626    -86.33774   -138.51578   -3566.6328 
13675000     204.8184   -4352.2937    -4001.242   -4352.2937            0    4532.1501    18.031063    22.986247     22.03207    9131.5545     3660.242    5963.0075    3973.2008    336.35023    364.01842    375.96973   -3397.6758 
13676000    206.52026   -4382.6529   -4028.6843   -4382.6529            0    4184.8917    18.085457    23.205248    21.827709    9160.5985    3858.1715    4151.2166    4545.2869   -760.64302    524.51202    440.78371   -3469.5914 
13677000    212.56787   -4354.0089   -3989.6749   -4354.0089            0    4706.1269    17.556947    23.658508     21.87704    9087.0917    4823.7595     3397.442    5897.1792   -496.97213    300.69567    368.44263   -3365.9911 
13678000    208.31012   -4359.1755   -4002.1391   -4359.1755            0    4232.5265    17.883146    23.291687    22.007756    9166.8606    5354.3692    5321.5761    2021.6343     1269.451    991.84186   -11.466427   -3436.2957 
13679000    195.93085   -4351.4879   -4015.6691   -4351.4879            0    5486.2642    18.108777    22.993636      21.7926     9074.147    6201.0903    6287.8697    3969.8326   -58.505199    291.59695    390.37528   -3289.6327 
13680000    202.58974   -4373.9201   -4026.6882   -4373.9201            0    3047.7724    17.891589     23.26306    21.942069    9132.5771    3356.7396    2778.1608    3008.4167   -116.06245   -191.58948    135.56659   -3620.7576 
13681000      207.489    -4372.145    -4016.516    -4372.145            0    2138.2883    17.920416    23.611175     21.80876    9227.7679    2890.7345     1570.371    1953.7594   -764.77071   -223.35379     173.2402   -3728.7504 
13682000    205.44256   -4344.3892   -3992.2677   -4344.3892            0    4254.7369    17.994329    23.227287    21.895052    9151.2437    2305.7904    5474.7852    4983.6352    234.33132    544.16941   -107.44711   -3424.4241 
13683000    188.93101   -4357.1173    -4033.296   -4357.1173            0     3427.366    18.100638    23.100472    22.009704    9202.9896    2007.5517    3531.2004    4743.3459     179.3772    506.39534   -366.92159   -3573.2881 
13684000    201.66523   -4378.7682   -4033.1209   -4378.7682            0    3378.3608    17.899249     23.30169    21.928187    9145.8689    4345.3422    3665.2167    2124.5234   -1134.1734    328.63026    -551.7161   -3582.5046 
13685000    206.91324   -4353.9024   -3999.2602   -4353.9024            0    4012.0529    17.789842    23.532799    21.936007    9183.3949    4329.8035     3341.888    4364.4673    218.89519   -581.56445    316.52623   -3461.9244 
13686000    202.45016   -4345.8519   -3998.8593   -4345.8519            0     3531.833    17.979832    23.405396    21.768036    9160.5357    2705.6517    4513.3525    3376.4948   -940.06393    210.31177    175.63307   -3527.0169 
13687000    197.97929   -4364.4733   -4025.1435   -4364.4733            0    2775.7325      17.8577    23.327024    22.039799    9181.0527    3564.8281    2691.6103     2070.759   -942.36352     238.0327   -899.97977   -3653.4834 
13688000    206.03725    -4346.823   -3993.6822    -4346.823            0    3413.5776    18.028816     23.33941    21.827125    9184.4599    3387.6829    2645.4236    4207.6261    223.52542   -112.99092   -196.06602   -3536.4474 
13689000     202.9698   -4385.9875   -4038.1043   -4385.9875            0    3795.2485    17.914482    23.205398    22.058219    9169.8814    2841.5562    4041.9822    4502.2071   -450.28359   -1549.8766    471.85915   -3530.5531 
13690000     205.5405   -4339.1677   -3986.8783   -4339.1677            0    2794.2058    17.804641    23.581689    21.864365    9180.0491    3322.9987    2295.7907    2763.8281    861.10991   -483.02522   -308.24739   -3612.7856 
13691000    201.14663   -4354.1602   -4009.4018   -4354.1602            0    2644.6774    17.964301    23.334876    22.010397    9226.6425     3240.775    2698.5202     1994.737    63.939921   -381.91687   -29.025135    -3653.531 
13692000    196.90847   -4347.2944   -4009.8001   -4347.2944            0    3396.0895    18.018775    23.230032    21.963692    9193.4901    2985.5482     2919.028    4283.6922   -917.56585     8.947416    473.47529   -3554.4605 
13693000    195.46221   -4345.7472   -4010.7317   -4345.7472            0    2809.3021    18.030324    23.268765    21.916985    9195.1256    2481.4713     4262.949    1683.4859    912.82946     469.2598       354.53   -3634.0001 
13694000    204.24442    -4348.664    -3998.596    -4348.664            0    1868.4171    17.814242    23.669306    21.951526    9255.8772    2779.5196    1189.3638     1636.368    -499.9095   -243.92919   -78.327024   -3746.3831 
13695000    207.18217   -4374.9704   -4019.8673   -4374.9704            0     4292.628    18.045412    23.185334     21.82804    9132.6094    4583.7914    4338.5742    3955.5185    -1356.973   -77.291215    693.12347   -3448.1333 
13696000    199.48713   -4360.3214   -4018.4073   -4360.3214            0     1708.155    18.117926    23.234128    21.943356    9237.1481    1485.8214    1801.4472    1837.1964    483.68676   -794.98333   -250.85869   -3788.2943 
13697000    189.64144   -4341.4154   -4016.3765   -4341.4154            0    2077.9845    17.799509    23.585003    21.978165    9226.4663    3200.1915    1999.9325    1033.8296   -662.63018    448.29357    284.29669   -3736.7659 
13698000    206.66052   -4359.5168   -4005.3078   -4359.5168            0      4147.13     17.87504    23.256204    21.906345    9106.5895    4202.3199    5159.1968    3079.8735    13.067477   -787.46349    214.10224   -3454.5263 
13699000     221.9093   -4374.4578   -3994.1129   -4374.4578            0    4929.7248    18.190656    23.060052    21.767688    9131.0549    4214.9184    6455.2269    4119.0292    147.93624   -231.67542   -394.90509   -3337.6359 
13700000    203.28317   -4375.4965   -4027.0761   -4375.4965            0     1759.188    18.011777    23.416039    21.995813    9277.0523    2070.5804    1329.0958    1877.8879    625.52937   -799.92914    484.77294   -3789.0645 
13701000    196.02396   -4349.3399   -4013.3616   -4349.3399            0     2957.048    17.871366    23.518045     21.90108    9205.0154    4118.7798     1884.998    2867.3661   -247.95047   -186.26875   -899.04986   -3616.3906 
13702000    201.13306   -4347.5807   -4002.8455   -4347.5807            0    4411.8598    18.177029    23.140568    21.799388    9169.4064    2955.7836    5452.9839    4826.8118   -562.48711   -363.95901    5.6551382   -3412.8634 
13703000    191.43726   -4357.8905   -4029.7736   -4357.8905            0    4184.5729    17.865054    23.293414    21.965629    9140.7349    5375.5808     3201.444     3976.694   -179.71769   -200.12255   -223.04234   -3471.9355 
13704000    193.42417   -4363.8632   -4032.3408   -4363.8632            0    3835.7855    17.851263    23.621757    21.623564    9118.1854    4257.0004    2371.7348    4878.6214    66.651923   -95.804081   -643.62185   -3522.2604 
13705000    199.43706   -4383.8343    -4042.006   -4383.8343            0    2651.1975    17.822316    23.233995    22.197865    9191.7715    2828.7517    2807.0004    2317.8405    239.49662    21.014268    197.92715   -3686.6062 
13706000    196.21726   -4364.2501   -4027.9404   -4364.2501            0    5037.9079    17.997511    23.266135    21.691038     9082.743    5413.4426    4438.3691    5261.9121   -97.584582    426.02963   -689.03198   -3360.6066 
13707000    192.48208   -4352.1674   -4022.2597   -4352.1674            0    3493.7734    17.768917    23.264969    22.121421     9144.847    3925.9154    4733.2378     1822.167    246.54715   -130.80437    173.85841   -3556.3014 
13708000    202.96869   -4344.0518   -3996.1704   -4344.0518            0    4888.4839    18.038235    23.405414    21.585033    9113.0358    5120.7579    4922.7619    4621.9319     -715.145     1186.102   -587.12619     -3346.47 
13709000    195.58585   -4357.0843   -4021.8569   -4357.0843            0    2153.7248    17.854939    23.211335    22.227876    9212.0539    2574.6719    3179.1349    707.36775    331.53505   -122.42016   -102.75256   -3732.5075 
13710000    213.55103   -4358.7729   -3992.7538   -4358.7729            0    4677.1773    17.931898     23.26198    21.837028    9108.9112    5285.1146    3270.1143    5476.3029   -762.91868    694.59099   -25.571049   -3371.4182 
13711000     201.9663   -4370.8323   -4024.6689   -4370.8323            0    3856.8525    18.007371    23.413537    21.723868    9159.1356     4785.229    3428.3806    3356.9478    362.36141    -88.36272    120.07663   -3509.4837 
13712000    205.59482   -4369.4806   -4017.0981   -4369.4806            0    4262.3018    17.908476    23.211769      22.0348    9159.5886     3348.385    4024.9508    5413.5698    -373.9325    289.72162    609.99546   -3447.7261 
13713000    206.93263   -4350.1497   -3995.4742   -4350.1497            0     5364.372    17.829787    23.453302    21.665525     9059.816    6139.9456    4108.8822    5844.2882   -369.35326    -91.00412    252.52984   -3286.6898 
13714000    200.20005   -4359.6329   -4016.4969   -4359.6329            0    4906.1489    17.863087    23.182572    21.908517    9072.5866     4520.138    4527.5056     5670.803    568.47968   -878.34169    432.27732   -3367.3429 
13715000     191.4632   -4386.4607   -4058.2993   -4386.4607            0    5064.5895    18.047854    23.219448    21.642912    9069.7052    5804.2847    5005.3406     4384.143   -184.84149    391.92712   -229.43997   -3388.3941 
13716000    193.12725   -4355.7439   -4024.7304   -4355.7439            0    4672.5236    17.829746    23.141472    22.013451    9082.8942    4481.2732    5804.2581    3732.0397   -732.19586    140.74195    201.77262   -3405.7859 
13717000    196.95543   -4381.2301   -4043.6553   -4381.2301            0     3213.475     17.99894    23.488736    21.794225    9213.9958    2940.5655     3557.754    3142.1056   -190.68623    327.70686    710.75067   -3611.8392 
13718000    212.74499   -4371.8097   -4007.1721   -4371.8097            0    3979.4773    17.801538    23.236952     22.11159    9146.5357    3482.4066    4483.5523     3972.473    547.66736     19.86224   -305.11576   -3476.3383 
13719000    207.04918   -4363.7793   -4008.9041   -4363.7793            0    4168.1419     17.97493    23.227408    21.805826    9104.1729    4117.0604    4642.9284    3744.4371   -519.86588    357.36859   -227.75457   -3455.4789 
13720000    198.42205    -4377.007   -4036.9183    -4377.007            0    4018.9197    17.758114    23.474851    21.898569    9128.8363    4035.8033    4207.3607    3813.5952    355.66776   -133.95859    223.09785   -3501.8606 
13721000    205.25537   -4372.0133   -4020.2126   -4372.0133            0    2852.3683    17.934687    23.303766    22.003867    9196.4221    4643.4939    2773.3854    1140.2255   -849.84192    262.36739    138.78749   -3637.6519 
13722000    188.64469   -4351.5144   -4028.1838   -4351.5144            0    4997.0994    18.127871    22.974437     21.82089    9087.9124    5208.5473    7030.1391    2752.6116    2.0978808    618.07316    194.01551   -3365.8789 
13723000    204.35563   -4379.1719   -4028.9134   -4379.1719            0    3644.8749    17.964095    23.168713    21.943325     9132.921    3537.7363    3918.2746    3478.6137   -763.70898    -697.0836     116.0634   -3543.4369 
13724000    204.74091   -4365.7724   -4014.8535   -4365.7724            0    3233.6539    17.809023    23.679414    21.869745    9222.6293    2242.3816    1345.6268    6112.9532    428.69488   -582.64747   -455.00565   -3579.9187 
13725000    203.11666   -4377.5508   -4029.4158   -4377.5508            0    3692.7245    17.897755    23.384261    22.001754    9208.3008    3131.9971    6054.1643    1892.0121    154.60455   -322.53445   -402.52662   -3533.5064 
13726000    208.52377   -4369.5519   -4012.1493   -4369.5519            0    4257.3084    18.304721    23.091554    21.684795    9165.8255    4174.8364    5011.6928    3585.3961    799.10934   -403.53719   -348.60617   -3443.0571 
13727000    223.62822   -4354.4336   -3971.1425   -4354.4336            0    3617.6388    17.942945     23.24899    22.041867    9194.8831    3011.5089    4063.5857    3777.8219      899.341   -305.82506   -53.940403   -3486.0246 
13728000    197.51339   -4335.7196   -3997.1884   -4335.7196            0    3655.7688    17.934936    23.439369    21.857609    9188.5797    3056.8877     2040.993    5869.4258   -384.61042   -633.24072    1050.2706   -3507.2934 
13729000    207.80219   -4364.3491   -4008.1833   -4364.3491            0     3687.922    17.754256    23.498746    21.888996    9132.1493    3435.2364    3670.0685    3958.4613   -150.57563    42.598482    149.07005   -3517.0147 
13730000    208.20521   -4345.0697   -3988.2131   -4345.0697            0     3106.664     17.91866    23.304565    21.929876    9157.6218    3931.4359    1894.7631    3493.7929     962.1226   -379.96445   -879.30932   -3573.3041 
13731000    206.58132   -4357.6694    -4003.596   -4357.6694            0    3396.7701    18.139683    23.182365    21.826192    9178.3665     2159.757     4002.232    4028.3213   -128.17074    130.95096   -575.16448   -3548.9144 
13732000    195.83282   -4344.7125   -4009.0618   -4344.7125            0    3937.1535    17.899315    23.433726    21.878434    9176.8577    5396.9438    3143.2821    3271.2345    524.59781    733.03144    527.46751   -3482.1326 
13733000    203.33251   -4380.9473   -4032.4424   -4380.9473            0     2323.914    18.024755    23.422828    21.856979    9227.8142      1097.65    2420.7233    3453.3687    604.14516   -229.27177   -856.25726   -3719.6942 
13734000    200.59337   -4336.5512    -3992.741   -4336.5512            0    5561.2409    17.906353    23.207175     21.93113    9113.6096    5131.7024    6231.6443     5320.376   -481.89731   -157.90472      566.676   -3253.5818 
13735000     201.4954   -4377.8899   -4032.5337   -4377.8899            0     4070.784    17.999664    23.415665    21.692771    9142.9413    3781.4546    4336.6977    4094.1996    182.01468    177.06229    1025.3496   -3489.7337 
13736000    208.25602   -4370.8198   -4013.8761   -4370.8198            0    5015.1481    17.759044    23.043513    22.254395    9107.1827    4332.4785    6033.2529    4679.7127    571.13571    232.57094    91.890169   -3347.7695 
13737000     202.9108   -4373.3742   -4025.5921   -4373.3742            0    2963.2362    18.110656    23.317506    21.785894    9200.0815    1831.3107    3349.6312    3708.7666   -190.25842    320.35119    193.03309   -3628.0035 
13738000    198.02493   -4341.8114   -4002.4034   -4341.8114            0    4203.6231    17.766387    23.341118    22.152243    9186.2543    5060.3914    3757.1714    3793.3067   -249.08896   -405.18737   -438.77981   -3439.2352 
13739000    197.61534   -4357.3118   -4018.6059   -4357.3118            0    2318.8075    17.957009    23.525586    21.856134    9233.1057    1966.9697    1858.4635    3130.9892    455.20958   -153.52234   -202.28872    -3706.366 
13740000    204.50319    -4366.028   -4015.5165    -4366.028            0    3805.0967    17.962364    23.118766    22.093391    9174.6715    3678.0352    4410.7713    3326.4837   -386.37527    394.84421   -534.41802   -3506.3825 
13741000     206.6385   -4391.1788   -4037.0074   -4391.1788            0    3674.8241    18.069648    23.088355    21.974878    9167.8851    3525.3645    4644.8045    2854.3032   -259.36261   -288.43294   -237.04857    -3545.668 
13742000    201.14756   -4357.0494   -4012.2893   -4357.0494            0    4174.0285    17.818667    23.499131    21.879148    9161.3071    3802.4873    4297.8581    4421.7402   -416.06799   -7.2805559   -293.78062   -3454.6046 
13743000    205.39344   -4343.7819   -3991.7446   -4343.7819            0    4091.2513    17.753917    23.552353    21.884886    9151.0888    3498.7985    3561.9037    5213.0518   -500.75091   -957.28371   -148.82917   -3445.7293 
13744000    208.98374   -4364.6195   -4006.4285   -4364.6195            0    3929.2878    18.048063    23.192856     21.88181    9159.4223    3394.0883     4093.644    4300.1311   -242.77049    26.366777    630.53994   -3481.5512 
13745000    203.71127   -4344.6878   -3995.5336   -4344.6878            0    2268.9962    18.133439    23.190143    21.979221    9242.6371    1398.5605    4188.7026    1219.7255    518.37621   -319.88206    425.29624   -3689.6857 
13746000    200.75238   -4363.8194   -4019.7366   -4363.8194            0    4286.3584    17.880873    23.274874    21.965818     9141.626    5049.1395     3877.812    3932.1236   -1482.0167   -509.39396    99.455215    -3448.274 
13747000    198.07704   -4362.2458   -4022.7485   -4362.2458            0    3533.8494    17.985096    23.211353    21.925568    9153.0127    3591.1644    4566.3563    2444.0274   -464.26526   -614.18283    557.23434   -3551.0245 
13748000    204.84967   -4344.8216   -3993.7163   -4344.8216            0    3578.6013    17.935609    23.523627    21.760685     9181.063    3182.9265    3576.1279    3976.7495   -1047.8492   -1255.5601    434.63395   -3514.5545 
13749000    203.42568   -4383.4001   -4034.7355   -4383.4001            0    3808.9982    17.859489     23.31607    21.963168    9145.7506    4143.5226     3650.482    3632.9899    1403.7895   -293.11477   -330.07775    -3526.686 
13750000    215.87619   -4359.0257   -3989.0213   -4359.0257            0    3792.8654    18.148739    23.320861    21.717172    9191.6676    2959.0209    2973.1512    5446.4241   -1325.6708   -262.34513    606.64826   -3480.5837 
Loop time of 426.368 on 64 procs for 250000 steps with 864 atoms

Performance: 101.321 ns/day, 0.237 hours/ns, 586.347 timesteps/s
192.8% CPU use with 32 MPI tasks x 2 OpenMP threads

MPI task timing breakdown:
Section |  min time  |  avg time  |  max time  |%varavg| %total
---------------------------------------------------------------
Pair    | 17.72      | 25.406     | 33.813     | 103.5 |  5.96
Bond    | 0.90879    | 1.0732     | 1.6682     |  13.1 |  0.25
Kspace  | 211.19     | 221.27     | 230.37     |  38.7 | 51.90
Neigh   | 1.1932     | 1.2793     | 1.3462     |   3.8 |  0.30
Comm    | 67.997     | 73.292     | 77.824     |  26.5 | 17.19
Output  | 1.2366     | 1.2369     | 1.2383     |   0.0 |  0.29
Modify  | 75.827     | 79.088     | 83.621     |  23.0 | 18.55
Other   |            | 23.72      |            |       |  5.56

Nlocal:        27.0000 ave          38 max          18 min
Histogram: 5 4 3 3 2 1 4 3 3 4
Nghost:        2141.81 ave        2269 max        2026 min
Histogram: 7 6 3 0 0 0 0 7 4 5
Neighs:        6618.72 ave        9368 max        4501 min
Histogram: 7 3 3 2 3 3 3 2 4 2

Total # of neighbors = 211799
Ave neighs/atom = 245.13773
Ave special neighs/atom = 2.0000000
Neighbor list builds = 4268
Dangerous builds = 0

unfix		3
unfix		2
unfix		1

write_data	data.final.${pid} nocoeff
write_data	data.final.0 nocoeff
System init for write_data ...
PPPM initialization ...
  extracting TIP4P info from pair style
  using 12-bit tables for long-range coulomb (../kspace.cpp:340)
  G vector (1/distance) = 0.37218507
  grid = 24 27 25
  stencil order = 5
  estimated absolute RMS force accuracy = 0.0030912752
  estimated relative force accuracy = 9.3092834e-06
  using double precision FFTW3
  3d grid and FFT values/proc = 4410 672
Last active /omp style is kspace_style pppm/tip4p/omp

write_restart   restart.lmp.${pid}
write_restart   restart.lmp.0
System init for write_restart ...
PPPM initialization ...
  extracting TIP4P info from pair style
  using 12-bit tables for long-range coulomb (../kspace.cpp:340)
  G vector (1/distance) = 0.37218507
  grid = 24 27 25
  stencil order = 5
  estimated absolute RMS force accuracy = 0.0030912752
  estimated relative force accuracy = 9.3092834e-06
  using double precision FFTW3
  3d grid and FFT values/proc = 4410 672
Last active /omp style is kspace_style pppm/tip4p/omp
Total wall time: 0:07:06
