#include		in.partitions
include		in.temp
variable        temperature equal 212.60
variable	tempDamp equal 100.0
include		in.pressure
variable        pressure equal 2118.0
variable        pressureDamp equal 1000.0 # This is 1 ps
include		in.seed
variable        seed equal 745823

units		real
atom_style	full
#include		in.box
read_restart	restart.lmp.${pid}
read_restart	restart.lmp.1
Reading restart file ...
  restart file = 30 Jul 2021, LAMMPS = 30 Jul 2021
  restoring atom style full from restart
  orthogonal box = (0.0046139441 0.15143515 0.13213035) to (18.202958 23.477743 22.081065)
  2 by 4 by 4 MPI processor grid
  restoring pair style lj/cut/tip4p/long/omp from restart
  restoring bond style harmonic/omp from restart
  restoring angle style harmonic/omp from restart
  864 atoms
  576 bonds
  288 angles
Finding 1-2 1-3 1-4 neighbors ...
  special bond factors lj:    0        0        0       
  special bond factors coul:  0        0        0       
     2 = max # of 1-2 neighbors
     1 = max # of 1-3 neighbors
     1 = max # of 1-4 neighbors
     2 = max # of special neighbors
  special bonds CPU = 0.002 seconds
  read_restart CPU = 0.007 seconds
include 	in.setup
variable	out_freq equal 1000
variable	out_freq2 equal 10000
variable	out_freq3 equal 1000

timestep	2.0

neigh_modify    delay 7 every 1

include		in.tip4p
# This is TIP4P/Ice

# create groups ###
group ox type 2
288 atoms in group ox
group hy type 1
576 atoms in group hy

# set charges - beside manually ###
set group ox charge -1.1794
Setting atom values ...
  288 settings made for charge
set group hy charge 0.5897
Setting atom values ...
  576 settings made for charge

# ### TIP3P Potential Parameters ###
pair_style lj/cut/tip4p/long/omp 2 1 1 1 0.1577 8.5
pair_coeff 1 1*2 0.000 0.000
pair_coeff 2 2 0.21084 3.1668
bond_style  harmonic
bond_coeff  1 450 0.9572
angle_style harmonic
angle_coeff 1 55 104.52
kspace_style pppm/tip4p/omp 1.0e-5
pair_modify tail yes

thermo          ${out_freq}
thermo          1000
thermo_style    custom step temp pe etotal epair emol press lx ly lz vol pxx pyy pzz pxy pxz pyz enthalpy

restart 	${out_freq3} restart.lmp.${pid} restart2.lmp.${pid}
restart 	1000 restart.lmp.${pid} restart2.lmp.${pid}
restart 	1000 restart.lmp.1 restart2.lmp.${pid}
restart 	1000 restart.lmp.1 restart2.lmp.1


include         in.dump
dump            myDump all atom ${out_freq2} dump.water.${pid}
dump            myDump all atom 10000 dump.water.${pid}
dump            myDump all atom 10000 dump.water.1
dump            myDump2 all dcd ${out_freq2} dump.dcd
dump            myDump2 all dcd 10000 dump.dcd
dump_modify     myDump append yes
dump_modify     myDump2 append yes


variable natoms 	equal  "count(all)"                        # NUMBER ATOMS
variable H      	equal  "enthalpy/v_natoms"                 # ENTHALPY-per-atom
variable Vol      	equal  "vol/v_natoms"                 # volume-per-atom
fix AVG all 		ave/time ${out_freq} 1 ${out_freq} v_Vol v_H file vol_enthalpy.dat
fix AVG all 		ave/time 1000 1 ${out_freq} v_Vol v_H file vol_enthalpy.dat
fix AVG all 		ave/time 1000 1 1000 v_Vol v_H file vol_enthalpy.dat


timer           timeout 23:50:00 every 1000
New timer settings: style=normal  mode=nosync  timeout=23:50:00

fix 		1 all shake 1e-6 200 0 b 1 a 1
       0 = # of size 2 clusters
       0 = # of size 3 clusters
       0 = # of size 4 clusters
     288 = # of frozen angles
  find clusters CPU = 0.000 seconds
fix             2 all nph aniso ${pressure} ${pressure} ${pressureDamp}
fix             2 all nph aniso 2118 ${pressure} ${pressureDamp}
fix             2 all nph aniso 2118 2118 ${pressureDamp}
fix             2 all nph aniso 2118 2118 1000
fix             3 all temp/csvr ${temperature} ${temperature} ${tempDamp} ${seed}
fix             3 all temp/csvr 212.6 ${temperature} ${tempDamp} ${seed}
fix             3 all temp/csvr 212.6 212.6 ${tempDamp} ${seed}
fix             3 all temp/csvr 212.6 212.6 100 ${seed}
fix             3 all temp/csvr 212.6 212.6 100 745823


run             250000
PPPM initialization ...
  extracting TIP4P info from pair style
  using 12-bit tables for long-range coulomb (../kspace.cpp:340)
  G vector (1/distance) = 0.37173559
  grid = 24 27 25
  stencil order = 5
  estimated absolute RMS force accuracy = 0.0031457813
  estimated relative force accuracy = 9.4734268e-06
  using double precision FFTW3
  3d grid and FFT values/proc = 4410 672
Last active /omp style is kspace_style pppm/tip4p/omp
Neighbor list info ...
  update every 1 steps, delay 7 steps, check yes
  max neighbors/atom: 2000, page size: 100000
  master list distance cutoff = 10.8154
  ghost atom cutoff = 10.8154
  binsize = 5.4077, bins = 4 5 5
  1 neighbor lists, perpetual/occasional/extra = 1 0 0
  (1) pair lj/cut/tip4p/long/omp, perpetual
      attributes: half, newton on, omp
      pair build: half/bin/newton/omp
      stencil: half/bin/3d
      bin: standard
Per MPI rank memory allocation (min/avg/max) = 10.19 | 10.21 | 10.23 Mbytes
Step Temp PotEng TotEng E_pair E_mol Press Lx Ly Lz Volume Pxx Pyy Pzz Pxy Pxz Pyz Enthalpy 
 5750000    228.55874    -4335.304   -3943.5621    -4335.304            0    2213.6377    18.198345    23.326307    21.948935    9317.3269    795.41941    1970.2768    3875.2168   -1768.9889   -73.732147   -16.155542   -3642.7649 
 5751000    208.40166    -4325.704   -3968.5107    -4325.704            0     4451.284    17.827233    23.379989    22.011566    9174.4322    5096.2747    3369.3927    4888.1845    657.88219   -676.47069    506.60045   -3372.9303 
 5752000    213.45429    -4334.934   -3969.0806    -4334.934            0    2530.4267    17.806409      23.5706    22.006403    9236.2576    3073.6382   -39.925274    4557.5671    651.72276   -223.62681    1042.9073   -3628.2288 
 5753000     210.4392   -4334.5438   -3973.8582   -4334.5438            0    3227.9261    18.162815    22.947698    22.049078    9189.9408    1487.4071    4826.7598    3369.6115    468.57547    -130.7044    93.703318   -3541.2326 
 5754000      203.072    -4357.252   -4009.1935    -4357.252            0    1275.6586     18.06156    23.360092    22.000953    9282.6358    1337.2985    1325.0087    1164.6686    510.53283    155.19214     29.70945   -3836.4978 
 5755000    208.73526   -4314.7529   -3956.9878   -4314.7529            0    1992.2106    17.795866     23.65134    22.030551    9272.5723    1832.8133     1505.593    2638.2256    472.47869   -957.85348   -740.95899   -3687.5792 
 5756000     208.7595   -4317.4536   -3959.6469   -4317.4536            0    2238.5522    18.040414    23.327952    22.010833    9263.1691    2198.8077    2566.2613    1950.5875    651.67445   -422.86958    295.10979   -3657.2324 
 5757000    211.94785   -4335.0981   -3971.8267   -4335.0981            0    1954.1519    18.198318     23.32226    21.861092    9278.4138    2218.4737    2484.0034    1159.9785   -100.52627   -811.94227   -166.82107   -3707.3984 
 5758000    222.60028    -4342.178   -3960.6487    -4342.178            0    2007.2635    17.821127    23.597894    21.998137    9251.1203    2643.9255    1040.6609    2337.2041   -1177.7541   -542.82198    230.02699   -3689.8325 
 5759000    222.04778   -4328.8141   -3948.2318   -4328.8141            0    2926.9297    18.129924    23.372338     21.81878    9245.4619    1899.3003    2544.8753    4336.6136   -46.400132   -261.86572   -524.37884   -3553.5776 
 5760000    217.69294   -4336.8326   -3963.7143   -4336.8326            0    1627.2056    18.124934    23.189805    22.144685     9307.714    1979.8596    2481.0553    420.70182   -611.82436    565.84009   -132.66639   -3742.8318 
 5761000    207.83418   -4330.8158   -3974.5951   -4330.8158            0    2221.3976    17.976809    23.655658    21.899648    9312.8964    1552.1168    1831.5755    3280.5005    98.557886    131.05713    376.89236    -3672.887 
 5762000    217.69013   -4307.6813   -3934.5679   -4307.6813            0    2718.6536    17.740587    23.670196    22.046416    9257.8007    3853.5381     2499.577    1802.8456    167.10697   -540.26049   -74.905105   -3567.5075 
 5763000    223.19784   -4341.5113   -3958.9579   -4341.5113            0    907.14595    18.166858    23.307717     22.09708     9356.522    285.10336    2315.7357    120.59882   -338.80859   -117.05097   -166.54786    -3835.173 
 5764000    199.67451   -4333.3771   -3991.1419   -4333.3771            0    1507.5622    18.194182    23.357452    21.958123    9331.5373    968.54704    972.13384    2582.0056   -365.99737    927.08585    105.05257   -3785.9764 
 5765000    206.76189   -4326.9719   -3972.5891   -4326.9719            0    1923.9766    17.936325    23.555079    22.060917    9320.5507    2203.6814    1397.0631    2171.1852   -143.36596   -380.97943    357.88641   -3711.0617 
 5766000    215.73415   -4339.4857   -3969.7248   -4339.4857            0    1955.7009    18.095466    23.440724     21.92443    9299.7038    971.16285    1785.1309    3110.8089     1091.799    314.02958    395.51379   -3704.4796 
 5767000    215.46347   -4330.7868   -3961.4898   -4330.7868            0    3703.3799    18.212103    22.808579    22.162585    9206.1645    3609.2238     4920.573    2580.3429   -90.690445    33.120222    180.49755   -3464.2648 
 5768000    202.02765   -4341.3472   -3995.0787   -4341.3472            0    2529.0552    17.943682    23.571417     21.81754     9227.903    3254.3712    1467.8233    2864.9713   -150.78049    470.34284    -371.5183   -3654.7197 
 5769000    210.35725   -4329.6497   -3969.1046   -4329.6497            0    1565.7748    17.825516    23.635994     22.14191    9328.9137    2231.6519    1133.2292    1332.4434    608.46695   -399.69036    289.35629   -3756.0768 
 5770000     209.3523   -4350.5606   -3991.7379   -4350.5606            0    2194.2216    18.082375    23.351322    21.984296    9282.8107     2899.132    2583.1114    1100.4214   -228.15563    553.46019   -99.587281   -3694.6836 
 5771000    208.99081   -4345.9257   -3987.7226   -4345.9257            0    1610.3822      18.0837    23.091597    22.235222    9285.0179    1873.3769    2937.7065    20.063082   -583.00008    11.200231    40.952007   -3769.6568 
 5772000    222.49116   -4341.3462    -3960.004   -4341.3462            0    609.04988     17.98751    23.737329     21.85428     9331.241   -229.66994   -12.971404     2069.791    399.21452    575.62733   -139.00958   -3877.1204 
 5773000     203.6045   -4336.8272   -3987.8561   -4336.8272            0    1757.0064    17.878704    23.365367    22.185919    9268.0008    796.84424    2013.5991     2460.576   -1092.8244    9.9711868   -600.84908   -3750.3716 
 5774000    227.69915   -4318.7059   -3928.4373   -4318.7059            0    2070.8567    18.176568    23.252918    21.917541    9263.6296     896.5575    2589.2288    2726.7838    706.49671    708.39705   -793.18636   -3648.6634 
 5775000    210.93689   -4320.3959   -3958.8573   -4320.3959            0    3462.7864    17.862044     23.42485    22.031025    9218.1268    3081.1219    1647.8082    5659.4291    66.184208   -633.64022    238.87531   -3493.3309 
 5776000    214.34401    -4311.371   -3943.9927    -4311.371            0    2721.2716    17.919795    23.419602    21.988271    9227.9159    2637.8268    2191.9143    3334.0738   -11.659157    220.28471   -769.25054   -3577.7648 
 5777000    213.42192   -4319.8435   -3954.0456   -4319.8435            0    1010.1061    18.183076    23.287509    22.006728     9318.497    2034.4616   -201.46732    1197.3241    489.83072    48.042336    166.58475   -3816.7715 
 5778000    206.27098   -4341.2004    -3987.659   -4341.2004            0    1878.4393     18.14069    23.165569    22.072585    9275.7698    1132.0573    2711.3333    1791.9273    365.99984    402.62823    130.55697   -3733.5482 
 5779000    207.95298   -4353.3405   -3996.9162   -4353.3405            0    2755.0005    18.052663    23.390835    21.814577    9211.5731    1301.6326    3792.8379    3170.5309   -715.35563   -510.93022   -31.527696   -3626.8058 
 5780000    213.46139   -4317.7926   -3951.9271   -4317.7926            0    1757.9591    17.839298    23.373849    22.280468     9290.355    2164.7695    2657.7946    451.31309    513.72331    26.396564    27.394643   -3713.7407 
 5781000    217.53668   -4314.9827   -3942.1323   -4314.9827            0    2528.1564    17.882542    23.719401    21.750471    9225.7495    2995.9377    1694.4857    2894.0458    1191.2273    10.560719   -62.976265   -3601.9737 
 5782000    218.40501   -4337.3357    -3962.997   -4337.3357            0    1031.9105     18.10481     23.28514    22.127773    9328.4725    1616.5813    60.643732    1418.5064     528.0078    266.32964    169.21444   -3822.6095 
 5783000    224.35978   -4355.0979   -3970.5529   -4355.0979            0    2096.3421    18.175076      23.2357    21.902011    9249.4518     771.2386    3982.7848    1535.0028   -618.48468   -495.37355    577.56967   -3687.7694 
 5784000    212.58738   -4365.4794   -4001.1119   -4365.4794            0    1628.3461    17.874265    23.587974    22.053037    9297.9504    2119.7291    1650.7474    1114.5619    230.13394    281.64396    441.55285   -3780.3065 
 5785000    200.01699   -4348.3658   -4005.5436   -4348.3658            0    2407.4818    17.891945    23.480628    22.012098    9247.5925    2880.5547    1658.3474    2683.5432    1191.9856   -303.86294    1171.0081   -3680.8546 
 5786000    206.41599    -4345.042    -3991.252    -4345.042            0    1250.9885    18.270481     23.10868    22.051063    9310.1062   -138.36352    2176.0184    1715.3107   -334.20474    22.272936   -441.82163   -3821.3949 
 5787000    219.07778   -4343.6276   -3968.1358   -4343.6276            0    2275.0002    18.042816    23.362599    21.991378    9269.9608    2215.3827    1949.6204    2659.9975   -564.89575    180.07596   -266.51942   -3660.5719 
 5788000    213.47086   -4332.2122   -3966.3305   -4332.2122            0    2548.7434    17.775654    23.587004     22.03372    9238.1751    3929.3551    2141.2839    1575.5911    664.39107    371.64044    671.81871     -3622.94 
 5789000    211.93821   -4335.4547   -3972.1999   -4335.4547            0    1527.2258    18.039864    23.510478    22.043538    9349.2337    1480.5394    1113.6896    1987.4484    109.76377   -294.64736    270.03458   -3763.9642 
 5790000    215.63031   -4350.9931   -3981.4101   -4350.9931            0    2225.7482    18.146692    23.161328    21.979253    9237.9122    3752.0185     1474.235    1450.9912   -510.79935    63.699246    471.17294   -3681.5451 
 5791000    208.15138   -4336.8593    -3980.095   -4336.8593            0     2465.352    18.023997    23.297082     22.02076    9246.6613    2293.2683    1836.4269    3266.3609    696.48202   -370.59523    126.83687   -3647.6347 
 5792000    215.46784   -4348.5094   -3979.2049   -4348.5094            0    2562.2485    17.923712    23.475525    21.951741    9236.6022    2925.4718    2606.7748    2154.4989   -373.92082    337.27455   -232.55149   -3634.0537 
 5793000    210.95331   -4328.5159   -3966.9492   -4328.5159            0    1665.6317    18.020544    23.600409    21.978531    9347.2978    965.11036    855.00668    3176.7779    864.61613   -351.91582   -465.52252    -3739.889 
 5794000    207.16338   -4319.5409     -3964.47   -4319.5409            0    2661.7579    18.029818    23.178699    22.149312    9256.3687    1854.9623    2471.4216    3658.8897   -459.77756   -256.74546    20.566656   -3605.1469 
 5795000     202.7173   -4359.9139   -4012.4634   -4359.9139            0    1720.6472    18.194218     23.44332    21.824212    9308.7436    1294.5528    1512.5874    2354.8015   -821.20182    766.16429   -93.430973    -3778.871 
 5796000    217.75158   -4335.1804   -3961.9617   -4335.1804            0    2956.1835    17.933251    23.435503     22.02435    9256.2784    3545.0292    2565.9808    2757.5404   -599.69704    590.50155   -116.42319   -3562.8966 
 5797000    200.10587    -4328.311   -3985.3364    -4328.311            0    2984.9651    17.792059    23.555231    22.048767    9240.5519    2688.5899     3141.779    3124.5263   -1110.1577    129.87211    671.55685   -3583.0706 
 5798000     207.0017   -4321.7336   -3966.9398   -4321.7336            0    2462.2751    18.152814    23.183062      22.1297    9313.0145    3270.2818    1562.8477    2553.6957     606.7309   -233.49435    137.94096   -3632.5117 
 5799000    219.30005   -4337.2885   -3961.4157   -4337.2885            0    2723.5054     18.13862    23.258036    21.970179      9268.53    1578.2824     2859.293    3732.9409    -665.0806    390.26073   -90.524304    -3593.274 
 5800000     215.5122   -4350.9245    -3981.544   -4350.9245            0    2357.0201    17.806005    23.880436    21.869088    9299.0678    1033.3868    2518.6056     3519.068   -333.87747    34.452001     323.2585   -3661.8911 
 5801000    219.21584   -4334.0526   -3958.3241   -4334.0526            0    2129.3585    17.953416    23.398984    22.122356    9293.4181    1792.7097     2133.375    2461.9906   -1064.9972   -148.00677    83.904691   -3669.7216 
 5802000    212.89827   -4340.4916   -3975.5912   -4340.4916            0    3052.4413    18.248387    23.232252    21.858398    9266.8922    3312.9833    2129.9925    3714.3482    931.46738    327.97913   -408.19628   -3563.0595 
 5803000    210.84166   -4349.2679   -3987.8925   -4349.2679            0    1858.1857    18.027851    23.306985    22.139123    9302.3027    2294.4775    888.90792    2391.1718    1043.9031    283.31751    -293.5071   -3735.8026 
 5804000    220.63455   -4337.2328   -3959.0727   -4337.2328            0    1692.9977    18.037534    23.489599    21.992956    9318.2932    1442.1373    2202.3632    1434.4926   -349.55915    319.96119    -796.4906   -3728.9981 
 5805000     209.7094   -4335.2781   -3975.8433   -4335.2781            0    2407.1914     17.94877    23.488959    21.960498    9258.5003    2462.1165    2220.1473    2539.3103   -950.18614    50.804839   -317.00897   -3650.8106 
 5806000    222.86219   -4331.5951   -3949.6169   -4331.5951            0    766.18235    17.971964    23.519301    22.124731    9351.8588     691.6253    548.82081    1058.1009   -200.18401    375.06246    518.60016   -3845.1194 
 5807000    213.54463   -4339.3784   -3973.3702   -4339.3784            0    2741.8876    18.061023    23.399477    21.902042    9256.2079    1274.0815    4062.8926    2888.6887    373.02828    102.14697   -820.12767   -3603.2365 
 5808000     219.4728    -4344.422   -3968.2531    -4344.422            0    4200.6955      18.0048    23.133375     22.14135    9222.1332    4357.4275    3891.7257    4352.9334    -22.83873   -411.18417    538.06108   -3403.2791 
 5809000    214.28481   -4334.0315   -3966.7546   -4334.0315            0     2465.334     17.99501    23.443635    21.942569    9256.8777     2235.919     3461.207    1698.8759    1155.7046    173.15638   -443.75726   -3633.9294 
 5810000    207.47059   -4359.9353   -4004.3378   -4359.9353            0    1847.1038    17.829047    23.603581     22.02372     9268.228    1976.4902    60.719636    3504.1017    440.65792    464.33457    400.27134   -3754.6692 
 5811000    214.11639   -4338.1716   -3971.1835   -4338.1716            0    2705.8878    18.189773    23.254485    21.774659    9210.5461    1897.6246    3371.1409     2848.898   -780.98171   -248.71676    190.72518   -3607.7114 
 5812000    208.87013   -4314.2057   -3956.2094   -4314.2057            0    1703.3526    18.122454    23.089278    22.181857    9281.6515    181.70782     3395.644     1532.706   -14.849235    410.94011   -574.58261   -3725.6379 
 5813000    215.17457   -4311.6658    -3942.864   -4311.6658            0    1751.2115    18.021305    23.468751    21.976094    9294.5149    1071.3582    1176.0803     3006.196    682.29531    152.11116   -710.29278   -3705.4856 
 5814000    221.61966    -4348.132   -3968.2835    -4348.132            0    2183.0345    17.875028    23.461346    22.066618    9254.1263     2370.451    2280.7347    1897.9177    235.95414   -636.66373    711.83177   -3673.6569 
 5815000    196.90328   -4333.6538   -3996.1683   -4333.6538            0    1495.7578    18.082677    23.252977    22.040488    9267.4974    536.32623    1637.9773    2312.9699    716.14388   -865.05737   -976.57029   -3794.0062 
 5816000     221.2676    -4327.694   -3948.4489    -4327.694            0    1583.6076    18.256951    23.182653    21.945276    9288.2189   -65.115405    2636.8114    2179.1268    804.77262    589.42551   -393.27324   -3733.9348 
 5817000    207.09148   -4356.9329   -4001.9852   -4356.9329            0    3056.4911    17.850306    23.449705    22.028286    9220.6972    3222.4949    3794.7232    2152.2552    128.89308   -271.63658   -86.069573   -3590.9653 
 5818000    222.19129    -4357.789   -3976.9607    -4357.789            0    2559.4061    17.906188    23.555187     21.83612    9210.1175    3418.3204     2462.954    1796.9438   -109.60956    496.49893   -384.06539    -3633.181 
 5819000    204.69661   -4363.9509   -4013.1079   -4363.9509            0    449.13873    18.133921     23.33723    22.144291     9371.364     561.0365    102.55126    683.82843    -930.2146   -802.53065    -151.3142   -3951.7233 
 5820000    212.25786   -4333.6233   -3969.8206   -4333.6233            0    4137.5218     17.95376    23.277382    21.948377    9172.5896    4110.4355    5558.6758    2743.4542    487.38022   -1560.1239    202.06936   -3416.3327 
 5821000    216.47948   -4342.7408   -3971.7024   -4342.7408            0    2191.9368    17.922125    23.747928    21.786941    9272.8125    2401.9496    1710.0647     2463.796    484.71475    519.08856   -473.35717    -3675.277 
 5822000    226.70725   -4311.8464    -3923.278   -4311.8464            0    2114.3296    17.994378     23.28355    22.116341    9266.1495    2605.7586    2168.4949    1568.7354    153.79723    387.24348   -855.57486   -3637.5532 
 5823000    208.32758   -4354.8521   -3997.7858   -4354.8521            0    2612.0033    18.107832    23.264745    21.884505    9219.3752    3300.4769    3563.8347    971.69814   -174.23794   -577.59037    67.656917   -3646.5885 
 5824000    220.63584   -4362.4088   -3984.2465   -4362.4088            0    2229.5717    17.990949    23.270722    22.118932    9260.3644    1712.4052     1909.453    3066.8569   -1053.4521   -139.13149    955.50735   -3683.1363 
 5825000     204.1553   -4325.1843   -3975.2691   -4325.1843            0    3499.8866    17.909542     23.37442    21.872095     9156.209    2788.3141     3946.327    3765.0188   -72.858437   -144.42015    102.30326   -3507.9155 
 5826000    213.42248   -4341.5403   -3975.7415   -4341.5403            0    2875.6325    17.882539    23.368912    22.111445    9240.2727    3399.1829     1757.017    3470.6977   -414.00549    724.41163      490.018   -3588.2215 
 5827000    211.39683   -4350.4055   -3988.0786   -4350.4055            0    2744.6576    18.124381    23.324516    21.758249     9198.135    2375.1687    3467.6643    2391.1398   -617.45594   -245.25369    18.266284   -3619.8955 
 5828000    226.79316   -4327.0149   -3938.2992   -4327.0149            0    1758.0215    18.043247    23.346408    22.055262    9290.6692    2833.0837    2049.6498    391.33086    1074.5299   -306.05336    694.27107   -3700.0963 
 5829000    224.08921   -4364.5885   -3980.5073   -4364.5885            0     1648.424    17.906252    23.583165    22.005287    9292.5269    2936.5924     534.5112    1474.1684   -609.56438    -639.8393    251.80344   -3757.1096 
 5830000    226.60649   -4334.8094   -3946.4136   -4334.8094            0    1130.3211    18.002525    23.540572    22.053969    9346.2457     1045.082    82.701374    2263.1798    -784.6836   -101.39339   -19.503976   -3792.3447 
 5831000    210.18655   -4332.2381   -3971.9855   -4332.2381            0    3997.6785    17.994128    23.243727     22.00781    9204.7798    3779.3773    5197.0691    3016.5891   -1127.4085    579.25755    811.47199   -3435.3281 
 5832000    203.22473    -4343.404   -3995.0838    -4343.404            0    1505.3599    18.244804    23.157058    21.882711    9245.3577    718.53653    1961.6322    1835.9109   -116.20094   -193.89741    495.53173     -3792.11 
 5833000    208.74576   -4347.4322   -3989.6491   -4347.4322            0    1853.0475    17.923875    23.435073    22.016823    9248.1077    1920.8708    2271.3515    1366.9201     378.5525    -354.5666    653.78594   -3739.7209 
 5834000    226.02587   -4332.3219   -3944.9213   -4332.3219            0     1442.174    17.875863    23.871075    21.834725     9317.228    1463.2428    782.09544    2081.1837    334.48051   -134.75272    -874.5384   -3748.9555 
 5835000    219.32698    -4354.497   -3978.5781    -4354.497            0    1554.8058    18.072456    23.259956    22.065352    9275.4911    1631.1192    2121.4725    911.82586   -362.40759    158.51181    343.46272    -3768.254 
 5836000    217.64937   -4348.7475    -3975.704   -4348.7475            0    1988.1948    18.171219     23.24568    21.992362     9289.625    2129.7527     432.0875    3402.7441    158.85887    606.22105    849.94221    -3706.344 
 5837000    210.21584   -4345.7504   -3985.4476   -4345.7504            0    2500.3854    17.840272    23.605958    21.897018    9221.6381    2395.6409    2328.9711    2776.5444    -822.2857    168.43718   -50.394877   -3649.1754 
 5838000    219.25424   -4325.5312   -3949.7369   -4325.5312            0    1932.9938    17.915613    23.524135    22.000228    9271.9811    2747.0818    1852.5868    1199.3127   -33.875822   -25.344201     462.0922    -3688.353 
 5839000    204.15872   -4351.3109   -4001.3898   -4351.3109            0    2693.2714    18.177799    23.119403    21.919506    9211.8884    1466.6393    2807.8911    3805.2837    74.840646    313.36763   -432.17944   -3639.5597 
 5840000     217.4717   -4339.2916   -3966.5525   -4339.2916            0    2218.6361    18.027577    23.362391     22.07692    9298.0769    1232.6162    2499.3798    2923.9123    168.14115    -655.1992   -294.54893    -3665.699 
 5841000     207.7424   -4358.8266   -4002.7632   -4358.8266            0    1553.9274    17.802637    23.595276    22.183427    9318.3287    2985.0708    787.55845    889.15314    180.21523    -585.1149    276.30649   -3791.5872 
 5842000    220.21015   -4339.1079   -3961.6752   -4339.1079            0    2002.0891    18.061843    23.505136    21.894802    9295.3521    2717.1277    1171.1462    2117.9933    225.29695    593.44778    824.20808   -3690.2657 
 5843000    210.53042   -4350.7375   -3989.8956   -4350.7375            0    3179.4938     17.89738    23.303456    22.009595    9179.5599     3567.244    2472.8532    3498.3841    391.92422   -536.97869     107.9532   -3564.2425 
 5844000    214.23436   -4351.6804   -3984.4901   -4351.6804            0    1728.2099    18.111248    23.475881    21.911943    9316.4655    2396.6726     1684.736    1103.2211    247.36027   -24.340972   -241.23919   -3749.6763 
 5845000    215.02957   -4357.3043    -3988.751   -4357.3043            0    2361.8162    18.068119    23.188232     22.06708    9245.3949    1966.9332    3892.2743    1226.2412    -1018.589   -303.34307    714.63252   -3670.2965 
 5846000    216.74476   -4327.0381   -3955.5451   -4327.0381            0    344.26822    17.940899    23.504999    22.146802     9339.324    1529.0557     1417.609   -1913.8601   -203.96571   -798.36461    70.911001   -3908.6542 
 5847000    214.25152    -4337.568   -3970.3482    -4337.568            0    1091.0323    17.959423    23.625843    22.040943    9352.1154    1826.3266    903.67507    543.09513    -939.4743   -108.46887    190.44518   -3821.5412 
 5848000    198.64271   -4344.9941   -4004.5273   -4344.9941            0    900.33744    18.179796    23.403161    22.001598    9360.9033   -105.93439     1151.699    1655.2478    -651.4812   -512.23696    279.11948    -3881.614 
 5849000    216.18509   -4342.8194   -3972.2856   -4342.8194            0    2146.8601    18.063865    23.355165     21.93527    9254.1516    1247.1148    2872.1243    2321.3413   -790.49934    445.30654   -67.249602   -3682.5404 
 5850000    217.19512   -4361.0102   -3988.7452   -4361.0102            0    3053.7691    17.834971    23.266788     22.21529     9218.512     3327.443    4156.1241    1677.7401   -789.04104    26.340458    112.98632   -3578.1887 
 5851000    204.64994   -4354.8727   -4004.1097   -4354.8727            0    2185.8484     17.92175    23.605357    21.885316    9258.5678    2626.5054    2178.1837    1752.8562   -505.26208    650.63275    68.871875   -3708.9618 
 5852000    225.80623   -4346.8912    -3959.867   -4346.8912            0    2218.0068    17.969113    23.349419    22.062184    9256.5941    2649.0855    2838.5884    1166.3465   -58.105225    174.03734    125.54655   -3660.4407 
 5853000    217.95755   -4336.8472   -3963.2754   -4336.8472            0    827.18099    18.287543    23.383861    21.865307     9350.335   -504.08285    253.78988    2731.8359   -541.17859    179.23138   -296.98729   -3850.4768 
 5854000     203.7319   -4325.4655    -3976.276   -4325.4655            0    1374.9997    17.962825    23.431666    22.185432    9337.8245     1744.968    2675.9724   -295.94128    763.00829    390.79924    667.75643    -3789.025 
 5855000    214.70299   -4326.0139   -3958.0203   -4326.0139            0    1237.9718    18.033229    23.576065    21.952101    9332.9927    256.30332    1571.3868    1886.2252    19.571811   -415.76799    431.94566   -3789.5174 
 5856000    205.36586   -4351.0078   -3999.0178   -4351.0078            0    2606.1654     18.02281    23.333544    21.952515    9231.8236    3734.1054    3418.6668    665.72411    58.769772   -370.66718   -399.79927   -3648.1323 
 5857000    218.41687   -4361.6851    -3987.326   -4361.6851            0    1829.8267    18.095459    23.132554    22.199797    9292.7055    1760.8318     3221.551    507.09716    26.093882    377.00362    188.31887   -3739.3395 
 5858000    215.06405   -4345.5365   -3976.9241   -4345.5365            0    1434.4519    18.084598    23.410992    21.952384    9294.1646    822.57571    1292.9261    2187.8539   -229.33474   -507.14143   -209.30427   -3782.4901 
 5859000    216.80157   -4355.6974   -3984.1069   -4355.6974            0    1964.2729    18.010927    23.249981     22.18954    9291.9525    2834.3078     1720.672    1337.8387   -279.79495   -5.5454842    241.97866   -3717.9212 
 5860000    218.48946    -4356.143   -3981.6596    -4356.143            0    2075.3488    17.874825    23.820988    21.754625    9263.0322    3001.0338    1662.1954    1562.8174     1.704118   -719.50645    532.26433   -3701.2969 
 5861000    208.75864   -4328.0428   -3970.2376   -4328.0428            0    2380.6316    17.891869    23.411427    22.116076    9263.8531    2730.5834    1333.7385    3077.5729    349.40538    139.45414   -757.89768   -3648.6053 
 5862000    218.83766   -4346.9703   -3971.8901   -4346.9703            0    2804.7075    18.283068     22.99893    21.981662    9243.0914     2852.322    3055.0582    2506.7423    500.10319   -121.72774   -214.94492   -3593.8127 
 5863000    209.97802   -4340.9105   -3981.0153   -4340.9105            0     1971.555    18.056279    23.249139     22.04672    9255.0573    2102.0396    1454.0463     2358.579     1227.604   -456.93593    -287.1309   -3714.9037 
 5864000    220.36414   -4321.5299   -3943.8333   -4321.5299            0    1721.9222    17.826832    23.624237    22.037893    9281.1553    2936.3418    1347.1425    882.28216    133.35072    30.764124    -390.3481   -3710.7606 
 5865000    218.92316   -4331.9446   -3956.7177   -4331.9446            0    2264.2757    17.979494    23.499255     21.93389    9267.1719    2413.6569    1620.1008    2759.0693   -79.872736   -742.90823    600.43926   -3650.6959 
 5866000    214.84193   -4352.2545   -3984.0228   -4352.2545            0    3908.4537    18.068749    23.071154     21.99583    9169.3332    3816.6808    4074.9507    3833.7296   -327.55783     745.1875   -45.736399   -3461.3635 
 5867000    205.54318   -4360.9176   -4008.6236   -4360.9176            0    1028.5593    18.221007    23.476093     21.82276    9334.8614    991.61863    1121.8102    972.24902     340.2677    -74.15818    186.58042   -3868.5962 
 5868000    215.42104   -4366.4592   -3997.2349   -4366.4592            0    1698.8414    17.900374    23.516611    22.087339     9297.801    1667.3701    1117.1687    2311.9853    829.30866   -137.87531   -241.84993   -3766.8739 
 5869000    212.21622   -4329.4677   -3965.7363   -4329.4677            0     2161.875    17.926366    23.524518    21.948581    9255.9168    2233.8938    952.68669    3299.0444    1181.1032    227.27256    43.064937    -3673.909 
 5870000    212.36046   -4350.7646    -3986.786   -4350.7646            0    1635.7637    18.052836    23.311962     22.12835    9312.6506    1862.5407    1783.4657    1261.2847   -7.2986796    -366.5118    241.91109    -3764.624 
 5871000    212.08509   -4349.1614   -3985.6548   -4349.1614            0    2981.6707    18.263489     23.28449    21.759776    9253.4755    2358.7352    2242.0441    4344.2328    644.67281   -523.34686    72.296698    -3583.271 
 5872000    212.40228    -4319.508   -3955.4578    -4319.508            0    1238.6271    18.009281    23.502783     22.10525    9356.4494    1352.9839    460.18727    1902.7101    450.62144   -71.937619   -357.22025   -3786.4419 
 5873000    208.37625   -4363.2492   -4006.0995   -4363.2492            0    2096.3931    17.988901    23.552479    21.947903    9298.9584    2042.9518    1999.8615    2246.3658   -88.475879    380.28475   -107.25305   -3721.7955 
 5874000    211.80584   -4323.3383   -3960.3103   -4323.3383            0    1073.1333    18.211496    23.155296    22.205199    9363.7681   -405.60109     2491.877    1133.1239    280.48707    147.90794   -364.36522   -3813.7622 
 5875000     220.8585   -4317.9825   -3939.4386   -4317.9825            0    3588.5271    18.063226    23.348257     21.95867     9260.956    2991.4559    4921.8809    2852.2444    341.08866    443.46283   -20.525546   -3454.7666 
 5876000    210.14943   -4335.1996   -3975.0106   -4335.1996            0    2201.4496    17.903103    23.753798    21.873325    9301.9964    3019.7068    510.82747    3073.8146   -61.937218    342.07624   -276.26036   -3676.3618 
 5877000    212.07739    -4331.189   -3967.6956    -4331.189            0     2590.284    17.978076    23.224094    22.202375    9270.0359    2855.4705    3095.0848    1820.2966    131.85841   -566.18516   -556.15182   -3617.5048 
 5878000    211.64326   -4336.6018   -3973.8525   -4336.6018            0    1960.3841    18.268349     23.34107    21.685185    9246.6237    1265.1814    1011.5837    3604.3873    622.91461     -568.415   -305.55122   -3709.4897 
 5879000    214.66293   -4321.6676   -3953.7427   -4321.6676            0    2531.4448    17.822356    23.523154    21.995185    9221.2176    3328.8772     1957.615     2307.842   -843.10003   -1146.9983    545.27275    -3613.309 
 5880000    213.37375    -4368.392   -4002.6767    -4368.392            0    665.95901    18.062503    23.542046    21.990224    9350.8651    1761.2355    397.53507    -160.8935   -102.22747   -635.60328   -121.49831    -3911.858 
 5881000    207.52922   -4355.7468   -4000.0488   -4355.7468            0    1443.7008    18.189125    23.221672    22.020903    9301.2305   -237.28847    3138.2914    1430.0995   -920.73528    464.86568    186.86905   -3804.2124 
 5882000    217.02524   -4320.9433   -3948.9695   -4320.9433            0    870.12385     18.10404    23.426249    22.042826    9348.5772    45.307733     1684.547     880.5168   -711.64727    118.16842   -37.820166   -3830.3373 
 5883000    199.69867   -4324.8226   -3982.5459   -4324.8226            0    2651.2255    17.833306    23.619128    21.874608    9213.7409    2701.2993    2743.5298    2508.8474   -49.802109   -176.38964   -901.88621   -3626.2929 
 5884000    200.46046   -4344.1929   -4000.6105   -4344.1929            0    1956.3985    17.880818    23.408859    22.138278    9266.4087    2337.2256    2066.6901    1465.2799   -842.06239    384.79145    206.57736   -3736.2208 
 5885000    203.80807   -4357.6077   -4008.2876   -4357.6077            0    2848.5126    18.110632    23.347135    21.775163    9207.2219    2590.4917    2772.2172    3182.8288    185.67278    278.48716   -1492.3485   -3625.7954 
 5886000    216.46165   -4345.2411   -3974.2332   -4345.2411            0    1356.4124    17.966679    23.089142    22.385105    9286.1298     1345.956    1899.8424    823.43885    723.97495   -68.284414    222.91572   -3790.5361 
 5887000     196.2794   -4336.7291   -4000.3129   -4336.7291            0    280.62984    18.194805    23.469058     21.92536    9362.4563   -519.73684    184.37159    1177.2548    -351.6692    176.54783    72.323991   -3961.9952 
 5888000    212.04508   -4334.7033   -3971.2652   -4334.7033            0    3693.8967     17.74713    23.424146    22.065123    9172.7223    4186.8846    2316.8221    4577.9833   -293.98417   -156.65882   -457.11431   -3477.1152 
 5889000    208.49743   -4374.5538   -4017.1963   -4374.5538            0     1984.851    18.015896      23.4839    21.910217    9269.8513    1171.1514    1983.3088    2800.0928    333.78038   -81.648829      747.467   -3748.8618 
 5890000    214.00612   -4344.9861   -3978.1869   -4344.9861            0    2001.3616    18.166768    23.287592    22.075869    9339.4236    468.03847    3775.9934     1760.053   -78.689528   -228.69211   -621.56094   -3705.5896 
 5891000    212.72756   -4364.1842   -3999.5765   -4364.1842            0    2128.6895    18.051756    23.226558    22.083326    9259.1003    656.63992    2119.8109    3609.6175    552.39318    23.553506    509.93279     -3712.13 
 5892000    197.64799   -4324.5563   -3985.7944   -4324.5563            0    1670.2618    17.849237    23.707209    21.935495    9282.1271    2764.3778    898.48104    1347.9265   -16.200345   -134.70592   -76.094047   -3759.6906 
 5893000    207.89203   -4350.7572   -3994.4374   -4350.7572            0    1833.5369    17.901778    23.513264    22.112798    9307.9228    1722.3909    2786.6406    991.57907     196.0977    447.60154    -752.6974   -3745.5411 
 5894000    215.79655   -4348.0047   -3978.1367   -4348.0047            0    3996.5385     18.03439    23.220451    21.912509    9176.2284    4176.5635    4182.6682    3630.3838    1570.4751   -233.50909   -181.01146   -3443.2965 
 5895000    218.70521   -4322.4066   -3947.5534   -4322.4066            0    5105.4652    17.860397    23.125214    22.032106    9099.8216    4753.7357    5838.5367    4724.1232   -667.45483    57.768803    446.59324   -3269.9991 
 5896000    195.50525   -4322.2086   -3987.1193   -4322.2086            0    1423.0728    17.897209    23.688703    21.870344    9272.1876    1886.6944    468.67268    1913.8514    130.68425    12.308313    117.55935   -3794.6838 
 5897000    198.31815   -4347.5123   -4007.6018   -4347.5123            0    2029.8919    17.982959    23.377033    22.183607    9325.7272     2409.151    2014.2573    1666.2673    933.21794    151.37468   -669.96659    -3731.524 
 5898000    202.05862   -4348.4806    -4002.159   -4348.4806            0    1813.1584    17.996779    23.396167    21.873645    9210.0214    2228.4251    444.90382    2766.1461    351.61418    -381.7959   -93.299221   -3758.6179 
 5899000    229.70815   -4339.0529    -3945.341   -4339.0529            0    2806.9402    17.898974    23.318193    22.162797    9250.1247    3973.9986    2705.4508    1741.3711    109.46492    44.090266   -102.23571   -3566.6747 
 5900000    208.80688   -4343.5524   -3985.6645   -4343.5524            0    405.94315    17.977262    23.683119    21.931231    9337.3889    1346.5981   -324.10141     195.3328   -1047.8479    119.47924   -211.90082   -3930.3847 
 5901000    216.97222   -4322.6241   -3950.7411   -4322.6241            0    3665.0132    17.873002    23.236197    22.120557    9186.6804    3884.3913    4196.2663    2914.3818      1081.36    1066.6796     311.4507   -3459.7088 
 5902000    198.81735   -4343.4622   -4002.6961   -4343.4622            0    1151.0375    18.170764    23.274461    21.943061    9280.0441    911.00149    2940.8572    -398.7463    372.10706   -320.67482   -64.700197   -3846.9148 
 5903000    219.32699   -4344.8646   -3968.9456   -4344.8646            0    2404.5169    17.913247    23.261901    22.207868     9253.934    1844.5712    3495.4501    1873.5294   -390.50761    303.94529    144.85813   -3644.4341 
 5904000     202.6067   -4346.1694   -3998.9085   -4346.1694            0     2604.128    17.955509    23.522132    21.896135    9247.8735    854.44349    3721.1752    3236.7654   -680.60762   -573.26292   -348.56476   -3647.6878 
 5905000    210.44612   -4340.8463   -3980.1488   -4340.8463            0    2064.4118    18.066413    23.237051    22.000053    9235.8458     1742.539    1203.0451    3247.6513   -1236.9834   -12.740173    915.96448   -3702.0822 
 5906000    197.32818   -4352.8112   -4014.5975   -4352.8112            0    3608.0511     17.99637    23.277441    21.956496    9197.7836    2591.8438    5783.7967    2448.5128   -172.32933   -634.56288    493.52363   -3530.6127 
 5907000    208.05783   -4346.9548   -3990.3508   -4346.9548            0    2456.5165    18.000889    23.332295    21.952804    9220.2229    1808.2047    3109.6648    2451.6799   -169.93492   -729.62217   -277.45082   -3660.0292 
 5908000    215.91346   -4362.8921   -3992.8238   -4362.8921            0    503.31492     18.03806    23.353538     22.22052    9360.4498    190.58318    1642.5236   -323.16198    193.58218   -135.44309    969.72529    -3924.115 
 5909000    207.38665   -4338.6639   -3983.2102   -4338.6639            0    2000.9464    17.909237    23.574523    21.997345     9287.317    2287.1017    1772.7094    1943.0281   -696.77075      914.026    615.28543   -3712.1901 
 5910000    222.42894    -4330.786   -3949.5504    -4330.786            0    3439.2074    18.003529    23.209949    22.064507    9219.8967    4028.2737    3367.1191    2922.2293   -433.40008    329.50061   -578.67621   -3487.1052 
 5911000    193.57706   -4338.7971   -4007.0127   -4338.7971            0    3130.6088     18.17248     23.20115    21.925481    9244.2745    2765.3675    3785.4951     2840.964    -1107.285   -7.5667823    -741.0739   -3584.9494 
 5912000    205.63369   -4339.0161    -3986.567   -4339.0161            0    3048.1879    17.878922      23.4662    22.046155    9249.4726    2740.8683    2731.1061    3672.5893   -668.71121    278.35232      -39.343   -3575.3846 
 5913000    216.99291   -4347.9756   -3976.0571   -4347.9756            0    3008.9934    17.926728    23.474022    21.988519    9253.0417    1931.0497    4937.5332    2158.3973    359.50751    280.37275   -523.37258   -3570.0051 
 5914000    204.69387   -4337.7436   -3986.9053   -4337.7436            0    1796.0115    18.013395    23.423764    21.931337    9253.7419    869.65005     2227.962    2290.4224   -311.74722   -70.668499    521.98743   -3744.5222 
 5915000    214.17997   -4347.4019   -3980.3047   -4347.4019            0    2319.7661      17.9966    23.219249     22.08249    9227.5558    3764.6849    1686.5422    1508.0711   -30.467686    87.941158    521.91112   -3668.1235 
 5916000    209.06454     -4316.91   -3958.5805     -4316.91            0    3287.1126     18.03622    23.457398     21.68728    9175.5146    2419.1108    2537.8501    4904.3768   -288.19217   -935.44355   -521.83865    -3518.714 
 5917000    201.93115   -4348.2279   -4002.1248   -4348.2279            0    1355.8705    17.970425    23.399816    22.132609    9306.8647    1997.1414   -185.12991       2255.6   -185.37006   -367.19369    96.874006   -3818.0911 
 5918000    229.14655   -4332.9483   -3940.1989   -4332.9483            0    1638.4065    17.897533    23.672657    21.880755    9270.4853    2723.9922    533.30715      1657.92    343.18431   -1198.1686   -10.892813   -3718.6855 
 5919000    219.21223   -4327.0071   -3951.2849   -4327.0071            0    2319.1288    18.024561    23.256462    22.213989     9311.827    2097.8091    2167.7351    2691.8423    142.58699    509.91436    128.37501   -3636.3392 
 5920000     223.2115   -4355.0289    -3972.452   -4355.0289            0    3667.9702    18.091036    23.168629    21.860813    9162.8394    2830.9332    4649.1483    3523.8291    46.072013    357.33242   -435.67459   -3482.2989 
 5921000    214.54343   -4344.3291    -3976.609   -4344.3291            0    2314.3876    17.904698     23.33415     22.12475    9243.5197    3373.4437    2635.3038     934.4154   -1137.6151   -102.80534    997.79127   -3664.6127 
 5922000    219.87566   -4360.3231   -3983.4637   -4360.3231            0    2361.4834     17.98268    23.453622     21.94833     9256.905    2903.9221    2004.3962    2176.1319   -603.05245    44.157792   -478.03138   -3664.6577 
 5923000    206.28636   -4342.6468    -3989.079   -4342.6468            0    2018.4615      18.0949    23.422853    21.988106    9319.3107    245.36099    2752.1123    3057.9111   -523.69994    57.367707    138.57389   -3714.7447 
 5924000    207.20461   -4348.1498   -3993.0082   -4348.1498            0    3000.3379    18.005495    23.080847     22.20144    9226.5204    3341.5645    4096.2492    1563.2002   -563.32622   -527.13297    268.67734   -3589.2847 
 5925000    215.13002   -4330.2971   -3961.5716   -4330.2971            0    2854.0894     18.01354    23.630226    21.732909    9250.9175    2450.3881    1993.7446    4118.1355     274.7846   -293.36764   -165.66578   -3576.5117 
 5926000     205.4236    -4340.745    -3988.656    -4340.745            0    2710.4314    17.957461    23.415959    22.022471    9260.2547    3265.4226    1618.0478    3247.8239   -650.98483    10.727016    460.44829   -3622.6086 
 5927000    218.59119   -4329.6349   -3954.9771   -4329.6349            0      1450.81     18.06261    23.307385    22.099335    9303.6479    2608.6736    1847.5131   -103.75676    222.60545    12.195486    512.64496   -3758.1252 
 5928000    212.44805   -4327.4576   -3963.3289   -4327.4576            0      1747.99    17.991901    23.738924    21.730454     9281.259     2411.892    203.70678    2628.3711   -160.19092    366.13146   -80.321164   -3726.7251 
 5929000    198.60157   -4317.4556   -3977.0593   -4317.4556            0    2383.8136    17.907207    23.348323    22.124233    9250.2142    2585.7262    3376.5335    1189.1811    485.92541   -335.93918   -487.88521   -3655.4712 
 5930000    211.13298   -4345.4752   -3983.6005   -4345.4752            0    712.08751    18.147315    23.325914    22.116068    9361.7914   -440.51929     803.1776    1773.6042      1214.49   -67.640349    132.01433   -3886.3777 
 5931000    216.33807   -4342.8013   -3972.0053   -4342.8013            0    2674.9208    18.014393    23.396418    21.935845    9245.3499    4176.6523    2332.6946    1515.4155   -775.45413    90.993366    38.491584   -3611.3352 
 5932000    220.61947    -4330.365   -3952.2308    -4330.365            0    2135.9397    17.943784    23.496293    22.064013     9302.462    1993.0575    3043.1667    1371.5948   -103.03993   -114.94822   -313.89319   -3662.4545 
 5933000    220.79907     -4364.91   -3986.4679     -4364.91            0    3001.3709    18.004253    23.164267    22.020554     9183.789    2539.1883    3009.4186    3455.5057    413.04346   -262.30354    617.62702   -3584.4759 
 5934000     205.4228   -4345.6265   -3993.5388   -4345.6265            0    1918.1252     18.13636     23.33418    21.891399    9264.3764    2360.4379    1529.2925    1864.6453   -493.89806    799.78898    947.27513   -3734.3782 
 5935000      220.833   -4340.5808   -3962.0806   -4340.5808            0    1112.4783    17.825993    23.609784    22.069909    9288.5148     282.6762    957.75086    2097.0079    283.88949    357.14396   -145.93176   -3811.3804 
 5936000    215.20015   -4327.3999   -3958.5542   -4327.3999            0    2597.1584    18.019542    23.436438    21.776575    9196.5501     1591.219    2747.5161      3452.74   -6.1838675    184.93782   -63.794556   -3610.2175 
 5937000    206.70176   -4338.8094   -3984.5297   -4338.8094            0    1217.1631    18.029584    23.334586    22.121841    9306.9432    1849.1718    512.63988    1289.6778    194.57074   -50.279805   -304.83936   -3819.3214 
 5938000    220.34221   -4328.2538   -3950.5948   -4328.2538            0    2145.3038    18.009038    23.520049    21.929024    9288.5524    820.03534     1968.268    3647.6081     -326.296    1055.4361   -234.22776   -3659.9834 
 5939000    205.45175   -4353.2878   -4001.1506   -4353.2878            0    2554.5647    18.034153    23.317543    21.926027    9220.1602     2690.546    2034.7487    2938.3994   -373.86775   -224.26776    718.89083    -3657.647 
 5940000    226.90221   -4321.8501   -3932.9475   -4321.8501            0    4299.4289    18.039677    23.160671    21.946273    9169.3949    4157.9936    5234.6965    3505.5967    1384.9259   -610.46502    442.59226   -3358.0011 
 5941000    220.89993   -4350.7963   -3972.1814   -4350.7963            0    1578.7376     17.98585    23.457726     22.11851    9331.9575    1748.4147    820.17547    2167.6227    762.54531    214.90359    76.728263   -3757.3199 
 5942000    216.14904   -4338.0784   -3967.6063   -4338.0784            0    2460.3326    18.019684    23.581213    21.852486    9285.6899    2771.5462    1001.2991    3608.1526     1179.999   -22.656255   -53.695479   -3634.4225 
 5943000    222.59371   -4351.9127   -3970.3947   -4351.9127            0     3144.533    17.995345    23.222138    22.113943    9241.2038    3056.9273    4055.5807     2321.091    491.99009   -659.12901   -356.16969    -3546.595 
 5944000    224.06563   -4335.9553   -3951.9145   -4335.9553            0    3108.5851    18.077262    23.259051    21.931081    9221.1414     2823.201    4794.5227    1708.0315    1494.5841    213.49921   -194.70991   -3533.8692 
 5945000    214.99159   -4340.7382     -3972.25   -4340.7382            0    2480.3309    18.003706    23.345988    21.949472    9225.6772    2360.5519    2502.0736    2578.3671    483.38503    243.97797    648.68986   -3638.5288 
 5946000    216.72704   -4347.3001   -3975.8373   -4347.3001            0     1565.847    18.040829    23.451395     21.99378    9305.1859    390.36761     2837.796    1469.3774   -1301.7974   -169.73759    497.21081   -3763.3416 
 5947000    201.78352   -4320.5221    -3974.672   -4320.5221            0    255.32382    18.117005    23.384496    22.181336    9397.2791   -912.83676    1038.0897    640.71857   -391.01799   -637.78033   -206.04861     -3939.68 
 5948000    209.40872   -4327.3384    -3968.419   -4327.3384            0    2235.0466    18.106721    23.400396    21.954069    9302.0365     1714.387    1128.2692    3862.4836    468.07172    650.88432    1024.9473   -3665.2111 
 5949000    212.49461   -4326.0386   -3961.8301   -4326.0386            0     2013.719    17.957627    23.564892    21.980748    9301.5832    2641.6424    1216.9957    2182.5188   -943.49187   -375.10732    91.797163    -3688.661 
 5950000    206.34089   -4329.4682   -3975.8069   -4329.4682            0    1576.5878    17.809646    23.628462    22.121962    9309.2434     2821.632    1915.5524   -7.4210389   -347.99733    249.48791   -47.366239   -3761.7603 
 5951000    220.35984   -4349.1893   -3971.5001   -4349.1893            0    2655.0539    18.115493    23.278161    21.937945    9251.1295    1797.0536    3185.1993    2982.9088    21.967248    468.21694   -301.38897   -3613.2849 
 5952000    204.99911   -4317.2809   -3965.9195   -4317.2809            0    2561.4759    18.115944    23.098052    22.223602    9299.3109    1501.6176    4219.2512    1963.5589    351.95403   -393.64391   -642.06237   -3618.5298 
 5953000    213.83724   -4361.7872   -3995.2775   -4361.7872            0    2435.0544    17.888516     23.51623    21.978284    9245.6151    2546.2788    2708.8089    2050.0754    343.42877   -459.33167   -106.18776   -3666.9401 
 5954000    209.05857   -4350.4407   -3992.1215   -4350.4407            0    2792.8521    17.961598    23.382892    22.020719     9248.572    3186.8512    2934.7915    2256.9137   -126.88071   -308.09633    191.97851    -3615.419 
 5955000    200.16866    -4342.998   -3999.9158    -4342.998            0    2046.0282    18.201698    23.194464    21.954389    9268.6741    437.05266    2171.0868    3529.9452   -894.36609      838.466   -49.975146   -3723.3458 
 5956000    209.87446   -4353.1279   -3993.4102   -4353.1279            0    2488.7328    17.932798    23.525106    21.959755    9264.1833    2935.2731    2060.6769    2470.2485    319.73039   -89.539549    168.65849    -3657.161 
 5957000    205.36187   -4338.9888   -3987.0056   -4338.9888            0    1442.6777    17.963253    23.480386    22.059261    9304.2458    1696.6027    1564.1599    1067.2703   -596.97218    146.94973    614.35152   -3791.2445 
 5958000    206.80326     -4317.77   -3963.3162     -4317.77            0    1203.7675    18.187588    23.375724    21.936552    9326.2822    106.26104    2647.2371    857.80442    258.95174   -316.83372    22.176613   -3799.5867 
 5959000    216.89576   -4352.4632   -3980.7112   -4352.4632            0    1967.2959     18.11288    23.251361     21.92376    9233.1722    1235.3843    2045.7661    2620.7373    -822.1794    -362.9152    75.690817   -3715.8024 
 5960000    214.25552   -4320.8743   -3953.6477   -4320.8743            0    2098.7715    17.914465    23.383726    22.158479    9282.3409    1473.4087     2727.028    2095.8777    266.43075   -66.547987    297.62702   -3669.5298 
 5961000    222.09669   -4369.7132   -3989.0471   -4369.7132            0    1000.2028    18.011449    23.553619    21.919107    9298.8479    113.03315    1094.3337    1793.2415    264.66923    -795.4014    247.56722   -3853.4055 
 5962000    220.17483   -4355.3933   -3978.0212   -4355.3933            0    2288.6983    17.882396    23.361881     22.15699    9256.4461    3913.2481     1261.514    1691.3328   -1118.3081    259.70301    182.85116   -3669.0566 
 5963000    219.79645   -4335.0115   -3958.2879   -4335.0115            0     487.0648    18.291957     23.41667    21.874098     9369.479   -1061.8735    1245.5514    1277.5165   -196.35316    377.46558    175.24042   -3891.7333 
 5964000    214.20432   -4350.2216   -3983.0827   -4350.2216            0    2517.2353    17.948747    23.342611    22.028294     9229.208    2537.2336    2321.6834    2692.7889   -14.138037    -80.98056   -265.06763   -3644.2666 
 5965000    203.26423   -4367.2252   -4018.8373   -4367.2252            0    2283.5495     17.87413    23.580479    21.833383    9202.3461    2590.8206    2228.3352    2031.4927    410.84222    252.52887    269.82285   -3712.3695 
 5966000    207.47305   -4343.6624   -3988.0607   -4343.6624            0    1880.2644    17.932429    23.360724    22.155539    9281.2771    3486.7428    2448.0362    -293.9858   -158.76152    654.15167   -100.57769   -3733.5521 
 5967000    195.60588   -4338.8658   -4003.6041   -4338.8658            0    905.15536    18.176238    23.201358    22.061407     9303.591    1232.1158    614.24511    869.10522    107.00768   -610.02871    118.53628   -3880.7896 
 5968000    217.32594   -4341.2444   -3968.7552   -4341.2444            0    1565.6066    18.055661    23.524138    21.952383    9324.1404    1967.5554    311.49482    2417.7697   -593.99524    11.744108    574.97642   -3755.8592 
 5969000    207.97913   -4318.8426   -3962.3735   -4318.8426            0    1902.4607    17.897607    23.544702    22.013092    9276.1808    1634.4354    1881.7298    2191.2168    214.89227   -1048.8249      -355.84   -3705.0018 
 5970000    207.08664   -4351.9144    -3996.975   -4351.9144            0    1362.2628    18.094096    23.262306    22.100284    9302.2397    1095.1307     2269.461    722.19673   -211.16839    61.071687   -406.30528   -3812.1655 
 5971000    215.50834   -4344.8533   -3975.4794   -4344.8533            0    2018.7329    18.253963     23.06803     21.97742    9254.3173    1516.5201    2339.8905    2199.7882    193.79326   -158.37349    288.90718   -3703.0217 
 5972000    216.88965   -4360.3532   -3988.6117   -4360.3532            0     2498.021    17.983609    23.399807     21.92406    9225.9287    2569.3054     2611.417    2313.3405   -92.478912    206.95476   -198.27796   -3652.5013 
 5973000      207.926   -4349.4464   -3993.0683   -4349.4464            0    1782.8933    17.934608    23.499683     22.11559    9320.7836    1432.2488    904.40637    3012.0248   -83.673727   -53.494872   -703.34645   -3750.7124 
 5974000    219.63971   -4352.6978   -3976.2428   -4352.6978            0    2170.1784    18.056805    23.642555    21.773716    9295.3953    1194.6461    2050.2308    3265.6583      -1032.8    156.55795     723.1219   -3682.0452 
 5975000    210.49539   -4353.7365   -3992.9546   -4353.7365            0    3232.3664    18.058431    23.171729     21.99201    9202.4483     1341.102    4305.2086    4050.7885   -133.94025   -541.61178   -214.42628   -3559.1443 
 5976000    210.88481   -4336.0494   -3974.6001   -4336.0494            0    2939.4649    17.999716    23.319539    21.942491    9210.2522    3426.4625     1429.096    3962.8362   -81.342624    451.44019    731.02505    -3579.765 
 5977000    237.35286    -4332.209   -3925.3943    -4332.209            0    1599.4436      17.7567    23.597015    22.163737    9286.7193    2110.6325    809.83977    1877.8584    246.23192   -724.63511    372.49291     -3708.77 
 5978000     213.0478   -4321.8723   -3956.7156   -4321.8723            0    1615.7566     18.10767    23.421862    21.976711    9320.6604    2053.6689    2759.9874    33.613532   -610.17531   -254.33829   -1001.6949   -3737.0821 
 5979000    222.51789   -4341.7705   -3960.3824   -4341.7705            0    1769.2513     18.08172    23.130629    22.171025    9272.8439    2274.7231    2034.8916    998.13904    522.47009    18.194926    436.07012   -3721.1179 
 5980000    217.14092   -4316.0335   -3943.8614   -4316.0335            0     1450.249    17.983362      23.5989    21.897132    9292.8708    1646.0133    111.03142    2593.7022   -462.69062   -170.32044    183.65595   -3747.3135 
 5981000    219.65289   -4337.5827   -3961.1052   -4337.5827            0    1374.4623    17.902295    23.492305    22.090208    9290.3942    3006.8939    1191.1114   -74.618399    862.90164   -819.59713    -79.59078   -3774.8781 
 5982000     202.6655   -4319.0963   -3971.7346   -4319.0963            0    1066.8764    18.094412    23.150392    22.208711    9303.0675    2455.7981   -178.92408    923.75514   -665.54675    139.57777   -111.87948   -3826.9854 
 5983000    209.79901   -4348.5212   -3988.9329   -4348.5212            0    2614.9985     18.08564     23.28337    21.852065    9201.7875    2424.2225    1872.5357    3548.2373   -108.17365   -146.18713     68.01496   -3638.0037 
 5984000    210.24724   -4319.1835    -3958.827   -4319.1835            0    3376.1398     17.92075    23.396225    21.924881    9192.6181    1782.6559    5842.8716     2502.892    425.35783   -162.20928   -88.589382   -3506.2051 
 5985000    208.93213   -4351.5992   -3993.4967   -4351.5992            0    1650.6057    17.928837    23.576651    22.047374    9319.4677    2597.0254    252.80427    2101.9874    666.96612    155.35913    337.29927   -3769.1548 
 5986000    203.41572   -4331.2934   -3982.6458   -4331.2934            0    2145.8106    18.061248    23.257551    22.090179    9279.2094    1010.4477    1920.4912    3506.4928    -111.0746   -307.55969    239.18378   -3692.2581 
 5987000    218.51741   -4349.1026   -3974.5713   -4349.1026            0    1955.6917    18.018978    23.332934    21.948683     9228.008    1333.8376    1095.1927    3438.0448    718.58432    590.49151    30.178746   -3711.3723 
 5988000    218.26286   -4335.0027   -3960.9076   -4335.0027            0    1932.4062    17.733842    23.680706    22.040507    9255.9084    2910.2145    1896.0276    990.97656   -203.76427   -14.690056    467.42416   -3700.0561 
 5989000    214.50021   -4339.5859   -3971.9398   -4339.5859            0    2720.9181    17.984021    23.354674    21.893236    9195.3985    4534.7177    1853.4595     1774.577    171.02548   -750.44781   -90.941713   -3607.0499 
 5990000    220.46108   -4352.0745   -3974.2117   -4352.0745            0    2380.2873     18.10654    23.261498    21.964293    9251.0358    607.29716    3417.5256     3116.039    717.56661    630.65441    93.656426   -3653.0708 
 5991000    204.39733   -4346.1868   -3995.8568   -4346.1868            0    938.40092    17.958842    23.386671     22.26687    9352.0302    845.34674    1080.4123    889.44376   -161.84741   -639.91778    377.50374   -3867.8685 
 5992000    202.71823   -4319.6188   -3972.1666   -4319.6188            0    2845.7687    17.960161    23.524898    21.905598    9255.3551    2101.5741    2645.6665    3790.0655    334.73059    96.507948    567.44356   -3588.0452 
 5993000    208.81494   -4314.0101   -3956.1085   -4314.0101            0    317.19081     18.12839    23.511334    22.077187    9409.7969    58.126102    242.84025    650.60607   -14.643014    266.50163    66.326563   -3912.5797 
 5994000    215.22649   -4334.4768   -3965.5859   -4334.4768            0    2105.8768    18.075041    23.337787     21.94332    9256.3829    2368.4597    1355.3186    2593.8522   -158.03038    184.21999   -225.53145   -3681.3034 
 5995000     223.7694   -4338.3625   -3954.8294   -4338.3625            0    1458.5721    18.077542    23.289125    22.117222    9311.5743    1493.5192    1671.4016    1210.7954    421.49959    352.49715    1376.8259   -3756.7557 
 5996000    212.13278   -4340.1796   -3976.5913   -4340.1796            0    523.83578    17.990308    23.559288     22.03236    9338.1701    661.22221    10.201915    900.08323    735.09985   -506.05076   -269.48091   -3905.2514 
 5997000    209.16662   -4342.8026   -3984.2982   -4342.8026            0    1776.0855    17.973982    23.497272    21.972944    9280.0432    2094.8008    1086.3048    2147.1508   -642.64379    54.039426    594.22319    -3743.923 
 5998000    213.39593   -4312.4715   -3946.7182   -4312.4715            0    1532.5498    17.881119    23.387688    22.190391    9279.9775    1771.1559    1472.9674    1353.5259   -163.82947   -758.17117    473.16403   -3739.3045 
 5999000    214.87702   -4361.1633   -3992.8715   -4361.1633            0    2218.7985    18.205713    23.422894    21.669688    9240.6156    703.47311    2708.7285    3244.1938     245.7734     63.86323    93.841632   -3693.8553 
 6000000    218.93705   -4315.5783   -3940.3277   -4315.5783            0    2742.4748    17.919177    23.341827     22.09875    9243.1633    3466.4686    1665.1387    3095.8171   -212.88308    80.480459    211.68306   -3570.6365 
Loop time of 348.542 on 64 procs for 250000 steps with 864 atoms

Performance: 123.945 ns/day, 0.194 hours/ns, 717.274 timesteps/s
195.1% CPU use with 32 MPI tasks x 2 OpenMP threads

MPI task timing breakdown:
Section |  min time  |  avg time  |  max time  |%varavg| %total
---------------------------------------------------------------
Pair    | 17.685     | 25.217     | 34.118     | 108.5 |  7.23
Bond    | 0.84643    | 1.0397     | 1.7489     |  16.2 |  0.30
Kspace  | 172.15     | 183.48     | 192.55     |  41.7 | 52.64
Neigh   | 1.1907     | 1.2682     | 1.3547     |   3.9 |  0.36
Comm    | 52.863     | 56.1       | 59.682     |  21.9 | 16.10
Output  | 0.61344    | 0.6138     | 0.61561    |   0.0 |  0.18
Modify  | 62.345     | 64.928     | 70.47      |  20.0 | 18.63
Other   |            | 15.9       |            |       |  4.56

Nlocal:        27.0000 ave          40 max          18 min
Histogram: 7 3 4 2 5 3 0 3 2 3
Nghost:        2130.34 ave        2250 max        2023 min
Histogram: 9 3 4 0 0 0 0 7 6 3
Neighs:        6572.28 ave        9558 max        4314 min
Histogram: 6 4 1 4 6 3 0 2 4 2

Total # of neighbors = 210313
Ave neighs/atom = 243.41782
Ave special neighs/atom = 2.0000000
Neighbor list builds = 4600
Dangerous builds = 0

unfix		3
unfix		2
unfix		1

write_data	data.final.${pid} nocoeff
write_data	data.final.1 nocoeff
System init for write_data ...
PPPM initialization ...
  extracting TIP4P info from pair style
  using 12-bit tables for long-range coulomb (../kspace.cpp:340)
  G vector (1/distance) = 0.37169504
  grid = 24 27 25
  stencil order = 5
  estimated absolute RMS force accuracy = 0.0031653773
  estimated relative force accuracy = 9.5324396e-06
  using double precision FFTW3
  3d grid and FFT values/proc = 4410 672
Last active /omp style is kspace_style pppm/tip4p/omp

write_restart   restart.lmp.${pid}
write_restart   restart.lmp.1
System init for write_restart ...
PPPM initialization ...
  extracting TIP4P info from pair style
  using 12-bit tables for long-range coulomb (../kspace.cpp:340)
  G vector (1/distance) = 0.37169504
  grid = 24 27 25
  stencil order = 5
  estimated absolute RMS force accuracy = 0.0031653773
  estimated relative force accuracy = 9.5324396e-06
  using double precision FFTW3
  3d grid and FFT values/proc = 4410 672
Last active /omp style is kspace_style pppm/tip4p/omp
Total wall time: 0:05:48
