#include		in.partitions
include		in.temp
variable        temperature equal 207.60
variable	tempDamp equal 100.0
include		in.pressure
variable        pressure equal 2109.5
variable        pressureDamp equal 1000.0 # This is 1 ps
include		in.seed
variable        seed equal 745823

units		real
atom_style	full
#include		in.box
read_restart	restart.lmp.${pid}
read_restart	restart.lmp.1
Reading restart file ...
  restart file = 30 Jul 2021, LAMMPS = 30 Jul 2021
  restoring atom style full from restart
  orthogonal box = (0.088508490 0.10160687 0.065619134) to (18.119064 23.527571 22.147577)
  2 by 4 by 4 MPI processor grid
  restoring pair style lj/cut/tip4p/long/omp from restart
  restoring bond style harmonic/omp from restart
  restoring angle style harmonic/omp from restart
  864 atoms
  576 bonds
  288 angles
Finding 1-2 1-3 1-4 neighbors ...
  special bond factors lj:    0        0        0       
  special bond factors coul:  0        0        0       
     2 = max # of 1-2 neighbors
     1 = max # of 1-3 neighbors
     1 = max # of 1-4 neighbors
     2 = max # of special neighbors
  special bonds CPU = 0.002 seconds
  read_restart CPU = 0.008 seconds
include 	in.setup
variable	out_freq equal 1000
variable	out_freq2 equal 10000
variable	out_freq3 equal 1000

timestep	2.0

neigh_modify    delay 7 every 1

include		in.tip4p
# This is TIP4P/Ice

# create groups ###
group ox type 2
288 atoms in group ox
group hy type 1
576 atoms in group hy

# set charges - beside manually ###
set group ox charge -1.1794
Setting atom values ...
  288 settings made for charge
set group hy charge 0.5897
Setting atom values ...
  576 settings made for charge

# ### TIP3P Potential Parameters ###
pair_style lj/cut/tip4p/long/omp 2 1 1 1 0.1577 8.5
pair_coeff 1 1*2 0.000 0.000
pair_coeff 2 2 0.21084 3.1668
bond_style  harmonic
bond_coeff  1 450 0.9572
angle_style harmonic
angle_coeff 1 55 104.52
kspace_style pppm/tip4p/omp 1.0e-5
pair_modify tail yes

thermo          ${out_freq}
thermo          1000
thermo_style    custom step temp pe etotal epair emol press lx ly lz vol pxx pyy pzz pxy pxz pyz enthalpy

restart 	${out_freq3} restart.lmp.${pid} restart2.lmp.${pid}
restart 	1000 restart.lmp.${pid} restart2.lmp.${pid}
restart 	1000 restart.lmp.1 restart2.lmp.${pid}
restart 	1000 restart.lmp.1 restart2.lmp.1


include         in.dump
dump            myDump all atom ${out_freq2} dump.water.${pid}
dump            myDump all atom 10000 dump.water.${pid}
dump            myDump all atom 10000 dump.water.1
dump            myDump2 all dcd ${out_freq2} dump.dcd
dump            myDump2 all dcd 10000 dump.dcd
dump_modify     myDump append yes
dump_modify     myDump2 append yes


variable natoms 	equal  "count(all)"                        # NUMBER ATOMS
variable H      	equal  "enthalpy/v_natoms"                 # ENTHALPY-per-atom
variable Vol      	equal  "vol/v_natoms"                 # volume-per-atom
fix AVG all 		ave/time ${out_freq} 1 ${out_freq} v_Vol v_H file vol_enthalpy.dat
fix AVG all 		ave/time 1000 1 ${out_freq} v_Vol v_H file vol_enthalpy.dat
fix AVG all 		ave/time 1000 1 1000 v_Vol v_H file vol_enthalpy.dat


timer           timeout 23:50:00 every 1000
New timer settings: style=normal  mode=nosync  timeout=23:50:00

fix 		1 all shake 1e-6 200 0 b 1 a 1
       0 = # of size 2 clusters
       0 = # of size 3 clusters
       0 = # of size 4 clusters
     288 = # of frozen angles
  find clusters CPU = 0.001 seconds
fix             2 all nph aniso ${pressure} ${pressure} ${pressureDamp}
fix             2 all nph aniso 2109.5 ${pressure} ${pressureDamp}
fix             2 all nph aniso 2109.5 2109.5 ${pressureDamp}
fix             2 all nph aniso 2109.5 2109.5 1000
fix             3 all temp/csvr ${temperature} ${temperature} ${tempDamp} ${seed}
fix             3 all temp/csvr 207.6 ${temperature} ${tempDamp} ${seed}
fix             3 all temp/csvr 207.6 207.6 ${tempDamp} ${seed}
fix             3 all temp/csvr 207.6 207.6 100 ${seed}
fix             3 all temp/csvr 207.6 207.6 100 745823


run             250000
PPPM initialization ...
  extracting TIP4P info from pair style
  using 12-bit tables for long-range coulomb (../kspace.cpp:340)
  G vector (1/distance) = 0.37152817
  grid = 24 27 25
  stencil order = 5
  estimated absolute RMS force accuracy = 0.0031795492
  estimated relative force accuracy = 9.575118e-06
  using double precision FFTW3
  3d grid and FFT values/proc = 4410 672
Last active /omp style is kspace_style pppm/tip4p/omp
Neighbor list info ...
  update every 1 steps, delay 7 steps, check yes
  max neighbors/atom: 2000, page size: 100000
  master list distance cutoff = 10.8154
  ghost atom cutoff = 10.8154
  binsize = 5.4077, bins = 4 5 5
  1 neighbor lists, perpetual/occasional/extra = 1 0 0
  (1) pair lj/cut/tip4p/long/omp, perpetual
      attributes: half, newton on, omp
      pair build: half/bin/newton/omp
      stencil: half/bin/3d
      bin: standard
Per MPI rank memory allocation (min/avg/max) = 10.19 | 10.21 | 10.23 Mbytes
Step Temp PotEng TotEng E_pair E_mol Press Lx Ly Lz Volume Pxx Pyy Pzz Pxy Pxz Pyz Enthalpy 
 6750000    223.42387   -4345.4577   -3962.5169   -4345.4577            0    1563.6445    18.030555    23.425964    22.081958    9327.0466    2971.3536     1202.898    516.68181    241.43357   -804.14374    299.19377   -3749.8215 
 6751000    207.93874   -4344.1063   -3987.7064   -4344.1063            0    2650.0485    18.239621    23.324085    21.687533    9226.3638    704.13501    2514.2805    4731.7301   -386.51996   -267.71356    92.537308   -3631.1237 
 6752000    201.94426   -4336.0544   -3989.9288   -4336.0544            0    3729.7235     17.82326    23.333937    22.098127    9190.3196    3311.2424    4295.1667    3582.7615   -126.69856   -199.51773   -283.65059   -3490.0288 
 6753000    199.66445   -4337.3587   -3995.1406   -4337.3587            0    2270.9151    18.055362    23.518197    21.776991    9247.1538     2356.592    2953.2574    1502.8957    84.595069    348.53975   -86.857988   -3688.8845 
 6754000     190.0583   -4349.7846   -4024.0312   -4349.7846            0    498.07308    18.072362    23.375105    22.128181    9347.9029   -232.37827    3022.7298   -1296.1323    812.03144   -552.17177    517.67968   -3956.1291 
 6755000    206.50046   -4338.2112   -3984.2765   -4338.2112            0    2311.7799    17.783993    23.714222    21.992557    9274.9991    2436.9144    1636.4541    2861.9713   -155.36115    -753.2857   -146.21316   -3671.5704 
 6756000    212.00045   -4342.0269   -3978.6653   -4342.0269            0    1505.4378    17.962925     23.50901    22.053108    9312.8201    943.04725    1506.8758    2066.3904   -988.90186   -246.49431    396.68225   -3774.1999 
 6757000     205.6676   -4339.2477   -3986.7405   -4339.2477            0    1207.8854    18.295478    23.143359    21.914044    9278.8186    1741.7892   -234.28553    2116.1525   -644.82697    83.940227    1017.5141    -3823.287 
 6758000    207.38984   -4338.5984   -3983.1393   -4338.5984            0    1910.8613    18.025425    23.402994    22.064648    9307.9481    2020.1596    1770.8981    1941.5261   -311.70364     532.7621   -1346.4651   -3723.7459 
 6759000    207.38132   -4321.0597   -3965.6152   -4321.0597            0    1729.4399     17.84288    23.779434    21.990582     9330.463    2642.8989    792.07576    1753.3451    1225.8595   -477.43953    859.78287   -3730.2813 
 6760000    203.77544   -4333.4293   -3984.1652   -4333.4293            0    2432.5972    17.920731    23.320925    22.085447     9230.127    3642.8051    3233.6842    421.30249   -349.38118   -73.826547    459.19475   -3656.7086 
 6761000    218.09234   -4361.7122   -3987.9093   -4361.7122            0    1992.8196     18.18592    23.193135    21.944797    9256.0628    1992.5871    3955.3223    30.549413    227.04428   -224.35708   -421.88299   -3718.8983 
 6762000    211.15779   -4317.5112    -3955.594   -4317.5112            0    1464.5405    17.844413    23.759567    21.923499    9295.0271    970.71188     985.8609    2437.0487    123.77204    477.89483   -293.40879   -3757.0632 
 6763000    210.29116   -4334.1282   -3973.6963   -4334.1282            0    1497.6355    17.972337    23.523874     21.99654    9299.6752   -187.78551    1617.5557    3063.1362   -407.68375   -388.00482    357.17104   -3770.5777 
 6764000    208.28586    -4361.771   -4004.7762    -4361.771            0     3088.377    18.179165    23.035686    21.923824    9181.0295     3198.408    2975.0978    3091.6252   -306.09424   -560.87059   -648.05816   -3591.2552 
 6765000    206.11449   -4342.2797   -3989.0065   -4342.2797            0    1398.9675    17.919767    23.399291    22.056833    9248.6475    1691.0032    1740.3887    765.51051    215.42605    33.399969    345.27629   -3800.3109 
 6766000    207.65733   -4344.3765    -3988.459   -4344.3765            0    3295.5294    17.946377    23.420643    21.923049    9214.6015     3639.932    2303.0375    3943.6188    310.77991    329.61777    123.45681   -3545.5876 
 6767000    194.32613    -4321.747   -3988.6787    -4321.747            0    2051.8736    18.178272    23.196376    21.984878    9270.3645    338.62413    3466.6066      2350.39   -857.84293   -196.14716     516.5251   -3711.2679 
 6768000    211.83972   -4380.7791   -4017.6931   -4380.7791            0    1740.5212    17.940243    23.519675     21.97624    9272.8454    2291.6079    609.72898    2320.2266   -56.794152   -91.686464    235.85202   -3782.3139 
 6769000    204.34159    -4338.904   -3988.6695    -4338.904            0    2272.6256    17.926258    23.450633     21.97279    9236.9677    3051.7479    872.54027    2893.5887     1732.794    71.758603    655.76568   -3682.5203 
 6770000    194.43212   -4345.8988   -4012.6488   -4345.8988            0    1795.4827    18.055356    23.340242    22.047361    9291.1191    1957.0322    2376.7054    1052.7106    312.85683   -339.16623    -321.7399   -3769.3583 
 6771000    199.94985   -4349.7799   -4007.0726   -4349.7799            0    2332.9134    17.880326     23.32112    22.092777    9212.4499    2304.1831    3072.0753     1622.482     610.5112    246.03931   -3.0338785   -3693.6361 
 6772000    221.57329   -4356.4225   -3976.6534   -4356.4225            0    1766.1483    17.869645    23.603483    21.958809    9261.9154    2254.1375    589.78894    2454.5183    869.89634    122.99347     1030.621     -3738.09 
 6773000    205.83287    -4362.366   -4009.5755    -4362.366            0    2804.0966    18.187975    23.116961     21.93841      9224.02    3332.7118    3084.5327    1995.0453    -672.5984    302.22734    281.27916   -3632.3604 
 6774000    213.54644   -4311.4225   -3945.4112   -4311.4225            0    2603.5829    18.029442    23.267274    22.028818    9241.0003    1223.5529    3412.9325    3174.2635   -964.11507    427.34551    327.06748    -3594.525 
 6775000    206.38347   -4338.5871   -3984.8529   -4338.5871            0    1537.7221    17.880251    23.788709     21.89056    9311.1078    1997.8082    1186.7336    1428.6244   -579.29249   -252.67077    201.20403   -3776.0411 
 6776000    203.88625   -4315.9547   -3966.5006   -4315.9547            0    1494.5935     17.99016    23.442957     22.11759    9327.9286    2570.3542    593.69179    1319.7345   -79.180805     56.91878    1055.4514   -3763.1787 
 6777000    215.55388   -4345.4417   -3975.9898   -4345.4417            0    1385.3407    18.253307    23.269982     21.99233    9341.3324    127.80741    2723.8453    1304.3693    253.26755    233.47395    136.89313   -3787.2596 
 6778000    210.36882   -4366.9149   -4006.3499   -4366.9149            0    945.26508    17.993045    23.404634    22.154709     9329.805    448.00468    76.568031    2311.2225   -380.00966   -796.04571   -568.73745   -3877.7319 
 6779000    199.94624   -4361.6213   -4018.9203   -4361.6213            0    953.31916    17.989453    23.531433       22.015    9319.3373    784.14214    513.62847    1562.1869   -960.16536   -261.16531   -335.75313   -3889.3518 
 6780000    219.76333   -4351.0039    -3974.337   -4351.0039            0    2626.2031    18.070887    23.297116     21.87093    9207.6516    1352.1432    3790.5203    2735.9459   -195.40505   -457.01733    465.50421   -3621.6796 
 6781000    210.32336   -4323.1866   -3962.6996   -4323.1866            0    1697.7685    18.129016    23.090193    22.209733    9297.0493     2869.839    2086.7968    136.66971   -275.45658   -445.52236    -118.2207   -3732.5026 
 6782000    206.84127   -4328.1982   -3973.6793   -4328.1982            0    2611.3446     17.86677    23.511891    22.062415    9268.0131    2898.5536    3723.7922     1211.688   -1063.1923   -291.52587   -102.70854   -3620.7183 
 6783000    211.04542   -4348.9287   -3987.2041   -4348.9287            0     1872.041    17.992189    23.487528    22.011334    9301.8143    3089.2135    1712.7783    814.13107    341.98698   -422.84454    132.51002   -3733.2478 
 6784000    197.01566   -4352.5233   -4014.8452   -4352.5233            0     2670.561     18.32192     22.96008    22.015493    9261.3182    1033.3415    3743.0098    3235.3317   -1505.2738    344.51086   -242.50579    -3654.141 
 6785000    198.93172   -4362.7026   -4021.7404   -4362.7026            0    2512.8614    17.942181    23.509771     21.91359    9243.5154    3084.4728    2532.6521    1921.4595   -778.58184     462.0079   -785.64894   -3682.9886 
 6786000    210.94091   -4368.3508   -4006.8053   -4368.3508            0    1093.4327    17.860445    23.626875    22.036611    9299.1527    767.08742    1872.3766    640.83409   -506.89162    346.25545    199.09459   -3858.5155 
 6787000    206.11049   -4337.1754   -3983.9091   -4337.1754            0    1779.6478     18.19094    23.175284     21.97389    9263.7571    1101.3399    2399.7077    1837.8958    458.36086   -55.552234    349.73861   -3743.4744 
 6788000    213.85944   -4357.0347   -3990.4869   -4357.0347            0    2412.3342    18.008659    23.267921    22.069614    9247.6995    1005.3198    2758.0552    3473.6278    822.74648   -107.10929    514.14829   -3665.1397 
 6789000    213.44107   -4353.8085   -3987.9778   -4353.8085            0    3712.6671    17.931731    23.562101    21.730202    9181.2117    3715.0399    3119.6433    4303.3182   -892.55034    655.84425   -530.77374    -3490.857 
 6790000    206.89622   -4351.3907   -3996.7776   -4351.3907            0    2140.8282    17.989941    23.173844    22.049097    9192.1822    2943.8354    2295.2138    1183.4355   -669.17655    239.99002   -538.60831   -3709.7813 
 6791000    209.40681   -4360.2965   -4001.3804   -4360.2965            0    395.38833    18.123053    23.397745    22.044102    9347.5498    995.23597   -601.63076    792.55978   -639.98338    -288.8829    491.17239   -3947.4793 
 6792000    207.37531   -4352.2835   -3996.8493   -4352.2835            0    2890.2335    17.795934    23.625969    21.942962    9225.8348    3689.4694    2007.7879    2973.4432    833.16741   -680.94555    313.95535   -3607.9703 
 6793000    201.61284   -4319.3625    -3973.805   -4319.3625            0    3427.1129    17.919475    23.339998     22.02149    9210.2795    3454.0467    3470.3855    3356.9064    427.89781    906.51863   -594.09154   -3513.4667 
 6794000    205.60338   -4340.0039   -3987.6068   -4340.0039            0    2276.6236    18.214986    23.136507    22.049063    9292.1623    1561.0448    2940.2257    2328.6004    811.34686    137.64091   -163.79188   -3679.0863 
 6795000    198.27819   -4374.5778   -4034.7357   -4374.5778            0    1805.1012     17.96065    23.522941    21.906264    9255.1186    3387.1435    1327.4522    700.70772    39.878459    161.98068   -276.81878   -3791.0896 
 6796000    215.05186   -4346.9429   -3978.3514   -4346.9429            0    2865.1981    17.984719    23.393871    22.027554    9267.7012    3443.6461    1657.2259    3494.7224   -697.81108   -1051.6457    179.54494   -3591.0914 
 6797000    195.81418    -4345.048   -4009.4292    -4345.048            0    2343.8809    18.202284    23.127756    21.921657    9228.5347    1435.9192    3597.8292    1997.8942    557.32235    41.498833   -1050.3974   -3693.9693 
 6798000    206.67685   -4340.6675   -3986.4304   -4340.6675            0    2301.1833    17.927873    23.450024     22.19079    9329.2091    2320.5258       2686.6    1896.4241    307.04638   -500.56263    97.745501   -3673.3385 
 6799000    207.87314   -4336.3119   -3980.0245   -4336.3119            0    2261.7326    18.000388    23.561506    21.912754    9293.5551    4001.8533    2137.6052     645.7393    1038.5891   -610.76397    -439.2703   -3673.4761 
 6800000    208.57409   -4356.4565   -3998.9676   -4356.4565            0    2740.1222    18.000042    23.250927    22.154333    9271.9797    4521.0402    1873.5805    1825.7459   -213.22145   -56.074131   -482.79058    -3628.442 
 6801000    207.73608   -4322.5369   -3966.4843   -4322.5369            0    2850.0266    18.228975    23.285516    21.855411    9276.9901    2318.8695    4130.4538    2100.7564   -131.15931    210.73811    768.45719   -3580.8889 
 6802000    206.30337    -4347.761   -3994.1641    -4347.761            0     2468.917    17.854705    23.443456    22.117387    9257.8072    2565.0542    3424.7124    1416.9845    -240.5384    667.42465    540.48686   -3660.8217 
 6803000    194.96111   -4337.7659   -4003.6092   -4337.7659            0    2475.8089    18.057975    23.588404    21.718166    9251.0439     2570.514     1520.149    3336.7637    452.72762   -534.00417   -413.67148   -3669.5805 
 6804000    207.10741   -4326.9925   -3972.0175   -4326.9925            0    2900.5739    18.074112    23.126471    22.099934    9237.5609    3507.5079    3476.4277    1717.7863   -601.48645    -402.8775   -25.088195   -3581.2512 
 6805000    206.54065   -4345.4234   -3991.4198   -4345.4234            0    2553.7727    18.027794    23.384663    21.967572    9260.9549    2402.1401     1760.465     3498.713    287.34232   -223.64338    187.74687   -3646.5033 
 6806000    211.49837   -4322.6963   -3960.1953   -4322.6963            0    2437.6451    17.766686    23.684828    22.090147    9295.5536    3583.6096    1697.9749    2031.3506    487.82876    330.78331    46.789619   -3629.7332 
 6807000    204.74673   -4342.8696   -3991.9407   -4342.8696            0     3338.912    18.029962    23.251634    21.989997    9218.7806    2124.6177    4436.3639    3455.7544    619.24315   -68.521413    81.178108   -3543.0358 
 6808000    208.91845   -4353.6606   -3995.5815   -4353.6606            0    1372.7531    18.211939    23.346236    21.982768    9346.6378    257.82005    1903.4275    1957.0118   -331.04333   -222.81202   -191.46124     -3808.46 
 6809000    214.01946    -4361.811    -3994.989    -4361.811            0    1771.1181    17.844354    23.468778    22.239815    9313.7048    2029.1026    1339.2317    1945.0201   -491.11918   -293.92355   -2.4269858   -3754.4165 
 6810000    197.75235   -4360.1321   -4021.1914   -4360.1321            0    2019.0021    18.039514    23.588448      21.8574    9300.8515    2524.7577    1359.2833    2172.9653   -807.62653    347.29043    283.00575   -3747.3271 
 6811000    202.29902   -4337.4846    -3990.751   -4337.4846            0    3712.7952    17.985883    22.924083    22.233094    9166.9244    4083.0356    4525.8836    2529.4664    985.01402    -548.0562    206.32163   -3494.3867 
 6812000    210.74047   -4336.3063   -3975.1044   -4336.3063            0    2640.0997    18.087739    23.264384    21.916446    9222.4424    2222.9505    3282.7291    2414.6195   -5.6519408   -181.78386   -114.80993   -3620.0113 
 6813000    224.55268   -4345.2291   -3960.3535   -4345.2291            0    1676.7119    17.904367    23.518083    22.101671    9306.4919    1991.7843    2548.4808    489.87079    997.63824     -169.033   -466.18505   -3732.7807 
 6814000    212.79593   -4350.8488   -3986.1238   -4350.8488            0     2247.479    17.831057    23.675115    21.938442    9261.3645    1457.7893    2712.6968    2571.9509    120.77158    690.21385    41.531171   -3682.5624 
 6815000    200.77401   -4361.2683   -4017.1485   -4361.2683            0    2923.2911      18.0675    23.351148    21.897565    9238.5143    3730.6487    2161.0563    2878.1682    58.370495   -161.73018    574.35451   -3623.2811 
 6816000    213.64255    -4328.694    -3962.518    -4328.694            0     3919.872    18.002125    23.201942    21.968911    9176.0681     4526.833    4254.4451    2978.3379    1896.4642    142.40648    -539.0808   -3437.9469 
 6817000     198.9976   -4368.5102   -4027.4351   -4368.5102            0    1504.6974    17.999185    23.428955    21.969026    9264.3843    1827.4635    1273.9916    1412.6373   -1223.4562    80.164405    12.483026   -3824.1331 
 6818000     204.1176   -4350.6446   -4000.7941   -4350.6446            0    1654.2898    17.831774    23.599809    22.089425    9295.8142    1146.2647    1190.4193    2626.1854   -673.24959    471.29071   -229.72466   -3776.5221 
 6819000    197.88944   -4367.9586   -4028.7829   -4367.9586            0    2120.4367    18.082875    23.396839    21.883716     9258.609    1511.7915    479.81954    4369.6992   -454.37098   -87.137937    257.00303    -3742.466 
 6820000    204.27809   -4340.4204   -3990.2948   -4340.4204            0    2300.9828    18.018244    23.182267    22.116296    9238.0592    2910.1095    2211.1173    1781.7216   -497.75249   -92.046665    817.35547   -3680.2888 
 6821000    210.73405    -4357.815    -3996.624    -4357.815            0    1861.2999    17.874988    23.754373    21.822924     9266.213    2832.1605    383.63034    2368.1089    207.79503    -608.7348    57.642616   -3745.0913 
 6822000    235.79052   -4350.3643   -3946.2274   -4350.3643            0    3792.1894    17.916148    23.276629    22.090865    9212.4991    4222.6251    3840.6839    3313.2593   -252.92098   -304.38645   -151.54595   -3436.7284 
 6823000    195.20647   -4360.6439   -4026.0667   -4360.6439            0    2197.7921    18.168513    23.335307    21.885304    9278.6649    1650.6794    3996.6453    946.05169    1974.0004   -21.845547   -451.50185   -3728.6619 
 6824000    211.31408   -4360.9785   -3998.7934   -4360.9785            0    1563.3355    17.811277    23.458632     22.21378    9281.5434     4231.735    596.47047   -138.19895    392.83502    905.37648   -226.12683   -3787.1775 
 6825000    214.81844   -4365.0911   -3996.8996   -4365.0911            0    3320.4528    18.034869    23.539124    21.747204    9232.2325    1283.4644    2458.1746    6219.7195   -541.93397    365.45301   -380.14935   -3549.8251 
 6826000    200.69955   -4341.0198   -3997.0277   -4341.0198            0    1428.5639    18.145091     23.18144    22.165469    9323.4468    522.00166    1416.2419    2347.4482   -756.07995    483.18829    786.60942   -3802.7817 
 6827000    203.72441   -4357.5266   -4008.3499   -4357.5266            0    1606.8613    17.908247    23.665948    21.826576    9250.4442    1102.3735     2302.907    1415.3035    15.922273    528.18507    465.11611   -3791.5711 
 6828000    221.64356   -4332.4599   -3952.5704   -4332.4599            0    1823.4053    17.924423    23.444654    22.140351    9304.0816    2054.6286    1563.0767    1852.5106    -401.4884     155.5461    704.29714   -3705.1516 
 6829000    206.83385   -4354.1376   -3999.6315   -4354.1376            0    2475.3879    18.162791    23.343045    21.811402    9247.4857    2899.1318    1363.3045    3163.7274    -661.7303    135.04222   -507.18032   -3665.7881 
 6830000    214.70255   -4323.6348   -3955.6419   -4323.6348            0    2475.5029     17.85425    23.384419    22.096927    9225.7159    3246.1711    1287.7518    2892.5856    -27.37146    561.34661    235.10462    -3622.569 
 6831000    201.81458   -4337.5773    -3991.674   -4337.5773            0     1876.713    17.973547    23.567847    21.944211    9295.5198    2169.9426    914.63224    2545.5641    646.50741    259.64676    1169.7504   -3737.2563 
 6832000    207.72283   -4367.0418   -4011.0119   -4367.0418            0    1695.9806    18.034213    23.292964    22.100292    9283.6755    1669.7309    1686.7496    1731.4612    393.28108    667.73224   -335.13473   -3781.3882 
 6833000    201.72006   -4351.9378   -4006.1965   -4351.9378            0    3621.6156    18.010061     23.29497    21.909099     9191.827    4166.5018      2102.17    4596.1751    180.85676    694.97371    136.46311   -3520.7068 
 6834000    217.80465   -4332.4637    -3959.154   -4332.4637            0    1852.2521    18.035663    23.420265    21.996402    9291.2806    1032.4172    3553.6893    970.64965   -458.02703   -573.52366    224.89709   -3708.1668 
 6835000    211.53021   -4360.6377   -3998.0822   -4360.6377            0    1838.4411    18.007688    23.315298    22.158966     9303.544    1703.7289     1050.428    2761.1664    32.951532    111.96092   -444.98805   -3748.6376 
 6836000    201.71516   -4339.2033   -3993.4705   -4339.2033            0    1711.2849     18.04934    23.600035      21.8377    9302.0971    1585.1209    1176.7715    2371.9625   -168.33551   -1011.5462   -8.2599118   -3761.3149 
 6837000     201.9882    -4355.606   -4009.4051    -4355.606            0    2697.6111    17.920018    23.415115    22.084191    9266.5108    2603.4514    3395.1282    2094.2536    339.96115    -457.0479   -19.460482   -3644.8431 
 6838000    204.92139   -4318.6683     -3967.44   -4318.6683            0     955.5256     18.10567    23.437211    21.940995    9310.5823    1367.6021   -29.152466    1528.1272   -429.66393    86.177954    301.40854   -3837.6937 
 6839000    193.15776   -4348.4716   -4017.4058   -4348.4716            0    2388.9769    18.022421    23.196493      22.0677    9225.5558    2943.1055    2421.9203    1801.9048   -11.350367    436.45959    702.62516   -3695.9802 
 6840000    207.53972   -4346.8452   -3991.1292   -4346.8452            0    2400.4917    17.993731    23.491202    21.868365    9243.6349    2008.6811    1768.9548    3423.8391    -147.1005     843.5618    111.48977   -3667.5215 
 6841000    197.29023   -4361.2051   -4023.0564   -4361.2051            0     2205.769    17.892582    23.363521    22.090569    9234.6023     2126.075    3155.1346    1336.0973    65.952501   -213.51529    348.99346   -3725.9896 
 6842000    214.79298   -4344.3828    -3976.235   -4344.3828            0    2502.5949    18.155564    23.276743    21.824579    9223.1191    2213.6023    3394.7977    1899.3847    254.60578   -749.94974   -11.653815   -3639.6116 
 6843000     194.8961   -4343.9248   -4009.8795   -4343.9248            0    3755.4097    17.900862    23.291125    22.130437    9226.8699    3552.1263    4157.7517     3556.351   -236.78515   -610.18897    1655.3997    -3504.535 
 6844000    211.45249   -4367.8495   -4005.4272   -4367.8495            0    2631.7761    18.045946    23.592317    21.804506    9283.1742    2946.8229    2228.8902    2719.6152    1030.4813   -203.41562   -207.20961   -3649.1227 
 6845000    214.56449   -4379.3412    -4011.585   -4379.3412            0    1842.8842     17.98805    23.296811    22.194349    9300.8572    2120.6969    2023.6275    1384.3283   -274.56191   -228.18071   -562.19571   -3761.6098 
 6846000    204.53103   -4325.6239   -3975.0647   -4325.6239            0    1150.8335    18.287586    23.456543    21.796361    9349.8446    633.82394    701.79945    2116.8772    66.541679   -656.35386    791.02596   -3818.1395 
 6847000    214.23865   -4354.9265   -3987.7288   -4354.9265            0    1641.9371    17.896758    23.421107    22.152676    9285.5575    959.89867    1099.3715    2866.5411    38.587675    195.40582   -40.691055   -3765.3772 
 6848000    196.30406   -4356.0137   -4019.5553   -4356.0137            0    2233.5854    18.016476    23.537337    21.897516    9285.8576    2648.8861    2002.9234    2048.9465   -797.83055   -661.54975    468.41625   -3717.0726 
 6849000    211.75348   -4353.2594   -3990.3212   -4353.2594            0     2846.763    17.932603    23.157806    22.198731    9218.6832    2327.7853    3134.7613    3077.7424   -205.91535    336.49863    160.65141   -3607.5881 
 6850000    199.82542   -4356.8843   -4014.3903   -4356.8843            0    1802.5209    18.059403    23.482928    21.969466    9316.9795    1678.3793    1592.0594     2137.124   -383.00538    795.78414    41.514592   -3769.4664 
 6851000    205.53267   -4372.7124   -4020.4365   -4372.7124            0    1882.4081    17.875653    23.526606    22.061136    9277.8868    1895.7181    1778.9189    1972.5872    466.15467    65.807152    465.09415   -3765.7307 
 6852000    206.35727   -4334.3482   -3980.6589   -4334.3482            0     2046.991    18.061825    23.306403    22.053997     9283.766    278.73841    2058.9177    3803.3169   -672.62555   -262.45624    -187.2431   -3703.5081 
 6853000    214.44789   -4353.0791   -3985.5228   -4353.0791            0    2194.0057    17.974776    23.493325    21.948198    9268.4439    1949.9512    2092.8007    2539.2651   -212.73721   -132.23559    257.46263   -3688.9574 
 6854000    211.32879    -4354.705   -3992.4947    -4354.705            0      1642.26    17.908615    23.442697    22.154023    9300.8396    2714.6547    1347.1685    864.95668    526.84262    322.72816   -194.22738   -3769.7333 
 6855000    211.76372    -4340.107   -3977.1512    -4340.107            0    2017.3452    18.076063    23.398371     22.05306    9327.3514    1349.1035    1782.5594    2920.3728    410.30699   -463.45219   -386.18309   -3702.7321 
 6856000    201.23919   -4363.3722   -4018.4551   -4363.3722            0    2459.7374    17.778979     23.54743    22.077725     9242.823    3170.7429    1406.8836    2801.5858    753.28621   -267.54176   -177.42267   -3686.8897 
 6857000     203.6732   -4360.8735   -4011.7846   -4360.8735            0    1250.5425    18.017185     23.53588    21.953834      9309.53    889.95327    1020.9553    1840.7188   -799.86851    293.03646   -323.46983   -3841.9985 
 6858000    203.40314   -4338.8082   -3990.1822   -4338.8082            0    3282.4095    18.024832    23.254633    21.995188    9219.5219    4308.9834      3180.27    2357.9751   -797.01251   -523.86747    229.91523   -3548.8384 
 6859000    203.01172   -4352.4109   -4004.4557   -4352.4109            0    2071.7387    18.106964    23.411665    21.839278    9257.9796    1400.5796    1791.7264    3022.9102    218.25889    343.82173    -482.3015   -3724.7334 
 6860000    203.34368   -4347.0872   -3998.5631   -4347.0872            0    3045.6666    17.771967    23.492821    22.033433     9199.259    4491.3749    2242.9865    2402.6383   -41.120111    426.91413   -432.35244   -3589.9512 
 6861000    219.94017   -4364.3542   -3987.3843   -4364.3542            0     2897.573    18.021212    23.407691    21.883176    9231.0887    1598.0342    2248.2939    4846.3908   -187.81601   -266.07827    410.21377   -3597.2958 
 6862000    209.67156   -4353.7419    -3994.372   -4353.7419            0    3008.0121    18.065478    23.089261    22.121949    9227.4746    1884.8718    4616.4398    2522.7248    152.28801   -569.21712   -114.74042   -3589.5741 
 6863000    210.95451   -4361.4683   -3999.8995   -4361.4683            0    1001.8413    18.088894    23.575869    21.899038    9339.0944    1726.2966   -88.872309    1368.0995    712.97744   -216.79587    -280.3123   -3863.4476 
 6864000    207.67724   -4314.9522   -3959.0005   -4314.9522            0    1611.7644    17.881778    23.471184    22.291797    9356.0119    1944.8129    1349.4226    1541.0578    588.48643    455.24167    751.54187   -3739.0788 
 6865000    212.53028   -4336.8565   -3972.5869   -4336.8565            0    1921.8882    18.158155    23.540083    21.782158    9310.6627    1032.5926    993.66578    3739.4063   -313.63948    232.57623    142.38828   -3711.6205 
 6866000    199.12566   -4355.7377   -4014.4432   -4355.7377            0    1848.2122    18.008177    23.322618    22.229053    9336.1542    1396.0556    1920.4141    2228.1668    808.01787    147.92758    1052.7026   -3762.7939 
 6867000     210.5701   -4385.1019    -4024.192   -4385.1019            0    989.36204    18.087068    23.366742    22.080655    9332.0767    864.90952    1805.3512    297.82544    528.78733    372.36335   -238.63418    -3889.541 
 6868000    206.43888   -4370.7057   -4016.8765   -4370.7057            0    1884.0451    17.964336    23.484162    22.012358    9286.5156    2443.4569    1329.4381    1879.2403    286.12194    902.63754   -95.868684   -3761.7122 
 6869000    214.70313    -4355.283   -3987.2891    -4355.283            0    2737.0808    17.970763    23.414299    22.022658    9266.5357    3926.4701    3435.7082    849.06405   -755.26935   -457.00092    176.67906   -3617.3921 
 6870000    204.42054   -4361.5534   -4011.1836   -4361.5534            0    1708.0026    18.218643    23.237224    21.974102     9302.751    813.40654    2529.6747    1780.9264   -381.41738    295.66754    137.60637    -3779.457 
 6871000    206.82758   -4357.7229   -4003.2275   -4357.7229            0    1685.0048    18.023232    23.358519    22.087398    9298.7064    1801.4598    1927.0118    1326.5429   -696.82452    158.72126    549.41609   -3774.7205 
 6872000    207.69436   -4331.1732   -3975.1922   -4331.1732            0    2358.0654    17.913285    23.562025    21.990357    9281.5418     2827.054    2428.6435    1818.4987    536.93178   -174.45737    690.92154   -3656.0003 
 6873000    192.60425   -4350.5618   -4020.4447   -4350.5618            0    1904.3773     18.05688    23.178532    22.136434    9264.8056    4290.4072    1912.3689    -489.6441    992.73448    381.40436     73.56199   -3763.1296 
 6874000    211.98703   -4342.1886   -3978.8501   -4342.1886            0    991.59542    18.145464    23.331993    22.024797     9324.635    1352.6427    1345.1769    276.96665     198.4372     44.38444    49.348573   -3844.0028 
 6875000     217.0462   -4334.3076   -3962.2979   -4334.3076            0    2193.7894    17.701064    23.602434    22.153978    9255.6705    3558.6258    1311.6108    1711.1315   -425.87788   -189.62126    333.94372   -3666.1704 
 6876000    215.68375   -4364.2767   -3994.6021   -4364.2767            0    2170.3866    18.003951    23.463417    21.965138    9278.8256    733.13775    2439.6286    3338.3934   -25.297305   -441.37073   -66.250233   -3700.9007 
 6877000    209.86174   -4354.9397   -3995.2438   -4354.9397            0    2224.2495    18.185741     23.20502    22.000872    9284.3786    2034.6884    2356.6632    2281.3971    305.60765   -237.13275    105.39744   -3694.0735 
 6878000    211.19344   -4354.1628   -3992.1845   -4354.1628            0    2505.7461    17.987639    23.428014    21.947904    9249.1687    2260.6421    1744.5197    3512.0764    -197.3999   -206.13191   -162.13565   -3654.1853 
 6879000    218.34549   -4346.1717    -3971.935   -4346.1717            0    2373.7822    17.877585     23.26969    22.271658    9265.1402    3115.9718    2603.8637    1401.5113    1003.1715   -405.89663   -491.42234   -3651.1835 
 6880000    202.38039    -4363.316   -4016.4429    -4363.316            0     2461.006    18.076678    23.527922    21.795167      9269.63    3316.0478    2543.7274    1523.2426   -216.79218   -37.450842    360.32506   -3683.7443 
 6881000    205.20557   -4369.4572   -4017.7419   -4369.4572            0    2147.1147    17.973267    23.188386    22.179686    9243.8508    3300.6574    2697.2212    443.46565   -182.38238    -597.7506    505.24284   -3728.2848 
 6882000    214.38178   -4336.0951   -3968.6521   -4336.0951            0    1349.3617    18.170741    23.308528    21.930032    9288.0973    1114.7378    514.69745    2418.6498   -194.79979   -576.98999   -203.75456   -3785.8711 
 6883000    194.74953    -4342.549    -4008.755    -4342.549            0    1871.8091    18.034499    23.412874    22.082587    9324.1394    1657.4955    2779.5861    1178.3458   -250.49797    895.44002   -382.54007   -3754.2207 
 6884000    205.89199   -4373.2854   -4020.3936   -4373.2854            0    815.61384    18.054514    23.641139    21.942185    9365.5667    2179.7543   -52.687317     319.7745   -174.70824      -528.77    59.385232   -3908.9912 
 6885000    200.32642   -4369.6573   -4026.3046   -4369.6573            0    1454.7246    18.056518    23.346604    22.078937    9307.5607    2425.5948    718.95779    1219.6211    240.18709    510.15659    37.774722   -3828.8386 
 6886000    202.43946   -4346.0488   -3999.0745   -4346.0488            0    1600.9224    18.189482    23.302189    21.987176    9319.3689     1563.673    357.37902    2881.7152   -379.14932     169.5939   -40.511317   -3781.4877 
 6887000    213.01403   -4377.9611   -4012.8623   -4377.9611            0    1096.4687    18.078599     23.48727    21.947848     9319.428    213.84051    1805.9845    1269.5811   -797.75844    460.41225   -338.26937   -3863.8366 
 6888000    201.76365   -4336.3743   -3990.5583   -4336.3743            0    1532.8297    17.798656     23.52126    22.159191    9276.8743    2150.1728    1397.2399    1051.0763    407.13505    99.673566    349.84246   -3783.1761 
 6889000    194.92182   -4372.8299   -4038.7406   -4372.8299            0    1655.5159    18.019478    23.498471    21.870248    9260.5232    1218.0388    2643.4928    1105.0162   -32.701071   -284.60341     215.8879   -3815.1545 
 6890000    204.74309   -4344.9369   -3994.0142   -4344.9369            0    3789.6664     17.98492    23.278656     22.04821    9230.8088    3353.3174     4001.423    4014.2588    30.736892    534.13084   -635.13761   -3483.8422 
 6891000    200.61047    -4359.096   -4015.2565    -4359.096            0    2047.4671    18.180822     23.33518    21.840139    9265.7393     1013.742    2367.1891    2761.4702   -809.53384   -296.27569   -714.04829   -3738.5796 
 6892000    197.08295   -4356.8495    -4019.056   -4356.8495            0    1580.3351    17.923327    23.544177    22.114051    9331.9083    1361.5368    1569.4379    1810.0306   -1108.2905   -842.72135   -117.64183   -3803.9783 
 6893000    210.63205   -4368.2177   -4007.2015   -4368.2177            0    2199.2811    18.072469    23.514528    21.839261    9280.9343    2477.0219    1491.0049    2629.8165    473.79043    879.33594     146.6335   -3709.5225 
 6894000    198.99297   -4342.0191    -4000.952   -4342.0191            0    2702.5561    18.007109    23.301265    22.041486    9248.3523    2134.9178    3312.1742    2660.5764    686.86706   -1.9151965   -512.24878   -3636.4374 
 6895000    214.54151   -4332.6106   -3964.8938   -4332.6106            0    4106.8818    17.895662    23.339087    21.906404     9149.613    2928.0595    6222.7203    3169.8656    190.81272   -343.52532     96.62399   -3416.8809 
 6896000    206.24887   -4360.0416   -4006.5381   -4360.0416            0    2525.4735    17.953221    23.489153    21.984487    9270.9893    3580.2116    2747.3075    1248.9015   -671.27574    173.87449    5.1486211   -3665.0742 
 6897000    195.07227   -4357.1543   -4022.8071   -4357.1543            0    1944.0128    18.072613    23.371153    21.963782    9277.0136    1640.7218    1007.5486     3183.768    1122.9329   -136.88002   -339.41375   -3759.7905 
 6898000    206.21772   -4379.9275   -4026.4774   -4379.9275            0     2677.107    17.997636    23.304756    22.072664    9257.9488    3374.2498    2861.6601     1795.411   -845.01519   -426.49493   -271.27728   -3665.0206 
 6899000    214.37045   -4330.3121   -3962.8885   -4330.3121            0    2395.5932    17.954878    23.523973    21.932192    9263.5017    2443.2636    2877.1961    1866.3198    1526.8445    652.50293   -281.13132    -3639.247 
 6900000    201.67886   -4347.6881   -4002.0175   -4347.6881            0    1884.3719    18.006374    23.424513    21.987276    9274.0253    3172.5562    2167.9123    312.64731   -247.07807    615.04526    406.73949   -3747.1521 
 6901000    216.91339   -4350.2024   -3978.4203   -4350.2024            0    82.751445    18.209466    23.318716    22.083255     9377.022   -526.48829    579.75785    194.98477   -103.27528    257.25985   -320.14068   -3967.1037 
 6902000    201.47237   -4367.2344   -4021.9176   -4367.2344            0    1135.5975    18.233561    23.185021    21.921475     9267.205    464.12868    1461.6708    1480.9931    834.48231   -197.14352    -377.0657   -3868.4386 
 6903000     215.5079   -4354.2102   -3984.8371   -4354.2102            0    1959.0416    17.800812    23.548926     22.06909     9251.142    2083.7308    1926.1129    1867.2811   -32.721759   -254.44713   -149.21317   -3720.5263 
 6904000    195.93415   -4340.7262   -4004.9017   -4340.7262            0    3693.6524    18.073804    23.204709    21.881638    9177.1012    2863.8727     4610.093    3606.9916   -627.82159    -303.0043    277.66817   -3510.5484 
 6905000    206.02843   -4357.3703   -4004.2446   -4357.3703            0    2352.6708     18.01171    23.280251    22.047491    9244.8906    2799.1565    2935.7839    1323.0718   -144.17296    1278.4843    224.05126   -3687.0405 
 6906000    196.30855   -4370.2047   -4033.7386   -4370.2047            0    3154.1069    17.762891    23.520142    21.953015    9171.6563    3205.6472    2559.9919    3696.6818   -1128.5844   -671.44063   -130.17311   -3611.8478 
 6907000      205.236   -4364.5928   -4012.8254   -4364.5928            0     1568.502    18.038185    23.417145     21.99932    9292.5742    1608.8853    1998.1846    1098.4362   -486.69384    -551.7578    671.23408   -3800.2578 
 6908000    210.58989   -4364.2256   -4003.2818   -4364.2256            0    2568.8442    18.149492    23.101721    21.966404    9210.1727    2117.7895    3683.6141    1905.1289    271.70885    122.85069    338.96472   -3658.2322 
 6909000    207.91454   -4352.0774    -3995.719   -4352.0774            0    2469.3429    17.924529    23.477875    21.939099    9232.6275    1878.1276    4032.1559    1497.7453   -1974.7486    661.80643   -318.90789   -3663.2259 
 6910000    221.85957   -4349.7883   -3969.5286   -4349.7883            0    3602.1157     17.88535    23.449681    21.925616    9195.7295    5399.4076    4711.1208     695.8188    258.26224   -705.32675   -132.02581   -3486.4478 
 6911000    197.87896   -4366.5619   -4027.4041   -4366.5619            0     1749.275     18.09853    23.192441    21.964311    9219.4996    1742.7677    1879.4446    1625.6127   -311.14721     319.0641    -343.4098   -3792.2019 
 6912000    197.27594   -4342.4038   -4004.2796   -4342.4038            0    1841.7016    18.070334    23.420192     21.94796    9288.6117    1993.2016    1684.4736    1847.4294    -1011.925    338.00042   -2.5108946   -3754.7938 
 6913000    206.51343   -4353.8174   -3999.8605   -4353.8174            0    2573.2213    17.935623    23.355112     22.11892    9265.3608    3283.7445    1593.1089    2842.8105   -1926.1805    59.388932    503.43451   -3652.1519 
 6914000    215.07484   -4375.3542   -4006.7233   -4375.3542            0    2044.6885      18.0841      23.5339    21.718506    9243.1662    1609.6069    1588.3874    2936.0711   -650.97035    -394.4877    288.02001    -3731.095 
 6915000    204.89489    -4349.249   -3998.0662    -4349.249            0    2307.5722    17.941009    23.327106    22.048256    9227.4559    3263.8902    1303.2278    2355.5987    259.72766   -572.75141    652.51656   -3687.5293 
 6916000     214.0826   -4356.6641   -3989.7339   -4356.6641            0    1395.0292    18.206009     23.46289    21.731868    9283.1062    1238.5846     910.7286    2035.7745    183.24944    167.93666    422.21349   -3800.8684 
 6917000    194.36005   -4352.5502   -4019.4237   -4352.5502            0    2499.7812    17.893875    23.215363     22.17217    9210.6031    2528.7013    2302.9296    2667.7128    132.67265    926.27132    943.48868   -3683.6351 
 6918000    218.39883   -4333.1607   -3958.8326   -4333.1607            0    1818.4293    18.028865    23.516798    21.841632     9260.441    1246.2071    1961.9104    2247.1702    -219.9554    559.71432   -47.155826   -3713.2464 
 6919000    211.22264    -4333.304   -3971.2756    -4333.304            0    908.56371    17.922909    23.352772    22.266125    9319.4782    2482.5312    1372.3591   -1129.1992   -623.52599    252.43006   -161.99182   -3847.7881 
 6920000     209.3728    -4355.027   -3996.1692    -4355.027            0     2259.777     18.12215     23.44163    21.779974    9252.4104    1320.9812    2171.1095    3287.2402    259.89864    344.61678    34.951587   -3691.2419 
 6921000    206.77975   -4354.3704    -3999.957   -4354.3704            0    1109.4209    17.971032     23.20714    22.234122    9272.8798     562.9192    745.72179    2019.6218    408.23169    535.31366   -553.23659   -3849.9239 
 6922000    204.47827   -4359.6336   -4009.1648   -4359.6336            0    1582.0492    18.090355    23.508151    21.909889    9317.6357    1218.6628    1849.6554    1677.8293   -75.779393    66.451272    601.91155    -3794.183 
 6923000    209.28482   -4366.9979   -4008.2909   -4366.9979            0     1915.205    17.906209    23.394706    22.083403    9250.9691    1604.9235    1003.4151    3137.2766   -135.97819    145.28632   -142.07891   -3749.8993 
 6924000      210.415   -4369.7521    -4009.108   -4369.7521            0     2722.141    18.133938    23.194532     21.86742     9197.616    1707.0907    2350.6445    4108.6878    414.37048   -314.53826    -757.3451    -3643.966 
 6925000    211.27955   -4349.1076   -3986.9817   -4349.1076            0    2582.8328    18.017552    23.236479    22.025709    9221.3821    2570.8452    3099.7288    2077.9245    127.50606    433.81777   -358.36964   -3639.6309 
 6926000     203.4118   -4354.8659   -4006.2251   -4354.8659            0    1909.4585    17.773906    23.680562    21.930608    9230.5074    2759.9107    308.30496    2660.1598   -435.81965   -60.618122   -42.224321   -3749.1786 
 6927000    209.05317   -4332.1452   -3973.8352   -4332.1452            0    2070.2976    17.924682    23.354377    22.106749    9254.3226    1961.7674    1697.7742    2551.3511    437.00055   -1092.2857   -131.03034   -3694.4179 
 6928000    205.19365   -4329.9749     -3978.28   -4329.9749            0    2084.0621    18.174502    23.214004    21.998942    9281.4187    1228.6537    3008.1341    2015.3985   -108.98315    255.12747   -183.63058   -3696.1815 
 6929000    199.85357   -4338.6893   -3996.1471   -4338.6893            0    1031.1495    17.942681     23.49612    22.070943    9304.7428    744.02093    320.10174    2029.3257   -494.67354   -285.86699   -330.57704     -3856.22 
 6930000     210.6548   -4358.7525   -3997.6974   -4358.7525            0    1497.5819    17.985462    23.554169    21.914591    9283.7357    1414.2827    965.16143    2113.3017   -1380.4842   -396.17616   -257.69929   -3794.9341 
 6931000    204.40798    -4334.421   -3984.0727    -4334.421            0    2534.2221    18.057974     23.26903    21.977669    9234.8305    3599.9172    2573.9293    1428.8199    243.38121   -216.63538    238.66161   -3642.7623 
 6932000    216.40586   -4337.8149   -3966.9026   -4337.8149            0    2063.9685    18.042297    23.321757    22.073605    9288.0885    2857.9584    2452.2711    881.67603    718.04789   -33.195166    704.73426   -3687.3231 
 6933000    203.18812   -4363.3013   -4015.0438   -4363.3013            0    1989.7025    18.105887     23.38845     21.96237    9300.3749    1564.0739    2608.5898    1796.4437   -521.09851   -28.149538    -380.4315   -3745.1677 
 6934000    204.89811   -4368.2509   -4017.0625   -4368.2509            0    2000.4597    17.919901    23.380508    22.126471    9270.4692    2161.0599    1571.9646    2268.3547   -240.13936    423.65551   -39.333413   -3746.5998 
 6935000    209.32585   -4332.5416   -3973.7642   -4332.5416            0    3225.1236    18.136359    23.312331    21.763476     9201.615     1695.453    5230.6333    2749.2847    204.73215   -881.15652   -26.657364   -3540.9652 
 6936000    207.78509   -4333.7242   -3977.5876   -4333.7242            0    1113.7059    18.046073    23.170385    22.424344    9376.3906     840.1362    3394.6003   -893.61891    660.42028   -314.42952   -44.566233   -3825.2939 
 6937000    195.21608   -4341.6701   -4007.0764   -4341.6701            0     2796.678     18.06008    23.477249    21.816137    9250.0639    3690.5544    2955.8382    1743.6414    1258.6373    218.51425    47.481304    -3629.797 
 6938000    209.30844   -4325.5206   -3966.7731   -4325.5206            0    1848.3532    17.978943    23.425118     22.18007    9341.3327    911.12181    2251.4725    2382.4652   -529.68714   -530.98689   -137.36164    -3714.965 
 6939000    203.22777   -4365.2997   -4016.9743   -4365.2997            0    2367.4867    17.993334    23.736139     21.71113    9272.6563    2674.9539    2272.9931    2154.5131   -50.260606   -547.25868    363.66006   -3696.8139 
 6940000    217.14948   -4336.4704   -3964.2836   -4336.4704            0    1055.3016    18.090765    23.294161    22.236159     9370.522    414.02845    1770.1082    981.76827    967.43704    593.31222    774.50407   -3820.0666 
 6941000    212.40197   -4353.2987    -3989.249   -4353.2987            0    1306.8282    18.162494    23.293185    21.956369    9288.9126    1568.5176    1163.9844    1187.9827    285.78942   -216.85285   -78.362025   -3812.2139 
 6942000    209.71814   -4344.5716   -3985.1219   -4344.5716            0    1223.2152    18.014796    23.429531    22.076038    9317.8149    385.74083    2651.8792    632.02571    181.07439     206.4523   -278.31116   -3818.8982 
 6943000    199.05497   -4328.1808   -3987.0074   -4328.1808            0    1460.4312    17.961528    23.555753    21.889243    9261.2799    2723.9693    276.90678    1380.4176    173.91188   -80.121207   -588.03353   -3789.7524 
 6944000    213.87092   -4342.3204    -3975.753   -4342.3204            0    516.03094    17.995762    23.491038    22.145779    9361.8874   -250.83814    261.55035    1537.3806    46.255606     274.9648   -466.80957   -3905.2975 
 6945000    212.89238   -4364.1997   -3999.3095   -4364.1997            0     2636.873     18.02463    23.311527    21.949599    9222.8185    1986.1949    3727.0866    2197.3376   -707.80896    141.45314   -515.18215    -3644.636 
 6946000    202.90887   -4342.3194   -3994.5405   -4342.3194            0    277.21868      18.3969    23.334336    21.819285     9366.571   -1218.9287    834.80105    1215.7837    161.74513     20.81357    306.01948   -3956.6719 
 6947000     203.4826   -4338.7695   -3990.0072   -4338.7695            0    2045.7449    17.874524    23.391465    22.187611    9276.8908    1506.8848    2340.2803    2290.0695    781.31701    -52.80022     554.9362   -3713.2304 
 6948000    209.01143   -4351.4876   -3993.2491   -4351.4876            0    2562.9863    17.934196      23.5966    21.929018    9280.0546    2372.2094     2345.459    2971.2905   -700.54681   -100.05477    245.74088   -3646.3743 
 6949000    218.50889   -4351.0769   -3976.5601   -4351.0769            0     2782.681    18.008508    23.197947    22.119649    9240.7138    2485.2949    3625.1738    2237.5743    236.27548   -962.98663    1065.7203   -3601.5484 
 6950000    199.87224   -4345.8037   -4003.2295   -4345.8037            0    1579.2389    18.328166    23.187935    21.920203    9315.9179    790.45561    2801.6314    1145.6298   -675.69171   -138.32234    800.39844   -3788.6692 
 6951000    207.67801   -4349.8314   -3993.8784   -4349.8314            0    2315.8805    17.866571      23.4862    22.121938    9282.7604     2233.086    4115.9853    598.57008    176.68676    178.10649    126.22608   -3680.3556 
 6952000    215.69225   -4351.0332   -3981.3441   -4351.0332            0    3424.7384     17.88536    23.624434    21.764218    9196.0678    2891.8247    3194.9068    4187.4839   -123.11549   -555.25457   -22.571754   -3522.0346 
 6953000    203.03919     -4360.95   -4012.9477     -4360.95            0    1290.1696    18.128971    23.138366    22.206498    9315.0658     667.3293    2424.6511    778.52829   -446.86825   -395.91296    -3.377446   -3837.6773 
 6954000     203.5786   -4362.3309   -4013.4041   -4362.3309            0    2326.7869     18.07257     23.31449     21.97988     9261.283    2238.0062    1896.2685    2846.0862   -158.76798    1113.1414   -243.18823   -3699.1336 
 6955000    195.25877   -4351.3776   -4016.7107   -4351.3776            0    3396.9887    17.692621    23.530746    22.064029    9185.7088    2871.5566    3028.0261    4291.3833    1184.5915   -275.05638     862.4671    -3561.636 
 6956000    194.44984   -4351.4624    -4018.182   -4351.4624            0    1914.6406     18.02009    23.491925    21.938082    9286.9735    1528.9554    2072.9543    2142.0121   -287.37531   -679.83474    621.22299   -3758.8612 
 6957000    206.23796   -4351.6806   -3998.1958   -4351.6806            0    2390.1485    18.325889    23.039058    21.889065    9241.8087    1876.5277    1919.1912    3374.7267    98.228458   -27.444665      529.559   -3676.0461 
 6958000    211.81635   -4345.4806   -3982.4346   -4345.4806            0    2654.3883    18.005786    23.496907    21.928122    9277.3559    2984.3164     1292.419    3686.4293    435.57809    1555.2522    495.61855    -3623.294 
 6959000    205.21188    -4351.715   -3999.9889    -4351.715            0    2550.7715    17.883291    23.666945    21.943872    9287.5871    1558.8685    3270.2578    2823.1883    486.42709   -765.16134    -721.8249    -3654.487 
 6960000     213.6797   -4339.1493   -3972.9096   -4339.1493            0    2073.9254    17.935632    23.391678    22.079591    9263.3717    2339.2789    1577.2945    2305.2028    569.49535   -47.851704   -312.41656    -3692.729 
 6961000    207.67383     -4356.33   -4000.3842     -4356.33            0    2870.6691    18.080373    23.178647    21.984557    9213.2567    3078.5047    4054.2002    1479.3023   -250.12831   -47.289188    743.88468   -3614.6641 
 6962000    208.20663   -4346.1656   -3989.3066   -4346.1656            0    3727.1685    17.927775    23.246731    22.030499    9181.4781    2951.5642    3748.8519    4481.0894    399.88427    317.75025     -441.753   -3490.2296 
 6963000    214.04282   -4346.3553   -3979.4933   -4346.3553            0    3405.9874    17.896939    23.615812    21.817369    9221.1274    4095.0515    1598.2693    4524.6413   -34.655499    254.41811   -125.71722   -3521.4538 
 6964000    202.20472   -4343.2977   -3996.7257   -4343.2977            0    2095.8135    17.976545    23.245028    22.078221    9225.7225    2184.8326    2758.3246    1344.2833   -728.33124   -77.995608    314.85897   -3714.7388 
 6965000     203.8341   -4385.4598   -4036.0952   -4385.4598            0    2821.5765    18.223687    23.286214    21.743124    9226.9268    1858.6298    3251.9216    3354.1782    -775.3481   -72.128678    329.83813    -3656.409 
 6966000    202.20914   -4360.2611   -4013.6815   -4360.2611            0    2415.8881    17.914889    23.467613    22.031334    9262.4063    3114.8962    2256.8934    1875.8748   -493.12647   -585.36693    59.689877   -3687.3369 
 6967000    208.40385   -4371.8726   -4014.6756   -4371.8726            0    2548.2399    17.840776    23.606626    21.921095    9232.2999    3298.6585    2226.7878    2119.2734   -853.09683    9.8001867   -452.22915   -3671.5713 
 6968000     210.7422    -4354.993   -3993.7881    -4354.993            0    3179.4116    17.954616    23.347712    21.951756    9202.1585    3339.0891    2810.2529    3388.8927    1046.8678   -160.00099    241.36007   -3567.0982 
 6969000    204.28863   -4336.0145   -3985.8708   -4336.0145            0    2227.0217    18.120325    23.410845    21.933958    9304.6508    494.73791    3192.9649    2993.3623   -1637.9075    386.86072    1232.3623   -3683.6666 
 6970000    201.60678   -4368.5104   -4022.9633   -4368.5104            0    1620.4215    17.914414    23.504663    22.072198    9293.9903    2458.2294    1228.5551    1174.4801    725.90559    472.38569   -1114.7933    -3803.326 
 6971000    200.18782   -4338.2553   -3995.1402   -4338.2553            0    2392.9693    17.950934    23.559171    21.842831    9237.5328    2009.4733    3229.1591    1940.2755   -609.51987   -91.478648    105.73774   -3672.7595 
 6972000    206.09589   -4361.8406   -4008.5993   -4361.8406            0    3268.7044    18.098287    23.118542    22.061926    9230.8426    2073.9683    2985.4168    4746.7282   -1290.0708    501.01468    118.56617   -3568.5586 
 6973000    200.89407   -4350.5098   -4006.1843   -4350.5098            0    1673.7603    18.064198    23.454373       21.927    9290.1282    1448.7857    565.49118     3007.004    113.86813   -62.873552    120.78306   -3779.4115 
 6974000    218.22322   -4370.7224   -3996.6952   -4370.7224            0    1581.8228    17.947877    23.517035    22.014963    9292.0944    2272.7585    1077.5474    1395.1625   -860.73476    277.99889   -33.839762   -3782.3335 
 6975000    200.72096   -4354.3053   -4010.2764   -4354.3053            0    2226.6286    18.287233    23.097744    21.917248    9257.7105    2418.8591    2103.6333    2157.3933   -463.34353    104.82169   -468.33345   -3709.6499 
 6976000    207.24453   -4349.7353   -3994.5252   -4349.7353            0    1718.3804    17.919935     23.36852    22.083397    9247.6953    3439.4668     1249.975    465.69937   -79.813529    183.06191   -313.35428   -3762.7704 
 6977000    225.78855   -4336.0316   -3949.0377   -4336.0316            0    1008.4967    18.073108    23.616042    21.864656    9332.1692   -587.59754    593.93898    3019.1488   -570.61422   -673.82494   -255.98606   -3811.7812 
 6978000    212.03398   -4339.3599   -3975.9409   -4339.3599            0    2563.0616    18.042874     23.10177    22.291048    9291.4062    3339.6675    3000.3605    1349.1567    111.28912    49.490438    32.802796   -3628.6317 
 6979000    216.58047   -4357.8684   -3986.6569   -4357.8684            0    2669.0546    18.115931     23.44871    21.683669    9211.1184    1325.6737    3115.7413    3565.7488   -132.31465   -187.45411   -70.624231   -3628.1102 
 6980000     207.4677   -4323.6937   -3968.1012   -4323.6937            0    1691.8447    17.900295      23.4381    22.067689    9258.4748    1106.9265    2107.0478    1861.5598    445.37493    736.84445    1065.7492   -3739.6592 
 6981000    218.08825   -4357.0391   -3983.2433   -4357.0391            0    2274.3505    18.160876     23.28523     21.85886     9243.679    2348.0451    3627.2578     847.7485    854.76477   -471.06424   -75.078784    -3676.639 
 6982000    218.12463   -4370.0999   -3996.2417   -4370.0999            0    1498.8695    18.015761    23.312967    22.089609    9277.6543    107.81089    2488.8824    1899.9153   -372.44709    551.28096   -50.881195   -3793.4371 
 6983000    209.84995   -4368.4656     -4008.79   -4368.4656            0    1650.9081    17.850006    23.690259    21.908362     9264.417    2386.5473    1251.2619     1314.915   -415.73313    442.26489   -620.12748   -3785.7325 
 6984000    210.86654   -4340.7404   -3979.3224   -4340.7404            0    1980.6854    18.097029    23.238472    22.037908    9267.9826    1474.2715    2132.6578    2335.1267   -600.14449   -423.81657    676.37605    -3711.605 
 6985000    200.95487   -4360.2494   -4015.8197   -4360.2494            0     1226.172    18.085995    23.286683    22.096278    9306.1313    1572.0583     900.0386    1206.4192    158.19988    212.70504    484.51776   -3849.4031 
 6986000    213.77577   -4362.9648   -3996.5605   -4362.9648            0    2435.8048    17.938934    23.494538    21.883939    9223.3575     2255.984    1408.6772     3642.753   -711.58506    501.13121    237.67851   -3668.9126 
 6987000    209.94166   -4361.2162   -4001.3834   -4361.2162            0    2699.9936    17.936682    23.418142    22.090578    9279.0096    2749.0446    3877.3152    1473.6209   -253.32238    107.92525    1099.7414   -3636.0072 
 6988000    202.05042   -4330.6309   -3984.3234   -4330.6309            0    2088.4894    18.104704    23.428482    21.881481    9281.3748    971.58809    1883.2136    3410.6665    335.27009   -411.86395   -562.04425   -3701.6269 
 6989000    205.05232   -4347.5124   -3996.0598   -4347.5124            0    864.03473    18.039475    23.388624    22.055256    9305.5205    2007.2336     32.42557    552.44501   -187.94961   -53.563376   -814.00756   -3878.8003 
 6990000    216.99489   -4365.6997   -3993.7779   -4365.6997            0    2156.9293    17.849722    23.579906    22.030566    9272.5499    3208.9435    1422.0691    1839.7753    506.42074   -77.598391    703.15002    -3702.095 
 6991000    199.73377   -4361.2203   -4018.8835   -4361.2203            0    449.15323    18.037328    23.438548    22.147868    9363.4275    549.05133    141.12967    657.27867    521.01375    937.15886     332.4695   -3957.5489 
 6992000    208.37349   -4349.0787   -3991.9336   -4349.0787            0    2854.1997    18.066693    23.390453    21.902011      9255.53    1649.9936    3083.4523    3829.1532    770.89555   -193.71247    604.90999   -3606.6669 
 6993000    220.98143   -4347.6263   -3968.8717   -4347.6263            0    2658.5785    17.753364    23.352306    22.205346    9205.9365    3984.7652    2633.7378    1357.2326   -661.28141   -559.64402   -374.16014   -3611.9332 
 6994000    203.17252   -4330.7504   -3982.5197   -4330.7504            0    1128.7308    18.120928    23.415783    21.921914    9301.8124    465.76761     644.8497    2275.5751   -486.32179    252.65372    25.140564    -3829.399 
 6995000    212.34972   -4340.1682   -3976.2081   -4340.1682            0    1635.8564      17.9081    23.391486    22.234412    9313.9298    666.03536     2317.623     1923.911    341.49253     322.0344   -1003.8415    -3754.003 
 6996000    202.73291   -4346.5479   -3999.0706   -4346.5479            0    1177.1908    17.925528    23.582682    22.073119    9331.0146    1152.3089    260.50399    2118.7595    531.71944   -596.71216   -224.67334   -3838.8746 
 6997000     203.2784   -4346.9517   -3998.5395   -4346.9517            0    1631.1207    18.120388    23.265535    22.006941    9277.6977    861.11418     2549.718    1482.5298   -35.508423   -454.88566   -32.919747   -3777.8396 
 6998000    208.18666   -4326.6563   -3969.8314   -4326.6563            0     2733.144    18.118161    23.143108    22.085053    9260.4957    2568.5945    3543.6927    2087.1447   -206.42859   -437.15674   -64.667351   -3600.7071 
 6999000    204.35837   -4365.3118   -4015.0486   -4365.3118            0    1885.8119    17.946938    23.584505    21.976631     9302.041    1372.6748    1941.2572    2343.5035   -850.09056    -559.2021    250.74586    -3759.218 
 7000000    213.83947    -4333.021   -3966.5075    -4333.021            0     977.1031    17.958418    23.462925    22.219151    9362.1949    1418.0981    2647.5889   -1134.3777    1427.1756    175.83685    134.45529   -3833.0957 
Loop time of 375.725 on 64 procs for 250000 steps with 864 atoms

Performance: 114.978 ns/day, 0.209 hours/ns, 665.380 timesteps/s
194.4% CPU use with 32 MPI tasks x 2 OpenMP threads

MPI task timing breakdown:
Section |  min time  |  avg time  |  max time  |%varavg| %total
---------------------------------------------------------------
Pair    | 17.08      | 25.17      | 36.431     | 112.2 |  6.70
Bond    | 0.7728     | 1.0302     | 1.6792     |  18.4 |  0.27
Kspace  | 188.47     | 201.09     | 211.74     |  45.4 | 53.52
Neigh   | 1.2214     | 1.3192     | 1.4205     |   5.1 |  0.35
Comm    | 56.484     | 61.302     | 66.111     |  28.8 | 16.32
Output  | 0.54664    | 0.54707    | 0.54896    |   0.1 |  0.15
Modify  | 66.163     | 68.519     | 72.745     |  20.6 | 18.24
Other   |            | 16.75      |            |       |  4.46

Nlocal:        27.0000 ave          38 max          17 min
Histogram: 5 4 2 4 5 2 0 1 4 5
Nghost:        2117.25 ave        2225 max        2020 min
Histogram: 11 5 0 0 0 0 0 1 11 4
Neighs:        6493.03 ave        9161 max        4244 min
Histogram: 5 5 2 3 5 2 1 2 2 5

Total # of neighbors = 207777
Ave neighs/atom = 240.48264
Ave special neighs/atom = 2.0000000
Neighbor list builds = 4437
Dangerous builds = 0

unfix		3
unfix		2
unfix		1

write_data	data.final.${pid} nocoeff
write_data	data.final.1 nocoeff
System init for write_data ...
PPPM initialization ...
  extracting TIP4P info from pair style
  using 12-bit tables for long-range coulomb (../kspace.cpp:340)
  G vector (1/distance) = 0.37129923
  grid = 24 27 25
  stencil order = 5
  estimated absolute RMS force accuracy = 0.003212983
  estimated relative force accuracy = 9.6758028e-06
  using double precision FFTW3
  3d grid and FFT values/proc = 4410 672
Last active /omp style is kspace_style pppm/tip4p/omp

write_restart   restart.lmp.${pid}
write_restart   restart.lmp.1
System init for write_restart ...
PPPM initialization ...
  extracting TIP4P info from pair style
  using 12-bit tables for long-range coulomb (../kspace.cpp:340)
  G vector (1/distance) = 0.37129923
  grid = 24 27 25
  stencil order = 5
  estimated absolute RMS force accuracy = 0.003212983
  estimated relative force accuracy = 9.6758028e-06
  using double precision FFTW3
  3d grid and FFT values/proc = 4410 672
Last active /omp style is kspace_style pppm/tip4p/omp
Total wall time: 0:06:15
