LAMMPS (30 Jul 2021)
Processor partition = 1
  using 2 OpenMP thread(s) per MPI task
using multi-threaded neighbor list subroutines
variable        pid world 0 1
variable        phase world IceIII Liquid

shell cd ${phase}
shell cd Liquid
include Restart.lmp
echo both
log log.lammps
#include		in.partitions
include		in.temp
variable        temperature equal 261.36
variable	tempDamp equal 100.0
include		in.pressure
variable        pressure equal 3125.0
variable        pressureDamp equal 1000.0 # This is 1 ps
include		in.seed
variable        seed equal 745823

units		real
atom_style	full
read_restart	restart.lmp.${pid}
read_restart	restart.lmp.1
Reading restart file ...
  restart file = 30 Jul 2021, LAMMPS = 30 Jul 2021
  restoring atom style full from restart
  orthogonal box = (0.33400250 1.4849421 0.40748227) to (17.873570 22.144236 21.805714)
  2 by 4 by 4 MPI processor grid
  restoring pair style lj/cut/tip4p/long/omp from restart
  restoring bond style harmonic/omp from restart
  restoring angle style harmonic/omp from restart
  864 atoms
  576 bonds
  288 angles
Finding 1-2 1-3 1-4 neighbors ...
  special bond factors lj:    0        0        0       
  special bond factors coul:  0        0        0       
     2 = max # of 1-2 neighbors
     1 = max # of 1-3 neighbors
     1 = max # of 1-4 neighbors
     2 = max # of special neighbors
  special bonds CPU = 0.002 seconds
  read_restart CPU = 0.008 seconds
include 	in.setup
variable	out_freq equal 1000
variable	out_freq2 equal 10000
variable	out_freq3 equal 1000

timestep	2.0

neigh_modify    delay 7 every 1

include		in.tip4p
# This is TIP4P/Ice

# create groups ###
group ox type 2
288 atoms in group ox
group hy type 1
576 atoms in group hy

# set charges - beside manually ###
set group ox charge -1.1794
Setting atom values ...
  288 settings made for charge
set group hy charge 0.5897
Setting atom values ...
  576 settings made for charge

# ### TIP3P Potential Parameters ###
pair_style lj/cut/tip4p/long/omp 2 1 1 1 0.1577 8.5
pair_coeff 1 1*2 0.000 0.000
pair_coeff 2 2 0.21084 3.1668
bond_style  harmonic
bond_coeff  1 450 0.9572
angle_style harmonic
angle_coeff 1 55 104.52
kspace_style pppm/tip4p/omp 1.0e-5
pair_modify tail yes

thermo          ${out_freq}
thermo          1000
thermo_style    custom step temp pe etotal epair emol press lx ly lz vol pxx pyy pzz pxy pxz pyz enthalpy

restart 	${out_freq3} restart.lmp.${pid} restart2.lmp.${pid}
restart 	1000 restart.lmp.${pid} restart2.lmp.${pid}
restart 	1000 restart.lmp.1 restart2.lmp.${pid}
restart 	1000 restart.lmp.1 restart2.lmp.1


include         in.dump
dump            myDump all atom ${out_freq2} dump.water.${pid}
dump            myDump all atom 10000 dump.water.${pid}
dump            myDump all atom 10000 dump.water.1
dump            myDump2 all dcd ${out_freq2} dump.dcd
dump            myDump2 all dcd 10000 dump.dcd
dump_modify     myDump append yes
dump_modify     myDump2 append yes


variable natoms 	equal  "count(all)"                        # NUMBER ATOMS
variable H      	equal  "enthalpy/v_natoms"                 # ENTHALPY-per-atom
variable Vol      	equal  "vol/v_natoms"                 # volume-per-atom
fix AVG all 		ave/time ${out_freq} 1 ${out_freq} v_Vol v_H file vol_enthalpy.dat
fix AVG all 		ave/time 1000 1 ${out_freq} v_Vol v_H file vol_enthalpy.dat
fix AVG all 		ave/time 1000 1 1000 v_Vol v_H file vol_enthalpy.dat


timer           timeout 23:50:00 every 1000
New timer settings: style=normal  mode=nosync  timeout=23:50:00

fix 		1 all shake 1e-6 200 0 b 1 a 1
Finding SHAKE clusters ...
       0 = # of size 2 clusters
       0 = # of size 3 clusters
       0 = # of size 4 clusters
     288 = # of frozen angles
  find clusters CPU = 0.001 seconds
fix             2 all nph iso ${pressure} ${pressure} ${pressureDamp}
fix             2 all nph iso 3125 ${pressure} ${pressureDamp}
fix             2 all nph iso 3125 3125 ${pressureDamp}
fix             2 all nph iso 3125 3125 1000
fix             3 all temp/csvr ${temperature} ${temperature} ${tempDamp} ${seed}
fix             3 all temp/csvr 261.36 ${temperature} ${tempDamp} ${seed}
fix             3 all temp/csvr 261.36 261.36 ${tempDamp} ${seed}
fix             3 all temp/csvr 261.36 261.36 100 ${seed}
fix             3 all temp/csvr 261.36 261.36 100 745823

run             250000
PPPM initialization ...
  extracting TIP4P info from pair style
  using 12-bit tables for long-range coulomb (../kspace.cpp:340)
  G vector (1/distance) = 0.37312492
  grid = 24 24 25
  stencil order = 5
  estimated absolute RMS force accuracy = 0.0032003145
  estimated relative force accuracy = 9.637652e-06
  using double precision FFTW3
  3d grid and FFT values/proc = 3822 576
Last active /omp style is kspace_style pppm/tip4p/omp
Neighbor list info ...
  update every 1 steps, delay 7 steps, check yes
  max neighbors/atom: 2000, page size: 100000
  master list distance cutoff = 10.8154
  ghost atom cutoff = 10.8154
  binsize = 5.4077, bins = 4 4 4
  1 neighbor lists, perpetual/occasional/extra = 1 0 0
  (1) pair lj/cut/tip4p/long/omp, perpetual
      attributes: half, newton on, omp
      pair build: half/bin/newton/omp
      stencil: half/bin/3d
      bin: standard
Setting up Verlet run ...
  Unit style    : real
  Current step  : 4500000
  Time step     : 2
  Walltime left : 23:49:59.94
Per MPI rank memory allocation (min/avg/max) = 10.20 | 10.20 | 10.21 Mbytes
Step Temp PotEng TotEng E_pair E_mol Press Lx Ly Lz Volume Pxx Pyy Pzz Pxy Pxz Pyz Enthalpy 
 4500000    281.36213   -3909.1325   -3426.8875   -3909.1325            0    3446.0399    17.539567    20.659294    21.398231    7753.7576    3859.2901    3625.1103    2853.7194    -1125.858    657.06428   -348.13144   -3037.2072 
 4501000    268.53247   -3898.7712   -3438.5157   -3898.7712            0    259.05249     17.55891    20.682077    21.421829    7779.4384    641.92081    347.33426    -212.0976   -254.82604   -129.18714    729.17695   -3409.1249 
 4502000    262.17475   -3853.7391   -3404.3806   -3853.7391            0    3087.2247    17.481596    20.591011    21.327506    7677.1288    3569.1285    3780.1563    1912.3892   -1116.8543   -594.71302   -33.947255   -3058.7255 
 4503000    256.62255   -3844.5171   -3404.6748   -3844.5171            0    5003.7509    17.383583    20.475564     21.20793    7548.7224    5130.9374    5175.5653      4704.75   -313.93408    408.44831     952.3663     -2853.81 
 4504000    255.80268   -3894.9215   -3456.4844   -3894.9215            0     4017.066    17.450463    20.554341    21.289525    7636.1858    3310.3401    3517.1922    5223.6656   -925.29091    520.68557   -2.1922656   -3009.1201 
 4505000    250.74437   -3829.9678   -3400.2005   -3829.9678            0     3973.243    17.455896     20.56074    21.296153    7643.3199    5303.6429    4239.7815    2376.3046    1003.2703    771.41334   -480.19315   -2957.3032 
 4506000    261.82648    -3868.736   -3419.9744    -3868.736            0    4173.0614    17.483046    20.592718    21.329275    7679.0389    5257.9008    3766.6647    3494.6189    1190.2501    276.81936   -2561.8379   -2952.6294 
 4507000    261.59451   -3859.7528   -3411.3888   -3859.7528            0     3603.842    17.439983    20.541996    21.276738    7622.4352    5302.3086    2076.7185     3432.499   -859.28483    521.11005    319.17116   -3010.7662 
 4508000    258.24891    -3840.697   -3398.0672    -3840.697            0    1805.7403    17.489643    20.600489    21.337323     7687.735    2167.9276    1709.7653    1539.5281    178.28784    654.70715    229.92475   -3195.6117 
 4509000    263.14105   -3833.2446   -3382.2299   -3833.2446            0    4210.7484    17.441548     20.54384    21.278648    7624.4876    3481.3275    3938.9328    5211.9849    800.11398    551.93367   -419.46848   -2914.0143 
 4510000    256.12366   -3832.2593   -3393.2722   -3832.2593            0    3087.8071    17.493862    20.605458     21.34247    7693.2998    2336.6714    3893.0496    3033.7003   -586.91683    -1511.755    679.27569   -3046.8236 
 4511000    253.76725   -3843.0764    -3408.128   -3843.0764            0    3461.4043    17.495506    20.607395    21.344476    7695.4689    3487.9784    3928.4278    2967.8067    80.731333    1480.8558   -566.54325   -3019.6528 
 4512000    267.78389   -3821.2366   -3362.2641   -3821.2366            0    4776.6567    17.533287    20.651896    21.390569    7745.4315    5030.9576    5316.1465    3982.8659    96.234435    508.34118   -355.21581   -2822.6969 
 4513000    263.76528   -3815.5808   -3363.4962   -3815.5808            0    3227.7085    17.565511    20.689851    21.429882    7788.2149    3145.0074    3396.2277    3141.8904   -250.52763    -590.6361   -163.34757    -2996.883 
 4514000    271.00971   -3885.3262   -3420.8249   -3885.3262            0    1630.0718    17.575807    20.701979    21.442444    7801.9189    800.78102    1528.5882    2560.8461    1022.8239   -1591.1242    1092.1173   -3235.3504 
 4515000    258.69823   -3868.0077   -3424.6078   -3868.0077            0    2346.6032    17.649031    20.788227    21.531776    7899.8374     3155.025    492.13484    3392.6496    -545.5851    569.28876   -538.72551   -3154.2533 
 4516000    258.85337    -3858.684   -3415.0182    -3858.684            0    4569.8878    17.494282    20.605954    21.342983    7693.8545    5217.7246    3494.2798    4997.6589    991.94434   -419.55293   -1384.7392   -2902.2449 
 4517000    266.16171   -3874.3895   -3418.1974   -3874.3895            0    4035.9274    17.540304    20.660162     21.39913    7754.7352    3143.9745    5288.7608    3675.0469    1284.6214    660.55393    143.21961   -2961.7548 
 4518000    250.83725   -3889.4586   -3459.5322   -3889.4586            0    3259.6772    17.473008    20.580895    21.317029      7665.82       2789.6    2358.8909    4630.5408   -476.01673   -213.56454    70.806332   -3095.1064 
 4519000    263.74937   -3877.2329   -3425.1755   -3877.2329            0    2304.1705    17.535938    20.655018    21.393803    7748.9448    2241.3757    2685.6119    1985.5238   -166.66912    465.62222    12.979667   -3164.7802 
 4520000    256.74424   -3890.2358    -3450.185   -3890.2358            0    3456.9199    17.384908    20.477126    21.209548    7550.4496    4698.1662    2546.3591    3126.2345    198.71583   -140.08036    700.75057   -3069.5243 
 4521000    258.32977   -3879.5084     -3436.74   -3879.5084            0    3186.0326    17.451945    20.556086    21.291332    7638.1309    3328.6078    2983.6516    3245.8386   -1488.4941    672.20284   -112.60111   -3081.8341 
 4522000    276.02964   -3901.1101   -3428.0047   -3901.1101            0     3327.011    17.587136    20.715323    21.456265     7817.015    4112.3207    3747.7841    2120.9281   -1338.3057   -139.03045    698.96788    -3048.715 
 4523000    249.65682   -3888.5034   -3460.6002   -3888.5034            0    3440.7129    17.519734    20.635933    21.374035    7727.4842    3131.4791    3761.9224    3428.7373   -227.29144    630.16806   -3.9702861   -3072.8407 
 4524000    266.62094   -3817.6575   -3360.6783   -3817.6575            0    1991.9544    17.501013    20.613881    21.351195     7702.738    3372.6168   -902.59928    3505.8457     1881.421    1729.7736    1987.1164    -3136.909 
 4525000    254.76178   -3861.7896   -3425.1367   -3861.7896            0    2261.2347    17.604739    20.736057     21.47774    7840.5104    3297.6896    2093.8413    1392.1731     165.1895    251.59922     119.3925    -3166.574 
 4526000    273.06298   -3862.6633   -3394.6427   -3862.6633            0    3871.6885    17.495988    20.607962    21.345064    7696.1048     4844.022    1984.3075    4786.7359    1439.3167    -594.3839    -1016.949   -2960.0852 
 4527000    257.71628   -3832.5186   -3390.8017   -3832.5186            0    1770.9973    17.564942    20.689181    21.429188    7787.4583    3437.4045    486.40765    1389.1797    1239.8819    182.56086     262.6043   -3189.6658 
 4528000    266.45386   -3897.0814   -3440.3886   -3897.0814            0    3006.5134    17.469416    20.576664    21.312646     7661.093    3060.5217    2691.0118    3268.0067    1974.7287    938.88265    113.91624   -3104.4733 
 4529000    246.87664     -3877.69   -3454.5519     -3877.69            0    5388.4064    17.451041    20.555021    21.290229    7636.9442    4236.1707    5702.1633    6226.8852    1126.4753    -480.3005     465.9172   -2854.4073 
 4530000    265.06605   -3855.2124   -3400.8983   -3855.2124            0    3299.1297      17.5712    20.696552    21.436822    7795.7845    3020.8922    2009.9318    4866.5652    181.57773    600.34892    584.23708   -3025.8086 
 4531000    270.97529   -3842.7951   -3378.3527   -3842.7951            0    870.43298    17.573367    20.699105    21.439467    7798.6696    1643.9914   -165.62537    1132.9329    312.84339     138.1795   -74.584417   -3279.3535 
 4532000    254.62186   -3825.1201   -3388.7069   -3825.1201            0    3226.5904    17.504975    20.618549    21.356029    7707.9715    1928.8156    4260.6508    3490.3048    379.29336    105.44926   -759.48883   -3025.9967 
 4533000    264.82896   -3847.9183   -3394.0105   -3847.9183            0    1969.0914    17.587204    20.715403    21.456348    7817.1059    292.35759    1328.2306    4286.6861     857.2783   -445.40152   -30.591963   -3169.5253 
 4534000    244.03324   -3872.8909   -3454.6263   -3872.8909            0    3306.4945    17.552611    20.674657    21.414144    7771.0688    4850.1537    2283.0884    2786.2416   -376.84259   -6.5209558   -849.26146   -3079.8911 
 4535000    249.95905   -3888.1441   -3459.7228   -3888.1441            0    3276.5045    17.491282     20.60242    21.339323    7689.8967    2468.7794    4030.7175    3330.0166    1284.2286    59.613966    269.77864   -3092.2653 
 4536000     268.3543   -3917.1146   -3457.1645   -3917.1146            0    2199.4889    17.524082    20.641054    21.379339     7733.239    1990.6739    3408.5265    1199.2665   -1627.4949   -663.74642    1221.2692   -3209.1031 
 4537000     264.5038    -3848.215   -3394.8646    -3848.215            0    3138.3313    17.459519    20.565007    21.300572    7648.0796    3454.7768    3200.7146    2759.5024    492.61357     249.8994   -1230.0942    -3044.817 
 4538000    265.44418   -3874.4524   -3419.4901   -3874.4524            0    3271.3266    17.472117    20.579846    21.315942    7664.6472    2144.3001    5140.2049    2529.4748    46.077166    735.73886    419.52792   -3053.8179 
 4539000    256.08802   -3846.9983   -3408.0722   -3846.9983            0    2902.9109    17.425846    20.525345    21.259492    7603.9147     2120.937    3779.6755    2808.1202   -324.62281    1187.1795   -427.08006   -3086.1531 
 4540000    257.01777   -3864.0978   -3423.5781   -3864.0978            0    2299.5303    17.514103      20.6293    21.367164     7720.035    1756.8691    3980.8865    1160.8351   -1542.4621    860.33887    226.68543   -3164.6768 
 4541000    270.09935   -3900.4767   -3437.5356   -3900.4767            0    4209.7677    17.445548    20.548551    21.283528    7629.7347    6366.3242    3676.9378    2586.0412    1154.4333     632.6093   -213.83372    -2969.107 
 4542000    264.05366   -3893.6221   -3441.0432   -3893.6221            0    1793.3374     17.52115    20.637601    21.375762    7729.3583    981.03789     1200.862    3198.1125   -491.30635    710.83497   -691.41388   -3238.8897 
 4543000    256.67713    -3854.351   -3414.4152    -3854.351            0    2356.4163    17.544737    20.665383    21.404539    7760.6161    945.43199    3768.3964    2355.4206    364.00294   -247.80787   -68.877231   -3147.7146 
 4544000    262.11745   -3865.5315   -3416.2712   -3865.5315            0    3363.5224    17.439444    20.541362    21.276082    7621.7295    3430.3611    2572.2687    4087.9373    1545.7019   -336.51331     589.8508   -3042.3985 
 4545000    250.56347   -3948.1886   -3518.7314   -3948.1886            0    3877.1228    17.506226    20.620021    21.357554    7709.6232     2945.659    4651.2505    4034.4589    -12.06452    -647.8512    274.95962   -3082.7996 
 4546000    263.35446   -3882.0995   -3430.7189   -3882.0995            0     2813.214    17.513279     20.62833     21.36616     7718.946    1372.7554    2921.6897    4145.1968   -721.70342    258.37774    496.55997   -3114.0273 
 4547000    247.22426   -3872.7138   -3448.9798   -3872.7138            0    2726.2633     17.46161     20.56747    21.303124    7650.8283    1849.9981    4822.6902    1506.1015    1054.7488    317.28488    263.75819   -3144.7848 
 4548000    267.48674   -3865.4026   -3406.9395   -3865.4026            0    3961.5435    17.410393    20.507143    21.240638    7583.7025    3349.8649    4044.0231    4490.7425   -100.73334   -1318.2812    -843.0391   -2968.7907 
 4549000    257.47096   -3854.6814    -3413.385   -3854.6814            0    3166.2503    17.512998    20.627998    21.365816    7718.5739    4067.8955    2048.5218    3382.3338    1102.2776    429.77304   -1030.3965   -3056.9681 
 4550000    278.24761   -3888.3533   -3411.4464   -3888.3533            0    1466.5007     17.56502    20.689273    21.429283    7787.5619    2154.9199     762.3524      1482.23   -1074.4701    1293.3192   -2182.6196   -3244.8906 
 4551000    259.06379   -3813.5116   -3369.4852   -3813.5116            0    1961.7242    17.574081    20.699946    21.440338    7799.6202     2945.019    1111.3851    1828.7685    445.96282     89.53439    821.95197   -3146.3401 
 4552000    266.15674   -3875.5492   -3419.3656   -3875.5492            0    3320.1767     17.51073    20.625326    21.363049    7715.5752    3371.6744    4265.7626     2323.093    1041.3602   -541.85846   -640.71723   -3045.7669 
 4553000    251.92135   -3873.3233   -3441.5387   -3873.3233            0    2851.7476    17.544309    20.664879    21.404016    7760.0476    2691.1384    2111.8141    3752.2902   -201.96008   -1084.6649    518.71105   -3118.7998 
 4554000    264.72962   -3851.4892   -3397.7517   -3851.4892            0    3025.7093    17.555628    20.678211    21.417825    7775.0766    3008.2661    3427.9373    2640.9245   -824.97412   -834.73019   -1751.4676   -3054.6619 
 4555000    253.04675   -3828.7916   -3395.0781   -3828.7916            0    3121.1812     17.55386    20.676128    21.415668    7772.7276    2977.7701    2921.8578    3463.9156    305.19035   -490.88055    728.65419   -3041.2696 
 4556000    267.13275   -3800.3301   -3342.4737   -3800.3301            0    5189.8301    17.472435    20.580221     21.31633    7665.0662    4969.5367    4619.8032    5980.1503    453.44671   -483.01986      99.4043   -2762.3175 
 4557000     261.5595   -3861.9495   -3413.6454   -3861.9495            0    4348.8135    17.553623     20.67585     21.41538     7772.414    3836.9079    6085.2185    3124.3139   -2120.3837   -1016.6647   -861.85778   -2920.6957 
 4558000    260.87066   -3857.4851   -3410.3617   -3857.4851            0    4201.0674    17.577193    20.703611    21.444134    7803.7639      4432.73    3406.0859    4764.3862   -374.59637   -342.70862   -32.307339   -2932.2387 
 4559000    259.49251   -3840.3318   -3395.5705   -3840.3318            0    2531.4224     17.56569    20.690063    21.430101    7788.4538     895.0728    3943.2886    2755.9057    -16.76943    837.88247     608.4675   -3108.0348 
 4560000    258.76489   -3872.4144   -3428.9003   -3872.4144            0    2749.2665    17.506741    20.620628    21.358183    7710.3036    1636.7094    3473.0406    3138.0494     1023.586    223.39095   -338.79703   -3119.7539 
 4561000    254.67215   -3870.7824    -3434.283   -3870.7824            0    2576.7372    17.555366    20.677903    21.417506    7774.7294    2555.0516    1716.2002    3458.9597    -891.9744   -596.19941    384.09097   -3142.1159 
 4562000    246.62391   -3802.7941   -3380.0892   -3802.7941            0    2498.3148    17.570767    20.696043    21.436295    7795.2089    2244.1307    1734.2286    3516.5851   -1058.5665      1209.84    973.08943   -3096.0679 
 4563000    269.42135   -3853.0121   -3391.2331   -3853.0121            0     3165.379    17.575122    20.701172    21.441608    7801.0062    2770.0447    4488.7236    2237.3687    313.46978    1141.2762    1636.1815    -3031.109 
 4564000    271.16061   -3891.4243   -3426.6643   -3891.4243            0    2629.8625    17.537874    20.657299    21.396165    7751.5116    2207.3158    3010.6861    2671.5856   -381.97613     82.28282    503.35957    -3129.364 
 4565000    256.99168   -3909.2372   -3468.7623   -3909.2372            0    3650.1868    17.546654    20.667641    21.406877    7763.1603    3243.3332    4373.3795    3333.8476   -107.70946   -603.27581   -430.20878   -3055.4964 
 4566000    268.68366   -3850.2188   -3389.7042   -3850.2188            0    3315.5401    17.543932    20.664435    21.403557    7759.5481    2700.6527    4181.8065    3064.1612   -881.00674    308.86817   -73.749345    -3014.501 
 4567000    248.31468   -3884.8113   -3459.2084   -3884.8113            0    1761.0912    17.499421    20.612007    21.349253    7700.6371     480.1098    1390.0737    3413.0901   -507.50653    -845.4795   -1348.9994   -3261.4275 
 4568000    260.86522   -3852.9615   -3405.8475   -3852.9615            0     3302.111    17.438088    20.539764    21.274427     7619.951    4096.9503     2238.833    3570.5496    1305.2214    621.13171    647.47235   -3038.8866 
 4569000    241.73609   -3879.0295   -3464.7021   -3879.0295            0     2419.256     17.47886    20.587789    21.324169    7673.5252     3729.842    1133.1762    2394.7498    1230.6889     1464.158    -459.0824    -3193.962 
 4570000    261.12822    -3865.183   -3417.6182    -3865.183            0    1409.8183    17.593745    20.723108    21.464328    7825.8309    1511.8187    1798.3351    919.30115    608.13798    -238.2748    96.871008   -3256.7132 
 4571000    259.72235     -3871.72   -3426.5648     -3871.72            0    3407.3848    17.468263    20.575306     21.31124    7659.5764    3283.8172    2549.5202     4388.817    998.18349    716.36343    -512.2868   -3045.9359 
 4572000    273.65955   -3821.3134   -3352.2703   -3821.3134            0    3553.1527    17.537449    20.656798    21.395647    7750.9483    2128.0337    4386.8896    4144.5347   -142.86607    1418.4511    1391.0644   -2950.6232 
 4573000    253.12659   -3870.7131   -3436.8628   -3870.7131            0    3827.4088    17.522681    20.639404     21.37763    7731.3848    3351.8534    5816.3464    2314.0264   -245.01041   -246.97014    323.06352   -3005.3059 
 4574000    266.28867   -3900.0562   -3443.6465   -3900.0562            0     3385.442    17.517753    20.633599    21.371618    7724.8628     3836.666    3751.3985    2568.2616    1126.0746   -702.79248   -932.82659   -3062.2453 
 4575000    252.73186   -3859.3853   -3426.2115   -3859.3853            0    3177.8218    17.595102    20.724706    21.465983    7827.6416    3262.8784    3552.9895    2717.5974    522.44296   -420.07806   -716.17423   -3063.4374 
 4576000    243.12932   -3846.9157   -3430.2003   -3846.9157            0    1717.6627     17.55024    20.671865    21.411252    7767.9206   -362.03087    3754.0634    1760.9557   -1444.5315   -120.50345    465.61842   -3235.6112 
 4577000    257.94611   -3898.2448    -3456.134   -3898.2448            0    5144.2664    17.438211    20.539909    21.274576    7620.1118     4579.209    4851.2878    6002.3024   -437.45112    455.74847    -593.1507   -2884.4439 
 4578000    270.02543   -3851.5258   -3388.7115   -3851.5258            0     3358.242    17.489121    20.599875    21.336687    7687.0473    3302.2723    3909.0766    2863.3771    -1286.163    2632.2783   -593.31805   -3012.2267 
 4579000    263.69832   -3890.5064   -3438.5365   -3890.5064            0     4015.004    17.476928    20.585513    21.321811    7670.9805    3126.5859    5188.4594    3729.9668   -1453.4518     267.6736    535.87953   -2989.3644 
 4580000    282.05193   -3875.2208   -3391.7935   -3875.2208            0    3971.0277    17.512783    20.627745    21.365555    7718.2902    3288.5259    5031.6811    3592.8761   -395.30518    48.129593    1008.6362   -2944.8013 
 4581000    249.20855   -3846.1234   -3418.9884   -3846.1234            0    3021.6816    17.465973    20.572609    21.308446    7656.5644    2603.2876    3184.0643    3277.6928    894.54266     1132.095   -1096.0834    -3081.578 
 4582000    265.58863   -3906.8807   -3451.6708   -3906.8807            0     3011.944    17.504969    20.618542    21.356022    7707.9636    1698.4915    4989.6448    2347.6958   -399.28125    349.38192    134.57572   -3113.0899 
 4583000    259.02353   -3884.8751   -3440.9176   -3884.8751            0    2402.9114       17.589    20.717519    21.458539    7819.5009    2360.2771    3100.6834    1747.7736    141.67116   -40.516487    1543.0665   -3166.8911 
 4584000    256.97689   -3817.2745   -3376.8249   -3817.2745            0    3407.7906    17.552547    20.674581    21.414066    7770.9835    3023.2359    4635.1369     2564.999   -397.42752    68.509767    767.10067   -2990.6138 
 4585000    268.88468   -3885.4622   -3424.6031   -3885.4622            0    2085.8181    17.525778    20.643051    21.381408    7735.4841    1677.4252    2071.8004    2508.2286   -977.77957   -480.73799    319.47063   -3189.2934 
 4586000    265.44014   -3880.2544   -3425.2991   -3880.2544            0    3097.1647    17.566851     20.69143    21.431517    7789.9977    2749.5693    2480.6493    4061.2756      1041.13   -911.45931    510.35812   -3073.4329 
 4587000     255.5084   -3866.1043   -3428.1717   -3866.1043            0    1545.4746    17.619793    20.753789    21.496106    7860.6415    478.62817    3004.7598    1153.0359   -328.76921    -49.81092   -463.25357   -3250.9994 
 4588000    268.67266   -3831.7008   -3371.2051   -3831.7008            0    2623.9861    17.567639    20.692358    21.432479    7791.0466     2607.177     2226.706    3038.0754    412.20866    1306.9572    490.16779   -3073.0562 
 4589000     242.3135   -3865.2232   -3449.9062   -3865.2232            0    2373.8092    17.564565    20.688737    21.428728    7786.9565    3132.9191    1930.0132    2058.4952    -703.9404    28.333744   -102.61108   -3180.3251 
 4590000    270.20162   -3884.9971   -3421.8807   -3884.9971            0    3634.4116     17.47512    20.583383    21.319605    7668.5996    4931.4923    1807.2329    4164.5097    507.85717    1129.2827   -46.047541    -3015.413 
 4591000     250.0564   -3883.0884   -3454.5003   -3883.0884            0    4506.3228    17.516188    20.631755    21.369708    7722.7922    4181.1358    4736.9292    4600.9033   -400.97718    -271.3095    374.07608   -2946.9577 
 4592000    267.37401   -3868.6254   -3410.3555   -3868.6254            0    2189.7699    17.597655    20.727713    21.469098    7831.0496     2550.156    755.35072     3263.803   -326.33058   -158.50849    425.08416   -3160.2666 
 4593000    247.87895    -3862.846   -3437.9899    -3862.846            0    3880.9526    17.504593    20.618099    21.355563     7707.467     6308.995    3491.8771    1841.9857   -1362.0477    1061.1926    1272.3935   -3001.7495 
 4594000     273.7355   -3900.5639   -3431.3906   -3900.5639            0    419.72205    17.526778     20.64423    21.382628    7736.8087    1273.1972   -705.04527    691.01418    864.71426   -1582.1649    571.09554    -3384.032 
 4595000    261.25291   -3896.9949   -3449.2163   -3896.9949            0    3150.5004       17.541    20.660981    21.399979    7755.6572    3535.8779    3091.8447    2823.7785    1016.2256    1119.7245   -1196.2435   -3092.8686 
 4596000      267.875   -3860.9771   -3401.8485   -3860.9771            0    3865.5451    17.488307    20.598916    21.335694    7685.9739    4346.7073    2223.4334    5026.4945    705.57272   -907.76496   -232.90944   -2968.5517 
 4597000    268.27584    -3885.516   -3425.7004    -3885.516            0    2017.1059    17.487318     20.59775    21.334487    7684.6692     1536.221    2998.9624    1516.1343   -615.24675     27.29228    180.39257   -3199.6373 
 4598000    259.47309     -3905.38    -3460.652     -3905.38            0    1465.6267    17.580771    20.707826      21.4485    7808.5315    1885.5073    2696.7808   -185.40807    291.69244   -1398.2221   -224.74622   -3293.7473 
 4599000     260.0239    -3876.273   -3430.6009    -3876.273            0    1338.1203    17.529751    20.647731    21.386255    7740.7457    882.43966    1832.4914    1299.4299    149.96348    255.35718    1067.5718   -3279.5394 
 4600000    263.90186   -3867.6996   -3415.3808   -3867.6996            0    3729.0004    17.537531    20.656894    21.395746    7751.0566    5044.9515    3258.7687    2883.2811   -438.56804   -160.73373   -1787.0226   -2993.8501 
 4601000    261.89948   -3881.2798   -3432.3931   -3881.2798            0    4313.5994    17.553872    20.676143    21.415683    7772.7445    2665.4221    4701.3397    5574.0365   -583.61606    765.86971    -293.0492   -2943.4142 
 4602000    268.34518   -3870.3446   -3410.4102   -3870.3446            0    2707.6293     17.52538    20.642583    21.380923    7734.9578    1894.1826    5807.3221    421.38308   -5.9145991   -650.79957    478.46302   -3104.9722 
 4603000    263.37622   -3858.3949   -3406.9771   -3858.3949            0    3545.6141    17.421444    20.520159    21.254121    7598.1526    2207.7245    4037.5945    4391.5234    383.18924     47.31362   -673.72126   -3014.0831 
 4604000    262.70043   -3875.6617   -3425.4021   -3875.6617            0    1875.5821    17.556174    20.678854    21.418491    7775.8022    994.79429    3061.5801    1570.3717    923.50081   -1047.5549    684.14066   -3212.7072 
 4605000    263.50233   -3841.6396   -3390.0056   -3841.6396            0    2240.7329    17.490891    20.601959    21.338846    7689.3813    1451.8903    1614.2109    3656.0975    228.90266    146.97223    241.79212    -3138.726 
 4606000    264.33247   -3898.8098    -3445.753   -3898.8098            0    3619.4122    17.459634    20.565143    21.300713    7648.2312    4061.6075    3396.3277    3400.3012    600.08868     141.7607    400.10847   -3042.0379 
 4607000    252.40598   -3861.7399   -3429.1247   -3861.7399            0    2551.5343    17.420674    20.519253    21.253181    7597.1453    2290.5334    2713.3145    2650.7551     1421.293    295.25228   -687.68739   -3146.4234 
 4608000    256.60111   -3856.2912   -3416.4856   -3856.2912            0    1525.8834    17.560929    20.684455    21.424293    7782.1226     2363.635    94.685012    2119.3302   -189.03774   -1010.4034    1013.5314   -3243.3066 
 4609000    264.17694   -3886.0258   -3433.2356   -3886.0258            0    5084.4636    17.498614    20.611056    21.348268    7699.5714    5149.2412    8009.1614    2094.9881    905.81471    911.45801    540.27407   -2862.2994 
 4610000    260.04948   -3866.6609    -3420.945   -3866.6609            0    2580.1996    17.436498    20.537891    21.272486    7617.8663      2475.73    2350.2466    2914.6221   -61.343883   -296.85858   -607.14987    -3134.288 
 4611000    262.85866   -3873.8101   -3423.2793   -3873.8101            0    4118.6549    17.467206    20.574061     21.30995    7658.1856    2106.3514    5473.1794    4776.4339      683.561   -1338.0654   -649.43372     -2963.28 
 4612000    271.82889   -3888.3922   -3422.4868   -3888.3922            0     2622.533    17.460098    20.565689    21.301279    7648.8408    1728.4609    3825.6577    2313.4804   -297.16902   -334.12248   -935.94568   -3129.9419 
 4613000    264.37894   -3872.1534    -3419.017   -3872.1534            0    3797.2063    17.501439    20.614383    21.351714    7703.3005    4362.4304    3043.0406    3986.1478   -585.95207    1263.0234    1413.2741   -2992.4208 
 4614000    271.76646   -3820.4096   -3354.6112   -3820.4096            0    4378.3448    17.456532    20.561489    21.296929    7644.1557    5152.2865     5295.139     2687.609     540.2798    545.68476    11.925386   -2866.5038 
 4615000    259.28823   -3853.1792   -3408.7681   -3853.1792            0    4067.3113    17.544442    20.665035    21.404178    7760.2238     4182.813    4321.7113    3697.4096   -105.63203   -733.80479   -480.89931   -2948.4505 
 4616000    253.26425   -3851.4555   -3417.3692   -3851.4555            0    2036.6057    17.512983    20.627981    21.365798    7718.5543    3677.7163    2097.7672    334.33349    60.468532    -891.7752    1041.7169   -3188.1142 
 4617000    249.53264   -3892.0138   -3464.3234   -3892.0138            0    3322.1986    17.505673     20.61937     21.35688    7708.8927    3012.0184    3548.9265    3405.6509    754.47771    233.12423    728.07573   -3090.8209 
 4618000    249.01145   -3899.8437   -3473.0466   -3899.8437            0    2831.0285    17.599544    20.729938    21.471402    7833.5713    2109.8312     3885.943    2497.3112   -188.15643    141.53164    953.51839   -3149.6169 
 4619000    257.62919     -3861.53   -3419.9624     -3861.53            0    2098.8645    17.560476    20.683921    21.423739    7781.5195    283.38132    2523.2888    3489.9235   -1020.9888    822.09422    -429.2072   -3181.7718 
 4620000    260.07967   -3870.6702   -3424.9025   -3870.6702            0    3236.5956    17.433217    20.534027    21.268485     7613.568     4132.308    1785.3773    3792.1014    962.75922   -790.45399   -2197.7671   -3065.5236 
 4621000    266.05558   -3899.2232    -3443.213   -3899.2232            0    2940.2748    17.486807    20.597149    21.333864    7683.9966    3468.4575    2583.4043    2768.9624    828.31291    -1772.056   -664.98062   -3113.7164 
 4622000     265.7768   -3846.5559   -3391.0236   -3846.5559            0     811.7962    17.597891    20.727992    21.469386    7831.3655    2050.5281   -121.52195    506.38246     1231.284   -193.66528    1211.5558   -3298.3064 
 4623000     255.9635   -3893.9363   -3455.2237   -3893.9363            0    4426.6918    17.465801    20.572407    21.308237    7656.3385    2779.6221     4240.989    6259.4643   -897.61154    -2294.702    632.02301     -2960.94 
 4624000     257.1584   -3863.3016   -3422.5409   -3863.3016            0      1919.93    17.619983    20.754012    21.496338    7860.8956    594.79555    3565.8791    1599.1152   -473.57097   -975.69037   -291.78797   -3202.4342 
 4625000    281.18101    -3881.983   -3400.0484    -3881.983            0    4056.2255    17.545376    20.666135    21.405318    7761.4637    4669.1075    4785.3157    2714.2531   -374.97205    876.12675    219.79116   -2940.9121 
 4626000    258.01745   -3872.8745   -3430.6414   -3872.8745            0    3507.1908    17.560766    20.684263    21.424094    7781.9059    4301.0871    3972.8134    2247.6718    603.47718   -998.03849   -355.58678   -3032.6064 
 4627000    264.97814   -3867.4098   -3413.2463   -3867.4098            0    4949.2512    17.530539     20.64866    21.387217    7741.7907    2856.1643    5614.7911    6376.7982    1464.3056    61.583932    423.27936   -2854.4458 
 4628000    257.97772   -3833.7567   -3391.5917   -3833.7567            0    4286.1546    17.473673    20.581679     21.31784    7666.6954    4488.1796    3762.3136    4607.9705    -424.7928   -219.22621   -1223.4897    -2912.353 
 4629000    267.29363     -3856.72   -3398.5879     -3856.72            0    3642.4845    17.631449    20.767519    21.510327    7876.2527    5151.7147    3108.1557    2667.5833    95.316731    1230.8903    217.97168   -2980.1863 
 4630000    257.42999   -3888.9776   -3447.7514   -3888.9776            0    4864.0712    17.508796    20.623049     21.36069    7713.0192    2640.8849    4123.3607    7827.9681   -407.82028   -492.48449   -1600.3443   -2900.6092 
 4631000    262.88591   -3901.6389   -3451.0615   -3901.6389            0    3984.1264     17.53495    20.653855    21.392598    7747.6351    4151.8763    2980.3788    4820.1241   -1486.8841    12.824796   -163.94313   -3000.8898 
 4632000    255.75655   -3836.0386   -3397.6806   -3836.0386            0    1547.1636    17.616996    20.750494    21.492694    7856.8986   -537.83579    1693.1136     3486.213    835.08226    -223.9733   -670.51882   -3220.3992 
 4633000    270.77999   -3918.3991   -3454.2915   -3918.3991            0    1235.5448    17.534076    20.652826    21.391532    7746.4772   -106.80792    1621.3821    2192.0603   -510.16323   -545.35344    -1686.006   -3314.7065 
 4634000    259.97246   -3940.1565   -3494.5726   -3940.1565            0    3579.9295    17.486497    20.596784    21.333485    7683.5873    1259.6004    5258.0134    4222.1746     564.5196   -492.72274   -946.35473   -3093.4156 
 4635000    254.28685   -3916.1129   -3480.2739   -3916.1129            0    3415.2838    17.479817    20.588915    21.325336    7674.7849    4149.5193    1555.1969    4541.1351   -244.68744   -352.38649   -92.016397   -3098.0051 
 4636000    257.69347   -3873.0253   -3431.3475   -3873.0253            0    2594.6639    17.585028     20.71284    21.453693    7814.2042    4645.4657    2540.0364    598.48967    1107.9179   -304.52684    830.59375   -3135.6541 
 4637000    257.79806    -3907.428   -3465.5709    -3907.428            0    3503.1565    17.572949    20.698612    21.438956    7798.1129    3731.0606    3458.6389    3319.7699     698.1143    266.47886   -961.99139   -3067.1658 
 4638000    268.32382     -3883.44   -3423.5421     -3883.44            0    4343.3219    17.494174    20.605827    21.342852    7693.7124    4392.8765    4521.2981    4115.7912   -668.33594    101.57792   -910.16572   -2936.2001 
 4639000    237.69938   -3902.0196    -3494.611   -3902.0196            0    1956.9539    17.560701    20.684186    21.424014    7781.8187    2523.6137    1788.2961     1558.952    583.32063    399.61815     1056.185   -3272.5166 
 4640000    260.88205    -3904.976   -3457.8331    -3904.976            0    3514.4617    17.556114    20.678783    21.418418    7775.7222    4826.0564    5355.8603    361.46843   -787.04509    664.62036   -842.77685   -3059.2899 
 4641000    259.55188   -3942.9609   -3498.0978   -3942.9609            0    3539.8439    17.494155    20.605804    21.342828    7693.6865    2752.5769    3495.7301    4371.2248    992.98985    1115.1145   -275.33637   -3100.9113 
 4642000    247.75337    -3914.706   -3490.0652    -3914.706            0    4492.4898    17.565893    20.690302    21.430349    7788.7242    3135.3638    4252.5343    6089.5714    2352.3153    -1215.984   -229.54654   -2979.7608 
 4643000    254.99465   -3910.4688   -3473.4167   -3910.4688            0    2805.0702     17.61143    20.743938    21.485903    7849.4536    3699.5368    1580.6471    3135.0266    526.30809   -713.39802   -1557.6531   -3152.3028 
 4644000    257.59275   -3898.1144   -3456.6092   -3898.1144            0    2418.9562    17.557333    20.680219    21.419905    7777.3422    3025.8892    1369.9555     2861.024   -389.85678   -1025.9955    840.77905   -3182.2402 
 4645000     271.0452   -3890.0454   -3425.4832   -3890.0454            0    3137.4703    17.659296    20.800318    21.544299    7913.6296    3640.0733     3424.896    2347.4418   -685.54821    -89.71496    488.82754   -3063.3809 
 4646000    258.37786    -3893.628   -3450.7772    -3893.628            0    3408.6447    17.475237    20.583521    21.319748     7668.754    4064.1926    2833.4359    3328.3058    895.03685    291.84718    160.44571   -3069.5512 
 4647000    251.32793   -3906.6237   -3475.8562   -3906.6237            0    2602.1719    17.517184    20.632929    21.370924    7724.1108    1928.0005    3005.3359    2873.1792   -515.83157   -1871.8107   -1067.7471   -3182.7261 
 4648000    247.46943   -3896.7645   -3472.6103   -3896.7645            0    3671.9036    17.560267    20.683675    21.423484    7781.2418    3402.5095    4507.6136    3105.5876    141.90314    1327.9669    155.62884   -3055.9175 
 4649000     263.5484   -3841.9798   -3390.2669   -3841.9798            0    3669.8207    17.514916    20.630258    21.368157    7721.1109    5111.7644    3424.5691    2473.1286   -376.78762   -242.18875    463.02648   -2977.0286 
 4650000      269.814   -3900.0828   -3437.6309   -3900.0828            0    2216.4722     17.57715    20.703561    21.444082    7803.7077    3206.8673    1440.1776    2002.3718   -507.36218    102.10019    1052.8973   -3185.3762 
 4651000    263.20606    -3864.061   -3412.9349    -3864.061            0    4091.3205    17.420988    20.519623    21.253565    7597.5568      2207.87    5070.1667    4995.9247    1836.2933    1229.6828   -300.09342    -2959.606 
 4652000    254.23535   -3903.3583   -3467.6076   -3903.3583            0    2756.4686    17.509587     20.62398    21.361655    7714.0645    1483.3322    5193.6997     1592.374    1361.6521    49.647276    524.39843   -3157.5002 
 4653000    257.17299   -3848.3226   -3407.5369   -3848.3226            0    3087.7634    17.522806    20.639551    21.377783    7731.5502    3511.9916    3539.9977     2211.301    322.17314    52.154111    547.87016   -3059.3708 
 4654000    249.20258   -3880.3615   -3453.2368   -3880.3615            0    3777.8102     17.47531    20.583606    21.319837    7668.8497    4365.0503    3540.8295    3427.5509    936.37819    105.14088    25.718645   -3030.7178 
 4655000     251.2259   -3880.7064   -3450.1138   -3880.7064            0    4733.6608    17.515881    20.631394    21.369333    7722.3862    6601.4844    3566.4781    4033.0199    963.93134   -219.49363   -245.59431   -2916.9943 
 4656000    248.16795   -3922.3221   -3496.9708   -3922.3221            0    3008.2563    17.538602    20.658157    21.397054    7752.4779    2836.2707     3765.242    2423.2563    42.325049    1070.0732   -580.08491   -3156.8515 
 4657000     258.1434   -3909.5451   -3467.0961   -3909.5451            0    2075.9289    17.553272    20.675436    21.414951     7771.947    2704.1057    1982.0436    1541.6373   -1262.5303   -16.198722   -158.06659   -3231.7982 
 4658000    266.10114   -3900.8732   -3444.7849   -3900.8732            0    2790.7059    17.588804    20.717287    21.458299    7819.2392    2631.8509    3151.4353    2588.8315    190.54714   -253.47641     779.4107   -3126.5452 
 4659000    252.20758   -3852.8409   -3420.5658   -3852.8409            0    4932.3036    17.498018    20.610353    21.347541     7698.784    4346.6033    4989.1277    5461.1799   -755.87033    1709.0488    603.38862   -2866.7723 
 4660000    267.47265     -3826.93    -3368.491     -3826.93            0     3968.766    17.622329    20.756776      21.4992    7864.0359    4095.0089    3713.5611    4097.7278    285.99417   -1057.5726    970.55902   -2913.3176 
 4661000    246.02758    -3868.743   -3447.0602    -3868.743            0    3910.4894    17.494389    20.606079    21.343114    7693.9954    4721.9589     4443.553    2565.9562    61.111924    2046.8853    -496.9908    -3008.268 
 4662000    244.91291   -3833.6599   -3413.8875   -3833.6599            0    3068.9042    17.518956    20.635016    21.373085    7726.4542    3783.5849    1466.2981    3956.8294    15.475469    666.99944    360.65759    -3068.076 
 4663000    263.96058   -3859.7532   -3407.3338   -3859.7532            0    4457.6698    17.546427    20.667374      21.4066    7762.8588    3549.2071    6172.6641    3651.1382    270.22753      1017.75   -182.68899   -2902.6661 
 4664000    256.50319   -3867.6505   -3428.0128   -3867.6505            0    6547.6186      17.4178    20.515867    21.249675    7593.3859     7150.913    4776.0595    7715.8833    455.07528    693.82992    666.26123   -2702.9181 
 4665000    258.94124   -3841.0562   -3397.2398   -3841.0562            0    3413.0159    17.479839    20.588941    21.325363    7674.8141    4672.0609    3748.5559    1818.4309    178.99422   -1309.1341    220.25752   -3015.2233 
 4666000    262.95622    -3862.179    -3411.481    -3862.179            0    4518.0697    17.612231    20.744882    21.486881    7850.5254    4401.1859    4915.3123    4237.7109    833.90085    91.684638    215.73807   -2894.1988 
 4667000    255.66449   -3902.6285   -3464.4283   -3902.6285            0    1441.8276    17.580083    20.707016     21.44766    7807.6142    2505.6663     873.8589     945.9577     708.5387   -399.62761    1601.0035   -3300.2531 
 4668000    269.48866   -3864.6288   -3402.7345   -3864.6288            0    4592.7525    17.535857    20.654923    21.393704    7748.8378    3457.6238    3926.9737      6393.66   -370.36551    491.43549    747.41116   -2883.7128 
 4669000    270.03942   -3836.9107   -3374.0723   -3836.9107            0    1886.6692    17.489707    20.600564    21.337401    7687.8193    1238.0819    2843.6441    1578.2816    601.73834   -1438.8053   -71.836899    -3162.541 
 4670000    265.19452   -3853.0569   -3398.5226   -3853.0569            0    1902.7735    17.607259    20.739025    21.480814    7843.8779    2351.2986    1838.5479    1518.4739   -169.95645   -735.77661   -153.47814   -3180.8549 
 4671000     244.2508   -3837.0401   -3418.4026   -3837.0401            0    2521.7372    17.541249    20.661275    21.400283    7755.9886    3157.1811    1418.2796     2989.751   -449.64457   -946.01911   -252.48841    -3133.161 
 4672000    262.92351   -3857.5387   -3406.8968   -3857.5387            0    2597.8438     17.46969    20.576987    21.312981    7661.4539    2855.8298    3016.2459    1921.4558   -589.77681   -333.91344    125.24851   -3116.6281 
 4673000    260.78342   -3887.8188    -3440.845   -3887.8188            0    2246.9559    17.616135     20.74948    21.491643    7855.7462    2379.2253    1482.9074    2878.7351   -484.05151   -728.80853    515.46901   -3183.4157 
 4674000    252.36754   -3870.5792   -3438.0298   -3870.5792            0    4049.2996    17.480157    20.589316     21.32575    7675.2328    3942.6013    3000.6446     5204.653    181.78918   -1496.7362   -564.52974   -2984.7699 
 4675000    262.96689   -3835.0412    -3384.325   -3835.0412            0    2839.5738    17.470724    20.578205    21.314242     7662.814    3197.8272    1859.4442    3461.4499    1232.5672   -312.76078   -42.661132   -3066.9905 
 4676000    258.74805   -3879.5867   -3436.1014   -3879.5867            0    3797.8281     17.42168    20.520437    21.254408    7598.4613     4727.835    3623.4309    3042.2183   -1506.9393   -431.49225   -562.12052   -3015.2422 
 4677000    269.09948   -3845.0722   -3383.8449   -3845.0722            0    2250.7358    17.569742    20.694835    21.435044    7793.8447    1049.6915    2306.8225    3395.6933   -117.97632   -470.86745   -654.71452   -3128.0145 
 4678000    259.22351    -3852.191   -3407.8907    -3852.191            0    3120.8725    17.524424    20.641457    21.379756    7733.6914    3492.6387    3756.3723    2113.6065    14.805128    -345.7602    -1350.114   -3055.8939 
 4679000    256.05973   -3887.8823   -3449.0047   -3887.8823            0    3344.1912    17.452653     20.55692    21.292196    7639.0611    3168.8956    3233.2132    3630.4649    408.98897    48.919811    2198.2633   -3076.4354 
 4680000    252.68056   -3874.8578    -3441.772   -3874.8578            0    3653.9618    17.608116    20.740035    21.481861    7845.0239    3015.1892    2941.2087    5005.4877     -1028.95   -1209.1182    1173.7656   -3023.7163 
 4681000    263.00739   -3853.5196   -3402.7339   -3853.5196            0    2799.8665    17.502285     20.61538    21.352747    7704.4188    4433.1348    1415.0394    2551.4254   -783.34191    730.44938    322.20376    -3088.138 
 4682000    263.70846   -3826.3735   -3374.3862   -3826.3735            0    3080.4053    17.528421    20.646164    21.384632    7738.9841    4601.2856    2133.6822    2506.2482    1928.9461   -502.41817   -1738.6759   -3026.7158 
 4683000    258.10402   -3880.8694    -3438.488   -3880.8694            0    2656.9472    17.524726    20.641812    21.380124     7734.091     1331.391    4097.7279    2541.7226    1183.4099   -349.77446    306.48563   -3138.8008 
 4684000    262.25843   -3891.3822   -3441.8802   -3891.3822            0    5680.2091    17.428542     20.52852     21.26278    7607.4433    4951.4158    6100.7599    5988.4517   -1212.8368     -1412.22    851.65516   -2811.6794 
 4685000     273.0075   -3880.1786   -3412.2531   -3880.1786            0    3872.8491    17.489663    20.600513    21.337348    7687.7621     4809.648    3164.2074    3644.6921   -810.02275   -471.73363    348.77729   -2978.0365 
 4686000    266.47179   -3878.6623   -3421.9388   -3878.6623            0     3323.869    17.576449    20.702736    21.443227    7802.7739    3222.0994    4093.4717    2656.0359   -461.17794    1093.8319    409.61185   -3043.6976 
 4687000    256.90578   -3880.0328   -3439.7051   -3880.0328            0    2570.2264    17.508806    20.623061    21.360702    7713.0328    1684.7203    2672.0783    3353.8807   -2096.8145    549.78351    850.21434   -3150.5889 
 4688000    279.18316   -3876.8784   -3398.3681   -3876.8784            0    3998.7769    17.477827    20.586571    21.322908    7672.1639    3111.1167    4767.3131    4117.9009    183.08438   -1462.7237    365.94446   -2950.9424 
 4689000    253.88601   -3885.9953   -3450.8434   -3885.9953            0    4036.4815    17.511095    20.625757    21.363495    7716.0583    2294.7251     5448.011    4366.7084    690.45198    823.03228    846.94488   -2996.6149 
 4690000    274.28918   -3855.0374   -3384.9151   -3855.0374            0    4607.7064     17.41999    20.518447    21.252347    7596.2502    3809.6356    4451.7048    5561.7789    1604.6208    952.05375   -847.99483   -2874.4571 
 4691000    258.41135   -3845.7117   -3402.8035   -3845.7117            0    1743.9008    17.607076     20.73881    21.480592    7843.6343    3109.4199    555.66754    1566.6151   -722.60746   -438.28559   -182.63181   -3203.3163 
 4692000    268.27971    -3867.864   -3408.0417    -3867.864            0    2812.6225    17.543398    20.663805    21.402904    7758.8384    2691.9753    1383.5126    4362.3795     -758.381    1715.5359   -561.09073   -3089.7803 
 4693000    260.55925   -3886.2489   -3439.6593   -3886.2489            0     4229.027    17.511058    20.625713     21.36345    7716.0093    4656.6901    5421.7219    2608.6692   -274.95649   -685.50945   -36.399804   -2963.7665 
 4694000    257.51528    -3841.327   -3399.9546    -3841.327            0    4119.4278    17.511219    20.625903    21.363647    7716.2227    5189.3323     3729.068    3439.8832    922.14308    525.13684    104.75054   -2936.3822 
 4695000    258.65395   -3874.3887   -3431.0647   -3874.3887            0    1325.1253    17.623505    20.758162    21.500635    7865.6113    1336.2418   -473.12948    3112.2634   -322.46239    672.67387   -1106.5289   -3279.0571 
 4696000    263.15086   -3854.2501   -3403.2185   -3854.2501            0    2919.7197    17.476288    20.584759     21.32103    7670.1377    2694.6999    2234.1187    3830.3404    551.17645   -1305.6497      623.866   -3076.6155 
 4697000    251.29265   -3858.7278   -3428.0208   -3858.7278            0    3126.8413    17.549249    20.670697    21.410043    7766.6046    3693.8359    2441.1562     3245.532   -658.96217   -952.36564   -1276.1768   -3073.8499 
 4698000    252.10841   -3852.0968   -3419.9916   -3852.0968            0    3775.9357     17.41612    20.513888    21.247625    7591.1887    4213.7823    3663.8905    3450.1345    416.98734   -826.99119   -1002.1349   -3001.9589 
 4699000    273.43842   -3870.3601    -3401.696   -3870.3601            0    2318.9441    17.467533    20.574446    21.310349    7658.6161    3384.7626    1132.0105    2440.0591   -473.26217   -278.41649   -1430.5723    -3142.686 
 4700000      242.466   -3853.3938   -3437.8154   -3853.3938            0    4664.8195    17.450468    20.554346     21.28953    7636.1915    5063.8705    5805.4061    3125.1819    29.258947     477.2965    208.90977    -2918.313 
 4701000    243.65377   -3859.9296   -3442.3154   -3859.9296            0    4442.0752    17.463234    20.569383    21.305105    7652.9633     5209.112    4318.5581    3798.5555    260.82052   -1202.1239   -514.35049   -2946.5326 
 4702000    260.82127    -3855.692   -3408.6533    -3855.692            0     3748.116    17.532386    20.650835     21.38947     7744.238    4191.9267     4123.941    2928.4803    212.94454    1446.4857   -2214.7344   -2985.3345 
 4703000    262.49171   -3883.5208    -3433.619   -3883.5208            0    3895.4045    17.554991    20.677461    21.417049    7774.2312    4891.5883    3016.5451    3778.0801   -1414.6465   -211.73723   -115.22131   -2991.9612 
 4704000    261.12866    -3865.794   -3418.2284    -3865.794            0    1376.3874    17.520132    20.636402     21.37452     7728.011     2759.219    1194.0446    175.89863   -1008.4882    2331.3381    540.64617   -3263.1025 
 4705000    254.40362   -3857.7949   -3421.7558   -3857.7949            0    4500.1793    17.349878    20.435864     21.16681    7504.8987    5909.5294    4170.9012    3420.1071    -5.658705    1666.9266    30.503332   -2929.2055 
 4706000    262.72529   -3872.8513   -3422.5491   -3872.8513            0    1336.7053    17.462505    20.568524    21.304215    7652.0044    1957.9502    2064.0249   -11.859123    524.29877     672.6666    1067.7323   -3273.3773 
 4707000    253.55229   -3843.5625   -3408.9826   -3843.5625            0    4447.7371    17.430055    20.530302    21.264626    7609.4253    4400.3093    4790.4317    4152.4703   -53.806361    118.29737    58.903403    -2915.392 
 4708000    260.51371   -3825.7651   -3379.2535   -3825.7651            0    3562.9377    17.439388    20.541295    21.276012    7621.6551    3148.1026    2154.8712    5385.8394   -739.68465   -1132.4592   -136.00742   -2983.2186 
 4709000    260.44338   -3844.6711     -3398.28   -3844.6711            0    4388.5733    17.402852    20.498261    21.231439     7573.853    3177.2867    3868.9517    6119.4817     1158.452   -1019.6915     23.70167   -2913.5319 
 4710000    268.82555    -3834.082   -3373.3242    -3834.082            0    2815.5918    17.414707    20.512225    21.245902    7589.3423    2119.8944    3089.9829     3236.898    1059.8297   -572.42462   -2064.4912   -3061.6867 
 4711000    264.48993   -3860.1566   -3406.8299   -3860.1566            0    3777.0884    17.503564    20.616887    21.354308    7706.1077    3330.2423    3805.5605    4195.4625    136.36439    942.67081   -965.85773   -2982.3393 
 4712000    249.90268   -3834.7391   -3406.4144   -3834.7391            0    4543.6628    17.456093    20.560972    21.296393    7643.5784    5775.4684      3695.67    4159.8502     779.9028    1259.6303   -31.759947   -2899.9153 
 4713000    278.76205   -3897.6282   -3419.8396   -3897.6282            0    4353.7547    17.447191    20.550487    21.285533    7631.8911    4542.0828    4015.4898    4503.6916   -63.438897    345.59348    33.479922   -2935.2523 
 4714000    255.58162   -3863.1692   -3425.1111   -3863.1692            0    3950.0847    17.621798     20.75615    21.498552    7863.3248    3309.6656    3117.5993    5422.9892   -171.62536   -218.24269   -427.57041   -2972.1212 
 4715000    255.03025   -3918.3221   -3481.2089   -3918.3221            0    4991.9087    17.500468     20.61324     21.35053    7702.0189     4239.947    5316.5064    5419.2727   -540.70574    51.320756    173.33724   -2920.4876 
 4716000    257.78139   -3868.2362   -3426.4077   -3868.2362            0    2755.7499    17.517105    20.632836    21.370827    7724.0061    3807.4988    2548.6591    1911.0917     1094.603    1407.6166   -860.11639   -3115.9816 
 4717000    257.86277   -3889.7991   -3447.8311   -3889.7991            0    4023.7234    17.453604     20.55804    21.293356    7640.3097    3089.2989    4173.8388    4808.0324    306.77511   -1002.0523    456.18962   -2999.4834 
 4718000    263.18561   -3870.0333   -3418.9422   -3870.0333            0    3029.8096    17.465885    20.572506    21.308339     7656.449    1858.3055    4216.3015    3014.8219   -1877.7676   -31.052746    1309.1637   -3080.6292 
 4719000      267.054    -3864.677   -3406.9556    -3864.677            0    3649.6982    17.539677    20.659423    21.398365    7753.9036    4035.0206    2933.2643    3980.8098    604.48325   -1711.1222    2362.3832   -2994.2377 
 4720000    261.25249   -3898.2034   -3450.4256   -3898.2034            0    5355.5627    17.379747    20.471046    21.203251    7543.7268    3635.6907    4416.0025    8014.9947   -330.54726   -1100.0801   -62.517506   -2861.2199 
 4721000    263.17426    -3867.196   -3416.1243    -3867.196            0    2189.5777    17.527621    20.645223    21.383657    7737.9251    2548.6921    3229.6139    790.42701   -195.61734   -349.72114    -901.4071   -3169.0311 
 4722000    251.86444   -3880.0248   -3448.3378   -3880.0248            0     1194.365    17.582246    20.709564      21.4503    7810.4971   -996.44244    3003.5004     1576.037    190.01353    584.09607    236.26808   -3312.2899 
 4723000    265.80826   -3901.3747   -3445.7884   -3901.3747            0    2118.8757    17.547368    20.668482    21.407749    7764.1081    794.12452    3299.7701    2262.7324    2.4379564    52.480364    824.72839   -3205.8648 
 4724000    260.11559   -3845.7899   -3399.9607   -3845.7899            0    2317.3471     17.54007    20.659886    21.398845    7754.4244    3528.0183    1509.5539     1914.469   -224.34304   -563.59544    459.98345   -3137.8911 
 4725000    259.39236   -3887.8313   -3443.2417   -3887.8313            0    4015.7374    17.522288     20.63894     21.37715    7730.8636    3240.1151    5695.9735    3111.1235    113.71015   -909.33786   -691.81602   -2990.4805 
 4726000    265.89895   -3881.5357    -3425.794   -3881.5357            0    3724.0457    17.535519    20.654526    21.393293    7748.3903    3646.3157    3693.6353    3832.1862    353.66121   -2460.2985    810.67127   -3004.9682 
 4727000    278.91295   -3831.3321   -3353.2849   -3831.3321            0    3289.0841    17.469393    20.576638    21.312619    7661.0634    2414.7976    4128.2575    3324.1972    752.50894    162.63345   -55.193735   -2985.7996 
 4728000    272.07683   -3832.0833   -3365.7529   -3832.0833            0    2685.3702    17.487717    20.598221    21.334974    7685.1961    1931.4285    3863.4318    2261.2502    696.53463    223.45398   -341.75116   -3064.7748 
 4729000    266.54251   -3862.5975   -3405.7527   -3862.5975            0    2543.5427    17.563042    20.686944    21.426871    7784.9323    2086.5941    2992.7469    2551.2871   -923.40348    1094.6698   -1156.7678    -3116.971 
 4730000    271.02274   -3869.7312   -3405.2075   -3869.7312            0    3004.0844    17.458913    20.564293    21.299833    7647.2831    3886.8398    2831.2797    2294.1335   -545.64089    1018.8885    7.5450316   -3070.1686 
 4731000    265.12778   -3868.4429   -3414.0229   -3868.4429            0    2080.6004    17.521241    20.637707    21.375873     7729.478    1984.8106    1416.9706    2840.0201   -332.00375   -1490.5479   -64.981034   -3179.4841 
 4732000    259.10585   -3856.7225   -3412.6239   -3856.7225            0    1845.4412    17.594074    20.723496     21.46473    7826.2706    2582.1535    169.93696     2784.233    100.83503     800.6959    513.28088   -3201.9887 
 4733000    265.52674   -3868.1347   -3413.0309   -3868.1347            0    3747.8198    17.514956    20.630305    21.368206    7721.1638    3999.9233    4032.1505    3211.3856   -1139.4191   -988.63169    1322.6514   -2991.0067 
 4734000    267.49663    -3834.421    -3375.941    -3834.421            0    3095.0419    17.562369     20.68615    21.426049    7784.0363    2106.2094    3888.7259    3290.1905   -2278.0984    434.95296   -385.75207    -3024.585 
 4735000    259.85826   -3862.4073   -3417.0191   -3862.4073            0    3779.3093    17.587491    20.715741    21.456697     7817.488    3597.9322    2017.2348     5722.761    1083.0205    1214.0821     323.7044   -2986.1399 
 4736000    263.60284    -3834.928   -3383.1217    -3834.928            0    3847.0509    17.453735    20.558194    21.293516    7640.4814    4659.9554    2594.5871    4286.6101    318.62162    819.41077    458.07855   -2954.4503 
 4737000    260.49147   -3832.9305    -3386.457   -3832.9305            0    4128.5507     17.48514    20.595186     21.33183    7681.7991    5655.1809    2528.0144     4202.457    258.63644    855.96735   -387.58518   -2923.9307 
 4738000    258.26102   -3847.5613   -3404.9108   -3847.5613            0    4006.5036    17.482793     20.59242    21.328966    7678.7055    1794.4869    5485.3168    4739.7072    245.55448    298.10846   -719.68866   -2956.2383 
 4739000    261.95116   -3872.8175   -3423.8422   -3872.8175            0    2994.8247    17.567225    20.691871    21.431974    7790.4957    2956.8216    3351.4471    2676.2055   -196.06621   -224.33898   -2171.7204    -3083.581 
 4740000    257.13364   -3859.3419   -3418.6237   -3859.3419            0    3107.0184     17.56062     20.68409    21.423915    7781.7108    2794.3574    2492.3726    4034.3253    211.56361    1166.2527   -1329.9206   -3066.0135 
 4741000    255.58847   -3877.1304   -3439.0605   -3877.1304            0    4048.4696    17.468606     20.57571    21.311658    7660.0272    2659.9603    3585.1404    5900.3081   -891.80869     80.37688    1001.1428   -2986.7912 
 4742000    262.63111   -3853.6293   -3403.4885   -3853.6293            0    3834.5108    17.471353    20.578946     21.31501    7663.6417    4004.5811    4146.4232    3352.5282    1169.9959    679.43411    234.89882   -2974.9192 
 4743000    269.96709    -3850.107   -3387.3926    -3850.107            0    1940.4065    17.515138     20.63052    21.368428    7721.4047    3036.2504    1581.2049    1203.7642   -125.44419   -120.09807    1012.0544   -3168.8858 
 4744000    260.58399   -3845.5003   -3398.8683   -3845.5003            0    3899.6065    17.520694    20.637063    21.375206    7728.7542    3094.2635    4563.9217    4040.6342    878.30649   -834.89186    322.05775   -2959.3204 
 4745000     277.1634   -3863.1663   -3388.1177   -3863.1663            0    3026.0577    17.513891     20.62905    21.366906    7719.7549    2028.7286    3047.0406    4002.4039    217.10033   -15.262642   -746.58503   -3047.4299 
 4746000    253.00942   -3853.2539   -3419.6044   -3853.2539            0    3318.4058     17.56035    20.683772    21.423585     7781.352    4041.7533     2996.684    2916.7801    446.87828    1132.0466   -190.04609   -3043.0216 
 4747000    264.35183   -3912.0475   -3458.9575   -3912.0475            0    2769.9997    17.621289    20.755551    21.497931    7862.6437      1646.95    1656.1895    5006.8596    734.09028    294.33492    1569.8258   -3141.3256 
 4748000     259.4697   -3857.3827   -3412.6605   -3857.3827            0    4212.2854    17.551498    20.673347    21.412787    7769.5916    3783.2014    4415.7558    4437.8989    1786.0193      365.579   -880.72489   -2935.3601 
 4749000    239.99265   -3860.2148   -3448.8756   -3860.2148            0    2772.6992      17.6051    20.736482     21.47818    7840.9927    3398.8783    2127.6361    2791.5831     674.6783    688.42461   -379.37659   -3131.8096 
 4750000    276.29313   -3844.2621   -3370.7052   -3844.2621            0    2676.2863     17.62078    20.754951     21.49731    7861.9627    2204.8816    1286.6227    4537.3546   -710.89981    924.74865    639.43302   -3063.8458 
Loop time of 404.946 on 64 procs for 250000 steps with 864 atoms

Performance: 106.681 ns/day, 0.225 hours/ns, 617.367 timesteps/s
191.3% CPU use with 32 MPI tasks x 2 OpenMP threads

MPI task timing breakdown:
Section |  min time  |  avg time  |  max time  |%varavg| %total
---------------------------------------------------------------
Pair    | 24.483     | 30.381     | 37.592     |  52.2 |  7.50
Bond    | 0.76384    | 1.1085     | 1.5854     |  18.8 |  0.27
Kspace  | 181.74     | 193.14     | 199.56     |  32.4 | 47.70
Neigh   | 3.757      | 4.4179     | 5.0889     |  18.0 |  1.09
Comm    | 74.374     | 83.36      | 89.179     |  36.2 | 20.59
Output  | 0.58107    | 0.58141    | 0.58301    |   0.0 |  0.14
Modify  | 73.116     | 76.564     | 81.816     |  20.3 | 18.91
Other   |            | 15.39      |            |       |  3.80

Nlocal:        27.0000 ave          32 max          21 min
Histogram: 2 1 2 1 5 7 6 4 2 2
Nghost:        2380.97 ave        2416 max        2342 min
Histogram: 2 3 2 3 4 4 4 4 4 2
Neighs:        7867.66 ave       10257 max        5877 min
Histogram: 2 0 3 9 7 6 2 0 1 2

Total # of neighbors = 251765
Ave neighs/atom = 291.39468
Ave special neighs/atom = 2.0000000
Neighbor list builds = 14075
Dangerous builds = 2

unfix		3
unfix		2
unfix		1

write_data	data.final.${pid}
write_data	data.final.1
System init for write_data ...
PPPM initialization ...
  extracting TIP4P info from pair style
  using 12-bit tables for long-range coulomb (../kspace.cpp:340)
  G vector (1/distance) = 0.37274239
  grid = 24 24 25
  stencil order = 5
  estimated absolute RMS force accuracy = 0.0032446243
  estimated relative force accuracy = 9.7710897e-06
  using double precision FFTW3
  3d grid and FFT values/proc = 3822 576
Last active /omp style is kspace_style pppm/tip4p/omp
WARNING: Not all mixed pair coeffs generated from mixing. Use write_data with 'pair ij' option to store all pair coeffs. (../write_data.cpp:312)

write_restart   restart.lmp.${pid}
write_restart   restart.lmp.1
System init for write_restart ...
PPPM initialization ...
  extracting TIP4P info from pair style
  using 12-bit tables for long-range coulomb (../kspace.cpp:340)
  G vector (1/distance) = 0.37274239
  grid = 24 24 25
  stencil order = 5
  estimated absolute RMS force accuracy = 0.0032446243
  estimated relative force accuracy = 9.7710897e-06
  using double precision FFTW3
  3d grid and FFT values/proc = 3822 576
Last active /omp style is kspace_style pppm/tip4p/omp
Total wall time: 0:06:45
