LAMMPS (30 Jul 2021)
  using 1 OpenMP thread(s) per MPI task
package omp 0
using multi-threaded neighbor list subroutines
echo both

include		in.partitions
variable        pid world 0
include		in.temp
variable        temperature equal 252.31
variable	tempDamp equal 100.0
include		in.pressure
variable        pressure equal 1375.0
variable        pressureDamp equal 1000.0 # This is 1 ps
include		in.seed
variable        seed world 745823

units		real
atom_style	full
read_restart	restart.lmp.${pid}
read_restart	restart.lmp.0
Reading restart file ...
  restart file = 30 Jul 2021, LAMMPS = 30 Jul 2021
  restoring atom style full from restart
  orthogonal box = (0.15386527 1.2727642 0.18771527) to (18.053707 22.356414 22.025481)
  4 by 4 by 4 MPI processor grid
  restoring pair style lj/cut/tip4p/long/omp from restart
  restoring bond style harmonic/omp from restart
  restoring angle style harmonic/omp from restart
  864 atoms
  576 bonds
  288 angles
Finding 1-2 1-3 1-4 neighbors ...
  special bond factors lj:    0        0        0       
  special bond factors coul:  0        0        0       
     2 = max # of 1-2 neighbors
     1 = max # of 1-3 neighbors
     1 = max # of 1-4 neighbors
     2 = max # of special neighbors
  special bonds CPU = 1.536 seconds
  read_restart CPU = 2.030 seconds
include 	in.setup
variable	out_freq equal 1000
variable	out_freq2 equal 10000
variable	out_freq3 equal 1000

timestep	2.0

neigh_modify    delay 7 every 1

include		in.tip4p
# This is TIP4P/Ice

# create groups ###
group ox type 2
288 atoms in group ox
group hy type 1
576 atoms in group hy

# set charges - beside manually ###
set group ox charge -1.1794
Setting atom values ...
  288 settings made for charge
set group hy charge 0.5897
Setting atom values ...
  576 settings made for charge

# ### TIP3P Potential Parameters ###
pair_style lj/cut/tip4p/long/omp 2 1 1 1 0.1577 8.5
pair_coeff 1 1*2 0.000 0.000
pair_coeff 2 2 0.21084 3.1668
bond_style  harmonic
bond_coeff  1 450 0.9572
angle_style harmonic
angle_coeff 1 55 104.52
kspace_style pppm/tip4p/omp 1.0e-5
pair_modify tail yes

thermo          ${out_freq}
thermo          1000
thermo_style    custom step temp pe etotal epair emol press lx ly lz vol pxx pyy pzz pxy pxz pyz enthalpy

restart 	${out_freq3} restart.lmp.${pid} restart2.lmp.${pid}
restart 	1000 restart.lmp.${pid} restart2.lmp.${pid}
restart 	1000 restart.lmp.0 restart2.lmp.${pid}
restart 	1000 restart.lmp.0 restart2.lmp.0


include         in.dump
dump            myDump all atom ${out_freq2} dump.water.${pid}
dump            myDump all atom 10000 dump.water.${pid}
dump            myDump all atom 10000 dump.water.0
dump            myDump2 all dcd ${out_freq2} dump.dcd
dump            myDump2 all dcd 10000 dump.dcd
dump_modify     myDump append yes
dump_modify     myDump2 append yes


variable natoms 	equal  "count(all)"                        # NUMBER ATOMS
variable H      	equal  "enthalpy/v_natoms"                 # ENTHALPY-per-atom
variable Vol      	equal  "vol/v_natoms"                 # volume-per-atom
fix AVG all 		ave/time ${out_freq} 1 ${out_freq} v_Vol v_H file vol_enthalpy.dat
fix AVG all 		ave/time 1000 1 ${out_freq} v_Vol v_H file vol_enthalpy.dat
fix AVG all 		ave/time 1000 1 1000 v_Vol v_H file vol_enthalpy.dat


timer           timeout 23:50:00 every 1000
New timer settings: style=normal  mode=nosync  timeout=23:50:00

fix 		1 all shake 1e-6 200 0 b 1 a 1
       0 = # of size 2 clusters
       0 = # of size 3 clusters
       0 = # of size 4 clusters
     288 = # of frozen angles
  find clusters CPU = 0.001 seconds
fix             2 all nph iso ${pressure} ${pressure} ${pressureDamp}
fix             2 all nph iso 1375 ${pressure} ${pressureDamp}
fix             2 all nph iso 1375 1375 ${pressureDamp}
fix             2 all nph iso 1375 1375 1000
fix             3 all temp/csvr ${temperature} ${temperature} ${tempDamp} ${seed}
fix             3 all temp/csvr 252.31 ${temperature} ${tempDamp} ${seed}
fix             3 all temp/csvr 252.31 252.31 ${tempDamp} ${seed}
fix             3 all temp/csvr 252.31 252.31 100 ${seed}
fix             3 all temp/csvr 252.31 252.31 100 745823

run             250000
PPPM initialization ...
  extracting TIP4P info from pair style
  using 12-bit tables for long-range coulomb (../kspace.cpp:340)
  G vector (1/distance) = 0.372863
  grid = 24 25 25
  stencil order = 5
  estimated absolute RMS force accuracy = 0.0031480162
  estimated relative force accuracy = 9.4801573e-06
  using double precision FFTW3
  3d grid and FFT values/proc = 2940 384
Last active /omp style is kspace_style pppm/tip4p/omp
Neighbor list info ...
  update every 1 steps, delay 7 steps, check yes
  max neighbors/atom: 2000, page size: 100000
  master list distance cutoff = 10.8154
  ghost atom cutoff = 10.8154
  binsize = 5.4077, bins = 4 4 5
  1 neighbor lists, perpetual/occasional/extra = 1 0 0
  (1) pair lj/cut/tip4p/long/omp, perpetual
      attributes: half, newton on, omp
      pair build: half/bin/newton/omp
      stencil: half/bin/3d
      bin: standard
Per MPI rank memory allocation (min/avg/max) = 9.236 | 9.240 | 9.253 Mbytes
Step Temp PotEng TotEng E_pair E_mol Press Lx Ly Lz Volume Pxx Pyy Pzz Pxy Pxz Pyz Enthalpy 
10750000    272.45353   -3912.4225   -3445.4465   -3912.4225            0    916.46279    17.899842    21.083649    21.837765    8241.4413    1148.0091    1231.7927    369.58656    1688.4271    214.25422   -1881.3521   -3335.2941 
10751000    240.76856   -3904.7291     -3492.06   -3904.7291            0    2613.2242     17.97551    21.172777    21.930081    8346.4017    2600.5226    2274.2272    2964.9228    930.74887     481.3376    1032.0972   -3173.9687 
10752000     256.9597   -3927.5071    -3487.087   -3927.5071            0    225.53468    17.950504    21.143322    21.899573    8311.6168     853.6388   -1014.2884    837.25359   -428.42469   -456.67521    304.16767   -3459.7485 
10753000    242.86861   -3920.0168   -3503.7483   -3920.0168            0    904.97481    17.998144    21.199436    21.957693    8377.9688    1362.0328    3.8073649    1349.0843    510.06836    1402.3381    752.34508   -3393.1748 
10754000    238.17585    -3949.398   -3541.1728    -3949.398            0    826.95778    17.844471     21.01843    21.770213    8165.1968    1626.4705    72.117395    782.28545    719.50718    670.34989    968.06015   -3442.6978 
10755000    253.12544   -3912.5665   -3478.7182   -3912.5665            0    570.38699    17.907841    21.093071    21.847524    8252.4953    45.535349    603.56822    1062.0574    240.91987    159.95765   -673.87885   -3410.0697 
10756000    254.39037   -3919.8127   -3483.7963   -3919.8127            0    594.52856    17.894353    21.077184    21.831069    8233.8622    150.62078     151.6288    1481.3361    370.61048    774.54786    -1540.978   -3412.4039 
10757000     249.8628     -3925.76   -3497.5038     -3925.76            0    1111.9076    17.958524    21.152769    21.909357    8322.7625    425.00411    1620.0249    1290.6938     827.6263    1417.1075    57.197447   -3362.5416 
10758000    255.94546   -3910.8152   -3472.1335   -3910.8152            0    647.66753    17.885892    21.067218    21.820746    8222.1873    259.77894    402.99044    1280.2332   -810.09637   -372.48985    508.36576   -3394.4703 
10759000    260.12869   -3901.6111   -3455.7595   -3901.6111            0    2028.0012    17.836751    21.009337    21.760795    8154.6034    1747.4169    2366.6182    1969.9684    1362.8814   -445.79221    499.75567   -3214.5763 
10760000    247.09158   -3887.9737   -3464.4672   -3887.9737            0    190.15811    17.949072    21.141636    21.897826     8309.628   -684.05137   -132.07378    1386.5995    500.39353   -302.75653    147.22996   -3441.4225 
10761000    251.67106   -3893.9901   -3462.6345   -3893.9901            0    1251.4652    17.843866    21.017717    21.769474    8164.3651    1938.9014    202.16142    1613.3326   -280.19585    573.48026    185.07874   -3313.6239 
10762000    253.14467   -3841.0987   -3407.2174   -3841.0987            0    948.63842    17.891183    21.073451    21.827202    8229.4875    560.77755    1153.2915    1131.8462   -376.41191    240.75834   -584.96875   -3293.3631 
10763000      258.007   -3861.8287   -3419.6136   -3861.8287            0    2314.2629    17.863531     21.04088    21.793466    8191.3878    1150.6202    2604.7981    3187.3706     120.8801   -1072.4282    167.01288   -3143.1448 
10764000    247.81022   -3892.9472    -3468.209   -3892.9472            0    3124.4749    17.884357    21.065411    21.818874    8220.0719    1873.8369    4205.3994    3294.1884   -775.97099    629.04608    568.44341   -3093.6428 
10765000     257.3051   -3894.3088   -3453.2967   -3894.3088            0    1098.9171    17.899504    21.083251    21.837353    8240.9744     1028.087     867.8151    1400.8491   -810.91071   -1920.0206   -1435.7818   -3321.2221 
10766000    256.75768   -3876.3983   -3436.3244   -3876.3983            0   -138.07039    17.940693    21.131766    21.887603    8297.9961   -1227.0356    30.378511     782.4459    810.44339   -452.77945     93.32106   -3453.0334 
10767000    253.40874   -3889.2284   -3454.8945   -3889.2284            0    1814.9844     17.87526    21.054695    21.807775    8207.5337    1240.7928    2863.4793     1340.681    -1306.325    1320.2066    787.07137   -3237.6437 
10768000    240.64145   -3911.4972    -3499.046   -3911.4972            0    879.93594    17.822825    20.992933    21.743804    8135.5176    66.295122    937.10624    1636.4065    422.32107    71.626442    34.103778   -3394.6432 
10769000    251.55054   -3923.2307   -3492.0817   -3923.2307            0    885.96555    17.845663    21.019833    21.771667     8166.832   -663.51004    2126.8229    1194.5838     698.9459     330.0198    34.992307   -3386.5589 
10770000    244.87685   -3925.1678   -3505.4573   -3925.1678            0    1327.3437    17.897999    21.081478    21.835517    8238.8958    1497.1338    336.31598    2148.5814   -975.37291   -971.66463   -62.578511   -3345.9692 
10771000    261.85502   -3944.6753   -3495.8647   -3944.6753            0    1707.4485    17.900851    21.084837    21.838996    8242.8346    2559.1464    950.88668    1612.3124    239.20137   -750.51043   -525.55927   -3290.6067 
10772000    256.82778   -3906.7825   -3466.5885   -3906.7825            0    1055.0188    17.926033    21.114499    21.869719    8277.6715      1014.88    26.134702    2124.0418   -1322.0366    454.77118   -126.47261   -3339.2252 
10773000    228.53245   -3904.6288    -3512.932   -3904.6288            0    1109.1713    17.957797    21.151912     21.90847    8321.7513    1053.8276      -526.29    2799.9764   -244.27953    227.00272   -996.03706   -3378.3183 
10774000    271.08888   -3878.2512   -3413.6141   -3878.2512            0    1919.7517    17.952359    21.145507    21.901836    8314.1937    101.43109    3736.2936    1921.5304   -1581.4083    126.15249    635.50882   -3180.8366 
10775000    255.96542   -3893.8938   -3455.1778   -3893.8938            0    1613.6762    17.875267    21.054703    21.807784    8207.5435    2535.3944     485.7915    1819.8429   -962.25419    752.66375    783.47124   -3262.0231 
10776000    256.11891   -3891.0831   -3452.1041   -3891.0831            0   -331.42021    17.935563    21.125724    21.881344    8290.8794   -701.41125    -15.08896   -277.76041   -660.02737   -313.81121    454.25509   -3492.1774 
10777000    267.09036   -3902.0645   -3444.2807   -3902.0645            0     946.1433    17.922834    21.110731    21.865815    8273.2396      8.26325    1226.8371    1603.3296   -917.25816   -588.90882    292.55057   -3330.1222 
10778000    251.72691    -3923.494   -3492.0426    -3923.494            0    785.31425    17.927813    21.116596     21.87189     8280.137    140.63376    22.513727    2192.7952   -837.77067    357.19928    1070.7525   -3397.2102 
10779000    248.10999    -3948.959    -3523.707    -3948.959            0    32.269862    17.931101    21.120468    21.875901    8284.6932    759.79143   -701.33579    38.353943   -859.56903    -111.0213   -572.11092    -3519.808 
10780000    244.48677   -3882.4448   -3463.4029   -3882.4448            0    1411.9567    18.008559    21.211704      21.9704    8392.5215    1041.8152    1774.7135    1419.3413    902.28255   -265.52576    950.10381   -3290.5846 
10781000    261.06221    -3906.317   -3458.8653    -3906.317            0    1369.1753     17.84918    21.023977    21.775958    8171.6626    795.86592    1808.8546    1502.8055    579.84598   -942.25385    915.31449   -3295.6934 
10782000    254.95736   -3912.1205   -3475.1323   -3912.1205            0    1557.0324    17.829508    21.000805    21.751958     8144.673    1369.3694    2099.9301    1201.7976    1169.9111    103.24498    307.79427   -3290.1854 
10783000    261.15851   -3926.9599   -3479.3432   -3926.9599            0    2240.9421    17.824148    20.994492    21.745419    8137.3298    3449.4826     1152.276    2121.0678    847.60849    859.34301   -463.30827   -3213.4003 
10784000    241.86149   -3926.2816   -3511.7393   -3926.2816            0    1090.0183    17.770251    20.931009    21.679665     8063.736    2892.2783    482.73909   -104.96244   -421.09582    461.17741   -194.65937   -3383.5517 
10785000    242.80978   -3927.7531   -3511.5854   -3927.7531            0    3121.8247    17.771131    20.932045    21.680739    8064.9338    2584.3183    1491.3886    5289.7673    403.46156   -610.79103   -832.80869   -3144.4002 
10786000    228.15752   -3899.8584   -3508.8042   -3899.8584            0    1738.5359    17.874482    21.053779    21.806827     8206.463    2298.4009    2049.2668    867.93978    746.39518   -676.55008   -354.88661   -3300.7313 
10787000    257.91105   -3924.5519   -3482.5012   -3924.5519            0      2258.35    17.794953    20.960104    21.709801    8097.4096    865.70465    3193.5748    2715.7706   -191.50155    1589.2138   -1709.2159   -3215.8071 
10788000    258.02546   -3923.7635   -3481.5167   -3923.7635            0     2368.485    17.824594    20.995017    21.745963    8137.9403    2164.2781    2024.1348     2917.042   -198.83739    225.52639    264.81338   -3200.4166 
10789000    248.91477    -3905.021   -3478.3896    -3905.021            0    1963.0892    17.831664    21.003345    21.754588    8147.6282    4439.4602    1195.7326    254.07469   -1294.7222   -709.42343    1706.5219   -3245.1259 
10790000    250.45291   -3911.3941   -3482.1264   -3911.3941            0    1530.2599    17.862555     21.03973    21.792275    8190.0457   -161.74754    2349.4373    2403.0898     21.04999    960.60405   -898.37632    -3299.347 
10791000    253.08967   -3919.3965   -3485.6095   -3919.3965            0    1509.5131    17.824935    20.995419    21.746379    8138.4082    1888.1624    2022.2231    618.15364   -250.63466     526.6295    903.12413   -3306.4449 
10792000     241.6446   -3912.2494   -3498.0788   -3912.2494            0    598.12701    17.856002    21.032011     21.78428    8181.0349    1646.2664    1107.4297   -959.31503     1224.231    553.10188   -641.57172    -3426.715 
10793000     254.7951    -3898.611    -3461.901    -3898.611            0    444.57376    17.839484    21.012555    21.764128    8158.3518    2304.5705   -423.26794   -547.58128      168.077    583.84617   -946.49145    -3409.005 
10794000    254.55689   -3904.2284   -3467.9266   -3904.2284            0    1710.9143    17.773998    20.935422    21.684236    8068.8374    2734.6302    1478.0805    920.03211   -215.55958    446.80559   -585.26175   -3266.5936 
10795000    228.91913   -3910.2811   -3517.9215   -3910.2811            0    380.98818    17.834255    21.006397     21.75775    8151.1807    676.96023    464.48173    1.5225825    -1245.812   -951.20268   -878.59955   -3472.6309 
10796000    258.31826   -3881.7308   -3438.9822   -3881.7308            0    2448.1319    17.681343    20.826286    21.571197    7943.3064    1464.7516     2551.738     3327.906   -227.42577   -465.53825    521.10938   -3155.3784 
10797000    241.76244   -3906.4421   -3492.0695   -3906.4421            0     1243.862    17.725427    20.878212     21.62498    8002.8693    710.02143    1699.0074    1322.5571    -358.8002    958.26001   -448.07538   -3346.8939 
10798000    251.87664   -3908.3209   -3476.6129   -3908.3209            0    495.39665    17.776084    20.937878     21.68678    8071.6782    783.56973    414.51088    288.10934     284.3361    -827.2709    629.83461   -3418.2962 
10799000    255.89824   -3908.8438    -3470.243   -3908.8438            0    466.70825     17.75031    20.907521    21.655337      8036.62    364.73964    97.515261    937.86984   -1703.2925   -533.71811   -300.80986    -3415.542 
10800000    259.64344    -3930.932    -3485.912    -3930.932            0    2058.5826    17.745838    20.902253     21.64988    8030.5464    3250.4413    479.57112    2445.7356   -1159.8936   -219.85047    1396.1003   -3244.8164 
10801000    255.87254   -3880.0937   -3441.5369   -3880.0937            0    -305.7778    17.818016     20.98727    21.737938    8128.9351   -905.01143   -11.383514  -0.93846777   -538.94961   -1142.4214    732.82399   -3477.7875 
10802000    249.08242   -3903.6613   -3476.7425   -3903.6613            0    1847.2232    17.686577    20.832451    21.577583     7950.363    1525.4415    1560.3672    2455.8609   -228.01329    29.496893    902.23686   -3262.5609 
10803000     250.3565   -3932.7304    -3503.628   -3932.7304            0    1363.3991    17.707037    20.856551    21.602544     7977.986    2477.4999    1203.0625     409.6348    555.61598    884.59733    1122.2201   -3344.9955 
10804000      251.607    -3870.375   -3439.1292    -3870.375            0   -613.64555    17.830939    21.002491    21.753704    8146.6345   -702.36248   -1157.2365    18.662304   -1244.0736    -162.3419   -288.32838   -3512.0366 
10805000    254.48253   -3910.9266   -3474.7522   -3910.9266            0    651.54305    17.684557    20.830072    21.575118    7947.6394   -635.26053    390.72579    2199.1639   -529.12192    828.75056   -695.06225    -3399.233 
10806000     254.9051   -3895.4282   -3458.5296   -3895.4282            0    1759.4896    17.782501    20.945437     21.69461    8080.4233    1516.2831    1990.5681    1771.6176   -1674.0793    204.38189   -433.93514   -3251.1831 
10807000    259.64074   -3922.4355   -3477.4201   -3922.4355            0     2701.804    17.716316     20.86748    21.613864    7990.5344    3656.1807    1309.2825    3139.9488    78.126118   -1147.3477    215.50075   -3162.5688 
10808000    250.43819   -3915.3075    -3486.065   -3915.3075            0    1973.8798    17.757197    20.915632    21.663738    8045.9772    1721.9663    2149.4234    2050.2498    264.07974    1336.4597    1351.5361   -3254.4454 
10809000    258.67313   -3916.8706   -3473.5137   -3916.8706            0    1917.2152        17.82    20.989606    21.740358    8131.6496    1716.6452    1577.8779    2457.1224    143.74002    187.84457    352.64088   -3246.1478 
10810000    250.10456   -3939.0709   -3510.4002   -3939.0709            0    823.85491    17.826708    20.997507    21.748542    8140.8369    963.77114    2052.2508   -544.45725   -1455.3752   -44.171813   -457.30699   -3412.5874 
10811000    259.59547   -3909.9513   -3465.0136   -3909.9513            0   -636.44305    17.893936    21.076693     21.83056    8233.2868   -291.73361    191.76138   -1809.3569   -801.03787   -1191.0851   -805.74521   -3541.4338 
10812000    255.42249   -3896.2985   -3458.5131   -3896.2985            0    1691.1353    17.822928    20.993055    21.743931    8135.6593    900.90209    751.82456    3420.6792   -1636.4233    458.63121    637.08903   -3257.8595 
10813000    269.02065   -3893.1537   -3432.0615   -3893.1537            0    312.98575    17.894505    21.077364    21.831255    8234.0723    1342.8632   -211.27276   -192.63321   -1908.4561   -1025.1618     635.4589   -3394.4765 
10814000    253.53517   -3911.0032   -3476.4526   -3911.0032            0     2121.965    17.793173    20.958007    21.707629    8094.9797    1492.3102    2036.9557     2836.629   -494.37375    1177.9783     554.0949   -3225.9399 
10815000    243.96424   -3917.9355   -3499.7891   -3917.9355            0     912.0703     17.82449    20.994894    21.745836    8137.7981    554.39837    1235.0432    946.76931     1349.649   -103.53332    1474.7933   -3391.5433 
10816000    248.17785   -3861.9291   -3436.5608   -3861.9291            0     1545.197    17.845222    21.019314    21.771129    8166.2266    3246.6069   -281.23336    1670.2174    1588.5126    499.02894   -287.19154   -3252.5339 
10817000    241.95728   -3917.1658   -3502.4593   -3917.1658            0    1244.4677    17.892753      21.0753    21.829117    8231.6537    732.66316    3064.9711   -64.231241    953.02373   -490.34802    198.75486   -3353.0607 
10818000    256.18287   -3916.4386     -3477.35   -3916.4386            0    727.61967    17.861722    21.038749    21.791259    8188.8998    1241.0484    847.48111    94.329486    373.66288   -955.46367    1482.4501   -3390.4527 
10819000    236.09957   -3920.2301   -3515.5635   -3920.2301            0    3606.6851    17.821102    20.990904    21.741703    8133.1586    4587.8073     4046.695     2185.553   -869.98447   -482.98807    1419.2474    -3087.761 
10820000    254.18418   -3921.5499   -3485.8869   -3921.5499            0     1128.975    17.843202    21.016935    21.768664     8163.454   -1075.6199    2354.7868    2107.7582    1206.8041    743.32681    530.95602   -3351.4761 
10821000     248.5553   -3901.3725   -3475.3573   -3901.3725            0    2179.1032    17.816382    20.985344    21.735944    8126.6977    1276.6614    3096.5331    2164.1152   -198.27024   -189.83813   -893.66126   -3217.0909 
10822000    269.19214   -3861.6457   -3400.2596   -3861.6457            0    1453.4083    17.913082    21.099244    21.853918    8259.7424     1187.239    777.27837    2395.7075   -173.26372    325.94085   -47.969535   -3225.1822 
10823000    250.82805   -3950.3113   -3520.4006   -3950.3113            0    2250.1314    17.864587    21.042124    21.794754    8192.8411    1597.8074    1941.4417    3211.1451   -111.47366   -1560.3895   -1249.5074   -3251.5455 
10824000    254.79896   -3933.1548    -3496.438   -3933.1548            0    2584.3624    17.843145    21.016867    21.768595    8163.3755    2641.0529    2971.9468    2140.0876    70.926205   -226.01933    1822.9782   -3188.7582 
10825000     245.1893   -3913.0128   -3492.7667   -3913.0128            0    1854.2052    17.920341    21.107794    21.862774    8269.7878    1872.7708     2078.456    1611.3889   -321.80997   -716.21155    2009.0174   -3269.1378 
10826000    250.21241   -3932.9272   -3504.0717   -3932.9272            0     1056.085    17.822312    20.992329    21.743179    8134.8155    843.33526     189.8549    2135.0649   -578.48744    143.49741   -92.804973   -3378.7799 
10827000    242.21747   -3918.4629   -3503.3104   -3918.4629            0    1991.4367    17.777757     20.93985    21.688822    8073.9582     2366.756    1794.9641    1812.5901    255.37636    -1086.798    155.77238    -3268.818 
10828000    267.72505   -3876.5852   -3417.7136   -3876.5852            0    2176.1222    17.838858    21.011818    21.763365    8157.4929    979.33227     3225.746    2323.2883   -223.05922    43.808102   -227.67132   -3158.8233 
10829000    260.57141   -3931.6188   -3485.0083   -3931.6188            0    1166.5398    17.816118    20.985034    21.735622    8126.3372    1281.2319    1321.7801    896.60752    802.08144    10.380131    1008.5628   -3346.7566 
10830000    264.91274   -3888.0997   -3434.0483   -3888.0997            0    1714.7615    17.769634    20.930282    21.678912    8062.8958    2043.5626    875.40898     2225.313   -749.53721    -1634.707    167.11312   -3232.4111 
10831000    249.44627   -3897.2862   -3469.7438   -3897.2862            0     2451.781    17.724319    20.876907    21.623628    8001.3683    3138.5056     2329.564    1887.2733    141.29687    -1052.966    2145.7819   -3183.6412 
10832000    247.72165   -3934.2654    -3509.679   -3934.2654            0    1312.9199    17.757148    20.915574    21.663679    8045.9105    466.32915    1580.2545    1892.1761   -194.68138   -267.38694   -559.08895   -3355.6192 
10833000    234.37907   -3887.6558    -3485.938   -3887.6558            0   -187.27998    17.901978    21.086166    21.840371    8244.3924   -1147.8722    424.68781     161.3444   -732.52204    371.61077   -1056.2698   -3508.4558 
10834000    261.48955   -3876.6854   -3428.5012   -3876.6854            0    760.89616    17.781426    20.944171    21.693298    8078.9577    99.470271    1083.6394    1099.5788    -175.7997     847.0306    474.82099   -3338.8499 
10835000    263.02134   -3923.8035   -3472.9939   -3923.8035            0    2655.1318    17.670708     20.81376    21.558223    7928.9824    1523.8575    2550.9429     3890.595   -533.54519   -346.89931   -700.25322   -3165.9649 
10836000    250.25347    -3904.703   -3475.7771    -3904.703            0    103.89192    17.872536    21.051487    21.804452    8203.7824     942.1418    -873.6789    243.21286   -693.29133    174.30747    -375.6943   -3463.3471 
10837000    254.38397   -3917.7093   -3481.7039   -3917.7093            0    3397.4481    17.770384    20.931165    21.679827    8063.9167    1426.0007    4589.6006    4176.7431   -207.10419    196.12621   -515.31961   -3082.1506 
10838000    269.98101   -3896.4713   -3433.7331   -3896.4713            0    1548.5585    17.784324    20.947585    21.696834    8082.9091    3293.8121   -64.078927    1415.9423    593.34833   -1030.0493   -885.23534   -3251.1876 
10839000    228.94287   -3917.7587   -3525.3585   -3917.7587            0    1148.5959    17.766678      20.9268    21.675306    8058.8726    2725.7111    681.67765    38.399012   -1172.8916   -114.63909   -1403.0092   -3390.3635 
10840000    266.18702   -3947.4678   -3491.2324   -3947.4678            0     1980.631    17.808558    20.976129      21.7264    8115.9971    2806.1747    1203.5385    1932.1799   -1468.7305    1616.2734   -18.362319    -3256.798 
10841000    243.53898   -3941.7543   -3524.3368   -3941.7543            0    444.76679    17.822668    20.992749    21.743614    8135.3038   -42.618316   -103.17746    1480.0962    227.69322   -1610.2408    626.68346   -3471.5675 
10842000    254.24234   -3915.5908   -3479.8281   -3915.5908            0    1259.5965     17.82447    20.994872    21.745812    8137.7714   -184.26692    1683.7329    2279.3234   -51.612187   -176.13662    -841.5396   -3330.3379 
10843000    236.66047   -3902.6324   -3497.0045   -3902.6324            0     2006.765     17.85482    21.030619    21.782838    8179.4102    2333.9833    2241.2396    1445.0721    -1053.822    -530.0643   -1586.1001   -3257.6209 
10844000    250.62489   -3921.2615    -3491.699   -3921.2615            0    3334.1571    17.722923    20.875263    21.621925    7999.4782    3716.3855    2903.3928    3382.6928    1004.5966    579.47481    664.63904   -3102.7223 
10845000    256.49943   -3925.6164   -3485.9852   -3925.6164            0    2132.7924    17.832739    21.004611      21.7559    8149.1023     2547.387    2227.3774    1623.6129    145.03635    139.48238   -189.36737   -3232.5107 
10846000    259.75551    -3893.748   -3448.5359    -3893.748            0    2509.5706     17.75852    20.917191    21.665353     8047.776    1961.9744    2583.0376    2983.6998    332.33903    22.776229   -1496.8869   -3153.9913 
10847000     250.5158   -3908.8726   -3479.4971   -3908.8726            0     1432.894    17.915908    21.102573    21.857366    8263.6528    500.42723    1435.0086    2363.2462   -318.14311   -574.76347   -954.70013   -3306.8091 
10848000     240.1435   -3938.3382   -3526.7405   -3938.3382            0     655.6967    17.878845    21.058918    21.812149    8212.4733     1545.013    1347.0777   -925.00054    148.29751   -472.92867     446.5713   -3448.2074 
10849000    251.15941   -3922.2752   -3491.7966   -3922.2752            0    1054.8787    17.909744    21.095313    21.849846    8255.1262    976.46754    789.92624    1398.2424   -500.77697    132.19334    462.17361    -3364.797 
10850000    242.43969    -3918.416   -3502.8827    -3918.416            0    1177.8358    17.865586    21.043301    21.795973    8194.2158    402.55171    2286.6442    844.31138   -2049.1417   -284.72377    1164.2141   -3362.1264 
10851000    249.68002   -3920.6185   -3492.6755   -3920.6185            0    1077.3704    17.845462    21.019597    21.771422    8166.5569    1439.4026     1642.664    150.04465    539.78381   -433.87529   -31.439035   -3364.3598 
10852000    254.49303   -3884.2634   -3448.0711   -3884.2634            0   -456.57852    17.895559    21.078605     21.83254     8235.527   -2026.1837   -9.1096453    665.55779   -842.28133    391.35885   -82.897913   -3502.9092 
10853000    253.73093   -3894.2439   -3459.3577   -3894.2439            0    1435.6469    17.840348    21.013573    21.765183    8159.5375    697.84437    2508.3295    1100.7669   -624.64638    57.991498    255.55463   -3288.5179 
10854000    249.82679   -3904.6342   -3476.4397   -3904.6342            0    254.88565    17.986195    21.185362    21.943116    8361.2938    1046.1948    1016.3316   -1297.8695   -237.67943    632.05861   -87.792194   -3445.3587 
10855000    260.55952   -3907.6286   -3461.0385   -3907.6286            0    1211.5736    17.937871    21.128442     21.88416    8294.0808    1018.0771    878.60997    1738.0337    432.47788    935.52196    1066.7411   -3314.4857 
10856000    240.60098   -3933.4215   -3521.0396   -3933.4215            0    2465.2286    17.865857     21.04362    21.796304    8194.5886    4127.1244    2700.6302    567.93116    503.62928    506.32067    1354.2936    -3226.421 
10857000    247.94463     -3920.02   -3495.0513     -3920.02            0    1831.2617     17.81915    20.988605    21.739321    8130.4863    2404.9027    1978.9206    1109.9617    299.60032    421.38272   -1118.6822   -3277.9098 
10858000    258.88218   -3922.9555   -3479.2403   -3922.9555            0    1002.2962    17.870206    21.048742    21.801609    8200.5737     1060.248     63.20041    1883.4401    623.89713    599.95132   -849.45299   -3359.3688 
10859000    249.16874   -3887.3814   -3460.3147   -3887.3814            0    638.18279    17.786562     20.95022    21.699564      8085.96    215.64374    1689.6071    9.2975327   -845.07555   -468.58037    289.28712   -3385.0567 
10860000    248.87338    -3900.457   -3473.8966    -3900.457            0     1339.542    17.691792    20.838594    21.583944    7957.3972    324.57141    2230.7478    1463.3067    511.08816     436.0488   -962.46332   -3318.4421 
10861000    253.67059   -3905.2965   -3470.5138   -3905.2965            0    2522.2467    17.765586    20.925514    21.673974    8057.3872    2575.6686    2942.0071    2049.0645    -193.1302   -693.67151   -1152.7685   -3174.1278 
10862000     244.3506   -3882.0384   -3463.2299   -3882.0384            0    2441.4586    17.686385    20.832225    21.577348    7950.1036    4243.6523    1693.2041    1387.5196    1689.3266    1044.9396   -325.50646   -3180.1571 
10863000     253.2583   -3920.3705   -3486.2945   -3920.3705            0    943.66412     17.82308    20.993234    21.744116    8135.8678    1388.4011    682.04935    760.54192    840.41741    554.04033   -641.91033   -3374.3256 
10864000    267.32858   -3898.7973   -3440.6053   -3898.7973            0    316.69663    17.854275    21.029978    21.782174    8178.6624    836.91138   -1512.0551    1625.2336   -627.84067   -470.03399    631.13062   -3402.8305 
10865000    251.96516   -3888.2818   -3456.4222   -3888.2818            0      2183.77     17.91336    21.099572    21.854257    8260.1276    1436.8481    3217.5181    1896.9437    -257.7454   -258.65711   -1351.6222   -3193.3532 
10866000    248.15015   -3933.8652   -3508.5443   -3933.8652            0    1526.9753    17.959798     21.15427    21.910912    8324.5342    2236.9703    1323.8947     1020.061   -87.204262   -343.27362    609.37099   -3323.1622 
10867000    246.46654    -3963.963   -3541.5278    -3963.963            0    1531.3602     17.86479    21.042363    21.795002    8193.1207   -334.96443    3351.2002    1577.8447   -1065.5233   -366.97022    348.34245   -3358.5483 
10868000    247.82452   -3936.5271   -3511.7644   -3936.5271            0    631.93854     17.92705    21.115696    21.870959    8279.0793     33.05317    1203.7292    659.03321   -573.68295    572.30049   -374.09257   -3435.4629 
10869000    246.71133    -3917.853   -3494.9982    -3917.853            0    1368.1264    17.910774    21.096526    21.851102    8256.5502     2294.179    596.54508    1213.6552    -172.0531   -1096.7633   -131.74469   -3330.2576 
10870000    235.92536   -3915.5313   -3511.1633   -3915.5313            0    784.19678    17.899831    21.083637    21.837752    8241.4269    729.09061    122.59967    1500.9001   -308.48012   -119.75807   -1675.1503   -3416.9086 
10871000    248.76418   -3947.7372   -3521.3639   -3947.7372            0   -19.613893    17.913866    21.100167    21.854874     8260.827   -915.31073   -393.70435    1250.1734    661.73581    991.15504   -246.92711   -3523.7269 
10872000    258.46396   -3901.2624    -3458.264   -3901.2624            0    1056.9481    17.907246    21.092371    21.846799     8251.673     1485.137    1020.6407    665.06663   -550.02351    -277.9444   -968.80365   -3331.0686 
10873000    237.11727   -3939.0965   -3532.6856   -3939.0965            0    2314.0506    17.925492    21.113862    21.869058    8276.9216    2576.7267    2091.2576    2274.1676   -702.65759    221.90947   -272.21446   -3253.3556 
10874000    255.45279   -3917.1118   -3479.2744   -3917.1118            0    1701.5516    18.025379    21.231516    21.990921    8416.0601    1794.4901    2023.2257     1286.939    308.79451    297.87044    191.86802   -3270.4266 
10875000    261.65726   -3928.3073   -3479.8357   -3928.3073            0    967.49025    17.863381    21.040704    21.793284    8191.1826    452.51272    1255.9658    1193.9922    901.64455   -1125.8175     175.0195   -3364.2593 
10876000    241.34747   -3918.4517   -3504.7904   -3918.4517            0    836.38307    17.994675    21.195351    21.953462    8373.1263   -1058.0802    1482.8476    2084.3819    566.35004   -312.69854    223.34891   -3402.6568 
10877000    253.33809   -3948.6815   -3514.4687   -3948.6815            0     2922.541    17.864724    21.042285    21.794921    8193.0291    4606.4799    1394.8857    2766.2573    870.32112    226.57893    612.88535   -3165.2633 
10878000    263.64978   -3966.2588   -3514.3721   -3966.2588            0    2024.6932     17.87706    21.056815    21.809971    8210.0132    792.39354    2889.5299    2392.1561    1319.6665   -351.74483    -152.0059   -3271.9462 
10879000    258.63993   -3931.7346   -3488.4346   -3931.7346            0    1716.7211    17.962391    21.157323    21.914075    8328.1396    1807.9655    1414.2771    1927.9208    235.06585    285.10114    22.290525   -3279.9261 
10880000    253.12303   -3980.9623   -3547.1181   -3980.9623            0    580.18088    17.954463    21.147986    21.904403    8317.1179     1129.354    3.4043975    607.78419   -282.56855   -1432.4353   -328.90291   -3476.7441 
10881000    235.43753   -3942.8351   -3539.3032   -3942.8351            0    1866.0339     17.93212    21.121668    21.877144    8286.1058    2983.5059    926.91948    1687.6762    542.43642    741.48243   -1100.7454   -3313.8035 
10882000    252.82745   -3921.8533   -3488.5157   -3921.8533            0    225.17398    18.016763    21.221367    21.980409     8403.997    1128.1273   -223.53844   -229.06696    68.769771   -121.85359    440.45402   -3460.9175 
10883000    234.91903   -3933.8718   -3531.2287   -3933.8718            0      3209.89    17.880615    21.061003    21.814309    8214.9125      3049.03    2229.6754    4350.9645    847.09552   -14.485322    706.29549   -3146.6644 
10884000    241.65901   -3979.5745   -3565.3793   -3979.5745            0    1084.5547    17.903689    21.088181    21.842459    8246.7562    849.80418    1265.3367    1138.5233   -1106.7993    801.53881   -473.81407   -3434.9393 
10885000    241.59927   -3985.3604   -3571.2675   -3985.3604            0    405.14659    17.905129    21.089876    21.844215    8248.7458    659.88657     -302.157     857.7102   -818.86426    586.13494     1216.626   -3522.5286 
10886000    253.63426    -3939.528   -3504.8075    -3939.528            0   -79.485153    17.994783    21.195477    21.953593    8373.2759    1026.8089   -396.23058   -869.03382   -131.35308    -1338.331    1202.1855   -3514.5139 
10887000    248.22228    -3967.956   -3542.5115    -3967.956            0    1742.7028    17.876302    21.055922    21.809047    8208.9694    2747.7114    1016.5492    1463.8477   -78.297817   -934.64458   -1137.9499   -3333.8762 
10888000    252.38494   -3915.5596   -3482.9805   -3915.5596            0    1776.4895    17.952629    21.145826    21.902166    8314.5698    3148.4854    166.26497    2014.7181   -741.97506   -155.28321   -532.46512   -3267.5643 
10889000    237.28145   -3965.8824   -3559.1901   -3965.8824            0    1452.8182    17.803537    20.970214    21.720273    8109.1332    2304.8911     723.2213    1330.3421   -418.39416   -217.33606    272.12437   -3387.3749 
10890000    262.02999   -3952.0693   -3502.9589   -3952.0693            0    201.39568    17.856255     21.03231     21.78459    8181.3837    1087.5068   -726.42146    243.10169   -250.66561   -448.04208   -205.58607   -3478.9289 
10891000     240.4753   -3945.8056   -3533.6392   -3945.8056            0    1080.3281    17.979592    21.177585     21.93506    8352.0886    421.47362    1579.2913    1240.2193    991.52906    773.55735   -1222.5002    -3402.048 
10892000    240.23871   -3944.4522   -3532.6913   -3944.4522            0    1320.4476     17.90145    21.085544    21.839728    8243.6632    103.32997    2162.7535    1695.2593   -445.66611    327.20785    24.172751     -3373.94 
10893000    237.32159    -3923.782   -3517.0209    -3923.782            0    1513.1672    17.876266     21.05588    21.809003    8208.9203    963.78656    1479.8291    2095.8861    238.58023   -865.32626   -316.69422   -3335.8665 
10894000    244.69415   -3912.5083   -3493.1109   -3912.5083            0    2828.3347    17.863075    21.040343     21.79291    8190.7613    1817.7617    1880.8623    4786.3801     884.4819   -132.38519    436.08788   -3155.2555 
10895000    248.99645    -3888.871   -3462.0996    -3888.871            0    2307.8118    17.835056     21.00734    21.758727    8152.2791    1321.7563    2277.2205    3324.4586    1389.9991   -112.61664    1030.8467   -3187.7178 
10896000    257.45617   -3931.6789   -3490.4078   -3931.6789            0    2058.8813    17.876435    21.056079    21.809209    8209.1523    1591.4051    1703.4766    2881.7621     379.7991   -1277.1886   -43.725465   -3243.9143 
10897000    247.28469    -3947.662   -3523.8245    -3947.662            0    3362.3315    17.826986    20.997835    21.748882    8141.2182    3685.6055    2013.9517    4387.4373   -1075.6351    942.97548   -344.02451   -3124.6105 
10898000    236.88213   -3932.6656   -3526.6577   -3932.6656            0    2189.1593    17.893803    21.076536    21.830397    8233.1024    2614.9142    1555.9906     2396.573    439.12739   -728.69364     608.7278   -3263.8024 
10899000    257.51665   -3903.6741   -3462.2993   -3903.6741            0    1197.0441    17.927741     21.11651    21.871802     8280.037    1181.0553    1174.9075    1235.1694    552.73376   -758.45385     122.9418   -3317.7493 
10900000    240.76409   -3898.5141   -3485.8527   -3898.5141            0     2727.657    17.847707    21.022241     21.77416    8169.6386    1972.0094    2864.0151    3346.9466   -134.67045   -84.563253    -1274.016   -3160.8638 
10901000    253.20921   -3890.9733   -3456.9814   -3890.9733            0    1147.1931    17.883304     21.06417     21.81759      8218.62    289.62225    884.11266    2267.8444    170.28709   -641.62013   -343.98885   -3319.4786 
10902000    252.57828   -3927.1653   -3494.2548   -3927.1653            0   -183.18284    17.916006    21.102689    21.857486    8263.7886   -222.51954    -195.6067   -131.42228    616.39546   -235.43265   -206.65092   -3516.3318 
10903000    265.52253   -3939.0422   -3483.9457   -3939.0422            0    480.63263    17.947376    21.139638    21.895756    8307.2723   -1297.6692    993.37033    1746.1968    60.218124    5.1732478    77.507478   -3425.7156 
10904000    230.20979   -3914.7473   -3520.1756   -3914.7473            0    2311.3827    17.872554    21.051508    21.804474    8203.8071    1769.3522    1792.1166    3372.6794   -1100.2462    310.40633    985.14133   -3243.6322 
10905000     257.5865   -3951.4976   -3510.0031   -3951.4976            0    750.90256    17.839588    21.012678    21.764256    8158.4948    530.21966    1360.7601    361.72791    775.96261   -150.41322   -241.78446   -3420.6583 
10906000    240.05754   -3950.9102   -3539.4598   -3950.9102            0     583.4039    17.902698    21.087014     21.84125    8245.3875   -179.77894    880.79326    1049.1974    856.44337   -102.39731    581.11674   -3469.3052 
10907000    261.38226   -3952.7977   -3504.7974   -3952.7977            0    307.36799    17.916117    21.102819    21.857621    8263.9421    364.73168    535.42559    21.946705    976.53158   -502.72283   -421.31608   -3467.7531 
10908000     253.6537   -3953.6127   -3518.8589   -3953.6127            0    444.09906    17.991397    21.191489    21.949462    8368.5509    980.52637    -364.1642    715.93501    1063.4405   -303.72423    1011.7602   -3464.6581 
10909000    249.57705   -3927.4492   -3499.6826   -3927.4492            0    2766.6583    17.814515    20.983146    21.733667    8124.1443    3902.2845    1487.4597    2910.2306   -147.78596    366.69515   -147.31384   -3171.8826 
10910000    250.66162   -3902.9026   -3473.2771   -3902.9026            0    1024.5432    17.856139    21.032173    21.784448    8181.2237    1562.1021    1413.5387    97.988723    716.15782   -620.06313   -278.49825    -3351.034 
10911000    238.49354   -3959.0613   -3550.2916   -3959.0613            0    2345.7942    17.840375    21.013605    21.765216    8159.5744    2237.9847    3428.9761    1370.4219    458.52321    279.13799   -73.165119   -3271.1443 
10912000    243.48954   -3954.4238   -3537.0911   -3954.4238            0   -340.03187    17.932507    21.122124    21.877616    8286.6425   -738.35739   -1184.9445    903.20624    183.55101   -489.57588    431.85127   -3578.1847 
10913000    255.29405   -3949.3527   -3511.7874   -3949.3527            0    2744.7318    17.819551    20.989077    21.739811    8131.0357    2975.5581    2661.4809    2597.1566    210.62266   -161.53084    354.57533   -3186.3094 
10914000    239.11911   -3937.1545   -3527.3126   -3937.1545            0    3240.9704    17.904399    21.089017    21.843325    8247.7374    2615.6747    2935.2318    4172.0046    1029.9828    253.26501    319.42426   -3137.4731 
10915000     251.1449   -3923.7657   -3493.3119   -3923.7657            0      1507.85    17.917387    21.104316    21.859171    8265.7001    2929.3026    57.360887    1536.8866    637.42304    456.50188   -356.90842   -3311.5455 
10916000    249.52638   -3904.4898   -3476.8101   -3904.4898            0     926.1587    18.050324    21.260898    22.021354    8451.0491    1577.4234     319.9646    881.08813    231.96781    341.29479    610.40068   -3362.6612 
10917000    229.05686   -3901.9051   -3509.3095   -3901.9051            0    784.55192    17.933683     21.12351    21.879052    8288.2737    809.72932    1323.6515    220.27488    491.08999   -485.72593    272.49181    -3414.476 
10918000    260.56878   -3906.9079   -3460.3019   -3906.9079            0    813.89511    17.930708    21.120005    21.875421    8284.1485    1793.5962      799.438   -151.34892    642.92129     160.1948    -188.6346   -3361.9705 
10919000     259.2743   -3904.1219   -3459.7347   -3904.1219            0   -602.82666    18.007561    21.210528    21.969182    8391.1261   -705.07851   -566.86486   -536.53661   -996.54214    495.89868   -384.90498   -3533.5061 
10920000    257.34867   -3901.8089   -3460.7221   -3901.8089            0    3190.7699    17.917529    21.104483    21.859344    8265.8966    2102.8186    3853.1715    3616.3196     678.5313   -861.01041   -198.65702    -3076.076 
10921000    249.38007   -3909.9208   -3482.4919   -3909.9208            0    376.06896    17.961376    21.156128    21.912837    8326.7285    1550.4701   -528.66806    106.40489   -455.99128    533.48253   -366.09228   -3436.8233 
10922000    272.22653   -3977.6991   -3511.1122   -3977.6991            0    1555.0707    18.027513    21.234029    21.993524     8419.049    2016.8368     1168.564    1479.8113   -1422.2198   -773.32482    369.34813   -3320.1756 
10923000    245.26175   -3910.9278   -3490.5576   -3910.9278            0    1478.6854    17.960826    21.155481    21.912166    8325.9637    1971.3255    47.896021    2416.8348    -366.2225    267.81839   -1554.0263   -3311.0073 
10924000    242.68405   -3912.9818   -3497.0296   -3912.9818            0    1021.9769    17.901653    21.085782    21.839974    8243.9428    1583.7548    499.77996    982.39603   -732.30603    273.39933   -346.73876   -3374.1579 
10925000    260.26193   -3916.6654   -3470.5854   -3916.6654            0    1889.4581    17.951697    21.144728    21.901029    8313.2748    2416.5775    901.16069    2350.6361    769.33249    141.86772    961.86162   -3241.5064 
10926000    251.82537    -3923.503   -3491.8829    -3923.503            0    1018.1225    17.830112    21.001516    21.752695    8145.5006    817.73065    855.10306    1381.5337   -80.857104   -560.53398    566.98064   -3370.9363 
10927000    237.15274   -3836.0713   -3429.5996   -3836.0713            0    2183.6704    17.763522    20.923083    21.671456    8054.5788    2132.4595    2220.4898     2198.062    1112.4037   -719.62813   -337.29424   -3173.0887 
10928000    258.47983   -3888.0155   -3444.9899   -3888.0155            0    2260.3463    17.782394    20.945311    21.694479    8080.2773    1410.2633    1859.0757    3511.6998    1201.5111   -499.47546   -1158.1407   -3178.6249 
10929000    241.22053   -3884.7897   -3471.3459   -3884.7897            0   -604.61331    17.828493     20.99961     21.75072    8143.2822    1113.3552   -1269.9148   -1657.2803    949.95026    653.90714   -778.33824   -3543.1507 
10930000    253.72574   -3907.7451   -3472.8679   -3907.7451            0    1557.5203     17.86798    21.046121    21.798894    8197.5108    910.36482    1669.1732    2093.0228     214.7669   -91.597068    1027.5382   -3286.6628 
10931000    264.87778   -3930.9775    -3476.986   -3930.9775            0    1947.6254    17.861842    21.038891    21.791406    8189.0655    3650.7904    2647.6941   -455.60833    80.190197    693.64321   0.59968445   -3244.3829 
10932000    263.42499   -3906.4301   -3454.9287   -3906.4301            0    1085.3006     17.90608    21.090997    21.845375    8250.0605   -632.10373     2613.926    1274.0797   -417.31522    123.10919    1.7276711   -3324.3467 
10933000    249.22373   -3910.5154   -3483.3544   -3910.5154            0    993.10663    17.799779    20.965788    21.715689    8103.9996    1082.6979   -210.02767    2106.6496    404.59153   -376.70791   -202.15719   -3365.9806 
10934000    261.80457   -3937.6773   -3488.9533   -3937.6773            0    420.66731    17.852601    21.028006    21.780132    8176.3616   -1245.4139    792.91595    1714.4998   -677.66532    90.676276    -2253.809   -3438.7913 
10935000    249.57726   -3881.1786   -3453.4117   -3881.1786            0    513.84057    17.874163    21.053403    21.806437    8206.0227    986.61086   -480.84042    1035.7513    420.91134    949.43145   -432.50079   -3391.9171 
10936000    254.23453   -3916.0249   -3480.2757   -3916.0249            0    1766.5168    17.733207    20.887376    21.634471    8013.4117    2068.2573    1010.6292    2220.6637    800.54869    237.86326    8.6424973   -3273.8275 
10937000     242.0937   -3928.4995   -3513.5592   -3928.4995            0    1365.9615    17.786533    20.950186    21.699528    8085.9207    403.78084     1958.632    1735.4715    232.39468   -1055.5296   -139.94269   -3352.4784 
10938000    258.31947   -3918.1309   -3475.3802   -3918.1309            0    1983.0181    17.833826    21.005892    21.757227    8150.5928    4229.6954   -188.12332    1907.4822    912.33427    351.53579    660.22701   -3239.6627 
10939000    242.31514   -3945.7909   -3530.4711   -3945.7909            0    967.32216    17.767148    20.927353    21.675879    8059.5117    1776.0535   -587.95613    1713.8691    224.54916    243.85701    129.52546   -3416.7723 
10940000    256.25214   -3905.7256   -3466.5182   -3905.7256            0    1114.5966    17.897789    21.081231    21.835261    8238.6062   -880.45824    2355.9104    1868.3378     324.1681    1892.1931   -857.93745   -3332.5976 
10941000    261.43849   -3949.3113   -3501.2147   -3949.3113            0    922.83533    17.867344    21.045371    21.798118    8196.6348    1062.3859    470.39104     1235.729    90.148049    2101.3849     424.3685   -3390.8994 
10942000    256.49189   -3935.6413    -3496.023   -3935.6413            0     2288.321     17.85138    21.026568    21.778642    8174.6844    3016.8834    1335.7669    2512.3128    307.10445    241.84638    2208.3679   -3223.2107 
10943000    247.39885   -3918.1285   -3494.0954   -3918.1285            0    255.51139    17.908892    21.094309    21.848806    8253.9476    236.18089    708.76764   -178.41437    261.11875    131.03081   -116.16341   -3463.3381 
10944000    258.23501   -3932.2494   -3489.6435   -3932.2494            0    2582.3082      17.8661    21.043906    21.796601    8194.9236    1486.9247    3421.8197    2838.1802    728.60996   -970.78402    161.41108   -3181.0201 
10945000    248.64809   -3944.6678   -3518.4934   -3944.6678            0    2289.5989    17.873641    21.052788      21.8058     8205.304    1742.7822     3107.818    2018.1967    313.12188    2246.2069    38.277515   -3244.5064 
10946000    246.72912   -3902.2611   -3479.3758   -3902.2611            0   -445.58646    17.932786    21.122453    21.877957    8287.0294   -1637.6388    1490.5662   -1189.6867   -1051.0812   -141.85083   -32.164824   -3533.2284 
10947000    246.64764   -3883.4107   -3460.6651   -3883.4107            0    1412.1869    17.842661    21.016298    21.768005    8162.7118    227.08663    1621.0022    2388.4719   -951.43705     1441.217    229.30252   -3292.5516 
10948000    253.79915   -3916.0933   -3481.0902   -3916.0933            0    1937.0265    17.929285     21.11833    21.873686    8282.1774    1957.0677    1421.1024    2432.9094    1159.2095   -691.68654    1394.5049   -3247.1225 
10949000    256.36805    -3886.518    -3447.112    -3886.518            0    1102.0845    17.987194    21.186538    21.944334    8362.6868    2649.3975    1335.6415   -678.78562   -1697.3725   -948.01008   -175.28164   -3312.7004 
10950000    247.45874   -3915.7182   -3491.5824   -3915.7182            0    2534.7439    17.878828    21.058897    21.812128    8212.4494    3242.0799    3005.9086    1356.2432    -140.2528   -424.68102    462.72926   -3187.9957 
10951000     253.6127    -3925.096   -3490.4126    -3925.096            0   -139.32031    17.949847    21.142549    21.898772    8310.7049    316.08928    803.92815   -1537.9784   -588.02909   -28.271313   -507.36175   -3507.2986 
10952000    259.60438   -3908.4105   -3463.4575   -3908.4105            0    613.38325    17.924414    21.112592    21.867743    8275.4278   -1074.1489    1057.9107     1856.388    44.706109    627.47745    521.44346   -3389.4291 
10953000    239.15207   -3924.5724   -3514.6739   -3924.5724            0    1452.2136    17.836164    21.008645    21.760078    8153.7982    1931.8095    945.93185    1478.8995    1076.3261    108.18977    -582.8439   -3341.9842 
10954000    247.97754   -3936.4127   -3511.3877   -3936.4127            0    2439.3038    17.792079    20.956719    21.706295    8093.4878    1771.8359    3191.9462    2354.1294   -2192.4485   -103.96697   -996.48758    -3223.464 
10955000    236.77732   -3918.3493   -3512.5211   -3918.3493            0    482.81196    17.826634     20.99742    21.748452    8140.7352    669.89111    1247.7928   -469.24799   -1343.3696   -768.15538   -559.35195   -3455.1996 
10956000    246.33159   -3938.0603   -3515.8564   -3938.0603            0    2013.4571    17.762585    20.921979    21.670312    8053.3039    1852.9447    2990.8765    1196.5502    591.13872   -283.71855   -624.62974   -3279.3775 
10957000    241.50607   -3885.0546   -3471.1215   -3885.0546            0    2608.5904    17.796324    20.961718    21.711473     8099.281    3319.3869    3577.6037     928.7806    -260.1722   -559.10256    312.52074   -3162.9955 
10958000    260.30974   -3901.4583   -3455.2963   -3901.4583            0    1003.7503    17.744192    20.900314    21.647873    8028.3123    2484.0098    905.49322   -378.25199    -219.5967    946.99059   -99.638732   -3337.7725 
10959000    250.36384   -3896.7157   -3467.6007   -3896.7157            0    1987.8201     17.76037     20.91937     21.66761    8050.2917    765.99391    2461.7922    2735.6742    902.70754    82.305297    591.03888   -3234.2201 
10960000     264.5061     -3896.19   -3442.8356     -3896.19            0    1166.0514    17.887221    21.068784    21.822368    8224.0211    1673.3444    1064.2397    760.57024     -560.829    100.52246   -513.15836   -3302.9807 
10961000    235.29261   -3893.2122   -3489.9288   -3893.2122            0    2244.9233    17.836925    21.009542    21.761007    8154.8425    3001.3911    159.61762    3573.7611    678.59578     694.0316   -748.27459     -3222.94 
10962000    255.21092   -3912.3563   -3474.9336   -3912.3563            0   -165.92567     17.78924    20.953375    21.702831    8089.6138   -1611.7353    1289.8308   -175.87246   -1022.2017    398.79182   -36.362198   -3494.5093 
10963000    262.83324   -3892.5928   -3442.1056   -3892.5928            0    2235.2187    17.762934     20.92239    21.670738     8053.779    3326.0331    1350.2069    2029.4161   -56.401938    183.31376    269.92057   -3179.5656 
10964000    242.58177   -3872.4476   -3456.6707   -3872.4476            0    526.02283    17.823992    20.994308    21.745228    8137.1162    866.52015   -540.75599    1252.3043    102.25119    21.487052    739.21842   -3394.2468 
10965000    238.45426   -3927.9163   -3519.2138   -3927.9163            0    1213.3878    17.735741     20.89036    21.637563    8016.8471     2429.739    761.00472    449.41961    39.968421    881.56023   -133.60655   -3377.3476 
10966000    247.00843   -3911.8806   -3488.5166   -3911.8806            0    251.65288    17.831482     21.00313    21.754366    8147.3783    132.63986    764.92849   -142.60971   -858.57884     128.2899    174.39553    -3458.615 
10967000    229.48155   -3883.9927   -3490.6692   -3883.9927            0    525.81755    17.846017     21.02025    21.772099    8167.3182    619.58908    348.03248    609.83109    283.29562   -336.46399    788.15297   -3428.0381 
10968000    247.54392   -3879.7272   -3455.4454   -3879.7272            0    667.00235    17.805457    20.972476    21.722616    8111.7576    1610.2415    725.03695   -334.27141   -13.469804   -141.55009     20.07043   -3376.5379 
10969000    264.85914   -3902.8464   -3448.8868   -3902.8464            0    991.01338    17.811816    20.979966    21.730374    8120.4514    1831.2032   -732.07326    1873.9103    395.92693   -605.50217    91.544907   -3331.5227 
10970000    258.46715   -3931.9952   -3488.9913   -3931.9952            0     1748.168    17.815624    20.984452     21.73502    8125.6617    1130.1897    1988.5785    2125.7359   -227.04652    -757.7067    674.21442   -3281.8257 
10971000     258.1066   -3939.0833   -3496.6975   -3939.0833            0    2245.1699    17.757312    20.915769     21.66388    8046.1347    3705.4199    1659.9487    1370.1412   -71.424789    24.837038     348.0533   -3233.2389 
10972000    241.86592   -3908.0918   -3493.5419   -3908.0918            0    2107.3974    17.737394    20.892307    21.639579    8019.0892    1306.4114     2307.654     2708.127    508.18583    1073.1523   -118.07263   -3247.0814 
10973000    246.13051   -3923.1645   -3501.3052   -3923.1645            0    4232.2255    17.801741    20.968099    21.718082    8106.6796    5014.0732    4296.3979    3386.2055   -1888.2493   -611.82744    767.78084   -3000.9393 
10974000    241.51236   -3893.1188   -3479.1749   -3893.1188            0    2514.5358    17.813666    20.982146    21.732631    8122.9829    1151.9555    3416.9588    2974.6931   -844.34272    9.4450371    777.56768   -3181.2895 
10975000    243.96577   -3922.7543   -3504.6053   -3922.7543            0    1617.2685    17.814236    20.982818    21.733327    8123.7627    1283.6106     1405.233    2162.9619   -1860.1455     12.35811   -377.45098   -3312.9966 
10976000    246.74977   -3904.2927    -3481.372   -3904.2927            0    2495.7919    17.842555    21.016173    21.767875    8162.5658    1486.7632    2787.1769    3213.4355    196.13022    2261.1352     206.6964   -3184.2663 
10977000    263.67103   -3883.9075   -3431.9844   -3883.9075            0    1744.4062    17.900456    21.084373    21.838515      8242.29    2856.2447    239.56672    2137.4071    155.18232   -67.967111   -555.99061   -3222.2974 
10978000    254.91279   -3916.1846   -3479.2728   -3916.1846            0    1036.3968    17.815223     20.98398    21.734531    8125.1127     522.3712     1320.738    1266.0812   -500.39612     232.8511   -444.80355   -3356.4635 
10979000    262.63957   -3914.5304   -3464.3752   -3914.5304            0     2004.259    17.822878    20.992997     21.74387    8135.5914    3539.1647    642.71657    1830.8958    1205.5875    1372.5999   -71.375396   -3226.5714 
10980000    255.34017   -3887.1633    -3449.519   -3887.1633            0    934.16005     17.73505    20.889547     21.63672    8015.9105    1115.7968    45.760799    1640.9226    -513.1295    2114.2143    28.528346   -3340.3121 
10981000    261.96519   -3908.0271   -3459.0277   -3908.0271            0    2341.2745    17.765208    20.925068    21.673512    8056.8716    2662.0644    2589.0847    1772.6743   -447.15235   -1285.9554    47.247471   -3183.9251 
10982000    247.51788   -3900.1233   -3475.8861   -3900.1233            0    323.46104    17.936014    21.126255    21.881895     8291.505     2367.874   -282.58442   -1114.9064   -680.44181   -1340.0986   -512.41318   -3436.7722 
10983000    244.55581   -3924.0824   -3504.9221   -3924.0824            0    3911.2474    17.789654    20.953862    21.703336    8090.1776    4711.4081     4098.825    2923.5093   -283.71787   -1659.3899   -363.43724    -3043.446 
10984000    255.63655   -3920.0559   -3481.9036   -3920.0559            0    1045.2853     17.89056    21.072717    21.826442    8228.6276    932.26371    1550.3856     653.2066   -1066.2376   -165.40021    729.80324    -3356.463 
10985000    236.18748    -3920.925   -3516.1077    -3920.925            0    727.36663    17.911949    21.097909    21.852535    8258.1752    1090.4257   -656.13186     1747.806   -533.90089    28.355363    224.27804   -3428.5058 
10986000    245.28864   -3927.7244    -3507.308   -3927.7244            0    472.91212    17.836865    21.009471    21.760934    8154.7596    562.80307    671.25442    184.67888   -692.69224    225.61291    -301.6932   -3451.0652 
10987000    253.67873   -3933.2477    -3498.451   -3933.2477            0    1156.8279    17.831334    21.002957    21.754186    8147.1765    908.28131    1317.3977    1244.8046    385.39375    653.45219   -605.35275   -3360.9988 
10988000    251.88239   -3923.1108    -3491.393   -3923.1108            0     915.0456    17.929692    21.118809    21.874183    8282.7413    115.06241    2656.0441   -25.969727    671.74809    61.990689   -728.81653   -3380.8598 
10989000    240.86373   -3913.9552   -3501.1231   -3913.9552            0    277.30903    17.947116    21.139332     21.89544    8306.9122    534.62984    596.50854   -299.21128   -620.35234    179.94266   -24.806543   -3467.5277 
10990000    255.09416    -3945.445   -3508.2223    -3945.445            0   -249.66157    17.918205    21.105279    21.860168    8266.8317   -1421.0124    304.19237    367.83531    559.03479   -655.04464   -1088.0187   -3538.3223 
10991000     242.7541   -3940.0384   -3523.9662   -3940.0384            0   -88.375451    18.008556      21.2117    21.970396    8392.5176    825.36202   -530.29048    -560.1979    201.61849     353.4514     583.2768    -3534.783 
10992000    253.23868   -3915.2942   -3481.2517   -3915.2942            0    555.52452    17.887989    21.069688    21.823305    8225.0802    -747.2406    1288.0785    1125.7356   -329.87308   -1771.7034    117.45794   -3414.6141 
10993000    266.75609    -3915.579   -3458.3682    -3915.579            0    952.74962    17.862357    21.039497    21.792034    8189.7736    1252.0664    1991.6016   -385.41915    934.52189    271.49862    259.89375   -3344.5724 
10994000    248.47675   -3897.9529   -3472.0722   -3897.9529            0    1720.5145    17.819455    20.988964    21.739694    8130.9043    324.09011      2572.11    2265.3433   -1097.5135    323.63603   -533.05538   -3268.0521 
10995000    260.68269   -3889.1185   -3442.3173   -3889.1185            0    780.43878    17.825119    20.995636    21.746604      8138.66    462.08156    664.51725    1214.7175   -791.83194    307.76129   -152.67599   -3349.6839 
10996000    254.97756   -3909.7686   -3472.7458   -3909.7686            0    781.37801    17.760028    20.918967    21.667193    8049.8269    2004.3628   -1833.3937    2173.1649   -78.741835   -424.71229   -644.94356   -3381.0132 
10997000    249.12246   -3910.4126   -3483.4253   -3910.4126            0    1738.1506    17.797678    20.963314    21.713126     8101.131     2368.327    1186.6996    1659.4253   -725.91491   -322.88306   -1441.5104   -3278.0685 
10998000    261.51966    -3895.217   -3446.9813    -3895.217            0     1858.389    17.843038    21.016741    21.768464    8163.2285    2460.9588     898.1634    2216.0448   -562.49077   -706.89864    728.27495   -3225.7357 
10999000     241.8768   -3911.4964   -3496.9279   -3911.4964            0    2495.2782    17.764696    20.924465    21.672888    8056.1758     1856.372    2444.7742    3184.6885     1815.684   -980.50128    61.598334    -3203.755 
11000000    261.13585   -3895.4532   -3447.8753   -3895.4532            0    2031.2822    17.775432    20.937111    21.685986    8070.7909    3064.3577    1690.0668    1339.4221    561.36683    33.753154    880.90643   -3208.7848 
Loop time of 457.218 on 64 procs for 250000 steps with 864 atoms

Performance: 94.484 ns/day, 0.254 hours/ns, 546.785 timesteps/s
99.0% CPU use with 64 MPI tasks x 1 OpenMP threads

MPI task timing breakdown:
Section |  min time  |  avg time  |  max time  |%varavg| %total
---------------------------------------------------------------
Pair    | 20.636     | 22.886     | 24.968     |  21.7 |  5.01
Bond    | 0.26627    | 0.27608    | 0.29201    |   0.8 |  0.06
Kspace  | 212.02     | 220.58     | 228.66     |  28.7 | 48.24
Neigh   | 4.23       | 5.1136     | 6.3642     |  25.8 |  1.12
Comm    | 84.727     | 96.792     | 105.59     |  51.5 | 21.17
Output  | 1.6063     | 1.615      | 1.6327     |   0.9 |  0.35
Modify  | 98.509     | 101.08     | 106.92     |  16.6 | 22.11
Other   |            | 8.867      |            |       |  1.94

Nlocal:        13.5000 ave          18 max           7 min
Histogram: 1 3 6 5 9 5 11 10 5 9
Nghost:        2020.33 ave        2071 max        1970 min
Histogram: 3 6 2 12 9 9 10 7 4 2
Neighs:        3821.31 ave        5398 max        1985 min
Histogram: 2 2 7 7 10 9 11 9 4 3

Total # of neighbors = 244564
Ave neighs/atom = 283.06019
Ave special neighs/atom = 2.0000000
Neighbor list builds = 12590
Dangerous builds = 0

unfix		3
unfix		2
unfix		1

write_data	data.final.${pid}
write_data	data.final.0
System init for write_data ...
PPPM initialization ...
  extracting TIP4P info from pair style
  using 12-bit tables for long-range coulomb (../kspace.cpp:340)
  G vector (1/distance) = 0.37201695
  grid = 24 24 25
  stencil order = 5
  estimated absolute RMS force accuracy = 0.0033301977
  estimated relative force accuracy = 1.0028792e-05
  using double precision FFTW3
  3d grid and FFT values/proc = 2730 288
Last active /omp style is kspace_style pppm/tip4p/omp
WARNING: Not all mixed pair coeffs generated from mixing. Use write_data with 'pair ij' option to store all pair coeffs. (../write_data.cpp:312)

write_restart   restart.lmp.${pid}
write_restart   restart.lmp.0
System init for write_restart ...
PPPM initialization ...
  extracting TIP4P info from pair style
  using 12-bit tables for long-range coulomb (../kspace.cpp:340)
  G vector (1/distance) = 0.37201695
  grid = 24 24 25
  stencil order = 5
  estimated absolute RMS force accuracy = 0.0033301977
  estimated relative force accuracy = 1.0028792e-05
  using double precision FFTW3
  3d grid and FFT values/proc = 2730 288
Last active /omp style is kspace_style pppm/tip4p/omp
Total wall time: 0:07:40
