LAMMPS (30 Jul 2021)
Processor partition = 1
  using 4 OpenMP thread(s) per MPI task
using multi-threaded neighbor list subroutines
variable        pid world 0 1
variable        phase world IceII IceIh

shell cd ${phase}
shell cd IceIh
include Restart.lmp
echo both
log log.lammps
#include		in.partitions
include		in.temp
variable        temperature equal 7.60
variable	tempDamp equal 100.0
include		in.pressure
variable        pressure equal 1992.4
variable        pressureDamp equal 1000.0 # This is 1 ps
include		in.seed
variable        seed equal 745823

units		real
atom_style	full
#include		in.box
read_restart	restart.lmp.${pid}
read_restart	restart.lmp.1
Reading restart file ...
  restart file = 30 Jul 2021, LAMMPS = 30 Jul 2021
  restoring atom style full from restart
  orthogonal box = (0.14766933 0.18289779 0.19249896) to (18.059903 23.446280 22.020697)
  2 by 4 by 2 MPI processor grid
  restoring pair style lj/cut/tip4p/long/omp from restart
  restoring bond style harmonic/omp from restart
  restoring angle style harmonic/omp from restart
  864 atoms
  576 bonds
  288 angles
Finding 1-2 1-3 1-4 neighbors ...
  special bond factors lj:    0        0        0       
  special bond factors coul:  0        0        0       
     2 = max # of 1-2 neighbors
     1 = max # of 1-3 neighbors
     1 = max # of 1-4 neighbors
     2 = max # of special neighbors
  special bonds CPU = 0.001 seconds
  read_restart CPU = 0.004 seconds
include 	in.setup
variable	out_freq equal 1000
variable	out_freq2 equal 10000
variable	out_freq3 equal 1000

timestep	2.0

neigh_modify    delay 7 every 1

include		in.tip4p
# This is TIP4P/Ice

# create groups ###
group ox type 2
288 atoms in group ox
group hy type 1
576 atoms in group hy

# set charges - beside manually ###
set group ox charge -1.1794
Setting atom values ...
  288 settings made for charge
set group hy charge 0.5897
Setting atom values ...
  576 settings made for charge

# ### TIP3P Potential Parameters ###
pair_style lj/cut/tip4p/long/omp 2 1 1 1 0.1577 8.5
pair_coeff 1 1*2 0.000 0.000
pair_coeff 2 2 0.21084 3.1668
bond_style  harmonic
bond_coeff  1 450 0.9572
angle_style harmonic
angle_coeff 1 55 104.52
kspace_style pppm/tip4p/omp 1.0e-5
pair_modify tail yes

thermo          ${out_freq}
thermo          1000
thermo_style    custom step temp pe etotal epair emol press lx ly lz vol pxx pyy pzz pxy pxz pyz enthalpy

restart 	${out_freq3} restart.lmp.${pid} restart2.lmp.${pid}
restart 	1000 restart.lmp.${pid} restart2.lmp.${pid}
restart 	1000 restart.lmp.1 restart2.lmp.${pid}
restart 	1000 restart.lmp.1 restart2.lmp.1


include         in.dump
dump            myDump all atom ${out_freq2} dump.water.${pid}
dump            myDump all atom 10000 dump.water.${pid}
dump            myDump all atom 10000 dump.water.1
dump            myDump2 all dcd ${out_freq2} dump.dcd
dump            myDump2 all dcd 10000 dump.dcd
dump_modify     myDump append yes
dump_modify     myDump2 append yes


variable natoms 	equal  "count(all)"                        # NUMBER ATOMS
variable H      	equal  "enthalpy/v_natoms"                 # ENTHALPY-per-atom
variable Vol      	equal  "vol/v_natoms"                 # volume-per-atom
fix AVG all 		ave/time ${out_freq} 1 ${out_freq} v_Vol v_H file vol_enthalpy.dat
fix AVG all 		ave/time 1000 1 ${out_freq} v_Vol v_H file vol_enthalpy.dat
fix AVG all 		ave/time 1000 1 1000 v_Vol v_H file vol_enthalpy.dat


timer           timeout 23:50:00 every 1000
New timer settings: style=normal  mode=nosync  timeout=23:50:00

fix 		1 all shake 1e-6 200 0 b 1 a 1
Finding SHAKE clusters ...
       0 = # of size 2 clusters
       0 = # of size 3 clusters
       0 = # of size 4 clusters
     288 = # of frozen angles
  find clusters CPU = 0.000 seconds
fix             2 all nph aniso ${pressure} ${pressure} ${pressureDamp}
fix             2 all nph aniso 1992.4 ${pressure} ${pressureDamp}
fix             2 all nph aniso 1992.4 1992.4 ${pressureDamp}
fix             2 all nph aniso 1992.4 1992.4 1000
fix             3 all temp/csvr ${temperature} ${temperature} ${tempDamp} ${seed}
fix             3 all temp/csvr 7.6 ${temperature} ${tempDamp} ${seed}
fix             3 all temp/csvr 7.6 7.6 ${tempDamp} ${seed}
fix             3 all temp/csvr 7.6 7.6 100 ${seed}
fix             3 all temp/csvr 7.6 7.6 100 745823


run             250000
PPPM initialization ...
  extracting TIP4P info from pair style
  using 12-bit tables for long-range coulomb (../kspace.cpp:340)
  G vector (1/distance) = 0.37227757
  grid = 24 27 25
  stencil order = 5
  estimated absolute RMS force accuracy = 0.0030921102
  estimated relative force accuracy = 9.311798e-06
  using double precision FFTW3
  3d grid and FFT values/proc = 6300 1296
Last active /omp style is kspace_style pppm/tip4p/omp
Neighbor list info ...
  update every 1 steps, delay 7 steps, check yes
  max neighbors/atom: 2000, page size: 100000
  master list distance cutoff = 10.8154
  ghost atom cutoff = 10.8154
  binsize = 5.4077, bins = 4 5 5
  1 neighbor lists, perpetual/occasional/extra = 1 0 0
  (1) pair lj/cut/tip4p/long/omp, perpetual
      attributes: half, newton on, omp
      pair build: half/bin/newton/omp
      stencil: half/bin/3d
      bin: standard
Setting up Verlet run ...
  Unit style    : real
  Current step  : 46750000
  Time step     : 2
  Walltime left : 23:49:59.96
Per MPI rank memory allocation (min/avg/max) = 12.26 | 12.29 | 12.31 Mbytes
Step Temp PotEng TotEng E_pair E_mol Press Lx Ly Lz Volume Pxx Pyy Pzz Pxy Pxz Pyz Enthalpy 
46750000    8.0094679   -4726.4196   -4712.6916   -4726.4196            0     2008.037    17.912234    23.263382    21.828198    9095.7913    1960.6145    2000.3177    2063.1788     28.43534   -16.766714   -73.579644   -4446.3199 
46751000    7.8572815   -4727.1922   -4713.7251   -4727.1922            0    2041.1838     17.91858    23.205174    21.868935    9093.1857     1886.487    2250.6268    1986.4375    120.64365   -29.433001    202.78558   -4443.0339 
46752000    7.5058292    -4726.426   -4713.5612    -4726.426            0    2026.1585      17.8354    23.271913    21.907551    9093.0331    2164.8383    1957.4947    1956.1424    50.985891    26.069106   -48.991963   -4444.8672 
46753000    7.7809116   -4727.3874   -4714.0511   -4727.3874            0    1968.5416    17.850585    23.303696    21.872429    9098.5938    1910.3587    1980.1184    2015.1477    -91.69471    90.724248    14.178145   -4452.8382 
46754000    7.1425443   -4727.5991   -4715.3571   -4727.5991            0    1976.6143    17.896778    23.289783     21.82768     9098.041    1878.8962    1993.9288    2057.0179    76.372097   -44.087545    126.79136   -4453.0888 
46755000     7.890505   -4726.9826   -4713.4586   -4726.9826            0    1995.7482    17.907539    23.185695    21.906997    9095.7575    1902.6064    2216.5872     1868.051   -92.397759    33.861495    71.413059    -4448.718 
46756000     7.790489    -4726.658   -4713.3054    -4726.658            0    1952.7697    17.915117    23.202178    21.889333    9098.7332    1867.2373     2015.241    1975.8309    2.1714567    79.872797    147.60802   -4454.1812 
46757000    7.9365839   -4727.9597   -4714.3566   -4727.9597            0    1938.4078    17.860615    23.343583    21.828047    9100.7842    2049.2881    1720.4623     2045.473   -19.287475   -126.80579    19.453856   -4457.0803 
46758000    7.4957523    -4726.331   -4713.4835    -4726.331            0    1954.8315    17.863345    23.303032    21.858193    9098.9123    2107.0048    2020.6122    1736.8775   -32.876407    56.228507    3.6170969   -4454.0807 
46759000    7.8475692   -4726.5068   -4713.0564   -4726.5068            0    1994.8819    17.890311    23.233826    21.882513    9095.6936     1985.906    1993.7381    2005.0015   -168.06629    17.425874    158.01163   -4448.4326 
46760000    7.4202506   -4726.5456   -4713.8275   -4726.5456            0    1969.1782    17.931642    23.224587    21.840322     9095.511    1859.7475    2006.1266    2041.6607    -310.5003   -44.793232    38.975251   -4452.6186 
46761000    7.4652544   -4726.6319   -4713.8367   -4726.6319            0    1992.7483    17.883537    23.254786    21.874587    9097.1558    2031.5407    1921.3233    2025.3809    28.319294    27.179362    78.949111   -4449.4535 
46762000    7.8852485   -4726.0636   -4712.5486   -4726.0636            0    2032.1617    17.868982    23.272224    21.868509    9094.0405    1967.7165     1952.102    2176.6667   -15.843516   -52.959438    132.05495   -4443.0285 
46763000    7.7697766   -4726.0935   -4712.7764   -4726.0935            0    2013.6159    17.833318    23.300962    21.887875    9095.1444     2179.563    1899.6021    1961.6826   -251.70608   -120.78123   -62.934713   -4445.6836 
46764000    7.8488142   -4728.0357   -4714.5831   -4728.0357            0    1925.6464    17.862363    23.300951    21.853907    9095.8159    2019.6568    1833.9375     1923.345   -25.093168    36.570584    64.804352   -4459.1401 
46765000    7.8034198   -4727.4185   -4714.0437   -4727.4185            0    1977.6017    17.906258    23.223855     21.87063    9094.9524    1867.9293    1985.3235    2079.5523   -149.03392   -53.686458    41.010252   -4451.7335 
46766000    7.7115246    -4726.898   -4713.6807    -4726.898            0    1991.4433    17.944996    23.185747    21.862042    9096.0986    1867.8061    1996.0326    2110.4912   -186.06209   -22.967459    138.88362   -4449.5013 
46767000     7.726883    -4726.977   -4713.7334    -4726.977            0    1990.5074    17.846636    23.328345    21.845934    9095.1716      1933.07    2025.3239    2013.1284   -68.919668   -7.9859577    25.940714    -4449.705 
46768000    7.2774237   -4727.3834   -4714.9101   -4727.3834            0    1965.2041    17.845006    23.284006    21.893999    9097.0274    2026.1349    1878.3457    1991.1318   -68.434463    2.7573174   -41.618207   -4454.1849 
46769000    7.4609825   -4726.7678   -4713.9799   -4726.7678            0    1979.1384    17.909783     23.26123    21.838407    9097.9586    1880.0389    1986.7251    2070.6513   -66.132619    -80.18603    120.65163   -4451.3791 
46770000    7.3278726   -4727.0045   -4714.4448   -4727.0045            0    2004.8564    17.924705    23.224849    21.849751    9096.0198    1885.6218    2051.2901    2077.6573      7.30404   -16.499175    37.148685   -4448.4883 
46771000    7.5419411   -4727.4338   -4714.5071   -4727.4338            0    1962.0113    17.879696    23.272812    21.861805    9096.9332    2017.4055    1942.4346    1926.1937    60.593871    60.639457   -19.642964   -4454.2082 
46772000    7.6136886   -4726.0123   -4712.9627   -4726.0123            0    2013.6914    17.812481     23.32552    21.888183      9094.22     2235.857     1805.288    1999.9292    42.288778   -2.8415416      24.5143    -4445.887 
46773000    7.7192132   -4727.9319   -4714.7015   -4727.9319            0    1993.3814    17.868265    23.268667     21.87777    9096.1358    2169.9067    1783.2914    2026.9461   -9.2670731   -54.342703    50.491324   -4450.2638 
46774000    8.0834126   -4726.1696   -4712.3149   -4726.1696            0    2028.8209    17.887234    23.268382    21.854513    9096.0014    1997.8002    1946.5707    2142.0918    59.889844    37.210205   -42.348682   -4443.1799 
46775000    7.0914069   -4725.9016   -4713.7471   -4725.9016            0    1930.1929    17.953245    23.199639    21.852554    9101.7809    1792.4552    2013.8841    1984.2394   -51.802684    35.480206    124.44448   -4457.5331 
46776000    7.9068785   -4726.3482   -4712.7961   -4726.3482            0    1993.6987     17.85971    23.287377     21.86773    9094.9156    1969.5742    1989.9627    2021.5592   -183.11627   -61.117723   -39.977797   -4448.3518 
46777000    7.7472517   -4726.6341   -4713.3556   -4726.6341            0    1948.3442    17.849368    23.309123    21.863035    9096.1842    2066.7177    1883.1254    1895.1896   -240.40805   -72.954559    122.42134   -4454.8911 
46778000    7.6177349   -4727.0924   -4714.0358   -4727.0924            0    2031.2024     17.84833    23.269093    21.900354    9095.5333    2085.0126    1955.8361    2052.7585     164.6943    58.837335    111.33271   -4444.5988 
46779000    7.2681317   -4727.5129   -4715.0555   -4727.5129            0    1986.5486    17.907365    23.282128    21.819308    9096.9405    1868.7088    1934.5319    2156.4049   -222.32187   -176.25721     161.0333    -4451.501 
46780000    7.9534519   -4726.7629    -4713.131   -4726.7629            0    1982.6513    17.906784     23.22471    21.863537    9092.6049    1960.9394    2015.3097    1971.7048   -87.067884    51.623249    129.59095   -4450.2189 
46781000     7.833486   -4726.3962   -4712.9699   -4726.3962            0    2014.4565    17.908844    23.275044    21.816895    9093.9172    2078.1189    2052.8354    1912.4152   -105.48377   -19.700209   -125.56076   -4445.8017 
46782000    7.5871406   -4726.3142   -4713.3101   -4726.3142            0    1983.6661    17.845628    23.294865    21.889653    9099.7805    2188.3206    1780.9515    1981.7262   -220.85075   -15.351498    210.87526   -4450.0558 
46783000    7.4815745   -4726.4961   -4713.6729   -4726.4961            0    1975.2985    17.838438    23.321189    21.869438    9097.9831    2036.1206    1873.3806    2016.3943   -18.186281    218.23808   -26.980509   -4451.5809 
46784000    7.4309313   -4727.2386   -4714.5022   -4727.2386            0    1980.5084    17.911578    23.212631    21.873228    9094.3384    1872.9971    2085.1003    1983.4278   -84.646658   -102.21679     50.88799   -4451.8242 
46785000    7.0224698   -4726.9571   -4714.9208   -4726.9571            0    1981.5187    17.953719     23.19713    21.840615    9096.0647    1855.4687    2134.1694    1954.9179   -198.26267    -44.81913    112.61808   -4452.0589 
46786000     7.134727   -4726.6853   -4714.4567   -4726.6853            0    2026.6304    17.894592    23.258369    21.855176    9096.1028    1975.6308    2103.0617    2001.1986   -53.219229   -50.044818   -49.193581   -4445.6093 
46787000    7.6892897   -4726.7495   -4713.5703   -4726.7495            0    1999.3706    17.835831    23.325287    21.868424    9097.8304    2155.5103    1937.2548    1905.3468   -93.173629   -2.9564744     225.7647   -4448.2887 
46788000     7.575502    -4726.651   -4713.6668    -4726.651            0    2042.5147    17.840151    23.311276    21.863366    9092.4639    2106.7006    2029.9375     1990.906    40.144108   -6.9621845     45.69734   -4442.8207 
46789000    7.2278755   -4725.8955   -4713.5072   -4725.8955            0    2022.7431    17.905873    23.242511    21.850798    9093.8095    1968.8214    2124.9197    1974.4883    47.685222    75.428222   -0.1638883   -4445.2432 
46790000    7.3743624   -4726.5192   -4713.8798   -4726.5192            0    2065.2177    17.933651    23.151005    21.899656    9092.3439    1985.1138    2288.3474    1922.1918    -148.9352   -104.61789    149.24554   -4440.0268 
46791000    7.4917889   -4726.7837    -4713.943   -4726.7837            0    2011.5528     17.87233    23.246502    21.894813    9096.6192    2000.8515    2150.7116    1883.0954    54.267757    154.89434   -40.600804   -4447.0807 
46792000    7.4530907   -4726.6511   -4713.8768   -4726.6511            0    2012.5861    17.849493    23.285021    21.878968    9093.4639    2037.3205    2065.0945    1935.3433    161.01836    49.808964    300.75739   -4446.9699 
46793000    7.6167973   -4726.4455   -4713.3906   -4726.4455            0    2016.1262    17.887884    23.277023    21.850825    9098.1739    2075.8821    2025.7813    1946.7153    -188.7924   -177.17884     91.43589   -4445.8757 
46794000    7.5878369   -4726.5543    -4713.549   -4726.5543            0    1964.2437    17.919665    23.222874    21.851143    9093.2684    1751.4028    2091.8548    2049.4735   -39.034585    24.509934   -22.459374   -4453.0589 
46795000     7.217319   -4727.7884   -4715.4181   -4727.7884            0    1944.1834    17.931535    23.196306     21.87935    9100.6142    1762.5061     2054.831    2015.2132    65.499258    73.306821    118.83879   -4457.3801 
46796000    7.7101009   -4726.5515   -4713.3367   -4726.5515            0    2027.2141    17.868082    23.261191    21.875937    9092.3584     2091.592    2060.1842    1929.8662    88.886668   -81.751508   -6.9088303   -4444.5226 
46797000    7.5697185   -4727.5005   -4714.5263   -4727.5005            0    1910.1113    17.846516    23.301735    21.876206    9097.3255    2005.5077    1710.0149    2014.8113    78.331366     15.94338     252.6235   -4461.1019 
46798000    7.5209818   -4726.8198   -4713.9291   -4726.8198            0    1979.7153    17.849234     23.28735    21.883592    9096.1635    2064.8052    1871.9239    2002.4168    45.057778   -20.407085   -88.218591   -4451.3036 
46799000    7.9277295   -4727.0238    -4713.436   -4727.0238            0    2012.1686    17.929978    23.226154    21.842115    9096.0273    1799.2285    2118.2136    2119.0636   -40.911519    14.159865    56.572029   -4446.5093 
46800000    7.5515365   -4727.0029   -4714.0598   -4727.0029            0    2032.4654    17.908346    23.196471    21.884753    9091.1548    1891.5031    2186.2276    2019.6656   -181.48758   -40.716057    207.44133    -4444.585 
46801000    7.7366077   -4726.1351   -4712.8748   -4726.1351            0    2022.8198    17.860761    23.270999    21.879199    9093.8208    2029.0855    2036.5102    2002.8637   -58.781977    -94.75264    71.733985   -4444.6003 
46802000    7.6332213   -4727.0411   -4713.9581   -4727.0411            0    1960.0471     17.83067    23.291778    21.907285    9098.2704    2163.0088    1719.4467    1997.6859   -126.28078    31.288232    148.69055   -4453.8815 
46803000    7.5814324   -4727.3932   -4714.3989   -4727.3932            0    2023.7928    17.868722    23.291774    21.847881     9092.962    2006.3981    1950.1418    2114.8385   -180.56257   -118.88174    122.84009   -4446.0206 
46804000    7.8732989   -4726.8774   -4713.3828   -4726.8774            0    1989.1412    17.943896    23.161083     21.89136    9098.0507    1845.7799    2226.5223    1895.1214   -198.70802    45.494599    95.562359   -4449.4522 
46805000    7.2860533   -4726.5168   -4714.0288   -4726.5168            0    2020.4892    17.929501    23.223816    21.847817    9097.2435    1954.2921    2019.0525    2088.1229   -203.52833    4.1687258    10.239931   -4445.9625 
46806000    7.7460352   -4726.0791   -4712.8027   -4726.0791            0    1970.3812    17.855875    23.285578    21.879215    9097.0357    1954.0756    1906.8136    2050.2543   -401.13885    11.988011    143.82933   -4451.3904 
46807000    7.7160031   -4726.9361   -4713.7111   -4726.9361            0    2024.8369    17.874699    23.312662    21.824422    9094.3853    2110.4668    1934.0513    2029.9925   -151.30963    13.468728   -23.232556   -4445.1524 
46808000    7.4843605   -4726.6272   -4713.7993   -4726.6272            0    2018.8782    17.883971    23.269044    21.856356    9095.3671    2139.0015    1989.7758    1927.8575     -311.192   -31.921256    104.41414   -4446.0019 
46809000    7.6914087   -4726.7241   -4713.5413   -4726.7241            0    2013.4135    17.928972    23.196764    21.869553    9095.4191    1850.4558    2074.4475    2115.3372    -94.73528   -93.598304    20.484968   -4446.4673 
46810000     7.155758   -4726.7641   -4714.4994   -4726.7641            0     2041.832    17.899663    23.186623    21.907823    9092.4636    2117.2915    2119.9975    1888.2072    123.79693    6.4617528    98.809768   -4443.7438 
46811000    7.4605037   -4726.7966   -4714.0096   -4726.7966            0     2013.445    17.869054    23.272402    21.869706    9094.6446    2130.7766    1967.1994    1942.3589     -139.367   -88.396267    102.70048   -4446.9542 
46812000    7.5855296   -4726.5145   -4713.5131   -4726.5145            0    1950.7808    17.850077    23.346428    21.829227    9097.0151    2096.2469    1801.1639    1954.9316   -211.57404   -11.966765    81.072004   -4454.7018 
46813000    8.1122802   -4726.5223   -4712.6182   -4726.5223            0    1957.8321    17.888442    23.264739     21.85936    9097.2084    1966.0615    2030.0274    1877.4075   -72.653797    90.318834    44.276208   -4452.8658 
46814000    7.3733994    -4726.321   -4713.6832    -4726.321            0     1963.666    17.922625    23.201655    21.885356    9100.6876    1883.4178    2008.9702    1998.6099   -61.623075   -125.24339   -16.440573   -4453.0573 
46815000    7.2024953   -4727.2413   -4714.8965   -4727.2413            0    1998.8897    17.888306    23.239378    21.883316    9097.1812    2010.9106    1960.0744    2025.6842    -90.49653   -40.499231    143.08645   -4449.6977 
46816000     7.827489   -4726.7792   -4713.3631   -4726.7792            0    1952.0895    17.880956    23.296993    21.842169    9098.8468    2032.8869    1795.3736     2028.008   -66.218611    32.337451    34.574053    -4454.326 
46817000    7.2433316   -4727.5552   -4715.1403   -4727.5552            0    1972.6891    17.858712     23.30173    21.869638    9100.8069    2118.2697    1926.7118    1873.0857   -189.20794   -13.685698    125.51903   -4453.3133 
46818000    7.6037555   -4726.8935   -4713.8609   -4726.8935            0    2029.7344    17.867503    23.252375    21.892813    9095.6294     2103.225    2048.5475    1937.4306   -128.89672   -96.496375    77.131508   -4444.6158 
46819000    7.2535221   -4727.4159   -4714.9836   -4727.4159            0    2013.8032    17.912385    23.222769    21.867037    9096.1448    1994.2548    2168.5955    1878.5594   -156.60987   -6.2331457   0.65387982   -4447.8367 
46820000     7.673798   -4727.1835   -4714.0308   -4727.1835            0     2008.248    17.913761    23.215723    21.862607    9092.2406    2017.4734    2112.1543    1895.1162     24.39852   -70.761826    115.38736   -4447.7351 
46821000     7.770076   -4727.3213   -4714.0037   -4727.3213            0    1974.1842    17.836138    23.307156    21.872574    9092.6403    2075.1191    1848.8502    1998.5835    -126.8945   -75.493239    34.594572   -4452.2133 
46822000      8.20327   -4726.2268   -4712.1667   -4726.2268            0    1999.3273     17.83595    23.297482    21.889703    9095.8881    2048.6342    1886.9201    2062.4277    1.8376479   -46.964717   -16.198676   -4446.9475 
46823000    7.5787953   -4727.5365   -4714.5467   -4727.5365            0     1984.033    17.886532     23.27086    21.853546    9096.2104    1912.4804    1962.0833    2077.5354   -139.13681   -106.24138    132.02631   -4451.3471 
46824000    7.3416273   -4726.6441   -4714.0608   -4726.6441            0    1993.9504    17.926113    23.244533    21.825972    9094.5362    1807.3915    2037.5176    2136.9422    -127.4199    54.751789    40.168298   -4449.5942 
46825000    7.5388292   -4726.6893    -4713.768   -4726.6893            0    1981.5511    17.911229    23.190575    21.898189    9095.8878    1889.2354    2191.9792    1863.4386    -16.12107   -86.076396    94.770763   -4450.9069 
46826000     7.391626   -4726.8968   -4714.2278   -4726.8968            0    2012.8786    17.860359    23.289017    21.872073    9097.6933    2064.6492    2025.9051    1948.0815   -86.896602    52.458695    96.903362    -4447.158 
46827000    7.5494571    -4727.117   -4714.1775    -4727.117            0    2035.5423    17.837383    23.323921    21.858584    9093.9954    2063.8672    1867.5054    2175.2545    -70.90702   -44.348817   -42.144753   -4444.2104 
46828000    7.8355255   -4726.1138    -4712.684   -4726.1138            0    2012.3293    17.898633    23.259582    21.838355    9091.6288    1945.5146    1975.0187    2116.4545   -16.565285    79.583814    101.81831   -4445.8651 
46829000    7.7501847    -4727.318   -4714.0345    -4727.318            0    2010.3957    17.922341    23.183715    21.883451    9092.7149    1886.3643    2125.5343    2019.2886   -209.71301   -30.504956   -29.985582   -4447.4401 
46830000    7.9128972   -4726.5097   -4712.9473   -4726.5097            0    1996.0883    17.893811    23.257689     21.84848    9092.6532    2057.6012    1997.5505    1933.1133   -188.01253   -56.354928    119.48997    -4448.252 
46831000    7.6057401   -4726.8999   -4713.8639   -4726.8999            0    1995.0201    17.864584    23.278471    21.877974    9098.1785    1985.9047    1932.7216    2066.4339    40.513412   -62.530007    48.361179   -4449.1495 
46832000    7.5914942   -4727.4392   -4714.4277   -4727.4392            0     2009.916    17.877779    23.255243    21.878094    9095.8631    2121.3699     2078.275     1830.103   -49.947538     39.95849   -47.978394   -4447.8046 
46833000    7.0847633   -4726.9391   -4714.7961   -4726.9391            0    1984.6273     17.88189    23.256633    21.859154    9090.6224    1909.2392    2204.4292    1840.2134    83.054611   -58.761595    108.23707   -4451.6794 
46834000    7.9812204   -4726.1986   -4712.5191   -4726.1986            0    2044.0434     17.91954    23.225258    21.856559    9096.3927    1872.2514     2144.432    2115.4469   -260.63621   -59.126745   -52.969088   -4441.3531 
46835000    7.5393891   -4726.5999   -4713.6776   -4726.5999            0    2018.3926    17.891874    23.216664    21.897586    9096.0298      1995.56    2059.3125    2000.3052    228.55215   -1.0510585    88.220956   -4445.9252 
46836000    7.6428189   -4727.2554   -4714.1559   -4727.2554            0    1944.3975    17.895474    23.257844    21.863991     9100.015    1898.9792    1932.3938    2001.8195    7.4150963   -32.438044    115.45178   -4456.1064 
46837000    7.7146159   -4727.5551   -4714.3325   -4727.5551            0    1986.7017    17.824915    23.329822    21.872219    9095.6079    2112.4702    1841.3224    2006.3124   -114.92955   -130.87583     38.64784   -4450.7963 
46838000    7.5650695   -4725.9074   -4712.9411   -4725.9074            0    2038.8139    17.908415    23.253184    21.852257    9099.8846    2052.9035     2116.712    1946.8262    91.351201    25.760888    114.08118   -4442.3651 
46839000    7.1207217   -4727.0981   -4714.8934   -4727.0981            0    2027.9171    17.908969    23.193667    21.888185     9091.798    2008.8192    2188.2435    1886.6888   -99.794622    38.350748     135.3837   -4446.0027 
46840000    7.7305555   -4727.1204   -4713.8705   -4727.1204            0    1978.8917    17.890574    23.281586    21.840697    9097.1079    1941.2632    1982.0494    2013.3626     43.25853    51.535011    48.210172    -4451.327 
46841000     7.452258   -4727.2429     -4714.47   -4727.2429            0    1981.3757    17.852357    23.276748    21.883116    9093.4154    2127.0392    2006.7444    1810.3437   -190.48561   -29.756515    49.781778   -4451.7037 
46842000    7.7999009   -4726.6832   -4713.3145   -4726.6832            0    2008.9988    17.828011    23.295571    21.898428    9094.7173    2132.1066    1931.7125    1963.1773    -99.40624  0.096259156    119.17512   -4446.8466 
46843000    7.6105763   -4727.5161   -4714.4718   -4727.5161            0    1989.6516    17.907402     23.24106    21.857408     9096.769    1917.7979    2026.4808     2024.676    22.480178   -64.414007    32.028972   -4450.5106 
46844000    7.5980227   -4727.3015   -4714.2788   -4727.3015            0     1983.979    17.938112    23.238598    21.817097    9094.6004    1883.4782    2008.6871    2059.7716   -97.768693    72.246223    83.874882   -4451.1329 
46845000    7.3263434   -4726.4071     -4713.85   -4726.4071            0    2056.4395    17.922502    23.233648    21.838225    9093.5484    1984.7795    2126.9967    2057.5424    -6.478248    86.856044    85.257846   -4441.1248 
46846000    7.7307442   -4726.5708   -4713.3206   -4726.5708            0    1983.4911    17.828382    23.258929    21.939595    9097.6716    2073.2981    1977.6751    1899.5001    84.367667   -177.83139    89.080233   -4450.1506 
46847000    7.8060656   -4727.1772   -4713.7979   -4727.1772            0    1931.4477    17.852426      23.2884    21.887831    9099.9629    2014.4186    1920.1176    1859.8067   -107.20026    65.513211    46.884241   -4457.4685 
46848000    7.3147326   -4727.1737   -4714.6365   -4727.1737            0    2089.6706    17.904775    23.243804    21.851423    9094.0178     2051.014    2133.2497     2084.748   -77.853749   -132.81623    15.144439   -4437.4899 
46849000    7.8197138   -4727.0942   -4713.6915   -4727.0942            0    1909.7976    17.912608    23.212749    21.885172    9099.8735    1798.6474    2006.2812    1924.4641   -75.914395   -42.474027    162.33894   -4460.2378 
46850000    7.2852921    -4727.338   -4714.8513    -4727.338            0    1978.8126    17.871096    23.274509    21.865851    9094.9038    2057.0336    1952.0768    1927.3275   -183.17526   -80.151218    55.381827   -4452.3819 
46851000    7.6361392   -4727.9961    -4714.908   -4727.9961            0    1950.7453     17.83237    23.332941    21.861832    9096.3065    2068.2444      1918.18    1865.8116    83.471487   -1.3788338    16.609774   -4456.1215 
46852000    7.4859157   -4726.1607   -4713.3301   -4726.1607            0    2011.0303    17.827068    23.305034    21.897917     9097.718    2075.1426    2015.7077    1942.2405   -180.23621   -107.38471    96.852555   -4446.5048 
46853000    7.5365917   -4726.3005    -4713.383   -4726.3005            0    1982.4891    17.861299    23.304333    21.849845    9094.9031    2011.3257    1828.5646    2107.5769   -33.428008    74.622124   -37.908623    -4450.426 
46854000    7.3924738   -4726.5889   -4713.9185   -4726.5889            0    1991.1455    17.916829    23.217604    21.860734    9093.7556    1898.8734    2134.5386    1940.0246    -73.56634   -47.399453    185.26325   -4449.8466 
46855000     7.588711   -4726.5541   -4713.5473   -4726.5541            0      2026.35    17.903958    23.224297    21.878014     9097.028    1830.9535    1992.9692    2255.1273   -91.813642    1.8472892    26.979764   -4444.7098 
46856000    7.1898208   -4726.9523   -4714.6292   -4726.9523            0     1996.239    17.867296    23.290407    21.860702    9097.0381    2026.4315    1951.7724     2010.513   -47.210361   -16.031942    39.074822   -4449.7862 
46857000    7.5288481   -4727.3275   -4714.4233   -4727.3275            0    1961.4592    17.831097    23.299006    21.903822    9099.8732    1954.5478    1905.6783    2024.1514   -45.313453   -68.006602     164.9152   -4454.1135 
46858000    7.5410601   -4726.8451     -4713.92   -4726.8451            0    1965.8577    17.926525    23.215273     21.86531    9099.6682    1913.7141    2072.3646    1911.4946   -58.589997    126.05292   -49.517547   -4453.0323 
46859000    7.3930888    -4726.521   -4713.8495    -4726.521            0    2027.3911     17.91259    23.190044    21.890869      9093.33    1888.5994    2192.8953    2000.6787   -32.687731   -129.27871    233.96543   -4444.9832 
46860000    7.5683381   -4727.1469    -4714.175   -4727.1469            0    1949.7768    17.897324    23.274921     21.83012    9093.5288    1866.4153    1928.1803    2054.7347   -319.76161   -144.01213   -132.27097    -4455.596 
46861000     7.801684   -4727.1125   -4713.7407   -4727.1125            0    2005.6468    17.859426    23.278518    21.874102    9093.9602    2075.1414    1960.0908    1981.7083   -36.886444   -1.2788862    103.22126   -4447.7396 
46862000    7.5351053   -4726.5773   -4713.6624   -4726.5773            0    1950.8312     17.82292    23.295198    21.912586    9097.8527    2002.4014    1981.5318    1868.5604    66.242575   -26.817117    143.51231   -4454.8206 
46863000    7.7109473   -4727.4342   -4714.2179   -4727.4342            0    2055.4162    17.896533    23.225168    21.876148    9092.8208    2132.8858    2150.1497    1883.2131   -250.84673   -122.67816    133.12518   -4441.6503 
46864000    7.8536513   -4726.3959    -4712.935   -4726.3959            0    1968.1573    17.948438     23.21149    21.831927     9095.399    1815.8555    2039.6265    2048.9899   -77.922959     19.53625    79.201094   -4451.8647 
46865000    7.6858685   -4726.4563    -4713.283   -4726.4563            0     1998.279    17.848064    23.295409    21.871889    9093.8493    2052.9551    1933.0238    2008.8579   -191.93482   0.98298351    40.592422   -4448.2623 
46866000    7.5465872   -4727.1928   -4714.2582   -4727.1928            0    1971.3218    17.846494     23.28753    21.899734    9101.5462    2149.0173    1894.0951    1870.8529   -184.56174    52.090157    26.499751   -4452.5914 
46867000    7.3471959   -4727.3926   -4714.7998   -4727.3926            0    1995.5023    17.846928    23.291598    21.890749    9099.6225     2150.113    1946.1197    1890.2743    90.989854   -89.268376    55.316831   -4449.9793 
46868000    7.4299519   -4727.3082   -4714.5735   -4727.3082            0    2001.3096    17.909203     23.24576    21.845377    9094.5151    1850.6016    2079.9918    2073.3355   -127.27579    51.308055   -39.909699   -4449.1315 
46869000    7.4288477   -4726.2787   -4713.5459   -4726.2787            0    2019.1993    17.931409    23.237251    21.829459    9095.8255     1799.663    2167.8681    2090.0668    14.533974   -51.555273    81.236822   -4445.6925 
46870000     7.410764   -4727.2906   -4714.5888   -4727.2906            0     2017.804    17.894911    23.237792     21.87784    9097.6421    2012.7826    2061.2128    1979.4167   -156.70604   -38.124642    63.378219    -4446.867 
46871000    7.5235924   -4727.1828   -4714.2876   -4727.1828            0    1969.7925    17.840546    23.297818    21.894383     9100.308    2085.0975    1960.5297    1863.7504   -233.01537    38.010014    85.040086   -4452.8594 
46872000      7.91221   -4726.5607   -4712.9995   -4726.5607            0    2027.9795    17.830873     23.31538    21.871074      9092.54    2164.3975    1837.6371    2081.9038   -98.954491    2.8504899    66.361789   -4444.0785 
46873000    7.2725084   -4727.8287   -4715.3638   -4727.8287            0    1971.5336    17.897142    23.254091    21.856103    9096.1113    1966.6462     1991.009    1956.9456   -185.56154    16.637023    22.939485   -4453.8252 
46874000    7.8200127   -4726.4573    -4713.054   -4726.4573            0    2016.7454     17.93199    23.180753    21.881562    9095.6629    1822.1224    2135.8481    2092.2658   -189.51721    7.7636213   -13.919251   -4445.5309 
46875000    8.4851827   -4727.3305   -4712.7872   -4727.3305            0     1963.084    17.919632    23.220565     21.86656    9098.7627    1946.6229    1973.4176    1969.2115   -168.73493   -65.967936    6.0655682   -4452.2935 
46876000    7.4022688   -4726.7452   -4714.0579   -4726.7452            0    1998.6218     17.86641    23.295802    21.852172    9095.1442    2170.7218     1829.721    1995.4224   -140.34505    33.805784    -39.88706   -4448.9541 
46877000    7.6395919   -4726.6254   -4713.5314   -4726.6254            0     1954.015     17.82889    23.343368    21.858582    9097.2428    2116.3903    1886.9786     1858.676    34.780722     43.92161    194.36146   -4454.2845 
46878000    7.5798364   -4726.6205    -4713.629   -4726.6205            0    2016.4759    17.908258    23.231334    21.869163    9098.2876    1981.7343    2027.0865     2040.607   -239.88237   -49.492115   -34.148595   -4446.0644 
46879000    8.0495858   -4726.7625   -4712.9658   -4726.7625            0    1962.3044    17.914839    23.206869    21.877123    9095.3549    1849.0245    2136.9916    1900.8971    -53.89983   -101.30087   -22.726925   -4452.6731 
46880000    7.4359765   -4727.4345   -4714.6895   -4727.4345            0    1939.2914    17.919626    23.200755    21.874125    9094.1425    1836.9545    1967.0474    2013.8723   -41.446507    111.75728    67.389684   -4457.4837 
46881000    7.7260568   -4728.0858   -4714.8436   -4728.0858            0     1996.823    17.867103    23.291131    21.857282    9095.7993    2027.4122    1881.8697    2081.1871    181.94826   -181.91548    76.512527   -4449.9592 
46882000    7.8112192   -4726.4482   -4713.0601   -4726.4482            0    2023.9027    17.843803    23.317418    21.855288    9093.3607    2074.4333      1914.62    2082.6546   -95.873671    -90.68573    13.749052   -4444.6555 
46883000    7.4102138   -4727.0443   -4714.3434   -4727.0443            0    2004.6342    17.870964    23.273361    21.859556    9091.7699    1962.1292    1985.3112    2066.4621   -143.18607   -10.473719    22.477801   -4448.5407 
46884000    7.3152829   -4727.3148   -4714.7767   -4727.3148            0     1918.421    17.895164    23.230575    21.879098    9095.4679     1752.114    2005.1399    1998.0092    132.63142    13.657944    237.97488   -4460.3018 
46885000    7.1921621   -4727.5768   -4715.2497   -4727.5768            0    1992.2731    17.926882    23.228182    21.839039    9093.9699    1820.5044    1997.6728     2158.642    -136.8434    52.061431    20.464939    -4451.022 
46886000    7.3521678   -4726.4202   -4713.8188   -4726.4202            0     2009.333    17.849624    23.305525    21.864691    9095.5991    2136.1057    1880.6504    2011.2428   -246.31995   -56.572963    51.931323   -4447.2808 
46887000    7.5375912   -4727.4032    -4714.484   -4727.4032            0    1966.1858    17.833967    23.301621    21.888333    9095.9233    2037.0082    1886.5561    1974.9932   -30.758018    30.750156    55.541695   -4453.6602 
46888000    7.5230374   -4726.7772    -4713.883   -4726.7772            0    2012.2439    17.885184    23.236454    21.887369    9096.1334    1977.2008    2101.0719    1958.4589    -61.68859   -70.373289    21.999762   -4446.9432 
46889000     7.181413    -4727.673   -4715.3643    -4727.673            0    1997.9431    17.912345    23.236727    21.859939    9098.6371    1888.5048    2048.4574    2056.8672   -61.833701   -63.286871    135.73832   -4450.2486 
46890000    7.3996202   -4727.0013   -4714.3186   -4727.0013            0    1975.4921    17.914083    23.236295    21.859297    9099.0836    1972.5998    1955.9689    1997.9076   -103.44856    12.527036    8.5181405   -4452.1692 
46891000    7.6003358   -4727.8999   -4714.8732   -4727.8999            0     1997.971     17.85903    23.275123    21.879462    9094.6604    2016.8162    1956.8244    2020.2723    -188.2528   -95.434968    23.116218   -4449.8697 
46892000    7.4082204   -4727.1866   -4714.4892   -4727.1866            0    2007.0917    17.848517    23.343484    21.825273    9093.4253    2218.4023     1867.094    1935.7787    112.73209   -40.462089    134.26552   -4448.3121 
46893000    7.2636478   -4727.1398   -4714.6901   -4727.1398            0    1970.6218    17.894427    23.259629    21.865722     9100.901    1960.7771    1940.5068    2010.5815   -187.54659   -1.2227913    -11.51833   -4453.1348 
46894000    7.5357395   -4726.8638   -4713.9478   -4726.8638            0    2004.7758    17.941006    23.175456    21.873018    9094.6037    1986.8252    2061.6784    1965.8238   -109.50199    70.605002      155.009   -4448.0434 
46895000    7.8721086   -4726.6642   -4713.1717   -4726.6642            0    1947.4415    17.881523    23.244095    21.887038    9097.1244    1942.9076    1975.2764    1924.1405   -68.054028   -6.8979928   -39.966039   -4454.8003 
46896000    7.3769117   -4727.3003   -4714.6566   -4727.3003            0    2001.9265     17.85011    23.330275     21.83716    9094.0412    1992.7352    1872.8421    2140.2023   -111.11966   -120.86616    49.706632   -4449.1465 
46897000    7.1846126   -4727.5679   -4715.2537   -4727.5679            0    1949.0922    17.863595    23.283895    21.879191    9100.3012    2048.0651    1715.9516      2083.26    145.33197    28.719967    62.481013    -4456.573 
46898000    7.1672758   -4727.1279   -4714.8434   -4727.1279            0    1968.4954    17.875543    23.252914    21.881831    9095.3684    2012.7352    1956.3219    1936.4291   -63.268253   -117.60672    34.112913   -4453.7292 
46899000    8.0899362   -4726.9315   -4713.0656   -4726.9315            0    1931.8021    17.895575    23.225963    21.888265    9097.6816    1731.6853     2020.417    2043.3039   -16.676411    23.771285      152.236   -4456.7535 
46900000    7.5641391   -4727.3907    -4714.426   -4727.3907            0    1957.0127     17.90187    23.252033    21.854063    9096.8602    1902.9741    1943.4145    2024.6496   -24.930255    57.160449    48.345712   -4454.7923 
46901000    7.4160518    -4726.164   -4713.4531    -4726.164            0    1958.4919    17.893922    23.268606    21.844642    9095.3798    1941.8046     2065.298     1868.373   -5.2458521   -8.6312328    125.21174   -4453.6655 
46902000    7.2869262   -4727.3652   -4714.8757   -4727.3652            0      1959.16    17.833842    23.281132    21.909609    9096.6951    2013.5341    1884.7999    1979.1459    103.01736   -16.157717   -72.179415   -4454.9619 
46903000    7.5114598   -4726.7026   -4713.8282   -4726.7026            0    2024.5256    17.888147    23.234007    21.883809    9095.2032    2058.0057    1972.9107    2042.6604   -125.26681    27.309098    184.57752   -4445.2866 
46904000    7.3551077   -4727.4557   -4714.8493   -4727.4557            0    1966.0617    17.945294    23.197362    21.839442    9091.3985    1765.9146    2200.8885    1931.3821   -45.477306   -81.328345    84.202324   -4454.1716 
46905000    7.3136893   -4726.7773   -4714.2419   -4726.7773            0    2051.6939    17.901326    23.233202    21.861328    9092.2383    1917.8732    2079.4862    2157.7222   -68.534401   -27.664854   -20.552628   -4442.1853 
46906000    7.3664728   -4728.5837   -4715.9578   -4728.5837            0     1934.871    17.864228    23.299413    21.858396    9098.0334    2189.7973    1866.2965    1748.5193    163.45423    23.670086    222.24538   -4459.2285 
46907000     7.210839   -4726.7463   -4714.3871   -4726.7463            0    1984.2423    17.843495    23.281263    21.901914    9098.4732    2050.4568    1953.6817    1948.5884   -225.44974   -101.63078   -82.620121   -4451.0943 
46908000    7.8538423   -4727.8508   -4714.3895   -4727.8508            0     2021.577    17.882942    23.268789    21.854803    9094.0983    2078.2706    1886.9398    2099.5206   -177.49365    185.21823    83.931975   -4446.2716 
46909000    7.3178441   -4726.5109   -4713.9683   -4726.5109            0    2009.3515    17.932493     23.19276    21.865692    9094.0286    1909.8833    2135.5168    1982.6545   -12.944465   -14.011671    19.997361   -4447.4739 
46910000    7.7330177   -4726.3781   -4713.1239   -4726.3781            0    2002.0469    17.892878    23.246344    21.870272    9096.8085     2066.611    1957.6589    1981.8707   -156.51787   -84.394794    67.017365   -4447.5171 
46911000    7.1502542   -4727.2557   -4715.0004   -4727.2557            0    1999.7791    17.866891    23.289086    21.853748    9093.4225    2029.9775    2028.9213    1940.4384    44.027385    104.87654    197.22492   -4449.7932 
46912000    6.9282408   -4726.2968    -4714.422   -4726.2968            0    2092.5193    17.844432    23.284467        21.88    9091.0982    2219.3343    2048.5223    2009.7014    219.34912    -175.7829    11.274014   -4436.9867 
46913000    7.5174836   -4727.0362   -4714.1515   -4727.0362            0    2029.8036    17.917318    23.245119    21.838033    9095.3263    2004.0742    2035.4768    2049.8597      200.961   -65.361921    136.40073   -4444.9062 
46914000    7.5404206    -4727.648    -4714.724    -4727.648            0     2007.105    17.935829    23.220978      21.8491    9099.8769    1991.9319    2149.5256    1879.8575   -238.42418   -96.674687    141.92316   -4448.3563 
46915000    7.3899334    -4726.902   -4714.2359    -4726.902            0    2005.9955    17.897421    23.239345    21.862805    9093.2724    1935.5933    2035.1604    2047.2329   -242.35306   -25.043094   -44.022902   -4448.2087 
46916000    7.6121509   -4726.5249    -4713.478   -4726.5249            0    2069.6191    17.835121    23.294363    21.889584    9094.1983    2148.8324    2030.8627    2029.1623   -60.597253    20.189011    166.10608   -4438.9853 
46917000    7.3185843   -4727.1055   -4714.5617   -4727.1055            0    2014.6478    17.844552    23.286028    21.885974    9094.2515    2117.2562    1970.1117    1956.5755   -248.55114   -95.947106   -49.637548   -4447.3583 
46918000    7.8106598   -4726.2847   -4712.8975   -4726.2847            0    2018.1315    17.898191    23.242263    21.870123    9097.8499    1852.6537    2112.1506    2089.5902    8.9714874   -26.413646    115.58029   -4445.1262 
46919000    7.6402819   -4726.2054   -4713.1103   -4726.2054            0    2020.0426    17.954702    23.176714     21.84821    9091.7171    1720.2293    2159.2589    2180.6395   -147.73368   -26.898804    172.04413    -4445.266 
46920000    7.4566305   -4726.8283   -4714.0479   -4726.8283            0    2058.7684    17.891455    23.248323    21.864623    9094.5095    2000.3384    2147.7463    2028.2206     36.39223   -66.662605    61.698353    -4440.985 
46921000    7.5046061   -4726.8871   -4714.0245   -4726.8871            0    2042.7981    17.872633     23.27834    21.854651    9092.5233    2117.2414    1962.3292    2048.8235    25.784096    24.364574     94.11004    -4443.139 
46922000    7.3524484   -4726.8932   -4714.2914   -4726.8932            0    1982.6497    17.857157    23.300278    21.863534    9096.9078    1999.1769    1966.5155    1982.2565   -34.260769   -142.90592    -2.598726   -4451.2551 
46923000     7.618775   -4727.5555   -4714.4972   -4727.5555            0    1960.9734    17.888782    23.231155    21.887936     9096.124    1970.0345    2097.7853    1815.1004   -29.726599    217.27779    140.92566   -4454.3591 
46924000     7.393352   -4726.9851   -4714.3132   -4726.9851            0    2099.8839    17.934416    23.209989    21.840585    9091.3091    1995.8861     2169.971    2133.7946    90.369571   -117.50323    79.603038    -4435.895 
46925000    7.8357174   -4726.5608   -4713.1306   -4726.5608            0     2055.932    17.911418    23.197234    21.877025     9089.802    2020.5547    2136.3838    2010.8574    3.1718044    38.939392    185.98745   -4440.5851 
46926000    7.3986864   -4726.7708   -4714.0897   -4726.7708            0     2024.233    17.858573    23.279867    21.875847    9094.7785    2110.9694    2045.6739    1916.0559   -194.91275   -84.809228   -7.1846682   -4445.5994 
46927000    7.7605494   -4726.6053   -4713.3039   -4726.6053            0    1974.8509    17.854074    23.298023     21.87694    9100.0333     2118.829    1772.6362    2033.0875    36.685338   -89.294556    113.03137   -4451.2123 
46928000      7.79828    -4726.796     -4713.43    -4726.796            0    1991.4982    17.901353    23.254608    21.849318    9095.6295    1909.1319    2031.5804    2033.7823    152.66085    44.142878   -81.197807   -4449.2569 
46929000     7.683645   -4727.1885    -4714.019   -4727.1885            0    2027.1267    17.915867    23.221167    21.861288    9094.8932    1888.9096    2115.7698    2076.7006    -93.34216   -142.41332    56.204165   -4445.1415 
46930000    7.2709894   -4726.6017   -4714.1395   -4726.6017            0    1998.0545    17.886179    23.263195     21.87108    9100.3301    2060.0743    1863.1616    2070.9275    10.115064    153.82993    62.001431   -4448.9598 
46931000    7.6861754   -4726.9404   -4713.7666   -4726.9404            0    1987.8747    17.844642    23.327065    21.857232    9098.3597    2103.0433    1787.9477     2072.633   -99.710817    93.697849    49.872161    -4449.995 
46932000    7.6574522   -4726.3034   -4713.1788   -4726.3034            0    1982.2777    17.850965     23.31553    21.848011    9093.2449    2062.5578    1862.1607    2022.1145    68.152182   -164.90579    128.76665   -4450.2978 
46933000    7.3344404   -4727.0987   -4714.5277   -4727.0987            0    2006.1283    17.885277    23.233144    21.889497     9095.769    2097.6469    2089.0557    1831.6824   -362.34736    179.76851   -4.3778339   -4448.4099 
46934000    7.5971074   -4728.0482    -4715.027   -4728.0482            0    1989.5819    17.930613    23.223341    21.846851    9097.2199    1869.4792    2114.4067    1984.8597   -73.650826   -191.82752    85.327148    -4451.062 
46935000    7.8812231   -4726.8979   -4713.3897   -4726.8979            0    2010.6861    17.861767    23.283145    21.872035    9096.1006     2013.192    2025.7003    1993.1659      10.9473     11.18648    -36.45521   -4446.6576 
46936000    7.8225377   -4727.0183   -4713.6108   -4727.0183            0    1993.0089    17.826744    23.325867    21.875843    9096.5061     2092.521    1917.7699    1968.7357   -43.685166      68.4228    120.71343   -4449.2118 
46937000    7.4443793   -4727.0175   -4714.2581   -4727.0175            0    2001.3423     17.83996    23.271168    21.904528    9093.8119    2205.1605    1927.5057    1871.3607   -18.627401   -180.65224    79.273888   -4448.8322 
46938000     8.113625   -4726.7899   -4712.8835   -4726.7899            0    1979.8366    17.894679    23.233131    21.886715     9099.389    1920.7628    1958.7943    2059.9527   -253.92017    93.534747   -112.53752   -4450.1487 
46939000    7.4484173   -4727.3798   -4714.6135   -4727.3798            0    2020.1338    17.911121    23.216657    21.870021    9094.3498     1979.422    2139.1675    1941.8119   -42.655147   -75.967058    9.6076879   -4446.6796 
46940000    8.0375797   -4726.7851    -4713.009   -4726.7851            0    1965.6815     17.88825     23.25727    21.865233    9096.6336    2056.8502    1921.2905    1918.9039     -174.997    2.7002056   -41.089834   -4452.2317 
46941000    7.7049627   -4727.3031    -4714.097   -4727.3031            0    1981.7778    17.836482    23.311818    21.880161    9097.7886    2167.7405    1787.3514    1990.2414    5.9697668    191.61699    111.70086    -4451.151 
46942000     7.375821   -4726.4578   -4713.8159   -4726.4578            0    1996.7967    17.866951    23.288318    21.865915    9098.2159    1959.1973    1915.3362    2115.8566    232.49208   -206.24017    17.968627   -4448.8647 
46943000    7.5788849   -4726.7744   -4713.7845   -4726.7744            0    1994.1037    17.936392    23.207486    21.843777    9092.6591    1751.4884    2148.2743    2082.5484    1.5454694   -2.7176315   -39.225097   -4449.3522 
46944000    7.9063886   -4726.7173    -4713.166   -4726.7173            0    1954.0407    17.917432     23.22888    21.856473    9096.7052    1885.1165    1976.2982    2000.7072   -13.582131   -42.895767    194.37622   -4453.9311 
46945000    7.7860215   -4727.3679    -4714.023   -4727.3679            0    1968.7059    17.836488     23.31049    21.876453    9095.7321    2185.3553    1866.5754    1854.1869   -22.677993    35.869227    23.442544   -4452.8703 
46946000     7.516882   -4727.0813   -4714.1977   -4727.0813            0    1992.0165    17.835814    23.330376    21.862715    9097.4308    2224.0453    1831.8842    1920.1201    -40.53085   -3.1681063    23.620092   -4449.9035 
46947000     7.580034   -4726.9011   -4713.9092   -4726.9011            0    1970.6698    17.858757    23.294784    21.868655    9097.7081    2010.8061    2017.5948    1883.6084   -92.437104   -239.56323    46.907497   -4452.4393 
46948000    7.5319332   -4726.5442   -4713.6347   -4726.5442            0    2004.1034    17.917464    23.185976     21.89448    9095.7094    1902.7403    2282.0838    1827.4861    81.069351    165.27594   -46.004604   -4447.7872 
46949000    7.8073926   -4726.6977   -4713.3161   -4726.6977            0    2000.7079    17.881891    23.261442    21.870733    9097.3192    2074.3794    1994.8294    1932.9148   -112.62358    19.821177    169.23292    -4447.872 
46950000    7.3654164   -4726.7209   -4714.0969   -4726.7209            0    2030.4958    17.852424    23.317239    21.854723    9097.4486    2150.6127    1860.5717    2080.3031    13.454036   -182.57997    73.977019   -4444.6969 
46951000    7.3813722   -4726.4109   -4713.7595   -4726.4109            0    2022.0375    17.832308      23.3166    21.870607    9093.5535    2114.3249    1980.8757    1970.9119    25.665179    138.75378    15.439722   -4445.5966 
46952000    7.6717636    -4726.502   -4713.3528    -4726.502            0     1964.841    17.855506    23.260108     21.89373    9092.9256    1959.5176      2006.48    1928.5254   -7.2070709   -103.03346    153.80267   -4452.7933 
46953000    7.2104732   -4727.0044   -4714.6459   -4727.0044            0    2055.8687    17.938035    23.219718    21.838394    9096.0431    1851.1614    2111.7278    2204.7168     13.90974    50.310055    111.28631   -4441.9217 
46954000    7.3871074    -4727.297   -4714.6358    -4727.297            0    1983.4329    17.915985    23.248864    21.845203    9099.1011    1865.7714    2106.2043    1978.3229   -9.2081962   -101.97177    106.50032   -4451.4322 
46955000    7.5969275   -4727.8175   -4714.7967   -4727.8175            0     1954.588    17.861564    23.286236    21.868392    9095.6899    2070.2419    1849.3913    1944.1307   -16.188268    28.771671   -4.8145881    -4455.518 
46956000    7.2788903   -4727.1713   -4714.6956   -4727.1713            0    1966.6242    17.830517    23.327067    21.872867    9097.6621    2206.5207     1764.097     1929.255   -214.65618    49.477703    135.93066   -4453.7637 
46957000    7.3087171   -4727.2831   -4714.7562   -4727.2831            0    1950.5745     17.88734    23.302298    21.835306    9101.3077    1964.5203    1919.5366    1967.6666   -102.16607   -148.19226    102.12386   -4455.8501 
46958000    7.7099769   -4726.7477   -4713.5331   -4726.7477            0    2020.9105    17.941104    23.175937    21.866594    9092.1718    1913.8772     2139.972    2008.8824     44.11714     61.13101    23.354335   -4445.5604 
46959000     7.647317   -4727.1565   -4714.0493   -4727.1565            0     1999.624    17.952271    23.170547    21.856942    9091.6996    1783.6749    2172.1639    2043.0334   -51.449814   -162.09844    44.995697   -4448.9129 
46960000    7.9066639   -4726.8647   -4713.3129   -4726.8647            0    1994.1057    17.866108    23.274521    21.875708    9096.4686    1998.3635    2162.5087     1821.445   -177.85145   -45.705335    4.6496361   -4448.7695 
46961000    7.5758295   -4727.0558   -4714.0711   -4727.0558            0     2050.428     17.79935     23.34629    21.884238    9093.9683    2228.9506    1868.9962     2053.337    63.590684    130.15183    132.99396   -4442.1306 
46962000     7.767141   -4727.3037   -4713.9911   -4727.3037            0    1981.6746    17.869621    23.269069    21.879768    9097.8142    1972.8233      1844.33    2127.8706   -30.852141   -165.72778    21.610995    -4451.058 
46963000    7.8815704   -4726.7493   -4713.2405   -4726.7493            0     1976.174    17.923067    23.199001    21.876024    9095.9908    1826.9725    2181.8202    1919.7293   -65.130337    100.41407    160.44504   -4451.0898 
46964000    7.5226085   -4726.9326   -4714.0391   -4726.9326            0    2008.1061    17.897824    23.228308    21.878089    9095.5132    1923.9452    2034.2881    2066.0851    142.14831   -129.06542    129.48014   -4447.6663 
46965000    7.2034773   -4728.0685   -4715.7219   -4728.0685            0    1934.5712    17.860673    23.313627     21.84919    9097.9388    2122.1205    1919.9207    1761.6723    243.35885   -15.889087    80.550018   -4459.0351 
46966000    7.1298703   -4726.4583    -4714.238   -4726.4583            0    1973.5025    17.841674    23.300256    21.883791     9097.433    2019.0721     1892.691    2008.7445   -205.61782    48.741153    102.49312   -4452.4001 
46967000    7.3657626   -4727.3721   -4714.7475   -4727.3721            0    1971.0863    17.867104    23.278439    21.872929    9097.3515    1989.8802    1888.7484    2034.6304   -44.501349   -206.92999   -37.061225   -4453.2325 
46968000    7.6051925   -4726.7305   -4713.6955   -4726.7305            0    2032.8666    17.912332    23.204852    21.884979     9096.557    1953.7694    2150.0302    1994.8002    11.907701    93.313525    150.69025   -4444.0073 
46969000    7.7792815   -4727.1078   -4713.7744   -4727.1078            0    1971.3606    17.894953    23.228335    21.886667    9097.6304    1927.6335    2015.0983    1971.3501   -141.38025    83.114981    -9.266838    -4452.215 
46970000    7.2738901   -4727.0413   -4714.5741   -4727.0413            0    1953.2364    17.846945    23.279544    21.898134    9097.9903     2032.142    1866.8121    1960.7551    73.058407   -124.33651    71.815509   -4455.4092 
46971000    7.6292936   -4727.2132   -4714.1369   -4727.2132            0    1976.7374     17.85151    23.319335    21.852412    9096.8386    1957.9556    1959.1789    2013.0777   -241.97744    213.35898     33.90496    -4451.887 
46972000    7.5196039   -4727.3262   -4714.4379   -4727.3262            0    2033.5782    17.856272    23.293843    21.854556    9090.2102    2008.0896    1976.3448    2116.3003   -109.69196   -245.96584    38.703587   -4444.8436 
46973000    7.4600505   -4727.2249   -4714.4386   -4727.2249            0    2016.3718     17.90992    23.224064    21.864191    9094.2163     1871.147    2177.5549    2000.4134   -121.66758    13.617244    163.77651   -4447.0076 
46974000    7.5137372   -4727.0039   -4714.1256   -4727.0039            0    1974.3101    17.911695    23.246222    21.846297    9096.3443    1809.4757    1958.8921    2154.5626   -15.881311   -62.787956    72.823104    -4452.212 
46975000    7.3796893   -4727.2378   -4714.5893   -4727.2378            0    2001.7257    17.875719    23.294004    21.844574    9096.0166    1946.7684    1943.4706     2114.938    170.27309    5.4886271    13.133296   -4449.0482 
46976000    7.5980914   -4726.9526   -4713.9297   -4726.9526            0    2010.0227    17.837864    23.296938    21.890821    9097.1163    2150.5828    1938.6369    1940.8484   -284.74933   -14.036106    66.831415   -4447.2558 
46977000    7.9938212   -4725.8212   -4712.1201   -4725.8212            0    1966.6297    17.880597    23.260874    21.878767    9099.7802    2025.5137     1972.871    1901.5044    146.68155   -93.041554    30.293246   -4451.1268 
46978000     7.880915   -4726.5876   -4713.0799   -4726.5876            0     1919.827    17.929939    23.204022    21.868457    9098.2995    1778.1079    1979.0348    2002.3383   -119.12254    129.85169     135.6365   -4458.3393 
46979000    7.5642708   -4726.5471   -4713.5822   -4726.5471            0    2024.8284    17.876721    23.238135    21.899174     9097.391     2046.748    2113.5273    1914.2098   -66.097621   -17.816842   -41.782176   -4444.9358 
46980000    7.7349111   -4726.1722   -4712.9148   -4726.1722            0    1994.8239    17.842901    23.279351    21.896124     9095.018    2218.4928    1893.7165    1872.2623   -80.881693    39.709723     203.1389   -4448.3184 
46981000    7.8559665    -4726.962   -4713.4971    -4726.962            0    1976.3302    17.846204    23.344888    21.837403    9097.8471    2035.7248    1855.8199     2037.446    107.23212   -21.480676   -157.53721   -4451.2721 
46982000    7.7657264   -4727.0175   -4713.7073   -4727.0175            0    2002.0793    17.878898    23.243607    21.885037    9094.7665    1949.5489    2034.9932    2021.6957    49.293332   -112.56095    166.71684   -4448.1558 
46983000    7.2229607   -4726.9382   -4714.5583   -4726.9382            0    1995.0478    17.927607    23.211041    21.868847    9100.0299    1878.1621     2114.623    1992.3583   -43.670111   -33.774438    34.509638   -4449.7863 
46984000    7.3660261   -4725.6073   -4712.9822   -4725.6073            0    2016.6778    17.869678    23.256871    21.882133    9094.0569    1966.3031     2121.289    1962.4413    13.899702   -21.231052    109.83441   -4445.5153 
46985000    7.5599312   -4727.8838   -4714.9264   -4727.8838            0    1954.3428    17.848948    23.294205    21.889708    9101.2384    2027.0362    1759.9093    2076.0828   -28.453175   -93.919295    150.08049   -4455.5221 
46986000    7.1701746   -4726.3604    -4714.071   -4726.3604            0    1990.2249    17.873738    23.287942    21.854763    9096.8828    1989.7382    1951.9914     2028.945   -82.260372    23.270638   -65.073086   -4450.0304 
46987000    7.6396252   -4727.2677   -4714.1737   -4727.2677            0    1982.5423    17.872585    23.259318    21.878246    9094.8775     1926.651    2005.4296    2015.5463   -231.38229   -92.785968    169.54664   -4451.2103 
46988000    8.0459048   -4727.4294    -4713.639   -4727.4294            0    1966.8906    17.949887    23.211925    21.831405    9096.0862    1746.7258    2030.3227    2123.6232   -342.11775   -105.67747    1.9151235    -4452.717 
46989000     7.553887   -4726.9189   -4713.9718   -4726.9189            0    1953.4255    17.898368    23.236168    21.875567    9097.8186    1863.1955    1967.1738    2029.9071    99.966753    20.104601   -18.445811   -4454.7867 
46990000     7.585921   -4726.9956   -4713.9936   -4726.9956            0    1978.0954    17.852017    23.317992    21.856883    9098.4342    2135.3238     1922.183    1876.7793   -79.255707   -42.898912    189.64859   -4451.5175 
46991000    7.0625442   -4726.6036   -4714.4986   -4726.6036            0    2018.2406    17.851024    23.305173    21.858749    9093.7034    1969.0102    1892.3552    2193.3564     75.81028    -13.60654   -118.25441   -4446.8348 
46992000    7.3763094   -4726.6262   -4713.9834   -4726.6262            0    1959.6925    17.914079    23.213474    21.873367     9095.996    1819.4049    2154.4185    1905.2539   -84.705412    145.41753    106.42747   -4454.0189 
46993000    7.7021058   -4726.7004   -4713.4993   -4726.7004            0    2020.6472    17.946261     23.19644    21.845108    9093.8863    1805.0741    2223.3627    2033.5049   -130.08983   -167.72181   -2.2993081   -4445.5109 
46994000    7.8127916   -4726.9275   -4713.5367   -4726.9275            0    1971.8877    17.881134    23.269771    21.864475     9097.587    2015.5549    1928.6568    1971.4513     50.51618    4.2732226    -53.94994   -4451.9086 
46995000    7.9614684    -4726.972   -4713.3264    -4726.972            0    1932.4877     17.85503    23.298696    21.870504     9098.106    2105.5914    1807.9381    1883.9336   -151.91749   -18.160284    122.59568   -4456.9112 
46996000    7.6597939   -4727.1457   -4714.0171   -4727.1457            0    1991.9163    17.830741    23.317168    21.875663    9095.0781    2099.3375    1813.4517    2062.9597    97.717249    42.646886   -53.591418   -4449.8046 
46997000    7.4453838   -4726.8295   -4714.0683   -4726.8295            0    2001.2366    17.882929    23.271851    21.859354    9097.1827    2074.8425    1968.2409    1960.6264   -76.993002   -84.676459    130.76359   -4448.5581 
46998000    7.7308309   -4726.5527   -4713.3023   -4726.5527            0    1982.1369    17.906642    23.215974    21.886086    9098.4868    1873.2991    2037.9074     2035.204   -100.02792   -11.374367    66.134346   -4450.2884 
46999000     7.349344   -4727.1981   -4714.6016   -4727.1981            0    1949.7903    17.896485    23.230849     21.87867    9096.0689    1870.2155    2063.2861    1915.8693    111.67516    59.615253    29.577402   -4455.9486 
47000000    8.1014514   -4726.9755   -4713.0899   -4726.9755            0    1961.7069     17.85046     23.32544    21.851857    9098.4539    1926.0945    1894.2292    2064.7969   -211.17598    15.593791    41.273937   -4452.7878 
Loop time of 359.584 on 64 procs for 250000 steps with 864 atoms

Performance: 120.139 ns/day, 0.200 hours/ns, 695.247 timesteps/s
379.6% CPU use with 16 MPI tasks x 4 OpenMP threads

MPI task timing breakdown:
Section |  min time  |  avg time  |  max time  |%varavg| %total
---------------------------------------------------------------
Pair    | 22.248     | 26.985     | 31.15      |  42.8 |  7.50
Bond    | 1.4245     | 1.8351     | 2.7548     |  24.9 |  0.51
Kspace  | 192.5      | 196.58     | 203.91     |  26.0 | 54.67
Neigh   | 0.081361   | 0.085577   | 0.092969   |   1.2 |  0.02
Comm    | 45.494     | 48.37      | 50.124     |  19.5 | 13.45
Output  | 0.4548     | 0.45505    | 0.45645    |   0.1 |  0.13
Modify  | 57.832     | 64.213     | 69.646     |  42.9 | 17.86
Other   |            | 21.06      |            |       |  5.86

Nlocal:        54.0000 ave          61 max          47 min
Histogram: 3 1 4 0 0 0 0 4 1 3
Nghost:        2589.69 ave        2611 max        2574 min
Histogram: 3 2 3 0 1 2 2 1 0 2
Neighs:        13375.9 ave       14867 max       11882 min
Histogram: 4 3 1 0 0 0 0 2 3 3

Total # of neighbors = 214014
Ave neighs/atom = 247.70139
Ave special neighs/atom = 2.0000000
Neighbor list builds = 250
Dangerous builds = 0

unfix		3
unfix		2
unfix		1

write_data	data.final.${pid} nocoeff
write_data	data.final.1 nocoeff
System init for write_data ...
PPPM initialization ...
  extracting TIP4P info from pair style
  using 12-bit tables for long-range coulomb (../kspace.cpp:340)
  G vector (1/distance) = 0.37221198
  grid = 24 27 25
  stencil order = 5
  estimated absolute RMS force accuracy = 0.003102654
  estimated relative force accuracy = 9.3435503e-06
  using double precision FFTW3
  3d grid and FFT values/proc = 6300 1296
Last active /omp style is kspace_style pppm/tip4p/omp

write_restart   restart.lmp.${pid}
write_restart   restart.lmp.1
System init for write_restart ...
PPPM initialization ...
  extracting TIP4P info from pair style
  using 12-bit tables for long-range coulomb (../kspace.cpp:340)
  G vector (1/distance) = 0.37221198
  grid = 24 27 25
  stencil order = 5
  estimated absolute RMS force accuracy = 0.003102654
  estimated relative force accuracy = 9.3435503e-06
  using double precision FFTW3
  3d grid and FFT values/proc = 6300 1296
Last active /omp style is kspace_style pppm/tip4p/omp
Total wall time: 0:05:59
