LAMMPS (30 Jul 2021)
Processor partition = 1
  using 4 OpenMP thread(s) per MPI task
using multi-threaded neighbor list subroutines
variable        pid world 0 1
variable        phase world IceVI IceV

shell cd ${phase}
shell cd IceV
include Restart.lmp
echo both
log log.lammps
#include		in.partitions
include		in.temp
variable        temperature equal 125.77
variable	tempDamp equal 100.0
include		in.pressure
variable        pressure equal 8269.9
variable        pressureDamp equal 1000.0 # This is 1 ps
include		in.seed
variable        seed equal 745823

units		real
atom_style	full
read_restart    restart.lmp.${pid}
read_restart    restart.lmp.1
Reading restart file ...
  restart file = 30 Jul 2021, LAMMPS = 30 Jul 2021
  restoring atom style full from restart
  triclinic box = (-3.0986857 -0.084565060 0.025221995) to (14.708685 22.664564 19.204776) with tilt (0.0082624363 -6.3457054 -0.0053754605)
  2 by 4 by 2 MPI processor grid
  restoring pair style lj/cut/tip4p/long/omp from restart
  restoring bond style harmonic/omp from restart
  restoring angle style harmonic/omp from restart
  1008 atoms
  672 bonds
  336 angles
Finding 1-2 1-3 1-4 neighbors ...
  special bond factors lj:    0        0        0       
  special bond factors coul:  0        0        0       
     2 = max # of 1-2 neighbors
     1 = max # of 1-3 neighbors
     1 = max # of 1-4 neighbors
     2 = max # of special neighbors
  special bonds CPU = 0.001 seconds
  read_restart CPU = 0.005 seconds

include 	in.setup
variable	out_freq equal 1000
variable	out_freq2 equal 10000
variable	out_freq3 equal 1000

timestep	2.0

neigh_modify    delay 7 every 1

include		in.tip4p
# This is TIP4P/Ice

# create groups ###
group ox type 2
336 atoms in group ox
group hy type 1
672 atoms in group hy

# set charges - beside manually ###
set group ox charge -1.1794
Setting atom values ...
  336 settings made for charge
set group hy charge 0.5897
Setting atom values ...
  672 settings made for charge

# ### TIP3P Potential Parameters ###
pair_style lj/cut/tip4p/long/omp 2 1 1 1 0.1577 8.5
pair_coeff 1 1*2 0.000 0.000
pair_coeff 2 2 0.21084 3.1668
bond_style  harmonic
bond_coeff  1 450 0.9572
angle_style harmonic
angle_coeff 1 55 104.52
kspace_style pppm/tip4p/omp 1.0e-5
pair_modify tail yes

thermo          ${out_freq}
thermo          1000
thermo_style    custom step temp pe etotal epair emol press lx ly lz vol pxx pyy pzz pxy pxz pyz enthalpy

restart 	${out_freq3} restart.lmp.${pid} restart2.lmp.${pid}
restart 	1000 restart.lmp.${pid} restart2.lmp.${pid}
restart 	1000 restart.lmp.1 restart2.lmp.${pid}
restart 	1000 restart.lmp.1 restart2.lmp.1


include         in.dump
dump            myDump all atom ${out_freq2} dump.water.${pid}
dump            myDump all atom 10000 dump.water.${pid}
dump            myDump all atom 10000 dump.water.1
dump            myDump2 all dcd ${out_freq2} dump.dcd
dump            myDump2 all dcd 10000 dump.dcd
dump_modify     myDump append yes
dump_modify     myDump2 append yes


variable natoms 	equal  "count(all)"                        # NUMBER ATOMS
variable H      	equal  "enthalpy/v_natoms"                 # ENTHALPY-per-atom
variable Vol      	equal  "vol/v_natoms"                 # volume-per-atom
fix AVG all 		ave/time ${out_freq} 1 ${out_freq} v_Vol v_H file vol_enthalpy.dat
fix AVG all 		ave/time 1000 1 ${out_freq} v_Vol v_H file vol_enthalpy.dat
fix AVG all 		ave/time 1000 1 1000 v_Vol v_H file vol_enthalpy.dat



fix 		1 all shake 1e-6 200 0 b 1 a 1
Finding SHAKE clusters ...
       0 = # of size 2 clusters
       0 = # of size 3 clusters
       0 = # of size 4 clusters
     336 = # of frozen angles
  find clusters CPU = 0.000 seconds
fix             2 all nph tri ${pressure} ${pressure} ${pressureDamp}
fix             2 all nph tri 8269.9 ${pressure} ${pressureDamp}
fix             2 all nph tri 8269.9 8269.9 ${pressureDamp}
fix             2 all nph tri 8269.9 8269.9 1000
fix             3 all temp/csvr ${temperature} ${temperature} ${tempDamp} ${seed}
fix             3 all temp/csvr 125.77 ${temperature} ${tempDamp} ${seed}
fix             3 all temp/csvr 125.77 125.77 ${tempDamp} ${seed}
fix             3 all temp/csvr 125.77 125.77 100 ${seed}
fix             3 all temp/csvr 125.77 125.77 100 745823


run             250000
PPPM initialization ...
  extracting TIP4P info from pair style
  using 12-bit tables for long-range coulomb (../kspace.cpp:340)
  G vector (1/distance) = 0.37932436
  grid = 24 27 32
  stencil order = 5
  estimated absolute RMS force accuracy = 0.0024666712
  estimated relative force accuracy = 7.428307e-06
  using double precision FFTW3
  3d grid and FFT values/proc = 7875 1344
Last active /omp style is kspace_style pppm/tip4p/omp
Neighbor list info ...
  update every 1 steps, delay 7 steps, check yes
  max neighbors/atom: 2000, page size: 100000
  master list distance cutoff = 10.8154
  ghost atom cutoff = 10.8154
  binsize = 5.4077, bins = 5 5 4
  1 neighbor lists, perpetual/occasional/extra = 1 0 0
  (1) pair lj/cut/tip4p/long/omp, perpetual
      attributes: half, newton on, omp
      pair build: half/bin/newton/tri/omp
      stencil: half/bin/3d/tri
      bin: standard
Setting up Verlet run ...
  Unit style    : real
  Current step  : 27750000
  Time step     : 2
Per MPI rank memory allocation (min/avg/max) = 12.45 | 12.47 | 12.48 Mbytes
Step Temp PotEng TotEng E_pair E_mol Press Lx Ly Lz Volume Pxx Pyy Pzz Pxy Pxz Pyz Enthalpy 
27750000    129.83618   -5121.3073   -4861.6189   -5121.3073            0    7407.9279     17.80737    22.749129    19.179554    7769.6789    8329.9105    7247.8511     6646.022   -130.89717   -587.90811    260.99486   -4022.2059 
27751000    125.34891   -5132.4309   -4881.7176   -5132.4309            0    7609.4994    17.824401    22.709258    19.175329    7761.7689    6747.7123    8285.1633    7795.6226    306.73332   -568.68868   -203.08757   -4020.3418 
27752000    122.46311   -5123.2461   -4878.3047   -5123.2461            0    8197.1619    17.839612    22.784102    19.061865    7747.8768    8054.9576    7505.0657    9031.4623    765.82611   -340.12466    479.74444   -3952.0678 
27753000    123.73149   -5130.9367   -4883.4584   -5130.9367            0    8360.4538    17.962726    22.576306    19.114216    7751.4262    6627.7565    9256.6552    9196.9495    407.16379    476.40609    289.84897   -3938.3375 
27754000    120.54511   -5133.3216   -4892.2165   -5133.3216            0    8469.7737    17.796543    22.788121    19.077877    7737.0289    9639.0661    8241.7928     7528.462   -988.17581   -652.37343   -840.51417   -3936.5158 
27755000    123.15712   -5121.1717   -4874.8423   -5121.1717            0    8294.0448    17.834404    22.731812    19.141967    7760.3123    7955.3362    8646.8744    8279.9239   -368.46151    29.272332   -763.59729   -3936.1538 
27756000    128.78596   -5123.0538    -4865.466   -5123.0538            0    8282.7734    17.785538    22.680588    19.245536    7763.3887     8233.485    8123.4352    8491.3999    90.290658   -40.066953   -644.35072   -3927.6816 
27757000    122.97748   -5127.1292   -4881.1591   -5127.1292            0    7542.2879    17.831746    22.757477    19.148801    7770.6899    6545.1746    7674.1757    8407.5132    131.74299    692.40124   -275.60354   -4026.4101 
27758000    124.53647   -5122.4459   -4873.3575   -5122.4459            0    7671.2676     17.80981    22.789625    19.107751    7755.4324    7942.6599    8242.6423    6828.5006   -977.57669    705.64473    697.74634   -4005.6986 
27759000    130.02837   -5120.4213   -4860.3485   -5120.4213            0     8762.613    17.906742    22.703666    19.077908    7756.0986    8419.9931    8524.5277    9343.3184   -109.96563    41.376051   -374.95036   -3869.1678 
27760000     124.5287   -5119.8968    -4870.824   -5119.8968            0    7720.1005    17.929734    22.633903    19.151867    7772.2081    7035.9254    8751.3273    7373.0487    -205.9681    161.06396    766.34243   -3995.7531 
27761000    125.45772   -5128.2151   -4877.2842   -5128.2151            0     8938.639    17.767836    22.807819    19.123028    7749.5229    8711.1946    8947.3901    9157.3323   -432.26264     424.9983    311.97811   -3867.0495 
27762000    132.82718   -5118.1372   -4852.4664   -5118.1372            0    8659.5452    18.096012    22.409716    19.124371    7755.4393    6517.7431    10014.008    9446.8844   -418.47992    -80.63216   -610.99429   -3873.0275 
27763000    135.89329   -5126.7554    -4854.952   -5126.7554            0    8926.3789    17.743511    22.937125     19.00053    7732.9332    9006.8411     8935.218    8837.0777    612.98969    419.31318   -475.85245   -3848.2627 
27764000    130.85957   -5136.8664   -4875.1311   -5136.8664            0     7973.893    17.843779    22.546124    19.251682    7745.1065    7878.6801    7868.4421    8174.5569    953.80918   -779.33721    323.63794   -3974.4445 
27765000    125.89744   -5127.0593   -4875.2488   -5127.0593            0    7978.8454    17.740553    22.983125    19.055676    7769.6349    8443.1533    7364.5085    8128.8746   -1281.8843   -444.47647   -1475.9503   -3971.1487 
27766000    125.66494   -5127.4266   -4876.0812   -5127.4266            0    7826.3037    17.902365    22.600021    19.249844    7788.3682    8531.0556    7197.7278    7750.1277   -535.51066     472.8687   -353.71742   -3987.1277 
27767000    125.92911   -5130.3491   -4878.4753   -5130.3491            0    7547.3288    17.819959    22.738784    19.197872    7779.0584    8771.6782    6478.9666    7391.3416   -909.87784   -261.17838   -1780.4706    -4022.234 
27768000    128.10421   -5138.1038   -4881.8796   -5138.1038            0    8735.2451    17.847517    22.653717    19.127346    7733.4271    9050.8357    8540.8594    8614.0402    301.86281      482.729    174.17921   -3896.6828 
27769000    121.95897   -5118.8694   -4874.9364   -5118.8694            0    8794.8184      17.8596    22.709613    19.081351    7739.1022    7980.4763    9325.3613    9078.6176    1551.2892    792.85205    -118.8941   -3882.2928 
27770000    125.75826   -5128.9808   -4877.4487   -5128.9808            0    7804.7867    17.795928    22.752828    19.146668    7752.6331    7119.6391    7929.8607    8364.8603   -267.80634    147.01864   -578.22993   -3995.0067 
27771000    120.05219   -5125.2769   -4885.1577   -5125.2769            0    8509.0077    17.917758    22.736835    18.970022    7728.2563    7995.5271    8500.8754    9030.6206    515.29815   -20.514277   -416.95264   -3926.1185 
27772000    130.91099   -5136.3392   -4874.5011   -5136.3392            0    8366.7245    17.879716    22.670207    19.088818    7737.4016    8089.9744    8672.3957    8337.8035   -1109.8364    306.72898    47.685004   -3930.3826 
27773000     125.9152   -5145.3713   -4893.5253   -5145.3713            0    7007.7853    17.897536    22.742455    19.091441    7770.8637    7128.2204    6772.1026    7123.0327   -51.449611   -345.35986   -1244.8492   -4099.3325 
27774000    131.44237   -5115.5376   -4852.6366   -5115.5376            0    8747.1681    17.790224     22.70598     19.16203     7740.396    9384.2158    8677.8206    8179.4679    691.86347   -589.06181   -814.59981   -3865.2061 
27775000    131.64427   -5130.0775   -4866.7727   -5130.0775            0    6429.5552     17.77619    22.753033    19.280807    7798.3584    7702.0212     5860.902    5725.7423   -1048.3046   -305.70823   -901.58232   -4135.5326 
27776000    128.87013    -5120.897   -4863.1408    -5120.897            0    8452.2003     17.64998    22.808668    19.252281    7750.4395    8958.4024    9003.0402    7395.1582    1014.2377    973.42503    1084.1114     -3907.77 
27777000    128.18597   -5118.1233   -4861.7355   -5118.1233            0    7744.3713    17.857516     22.55187     19.33294    7785.7686    8271.1212    8052.9521    6909.0407   -568.59771    232.38068   -306.59941   -3982.3819 
27778000    124.42172   -5134.6949   -4885.8361   -5134.6949            0    8247.7691    17.810895    22.947497    18.991654    7762.1827    7658.8726    7603.3218    9481.1128    202.24171    289.94399   -719.53624     -3952.16 
27779000    122.88221   -5120.9328   -4875.1532   -5120.9328            0    8992.2977    17.827434    22.697002    19.149454      7748.43    10600.508    8784.5252    7591.8595    488.56152    117.65566    32.619238   -3858.9974 
27780000    131.59408   -5129.1137   -4865.9093   -5129.1137            0    7559.3372    17.853634    22.657968    19.274941    7797.2354    7774.4556    7415.0543    7488.5018   -632.78261   -137.59833    38.316052   -4006.3017 
27781000     133.7704   -5125.6707   -4858.1134   -5125.6707            0    8097.4377    17.696869    22.897873    19.096762    7738.4024    9479.6218    6835.6225    7977.0688   -185.31374   -1059.8703    483.62858   -3944.2636 
27782000    123.62565   -5108.5319   -4861.2653   -5108.5319            0     9679.392    17.763945    22.680736    19.171135    7724.0377    10480.355    9738.5371    8819.2839    168.83723    356.74299    778.18189   -3770.9092 
27783000    122.52982    -5123.373   -4878.2983    -5123.373            0    7700.8631    17.893174    22.693631    19.195366    7794.4914    8392.5179    7682.9187    7027.1527   -134.41791    597.61162   -864.75432   -4002.9053 
27784000    120.34022   -5131.3262   -4890.6309   -5131.3262            0    7334.6073    17.941648    22.788914    19.080048    7801.2724    7818.3247    6201.0092    7984.4879    72.107882    358.01441    492.22558   -4056.1465 
27785000     126.6514   -5152.3404   -4899.0219   -5152.3404            0    5913.1193    17.868171    22.720088    19.281085    7827.4728    5392.5748    6827.5739    5519.2093    429.28361   -406.65872   -716.72908   -4224.0059 
27786000     119.6346   -5124.9406   -4885.6566   -5124.9406            0    9113.4626    17.700682    22.679711    19.247367    7726.7855    9841.3907    9226.4914    8272.5056   -462.20024   -739.20763    1064.9916   -3858.6857 
27787000    126.53387   -5123.5379   -4870.4545   -5123.5379            0    8216.5273    17.805496    22.847797    19.028298    7741.0229    8050.7217    7401.9572    9196.9029    575.67136   -413.82031    216.33766   -3942.8507 
27788000    127.37666   -5132.3675   -4877.5984   -5132.3675            0     7990.169    17.952436    22.564331    19.152113    7758.2278    7480.2203    7844.6349    8645.6518    29.238228    285.18915   -26.829897   -3973.5444 
27789000    124.37814   -5123.8946    -4875.123   -5123.8946            0    8606.2273     17.73269    22.834836    19.106117    7736.5076    10596.263    7500.5956    7721.8236    2.4009811    -425.1627    1623.7085   -3904.0907 
27790000     125.0299   -5125.4942   -4875.4189   -5125.4942            0      7953.18    17.862135    22.682511    19.177583    7769.9526    6651.5235    8892.7796     8315.237   -70.444222    625.85901   -786.32856   -3974.1901 
27791000    126.10901   -5122.5096    -4870.276   -5122.5096            0    8291.8772    17.838184     22.81271    19.072844     7761.452    7791.3887    8545.7819     8538.461   -681.30909   -398.20174   -188.63265    -3931.695 
27792000    127.70041   -5131.0538   -4875.6372   -5131.0538            0    8553.2919    17.770923    22.747664    19.182169    7754.3338    9052.3676    8639.2065    7968.3015  -0.79953777    508.73895    397.29186   -3908.3539 
27793000    125.63583   -5120.0426   -4868.7554   -5120.0426            0    8778.3934    17.811684    22.621219    19.265094    7762.3307    9782.1499    9322.8556    7230.1745   -1521.4247   -10.403382    77.282965   -3874.9918 
27794000    118.36297   -5126.5738   -4889.8332   -5126.5738            0    8394.2997    17.843619    22.743814    19.106215    7753.9123     8254.783    8185.6084    8742.5077    813.54394    88.709739     874.2917   -3940.5818 
27795000    122.13565   -5132.5651   -4888.2787   -5132.5651            0    8567.3377    17.830581    22.641019    19.167536    7737.9828    8313.4806    8953.7675    8434.7652   -610.76992    508.60342    -682.8388     -3921.45 
27796000    124.63873   -5132.7652   -4883.4723   -5132.7652            0    7700.1048    17.748595    22.906753    19.076492      7755.79     8011.217    6995.5304    8093.5669    95.138796   -246.58109     958.9586   -4012.5116 
27797000    130.05925   -5135.8278   -4875.6932   -5135.8278            0    8291.2401    17.840161    22.770565    19.111285    7763.5878    8752.6083    8141.4196    7979.6924    906.25517   -543.28967   -439.78871   -3936.9262 
27798000    120.96068   -5127.5006   -4885.5643   -5127.5006            0    7477.0512    17.836593    22.812465    19.072416    7760.5023     7846.807    7304.7296    7279.6172   -1585.6788   -298.65394     158.4815   -4039.3194 
27799000    133.68663   -5130.0003   -4862.6105   -5130.0003            0     10297.27     17.87972    22.613824    19.080577    7714.8276    10899.687    10427.895    9564.2277    752.16003    441.29328    151.85731   -3704.0353 
27800000    125.87489    -5136.318   -4884.5527    -5136.318            0    9474.4401     17.89361    22.678092    18.995342    7708.1754    8570.8033    9550.3765    10302.141   -295.58317    23.701176      504.065   -3819.4756 
27801000    136.99645   -5124.0077   -4849.9979   -5124.0077            0    7295.4351    17.814474    22.716906    19.250413    7790.4443    7172.0605    7180.4362    7533.8086   -186.90648   -359.54847    1381.7022   -4021.1224 
27802000    124.93427   -5132.0112   -4882.1272   -5132.0112            0    8783.0771    17.815032    22.646815    19.190397    7742.4375    7949.5199    9679.7854     8719.926   -165.45606    -367.3596   -204.89069   -3890.3816 
27803000     123.8811   -5143.0724   -4895.2949   -5143.0724            0    6882.6079     17.73092    22.798308     19.25179    7782.2468    7408.1283    6925.6412    6314.0543    714.09234   -585.83626   -122.45016   -4114.1458 
27804000    129.04625    -5115.531   -4857.4226    -5115.531            0    8960.0654     17.87095    22.753059    19.065629    7752.4429    10067.934    8092.4902    8719.7714   -516.47267    305.39471    688.40528   -3844.3848 
27805000    128.24647   -5123.8243   -4867.3156   -5123.8243            0    7179.5042    17.896059    22.672437    19.160599     7774.361    6832.6945    7664.2663    7041.5518    367.24264   -250.21197    215.31116   -4053.2956 
27806000    132.50399   -5117.6286   -4852.6043   -5117.6286            0    9379.2829    17.922058    22.691384    19.046077    7745.5879    9394.2342    8794.0458    9949.5689    919.20133   -867.49076    975.25468   -3793.1068 
27807000    120.39304     -5129.55    -4888.749     -5129.55            0    7757.7301    17.770717    22.828478    19.086526    7742.9917    8026.4775    7496.0434    7750.6694     512.7448   -516.79557   -367.16386   -4012.7183 
27808000    118.73457   -5114.9372   -4877.4534   -5114.9372            0    7759.9345    17.947467    22.647958    19.120299    7771.8943    6278.2669    7736.9656    9264.5709   -866.32995   -416.73495   -749.16762   -3997.9028 
27809000    124.50755   -5129.8938   -4880.8634   -5129.8938            0    7061.6251     17.82218    22.907491    19.029158    7768.8712    7394.0681     6322.995    7467.8124    1264.1783   -189.89575    325.79512    -4080.774 
27810000    129.87362   -5139.6484   -4879.8851   -5139.6484            0    8038.9154    17.924899     22.55352    19.230752    7774.4076    7804.5637    7833.2012    8478.9814   -1212.9394    283.58973   -470.30284   -3968.4187 
27811000    128.75933   -5123.3631   -4865.8285   -5123.3631            0    8822.0797    17.842105    22.838911    19.009466    7746.2482    8892.9404    8215.8376     9357.461   -1127.1579   -120.28178    307.96548   -3869.1886 
27812000    136.83783   -5124.1102   -4850.4176   -5124.1102            0    9317.5133    17.829038    22.642761    19.150619    7731.0788    9768.6201    8931.3931    9252.5266   -134.85601   -213.93466   -203.15707   -3799.8694 
27813000    128.14656   -5119.2164   -4862.9075   -5119.2164            0    7045.4348    17.876363    22.644938    19.209181    7776.0522    8286.5949      6741.69    6108.0195   -396.14365   -208.68131   -433.96719   -4063.9147 
27814000    121.32823   -5116.6955    -4874.024   -5116.6955            0    9036.1774    17.586952    22.762871    19.253188    7707.6197    10337.109    8525.4162    8246.0066    406.89613   -323.39426   -612.30635   -3858.2879 
27815000     124.1573   -5131.7851   -4883.4551   -5131.7851            0    8594.6079    17.901346    22.591776    19.123863     7734.134    7414.8883    9464.1658    8904.7695    1615.1586    424.59307    299.30932   -3914.0314 
27816000    128.83782   -5113.8405    -4856.149   -5113.8405            0    8236.3542    17.781171    22.753128    19.167966    7754.9231     8020.743    8631.6636     8056.656   -671.88493   -225.67888    1331.6078   -3924.6371 
27817000    124.08032   -5127.7282   -4879.5522   -5127.7282            0    8547.0007    17.879839    22.591413    19.163442    7740.7049    8941.9772    9323.0629    7375.9621    642.60165   -302.58457   -997.92451   -3914.6792 
27818000    126.59266   -5129.5521   -4876.3511   -5129.5521            0     7494.597    17.831847    22.750142    19.154427    7770.5115    7849.4185    7418.4406    7215.9319   -795.58334     343.3217    202.20889   -4027.0264 
27819000     119.7403   -5129.3373   -4889.8419   -5129.3373            0    8539.3791    17.778515    22.741882    19.118503    7729.9337    7856.4074    8984.1639     8777.566    1208.8753    34.619286    404.84444   -3927.1708 
27820000    130.67148   -5130.5028   -4869.1437   -5130.5028            0    7771.7797    17.834244    22.671135    19.234485    7776.9364    6366.0633    8155.6517    8793.6241     814.4017   -409.13904    1739.9141    -3987.679 
27821000    127.14521   -5127.4973   -4873.1912   -5127.4973            0    8507.3132    17.757622    22.793886    19.143516    7748.6294    8310.7612    7420.4607    9790.7179   -128.25362   -833.33327    -607.9946   -3911.8154 
27822000    128.72599   -5109.1186   -4851.6507   -5109.1186            0    8349.9561    17.985703    22.625607    19.100123    7772.5555    6987.2012    9179.2144    8883.4529   -260.95113    1514.5485   -1149.4693   -3905.1435 
27823000    121.28552   -5142.6126   -4900.0266   -5142.6126            0    7415.2121     17.87128    22.808277     19.06196    7769.9044    6725.6666    7184.4225    8335.5472    1290.5435   -589.83356    354.28079   -4059.7638 
27824000    121.88318   -5137.4765    -4893.695   -5137.4765            0    8193.9592    17.846673    22.710581    19.092265    7738.2536    6729.7691    8093.8919    9758.2166      934.896   -87.623877    113.72275   -3968.9699 
27825000    124.26519   -5128.2045   -4879.6588   -5128.2045            0    7532.4081    17.808159    22.772265     19.12031    7753.8995    7918.5531    7633.2294     7045.442    2055.0563    -51.77576    214.41016    -4027.874 
27826000    128.42694   -5126.4935   -4869.6237   -5126.4935            0    8054.6766    17.870876    22.597727    19.155917    7735.9481    8360.5751    9139.5843    6663.8703   -958.44704     234.5583   -547.55246   -3960.8881 
27827000    123.64718   -5141.3522   -4894.0425   -5141.3522            0    9007.4247    17.890585    22.773147    18.943758    7718.1591    8306.4991    8713.2767    10002.498    257.30951    978.70813   -505.91493   -3880.1539 
27828000     129.7749   -5111.3991   -4851.8332   -5111.3991            0     8921.329    17.866783     22.56808    19.224527    7751.6947    10090.383    8857.5843    7816.0196   -232.14707    517.35484     -572.237   -3843.2724 
27829000    124.70577   -5127.4211   -4877.9942   -5127.4211            0    9757.5818    17.715755    22.791528    19.073931    7701.4641    9736.4318    10493.255    9043.0582   -405.14027    728.10648   -461.55992   -3782.0426 
27830000    127.39204    -5114.847   -4860.0472    -5114.847            0    7788.3152     17.98575    22.603114    19.067616    7751.6333    5842.0964    8747.3322     8775.517    611.44467   -235.82549    970.15277   -3979.5811 
27831000     127.1623   -5127.9493    -4873.609   -5127.9493            0    7436.7076     17.78841    22.814174    19.108619    7754.8105    9013.8364    6033.6978    7262.5887    382.91648   -731.91963   -3.8753802   -4032.5474 
27832000    123.59665   -5137.6047   -4890.3961   -5137.6047            0    7397.2121    17.830115     22.64843     19.23983    7769.5074    7289.8175    7651.9671    7249.8517   -125.19048    266.11468    1805.8954   -4052.2158 
27833000    126.00526   -5120.9567   -4868.9306   -5120.9567            0    8551.3962    17.938256     22.72941    19.038409    7762.4538    8291.7729    8008.1541    9354.2617    1083.4971     562.6673    1152.0978   -3900.8491 
27834000    131.21565   -5116.7465    -4854.299   -5116.7465            0    9139.2941    17.851066    22.723695    19.045724    7725.7488    7138.7051     10076.32    10202.857   -1572.4299    432.72291   -1061.3773   -3824.5553 
27835000    124.97263   -5130.3291   -4880.3684   -5130.3291            0    7869.4764    17.840045    22.829359     19.03132    7751.0148    7150.1077    7897.8936    8560.4277    -219.0674   -970.47737    518.44601    -3990.798 
27836000    125.52038   -5134.6849   -4883.6286   -5134.6849            0    8240.6312    17.829482    22.755354     19.11575    7755.5687    7908.3849     7941.513    8871.9955    13.925435    181.22902    926.24161   -3951.5554 
27837000    125.85459   -5133.2447     -4881.52   -5133.2447            0    7868.9646    17.931379    22.707871    19.059833    7760.8481     8060.517    7183.8559    8362.5207   -259.76697   -171.26456   -679.00964    -3990.879 
27838000    128.28475   -5128.5166   -4871.9312   -5128.5166            0    9264.8919    17.697102    22.742377    19.221217    7736.0435    10258.161    9226.8018    8309.7133    596.40351    925.37712    282.22647   -3826.6452 
27839000    120.58922   -5140.3459   -4899.1526   -5140.3459            0    8761.3082    17.748546    22.644306    19.266005    7743.0747    10187.954    9063.7551    7032.2161   -899.74851   -29.045368   -205.57013   -3909.7835 
27840000    128.23766   -5138.8752    -4882.384   -5138.8752            0    8414.1071    17.821778    22.742433    19.121144    7750.0021    8454.0546    8496.6537     8291.613    -680.3958    475.75075     585.2582   -3931.3725 
27841000     123.6178   -5136.5411   -4889.2902   -5136.5411            0    6796.3412    17.864718    22.618664    19.257235    7781.3871    6981.9866    6959.7461    6447.2907   -425.69023   -849.23208     140.3493   -4118.0173 
27842000    127.14469   -5138.0011    -4883.696   -5138.0011            0    7483.2467     17.89041    22.770171    19.084812    7774.5356    7383.8764    7026.4968    8039.3668    772.05394   -123.17114    46.037498   -4035.2183 
27843000    128.73657   -5126.0761   -4868.5871   -5126.0761            0    7561.4498    17.852582    22.773631    19.090155    7761.4484    8126.2628    7292.6781    7265.4085   -10.539528    165.95197    1113.1514   -4012.6857 
27844000    126.87222   -5123.3424   -4869.5823   -5123.3424            0    9630.5118    17.928505    22.615369    19.024636    7713.7246    8174.0599    10017.426     10700.05   -779.42968   -471.89569   -1097.2909   -3786.1809 
27845000    123.65693   -5138.1295   -4890.8003   -5138.1295            0     9430.286     17.73471    22.867663    18.977672    7696.4209    9303.5327    9060.1952      9927.13    12.671109    254.00393    -723.7701   -3832.3035 
27846000    123.47051   -5114.0772    -4867.121   -5114.0772            0    8693.4628    17.804628    22.438928     19.38315    7743.8933    8887.0764    9273.6912    7919.6209    632.61411   -421.20412   -1100.3935   -3885.3096 
27847000    122.19227   -5125.6832   -4881.2835   -5125.6832            0    7785.0772    17.853049    22.848574    19.064266    7776.6325    7353.7627     7275.439      8726.03   -558.86404   -16.923001    529.88919   -3998.3452 
27848000    123.77371   -5125.8354   -4878.2727   -5125.8354            0    8143.7295    18.005271    22.569124    19.140235    7777.8866    7869.2948     8424.645    8137.2487    1077.1232   -835.59257   -622.13098   -3954.5091 
27849000    122.60459   -5128.3416   -4883.1173   -5128.3416            0    7649.6163    17.790029    22.803887     19.17244      7777.91    8822.3932    6921.8608    7204.5949   -512.40784   -593.80501    1610.3869   -4015.3996 
27850000    124.66918   -5124.7063   -4875.3526   -5124.7063            0    10143.902    17.803591    22.630976    19.160753    7720.1094    10247.998     10829.73    9353.9785   -31.321267    315.06992   -299.36231   -3733.2519 
27851000    121.14721   -5138.8797   -4896.5704   -5138.8797            0    8358.6639    17.832166    22.671647    19.136892    7736.7505    7650.3449    8430.3614    8995.2853   -1356.4646     796.0136   -401.68146   -3953.4408 
27852000    124.95955   -5126.8183   -4876.8837   -5126.8183            0    7253.7752    17.851371    22.733077    19.158688    7774.9139    6079.2352    7696.9891    7985.1013    773.72981   -346.50461   -89.378645   -4054.3844 
27853000    128.96507   -5125.0939   -4867.1478   -5125.0939            0    8325.6826    17.815644    22.681466    19.181821    7751.0847     8700.789    8536.3344    7739.9243    143.38167    263.73416    526.45553   -3925.9992 
27854000    129.76282   -5131.4072   -4871.8655   -5131.4072            0    6429.8315    17.788966    22.926576    19.114613    7795.7052    7350.0956     5570.586    6368.8129    289.37134    -199.8851    928.17026   -4140.8428 
27855000    130.55228   -5117.5215   -4856.4008   -5117.5215            0     7259.297     18.01037    22.536383    19.203304    7794.4022    6136.9074    7988.5034    7652.4803    758.96466   -489.29824    447.81598   -4031.2121 
27856000    114.70517   -5122.8319   -4893.4074   -5122.8319            0    7920.4516    17.706609    22.949531    19.127737     7772.716    8021.8843    7760.1396    7979.3309   -771.64483    -12.05217    355.41525    -3995.568 
27857000    128.88329   -5130.4587   -4872.6762   -5130.4587            0    8420.4281     17.97614    22.504549    19.228761    7778.8976    7109.7899    9726.2811    8425.2133    744.34124    688.46161   -190.59323   -3917.4018 
27858000    126.45549   -5119.0587   -4866.1321   -5119.0587            0    8686.2898    17.846529     22.74374    19.051285    7732.8561    8409.1919    9061.1815    8588.4959   -476.72433    1203.5362    623.72083    -3886.529 
27859000    124.84541   -5129.0589   -4879.3526   -5129.0589            0    7633.9911    17.906424    22.720572    19.038625    7745.7539    5421.8249    7627.4336    9852.7147    149.53555   -400.24118    639.77971   -4016.9874 
27860000    130.92925   -5129.1331   -4867.2584   -5129.1331            0    7295.2229    17.982994    22.641669    19.095737    7775.1157    6815.3623    7054.4227    8015.8838   -728.18938   -674.73236   -123.19764   -4040.0379 
27861000    129.01565   -5116.4731   -4858.4258   -5116.4731            0    7326.0546    17.810943    22.921864    19.077533    7788.5941     8410.219    6601.5678    6966.3769    22.310007   -640.82049   -10.714272   -4026.2691 
27862000     121.2858   -5114.6924   -4872.1058   -5114.6924            0    8138.1405    17.979192    22.447923    19.267546    7776.2951    7964.0837    9129.2216    7321.1161   -281.46243    410.44821    468.85852   -3949.1651 
27863000    127.10903   -5139.8632   -4885.6294   -5139.8632            0    7359.2702    17.906595    22.881485    18.989585    7780.5929    7237.3701    6124.5468    8715.8937    657.30807   -725.43734    789.55578   -4050.5586 
27864000    132.13761   -5133.2217   -4868.9301   -5133.2217            0    7759.6847    17.938768    22.450613    19.308417     7776.201    6930.6308    8758.4188    7590.0044   -597.00261    1072.4686   -1352.3846   -3988.9205 
27865000    120.67186   -5120.2929   -4878.9343   -5120.2929            0    7909.4028    17.864442      22.8126    19.086913    7778.5731    7770.0854    8288.5554    7669.5677    -128.8625    66.093011     277.7697   -3981.6717 
27866000    123.94783   -5134.1856   -4886.2747   -5134.1856            0     9716.129    17.873758    22.584512    19.122635    7719.2359    8918.1672    10060.624    10169.596     1190.875    342.35154    1725.6537   -3792.4607 
27867000    122.27101   -5137.5858   -4893.0286   -5137.5858            0    7962.8561    17.848208    22.738092    19.086514    7745.9601    8320.6633    7744.2104    7823.6947   -697.67712   -744.95356   -241.36007   -3993.4896 
27868000    121.93802    -5124.539   -4880.6479    -5124.539            0    9505.6061     17.76271    22.554871    19.280992    7724.6527    10864.603     9871.799    7780.4163    97.513977   -742.99786   -44.690418    -3809.783 
27869000    127.13068    -5142.751   -4888.4739    -5142.751            0    7819.4807    17.761238      22.9366    19.023081    7749.6685    7143.1878     7256.076    9059.1783   -744.18814   -292.83306    495.54939   -4004.7086 
27870000    132.88307   -5146.9347   -4881.1521   -5146.9347            0    7903.5959    17.865234    22.545292    19.278886    7765.0901    8537.8647    8055.2687    7117.6542    -449.0373    421.55942    479.35657   -3986.1025 
27871000    124.19101   -5141.3087   -4892.9113   -5141.3087            0    7493.3983    17.907503    22.677555    19.177122    7787.7983    6205.6952    8205.1966    8069.3032   -139.32539    584.15132   -2059.1796   -4041.8333 
27872000     125.7283   -5113.4395   -4861.9673   -5113.4395            0    8562.3304    17.769499    22.785617    19.157617    7756.7083    9820.7624    7883.2466    7982.9823   -373.47068   -760.10805      38.1301   -3893.3654 
27873000     126.0922   -5128.3832   -4876.1832   -5128.3832            0    7570.4289    17.889045    22.660408    19.185589    7777.3209    8014.3233    7004.0455    7692.9178    680.80523   -1600.4371    -741.4738    -4017.513 
27874000    130.30237   -5131.5087   -4870.8878   -5131.5087            0    7321.8828    17.785489     22.71236     19.22565    7766.2097     7565.163    8103.6778    6296.8077   -594.30017    303.11648    344.37043   -4041.5953 
27875000    127.96719    -5121.601   -4865.6508    -5121.601            0    8636.8828    17.916103    22.737868    19.094975    7778.7959    8559.7445    8590.8957    8760.0081     779.1371    465.53898    940.70342   -3885.8331 
27876000    125.22807   -5136.7059   -4886.2343   -5136.7059            0    7278.5673     17.89725    22.573919    19.262751    7782.3645    6670.7033    7604.5565    7560.4422    117.29231   -319.10626    241.94356   -4060.1329 
27877000    120.97981   -5127.3555   -4885.3809   -5127.3555            0    8325.5368    17.787635    22.799941     19.11676    7752.9364    8173.6071    7501.4905    9301.5128   -802.14721   -713.46005    42.310535   -3944.0239 
27878000    124.51794   -5134.5595   -4885.5082   -5134.5595            0    8554.3516    17.850194    22.692436    19.091102    7733.1257    7136.6815    8831.5964    9694.7769   -542.85729   -64.030619   -1419.9077   -3920.7509 
27879000    129.17225   -5110.6237   -4852.2632   -5110.6237            0    8591.9583    17.855569    22.716034     19.06103    7731.3009    10009.251     7871.547    7895.0773   -48.824106   -311.53736    490.87541   -3883.4934 
27880000    126.88148   -5147.2228   -4893.4442   -5147.2228            0    7946.1834    17.946103    22.487552    19.230497    7760.7347    7751.0829    8426.8094    7660.6578    -1.873276    442.96327   -774.96777   -3994.0764 
27881000    123.15106   -5140.3998   -4894.0825   -5140.3998            0    8147.5623    17.859396    22.740974    19.076925    7747.9031    7917.8599    8865.6214    7659.2056    60.259159    268.43319    97.572819   -3973.4469 
27882000    128.19962   -5117.2194   -4860.8044   -5117.2194            0    8971.6898    17.963232    22.633442    19.030439    7737.2014    6627.4709    10680.022    9607.5768    299.88567    350.61115    390.01603   -3848.4466 
27883000    127.26815   -5117.7247   -4863.1727   -5117.7247            0    8247.4341    17.643695    22.721578    19.339353    7753.0032    8705.1983    8281.5761    7755.5279    535.43953    138.91792   -524.82716   -3930.6386 
27884000    121.74061   -5135.8887   -4892.3924   -5135.8887            0    7578.6185    17.829339    22.788347     19.13317    7773.8296    8803.1142    7138.6925    6794.0487   -1259.8161    160.76605    589.20686   -4033.1792 
27885000    119.47929   -5123.2126   -4884.2393   -5123.2126            0     8386.117    17.832136    22.746206    19.110304    7751.3962    8147.2575    9374.9829    7636.1107    -596.8308    310.36918   -921.30458   -3936.2209 
27886000     131.7172   -5128.1792   -4864.7285   -5128.1792            0    8675.5795    17.791756    22.662739     19.22165    7750.3597     9544.599    8677.4739    7804.6655    1112.5672   -32.106642    1583.3657   -3884.1187 
27887000    120.09253   -5125.9519   -4885.7521   -5125.9519            0    8139.7964    17.918382    22.795712    19.009677    7764.7361    9020.2047    7128.2686    8270.9159    591.47657    752.27427   -140.12397   -3963.9957 
27888000    126.48129   -5130.0108   -4877.0326   -5130.0108            0    9139.9261    17.893913    22.593667    19.154384    7743.9088    8229.5169    8434.4038    10755.858    1147.3535   -294.15312    1071.6658   -3844.7971 
27889000     119.6161   -5132.8283   -4893.5814   -5132.8283            0    7785.8527    17.631537    22.926393    19.170826    7749.3757    10519.436    6675.9031    6162.2187   -700.90403   -759.65117   -1322.1436     -4013.65 
27890000    128.12003   -5128.6771   -4872.4212   -5128.6771            0    8215.2253    17.934149    22.606923     19.13393    7757.5826    6467.3415    7912.6507    10265.684    -111.4924      -1099.4   -248.23282   -3942.9803 
27891000    125.73768   -5132.9827   -4881.4918   -5132.9827            0    8625.9279    17.818371    22.754947    19.113412    7749.6494    6831.8136    9597.1562     9448.814   -786.93431    510.27231    424.06477   -3906.5835 
27892000    132.91442    -5145.098   -4879.2528    -5145.098            0    7361.3528     17.87604    22.667435    19.187704     7774.934    6957.5802    8134.2906    6992.1877   -117.96711    762.67104    -2265.893   -4044.5531 
27893000    122.51971   -5126.6527   -4881.5982   -5126.6527            0    8814.8634    17.856425    22.685055    19.110049    7740.9839     8429.765    9265.0456    8749.7795    385.29087    700.11167   -1324.1606   -3886.4503 
27894000    128.70474   -5132.1231   -4874.6977   -5132.1231            0    8483.2827    17.817337    22.738659     19.08861    7733.6045    9292.6626    7819.0114    8338.1741    -67.32189   -348.24462    1819.1892   -3917.8963 
27895000    126.15615   -5126.5622   -4874.2343   -5126.5622            0    9927.3854     17.85549    22.568313    19.110462    7700.9101    9212.1924    10645.308    9924.6557    473.38398   -161.26184   -649.78599   -3759.2909 
27896000    123.59048   -5127.7202    -4880.524   -5127.7202            0    8236.5895    17.664052    22.782364    19.277505    7757.8243    9205.5456    7824.9365    7679.2865     213.6926    -160.8967    559.94057    -3948.637 
27897000     121.3606   -5136.1923   -4893.4561   -5136.1923            0    8773.3028    17.831178    22.630175    19.156858    7730.2264    8899.4084    9097.4928    8323.0073   -617.83983    533.99427    807.32722   -3904.3765 
27898000    125.75529   -5134.9101    -4883.384   -5134.9101            0    8232.8885    17.800693    22.681507     19.19231    7748.8287    8652.2654    8022.2149    8024.1854   -677.31005    753.32577    -399.1447   -3952.9958 
27899000    128.49128   -5121.0535    -4864.055   -5121.0535            0    8674.9424    17.863498    22.700598    19.146886    7764.2937     7760.127    8496.5584    9768.1419   -461.60527    318.63468    16.324738   -3881.7544 
27900000    124.58791   -5137.9042   -4888.7129   -5137.9042            0    8107.4782    17.775261    22.771154     19.21407    7777.1484    9266.8944    8085.4495    6970.0906    302.16549    -77.73527    1216.2323   -3969.1487 
27901000    132.24516   -5118.7435   -4854.2368   -5118.7435            0    7540.8699     17.76965    22.897906    19.123423    7781.0868    7579.2486    7172.8963    7870.4648   -785.33479   -814.57761   -1072.6173   -3998.5052 
27902000    122.16289   -5122.2122   -4877.8713   -5122.2122            0    8132.6124    17.840636    22.669558    19.212118    7770.1363    7795.2615    8773.0978    7829.4779    378.80382    140.41107    98.555759    -3956.288 
27903000    128.39032   -5134.3465     -4877.55   -5134.3465            0    8082.0343    17.916405    22.706256    19.134524    7784.2016    7365.7494    8440.5142    8439.8392   -594.15074    618.34338     624.6739   -3960.0403 
27904000    122.42836   -5126.5685   -4881.6966   -5126.5685            0    7824.3382    17.887745    22.751403    19.064914    7758.8728    7954.6631    7376.3057    8142.0459    293.07128    107.28907    310.42048    -3996.332 
27905000    122.30542   -5125.0039   -4880.3779   -5125.0039            0    8813.0176    17.835814    22.552542    19.261361    7747.7466    8449.8077    9354.7372    8634.5078    -51.46109    170.43306    322.89687   -3884.5692 
27906000    119.58861   -5131.1562   -4891.9642   -5131.1562            0    7710.8123    17.720339    22.908577    19.083179    7746.7735    6677.1287    8096.0674    8359.2407   -390.15063    213.44162    877.37936   -4020.8063 
27907000    121.74505   -5123.8293   -4880.3242   -5123.8293            0    7546.2694    17.911933    22.492701    19.301174    7776.2068    8496.3522    8236.6557    5905.8004    -584.4491    -434.4559    160.54422   -4024.5169 
27908000    121.48332   -5138.9902   -4896.0086   -5138.9902            0    8540.2982    17.817709    22.733418    19.132578    7749.7928    8576.3111    8229.0041    8815.5795   -713.66937   -829.51975   -37.323045   -3930.7604 
27909000    128.66011   -5144.1831    -4886.847   -5144.1831            0    8430.3924    17.862907    22.666353     19.12359     7742.892    8583.9179    7979.5672     8727.692   -638.48918    385.78853    -403.1701   -3934.8691 
27910000    124.36866   -5119.0523   -4870.2996   -5119.0523            0    8780.6338    17.924027     22.61459    19.054325    7723.5663    7535.7685    8842.5198    9963.6131    -370.2054    -1477.877    699.81177   -3881.2465 
27911000    123.48228   -5134.0499   -4887.0701   -5134.0499            0    9215.6879    17.707456    22.804393    19.097646    7711.7781    9074.3992    10054.064    8518.6005   -338.24172   -117.80323   -145.43899   -3850.5966 
27912000    128.27595   -5133.1441   -4876.5764   -5133.1441            0    6853.7916    17.908841    22.737232    19.140075    7793.7902    6879.8166    6201.8255    7479.7328   -436.55686   -1376.5503   -767.08282    -4097.544 
27913000      120.628   -5118.0094   -4876.7386   -5118.0094            0    10065.582    17.789804    22.639274    19.175694    7722.9768    10013.625    10180.102    10003.019   -637.92386    368.12041   -16.019652    -3743.035 
27914000    124.62397   -5127.2076   -4877.9443   -5127.2076            0    8892.7094    17.806455    22.716615    19.060641    7710.0747    8852.5712    8728.3722    9097.1849    1132.7707    19.151081     176.2035   -3878.0166 
27915000    124.04078   -5129.6804   -4881.5835   -5129.6804            0    8799.6239    18.006398    22.545111     19.09675    7752.4448    7821.1391    9036.2709    9541.4617    781.80044    939.22416    419.24142   -3886.6853 
27916000     129.1121   -5116.2903   -4858.0501   -5116.2903            0    8603.0452    17.773836    22.749923    19.176826    7754.2149     8533.369    8972.1748    8303.5918   -955.59026    903.92047   -829.39668   -3885.1552 
27917000    127.25246   -5138.3977   -4883.8771   -5138.3977            0    7960.2296    17.793512    22.716096    19.207978    7763.8482    8001.5096    7376.9175    8502.2615    204.14811    68.135351    206.15346   -3982.5581 
27918000    118.58672   -5103.7628   -4866.5747   -5103.7628            0    9205.6656    17.778404    22.729525    19.148692     7737.885    9484.1373    9246.8808    8885.9786   -315.82146   -153.67996    39.532842   -3827.7235 
27919000    129.27283   -5113.6977    -4855.136   -5113.6977            0     8905.306    17.772754    22.747391     19.10708    7724.6827    8989.5067    8884.2992    8842.1122   -430.21352    -246.8037    1510.4565   -3851.8948 
27920000    122.51578   -5117.7668   -4872.7201   -5117.7668            0     9029.518    17.901819     22.52867    19.218679    7750.9737    8147.2883    9594.8609    9346.4048    314.54126    581.73793     397.2283   -3852.0233 
27921000    126.49525   -5126.5168   -4873.5107   -5126.5168            0    7706.7262    17.826055    22.833651    19.093375    7771.6512    9682.1689    6493.2706    6944.7391    766.09552    786.57956    810.67982   -4000.0183 
27922000    128.55956   -5146.3252   -4889.1902   -5146.3252            0    8225.4471    17.927038    22.525626    19.241449    7770.0387    8612.0401    8087.3301    7976.9711   -54.030786    446.50319   -279.46033   -3957.0986 
27923000    126.13501   -5141.0734   -4888.7878   -5141.0734            0    8055.7416    17.722326    22.928778    19.043847    7738.4916    8114.4121    7335.0317     8717.781    631.35542   -586.65709   -330.93156   -3979.6332 
27924000    127.65627    -5138.015   -4882.6867    -5138.015            0    7575.0637    17.886515    22.632669    19.187097    7767.3125    7187.0243    7530.1628    8008.0039    884.36993   -606.63425    206.57441   -4024.5965 
27925000    127.15129   -5140.3216   -4886.0033   -5140.3216            0    7133.8548    17.846378     22.80679    19.115224    7780.2521    6669.2816     6719.582    8012.7008    522.64313   -376.78091    44.837655   -4076.5462 
27926000    125.10649    -5130.984   -4880.7556    -5130.984            0    9072.4179    17.939882    22.523529    19.139297    7733.6052    8912.5554    9304.0606    9000.6377    474.10666    719.08801   -615.92173   -3857.5075 
27927000     134.1069   -5135.2037   -4866.9733   -5135.2037            0    8163.1818    17.826427    22.733559    19.123303    7749.8741    7976.3449    7666.8747    8846.3259    433.59374   -324.16581    670.35935   -3944.3382 
27928000    123.47317   -5118.2047   -4871.2431   -5118.2047            0     8593.127    17.922438    22.583546    19.160829    7755.3877    8913.0613    8177.3909    8688.9289   -369.32392   -433.15174   -2130.3285   -3899.3228 
27929000    125.13983   -5125.1372   -4874.8421   -5125.1372            0    7854.7142    17.834652    22.753503     19.17972    7783.1457    8337.7304    7552.0037    7674.4084   -1310.0706   -659.18511    410.20554   -3983.2598 
27930000    121.02041   -5115.4149   -4873.3592   -5115.4149            0     8050.389    17.870776    22.729803    19.087833    7753.4631    8035.4959    8096.2544    8019.4168    805.23454   -369.48784   -586.69614   -3963.0509 
27931000    123.97586   -5129.7935   -4881.8265   -5129.7935            0    8119.9147    17.843451    22.611243    19.196275    7744.9793    8094.6981    8782.4341    7482.6119    -1182.933    221.30582    108.32918   -3964.6612 
27932000    127.53104   -5124.2545   -4869.1766   -5124.2545            0    9051.6676    17.797337    22.718249    19.137638    7737.8126    9948.1256    7833.7926    9373.0845   -6.2173123   -516.01728   -1830.6921   -3847.7135 
27933000    121.75561   -5127.0228   -4883.4965   -5127.0228            0    9011.2152    17.908295    22.726905    18.988374    7728.2706    7790.9841    9095.6231    10147.038   -613.17466   -515.51825    1411.3988   -3867.8523 
27934000    119.90989   -5133.4008   -4893.5662   -5133.4008            0     8046.067    17.834209    22.707089    19.131559    7747.5728    8946.2674    6697.9447    8493.9888   -520.97103   -479.12818   -905.07142   -3984.4378 
27935000    126.27443   -5115.0549   -4862.4904   -5115.0549            0    8672.8576    17.765829    22.807708    19.096148    7737.7181    9549.5422    8410.8908    8058.1399   -36.334099    184.59922    83.724794   -3883.7872 
27936000    127.39544   -5126.8159   -4872.0093   -5126.8159            0    7988.4884    17.778644    22.738491    19.224301    7771.6071    9049.4397     7107.559    7808.4664    861.52756    -515.0901    -972.9648   -3966.5867 
27937000    123.26594   -5133.0775   -4886.5304   -5133.0775            0    8056.0745    17.865445    22.577956    19.246371    7763.3168    7216.2596    9202.2241    7749.7399    545.03518   -76.079737    209.98777   -3974.4215 
27938000    123.69932    -5118.549   -4871.1351    -5118.549            0    7103.1915    17.789134    22.927736    19.114345    7796.0643    7516.2433    7360.3455    6432.9858    355.10023    1476.0389   -1022.0115   -4063.5193 
27939000    116.93718   -5126.3753   -4892.4865   -5126.3753            0    7637.2272    17.934804    22.570886    19.178143    7763.3968    7263.9782    8566.5735    7081.1301   -503.89245    466.74335    1227.8168   -4027.7906 
27940000    125.65561   -5108.5761   -4857.2494   -5108.5761            0    8147.0737     17.82085    22.756702    19.149659    7766.0252    8077.0647    8176.9116    8187.2447   -134.25907    522.52244   -365.03409   -3934.5158 
27941000    130.37485   -5130.6351   -4869.8692   -5130.6351            0    8041.8231    17.782204    22.705575    19.197035     7750.902    8247.4917    8315.9508    7562.0268    1279.4001    583.78039    -675.7112     -3960.83 
27942000    134.25699   -5137.3607   -4868.8301   -5137.3607            0    8689.7411    17.854018    22.741716    19.037136    7729.6674    8583.1554    7773.8253    9712.2427   -397.80863    -1635.131    202.21242    -3889.242 
27943000    127.51065   -5139.5938   -4884.5567   -5139.5938            0     7625.444     17.88105    22.776295    19.080922    7770.9742    6766.6801     7535.419    8574.2329   -163.09276   -221.71005   -904.13639   -4020.3523 
27944000    129.45793   -5135.7495   -4876.8176   -5135.7495            0    7414.4903    17.741836    22.856701    19.197346    7784.9051    9543.9624     6169.999    6529.5096   -161.69797    120.39186    89.523519   -4035.0146 
27945000     123.5794   -5121.2323   -4874.0582   -5121.2323            0    8112.6362    17.819568    22.692655     19.15456    7745.5926    9766.4163    7575.8888    6995.6033    679.85599    -352.4714    -1595.996   -3957.6425 
27946000    126.12766   -5140.2955   -4888.0245   -5140.2955            0    6982.2414    17.919541    22.675873    19.165633    7787.7869    6576.1622    7206.3524    7164.2095   -272.15196    147.59545   -300.06619   -4095.0033 
27947000    129.59321   -5133.9754   -4874.7729   -5133.9754            0    8869.7558     17.73254    22.770829    19.157756    7735.6074     8664.269    8367.6871    9577.3113   -130.71785   -190.97588   -546.89976   -3874.1234 
27948000    124.19223   -5127.3936   -4878.9938   -5127.3936            0     7687.348    17.862124    22.570197    19.303873    7782.3881    9478.5745    7104.8525     6478.617    921.99789   -449.88954   -1924.3686   -4006.4941 
27949000    130.68587   -5132.1715   -4870.7836   -5132.1715            0    7373.1697    17.811076    22.902686    19.063402    7776.3712    7756.5666    6130.3814    8232.5612    -112.8267     382.2526    486.24537   -4034.5895 
27950000    119.41127   -5122.5056   -4883.6683   -5122.5056            0    7934.6279    17.976447    22.508564    19.211846    7773.5743    7481.4353    8751.5013     7570.947    397.64265    782.79625   -1435.7129   -3984.1226 
27951000    125.61383    -5128.333   -4877.0898    -5128.333            0    7804.1271    17.864038    22.635315    19.165942    7749.9044    7146.2037    8221.6641    8044.5136    683.12686    151.13494    -60.01198    -3995.033 
27952000    123.61218   -5131.8622   -4884.6226   -5131.8622            0    6967.0911    17.830905    22.823795    19.127443    7784.2746    7739.1683    6325.2881    6836.8168    1439.6604   -408.15751    1179.9194    -4093.679 
27953000     123.8217   -5138.1634   -4890.5047   -5138.1634            0    7357.2407    17.789351    22.706071    19.249607    7775.4219    7289.0333    7837.6024    6945.0863     18.38366    70.886635     204.5328   -4056.2189 
27954000    123.51153   -5138.4861   -4891.4478   -5138.4861            0    7957.2223    17.807014    22.763842    19.121416    7750.9819    10002.951    7773.8929    6094.8231   -45.564277    580.84802     1642.966   -3991.9624 
27955000    126.37087   -5146.3761   -4893.6187   -5146.3761            0     7403.582    17.837204    22.753246    19.152661      7773.19    6279.1611    7723.7511    8207.8339    727.27831     767.2442    257.25453    -4054.319 
27956000    128.80598    -5139.309   -4881.6811    -5139.309            0    9226.0719    17.880783    22.531113    19.183214    7728.4171    9007.8893    10086.125    8584.2013   -237.16061     899.0313   -233.01191    -3841.801 
27957000    130.65084   -5140.9186   -4879.6007   -5140.9186            0    7968.8965    17.812366    22.947178    19.009016    7769.8121    6877.1576     7663.147     9366.385   -146.37481    97.167742   -461.12848   -3976.6073 
27958000     127.4091   -5124.5381   -4869.7042   -5124.5381            0    8363.7047    18.013154     22.49468     19.16009    7763.6711    6687.0866    9298.6781    9105.3495    -526.3288    143.14558     403.2982   -3922.7222 
27959000    128.48339   -5136.2543   -4879.2717   -5136.2543            0    6660.1261    17.801948    22.839066    19.141745    7782.6481    6442.3957    6804.9994    6732.9831   -506.23535    432.08974   -433.26494   -4123.3344 
27960000    128.03869   -5125.7474   -4869.6542   -5125.7474            0    7803.8898    17.952608    22.837056     18.96155    7773.9461    6798.3265    7647.6499    8965.6929     976.4545    253.82274   -28.253526   -3984.8879 
27961000     127.9043    -5128.967   -4873.1426    -5128.967            0    8453.9696    17.768338    22.620621    19.272727    7746.3031    9931.9859    8850.3293    6579.5936   -260.58014    537.18958    46.144527   -3918.0817 
27962000    125.97876   -5131.6462   -4879.6731   -5131.6462            0    8019.2924    17.887627    22.680651     19.12868    7760.5632    7107.8678    9013.9735    7936.0359    598.00093    448.80104    102.66845   -3972.0508 
27963000    124.71019    -5127.943   -4878.5072    -5127.943            0    8288.1226    17.860918     22.68099    19.137199    7752.5426    7412.4395    8159.4095    9292.5188     1334.582    -247.1989    1591.6555   -3941.4282 
27964000    126.37788    -5133.629   -4880.8576    -5133.629            0    7355.1889    17.721686    22.777522    19.196248     7748.682    8500.1381    6599.5062    6965.9224   -593.74291   -843.90078   -687.86313   -4049.6729 
27965000    121.47728   -5143.8446   -4900.8751   -5143.8446            0    7467.6926    17.818061    22.731342    19.179659    7768.3074    7020.1668    7892.8014    7490.1096   -426.03583   -682.95547   -676.89431   -4054.8393 
27966000    122.54988   -5125.0974   -4879.9825   -5125.0974            0    9108.9116    17.805642    22.637687    19.192687    7736.1606    8429.6523    10245.778    8651.3045   -237.86372     494.1476   -392.59914   -3852.2789 
27967000     121.7267   -5142.8594   -4899.3909   -5142.8594            0    7526.2576    17.823605    22.715062    19.188991    7768.9371    7358.6845    7902.1956    7317.8927    278.91713     999.4844    987.84493   -4046.6511 
27968000     125.3861   -5122.1288   -4871.3411   -5122.1288            0    8331.2401    17.815373    22.658126     19.22916       7762.1    7924.1641    8798.5784    8270.9778     -993.469     524.9728    310.53182   -3928.2258 
27969000    123.56103   -5132.1804   -4885.0431   -5132.1804            0    6598.3785    17.898804    22.721613    19.173274    7797.5732    6865.5148    6986.8716    5942.7491   -1731.6651    -90.59671   -1676.8831   -4134.6781 
27970000    120.36051   -5133.2592   -4892.5233   -5133.2592            0    9122.0544    17.871655    22.688259    19.038296    7719.5857    8510.0509    9106.6604    9749.4518    614.84188   -169.72866     122.2673    -3865.542 
27971000    126.94669    -5139.167   -4885.2579    -5139.167            0    6501.0502    17.861173     22.73288    19.196383    7794.4204    6020.0206     6971.757     6511.373    1046.4209    514.98099    450.90338     -4146.26 
27972000    119.29757   -5136.5922   -4897.9823   -5136.5922            0    7836.2927    17.852461    22.869467    19.013763    7762.8683    8214.9507    7195.8051    8098.1221   -670.63593    188.48233   -3.0095331   -4010.8084 
27973000     115.8216   -5124.6019   -4892.9444   -5124.6019            0    8985.1314    17.967248    22.452055    19.208387    7748.6947     9131.164    9784.9879    8039.2423   -442.72398   -276.52373   -432.44932   -3877.5637 
27974000    129.95945   -5134.9666   -4875.0317   -5134.9666            0    8850.1524    17.745151    22.891001    19.001504    7718.4919    7651.1737    8899.2413    10000.042   -402.01121    118.48269   -1084.4495   -3878.8029 
27975000    123.22461   -5129.9092   -4883.4447   -5129.9092            0      8435.15     17.91756    22.320072    19.335652    7732.7377    7639.9521    9462.8369    8202.6609    264.88487   -652.20209   -706.51389   -3932.1787 
27976000    116.28882   -5109.3031   -4876.7111   -5109.3031            0    8700.9398    17.647837     22.86414    19.154358    7728.8336    9090.9622    9242.0704    7769.7868   -39.593849    521.39342     339.7243   -3895.9663 
27977000    131.38514   -5111.8437   -4849.0572   -5111.8437            0    8395.9547    17.879745    22.630667    19.179806    7760.7355    7588.9026    9664.3354    7934.6262     413.3464    664.24414    489.42409   -3898.7832 
27978000    129.96094   -5128.2975   -4868.3595   -5128.2975            0    7201.0165    17.946971     22.73207    19.057493      7774.92    6523.9279     6339.758    8739.3636   -1071.5999   -1215.1672    -1345.157   -4051.8418 
27979000    126.62434   -5122.9162   -4869.6519   -5122.9162            0     8540.838    17.723398    22.824848     19.19288    7764.1698     10179.35    7463.8946    7979.2694   -389.17728   -1449.8633   -611.58849   -3902.5518 
27980000    137.52463   -5130.6983    -4855.632   -5130.6983            0    8415.9696    17.870059    22.619671    19.155212    7742.8212    8067.0202    8511.8737    8669.0148    337.05708   -127.21862    582.99362   -3905.2915 
27981000    125.58432   -5116.9989   -4865.8148   -5116.9989            0    7537.5819    17.865947    22.793378    19.078512    7769.2522    8286.2323    7023.1994    7303.3141    125.43368    461.44416     1032.741   -4011.7572 
27982000    125.45704   -5124.1519   -4873.2223   -5124.1519            0    9304.7227     17.96636      22.5986    19.068713    7742.1754    9099.4573    9471.1848    9343.5261    731.19324    542.72308   -143.56399   -3822.6104 
27983000    124.07216   -5133.4286   -4885.2689   -5133.4286            0    8655.5185    17.929198    22.575874     19.13493    7745.1943    6650.5578    9938.2271    9377.7706   -1048.0551    1237.3615   -356.58143   -3907.5787 
27984000    127.31484   -5117.2383   -4862.5928   -5117.2383            0    9306.9243    17.832119    22.852331    18.953348    7723.5933    9884.5852    8764.4852    9271.7026    108.52511   -293.54322    246.92644   -3814.2545 
27985000    121.56986   -5130.8112   -4887.6565   -5130.8112            0     9199.391    17.818497    22.686391    19.098619    7720.3758     9567.091    8475.3492    9555.7328     559.0062   -1069.6554    348.03313   -3851.8624 
27986000    123.39427   -5127.6795   -4880.8758   -5127.6795            0    9286.6118    17.798205    22.719059    19.089737    7719.0965    10121.628    9221.5527    8516.6547   -896.33502    -463.1316   -140.35224   -3835.4345 
27987000    124.28097   -5130.3424   -4881.7651   -5130.3424            0    9035.2917    17.902107    22.611255     19.12475    7741.4906    8031.4211    9635.6601     9438.794    274.51873    149.26015   -951.49983   -3861.6653 
27988000    130.59133   -5127.9519   -4866.7531   -5127.9519            0    8436.9357     17.90444    22.721015    19.042667    7746.6909    8112.3709    8692.6771    8505.7591    -148.8548    93.858037    291.34665   -3913.5689 
27989000    127.31531   -5129.2703   -4874.6239   -5129.2703            0    9670.7327    17.860993    22.636741     19.09561    7720.6352    8735.2266    10547.294    9729.6772   -840.85733   -480.01928    74.976212   -3785.7231 
27990000    124.30991   -5113.7393   -4865.1041   -5113.7393            0     8389.116    17.711657     22.88198    19.068823    7728.1707    9009.6418    8016.5182    8141.1881   -276.38958    37.163106   -1314.6407   -3919.5883 
27991000    123.42521   -5136.6477    -4889.782   -5136.6477            0    8287.6442    17.915394    22.553193    19.193442    7755.0976    7939.7987    8203.8364    8719.2975   -374.41042   -821.56329    409.56984   -3952.4483 
27992000    124.35923    -5131.145   -4882.4112    -5131.145            0    8553.5593    17.807816    22.844461    19.042892    7746.8384    9286.9726    7789.9629    8583.7424    964.33941   -178.51958    1220.6496   -3916.0327 
27993000    129.72671   -5127.5391   -4868.0697   -5127.5391            0    8246.5147    17.972627    22.489952    19.234286    7774.5659    8256.5408    8571.1142     7911.889   -945.06436    348.01472    284.02646   -3933.0463 
27994000    123.83307   -5115.4792   -4867.7977   -5115.4792            0    8836.4751     17.86457    22.758773    19.083954    7759.0715    9346.7721    8389.4645    8773.1886    397.10758    667.76933   -880.05627    -3867.879 
27995000    128.71414   -5119.1528   -4861.7086   -5119.1528            0    8404.8545    17.830537    22.735398    19.158955    7766.7404    7941.3868    8275.3502    8997.8265    781.30734    5.4834906    137.12732   -3909.6912 
27996000    122.96519   -5124.5035   -4878.5579   -5124.5035            0    7985.9273    17.764951    22.658748    19.269434    7756.5552    8992.7014    7991.4796    6973.6008   -1087.2089   -641.46226    -1090.968   -3975.1786 
27997000    128.19775   -5134.4558   -4878.0445   -5134.4558            0    8772.2784    17.708286    22.747754    19.225283    7744.4003    8288.5923      9451.34    8576.9029    625.11049    393.15806   -857.92763   -3887.2671 
27998000    129.47375   -5125.5238   -4866.5604   -5125.5238            0    9035.1746    17.871945    22.708287    19.122565    7760.7258    8401.7241    9615.1963    9088.6034    417.03249    497.87924    427.64364   -3843.9392 
27999000    123.50555   -5133.1167   -4886.0903   -5133.1167            0    7844.5485    17.879351    22.690293    19.117837    7755.8715    7579.0789    7557.2805     8397.286    433.19683    29.732128   -510.83117   -3998.7822 
28000000    128.90809   -5121.9515   -4864.1194   -5121.9515            0    7679.3448    17.903223    22.694888    19.147327    7779.7819    7911.5275    7724.3851    7402.1219    348.98426   -203.61699   -66.733792   -3992.8199 
Loop time of 537.137 on 64 procs for 250000 steps with 1008 atoms

Performance: 80.426 ns/day, 0.298 hours/ns, 465.431 timesteps/s
372.9% CPU use with 16 MPI tasks x 4 OpenMP threads

MPI task timing breakdown:
Section |  min time  |  avg time  |  max time  |%varavg| %total
---------------------------------------------------------------
Pair    | 41.527     | 44.436     | 47.781     |  27.3 |  8.27
Bond    | 1.5067     | 1.755      | 2.3305     |  14.5 |  0.33
Kspace  | 257.03     | 261.76     | 267.57     |  15.8 | 48.73
Neigh   | 1.5367     | 1.586      | 1.6201     |   1.8 |  0.30
Comm    | 73.42      | 78.741     | 83.338     |  32.2 | 14.66
Output  | 0.65396    | 0.65435    | 0.65641    |   0.1 |  0.12
Modify  | 115.23     | 119.47     | 123.48     |  22.2 | 22.24
Other   |            | 28.74      |            |       |  5.35

Nlocal:        63.0000 ave          67 max          58 min
Histogram: 1 0 2 1 2 3 2 3 1 1
Nghost:        3454.25 ave        3479 max        3434 min
Histogram: 1 2 1 2 3 3 2 1 0 1
Neighs:        21498.2 ave       22871 max       19903 min
Histogram: 1 2 1 0 2 3 2 3 0 2

Total # of neighbors = 343971
Ave neighs/atom = 341.24107
Ave special neighs/atom = 2.0000000
Neighbor list builds = 3392
Dangerous builds = 0

unfix		3
unfix		2
unfix		1

write_data	data.final.${pid}
write_data	data.final.1
System init for write_data ...
PPPM initialization ...
  extracting TIP4P info from pair style
  using 12-bit tables for long-range coulomb (../kspace.cpp:340)
  G vector (1/distance) = 0.38005715
  grid = 24 27 32
  stencil order = 5
  estimated absolute RMS force accuracy = 0.0023679553
  estimated relative force accuracy = 7.1310271e-06
  using double precision FFTW3
  3d grid and FFT values/proc = 7875 1344
Last active /omp style is kspace_style pppm/tip4p/omp
WARNING: Not all mixed pair coeffs generated from mixing. Use write_data with 'pair ij' option to store all pair coeffs. (../write_data.cpp:312)

write_restart   restart.lmp.${pid}
write_restart   restart.lmp.1
System init for write_restart ...
PPPM initialization ...
  extracting TIP4P info from pair style
  using 12-bit tables for long-range coulomb (../kspace.cpp:340)
  G vector (1/distance) = 0.38005715
  grid = 24 27 32
  stencil order = 5
  estimated absolute RMS force accuracy = 0.0023679553
  estimated relative force accuracy = 7.1310271e-06
  using double precision FFTW3
  3d grid and FFT values/proc = 7875 1344
Last active /omp style is kspace_style pppm/tip4p/omp
Total wall time: 0:08:57
