#include		in.partitions
include		in.temp
variable        temperature equal 98.97
variable	tempDamp equal 100.0
include		in.pressure
variable        pressure equal 6906.2
variable        pressureDamp equal 1000.0 # This is 1 ps
include		in.seed
variable        seed equal 745823

units		real
atom_style	full
read_restart    restart.lmp.${pid}
read_restart    restart.lmp.0
Reading restart file ...
  restart file = 30 Jul 2021, LAMMPS = 30 Jul 2021
  restoring atom style full from restart
  triclinic box = (-3.1117002 -0.039214089 0.020277417) to (14.721699 22.619213 19.209721) with tilt (-0.22535924 -6.7047316 0.13077877)
  2 by 4 by 4 MPI processor grid
  restoring pair style lj/cut/tip4p/long/omp from restart
  restoring bond style harmonic/omp from restart
  restoring angle style harmonic/omp from restart
  1008 atoms
  672 bonds
  336 angles
Finding 1-2 1-3 1-4 neighbors ...
  special bond factors lj:    0        0        0       
  special bond factors coul:  0        0        0       
     2 = max # of 1-2 neighbors
     1 = max # of 1-3 neighbors
     1 = max # of 1-4 neighbors
     2 = max # of special neighbors
  special bonds CPU = 0.002 seconds
  read_restart CPU = 0.007 seconds

include 	in.setup
variable	out_freq equal 1000
variable	out_freq2 equal 10000
variable	out_freq3 equal 1000

timestep	2.0

neigh_modify    delay 7 every 1

include		in.tip4p
# This is TIP4P/Ice

# create groups ###
group ox type 2
336 atoms in group ox
group hy type 1
672 atoms in group hy

# set charges - beside manually ###
set group ox charge -1.1794
Setting atom values ...
  336 settings made for charge
set group hy charge 0.5897
Setting atom values ...
  672 settings made for charge

# ### TIP3P Potential Parameters ###
pair_style lj/cut/tip4p/long/omp 2 1 1 1 0.1577 8.5
pair_coeff 1 1*2 0.000 0.000
pair_coeff 2 2 0.21084 3.1668
bond_style  harmonic
bond_coeff  1 450 0.9572
angle_style harmonic
angle_coeff 1 55 104.52
kspace_style pppm/tip4p/omp 1.0e-5
pair_modify tail yes

thermo          ${out_freq}
thermo          1000
thermo_style    custom step temp pe etotal epair emol press lx ly lz vol pxx pyy pzz pxy pxz pyz enthalpy

restart 	${out_freq3} restart.lmp.${pid} restart2.lmp.${pid}
restart 	1000 restart.lmp.${pid} restart2.lmp.${pid}
restart 	1000 restart.lmp.0 restart2.lmp.${pid}
restart 	1000 restart.lmp.0 restart2.lmp.0


include         in.dump
dump            myDump all atom ${out_freq2} dump.water.${pid}
dump            myDump all atom 10000 dump.water.${pid}
dump            myDump all atom 10000 dump.water.0
dump            myDump2 all dcd ${out_freq2} dump.dcd
dump            myDump2 all dcd 10000 dump.dcd
dump_modify     myDump append yes
dump_modify     myDump2 append yes


variable natoms 	equal  "count(all)"                        # NUMBER ATOMS
variable H      	equal  "enthalpy/v_natoms"                 # ENTHALPY-per-atom
variable Vol      	equal  "vol/v_natoms"                 # volume-per-atom
fix AVG all 		ave/time ${out_freq} 1 ${out_freq} v_Vol v_H file vol_enthalpy.dat
fix AVG all 		ave/time 1000 1 ${out_freq} v_Vol v_H file vol_enthalpy.dat
fix AVG all 		ave/time 1000 1 1000 v_Vol v_H file vol_enthalpy.dat



fix 		1 all shake 1e-6 200 0 b 1 a 1
       0 = # of size 2 clusters
       0 = # of size 3 clusters
       0 = # of size 4 clusters
     336 = # of frozen angles
  find clusters CPU = 0.001 seconds
fix             2 all nph tri ${pressure} ${pressure} ${pressureDamp}
fix             2 all nph tri 6906.2 ${pressure} ${pressureDamp}
fix             2 all nph tri 6906.2 6906.2 ${pressureDamp}
fix             2 all nph tri 6906.2 6906.2 1000
fix             3 all temp/csvr ${temperature} ${temperature} ${tempDamp} ${seed}
fix             3 all temp/csvr 98.97 ${temperature} ${tempDamp} ${seed}
fix             3 all temp/csvr 98.97 98.97 ${tempDamp} ${seed}
fix             3 all temp/csvr 98.97 98.97 100 ${seed}
fix             3 all temp/csvr 98.97 98.97 100 745823


run             250000
PPPM initialization ...
  extracting TIP4P info from pair style
  using 12-bit tables for long-range coulomb (../kspace.cpp:340)
  G vector (1/distance) = 0.38010394
  grid = 24 27 32
  stencil order = 5
  estimated absolute RMS force accuracy = 0.0023658026
  estimated relative force accuracy = 7.1245442e-06
  using double precision FFTW3
  3d grid and FFT values/proc = 5355 672
Last active /omp style is kspace_style pppm/tip4p/omp
Neighbor list info ...
  update every 1 steps, delay 7 steps, check yes
  max neighbors/atom: 2000, page size: 100000
  master list distance cutoff = 10.8154
  ghost atom cutoff = 10.8154
  binsize = 5.4077, bins = 5 5 4
  1 neighbor lists, perpetual/occasional/extra = 1 0 0
  (1) pair lj/cut/tip4p/long/omp, perpetual
      attributes: half, newton on, omp
      pair build: half/bin/newton/tri/omp
      stencil: half/bin/3d/tri
      bin: standard
Per MPI rank memory allocation (min/avg/max) = 10.31 | 10.32 | 10.33 Mbytes
Step Temp PotEng TotEng E_pair E_mol Press Lx Ly Lz Volume Pxx Pyy Pzz Pxy Pxz Pyz Enthalpy 
32750000     101.4755   -5178.7333   -4975.7697   -5178.7333            0    7755.7179    17.833399    22.658427    19.189443    7754.0085    9383.9301    7455.8583    6427.3653    773.81502   -306.75409    1110.4355   -4098.7201 
32751000    100.10631   -5186.8793   -4986.6543   -5186.8793            0    8617.2847    17.851129    22.636184     19.09792    7717.1151    8260.4185    8682.4895    8908.9462    515.17504   -732.02645    30.830669   -4016.8116 
32752000    100.68612   -5186.7711   -4985.3865   -5186.7711            0    6994.2448    17.869575    22.569646    19.222104    7752.4661    6701.2393    7800.4431    6481.0521    740.86199    103.95262   -296.05437   -4194.6048 
32753000    98.795721   -5192.3045   -4994.7008   -5192.3045            0    5603.9339    17.821656     22.76485    19.198327    7788.9017    5482.3196    5968.6118    5360.8703   -919.64532    577.20975   -21.800356   -4358.1324 
32754000     95.19201   -5194.0261   -5003.6303   -5194.0261            0    6692.4766    17.816649    22.768349    19.141337     7764.792    6606.6044    7125.4116    6345.4139    193.93395    -424.7315   -376.78057    -4245.764 
32755000    98.115478   -5184.3789   -4988.1358   -5184.3789            0    7130.9321    17.908793    22.705253    19.097436    7765.4697    7298.2953    6642.3896    7452.1116    518.13351   -184.03752   -369.19755   -4180.5477 
32756000    101.67665   -5186.2653   -4982.8994   -5186.2653            0    6342.7018    17.846033    22.677798    19.235274    7784.6831    6153.4204    5959.9293    6914.7556    51.486997    61.990851    365.09401   -4262.8022 
32757000    97.699003   -5186.7801     -4991.37   -5186.7801            0    6867.3857    17.888056    22.683026    19.107095    7752.8043    8025.6249    6162.0953     6414.437   -927.67591   -1684.2411    317.36935   -4214.8974 
32758000    97.250416   -5178.1853   -4983.6724   -5178.1853            0    7713.0244    17.766799    22.743972    19.148346    7737.6088    7658.3353    8147.7236    7333.0144    212.29316    618.75663    296.74715   -4113.2955 
32759000    99.385804   -5173.8105   -4975.0266   -5173.8105            0    7130.5209    17.811053      22.7163     19.16402    7753.7861    7616.2522    6845.6785    6929.6321    -393.4629   -105.87007    384.44381   -4168.7001 
32760000    101.94702    -5187.432   -4983.5254    -5187.432            0    5813.7147    17.862048    22.662768    19.235816    7786.7248    5359.9176     6608.574    5472.6526    94.983914    -90.81751   -595.64636   -4323.3118 
32761000     101.2444   -5193.3106   -4990.8093   -5193.3106            0    6536.7515    17.933968     22.75521    19.035446    7768.1983    6239.1377    6369.7245    7001.3924    410.49107   -80.981005     953.9451   -4250.2528 
32762000     101.1554   -5172.4426   -4970.1193   -5172.4426            0    6852.5147    17.730649      22.7579    19.230288    7759.6586    5991.5098    7415.0958    7150.9386     300.8961    334.52597   -1329.8983   -4194.6431 
32763000    101.94366   -5180.1768   -4976.2769   -5180.1768            0     5066.081    17.897544    22.535451    19.424581    7834.5011    5996.0653    5323.2663    3878.9113   -84.971934   -206.55681   -348.76986   -4397.4357 
32764000    99.687577    -5192.837   -4993.4496    -5192.837            0    6493.4207    17.872666    22.729936    19.179444    7791.5447    6600.1748    6399.9352    6480.1519   -774.65457     162.9613   -1244.3621   -4255.5912 
32765000    101.08991   -5186.6214   -4984.4291   -5186.6214            0    7307.4857    17.669016    22.952765     19.07597    7736.3125    8409.6237    6727.7128    6785.1205   -300.42187   -418.70405   -768.45002   -4159.9534 
32766000    102.88871   -5184.2033   -4978.4131   -5184.2033            0    8306.7763    17.811302    22.575874    19.213459    7725.8414    8760.9161     8382.108    7777.3048   -903.75709    410.03012   -736.71023   -4042.4598 
32767000    100.96573   -5185.2598   -4983.3159   -5185.2598            0     7793.812    17.852239    22.689144    19.112062    7741.3793    7082.6402    7530.7151    8768.0807     795.8916    296.75998    747.52845   -4103.3939 
32768000    98.231514   -5189.2056   -4992.7304   -5189.2056            0    7463.4687    17.942061    22.722753    18.985743    7740.3547    6913.7861     6525.557     8951.063   -132.07094   -1256.9836    513.81045   -4150.2157 
32769000    101.56779   -5186.5757   -4983.4276   -5186.5757            0    8342.6448    17.779056    22.633281    19.189665    7721.8902    8744.4612    8472.2684    7811.2046    559.86448    175.72321   -394.82569   -4043.9136 
32770000    96.869047   -5183.5634   -4989.8133   -5183.5634            0    6804.8718     17.88196    22.615984    19.208622    7768.3148    6296.7252    7589.4231    6528.4671   -643.02865    396.07694   -1147.7856   -4218.8697 
32771000    93.352722   -5181.6433   -4994.9264   -5181.6433            0    7453.9003    17.841761    22.821647     19.02969    7748.4784    7142.9046    7385.4059    7833.3903    368.91075    109.24509   -517.04781   -4152.6087 
32772000    99.374928   -5184.7747   -4986.0126   -5184.7747            0    6524.2335     17.83377    22.762542    19.132796    7766.8044    6475.4892    6326.0954    6771.1158   -588.54799   -450.99567    179.33071   -4247.0069 
32773000    97.038033   -5188.3049   -4994.2169   -5188.3049            0    7696.8607    17.871098    22.505377    19.258561    7745.7123    8093.9044    7709.3599    7287.3177    308.10987    -53.93177   -326.90835   -4124.7543 
32774000    103.34757   -5176.2279     -4969.52   -5176.2279            0    6879.6501    17.906413    22.804182     19.05024     7778.996    6662.2082    6429.3639    7547.3781    1624.8842   -145.04765    382.62894   -4189.0328 
32775000    102.42535   -5179.7484   -4974.8851   -5179.7484            0    7046.2384    17.724551    22.788553    19.213482    7760.6495    7768.1615    6270.3002    7100.2535   -35.286626   -635.78325   -804.16419    -4177.384 
32776000    104.65677   -5188.8646   -4979.5382   -5188.8646            0      6837.89    17.963622    22.648284    19.085245    7764.7406    4766.6507    7618.0464    8128.9731    654.60221   -6.4067642    784.02279   -4205.2102 
32777000    101.66525   -5179.4611    -4976.118   -5179.4611            0    6080.3258    17.965093    22.626113    19.136421    7778.5769    5329.6281    5883.9534    7027.3959    329.58116   -630.09872    -1437.107   -4286.3503 
32778000    98.486355   -5185.4315   -4988.4466   -5185.4315            0    6739.1456    17.819668    22.872073    19.027358    7755.0325    7116.5669    6181.7917    6919.0781   -96.672405    317.62297    1527.1759   -4226.2546 
32779000    100.83691    -5183.983   -4982.2967    -5183.983            0    7750.7174    17.771694    22.679214    19.203161    7739.7964    7937.4705    7562.0018    7752.6799   -1175.8361    -773.8878    211.07127   -4107.4191 
32780000    104.69944   -5187.1802   -4977.7684   -5187.1802            0      6964.03    17.968001    22.620578    19.107914    7766.3461    6145.1814    7427.2379    7319.6707   -525.51862    1178.0946   -1113.8948   -4188.9932 
32781000     101.5233   -5180.0441   -4976.9849   -5180.0441            0    6508.7857    17.855937    22.815043    19.095426    7779.1702    5728.5246    6418.2481    7379.5843     60.14366    614.39753    430.22293   -4238.5552 
32782000    94.693216   -5170.7758   -4981.3776   -5170.7758            0    6985.2011    17.803468    22.789897    19.152081    7770.7499    6889.3118    6726.5274    7339.7642    1618.5167    1.7251777    344.94034   -4189.7558 
32783000    94.090455   -5171.4855    -4983.293   -5171.4855            0    6777.9972    17.985611    22.609616    19.102455    7767.9702    7477.4023     6016.368    6840.2213   -272.15403   -632.01867     713.1501   -4215.4281 
32784000     98.12175   -5195.8811   -4999.6254   -5195.8811            0    6132.7157    17.875355    22.667961    19.194901    7777.7327    5636.2785    6142.6418    6619.2269    909.23968   -634.70133    990.16442   -4303.9899 
32785000    94.859032   -5186.6465   -4996.9167   -5186.6465            0    7193.4266    17.792432    22.835224    19.047362    7738.8319     6349.354    7594.9748     7635.951    437.94346    199.86846    716.15262   -4185.0455 
32786000     100.2492   -5196.5339   -4996.0231   -5196.5339            0      7562.15    17.863863    22.595255    19.179427    7741.5556    8098.7797    7400.1589    7187.5113   -467.18372   -461.33344    836.70526   -4142.2364 
32787000    100.76989   -5186.6594   -4985.1072   -5186.6594            0     7166.595    17.915295    22.758788    19.037942    7762.3479    6572.8477    7145.2355    7781.7019   -659.36852   -474.69468   -352.59765   -4173.8065 
32788000    95.583887   -5179.3439   -4988.1643   -5179.3439            0     7189.898    17.804572    22.659893    19.229248    7758.0341    7640.1462    6607.0671    7322.4806    20.943272   -41.970232    4.0497728   -4174.6779 
32789000    100.81047   -5191.5982   -4989.9648   -5191.5982            0    6535.0537    17.879231    22.630375    19.220872    7777.0282    7129.8673    6885.5256    5589.7683   -904.22479    128.12427    853.26305   -4248.7591 
32790000    102.47748   -5186.3403   -4981.3727   -5186.3403            0    7213.1693    17.761374     22.83921    19.090693     7744.249    7502.5522    6448.8116    7688.1441    677.29738    240.28649    92.337808   -4166.7034 
32791000    98.601172   -5183.2477   -4986.0332   -5183.2477            0    5614.4766    17.964124    22.604773    19.181569    7789.1547    4746.0971    6126.1163    5971.2164     181.5918   -173.66266   -1571.7567   -4348.2465 
32792000    101.34599   -5194.7366   -4992.0321   -5194.7366            0    5770.2603    17.937675    22.643172    19.179241    7789.9533     4107.242    6844.5464    6358.9926    -895.0727    369.18816     755.5756   -4336.4817 
32793000    99.008363   -5179.8315   -4981.8026   -5179.8315            0    6504.6151    17.849512    22.731835    19.197087    7789.2591     6651.041    6592.1634    6270.6408   -502.23726   -306.32858   -668.92954    -4242.889 
32794000    98.669896   -5194.1964   -4996.8444   -5194.1964            0    6813.5963    17.810097    22.809051    19.092226    7755.8622    6856.1877    6463.9313    7120.6701    261.55794   -813.78115    -981.5625   -4226.1497 
32795000     96.90026   -5191.1095    -4997.297   -5191.1095            0    6504.1931     17.84165    22.668656    19.207055    7768.2209    7635.7437    6580.3368    5296.4987    536.68881   -81.853069    -13.87891    -4260.427 
32796000    97.299873   -5189.2731   -4994.6613   -5189.2731            0    6877.9009    17.949387    22.567493    19.171864    7765.9979    6537.4695    7104.7744    6991.4588    70.514275    69.315442   -739.70217   -4215.6763 
32797000    101.19504   -5184.6968   -4982.2942   -5184.6968            0    8286.9014    17.743747    22.738425    19.141328     7722.853    9159.1709    7521.1677    8180.3657    930.88151    129.51466    1493.4949   -4048.9414 
32798000    95.777956   -5188.1281   -4996.5604   -5188.1281            0    6493.9286    17.869073    22.757137    19.126936    7777.9483    6689.6005    7046.3905    5745.7947     -170.372    865.56895   -636.03986    -4259.932 
32799000    102.52267   -5187.4393   -4982.3813   -5187.4393            0    6023.7885    17.930047    22.660911     19.14026    7776.9019    5758.6709    6341.9384    5970.7561    290.02081   -44.647675   -532.23903   -4299.1744 
32800000    93.876605   -5188.9809   -5001.2161   -5188.9809            0    5566.5146    17.822993    22.908437    19.102689    7799.5686    6497.8555    4425.3202    5776.3682   -420.11105   -435.77413   -946.33425   -4368.0323 
32801000    105.23248   -5172.2123   -4961.7344   -5172.2123            0    7168.5637    17.930882    22.483003    19.293309    7777.9057    7442.7364    7457.0688    6605.8859   -116.59994   -69.153893   -379.53012   -4148.5843 
32802000    98.089085   -5186.4755   -4990.2852   -5186.4755            0    7296.8133    17.803237    22.613429    19.223643    7739.2895    7671.4347      7747.63    6471.3753   -248.00839    361.64245   -80.679067   -4166.6968 
32803000    97.754791   -5195.0002   -4999.4786   -5195.0002            0    7604.9231    17.716009    22.820585    19.130008    7734.0649    7115.5123    7482.6768    8216.5802   -300.08515    659.35132   -614.81962   -4141.6934 
32804000    107.08741   -5187.1317   -4972.9437   -5187.1317            0    7869.2899    17.898574     22.52001    19.200628    7739.3137      8596.61    7871.5951    7139.6648    555.43253    -368.9232   -8.3235995   -4084.7373 
32805000    100.94962   -5183.9014   -4981.9896   -5183.9014            0    7165.6926    17.886472    22.720718    19.104314     7763.869    7196.7082    7024.9768    7275.3929   -682.04804    1412.0795   -326.39331   -4170.6321 
32806000    106.12704    -5178.468   -4966.2008    -5178.468            0    7792.1761     17.71807    22.872404    19.116228    7746.9443    7209.5182    7482.5637    8684.4463    542.83332   -306.20369    498.73727   -4085.8311 
32807000    97.299158   -5194.0934   -4999.4831   -5194.0934            0    6994.8276     17.88694    22.609965    19.183747    7758.3504    7055.1778    7466.1139    6463.1909   -978.15684    519.30058   -237.14829   -4208.0352 
32808000    98.356349   -5184.2176   -4987.4927   -5184.2176            0    6618.9146    17.942522    22.422081    19.316482    7771.1884     6557.264    7771.2575    5528.2224   -379.19585    47.614865    731.55527   -4237.3393 
32809000    100.30859   -5189.9506   -4989.3211   -5189.9506            0    6888.9588    17.773474    22.867855    19.107472    7766.0639    7505.5083    6449.3237    6712.0444    866.18013    -428.8878    271.85419   -4209.0771 
32810000    97.358051   -5183.4487   -4988.7206   -5183.4487            0    6734.9239    17.824434    22.704561    19.200508    7770.3679     7084.429    6952.7723    6167.5705   -943.50972    345.43664   -564.83204   -4225.4998 
32811000    98.037085   -5175.2717   -4979.1854   -5175.2717            0      6547.09    17.925693    22.582604    19.242933     7789.709     6524.523    7301.1064    5815.6408    194.07021    724.47315    1138.3813   -4235.4038 
32812000    105.35747   -5175.3424   -4964.6144   -5175.3424            0    8349.0141    17.793556    22.753271    19.087669     7727.864    6970.4104    9332.2095    8744.4225    49.915188    728.02772    56.940193   -4023.6558 
32813000    104.88802   -5185.6504   -4975.8614   -5185.6504            0    6717.8737    17.921724    22.643541    19.127167    7762.0208    6241.3353    7030.4592    6881.8267   -230.30517    1016.9248    187.07763   -4215.3907 
32814000    99.709837   -5191.0467   -4991.6147   -5191.0467            0    6968.7265    17.854849    22.752728    19.118809    7766.9496    7778.3056    7243.6897    5884.1842   -433.72127    233.17239    1361.8332   -4202.2462 
32815000    98.384269   -5193.1369   -4996.3562   -5193.1369            0    6631.9033    17.816729    22.751238    19.167321     7769.524    6799.5575    6651.4554     6444.697    1283.0369    75.895785    -200.6819   -4244.8917 
32816000    102.98599   -5183.4293   -4977.4446   -5183.4293            0    5800.7105    18.011908    22.626792    19.142008    7801.3577    6560.5702    5500.7096    5340.8517    745.27032   -77.623414   -73.938906   -4317.4699 
32817000    95.905428   -5183.9941   -4992.1714   -5183.9941            0    7368.4086    17.876189    22.706484    19.099531    7752.6029    7432.9089    7195.1651    7477.1519    79.968369    339.24966    1215.6214   -4159.0714 
32818000    98.374336   -5181.7623   -4985.0015   -5181.7623            0       7579.8    17.792762    22.726237    19.160849    7747.9296    7095.3818     8514.221    7129.7973   -7.0505275    832.17026    -10.71915   -4128.5174 
32819000    94.711429   -5187.9517   -4998.5172   -5187.9517            0     7559.757    18.027022    22.613859    19.023014     7754.932     5586.414    8467.3175    8625.5394   -176.32898    349.79298   -1021.6156   -4143.5258 
32820000    100.34299   -5187.6127   -4986.9143   -5187.6127            0    6102.6103    17.799174    22.757725     19.24473    7795.4379    6507.0576    5915.1048    5885.6685   -115.66834    157.42626    560.31063   -4293.1179 
32821000     101.8496   -5191.4958    -4987.784   -5191.4958            0    6100.2524    17.847535    22.770539    19.147219    7781.3916     6147.195    5891.4905    6262.0717    159.77122   -485.90933   -785.58025   -4295.5053 
32822000    103.42074   -5175.9224   -4969.0682   -5175.9224            0    7143.6262    17.908219    22.858928    19.001037     7778.316    6375.0916    7180.1295    7875.6575    54.303907    152.21855    676.78033   -4158.7041 
32823000    98.090386   -5198.0348   -5001.8419   -5198.0348            0    7246.9973    17.898887    22.615702    19.121636    7740.3599    6566.1532    8138.0432    7036.7956    -597.6404   -22.600346    72.486993   -4183.7631 
32824000    92.679013   -5185.9752   -5000.6057   -5185.9752            0     6804.505    17.761147    22.749214     19.20646    7760.4115    7514.1854    6434.8547     6464.475    559.27313   -258.43807    1368.9075   -4230.4879 
32825000     96.59756   -5187.2978   -4994.0907   -5187.2978            0    6637.4397    17.856935    22.762333    19.104288    7765.2337    7108.1505    5858.4121    6945.7564   -567.72222     290.0474   -1297.8933   -4242.4142 
32826000    97.584508   -5180.8112   -4985.6301   -5180.8112            0    6625.6286    17.854881    22.487043    19.340115    7765.1236    7388.3007    7343.7016    5144.8834    282.59859    707.09427    102.63961   -4235.3018 
32827000    92.820285   -5188.5666   -5002.9145   -5188.5666            0     7260.419     17.85238    22.734394    19.077479    7742.8438    6327.7501    6924.4664    8529.0403   -6.8240333   -380.23013    1556.0433   -4183.0576 
32828000    103.27717   -5174.4576   -4967.8905   -5174.4576            0     6277.087    17.780524    22.672702    19.269715    7768.2487    7000.9231    6237.2105    5593.1274   -174.35593   -668.45378    -801.9674   -4256.7471 
32829000    97.106481   -5188.1171   -4993.8921   -5188.1171            0    7475.3138     17.85818     22.72048    19.110949    7754.1995    7462.9757    7079.6655    7883.3004   -975.27664    199.36678   -1581.4154   -4148.5309 
32830000    99.545859    -5176.901    -4977.797    -5176.901            0    6594.3578    17.694482    22.943755    19.141753     7771.128    6792.4503    6657.6896    6332.9335   -535.71007    712.50922   -81.946506   -4230.4325 
32831000    99.433103   -5184.1313   -4985.2528   -5184.1313            0    7204.7037    17.771265    22.736445    19.209148    7761.5596    7925.8555    7806.5761    5881.6794   -348.82976    57.917132   -520.86664   -4169.7208 
32832000    96.193003   -5187.0341   -4994.6362   -5187.0341            0    8115.7864     17.94584     22.47889    19.163004    7730.4048    6215.4684    8906.2265    9225.6643    148.19626    699.79506   -862.04271   -4079.6623 
32833000    99.384874   -5179.8043   -4981.0222   -5179.8043            0    7738.2466    17.802056    22.751555    19.130838    7748.4573    7151.9801    7990.3054    8072.4543   -1397.2069    665.70002   -953.44615   -4106.5748 
32834000    100.65767   -5176.1492   -4974.8214   -5176.1492            0    7110.1906    17.902495    22.820967    19.037072    7777.6385    6845.1665    6730.8317    7754.5735    898.60087    62.428404   -830.43784   -4168.3205 
32835000    100.75602   -5196.0051   -4994.4806   -5196.0051            0    7039.6544    17.901394     22.60973    19.150208     7750.964    5807.5806    8100.2021    7211.1803     540.5453    766.27828    1334.0354   -4198.7191 
32836000    97.912012   -5191.0068   -4995.1706   -5191.0068            0    6331.6725    17.847686    22.645493    19.238855    7775.7612    6942.0199    6692.2436    5360.7541   -476.30891   -115.76094    55.492028   -4277.1495 
32837000    102.02774   -5196.0159   -4991.9478   -5196.0159            0    7159.8522    17.784387     22.76204    19.170078    7760.2187    7512.8282    7108.6702    6858.0583   -357.33453    798.47395    75.125482   -4181.6328 
32838000    99.975658   -5187.8505   -4987.8869   -5187.8505            0    6399.5931    17.888684     22.74302    19.121801    7779.5653    5190.4799    6439.7708    7568.5285    393.45475   -497.98827    1156.2544   -4261.8084 
32839000    94.935852   -5194.2647   -5004.3813   -5194.2647            0    7252.7593    17.776018    22.714069    19.158388    7735.5002       7167.9    7632.5374    6957.8404   -577.78137   -92.554364    153.17311   -4186.1661 
32840000    94.485982   -5179.2155   -4990.2318   -5179.2155            0    7123.5296    17.869592     22.61356    19.192616    7755.6416    8585.9188    6292.8172    6491.8527   -520.67341   -559.77681    12.021165   -4184.5031 
32841000    98.606907   -5192.9431   -4995.7171   -5192.9431            0    6403.7622     17.79518    22.947913    19.046554    7777.8937    6851.0341    5684.7705    6675.4821    214.75182   -688.01506    650.00872   -4269.3217 
32842000    103.67359   -5196.8961   -4989.5361   -5196.8961            0    7760.4506    17.834478    22.708025    19.122596    7744.3795    7284.6533    7601.7162    8394.9823     1038.191   -55.443142    453.80708   -4113.0411 
32843000    96.874245   -5177.8744    -4984.114   -5177.8744            0    6045.4086    17.976196    22.568936     19.23009    7801.7171    6320.9373    7081.7753    4733.5133    609.04842    1010.6488    287.54307   -4296.2671 
32844000    97.688076   -5183.2465   -4987.8583   -5183.2465            0    6934.3831    17.781387    22.893439    19.052908    7756.0022    5436.9911    7445.7364    7920.4219     647.7642    863.08789    1440.2453    -4203.487 
32845000    94.372223   -5189.7881    -5001.032   -5189.7881            0    7056.2814    17.814555    22.729567    19.162536    7759.2392    7587.1167    7187.9846     6393.743     42.79362    187.45855    185.86297   -4202.5393 
32846000    98.958358   -5179.4424   -4981.5135   -5179.4424            0    7508.9973    17.966168    22.408734    19.235003    7743.9943      6447.92    8420.0569    7659.0149    1010.0951   -87.957669   -67.872026   -4133.4608 
32847000    103.02429    -5195.976   -4989.9147    -5195.976            0    7097.9523    17.829276    22.752708     19.10807    7751.4624     7484.343    7090.3219     6719.192   -919.39207   -21.802868   -816.88556   -4187.5116 
32848000    102.28472    -5186.862   -4982.2799    -5186.862            0    8329.0017    17.778308    22.829565    19.009349    7715.3447    7206.8456    8394.5996      9385.56   -983.44051    84.526877   -372.91941   -4045.0974 
32849000    99.185498   -5189.1144   -4990.7311   -5189.1144            0    7611.4642    17.978579    22.409457    19.267136    7762.5401    7681.8814    8515.5075    6637.0038   -770.71219     457.1881    147.92184   -4129.0473 
32850000    98.541321    -5186.026   -4988.9311    -5186.026            0    7208.3373    17.788598    22.743649    19.153079    7748.9071    8101.1064    6640.3584    6883.5472    -95.76374   -788.10556    599.96578   -4174.3179 
32851000    95.755012   -5194.8135   -5003.2916   -5194.8135            0    6951.8827    17.878527    22.731751    19.084391    7756.0915    6195.9894    7583.4444    7076.2143    326.66092    245.90515   -685.86451   -4216.9319 
32852000    98.323643   -5183.5115   -4986.8521   -5183.5115            0    6491.4827    17.893334    22.587644     19.22401    7769.7344    6672.6919    6764.2537    6037.5025   -452.81904   -215.42474    -109.5713   -4251.2788 
32853000    98.020377   -5177.9307   -4981.8779   -5177.9307            0    6405.0201    17.878464    22.712589    19.133265    7769.3724    7377.2992     5523.751    6314.0101    778.81296    -1128.131     248.8209   -4256.1358 
32854000    97.185642   -5176.8667   -4982.4834   -5176.8667            0     7020.257    17.751251    22.782463    19.184902    7758.7047    8793.5158    6638.9701    5628.2852   -199.68847   0.40767196   -68.191398    -4188.122 
32855000    99.797133    -5173.179   -4973.5724    -5173.179            0     6393.716    17.979238    22.620282    19.176536    7799.0098    5156.6411    6377.3335    7647.1733     537.9882   -252.29946    80.178744   -4246.3475 
32856000    93.779554   -5187.7986   -5000.2279   -5187.7986            0    5918.4109    17.938392    22.716167    19.134161    7797.0079    5398.7285    5849.8988    6506.6052   -47.118627   -705.86057     63.25689   -4327.2373 
32857000    99.805669   -5186.3684   -4986.7447   -5186.3684            0    5981.7551    17.869802    22.787493    19.148142    7797.2767    5470.8149    6113.5275    6360.9229    654.09438   -33.233289   -593.83035   -4306.5278 
32858000    101.55041   -5187.5188   -4984.4054   -5187.5188            0    5759.0907    17.882654    22.789753    19.126258    7794.7392    4930.5006    5797.7787    6548.9929   -1481.0108    446.55164   -1160.5874   -4329.7219 
32859000    101.44571   -5191.4451   -4988.5412   -5191.4451            0    7289.9952    17.836342    22.597429    19.217008    7745.5199    7343.4027    7492.7826    7033.8002   -563.36718     52.99585   -500.31405   -4165.0599 
32860000    99.884305   -5179.6289   -4979.8479   -5179.6289            0    6781.7451    17.923391    22.617197     19.17427    7772.8056    6733.3324    7508.8028    6103.1001    464.04598    1087.7092    636.57788   -4211.0802 
32861000    102.23676    -5177.698   -4973.2118    -5177.698            0    6052.7125    17.822583    22.843576    19.112638    7781.3574    5709.6332    6205.6606    6242.8437   -1679.0902   -628.12031    -274.6828   -4286.3311 
32862000    99.616089   -5180.5146   -4981.2702   -5180.5146            0    8232.6687    17.855748     22.61243    19.152056    7732.8695     7370.563    8902.2522    8425.1909    73.167722    413.27619    92.780227    -4052.823 
32863000    96.253835    -5187.681   -4995.1614    -5187.681            0    6022.8956    17.911428    22.749985    19.094132    7780.5671    6079.9552     5987.384    6001.3476   -837.74869    302.52607   -464.01233   -4311.7339 
32864000    101.64669   -5184.6753   -4981.3694   -5184.6753            0    7218.4379    17.784592    22.756548    19.172513    7759.4211    7898.6213    6689.0549    7067.6375     900.2213   -626.92466    484.61953   -4164.5079 
32865000    100.16065   -5190.8538   -4990.5201   -5190.8538            0    6606.7674    17.896294    22.703403    19.120066    7768.6125    6328.8154    6665.2983    6826.1885    89.020777    871.54832    328.38107   -4241.9916 
32866000    95.856577   -5192.4613   -5000.7363   -5192.4613            0    6623.1791    17.856834    22.733514    19.130715    7766.0867    6132.3892     7222.264    6514.8842    381.01775   -12.902859   -46.531124   -4250.5923 
32867000    96.251546   -5192.4263   -4999.9113   -5192.4263            0    7352.4061    17.955756    22.613744    19.087814    7750.5467    6151.5572    7683.2381    8222.4231    84.200063   -238.62435   -241.17623   -4168.8411 
32868000    94.413786   -5184.3347   -4995.4955   -5184.3347            0    6507.4109    17.867664    22.776967    19.106129    7775.6444    6096.2693    6588.5436    6837.4198    60.374182    690.62606    720.79685   -4257.5564 
32869000    90.983817    -5178.877   -4996.8981    -5178.877            0     7028.461    17.900764    22.644061     19.14313    7759.5911    6822.4822    7296.7948    6966.1061     151.5714   -17.020055    942.94872   -4201.5175 
32870000     98.83616   -5188.1927   -4990.5081   -5188.1927            0    6925.6021    17.827683    22.785259    19.079902    7750.4159    6402.5606    7584.9945    6789.2511    427.48426    391.08016    1276.4894   -4207.6944 
32871000    99.116866   -5188.2937   -4990.0477   -5188.2937            0    9222.2121    17.727738    22.682084    19.164041    7705.8997    10372.456    8623.1906    8670.9893   -777.36482   -105.93002    -653.8417   -3953.6312 
32872000    103.70495   -5181.6904   -4974.2676   -5181.6904            0    7847.4097     17.85236    22.776647    19.056437    7748.6695    8342.0248    7166.7995    8033.4049    1020.1099     507.8632    -344.8512   -4087.4601 
32873000    93.997668   -5176.0699   -4988.0629   -5176.0699            0    7743.2031    17.841823    22.660303    19.148688    7741.8361    7106.4484    7970.2115    8152.9496    107.96641    203.55809    230.51981   -4113.8031 
32874000     99.81483   -5183.5487   -4983.9067   -5183.5487            0    6504.9734    17.939101    22.728779    19.086443    7782.1893    5885.7296    6232.4437    7396.7468     915.3727    246.56054    -980.4504   -4245.6232 
32875000    97.069503   -5168.6797   -4974.5287   -5168.6797            0    9044.7656     17.71807    22.814293    19.092024    7717.4781    9532.3823    8884.9206    8716.9937   -367.59251    84.578844   -863.20977   -3956.5267 
32876000    98.443046   -5188.6262    -4991.728   -5188.6262            0    7615.1225    17.990123     22.52853    19.119067    7748.7863    5928.8809    8254.0492    8662.4375    57.595451   -260.28795    -671.5856   -4131.1574 
32877000    95.379372   -5187.3752   -4996.6047   -5187.3752            0    6335.0776    17.897069     22.63585    19.213705    7783.7675    6000.9342    6500.7215    6503.5772    122.99018    371.86746    170.32807   -4277.4577 
32878000    97.594233   -5189.6259   -4994.4254   -5189.6259            0    7751.7471    17.764871    22.931015    19.014229    7745.7602    8516.9598    6698.9269    8039.3545   -178.79611   -198.21068    1002.0544   -4118.7573 
32879000    106.32905   -5183.8769   -4971.2057   -5183.8769            0     6334.002    17.820733    22.734831    19.213398    7784.3344     6836.166    5975.4359    6190.4039    54.915439   -155.53774   -604.95411   -4252.1284 
32880000    93.998051    -5191.349   -5003.3413    -5191.349            0    6754.5695    17.942959    22.548747    19.180599    7760.3023    7662.3777    6517.2134    6084.1173   -366.20355   -107.02526   -359.19279   -4238.8858 
32881000    94.342703   -5189.8868   -5001.1898   -5189.8868            0    7331.0261    17.764891    22.845263    19.103261    7752.9366    8559.3995    6589.8193    6843.8594   -115.73232    278.87279    13.009921   -4172.2807 
32882000     99.12858    -5178.777   -4980.5076    -5178.777            0     6169.451    17.939777    22.772061    19.081504    7795.2847    5673.3768    5759.0428    7075.9335    34.410904    130.65455   -1049.6609    -4279.126 
32883000    102.35013   -5186.3273   -4981.6144   -5186.3273            0    6344.7957    17.844768    22.655939    19.247918    7781.7401    5254.5284    7437.1276     6342.731   -488.56502    992.82706   -402.59447   -4261.5518 
32884000     97.10287   -5192.0431   -4997.8254   -5192.0431            0    6393.9966    17.895969    22.610317    19.167925     7755.985    4897.7375    7163.9675    7120.2847    84.442001    70.548287    75.589854   -4274.5807 
32885000    96.655006   -5187.7905   -4994.4685   -5187.7905            0     6923.346    17.865501    22.786903    19.062625    7760.3842    8186.9047    6249.7032    6333.4302   -461.03214   -527.00068    178.39595   -4210.9033 
32886000    103.72523   -5191.0083    -4983.545   -5191.0083            0    5834.2483    17.855201    22.719885    19.203293    7790.1636    4179.0345    6931.6355    6392.0747    1094.1341    216.23399     11.07445    -4320.707 
32887000    95.598014   -5181.4039    -4990.196   -5181.4039            0     7750.459    17.869488    22.742039     19.03073    7733.8716    7852.0201    7108.4094    8290.9476    389.28558     686.0281     -1038.44   -4116.0172 
32888000    98.701402   -5182.2233   -4984.8083   -5182.2233            0    8180.7859    17.799316    22.645804    19.174544    7728.8722    9203.5569    8128.3429    7210.4579   -379.35892    -517.3554    1150.4441   -4062.6891 
32889000    97.790307   -5194.8965   -4999.3038   -5194.8965            0    7090.1979    17.860504    22.726419    19.093555     7750.175     5910.082    7517.3423    7843.1695    514.10569   -431.58613   -510.48707   -4197.9104 
32890000    105.62552   -5193.5149   -4982.2508   -5193.5149            0    6346.0971    17.862919    22.720019    19.142606    7768.9474    7046.1245     5818.147    6174.0198   -109.89342   -114.49941   -97.202671   -4263.2244 
32891000    94.946214   -5179.6194   -4989.7152   -5179.6194            0     7321.927    17.873915    22.551846    19.269794     7767.457    6818.2523    7896.4829    7251.0457   -141.17828   -556.72048   -119.76026   -4160.2845 
32892000    99.173682   -5190.4366    -4992.077   -5190.4366            0    5686.4327     17.87878    22.805892    19.114175    7793.6429     5740.271    5533.3924    5785.6347    591.39712    285.89858    1022.1599    -4345.744 
32893000    93.874788   -5179.9684   -4992.2072   -5179.9684            0    7689.9728    17.859581     22.71259    19.092472    7744.6195    7034.9847    7580.4786    8454.4551   -499.88556    321.94873    499.66023   -4123.6453 
32894000    96.505094   -5177.5714   -4984.5493   -5177.5714            0    7724.9427    17.876907    22.663109    19.118433    7745.7624     6964.828    7704.9803    8505.0197    1247.9321   -630.90872    719.28624   -4111.9089 
32895000    95.174793   -5179.9798   -4989.6184   -5179.9798            0    7364.4904    17.846444     22.79316    19.061885    7753.9339    7059.0963    7583.6425    7450.7325   -764.71556    724.85271    544.57547   -4156.8185 
32896000    97.055424   -5191.0786   -4996.9558   -5191.0786            0    5652.3526     17.80016    22.770307    19.255681    7804.6186    6366.6758    5760.5326    4829.8495   -33.353727    705.77165    1116.6209   -4353.5917 
32897000    97.290933   -5196.3702   -5001.7763   -5196.3702            0    6956.7348    17.913869    22.563257    19.177028    7751.2629    5690.4742    7744.2165    7435.5138    904.17462   -248.26902    308.23208   -4215.3577 
32898000    99.340383   -5190.8588   -4992.1658   -5190.8588            0    7065.0512    17.843568    22.717719    19.105646    7744.7633    6395.7653    7382.6654    7416.7228    314.94328    517.07966    141.98726   -4194.1723 
32899000    99.827905   -5176.6611    -4976.993   -5176.6611            0    6721.0839    17.862539    22.683994    19.173156    7768.8423    7163.3235    6359.8828    6640.0454    632.92926   -116.05922    1381.6977   -4215.4901 
32900000    94.606938   -5185.2099   -4995.9844   -5185.2099            0    6266.1401    17.813404    22.694179    19.202094    7762.6495    5308.8295    6136.5409    7353.0498    -50.39757   -536.32882   -1303.2471   -4286.5929 
32901000    103.89388   -5180.1725   -4972.3719   -5180.1725            0    6294.5573    17.929252    22.708551    19.120998    7785.0637     6661.862     5789.366    6432.4439    741.43295    690.31871    930.47285   -4257.7057 
32902000    100.82238   -5190.0663   -4988.4091   -5190.0663            0    6318.8543    17.839336     22.77504    19.123167    7769.5821    7299.5046    5560.0817    6096.9767   -67.833226   -145.68582   -1383.4204    -4272.411 
32903000    98.876751   -5182.3183   -4984.5526   -5182.3183            0    5745.4112    17.801392    22.850675    19.175086    7799.9235    6386.3508    5391.2531    5458.6297    49.818019     238.3508    2481.8226   -4330.9898 
32904000    99.310316   -5193.1926   -4994.5597   -5193.1926            0    6825.8417    17.922801    22.532014    19.243748    7771.3339    6914.0572    7041.8635    6521.6044   -766.95585    184.41002    -82.21782   -4220.9398 
32905000    95.509583   -5179.5714   -4988.5404   -5179.5714            0    8320.6901    17.814772    22.575956    19.195439    7720.1273    8597.4524    8638.8721    7725.7459   -790.14747    -696.7541    461.27822   -4051.7127 
32906000    97.862031   -5198.0767   -5002.3406   -5198.0767            0    5937.5415    17.799276    22.988682    19.032665    7787.8218    6053.0198    5323.2473    6436.3575    727.45997    856.86634    584.49634   -4327.9701 
32907000    102.31226   -5191.5068   -4986.8697   -5191.5068            0    7727.3958    17.984616    22.712169    18.955343    7742.6819    6275.8621    7971.2478    8935.0775   -421.14452     80.53062    391.93633   -4114.2993 
32908000    94.959913   -5189.2496   -4999.3181   -5189.2496            0    7100.4231    17.855928    22.583913    19.196345     7741.055     7202.141    6869.4107    7229.7176    184.27986   -814.28514    371.30471   -4197.7133 
32909000    101.21055   -5200.8472   -4998.4136   -5200.8472            0    6590.6495    17.788979    22.889125    19.068586    7764.2356      7002.63    6277.1353    6492.1832    348.93978   -42.945931   -325.05086   -4252.1319 
32910000    104.73375   -5194.7531   -4985.2727   -5194.7531            0    6337.0465    17.948526    22.526868    19.245372    7781.3674    6682.9777     6478.923    5849.2387    5.1910012     1122.165   -19.796451    -4266.124 
32911000    93.588539   -5181.7595   -4994.5709   -5181.7595            0    6922.2612    17.720388    22.862124    19.101212     7738.392    8296.8222    6279.8581    6190.1035   -443.08387   -464.05375   -486.34597   -4213.3487 
32912000    96.078293   -5179.9929   -4987.8245   -5179.9929            0    6303.1404    17.755332    22.755673    19.214248    7763.2195    7113.2903     6265.926    5530.2051    206.38946   -444.32751     407.9484   -4274.1918 
32913000    98.082299   -5186.9807   -4990.8039   -5186.9807            0    6855.3574    18.011304    22.340539    19.293777    7763.4735    6683.6321    7382.0314    6500.4087   -149.62495   -10.890816   -630.52436   -4214.6246 
32914000    97.893114   -5188.2161   -4992.4177   -5188.2161            0     7795.731    17.735308    22.752905     19.18708    7742.5582    8658.6225    7674.1926     7054.378     28.60313    404.70697    73.918705   -4112.1451 
32915000     96.48809   -5189.2642   -4996.2761   -5189.2642            0    5650.5794    17.879632    22.801373    19.143019     7804.229    6405.9067    5940.2626    4605.5689    1115.9811    876.88991    7.5813421   -4353.1459 
32916000    102.24221   -5177.5866   -4973.0896   -5177.5866            0    7624.2454     17.90036    22.517019     19.22174    7747.5676    7406.0646    8357.1704     7109.501    -162.6897   -71.435638   -173.99251   -4111.6236 
32917000    99.711549   -5188.8228   -4989.3873   -5188.8228            0    7570.7444    17.754721    22.813862     19.07922    7728.1095    8604.0031    6666.9543    7441.2757    855.75607   -546.99643    1112.2535   -4136.1149 
32918000    103.24322   -5185.8429   -4979.3437   -5185.8429            0    7509.1256    17.931683    22.619913    19.060886    7731.3454    6739.2754     7510.135    8277.9665    1048.9703    755.67335    346.95366   -4132.6617 
32919000    101.27741   -5174.8036   -4972.2362   -5174.8036            0    7355.3046    17.762655    22.655432    19.261754    7751.3269    10098.597    6502.8945     5464.422   -175.90416   -554.15788    101.67926   -4140.7547 
32920000    95.392925   -5176.5268   -4985.7292   -5176.5268            0    7108.9827    17.833228    22.778224    19.078937    7750.0412    6746.4683    7187.7116    7392.7682     329.8493   -196.56201    844.87397   -4182.2265 
32921000    100.72709   -5188.1059   -4986.6392   -5188.1059            0    5909.2543    17.837567    22.685323    19.249137    7789.1822    7319.3034    5812.7533    4595.7063    631.22286     315.8643    1387.4622   -4315.3643 
32922000    96.340597   -5188.6267   -4995.9336   -5188.6267            0    6440.4674     17.84038    22.676605    19.180301    7759.5681    7105.6478    5888.3278    6327.4264    126.76111    -828.7797   -1166.5321   -4267.0959 
32923000    95.007641   -5189.0532   -4999.0262   -5189.0532            0    6948.1099    17.800626    22.684566    19.205537    7755.1859    6063.1011    7271.7064    7509.5222   -278.52992    165.12613    430.18526    -4213.185 
32924000    101.70374    -5198.335   -4994.9149    -5198.335            0    6595.9025    17.914492    22.704197    19.104061    7770.2742    6469.9064    5627.7078    7690.0933   -368.04862     -547.458    188.30766   -4247.4575 
32925000    94.980248   -5183.8115   -4993.8393   -5183.8115            0    5814.3207    17.907811    22.676842    19.190511    7793.1244    6926.6783    5383.3069    5132.9768   -449.23564   -520.82438   -1148.9642   -4333.0143 
32926000    97.283202   -5190.1595    -4995.581   -5190.1595            0    5738.9141    17.868652    22.699553    19.240514    7804.1528    5681.8366     5958.982    5575.9236    728.21466   -909.63896    592.78178   -4342.4033 
32927000    100.85687   -5186.4032    -4984.677   -5186.4032            0     5373.091    17.871215    22.808247    19.134303     7799.354    5940.6107    5473.7643     4704.898     441.3518     384.7228    -332.6052   -4373.5117 
32928000    99.214668   -5185.9447   -4987.5031   -5185.9447            0    6317.6342    17.843448    22.655352     19.24086    7778.1096    6580.1692    6515.0946    5857.6389    1238.4697   -883.69465   -958.25064   -4270.8576 
32929000    96.107997   -5171.8338    -4979.606   -5171.8338            0    7686.3085    17.798506    22.675476    19.202704    7750.0116    8058.0556    7904.5458    7096.3242   -546.12114    160.46738    485.09459   -4110.8535 
32930000    97.236328   -5177.0473   -4982.5626   -5177.0473            0    7201.9097    17.786468    22.845781    19.059045    7744.5621    7219.5129    6747.9501    7638.2661    932.78623    523.00033    986.00597   -4169.1321 
32931000    98.458475   -5194.9774   -4998.0483   -5194.9774            0    5923.0494    17.887408    22.635654    19.237984    7789.3284    7030.4942    5651.7761     5086.878    -139.8128    257.80256   -361.64108   -4325.1937 
32932000    102.60653   -5189.3692   -4984.1435   -5189.3692            0    7150.1503    17.847619    22.694477    19.135232    7750.5798    6352.7068    7846.4974    7251.2466    -443.4282    6.8277618    1022.6709   -4175.9316 
32933000    96.704244   -5186.1214    -4992.701   -5186.1214            0    8136.4056    17.867092    22.661819     19.09474    7731.4756    7745.2198    8616.2464    8047.7505   -1433.4865    906.03979   -130.88059   -4075.2753 
32934000    98.507877   -5196.1789    -4999.151   -5196.1789            0     7689.289    17.803337    22.631103     19.21284    7741.0293    8483.3074    7233.1382    7351.4214    334.92843   -421.71388    441.03263   -4131.0689 
32935000    103.16247   -5186.1458   -4979.8081   -5186.1458            0    7441.7581    17.822495    22.833642    19.071081    7761.0236     6734.651    7843.4215    7747.2019   -860.02157    1.4982671   -738.21739    -4137.501 
32936000    100.81386   -5184.9269   -4983.2867   -5184.9269            0    6337.8422    17.975065    22.476514    19.249093    7776.9567    6158.4429    6373.8312    6481.2526   -239.32166   -668.43499    81.510536   -4264.4554 
32937000    95.518577   -5185.2799    -4994.231   -5185.2799            0    7339.2569    17.791401     22.82061    19.104067    7756.4543    8044.5211    6651.9242    7321.3254    718.12996   -143.04591    912.08757   -4164.0148 
32938000     102.7831   -5187.9922   -4982.4133   -5187.9922            0     5985.309    17.826009    22.816978    19.134522    7782.6926    5976.8382    5573.9356    6405.1531    1239.3406   -38.624726     174.1441   -4303.0652 
32939000    95.412119   -5190.6882   -4999.8522   -5190.6882            0     7042.344     17.95654    22.559451    19.188678    7773.1356    7130.8662    7115.6628     6880.503   -1607.7261    49.801633    379.24027   -4201.5095 
32940000    105.03888   -5183.4015   -4973.3108   -5183.4015            0     6285.452    17.802502    22.846994    19.141807     7785.617    7415.6503    5836.7353    5603.9706    1231.9502    61.038496    632.49654   -4259.6276 
32941000    103.62892   -5191.6458   -4984.3752   -5191.6458            0    6621.0741     17.94425     22.63515    19.114382    7763.7036    5912.3278    6511.8064    7439.0881    87.023212   -283.33665   -1113.5062   -4234.6997 
32942000    104.88236   -5192.8268   -4983.0491   -5192.8268            0    8172.4441    17.789467    22.688606    19.153594    7730.7394    7440.0646    8695.0706    8382.1969   -422.21577     858.5395    399.77148   -4061.6477 
32943000    95.330126   -5184.4688   -4993.7967   -5184.4688            0    5344.5352    17.873818    22.796503    19.125261    7792.7892    6335.5369    4337.7152    5360.3535    415.42758   -717.32392   -340.87002   -4386.3912 
32944000     95.01535   -5174.4165    -4984.374   -5174.4165            0     7283.965    17.813571    22.700033    19.202077    7764.7177     6857.981    7381.9257    7611.9884   -547.15169    713.62599   -827.73272   -4159.5346 
32945000    96.434525   -5179.8615   -4986.9805   -5179.8615            0     6636.747    17.915348    22.683458    19.125891    7772.4186    6898.4384    5974.8002    7037.0024   -517.06524    -1155.182   -1235.0114    -4234.687 
32946000     97.79654   -5189.1506   -4993.5455   -5189.1506            0    6570.6377    17.831798    22.758086    19.140557     7767.575    6734.2069    6304.1977    6673.5084   -629.47027   -80.721476   -760.12409   -4249.2097 
32947000    100.45146   -5187.6521   -4986.7367   -5187.6521            0    6835.9618    17.851568    22.797185     19.10411    7774.7138    6765.7887    7057.0555    6685.0413     202.1438    986.54492     1080.551   -4211.6328 
32948000    99.023078   -5185.8906   -4987.8322   -5185.8906            0    7574.1954     17.90581    22.575383    19.182268    7754.0583    7177.2763    7403.2989    8142.0109   -760.68973   -150.07206    3.4216818   -4131.3044 
32949000     99.35556   -5174.5941   -4975.8707   -5174.5941            0    8220.5902    17.699441    22.831226      19.1059    7720.6931    8204.0829    8352.1834    8105.5045   -207.44706    868.04231    454.56629   -4050.2455 
32950000    98.029586   -5185.6569   -4989.5856   -5185.6569            0    7352.4587    18.005974    22.535796    19.119999    7758.4933    6837.7675    7613.0214    7606.5871    722.97787    17.241911    545.14316   -4157.6573 
32951000    98.822601   -5192.4099   -4994.7525   -5192.4099            0    5710.1028     17.79933    22.812802    19.249086     7816.141    6043.6817    5384.0668      5702.56    370.49566   -449.41282    249.56483   -4343.8556 
32952000    100.88219   -5193.6053   -4991.8285   -5193.6053            0    5980.9701     17.85977    22.832968    19.090011    7784.7453     7147.615    5190.5145    5604.7806   -380.51338   -512.30363    395.58408   -4312.7938 
32953000    97.933638   -5194.0293   -4998.1499   -5194.0293            0    6499.9714    17.939308    22.563471     19.21743    7778.6974    6463.5771    6893.9286    6142.4085    27.511837    200.21071   -56.386189    -4260.765 
32954000    95.073166   -5184.8839   -4994.7258   -5184.8839            0    7694.8128     17.70418    22.730872    19.193618    7724.1153    9063.1905    7039.3977    6981.8503    104.94733   -778.80321    280.34133   -4127.9182 
32955000    94.798215   -5190.2249   -5000.6168   -5190.2249            0    6758.6117    17.910796     22.69974    19.082837     7758.517    7337.0252    6090.8399    6847.9698   -670.44696    102.47996   -786.35523   -4235.8798 
32956000    92.957711   -5183.3683   -4997.4414   -5183.3683            0    7075.7211    17.802497    22.871014    19.094424    7774.5078    8561.4462    5629.7447    7035.9724    -265.7247     357.9761   -5.5736253   -4195.1733 
32957000    99.273244   -5189.8952   -4991.3365   -5189.8952            0    6096.8699    17.798619     22.84957     19.15369    7789.6293    6648.0982    5975.1406    5667.3708   -115.27499   -735.50721     57.11074   -4298.7092 
32958000    99.614998   -5182.1264   -4982.8841   -5182.1264            0    5706.0287    17.959082    22.585288    19.231865    7800.6567    5950.6138    6219.8644    4947.6079    155.31938    82.141773   -58.782828   -4333.7402 
32959000    99.687682   -5188.9317    -4989.544   -5188.9317            0    5989.9402    17.822397    22.814322    19.138029    7781.6358    5448.4742    6001.4755    6519.8708    476.23568   -131.96427   -312.42731   -4309.7626 
32960000    99.620583   -5183.1658   -4983.9123   -5183.1658            0    6693.6633    17.807961    22.808822    19.136871    7772.9874    7311.4314    5966.3501    6803.2082   -902.41944   -312.31702   -885.90346   -4225.1116 
32961000    103.17609   -5192.6602   -4986.2953   -5192.6602            0    7271.0327    17.920175    22.619827    19.129864    7754.3145    6379.4475    7359.1545    8074.4962    566.00271      326.374    342.21785   -4164.0235 
32962000    97.134786   -5181.1491   -4986.8675   -5181.1491            0    7429.9594    17.837025    22.762838    19.102255    7755.9224    7495.1124    7367.3127    7427.4532    459.73408   -181.76508    691.21353   -4146.4487 
32963000    100.88524   -5192.2724   -4990.4895   -5192.2724            0    7194.3351     17.85501    22.584599    19.239982    7758.4893    7136.6943    6950.2973    7496.0137   -976.65982   -492.42866   -531.74449   -4176.4533 
32964000    100.58406   -5193.7129   -4992.5323   -5193.7129            0     6034.444    17.885859    22.848315    19.085543    7799.5312    5586.0338    5575.4285    6941.8697    834.10625    717.81643    -581.4805   -4306.1254 
32965000    95.516276   -5190.5735   -4999.5291   -5190.5735            0    7956.5651    17.706207     22.83596    19.095694    7721.1192       8743.5    6964.7147    8161.4805   -1038.7853   -814.78135     564.0761   -4103.5833 
32966000    97.677098   -5183.8515   -4988.4852   -5183.8515            0    6155.4766    18.023479    22.326773    19.358412    7789.9436    6426.6596    6911.4387    5128.3316   -510.30166    877.02459   -178.15603   -4289.1717 
32967000    97.276492   -5197.6728   -5003.1078   -5197.6728            0    7349.0285    17.740822    22.868483    19.112182    7753.9207    7975.4197    7153.4053    6918.2605   -31.461635    178.31902     737.5775   -4172.0578 
32968000    97.956609   -5182.9328   -4987.0075   -5182.9328            0    6126.6209     17.79434     22.85525    19.170781    7796.6431    7270.1322    5376.7022    5733.0282   -663.01168   -522.79104   -458.50547   -4290.3737 
32969000    100.40899   -5195.1099   -4994.2795   -5195.1099            0    6286.4201    17.912869    22.609633    19.230643    7788.4757    6562.8032    6755.6713    5540.7859   -566.77514    227.73485   -359.65505   -4280.2244 
32970000    93.548545   -5190.0955   -5002.9868   -5190.0955            0     5386.698    17.926195    22.813747    19.071568    7799.5785    5148.9912    5073.4726    5937.6301   -1756.8643    350.48892   -646.47238   -4390.2561 
32971000    95.626739   -5187.3958   -4996.1305   -5187.3958            0    5759.0518    17.820362    22.713735    19.241247    7788.2214    5427.2012    5677.4035    6172.5508     136.0969   -478.38622    994.99743   -4341.9988 
32972000    98.824152   -5203.7527   -5006.0921   -5203.7527            0     6855.834    17.906997     22.69043    19.099868    7760.6098    6255.9689    7482.1409    6829.3922   -619.56134    158.31789   -1933.2294   -4230.1452 
32973000    95.357397   -5187.6702   -4996.9436   -5187.6702            0    8315.4581    17.844737    22.760081    19.030362    7729.1369    7085.2242    8717.7768    9143.3735    538.43952    601.86406   -363.97058   -4059.6124 
32974000    95.366385   -5180.3347   -4989.5901   -5180.3347            0    6754.8332    17.886378     22.55315    19.268421    7772.7686    6654.6346    7714.6531    5895.2118   -357.11913   -322.18011   -272.07576   -4223.8767 
32975000    97.036716   -5194.1016   -5000.0162   -5194.1016            0     6169.573    17.796009    22.757513    19.202759    7776.9812    6677.8353    6012.9758    5817.9078    112.86836    476.49064     -64.3567   -4300.2676 
32976000    97.093821   -5187.4202   -4993.2206   -5187.4202            0    6530.6493    17.781412    22.909707    19.079619    7772.4061     5440.611    5808.1024    8343.2344   -1248.0902   -33.447265    177.51159   -4252.9547 
32977000    102.57351   -5171.6885   -4966.5288   -5171.6885            0    6754.3182    17.877113    22.739051    19.136202    7779.0305    5478.4146    7081.1238    7703.4162    1018.4712    368.84636    319.33172   -4200.2569 
32978000    100.36909    -5180.824   -4980.0734    -5180.824            0    6750.1407    17.913943    22.718227     19.08375    7766.5712    5890.9119    6711.0647    7648.4455   -206.14131   -426.76824   -1091.8396    -4215.502 
32979000    103.91291   -5184.9625   -4977.1239   -5184.9625            0    8509.8852    17.922465    22.520335    19.157364    7732.2933    8425.3935    8781.5066    8322.7554    403.07596    369.39148    1117.4285   -4017.4848 
32980000    105.49522   -5181.5497   -4970.5462   -5181.5497            0    7663.3036    17.811023      22.7445    19.081086    7729.8016    8064.1156    7290.5248    7635.2703   -445.76546   -431.03466   -1308.7672   -4106.6526 
32981000    104.02643   -5185.1719   -4977.1062   -5185.1719            0    7402.2026    17.752838    22.738554    19.182427    7743.4442    8852.3507    6867.4099    6486.8472     136.0272   -427.00073   -788.60994    -4141.174 
32982000    96.986465   -5184.0449     -4990.06   -5184.0449            0    5588.7758    18.043106     22.60831    19.115762    7797.7806    4360.1611    5735.8884     6670.278    263.24162   -309.16689    988.23288   -4354.4897 
32983000    97.058426   -5189.1404   -4995.0116   -5189.1404            0    7076.2555    17.879769    22.665302    19.117989    7747.5721    6159.3531    7802.4747    7266.9389    736.93719    -509.3454    535.78418   -4195.4627 
32984000    102.58562   -5188.7597   -4983.5758   -5188.7597            0    6706.0044    17.817543    22.762438    19.167849    7773.9184     7497.175    6422.1274    6198.7107   -872.32727   -65.145463   -1394.3554    -4223.285 
32985000    97.925682   -5199.0014    -5003.138   -5199.0014            0    6415.4286    17.910146    22.623942    19.196834     7778.521    6231.8852    7221.7056    5792.6949    14.645985    365.80616     726.5007   -4275.3605 
32986000    96.714227    -5190.169   -4996.7286    -5190.169            0    5950.0171    17.715254    22.953597    19.153671    7788.4339    7317.3183    4693.4446    5839.2883    597.99388   -678.21762    13.392991   -4320.8881 
32987000    96.116882   -5186.5848   -4994.3392   -5186.5848            0    7206.4508    17.896781    22.602055    19.156897    7749.0421    6254.3134    6618.1582    8746.8806   -147.75037   -137.16908    352.42739    -4179.925 
32988000    98.689564   -5177.8041   -4980.4127   -5177.8041            0    7100.1338    17.821404    22.797963    19.102407    7761.1498     7190.561    6948.9237    7160.9166   -1159.0875   -779.76796    42.701054   -4176.7599 
32989000    100.40368   -5188.2667   -4987.4469   -5188.2667            0    6931.3674    17.818806    22.760219    19.142391    7763.3866    7347.1694    6289.3438     7157.589    227.57226    265.43785   -138.64118   -4202.6704 
32990000    98.699212   -5178.4065   -4980.9959   -5178.4065            0    7785.9241    17.948671    22.617907    19.066174    7740.1299    6752.0465    8516.7107    8089.0152   -799.46547   -173.22962   -949.37041   -4102.1063 
32991000    94.031504   -5184.3991   -4996.3245   -5184.3991            0    7298.6274    17.705978    22.715388     19.29572    7760.7034    7485.5832    7656.3191      6753.98    211.89984   -604.69158    208.20258   -4170.2519 
32992000    99.790167   -5191.6361   -4992.0434   -5191.6361            0    7189.9652    17.933162    22.704772    19.047488    7755.5344    7246.7297    6956.7523    7366.4137    176.82717    790.63904     46.37368   -4178.8115 
32993000    102.32989    -5184.376   -4979.7036    -5184.376            0    6772.2892    17.767799    22.674745    19.267887    7762.6523    7280.1698    7659.2369     5377.461    446.83479    1176.2849     693.3011   -4213.0106 
32994000     105.9367   -5195.5472   -4983.6607   -5195.5472            0    6529.0965    17.846596    22.787158    19.144058    7785.3754    5668.9483    6372.0819    7546.2594   -425.23622    412.74801    798.32067   -4242.3359 
32995000    103.63947   -5184.5919   -4977.3001   -5184.5919            0    6279.2212    17.878148    22.729283    19.135529    7775.8654    5724.3616    5690.9736    7422.3283    94.138549   -30.827128   -1866.9948   -4265.2175 
32996000    99.431384   -5193.0648   -4994.1898   -5193.0648            0    5557.7755    17.820928    22.626074    19.318395    7789.5175    6514.7312    5353.6108    4804.9844   -1139.8797    663.61838   -1272.5198   -4362.8147 
32997000    97.802414   -5182.4692   -4986.8523   -5182.4692            0    8006.1865    17.757562    22.671835    19.187223    7724.7088    7894.6237    8289.9524    7833.9833    131.12281    39.312485   -449.77915   -4084.8997 
32998000    100.16994   -5177.8678   -4977.5156   -5177.8678            0    7510.2257    17.807844     22.75692    19.116006    7746.7935    8727.5474    7130.2214    6672.9084    652.88454    548.34368    40.163769   -4129.0175 
32999000    97.380339   -5189.5521   -4994.7794   -5189.5521            0    6856.9238    17.853191    22.648563    19.219162    7771.2512    7821.8839    6347.8684    6401.0191    133.02291   -448.56116   -558.19483   -4217.6449 
33000000    102.67418   -5181.2753   -4975.9143   -5181.2753            0    6685.2113    17.890632    22.711583    19.117051    7767.7272    6025.1667    6397.4965    7632.9705    729.80215   -370.03703    78.595513   -4218.5846 
Loop time of 420.238 on 64 procs for 250000 steps with 1008 atoms

Performance: 102.799 ns/day, 0.233 hours/ns, 594.901 timesteps/s
195.6% CPU use with 32 MPI tasks x 2 OpenMP threads

MPI task timing breakdown:
Section |  min time  |  avg time  |  max time  |%varavg| %total
---------------------------------------------------------------
Pair    | 35.746     | 41.31      | 51.561     |  51.8 |  9.83
Bond    | 0.9163     | 1.306      | 1.9804     |  19.1 |  0.31
Kspace  | 200.5      | 212.44     | 220.21     |  29.0 | 50.55
Neigh   | 1.0271     | 1.1129     | 1.2179     |   5.7 |  0.26
Comm    | 61.448     | 68.439     | 73.864     |  35.8 | 16.29
Output  | 0.48369    | 0.4845     | 0.48657    |   0.1 |  0.12
Modify  | 80.099     | 82.824     | 86.109     |  14.9 | 19.71
Other   |            | 12.32      |            |       |  2.93

Nlocal:        31.5000 ave          35 max          28 min
Histogram: 3 2 7 0 3 6 0 5 4 2
Nghost:        2952.47 ave        2968 max        2939 min
Histogram: 2 2 3 6 5 6 4 1 2 1
Neighs:        10751.5 ave       12020 max        9504 min
Histogram: 3 2 4 3 3 6 3 2 4 2

Total # of neighbors = 344049
Ave neighs/atom = 341.31845
Ave special neighs/atom = 2.0000000
Neighbor list builds = 2594
Dangerous builds = 0

unfix		3
unfix		2
unfix		1

write_data	data.final.${pid}
write_data	data.final.0
System init for write_data ...
PPPM initialization ...
  extracting TIP4P info from pair style
  using 12-bit tables for long-range coulomb (../kspace.cpp:340)
  G vector (1/distance) = 0.37990034
  grid = 24 27 32
  stencil order = 5
  estimated absolute RMS force accuracy = 0.0023902787
  estimated relative force accuracy = 7.1982533e-06
  using double precision FFTW3
  3d grid and FFT values/proc = 5355 672
Last active /omp style is kspace_style pppm/tip4p/omp
WARNING: Not all mixed pair coeffs generated from mixing. Use write_data with 'pair ij' option to store all pair coeffs. (../write_data.cpp:312)

write_restart   restart.lmp.${pid}
write_restart   restart.lmp.0
System init for write_restart ...
PPPM initialization ...
  extracting TIP4P info from pair style
  using 12-bit tables for long-range coulomb (../kspace.cpp:340)
  G vector (1/distance) = 0.37990034
  grid = 24 27 32
  stencil order = 5
  estimated absolute RMS force accuracy = 0.0023902787
  estimated relative force accuracy = 7.1982533e-06
  using double precision FFTW3
  3d grid and FFT values/proc = 5355 672
Last active /omp style is kspace_style pppm/tip4p/omp
Total wall time: 0:07:00
