LAMMPS (30 Jul 2021)
Processor partition = 1
  using 2 OpenMP thread(s) per MPI task
using multi-threaded neighbor list subroutines
variable        pid world 0 1
variable        phase world IceIh IceIII

shell cd ${phase}
shell cd IceIII
include Restart.lmp
echo both
log log.lammps
#include		in.partitions
include		in.temp
variable        temperature equal 142.72
variable	tempDamp equal 100.0
include		in.pressure
variable        pressure equal 1903.0
variable        pressureDamp equal 1000.0 # This is 1 ps
include		in.seed
variable        seed equal 745823

units		real
atom_style	full

read_restart	restart.lmp.${pid}
read_restart	restart.lmp.1
Reading restart file ...
  restart file = 30 Jul 2021, LAMMPS = 30 Jul 2021
  restoring atom style full from restart
  orthogonal box = (0.045801362 -0.0038358900 -0.22217824) to (19.954200 20.003837 20.922176)
  2 by 4 by 4 MPI processor grid
  restoring pair style lj/cut/tip4p/long/omp from restart
  restoring bond style harmonic/omp from restart
  restoring angle style harmonic/omp from restart
  972 atoms
  648 bonds
  324 angles
Finding 1-2 1-3 1-4 neighbors ...
  special bond factors lj:    0        0        0       
  special bond factors coul:  0        0        0       
     2 = max # of 1-2 neighbors
     1 = max # of 1-3 neighbors
     1 = max # of 1-4 neighbors
     2 = max # of special neighbors
  special bonds CPU = 0.003 seconds
  read_restart CPU = 0.011 seconds
include 	in.setup
variable	out_freq equal 1000
variable	out_freq2 equal 10000
variable	out_freq3 equal 1000

timestep	2.0

neigh_modify    delay 7 every 1

include		in.tip4p
# This is TIP4P/Ice

# create groups ###
group ox type 2
324 atoms in group ox
group hy type 1
648 atoms in group hy

# set charges - beside manually ###
set group ox charge -1.1794
Setting atom values ...
  324 settings made for charge
set group hy charge 0.5897
Setting atom values ...
  648 settings made for charge

# ### TIP3P Potential Parameters ###
pair_style lj/cut/tip4p/long/omp 2 1 1 1 0.1577 8.5
pair_coeff 1 1*2 0.000 0.000
pair_coeff 2 2 0.21084 3.1668
bond_style  harmonic
bond_coeff  1 450 0.9572
angle_style harmonic
angle_coeff 1 55 104.52
kspace_style pppm/tip4p/omp 1.0e-5
pair_modify tail yes

thermo          ${out_freq}
thermo          1000
thermo_style    custom step temp pe etotal epair emol press lx ly lz vol pxx pyy pzz pxy pxz pyz enthalpy

restart 	${out_freq3} restart.lmp.${pid} restart2.lmp.${pid}
restart 	1000 restart.lmp.${pid} restart2.lmp.${pid}
restart 	1000 restart.lmp.1 restart2.lmp.${pid}
restart 	1000 restart.lmp.1 restart2.lmp.1


include         in.dump
dump            myDump all atom ${out_freq2} dump.water.${pid}
dump            myDump all atom 10000 dump.water.${pid}
dump            myDump all atom 10000 dump.water.1
dump            myDump2 all dcd ${out_freq2} dump.dcd
dump            myDump2 all dcd 10000 dump.dcd
dump_modify     myDump append yes
dump_modify     myDump2 append yes


variable natoms 	equal  "count(all)"                        # NUMBER ATOMS
variable H      	equal  "enthalpy/v_natoms"                 # ENTHALPY-per-atom
variable Vol      	equal  "vol/v_natoms"                 # volume-per-atom
fix AVG all 		ave/time ${out_freq} 1 ${out_freq} v_Vol v_H file vol_enthalpy.dat
fix AVG all 		ave/time 1000 1 ${out_freq} v_Vol v_H file vol_enthalpy.dat
fix AVG all 		ave/time 1000 1 1000 v_Vol v_H file vol_enthalpy.dat


timer           timeout 02:55:00 every 1000
New timer settings: style=normal  mode=nosync  timeout=02:55:00

fix 		1 all shake 1e-6 200 0 b 1 a 1
Finding SHAKE clusters ...
       0 = # of size 2 clusters
       0 = # of size 3 clusters
       0 = # of size 4 clusters
     324 = # of frozen angles
  find clusters CPU = 0.000 seconds
fix             2 all nph aniso ${pressure} ${pressure} ${pressureDamp}
fix             2 all nph aniso 1903 ${pressure} ${pressureDamp}
fix             2 all nph aniso 1903 1903 ${pressureDamp}
fix             2 all nph aniso 1903 1903 1000
fix             3 all temp/csvr ${temperature} ${temperature} ${tempDamp} ${seed}
fix             3 all temp/csvr 142.72 ${temperature} ${tempDamp} ${seed}
fix             3 all temp/csvr 142.72 142.72 ${tempDamp} ${seed}
fix             3 all temp/csvr 142.72 142.72 100 ${seed}
fix             3 all temp/csvr 142.72 142.72 100 745823


run             250000
PPPM initialization ...
  extracting TIP4P info from pair style
  using 12-bit tables for long-range coulomb (../kspace.cpp:340)
  G vector (1/distance) = 0.37206841
  grid = 24 24 25
  stencil order = 5
  estimated absolute RMS force accuracy = 0.0034485619
  estimated relative force accuracy = 1.0385242e-05
  using double precision FFTW3
  3d grid and FFT values/proc = 3458 576
Last active /omp style is kspace_style pppm/tip4p/omp
Neighbor list info ...
  update every 1 steps, delay 7 steps, check yes
  max neighbors/atom: 2000, page size: 100000
  master list distance cutoff = 10.8154
  ghost atom cutoff = 10.8154
  binsize = 5.4077, bins = 4 4 4
  1 neighbor lists, perpetual/occasional/extra = 1 0 0
  (1) pair lj/cut/tip4p/long/omp, perpetual
      attributes: half, newton on, omp
      pair build: half/bin/newton/omp
      stencil: half/bin/3d
      bin: standard
Setting up Verlet run ...
  Unit style    : real
  Current step  : 22000000
  Time step     : 2
  Walltime left : 2:54:59.92
Per MPI rank memory allocation (min/avg/max) = 10.19 | 10.19 | 10.20 Mbytes
Step Temp PotEng TotEng E_pair E_mol Press Lx Ly Lz Volume Pxx Pyy Pzz Pxy Pxz Pyz Enthalpy 
22000000     144.8904   -4930.9796   -4651.5463   -4930.9796            0    1401.9508    19.908398    20.007673    21.144354    8422.2345     1964.962    356.54936    1884.3411    19.403079   -447.36058   -43.725342   -4479.3451 
22001000    151.04458   -4979.0991    -4687.797   -4979.0991            0    1400.9219    20.073591    20.031626    20.852059    8384.7519    2186.1163    553.16443    1463.4849   -307.56063    230.43283    469.05404    -4516.488 
22002000    146.13969   -4964.4882   -4682.6455   -4964.4882            0    1472.9694    20.285069    20.000179    20.639724    8373.6395    1284.1353    817.96484     2316.808    112.06989    205.99143   -206.38852   -4502.7651 
22003000    145.68944   -4969.5495   -4688.5751   -4969.5495            0    1777.7889    20.058709    20.008778    20.899485    8388.0133    1349.4406    2426.2463    1557.6798   -156.65694    406.95686   -244.68352   -4471.0972 
22004000    136.40626   -4969.0681   -4705.9972   -4969.0681            0     523.9513    20.029074    19.998129    20.958993    8394.9992    234.51255    712.35901    624.98234   -442.86362    102.73366    677.81244   -4641.8486 
22005000    141.44557   -4957.2817    -4684.492   -4957.2817            0     1325.856    19.935949    19.942748    21.061274    8373.4911    2582.9927    865.45979    529.11541   -580.72153   -258.81107    656.30266   -4522.5801 
22006000    144.19451   -4954.4932   -4676.4019   -4954.4932            0    1415.6919    20.125628    20.070208    20.675934    8351.5378    761.43232     1206.069    2279.5744   -308.53185   -739.96815    94.393369   -4503.9726 
22007000    143.33638   -4964.2398   -4687.8035   -4964.2398            0    1146.1866    20.167756    20.047228    20.706303    8371.7159    73.731869    1717.7591    1647.0689   -510.83333     46.20734    827.97378   -4547.8623 
22008000    143.57384    -4959.342   -4682.4478    -4959.342            0    746.68051    19.949189    20.003342    21.051401    8400.5709    679.44623    1984.9839   -424.38857   -26.669597    112.52397   -54.298281   -4590.9692 
22009000    150.05915   -4956.0275   -4666.6259   -4956.0275            0    2443.0979    20.013586    19.878767    20.826442    8285.7045    2555.4209    3793.2829    980.58995    23.974086    148.18258    284.42092   -4371.4056 
22010000    144.47311   -4953.3771   -4674.7485   -4953.3771            0    1447.1196    20.086875    20.072369     20.70869     8349.561    2299.3333    246.86866    1795.1569   -260.17721    537.64977   -102.66946   -4498.5331 
22011000    141.99234    -4960.571   -4686.7268    -4960.571            0    3679.3583    20.016618    19.809814    20.822473     8256.641    1568.8402    5787.5606    3681.6741   -159.86514    538.43738   -40.617311   -4243.6782 
22012000    145.66721   -4936.9281   -4655.9966   -4936.9281            0    1157.9578    19.871603    20.247565    20.794101    8366.5391    1457.0865    462.37432    1554.4125   -662.34088    124.29507   -273.49293   -4514.7056 
22013000    146.01826   -4943.7471   -4662.1386   -4943.7471            0    2375.4838    19.934897    19.974297     20.86525    8308.2412    1584.2272    2927.4756    2614.7485    11.743894   -1154.3665    425.58225   -4374.3079 
22014000    141.33274   -4962.7595   -4690.1875   -4962.7595            0    2006.8922    19.914238    19.967162    20.916727    8317.1356     1940.427    2018.3492    2061.9003    257.95329    521.85976    482.47671   -4446.7577 
22015000    138.80153    -4958.093   -4690.4026    -4958.093            0    1530.9691      20.0233    20.029242    20.828479    8353.2932    1294.7502    1227.8407    2070.3164   -818.80942    1016.0888   -256.21588   -4503.8935 
22016000    141.79215   -4961.5315   -4688.0734   -4961.5315            0    2364.7427    20.008282    19.925343    20.873886    8321.8312    984.25616    3939.0048    2170.9673   -89.658519   -925.56598   -6.0556094   -4401.0755 
22017000    138.25852   -4953.1438   -4686.5006   -4953.1438            0    1723.6917      20.0887    20.076015    20.710742    8352.6638    1409.1479     1650.511    2111.4162   -58.253922    -613.6041   -785.04531   -4476.5291 
22018000    138.52421   -4965.2948   -4698.1392   -4965.2948            0    2348.2207    19.955946    19.949903    20.884163    8314.3861     1710.745    2915.1924    2418.7247   -472.51005    48.353782   -523.27684   -4413.4015 
22019000    141.87741   -4959.9164   -4686.2938   -4959.9164            0     2975.422    19.949753    20.008033    20.752503    8283.4722    2115.0219    2920.6652    3890.5789   -351.79321   -190.02202    1412.5047   -4326.8452 
22020000    146.85964   -4969.9042    -4686.673   -4969.9042            0    2401.3032    20.043341    19.972541    20.796656    8325.2433    349.17114    4099.5306    2755.2078   -111.08981   -785.08847   -126.45183   -4395.1185 
22021000    143.14621   -4981.6254   -4705.5559   -4981.6254            0    498.88994     20.20077    20.025112    20.875486    8444.6076   -281.44497    894.08728    884.02753   -334.21996    75.409517     46.04565   -4644.1146 
22022000    147.29098    -4970.044    -4685.981    -4970.044            0    1802.2168    19.981762    19.992234    20.903778    8350.6426     2731.436    1535.1697    1140.0446   -9.6059625    35.664584   -323.02505    -4466.497 
22023000    142.57275    -4975.204   -4700.2405    -4975.204            0      2383.83    19.906892    20.099077    20.830321    8334.4227     2374.888    2445.5851     2331.017    -34.02192    439.03167   -89.258821   -4410.4883 
22024000    151.47663   -4949.7796   -4657.6441   -4949.7796            0    1506.5562    19.871185    20.048454    20.920792    8334.5616    2405.2152    906.55683    1207.8965    223.15709    744.06999    -77.63161   -4474.5207 
22025000    148.59403   -4957.4593   -4670.8832   -4957.4593            0    1348.7806    20.021982    20.049852    20.836947    8364.7375    1523.2613    1613.0794    910.00122   -380.12666    578.20542    360.17121    -4506.344 
22026000    146.26078   -4952.0597   -4669.9834   -4952.0597            0    1457.4555    20.013753     19.95592    20.965228    8373.3624    3002.7319    968.10053    401.53399    211.69133   -473.21161    653.08399   -4492.0035 
22027000    151.98215   -4954.7938   -4661.6835   -4954.7938            0    2089.4377    20.136205    19.808386    20.790261    8292.5224     1712.584    2605.9933    1949.7357    488.53547    217.09997    333.40857   -4408.9912 
22028000    144.29531   -4971.5797    -4693.294   -4971.5797            0    1469.4849    20.098893    19.951188    20.800792    8341.0505    192.19187    2696.8124    1519.4505    224.28565   -359.87948   -497.70931   -4514.5375 
22029000    144.07339   -4957.1194   -4679.2618   -4957.1194            0    1302.0879    20.117191     19.91198     20.91438    8377.7382    887.83716    1545.1941    1473.2325   -341.72927    12.982379   -214.87646   -4520.1717 
22030000    143.14766   -4952.2471   -4676.1748   -4952.2471            0    765.16483    20.003768    20.128803     21.02137    8464.2949    1977.2261    249.57579    68.692612     161.5857   -856.89194    524.04429   -4581.7205 
22031000    150.16143   -4956.3108   -4666.7118   -4956.3108            0     2465.832     19.95029    20.086962    20.751631    8316.0233    2278.4551    2697.6827    2421.3584    64.688352    1511.4077   -22.691803   -4367.6541 
22032000    146.04565    -4963.103   -4681.4417    -4963.103            0     1199.959    19.977518     20.13965    20.985824    8443.4413    692.79296    1625.5543    1281.5297    408.74646    443.72932   -1134.8052     -4533.68 
22033000    143.41421   -4957.1824   -4680.5961   -4957.1824            0    1113.1653    20.114397    20.083958    20.799771    8402.6231    2296.6491   -427.00388    1469.8508   -448.70477     376.9204    240.23159   -4544.1848 
22034000    143.14937   -4969.5733   -4693.4977   -4969.5733            0    3118.0307    19.991654    19.831355    20.850435    8266.3964    3867.2103    2916.5484    2570.3332    259.47271   -195.83504   -989.46974   -4317.5976 
22035000     143.3225   -4987.6612   -4711.2517   -4987.6612            0    3070.5669    19.968475    20.004674    20.778238    8300.1338     4121.168    2352.4146    2738.1181     87.60603    1035.7608    576.50221   -4339.5628 
22036000    139.25643   -4967.2279   -4698.6602   -4967.2279            0    888.98116    20.028645    19.922766    21.095856    8417.7956    1000.2379    1401.7457    264.95986    395.96804    952.30829   -266.87501   -4589.5245 
22037000    148.25163   -4973.8894   -4687.9736   -4973.8894            0    2592.6578     20.10234    19.983142     20.76286    8340.6053    1723.7154    3835.9316    2218.3264    560.99209    441.17141   -864.59847   -4372.6049 
22038000    147.70091   -4964.0555   -4679.2018   -4964.0555            0     1801.557    20.062596    20.081284     20.81299    8385.1935    972.51859     2453.909    1978.2433    152.71406    48.530445   -880.04198   -4458.8904 
22039000    140.73373   -4970.0893   -4698.6724   -4970.0893            0    1593.4686    20.006187    19.969115    20.957329    8372.5757    1580.9318    1425.2333    1774.2408   -384.86295    152.33901    216.70337   -4504.1013 
22040000    137.36697   -4949.7336   -4684.8098   -4949.7336            0    1514.5554    19.924301    20.130392    20.827406    8353.5391    2242.0398     462.8245    1838.8019   -250.15704    1179.4821    558.04255   -4500.2949 
22041000    142.82818   -4959.4784   -4684.0222   -4959.4784            0     807.4126    20.068731    20.015256    20.805287    8357.0837    -411.3724    1268.1322     1565.478   -492.24433    80.321581    704.43326   -4585.6152 
22042000    145.97031   -4970.8685   -4689.3525   -4970.8685            0    2421.6578    19.927674     19.88994    20.892417    8280.9233    3176.8844    2128.1336    1959.9555    170.89974    1533.2353  -0.96330012   -4396.8918 
22043000    144.27745   -4954.3176   -4676.0664   -4954.3176            0    1982.3756     19.97929    20.129697    20.691735    8321.7409     1449.385     2746.163    1751.5789    52.454083    323.49111    662.17849   -4435.4773 
22044000     138.2116   -4967.6391   -4701.0864   -4967.6391            0    2968.7197    19.952597    19.966747    20.833827    8299.9561    2847.6849    3260.0617    2798.4124    158.72157    769.48978    1161.4048   -4341.7337 
22045000    140.51237   -4979.4826   -4708.4927   -4979.4826            0    2138.3192    20.004919    20.003896    20.889831    8359.6157    3164.1995    1434.2728    1816.4854   -760.33139    789.78524   -531.53184   -4447.7965 
22046000    138.63213   -4960.1142   -4692.7505   -4960.1142            0    3129.7149     20.06547    19.781218    20.879917    8287.6451    3714.1838    2813.7694    2861.1916     378.7922   -543.09271   -393.14224   -4314.4718 
22047000     139.3068   -4954.1935   -4685.5286   -4954.1935            0    3036.2531    20.161128    19.850356    20.811872    8329.0274    2275.4503    4023.3506    2809.9585     -52.0908    404.41193    22.026696    -4316.714 
22048000    137.53628   -4964.0694   -4698.8191   -4964.0694            0    1890.7089    20.084839    19.746042    20.979169    8320.2561    1557.7663    2838.6072    1275.7532   -372.11726   -592.69192    178.92921   -4469.3959 
22049000    144.17922   -4956.3923   -4678.3306   -4956.3923            0    1467.1986    20.102041    19.927737    20.836842     8346.993    1579.4638    1567.1776    1254.9543     43.16916    284.60584    5.5303104   -4499.7251 
22050000    141.69224   -4971.3382   -4698.0728   -4971.3382            0    1301.7077    20.038315      20.0422    20.756606    8336.1004    481.81315    1529.4392    1893.8708   -34.358796   -636.34915    171.40204   -4539.8196 
22051000    154.81988   -4942.7137   -4644.1305   -4942.7137            0     3028.729    19.893855    19.970485    20.929457    8315.0624    4418.0766    1624.1833    3043.9273    23.782385   -85.986702    909.30627   -4276.8467 
22052000    138.62552   -4965.9936   -4698.6426   -4965.9936            0    2234.6871    20.027373    19.941789    20.956944    8369.8189    2283.3097    2527.9178    1892.8338   -306.01368    277.49636   -144.31014    -4425.865 
22053000    140.81257   -4974.5774   -4703.0085   -4974.5774            0    3003.8512    19.963609    20.019373    20.705749    8275.2378    2370.4141    3709.9631    2931.1765   -115.24176    37.491044   -576.60717   -4340.4861 
22054000    151.12488   -4965.5316   -4674.0746   -4965.5316            0    2012.5644    19.910687    20.006237    21.074885    8394.9258    3175.7129    2111.9049    750.07548   -74.960451   -610.50151    754.67973   -4427.6735 
22055000    149.67495   -4974.6318   -4685.9711   -4974.6318            0    719.22758    20.080336    19.954187    20.889912    8370.3116    770.16833    575.89156    811.62286   -52.844803     886.2137   -546.38906   -4598.1732 
22056000      146.129   -4947.3437   -4665.5216   -4947.3437            0    3001.0403    20.167081    20.077491    20.516674    8307.2915    1341.3969    2735.6568    4926.0671    428.48727    789.51125   -139.62817   -4301.9356 
22057000    141.26614   -4981.6536     -4709.21   -4981.6536            0    1450.8483    20.073655    20.016871    20.955455    8420.1484    888.71648     2211.315    1252.5134     238.0094    86.359658    -505.0956   -4531.0469 
22058000    146.19408    -4965.232   -4683.2844    -4965.232            0    1784.7914    19.876281    20.022238    20.999174    8356.9913    1606.0322     1393.617    2354.7248    -41.51373    -53.79836   -208.87146   -4465.7573 
22059000    139.14045   -4957.9401    -4689.596   -4957.9401            0    2218.1232    19.967966    20.060366    20.848696    8351.2517    3909.1988    1091.6259    1653.5449     409.1901    126.73269    139.24133    -4419.441 
22060000    143.93428   -4959.7774   -4682.1881   -4959.7774            0    2436.9167     19.90913    20.126082    20.694475    8292.1267     3100.713    1517.5087    2692.5284    -513.6124   -899.75934   -929.80015   -4387.4865 
22061000    147.79584   -4965.6644   -4680.6276   -4965.6644            0    1802.3529    20.018513    20.057126    20.952766    8412.8256    564.78857    2356.3267    2485.9434   -118.77573    1503.9083   -131.42539   -4459.4926 
22062000    150.80386   -4949.8942   -4659.0563   -4949.8942            0    722.41303    20.037468    20.118599    20.687416    8339.6308    -642.8971    582.40164    2227.7345    292.71795    355.81716    1055.7923   -4571.1929 
22063000    150.78912   -4962.4884   -4671.6789   -4962.4884            0    1977.8568    20.053708    19.961619    20.777411    8317.2906    1624.3869    2606.5867    1702.5967    125.04973   -24.796477   -226.75962   -4431.7666 
22064000    142.24561   -4958.9971   -4684.6644   -4958.9971            0    1143.2897      19.9462    20.054208    20.985486    8394.3041    2516.8933    90.624645    822.35127    448.54632    340.51513   -634.76668   -4544.7003 
22065000    140.65162   -4960.9327   -4689.6742   -4960.9327            0    2735.8724    19.848096    20.004677    20.820972     8267.066    3230.5524    2004.9308    2972.1341    231.81219   -1082.0929   -528.51768   -4359.8192 
22066000    150.71348   -4950.6957    -4660.032   -4950.6957            0    2177.0341    19.958839     20.10596    20.756276    8329.3197    2835.0316    1281.2118     2414.859   -680.44199   -584.70937    782.62395   -4395.5777 
22067000    139.64075   -4961.6117   -4692.3027   -4961.6117            0    2432.3702    20.017112    19.998637     20.83983    8342.4956    1683.6771    3873.5114    1739.9221   -204.65143   -931.61445    129.06486   -4396.3642 
22068000    141.40206   -4960.9969   -4688.2911   -4960.9969            0    860.67146    20.068651    20.038483    20.816702    8371.3398    630.12501    802.24155    1149.6478   -144.22505     465.5337    570.21422    -4583.214 
22069000    136.72864    -4965.619   -4701.9264    -4965.619            0    3332.8296    20.018022    20.072527    20.617521    8284.3733    4468.1462    1767.9339    3762.4088    322.51668   -11.929722    211.42243   -4299.2569 
22070000    147.55853   -4964.2528   -4679.6738   -4964.2528            0     1550.067    20.087518    19.912559    20.902273    8360.7812    557.58083    2135.9358    1956.6845   -186.44452    577.92951    969.72426   -4490.6688 
22071000    141.85202   -4952.5274   -4678.9538   -4952.5274            0    2498.0619     20.06868    19.978361    20.745947    8317.8664     3274.877     1262.891    2956.4176    226.32807    680.13024   -612.88169     -4375.92 
22072000    146.00238   -4937.1907   -4655.6128   -4937.1907            0    1527.2024    20.012097    20.013707    20.926787    8381.5183    2997.1587    878.18255    706.26594   -579.33386   -147.25085    647.44154   -4468.9339 
22073000    140.09368   -4977.4412   -4707.2588   -4977.4412            0    1275.3739    19.880099    20.082033    20.934877    8357.8896     2375.744      1066.47    383.90763   -141.70941   -748.89355   -13.730735   -4551.8018 
22074000    137.38522   -4965.4379    -4700.479   -4965.4379            0    1536.1749      20.1157    19.897721    20.890753    8361.6617    555.84383    2898.0552    1154.6255    -214.2375    379.40182    97.267671   -4513.1482 
22075000     136.6464   -4952.7474   -4689.2133   -4952.7474            0    1976.4555    20.116932    19.855474    20.852947    8329.3183    2196.8794    1062.9267    2669.5604   -707.36985    -98.76445    14.678928   -4449.1243 
22076000    141.18669   -4958.4136   -4686.1232   -4958.4136            0    910.00034    20.103505    19.995763    20.826084    8371.7714    -232.2506    1906.2275    1056.0241   -563.31217    -311.7952    1025.6855   -4575.0179 
22077000    133.12972   -4968.6745   -4711.9227   -4968.6745            0     687.8855     20.02719    20.057563    20.833484    8368.7401    1377.0727   -28.804898     715.3887    269.74493     223.3159    912.80984   -4627.9666 
22078000    147.07536   -4949.3641   -4665.7169   -4949.3641            0    1153.6586    19.962895    19.996124    21.024013    8392.3767    2210.5042    432.13821    818.33335   -190.43065   -816.38993   -132.77374   -4524.5158 
22079000    139.14764   -4968.0874   -4699.7295   -4968.0874            0    1841.5103     20.14611    19.906962    20.853395    8363.2086    946.48927    2272.9354    2305.1063    83.433544   -686.88616    430.95597   -4475.1227 
22080000    149.80394   -4960.6762   -4671.7667   -4960.6762            0    2486.8055    20.185866    19.960665    20.731528     8353.216    1176.1607    3303.3627     2980.893    58.361197    22.962535    598.83663   -4368.8164 
22081000    146.23537   -4964.4646   -4682.4374   -4964.4646            0    1887.8724     20.01127    19.865461    21.066035    8374.4463    1597.7475    2367.0228    1698.8469    114.78893   -97.965731   -339.04935   -4451.8664 
22082000     135.4431   -4960.7927   -4699.5793   -4960.7927            0    1345.5224    20.136919    19.936691    20.744367    8328.1066    830.29517    1843.3106    1362.9613   -133.29791    735.39852    589.82573   -4536.1563 
22083000     148.1861   -4967.8218   -4682.0325   -4967.8218            0    1334.2272    20.103212    19.970196     20.85906    8374.1841    1038.6156    1738.8175    1225.2484   -146.28383   -279.48802    152.39892   -4519.0848 
22084000    150.71289   -4952.8238   -4662.1613   -4952.8238            0    1606.2597    20.079986    19.855198    20.859841    8316.6537    913.99381    3128.0398    776.74556    552.76157    337.54006    738.34122   -4467.3383 
22085000    138.32612   -4965.4419   -4698.6683   -4965.4419            0    1599.0165    19.997192    19.995206    20.844466    8334.6174    3466.2136    476.75311    854.08284   -217.93104   -581.33271   -84.100805   -4504.3049 
22086000    138.13199   -4957.6227   -4691.2236   -4957.6227            0    1617.8632    19.964845    20.070836    20.749931    8314.7283    808.58215    2011.6904    2033.3172    424.04923   -686.94699    792.36809   -4495.0386 
22087000    135.42285    -4954.143   -4692.9687    -4954.143            0    1397.5793     19.95675    20.156463     20.84286    8384.1967    2060.9201    7.4676987    2124.3503   -656.85186    26.085488    227.70159   -4522.0798 
22088000    145.51799   -4966.2978   -4685.6541   -4966.2978            0    1918.2146      20.0227    19.991534    20.731385    8298.4515    3452.3454    821.98454    1480.3138   -12.280189    737.66673    105.23812   -4453.5033 
22089000    130.73172   -4966.3813   -4714.2542   -4966.3813            0    1784.8324    20.091578    19.916001    20.886292    8357.5219    1751.8772    2541.5082    1061.1117    11.000641   -433.76021   -28.298407   -4496.7083 
22090000    141.55533   -4963.6656   -4690.6642   -4963.6656            0    3655.0172    20.056502     19.77384    20.846828    8267.7283    3483.9119    4352.4665    3128.6731   -272.02189     418.4948    1089.6448   -4249.9557 
22091000    138.17398   -4959.2555   -4692.7754   -4959.2555            0    2045.1301    20.054726    19.873512    20.825653    8300.2272    2170.4738    2445.3959    1519.5207   -781.24655    620.14923    822.46328   -4445.2118 
22092000    135.98781   -4952.9093   -4690.6454   -4952.9093            0    1727.3588    19.890687    19.994936    20.902517    8313.2031    1809.6576    2067.1025    1305.3162   -206.86849    729.92562    260.26602   -4481.2212 
22093000    147.16563   -4956.7685   -4672.9473   -4956.7685            0    1330.8644    20.153204    20.016298    20.704205    8351.9216    215.24895    3097.5522    679.79212    33.160764    499.10474    68.051164   -4510.8424 
22094000    141.38172   -4959.5351   -4686.8685   -4959.5351            0    1117.3888    20.120941    20.086721    20.719587    8374.1055     803.4781    389.22737     2159.461    132.55098   -229.37249    856.79609   -4550.4043 
22095000    137.03523    -4975.384   -4711.1001    -4975.384            0    2135.1897    20.017151    19.873394    20.980048    8346.0462    3129.0881    1847.4146    1429.0665    48.465212    106.83619   -381.62354   -4451.2079 
22096000     146.4752   -4959.2465   -4676.7567   -4959.2465            0     2609.488    20.029038    19.988089    20.816178    8333.5943    2829.9616    3369.4009    1629.1014    388.73398     630.8856    470.36118   -4359.6076 
22097000     143.9342   -4963.0084   -4685.4192   -4963.0084            0      1766.99    20.218073    19.871464    20.842669    8373.8075    841.99618    2692.6596    1766.3143   -243.05551    1100.5453   -539.70953   -4469.6283 
22098000    142.19928   -4963.5839   -4689.3406   -4963.5839            0    2405.0328    20.078444    20.085611    20.638644    8323.3136     2297.475    1820.0471    3097.5764   -512.59149    22.504312    168.16315   -4397.4009 
22099000    143.98912   -4965.7823   -4688.0872   -4965.7823            0    2112.7002    19.970596    19.992572    20.871287    8333.1448    2032.1615    1446.9222    2859.0169    184.83371   -112.25008   -1569.1235     -4431.33 
22100000    137.93954   -4954.4737   -4688.4457   -4954.4737            0    2835.5614    19.940985     19.98122    20.955041    8349.4355    2331.8165    2534.3541    3640.5136    487.74788    550.45585     111.2957   -4343.1652 
22101000     133.9374   -4969.0466   -4710.7371   -4969.0466            0    1784.5979    20.179161    19.833161    20.771624    8313.1477    1617.6455     2519.134     1217.014   -243.60605    681.64276    175.68169   -4494.3747 
22102000    139.35543   -4953.1968   -4684.4381   -4953.1968            0    979.75495    20.098979    20.035642    20.833718    8389.6537    1447.9488    399.09569    1092.2204     171.0454   -266.87275    90.204355   -4564.5607 
22103000     139.6161   -4943.2698   -4674.0084   -4943.2698            0    2197.1293    19.974739    20.034157    20.845987    8342.0856    4019.7026    1111.7612     1459.924   -16.241774   -709.06557    1087.1522    -4406.704 
22104000    141.76088   -4948.5924   -4675.1947   -4948.5924            0    1746.7332    20.113509    19.995684    20.787629    8360.4388    1017.2574    1950.9728    2271.9695   -263.17848    338.09477    579.67249   -4462.2182 
22105000    149.09187   -4949.2213   -4661.6851   -4949.2213            0    3585.6024    20.029508    20.028195    20.679355    8295.6245    3735.1828    3281.6224    3740.0021   -221.41787     -414.699    -204.2587   -4227.8875 
22106000    139.79987   -4970.1267   -4700.5109   -4970.1267            0    2443.8618     20.04024    20.000939    20.866773    8363.8951    2552.7156    1921.5298      2857.34   -85.969176    616.94471   -244.22236   -4402.4115 
22107000    148.37982   -4969.3844   -4683.2214   -4969.3844            0    2419.2487    19.858969    19.981379    21.031146    8345.3602    3504.2709    1813.3261    1940.1491   -44.755549   -567.37241     112.2794   -4388.7783 
22108000    138.50856   -4943.7048   -4676.5794   -4943.7048            0    1500.4573    20.157602    20.086657    20.818054    8429.2055    539.61384     1088.576     2873.182    309.71066   -97.189886    145.77386   -4492.1262 
22109000    140.55419   -4952.0676    -4680.997   -4952.0676            0    3776.0179    20.032919     20.04236    20.711192    8315.6877    2934.6228    4158.2855    4235.1455    143.93064    532.61711    304.33782   -4223.0575 
22110000    140.24422   -4941.0184   -4670.5456   -4941.0184            0    3635.1376    19.820415    20.000017    20.943264    8302.0906    3808.7641    3494.4496    3602.1992     277.2847   -498.04755    383.94039   -4230.4123 
22111000    141.28068   -4943.3912   -4670.9195   -4943.3912            0     738.7039    19.972832    20.057427    20.925171    8382.6994    783.16999    715.45435    717.48736    56.844678    605.58868   -252.84155   -4580.6107 
22112000    142.69135   -4954.0262    -4678.834   -4954.0262            0    506.62728    20.081474    20.085646    20.834713    8403.6688    622.25736    876.90409    20.720387    -122.8422    654.63508    36.466594   -4616.7423 
22113000    146.27355   -4980.3677   -4698.2669   -4980.3677            0    2229.3171    19.950686     20.02765    20.755989    8293.3745    1867.2202    1675.4084    3145.3228   -185.14279   -124.89005   -494.27145   -4428.6302 
22114000    144.72651   -4960.7701   -4681.6528   -4960.7701            0    1885.2382    19.910751    20.179432    20.755932    8339.4768    3150.1175   -42.077395    2547.6745   -157.75331   -867.47087    -383.0369    -4452.365 
22115000    135.83059   -4953.8879   -4691.9272   -4953.8879            0    1272.6495    20.046913    19.997962    20.901291    8379.2731    772.31112    1929.5068    1116.1305   -71.887247   -416.19492    337.76809   -4536.4055 
22116000    132.70725    -4957.082   -4701.1449    -4957.082            0    1793.0706    20.134839    19.923347    20.852857     8365.194    853.73001    2985.2055    1540.2763   -621.20253    946.52743   -170.23574   -4482.3943 
22117000    132.95061   -4960.4883   -4704.0819   -4960.4883            0    1520.2174    20.072545    19.995596    20.852067    8369.2377    186.71372    2422.7388    1951.1997   -10.329399     121.6442   -275.63162   -4518.5291 
22118000    142.09242   -4971.0407   -4697.0035   -4971.0407            0    3458.3027    19.913517    20.041954    20.698013    8260.6969    3237.4547    3502.4011    3635.0523   -399.89252    462.14418   -743.06146   -4280.3687 
22119000    143.93281   -4977.6529   -4700.0664   -4977.6529            0    2742.3444    19.872673    19.990403    20.954945    8324.6187    3867.5177    2293.7639    2065.7517    209.30124    106.13442   -114.73835   -4367.1292 
22120000    139.90117    -4953.353   -4683.5418    -4953.353            0     2780.258    19.901596    19.999678    21.000113    8358.5804    3676.9534    3344.8142    1319.0064   -131.92941    475.20274   -157.43683   -4344.6247 
22121000    140.44503   -4973.1745   -4702.3144   -4973.1745            0    1033.0115    20.066316    20.061759    20.661233    8317.5017    972.66587    560.26363    1566.1051   -35.915413    68.438051   -964.88713   -4577.0078 
22122000    144.94599   -4948.7531   -4669.2125   -4948.7531            0    2110.9258    20.038132    20.039969    20.801304    8353.0452    2425.1416    1329.9009    2577.7348   -244.67239    25.371397    376.76812   -4412.0583 
22123000    145.57608   -4964.3762   -4683.6205   -4964.3762            0    1989.1402    19.915918    19.872434    21.116293    8357.3591    2244.7376    3022.4287    700.25435    220.70577   -74.488033    197.76496   -4441.1771 
22124000    141.66852   -4957.5806    -4684.361   -4957.5806            0    2401.7593    20.110303     19.92806    20.801314    8336.3203    1923.4426    2897.3804    2384.4548   -173.65579    339.12333    -29.81981    -4392.363 
22125000    147.55925   -4956.6269   -4672.0465   -4956.6269            0    1669.2014    20.019148    19.945166    20.915347    8351.1891     1099.946    1963.0855    1944.5727    94.770517   -739.96844    41.718843   -4468.7485 
22126000    138.00293   -4973.8501   -4707.6998   -4973.8501            0    855.69366    19.972584    20.096167    20.811309    8353.0848    203.63304    1055.6443    1307.8036   -138.22631    643.72346   -176.93309   -4603.4582 
22127000    141.81571   -4964.2048   -4690.7012   -4964.2048            0    1694.4873    19.944885    19.967581    20.910537    8327.6444    1698.6909    2088.4634    1296.3076    305.26896   -459.28981   -202.55862   -4484.9055 
22128000    133.36175   -4947.5515   -4690.3521   -4947.5515            0    2866.4909    20.118945    19.991144    20.534244    8258.8877    2251.0078    1698.7086    4649.7562    190.94957   -364.29676   -1066.5158   -4345.0908 
22129000    146.75847   -4947.0423   -4664.0062   -4947.0423            0    1529.3505    20.123066    19.934159    20.825811    8353.9907    644.94737    1653.3389    2289.7652    105.93674    583.32507   -850.88491   -4477.6787 
22130000     137.8905   -4975.3727   -4709.4393   -4975.3727            0    1559.5092    20.054266    19.937188    20.994056    8393.9624    1578.3642     2055.633    1044.5305    246.96819    880.28494   -434.59766   -4518.5283 
22131000     132.9821   -4969.1139   -4712.6467   -4969.1139            0    1452.1036    20.099441    20.057647     20.84766     8404.682    528.11922    1981.3515    1846.8401   -577.93852   -42.009755   -546.64006   -4534.6571 
22132000    149.92529    -4950.877   -4661.7334    -4950.877            0    3285.8406    20.201632    19.938174    20.574389    8287.0275    2431.0983    3899.8805    3526.5432   -604.23861    652.32624    209.84337    -4264.614 
22133000    145.50708   -4952.3106    -4671.688   -4952.3106            0    2043.4847     20.02361    19.874759    20.940662    8333.6386    2829.7658     2188.705    1111.9834     458.8785    190.72342    970.80114   -4423.3278 
22134000     134.0555   -4953.8379   -4695.3006   -4953.8379            0    1806.5502     19.97332     19.90263    20.939329    8323.8355    2089.6974    2970.9621    358.99095   -16.555285    712.08591    11.274807   -4475.9951 
22135000    138.38469   -4958.7576   -4691.8711   -4958.7576            0    1032.3412    20.135787      19.9392     20.80186    8351.7696   -332.96963    1940.2613     1489.732    52.349939    1226.0749    192.86496   -4566.1299 
22136000     145.9723   -4963.3807   -4681.8609   -4963.3807            0    2812.1302    19.988746    20.003647    20.793299    8314.1549    3611.2797    2416.9461    2408.1647    552.56555    1473.9607    508.86208   -4340.8805 
22137000    142.59632   -4970.8977   -4695.8887   -4970.8977            0    1951.0073    19.969326    19.969791    20.880852    8326.9346     2547.625    1504.6987    1800.6982   -282.48202    155.27161     480.6547   -4458.9588 
22138000    145.22704   -4974.8401   -4694.7575   -4974.8401            0    2064.5537    20.123531    19.896465    20.818371    8335.4079    1645.2668    2933.0274    1615.3669   -231.92914   -571.54715    384.05171   -4443.7834 
22139000    132.02866   -4962.1382   -4707.5099   -4962.1382            0     4096.152    20.017852    20.039431    20.669838    8291.6307    3878.0424    3257.3089    5153.1048     180.4633    565.17973     1073.877    -4212.183 
22140000    146.71989     -4963.47   -4680.5083     -4963.47            0    637.39417    20.015213    20.048755     20.92299    8395.9792   -274.02097    642.61354    1543.5899   -438.46716    214.94758    613.93817   -4602.4615 
22141000    143.19268   -4967.2794   -4691.1203   -4967.2794            0    2248.4818    19.943926    19.876924    20.894689    8283.1542    2611.6868    1705.0261    2428.7326   -606.44773   -373.68585     701.4798   -4419.5007 
22142000    143.95991   -4966.7568    -4689.118   -4966.7568            0    1926.6805    19.946823    20.034691    20.870877     8340.596    2596.3627     1491.864    1691.8149    132.76205    64.605708    1169.5176   -4454.7584 
22143000    141.68152   -4963.6013   -4690.3566   -4963.6013            0    1171.2078    20.050204    19.930648    20.893902    8349.4868    2112.0263    1122.0263    279.57075   -42.091006    1082.9403    302.19899   -4547.7401 
22144000    143.36669   -4962.2615   -4685.7668   -4962.2615            0    1849.5821    20.059869    20.062685    20.694601     8328.642     1662.602     1313.892    2572.2522   -31.460812     1179.169   -1345.5193   -4461.1078 
22145000    144.25006   -4968.3775   -4690.1792   -4968.3775            0    2272.5272     20.04392    19.971572       20.821    8334.8252    1652.1767    2862.3445    2303.0604   -164.94446   -451.26762    939.66424   -4413.9424 
22146000    137.99248   -4966.4082   -4700.2781   -4966.4082            0    1913.4042    19.900684    20.143585     20.80509    8340.1594    1206.8133    2237.4046    2295.9947    97.868037    519.61111   -241.69059   -4467.5457 
22147000    136.34413   -4968.8732   -4705.9221   -4968.8732            0    30.718654    20.024938    20.065499    21.027183    8448.9401    634.68317   -431.85545   -110.67176   -136.49355    536.69802   -387.32158   -4702.1369 
22148000    136.79631   -4967.8381   -4704.0149   -4967.8381            0    2306.0523    20.087902    19.948987     20.87014    8363.3602    3200.4175     1513.208    2204.5315   -204.52881    853.31664     -169.068   -4422.7433 
22149000     147.6892    -4960.708   -4675.8769    -4960.708            0    2970.5437    20.072073    19.888887     20.68904    8259.2959    2149.2542    3563.4715    3198.9052   -405.70834    780.17788   -690.43511    -4318.065 
22150000    145.02031   -4974.5182   -4694.8343   -4974.5182            0    2725.3518    19.947771     19.92662    20.894036    8305.2044     2397.466     3484.441    2294.1483   -82.212827    582.37254   -584.79959   -4364.7319 
22151000    144.40093   -4944.0953   -4665.6059   -4944.0953            0    1983.0424    19.982881    20.125699    20.935939    8419.7946    3200.7598    952.68696    1795.6806    -366.2747   -755.15987   -541.76429   -4422.1001 
22152000    148.45777   -4963.6197   -4677.3064   -4963.6197            0     2057.941    20.098366    20.157771    20.555211    8327.7024    2535.5317    874.34666    2763.9446   -664.17945    430.97667    15.249316   -4427.3674 
22153000    141.60628   -4961.9052   -4688.8056   -4961.9052            0    2341.9149    19.918035    19.881303    21.003533    8317.3252    2529.4079    2921.9351    1574.4019   -262.52271   -730.03409    191.45322   -4404.7321 
22154000    145.15021   -4968.2192   -4688.2848   -4968.2192            0    2307.0692    19.977217    19.916964    20.840141      8291.99    1958.9612    2659.6264    2302.6201   -390.86713    803.76956   -55.201188   -4409.2906 
22155000    145.11352   -4970.0778   -4690.2142   -4970.0778            0     2808.283    20.069453    19.695796    21.085828     8334.887    1049.5117    5011.3256    2364.0118   -190.19637   -217.11957     -9.43022   -4348.8511 
22156000    143.22998   -4976.4385   -4700.2075   -4976.4385            0    2247.5978    20.101906    19.938306    20.829336    8348.3551     2234.364    2226.6277    2281.8016   -526.87081    585.71136   -925.60781   -4426.5575 
22157000    146.92331   -4964.3617   -4681.0078   -4964.3617            0    2119.6496    19.998724    19.932604    20.847264    8310.2748    2936.3691    2220.8979    1201.6817   -480.08977    166.43996    1088.4973   -4424.1129 
22158000    136.16692   -4966.7093      -4704.1   -4966.7093            0    2266.5549     19.80806    19.920921     20.96242    8271.6615    2531.3407    2492.2574    1776.0665   -49.269883    191.52859   -1155.1242   -4430.6771 
22159000    133.62236   -4957.3007   -4699.5988   -4957.3007            0    2279.2796     20.03581    20.054013    20.726522    8327.8834    1109.9885     2835.801    2892.0493   -491.89054   -115.28744   -262.96661    -4422.772 
22160000    142.20819   -4957.2434    -4682.983   -4957.2434            0    2917.6068    20.017286    20.072511    20.697393    8316.1544    2179.2569    3216.3816    3357.1819    508.08398    1939.7973   -212.35511   -4329.1281 
22161000    134.87983   -4956.5225   -4696.3954   -4956.5225            0    1488.5043    20.052742    20.006179    20.850933    8364.9511    2090.0889    403.51827    1971.9058    162.60379    501.39145   -113.23528   -4514.8065 
22162000    147.26787   -4966.8369   -4682.8184   -4966.8369            0     1890.761    19.899637    19.965636    21.083186    8376.5377    1965.5697     1880.066    1826.6472    67.711821   -790.23263    194.60695    -4451.837 
22163000    145.74122   -4963.0269   -4681.9527   -4963.0269            0    1750.5864    19.930081    20.040695    20.805477    8309.9714    1614.3494    2220.5253    1416.8845    759.60158    814.95331   -42.196392    -4469.795 
22164000    142.32166   -4971.5489   -4697.0696   -4971.5489            0    1833.3043    19.925217    20.103555    20.713841    8297.2958    1710.3884    1639.3678    2150.1566    467.42039    905.17814   -327.07287   -4475.2259 
22165000    139.41982    -4960.013   -4691.1301    -4960.013            0    2290.5108      19.9304    20.077792    20.795108    8321.3377    3082.9268     1725.339    2063.2666  -0.12306362    109.55922   -69.597599   -4413.1579 
22166000    140.28419   -4949.1413   -4678.5915   -4949.1413            0    1983.8179    20.033626    20.012817    20.776969    8330.0954    1457.8969    2940.3446    1553.2121    549.59908   -389.61603   -764.47856   -4437.5856 
22167000    140.26194   -4957.0645   -4686.5576   -4957.0645            0    2904.1178    19.878948    19.925651    20.921954    8287.2069    3401.3614    2670.4341    2640.5577    32.330589    -819.7699    1045.2321   -4335.5647 
22168000    147.24787   -4949.6022   -4665.6223   -4949.6022            0    1845.1346    19.987949    20.130813    20.776106    8359.7578    2111.1546    1306.0158    2118.2335    79.846963    522.89105   -333.00971   -4440.6663 
22169000    149.17126   -4954.8895   -4667.2002   -4954.8895            0    1502.1874    20.082758    19.979206    20.742765    8322.7766    2210.9885    633.87182     1661.702   -694.35824    243.62767   -695.38873   -4484.8659 
22170000    140.95599   -4959.2769   -4687.4314   -4959.2769            0    1944.2283    20.079751    19.924902    20.916686    8368.4957    2682.7721    849.16324    2300.7494   -455.69039   -497.31043   -522.06028   -4450.1462 
22171000    141.77402   -4948.1971    -4674.774   -4948.1971            0    1473.3638    20.200746    19.872396    20.857177    8372.8473    587.47485    2383.7643    1448.8523     228.8263   -691.28333    272.66028   -4494.8624 
22172000    139.08404   -4959.2752   -4691.0399   -4959.2752            0    2465.6294    20.043145      19.9212    20.775065    8295.1408    2373.4278    2492.1892    2531.2711   -59.966236    483.31962    1306.7902   -4392.7577 
22173000    143.75075   -4979.4665   -4702.2311   -4979.4665            0    1716.3338    20.137677    19.917728    20.904585    8384.7617    1332.7412    2099.5735    1716.6866   -12.270542    -609.4111   -857.00285   -4492.3524 
22174000    143.56276    -4960.162   -4683.2892    -4960.162            0    1958.7471    20.155043    19.880917    20.802022    8335.3856    488.36352    3049.2503    2338.6274   -101.55703   -357.41551    515.21189   -4445.1779 
22175000    143.75382   -4970.2812   -4693.0399   -4970.2812            0    2010.1178    20.071497    19.828385    20.888734    8313.4107    2034.4208    2270.6948    1725.2378    131.60754   -240.96707     707.8675   -4449.3281 
22176000    145.32018    -4981.182   -4700.9198    -4981.182            0    1690.2818    20.148503    19.936552    20.643619    8292.3696    530.11313    2591.8668    1948.8655   -49.614969    490.71767   -179.66514   -4496.5044 
22177000     144.6793   -4961.0146   -4681.9884   -4961.0146            0    1867.0753    20.064665    19.931275     20.79091    8314.5837    1565.2293    2002.1118     2033.885   -193.36421    390.19837    565.93804   -4455.5875 
22178000    146.12204   -4969.1067   -4687.2981   -4969.1067            0    1455.5505    20.012891    19.850035    20.955855    8324.8514    2197.4093    1546.9123    622.33007   -147.50958    483.12395    231.38039   -4510.5805 
22179000    152.05049   -4965.8033   -4672.5612   -4965.8033            0    1574.9499    20.095953    19.900589      20.9481    8377.5918    1911.2859    1072.1067    1741.4572   -626.21887   -39.359864    303.35028    -4480.136 
22180000     145.7063   -4959.9631   -4678.9562   -4959.9631            0    1653.9869    20.140301    20.024954    20.768023    8375.9223    1939.5279    1440.1515    1582.2814    50.806522    593.41233    1437.6817   -4476.9147 
22181000    142.47991   -4969.1534    -4694.369   -4969.1534            0    1319.9692     20.01426    20.052208    20.847266    8366.6357    1366.9881    1371.1554     1221.764    -128.5032    692.06186   -70.378645   -4533.3079 
22182000    140.74264   -4957.6512   -4686.2172   -4957.6512            0    1441.4258    20.116721    20.006945    20.873094    8400.8804    1148.7935    1086.5293    2088.9546    300.12772    -260.9373   -126.11185   -4509.6163 
22183000    137.70972   -4968.0757   -4702.4909   -4968.0757            0    2356.4199    20.067977    19.867709    20.786976    8287.8653     2043.627    2596.2082    2429.4245    642.00624    467.09552   -4.3997437   -4417.6704 
22184000    134.84153   -4965.4919   -4705.4387   -4965.4919            0    1017.4895    20.029938    20.106971    20.790841    8373.3323    1316.6599    833.75922    902.04923   -43.462184     1080.917    838.51244   -4581.1865 
22185000    143.54461   -4950.4234   -4673.5855   -4950.4234            0    2314.0089    19.996489    19.985326    20.958006    8375.5813    549.04521    3804.4402    2588.5413   -338.09289    437.62594    1105.1632    -4390.931 
22186000    147.56024   -4958.8495   -4674.2672   -4958.8495            0    2469.2159    19.989801     19.85777    20.960881    8320.4823    3269.2234    1548.4498    2589.9744   -253.81427    542.18925   -110.78956   -4374.6384 
22187000    137.41735   -4961.9532   -4696.9322   -4961.9532            0    1773.8245    20.067028    20.023112    20.781127    8349.9473    243.93567    3346.9226    1730.6153    560.17208   -271.25339    365.00419    -4480.924 
22188000    147.21645   -4967.1939   -4683.2746   -4967.1939            0    2328.5046    20.070122    20.036786    20.795774    8362.8281    3083.9858    1332.4709    2569.0572   -256.57836    1143.1022   -1171.2622   -4399.2826 
22189000    134.08284   -4960.2446   -4701.6546   -4960.2446            0    2083.0942    20.141083    19.960113    20.785197    8356.0294    1045.5248    2602.6834    2601.0745   -448.11796    123.59815    545.71752   -4447.8002 
22190000    151.76797   -4958.5647   -4665.8674   -4958.5647            0    3175.8212    19.975932    19.783299    21.068517    8326.0636    3264.3796      3919.36    2343.7239   -55.238223   -92.633237    732.10985   -4280.2366 
22191000     144.0571   -4965.9317   -4688.1054   -4965.9317            0     1506.255    20.045929    20.032193    20.780423    8344.6678    137.89661    2826.5293     1554.339   -161.24902    32.291103    712.56498   -4504.7966 
22192000    141.95524   -4953.3504   -4679.5778   -4953.3504            0    2417.0705    19.962995      19.9617    20.916307    8335.0503    2941.0415    2048.5564    2261.6137   -117.31879   -311.08897    919.26533   -4385.7632 
22193000    144.81562   -4963.5187   -4684.2296   -4963.5187            0    2625.9315     20.00973    20.110397    20.630864    8301.9341    2752.2056    1800.0761    3325.5128    27.236528   -131.55747    581.51791   -4366.2944 
22194000    142.91543   -4951.3835   -4675.7591   -4951.3835            0    1639.3338    20.094995    20.070597    20.747222    8367.7393    1020.4106    2389.5528    1508.0379   -82.857143    924.56133     1222.908   -4475.7031 
22195000     141.7302   -4957.0276    -4683.689   -4957.0276            0     2385.831    20.090831    19.900411    20.907926    8359.3188    2680.6946    2166.8367    2309.9618   -212.46544    127.87893   -115.10046   -4392.8274 
22196000    145.99009   -4968.6857   -4687.1316   -4968.6857            0    2062.4696    19.952355     19.98862    20.872783    8324.4844    3442.0296    1324.6288    1420.7503   -82.220684    271.72994   -564.81029   -4436.7394 
22197000    143.17723   -4960.7762   -4684.6468   -4960.7762            0     1451.401     19.90589    20.065926    20.893141    8345.3495     1927.996    1212.1185    1214.0884    233.08199     244.9278    386.72557   -4507.9992 
22198000    137.55799   -4947.8444   -4682.5522   -4947.8444            0    2647.7302    19.911873    20.040575    20.915065    8346.0599    4468.0231    1434.0093    2041.1582   -226.30846   -375.06383   -639.32263   -4360.2739 
22199000    144.89569   -4950.3283   -4670.8848   -4950.3283            0    1983.7723    20.014371    19.956136    20.935265    8361.7443    2001.1596    2127.3993    1822.7579    417.70581    882.44118    958.99871   -4428.9688 
22200000    143.90297    -4970.295    -4692.766    -4970.295            0    3302.6997    20.033077    19.981957    20.780354    8318.3773    2874.8832    3247.6503    3785.5656    550.55278    366.68933     1376.026    -4292.099 
22201000    142.34344   -4964.9342   -4690.4129   -4964.9342            0    1765.2557    20.030491    20.058921    20.718001    8324.2867     2059.369    1448.6687    1787.7294   -406.83025   -627.90147    347.86028   -4476.1087 
22202000    145.07438   -4966.1761   -4686.3879   -4966.1761            0    1248.3795    20.007789     20.00403    21.004013    8406.5706    1314.2901    2153.0198    277.82841   -399.49873    1258.0926   -607.79785   -4533.3351 
22203000    141.89622   -4974.1713   -4700.5125   -4974.1713            0    1394.2348    20.035385    20.068262    20.781565     8355.755    1716.6609    1294.6295    1171.4139    34.936887   -981.24963   -622.50608   -4530.6109 
22204000    140.52573   -4971.9058   -4700.8901   -4971.9058            0    1461.5591     20.10224    19.963554    20.799983    8347.2859    515.19997    2567.9127    1301.5645   -2.7952119   -498.65429    228.52668   -4522.9649 
22205000    140.27995   -4976.9674   -4706.4257   -4976.9674            0    1878.3232    20.146092     19.95997    20.801547    8364.6224    1538.8674    1451.8414    2644.2607   -698.67434     1124.635   -285.46943   -4477.2902 
22206000    137.56781   -4970.1489   -4704.8378   -4970.1489            0    1946.2118    19.991166    19.998643    20.874976    8345.7357    1712.9246    1741.8733    2383.8376    416.61731    426.16752    -202.5462   -4467.9566 
22207000    140.53826   -4958.3133   -4687.2734   -4958.3133            0    2677.8385    19.912027    20.096335    20.740967    8299.6799    3318.6619    1696.1908    3018.6628    81.208823   -474.77339   -274.74334   -4363.1416 
22208000    137.40117   -4944.8815   -4679.8918   -4944.8815            0       1003.2    20.148938    20.207888      20.5973    8386.5506   -168.18886    1766.7719    1411.0171   -501.96777   -353.13815   -587.57597   -4557.1912 
22209000    141.93983   -4963.6214   -4689.8785   -4963.6214            0    2043.6517    20.065314    19.916507    20.878094    8343.5326    913.63498    3372.0839    1845.2364   -804.65382   -995.41749   -479.32909   -4441.2031 
22210000    142.28221   -4945.1806   -4670.7774   -4945.1806            0    2227.4037     20.02055    19.840764    21.033762    8355.0939    1789.1039    2754.4429    2138.6643   -145.11573   -130.70678    921.90892   -4399.3672 
22211000    144.72446    -4963.531   -4684.4177    -4963.531            0    2842.8968    20.042924    19.933865    20.830234    8322.3647     2852.105    3177.2489    2499.3365   -226.80262   -62.266349   -196.58895   -4339.3663 
22212000    144.64267   -4965.0349   -4686.0793   -4965.0349            0    2979.9709    20.061618    20.014062     20.66841    8298.6656    2540.2241    2300.2663    4099.4224    209.02523    708.26841    429.81181   -4325.4208 
22213000    145.35435   -4957.6728   -4677.3447   -4957.6728            0    1506.9365    19.971356    20.034318    20.850001    8342.3455    1598.7289    1811.8103    1110.2704    -442.8424    315.40185    145.35212   -4494.0039 
22214000    144.38098   -4959.5585   -4681.1076   -4959.5585            0    1354.0977    19.937566    19.997266    20.974961    8362.6499    1040.7694    1952.4994    1069.0243   -436.48847    257.37594    457.31301    -4515.961 
22215000    134.33046   -4967.3589   -4708.2914   -4967.3589            0    2335.3848    19.928214    19.957777    20.802484     8273.623    3399.1938    1783.3963    1823.5644   -651.56883    -406.1291     626.9466   -4426.4984 
22216000     142.1666   -4969.6054   -4695.4251   -4969.6054            0    1785.1091     20.09912    20.032684    20.689631    8330.4586    1255.0167    1173.2324    2927.0783   -38.299718   -43.002681     396.0197   -4478.5501 
22217000     138.1003   -4971.9684   -4705.6304   -4971.9684            0    1218.4211    19.933457    19.971897    20.939246    8336.1012      645.129    2244.7974    765.33681    196.89532    474.21272   -155.14724   -4557.5027 
22218000    142.36588   -4950.3936   -4675.8291   -4950.3936            0    2148.9285    19.959614    19.987122    20.844209     8315.489    3776.7863    429.32136     2240.678    49.757225    1210.6079    238.22511   -4415.2223 
22219000    138.08151   -4945.1184   -4678.8166   -4945.1184            0    2239.3755    19.837955    20.223409    20.697141    8303.5082    2994.3504    1617.0562    2106.7201   -317.93199   -380.95668   -258.31352   -4407.6323 
22220000    143.19377    -4979.646   -4703.4848    -4979.646            0    1614.0413    20.044437    19.881085    20.947863    8347.8317    1135.2744    2317.0039    1389.8456   -31.153127    123.67101   -433.66701   -4506.9841 
22221000    146.04789   -4971.9283   -4690.2627   -4971.9283            0    364.32654    20.031712    20.007214    20.910004    8380.2857    877.24045    361.08294   -145.34377    112.29671    996.34836    454.32253   -4645.7354 
22222000    141.13217   -4968.9084   -4696.7231   -4968.9084            0    3400.1549    19.975635    20.064839    20.617343    8263.5936    3758.1021    3005.5399    3436.8226   -265.15109   -135.23589   -69.916982   -4286.9499 
22223000    138.70348   -4965.9519   -4698.4506   -4965.9519            0    1141.6432    20.093153    20.106386    20.776008     8393.522    2803.7538   -403.03041    1024.2061   -577.32275   -612.64912    249.48182    -4558.701 
22224000    139.23422    -4956.723   -4688.1981    -4956.723            0    556.30552    20.175065    19.950838    20.797222    8371.0784    295.24063    602.65031    771.02563    327.25876    563.96919    200.47223   -4620.2824 
22225000    140.82855   -4969.3245   -4697.7248   -4969.3245            0    2607.8302    20.113668    19.771267    20.833473    8284.9035    2483.1687    2502.9641    2837.3577    33.872702   -1342.4809   -710.38642    -4382.629 
22226000    143.60158   -4966.8145   -4689.8668   -4966.8145            0    2393.5668    20.030623    19.991988    20.911002    8373.8523    3349.0727    2522.5148    1309.1128   -161.69322    1179.7638   -239.08514   -4397.5547 
22227000    149.23823   -4943.3739   -4655.5554   -4943.3739            0    1285.0491    20.105329     20.07594    20.872673    8424.9077   -331.92865    1364.9559    2822.1199   -91.480836    738.27863    808.01235   -4497.6632 
22228000     142.8592   -4950.0387   -4674.5227   -4950.0387            0    1889.7393    20.001832    20.104664    20.772781    8353.3605    2485.1107    322.56702    2861.5403   -340.22464    616.02418    960.79371   -4444.3048 
22229000    149.16172   -4969.9753   -4682.3044   -4969.9753            0    2250.0643    19.930649    19.982451    20.981855     8356.301    2746.4326    2921.5893     1082.171   -138.55908    175.82122     1527.673   -4408.0934 
22230000    147.12338   -4951.3087   -4667.5689   -4951.3087            0    2021.9937    19.978552    19.930729    20.849175    8301.8726     1391.616    2650.4465    2023.9186   -356.59034    1411.7281   -371.87455   -4422.7574 
22231000    148.08272   -4959.5933   -4674.0033   -4959.5933            0   -413.72297    20.061589      20.0441    20.987379    8439.3711   -400.27088   -567.42676   -273.47127    267.23981    671.82064   -623.24911   -4724.9242 
22232000    138.17009   -4949.1277    -4682.655   -4949.1277            0    1937.9986    19.932532    20.060439    20.812345     8321.927    2347.7919    1677.6632    1788.5407    1196.6621    273.08044   -4.0920846   -4447.4464 
22233000    146.43814   -4976.2552   -4693.8369   -4976.2552            0    2470.6452    20.129477    19.983234    20.715493    8332.8493      299.372    3730.5333    3382.0303   -321.95441   -299.59571    846.19833   -4393.5891 
22234000    145.31104   -4958.5311   -4678.2865   -4958.5311            0    1951.4213     19.96425     19.98092    21.068949    8404.4898    2379.6079    2162.5689     1312.087   -472.18544    47.942015   -280.89046   -4439.0991 
22235000    140.25552   -4973.2427   -4702.7481   -4973.2427            0    1922.6079    20.040689    19.933813    21.010401    8393.3895    2246.9113    1835.6924      1685.22    -194.0629    386.36111   -578.37971   -4467.4037 
22236000     133.5453    -4955.707   -4698.1537    -4955.707            0    1310.9594    20.023018    20.054097     20.80197    8352.8972    1574.1769    644.71159    1713.9898    138.11564    216.50437    -481.7643   -4538.4546 
22237000    140.22051   -4958.3155   -4687.8885   -4958.3155            0    1373.2887    20.106596    19.949947    20.757229    8326.2543    1483.5117    1425.5516    1210.8027     18.08929    588.79086   -1095.0655   -4521.1302 
22238000    148.24453   -4964.2676   -4678.3656   -4964.2676            0    1435.3611    19.754847    19.980694    21.227473     8378.814     3228.305    1868.5965   -790.81815    7.6812107    311.94401   -310.87784   -4502.9696 
22239000    140.32993    -4960.211   -4689.5729    -4960.211            0    2135.1542    19.976233    19.949556    20.895877    8327.3618     2186.786    2444.2929    1774.3837    -15.61182     766.7995    582.84496   -4430.2669 
22240000    150.96858   -4970.4801   -4679.3245   -4970.4801            0    2430.1303    19.968968    20.061047     20.66899    8279.9643    1684.8896    2937.3305    2668.1708   -597.91957    606.80248    50.423294   -4385.8746 
22241000    136.69132    -4961.923   -4698.3023    -4961.923            0    1238.3433    20.040782    20.127333    20.762101    8374.7567    1017.0151    666.56917    2031.4458   -65.607404    38.117166    535.73839   -4547.0545 
22242000    144.69907   -4967.3474    -4688.283   -4967.3474            0    1482.3079    19.938944    20.103986    20.948279    8397.1651    1694.8783     1066.376    1685.6693   -766.27892    49.502909   -609.73459   -4506.7536 
22243000    141.21776   -4949.6971   -4677.3468   -4949.6971            0    1980.0875    19.977264    20.046277    20.934829    8383.7657    3625.7473    1721.6224    592.89296   -323.48535    513.78284   -1003.8996   -4435.2442 
22244000    144.35997   -4955.7667   -4677.3563   -4955.7667            0    3199.0963    20.099327     19.88633    20.695295    8271.9478    2224.8008    4314.6069    3057.8813   -211.19296    374.42831     840.6908   -4291.4242 
22245000    142.98091   -4938.9521   -4663.2014   -4938.9521            0    2439.6174    20.018934    19.896878    21.028364    8375.8974    1918.2643    4064.4316    1336.1562    376.03292   -63.998892    -85.16547   -4365.1927 
22246000    145.94318   -4960.2382   -4678.7745   -4960.2382            0    1706.0605    20.005186    20.004308    20.834121    8337.6047    1495.8773     2436.558    1185.7464    261.78721   -739.69098    126.16383   -4471.3254 
22247000    141.19805   -4961.2764   -4688.9641   -4961.2764            0    2444.7332    20.102918     19.96926    20.718583    8317.2761    1814.7658    2442.7586     3076.675    386.04514    327.93443    1495.6349   -4392.4206 
22248000    142.49982   -4950.6572   -4675.8343   -4950.6572            0    1776.7788    20.132651    19.958406    20.844064    8375.4708    152.85154    3621.6123    1555.8726   -949.74502    1457.7939    219.14981    -4458.805 
22249000    135.21806   -4957.4619   -4696.6825   -4957.4619            0    3226.8489    19.993354    19.842276    21.019542     8338.739    2808.6644    4503.5675    2368.3147   -277.03309     331.7778    1118.2124   -4304.2591 
22250000     148.6482   -4949.8555    -4663.175   -4949.8555            0    1877.6023    20.081657    19.915155    20.880797    8350.8427    1734.6106    1687.8076    2210.3887   -621.70223   -864.92747   -673.68622   -4434.5046 
Loop time of 386.613 on 64 procs for 250000 steps with 972 atoms

Performance: 111.740 ns/day, 0.215 hours/ns, 646.641 timesteps/s
193.6% CPU use with 32 MPI tasks x 2 OpenMP threads

MPI task timing breakdown:
Section |  min time  |  avg time  |  max time  |%varavg| %total
---------------------------------------------------------------
Pair    | 27.216     | 34.737     | 44.134     |  69.2 |  8.99
Bond    | 0.97234    | 1.2229     | 1.5567     |  14.3 |  0.32
Kspace  | 168.29     | 178.06     | 185.79     |  33.1 | 46.06
Neigh   | 1.0166     | 1.0611     | 1.0882     |   2.3 |  0.27
Comm    | 73.29      | 76.011     | 79.194     |  19.9 | 19.66
Output  | 0.75375    | 0.75529    | 0.75736    |   0.1 |  0.20
Modify  | 75.639     | 78.052     | 81.506     |  16.1 | 20.19
Other   |            | 16.72      |            |       |  4.32

Nlocal:        30.3750 ave          34 max          27 min
Histogram: 3 6 3 0 4 7 0 2 3 4
Nghost:        2600.84 ave        2639 max        2565 min
Histogram: 1 4 5 3 4 3 2 5 4 1
Neighs:        9440.56 ave       11459 max        7604 min
Histogram: 1 3 5 4 5 3 5 1 2 3

Total # of neighbors = 302098
Ave neighs/atom = 310.80041
Ave special neighs/atom = 2.0000000
Neighbor list builds = 3216
Dangerous builds = 0

unfix		3
unfix		2
unfix		1

write_data	data.final.${pid}
write_data	data.final.1
System init for write_data ...
PPPM initialization ...
  extracting TIP4P info from pair style
  using 12-bit tables for long-range coulomb (../kspace.cpp:340)
  G vector (1/distance) = 0.37229448
  grid = 24 24 25
  stencil order = 5
  estimated absolute RMS force accuracy = 0.0034213495
  estimated relative force accuracy = 1.0303292e-05
  using double precision FFTW3
  3d grid and FFT values/proc = 3458 576
Last active /omp style is kspace_style pppm/tip4p/omp
WARNING: Not all mixed pair coeffs generated from mixing. Use write_data with 'pair ij' option to store all pair coeffs. (../write_data.cpp:312)

write_restart   restart.lmp.${pid}
write_restart   restart.lmp.1
System init for write_restart ...
PPPM initialization ...
  extracting TIP4P info from pair style
  using 12-bit tables for long-range coulomb (../kspace.cpp:340)
  G vector (1/distance) = 0.37229448
  grid = 24 24 25
  stencil order = 5
  estimated absolute RMS force accuracy = 0.0034213495
  estimated relative force accuracy = 1.0303292e-05
  using double precision FFTW3
  3d grid and FFT values/proc = 3458 576
Last active /omp style is kspace_style pppm/tip4p/omp
Total wall time: 0:06:26
