LAMMPS (30 Jul 2021)
Processor partition = 0
  using 2 OpenMP thread(s) per MPI task
using multi-threaded neighbor list subroutines
variable        pid world 0 1
variable        phase world IceIh IceIII

shell cd ${phase}
shell cd IceIh
include Restart.lmp
echo both
log log.lammps
#include		in.partitions
include		in.temp
variable        temperature equal 142.72
variable	tempDamp equal 100.0
include		in.pressure
variable        pressure equal 1903.0
variable        pressureDamp equal 1000.0 # This is 1 ps
include		in.seed
variable        seed equal 745823

units		real
atom_style	full
#include		in.box
read_restart	restart.lmp.${pid}
read_restart	restart.lmp.0
Reading restart file ...
  restart file = 30 Jul 2021, LAMMPS = 30 Jul 2021
  restoring atom style full from restart
  orthogonal box = (0.13896455 -0.00072033684 0.20975676) to (18.068608 23.629898 22.003439)
  2 by 4 by 4 MPI processor grid
  restoring pair style lj/cut/tip4p/long/omp from restart
  restoring bond style harmonic/omp from restart
  restoring angle style harmonic/omp from restart
  864 atoms
  576 bonds
  288 angles
Finding 1-2 1-3 1-4 neighbors ...
  special bond factors lj:    0        0        0       
  special bond factors coul:  0        0        0       
     2 = max # of 1-2 neighbors
     1 = max # of 1-3 neighbors
     1 = max # of 1-4 neighbors
     2 = max # of special neighbors
  special bonds CPU = 0.002 seconds
  read_restart CPU = 0.008 seconds
include 	in.setup
variable	out_freq equal 1000
variable	out_freq2 equal 10000
variable	out_freq3 equal 1000

timestep	2.0

neigh_modify    delay 7 every 1

include		in.tip4p
# This is TIP4P/Ice

# create groups ###
group ox type 2
288 atoms in group ox
group hy type 1
576 atoms in group hy

# set charges - beside manually ###
set group ox charge -1.1794
Setting atom values ...
  288 settings made for charge
set group hy charge 0.5897
Setting atom values ...
  576 settings made for charge

# ### TIP3P Potential Parameters ###
pair_style lj/cut/tip4p/long/omp 2 1 1 1 0.1577 8.5
pair_coeff 1 1*2 0.000 0.000
pair_coeff 2 2 0.21084 3.1668
bond_style  harmonic
bond_coeff  1 450 0.9572
angle_style harmonic
angle_coeff 1 55 104.52
kspace_style pppm/tip4p/omp 1.0e-5
pair_modify tail yes

thermo          ${out_freq}
thermo          1000
thermo_style    custom step temp pe etotal epair emol press lx ly lz vol pxx pyy pzz pxy pxz pyz enthalpy

restart 	${out_freq3} restart.lmp.${pid} restart2.lmp.${pid}
restart 	1000 restart.lmp.${pid} restart2.lmp.${pid}
restart 	1000 restart.lmp.0 restart2.lmp.${pid}
restart 	1000 restart.lmp.0 restart2.lmp.0


include         in.dump
dump            myDump all atom ${out_freq2} dump.water.${pid}
dump            myDump all atom 10000 dump.water.${pid}
dump            myDump all atom 10000 dump.water.0
dump            myDump2 all dcd ${out_freq2} dump.dcd
dump            myDump2 all dcd 10000 dump.dcd
dump_modify     myDump append yes
dump_modify     myDump2 append yes


variable natoms 	equal  "count(all)"                        # NUMBER ATOMS
variable H      	equal  "enthalpy/v_natoms"                 # ENTHALPY-per-atom
variable Vol      	equal  "vol/v_natoms"                 # volume-per-atom
fix AVG all 		ave/time ${out_freq} 1 ${out_freq} v_Vol v_H file vol_enthalpy.dat
fix AVG all 		ave/time 1000 1 ${out_freq} v_Vol v_H file vol_enthalpy.dat
fix AVG all 		ave/time 1000 1 1000 v_Vol v_H file vol_enthalpy.dat


timer           timeout 23:50:00 every 1000
New timer settings: style=normal  mode=nosync  timeout=23:50:00

fix 		1 all shake 1e-6 200 0 b 1 a 1
Finding SHAKE clusters ...
       0 = # of size 2 clusters
       0 = # of size 3 clusters
       0 = # of size 4 clusters
     288 = # of frozen angles
  find clusters CPU = 0.000 seconds
fix             2 all nph aniso ${pressure} ${pressure} ${pressureDamp}
fix             2 all nph aniso 1903 ${pressure} ${pressureDamp}
fix             2 all nph aniso 1903 1903 ${pressureDamp}
fix             2 all nph aniso 1903 1903 1000
fix             3 all temp/csvr ${temperature} ${temperature} ${tempDamp} ${seed}
fix             3 all temp/csvr 142.72 ${temperature} ${tempDamp} ${seed}
fix             3 all temp/csvr 142.72 142.72 ${tempDamp} ${seed}
fix             3 all temp/csvr 142.72 142.72 100 ${seed}
fix             3 all temp/csvr 142.72 142.72 100 745823


run             250000
PPPM initialization ...
  extracting TIP4P info from pair style
  using 12-bit tables for long-range coulomb (../kspace.cpp:340)
  G vector (1/distance) = 0.37185045
  grid = 24 27 25
  stencil order = 5
  estimated absolute RMS force accuracy = 0.0031405196
  estimated relative force accuracy = 9.4575814e-06
  using double precision FFTW3
  3d grid and FFT values/proc = 4410 672
Last active /omp style is kspace_style pppm/tip4p/omp
Neighbor list info ...
  update every 1 steps, delay 7 steps, check yes
  max neighbors/atom: 2000, page size: 100000
  master list distance cutoff = 10.8154
  ghost atom cutoff = 10.8154
  binsize = 5.4077, bins = 4 5 5
  1 neighbor lists, perpetual/occasional/extra = 1 0 0
  (1) pair lj/cut/tip4p/long/omp, perpetual
      attributes: half, newton on, omp
      pair build: half/bin/newton/omp
      stencil: half/bin/3d
      bin: standard
Setting up Verlet run ...
  Unit style    : real
  Current step  : 22000000
  Time step     : 2
  Walltime left : 23:49:59.92
Per MPI rank memory allocation (min/avg/max) = 10.20 | 10.22 | 10.23 Mbytes
Step Temp PotEng TotEng E_pair E_mol Press Lx Ly Lz Volume Pxx Pyy Pzz Pxy Pxz Pyz Enthalpy 
22000000    157.45717   -4476.5885   -4206.7123   -4476.5885            0    1499.0576    17.929643    23.630618    21.793682    9233.7339    1567.0208    751.46459    2178.6874   -328.68813    357.94935    -765.7964   -4004.8424 
22001000    141.78664   -4475.6088   -4232.5914   -4475.6088            0    1778.0784    18.201514    23.146098    21.887484    9221.0666    996.41663    2266.4374    2071.3813   -684.22264    132.23195   -318.72832   -3993.4757 
22002000     140.1586   -4473.9434   -4233.7164   -4473.9434            0     1663.445    17.849857    23.430984    22.088188    9238.1573    1515.4777    2559.4545    915.40283   -422.69566   -271.93797    205.18921    -4009.602 
22003000    145.36757   -4488.9796   -4239.8245   -4488.9796            0    946.97315    18.005677    23.268213     22.10861    9262.6218    1319.8939     1748.813   -227.78736   -142.66056    344.94697    62.448702   -4111.9019 
22004000    130.72494   -4480.8587   -4256.8007   -4480.8587            0    699.22612    18.009867     23.38281    22.021466    9273.7084    659.69826    198.58638    1239.3937    586.85431   -27.747908   -488.35068   -4162.2321 
22005000    144.63244   -4476.5141    -4228.619   -4476.5141            0    1550.7861    17.991145    23.482651    21.917964    9259.8962    1291.3049    1850.0655    1510.9878    -472.0232   -78.877716   -196.73776   -4019.1914 
22006000    143.47446   -4469.0664   -4223.1561   -4469.0664            0    2654.1605    17.983026    23.295991    21.999368    9216.2487    2350.1083    2684.5993    2927.7738    355.15479   -647.01453    740.86737   -3866.4116 
22007000    144.65248   -4482.2514    -4234.322   -4482.2514            0    1599.3715    17.936926    23.600702     21.83888     9244.923    2731.0321    170.15342     1896.929   -20.591651    -295.6821   -473.94615   -4018.6824 
22008000     143.6447   -4468.8376   -4222.6355   -4468.8376            0    2791.1748    18.032774    23.321251    21.835739    9182.9515    1386.9734    3319.8783    3666.6726    447.97752    530.82236     196.5733   -3848.8304 
22009000    147.01109   -4469.6231   -4217.6511   -4469.6231            0    2186.6698    17.896986    23.239076    22.196021    9231.5339    2737.3258    2552.5141    1270.1696    158.13171    25.325065    139.06353   -3923.2544 
22010000    149.31815   -4485.9748   -4230.0486   -4485.9748            0    2511.9359    17.871306    23.356833    22.059239    9207.9039    2119.3801    3193.8705    2222.5572   -256.28928    232.00615    275.63642   -3892.7261 
22011000    142.24738   -4479.1521   -4235.3449   -4479.1521            0    1232.1402    18.042896     23.32249    22.040298    9274.6733    1240.1082    2205.7334    250.57921    133.05229   -632.59919    242.09853   -4068.6837 
22012000    153.03212   -4473.3415   -4211.0497   -4473.3415            0    1808.6748    17.848458    23.594387    21.909758    9226.7123      2659.94    1687.1343    1078.9501    816.62408    3.6355129   -61.753628   -3967.6705 
22013000    149.59217   -4476.0035   -4219.6077   -4476.0035            0    2001.5611    18.054913    23.319576    21.943918    9239.1119    1725.5174    995.59768    3283.5683   -172.21916    143.44138    431.45162   -3949.9114 
22014000    138.70294   -4480.0797   -4242.3476   -4480.0797            0     2934.875    17.823473    23.478466    21.973284    9195.1117    4431.9493    2019.6769    2352.9988    1034.0049   -227.46392   -14.161211   -3848.7771 
22015000    147.48114   -4484.8392   -4232.0615   -4484.8392            0     1225.132    18.063766     23.16037     22.10586    9248.2848    40.851759    1947.5928    1686.9515    641.00915    299.15074    776.16889   -4066.8197 
22016000    147.65439   -4489.3409   -4236.2663   -4489.3409            0     1774.028    17.876477    23.492163    21.899721    9196.9437    1508.9074    1129.2934    2683.8831   -897.70581    102.07932    199.39498   -3998.3195 
22017000    143.43986   -4476.2443   -4230.3933   -4476.2443            0    2736.8196    17.987322    23.298452    21.889073    9173.2018    2749.7018    3093.6802    2367.0768    -498.8989    67.630365    684.75853   -3864.2568 
22018000    138.27061    -4487.914   -4250.9229    -4487.914            0     2830.097    17.929861    23.377945    21.876975    9170.0252    1750.0967    3337.5172    3402.6771   -175.30252   -447.27851    518.16142   -3872.4387 
22019000     143.2628   -4481.7938   -4236.2463   -4481.7938            0    1031.4963    18.106127     23.46283    21.821495     9270.229    1162.2856    594.03136    1338.1721   -36.755398    27.035198    683.87049   -4096.7913 
22020000    137.72842   -4483.3588    -4247.297   -4483.3588            0     1281.432    17.968409    23.290318    22.079388    9240.0023    1906.3861    2347.9422   -410.03218   -523.46445    377.62907   -68.200067   -4074.6164 
22021000    143.57537   -4490.7138   -4244.6305   -4490.7138            0    2042.3903    17.923443    23.321672    22.061858    9221.9598    2359.2213    2758.3769    1009.5726   -53.241531    133.12697    524.93521   -3969.9437 
22022000    140.07559   -4464.7027   -4224.6179   -4464.7027            0    1887.7298    18.041018    23.380006    21.886939    9231.8914    2082.8402    2237.4132    1342.9361    -431.1303   -272.49064   -193.99624   -3970.4584 
22023000    137.63158   -4482.8687   -4246.9729   -4482.8687            0    1701.6711    18.073357    23.435795    21.760392     9216.908    1529.3774    818.57054    2757.0655   -83.773721    254.25802   -246.45524   -4018.2357 
22024000    139.01196   -4442.7379   -4204.4761   -4442.7379            0    2827.6963    17.954845     23.25127    22.049317    9204.9938    2725.3005    2628.0486    3129.7396   -597.28378    164.85231    486.40825   -3824.8709 
22025000    136.85432   -4465.2266    -4230.663   -4465.2266            0     1548.602    17.925306    23.407997    22.072034    9261.3265    1436.7441    934.96632    2274.0956    763.65228    176.21028   -96.576189   -4021.4981 
22026000    149.47193    -4472.486   -4216.2963    -4472.486            0    1950.8126     18.09352    23.292598    21.857354    9211.6742    2165.6102     2881.567    805.26052   -88.955799     253.2486   -104.79572   -3954.2186 
22027000    151.73575   -4485.1691   -4225.0993   -4485.1691            0    905.20962    18.004446    23.652432    21.831703    9297.0075    1246.8722   -49.836394    1518.5931    60.621213    383.92698   -22.799863   -4102.3643 
22028000    136.30839   -4478.1152   -4244.4872   -4478.1152            0    2779.5959    17.975257    23.196342    22.065078    9200.2594    3009.3448    2676.5571    2652.8858   -296.30548   -940.99139    199.24684   -3871.5312 
22029000    140.11131   -4494.9019   -4254.7559   -4494.9019            0    1552.4509    17.756325     23.45375    22.116695     9210.551    2324.8209    1721.1525    611.37935   -495.21667    924.34066   -547.02176   -4046.2207 
22030000    151.97473   -4481.5094   -4221.0299   -4481.5094            0    2188.7441    18.098522    23.195087    21.910535    9197.9727    2264.8253    1688.8355    2612.5714    711.96191    72.290879    300.27241   -3927.4252 
22031000    150.60279   -4476.2774   -4218.1493   -4476.2774            0    1811.1923    17.891942     23.45804     21.96378    9218.4158    1923.0846    2363.1859    1147.3063    156.11732    679.15974   -12.732062   -3974.6506 
22032000     143.0275   -4471.8396   -4226.6954   -4471.8396            0    1961.3462     17.95668    23.245194    22.080905    9216.7131     2632.238    2579.3287    672.47184    836.37338   -262.72989    -961.6808   -3963.0585 
22033000     146.7148   -4485.1795   -4233.7153   -4485.1795            0    959.53361    17.879382    23.593872     21.96311    9265.0031    1134.5351    678.33006    1065.7357   -493.94744    104.06419    59.286798   -4104.0626 
22034000    131.89515   -4476.2558    -4250.192   -4476.2558            0    2015.6609    18.031853    23.391828    21.895053    9235.2899    1526.7454    1665.1558    2855.0817   -1039.8414   -230.28741    146.35748   -3978.7082 
22035000    137.88497    -4492.894   -4256.5639    -4492.894            0     1609.324    17.956529    23.311978    22.050231    9230.2749    972.68321    1718.5189    2136.7698    613.29403   -390.16734    493.04371   -4039.9262 
22036000    132.95365    -4474.132   -4246.2539    -4474.132            0    1223.9274    17.932492    23.529652    21.930151    9253.3242    2694.8819    718.48453    258.41581    20.587402   -361.21304    333.94141   -4081.0846 
22037000    142.12512   -4474.9079   -4231.3103   -4474.9079            0    1490.2142     18.22682    23.252069    21.778608    9230.0197   -118.24739    1844.4046    2744.4854    250.46824    -775.0997      100.214    -4030.712 
22038000    153.37917   -4495.4869   -4232.6003   -4495.4869            0    2305.9898    17.865358    23.408895    21.983293    9193.5951    2157.3362    1953.7361    2806.8969   -845.03381    531.99119    131.31223   -3923.4151 
22039000    140.03584   -4470.6253   -4230.6087   -4470.6253            0    1502.6457    18.062025    22.955672       22.242    9222.1098    2387.7154     2097.683     22.53867    488.07578    309.93511   -93.581817   -4028.5103 
22040000    140.71452   -4483.9739    -4242.794   -4483.9739            0    1069.3095    17.972123    23.519586    21.941834    9274.7449    181.34139    1928.1398    1098.4474    195.03259    104.87421    376.46071   -4098.1563 
22041000    142.71978   -4482.6186   -4238.0018   -4482.6186            0    1907.3937    18.072441    23.296239    21.926927    9231.6724    3101.9692    1052.4038    1567.8083   -348.72703   -405.50513   -223.67626   -3981.2008 
22042000    141.63071   -4484.1871   -4241.4369   -4484.1871            0      753.121    17.952781    23.499454    21.991774    9277.9018    1200.5184    790.30762    268.53693    783.74393    331.28776    614.28181   -4139.5331 
22043000    146.97698   -4474.5902   -4222.6767   -4474.5902            0    2990.2371    17.973737    23.204478     21.92447    9144.0647    3642.7775    3533.5911    1794.3427    74.703957     13.67819    493.21971   -3823.9082 
22044000    144.78837   -4476.5633    -4228.401   -4476.5633            0    2072.3408    17.873925    23.462933    21.995551    9224.3781    2792.7218    1881.3071    1542.9934   -625.37243    498.53047     14.40447    -3949.613 
22045000    135.30913   -4494.6091   -4262.6939   -4494.6091            0    2841.5287    17.989407    23.154271    22.021421    9172.6177    2712.4153    3609.5283    2202.6425   -246.61217    272.58978    218.16007   -3882.5734 
22046000    141.85703   -4468.2675   -4225.1294   -4468.2675            0    3060.6345    17.983017    23.258139    21.949338    9180.3438    1938.2264     3019.064    4224.6132   -385.46052   -417.37477    265.61566   -3815.3536 
22047000    133.48668   -4473.3953   -4244.6037   -4473.3953            0    1807.4893    17.973348    23.551188    21.798065    9226.9836    632.38832     1967.788    2822.2916    505.92719    127.20096    462.07947   -4001.3769 
22048000    144.62501   -4475.3078   -4227.4255   -4475.3078            0    1832.8902    18.033466    23.198558    22.017924    9211.2074    1683.2096    1973.2075    1842.2534    -294.8445   -196.19912   -109.57876   -3981.2023 
22049000    146.24268   -4477.7141   -4227.0592   -4477.7141            0    2777.3238    17.747925    23.470748    22.082701    9198.7056    3244.2744    2218.9311    2868.7658    1147.8065   -146.33695   -311.06274    -3854.471 
22050000    139.08991   -4479.9957   -4241.6004   -4479.9957            0    1641.6082    17.978604    23.206122    22.089712    9216.1303    1775.9851    2618.5946     530.2449   -154.63436     29.95739    512.38396   -4020.9554 
22051000     155.4652   -4486.6782   -4220.2162   -4486.6782            0    2424.3542    17.970497    23.475078    21.796212    9194.9242    1849.0663    1361.8958    4062.1004    327.37535   -403.74759   -165.99484   -3895.1139 
22052000    146.16115   -4487.3564   -4236.8412   -4487.3564            0    2402.7368    18.026175    23.343883    21.910598    9219.9998    2913.5464    2870.7219    1423.9422   -477.36416   -610.05418   -79.877396    -3913.759 
22053000    137.08145    -4479.136   -4244.1831    -4479.136            0    1003.7085    17.902583    23.547941    22.020653    9283.2236    561.61536    959.35573    1490.1545   -359.39533    111.11733     446.7887   -4108.2947 
22054000    154.23503   -4485.4904   -4221.1369   -4485.4904            0    2588.5357    17.968537    23.127784    22.083095    9177.1255    2673.3294    3139.0871    1953.1905   -270.05338   -308.29169   -498.07611   -3874.6899 
22055000    142.19874   -4478.3567   -4234.6329   -4478.3567            0     2513.669    17.994815    23.376348    21.860059    9195.5004    2871.9965    1854.4602    2814.5502   -738.48484   -127.97777    204.27589   -3897.5324 
22056000    146.55969   -4468.3349   -4217.1366   -4468.3349            0    1370.2021    17.801765    23.522102    22.067756    9240.5403    1651.5386    841.52653    1617.5411   -336.39666   -579.52773    153.44785    -4032.483 
22057000      143.374    -4478.307   -4232.5689    -4478.307            0    2455.9413    17.983343    23.133333    22.120521    9202.4616    1666.2426    2169.7801    3531.8011    120.81669   -145.50224    -484.3966   -3902.9608 
22058000     139.4449   -4469.0187   -4230.0149   -4469.0187            0    3224.3035    17.812349    23.432113    21.879015    9131.8844    5337.5975    2086.1608    2249.1521   -612.17983   -533.96797   -200.03899   -3800.6049 
22059000    142.08326   -4473.9404   -4230.4146   -4473.9404            0    2446.5807    18.034601    23.338236    21.845855    9194.8279    2366.1548    2081.1252     2892.462   -242.50675   -280.01243    321.78173   -3902.3351 
22060000    137.37999     -4490.95   -4255.4854     -4490.95            0    1390.4952    17.892254    23.236515    22.173434    9218.6855    962.09391    2244.6194    964.77239     71.32307   -380.46272   -332.98077   -4068.5401 
22061000    141.25677   -4475.0042    -4232.895   -4475.0042            0     1917.209    17.918357    23.414081    21.941468    9205.3642    2682.1354    1721.0772    1348.4145   -631.21972   -802.82153    91.897724   -3975.5081 
22062000    143.62309   -4474.3608   -4228.1957   -4474.3608            0    1452.6854    18.125038    23.467495    21.777455    9263.0237    1567.1053    1181.6096    1609.3412   -83.324982   -92.511871    40.864725     -4031.95 
22063000     146.4575   -4463.7931     -4212.77   -4463.7931            0    2774.5596    17.980331    23.465815    21.837168    9213.6058    2106.1908    1604.5193    4612.9688   -425.66473   -477.32833     826.4059   -3839.9496 
22064000    143.50954   -4482.8132   -4236.8427   -4482.8132            0    2062.0705    17.998057    23.216881    22.045511    9211.9096    1635.1971    2291.3638    2259.6506    -120.8695    7.7993925   -340.17559   -3959.8113 
22065000    132.74974   -4477.0424   -4249.5139   -4477.0424            0    2393.0181    17.837173    23.484061    21.954597    9196.5446    3445.2231    1966.3805    1767.4506   -239.45426   -257.63825   -113.06425   -3928.5571 
22066000    145.95127   -4467.7771   -4217.6216   -4467.7771            0    1478.1813    18.040668    23.309458     21.92883     9221.472    1343.3113    2350.8694    740.36316    268.80065   -653.67256    124.56973   -4018.8274 
22067000    144.77877   -4504.7313   -4256.5855   -4504.7313            0    2761.4161    17.915789    23.334187    21.939622    9171.8669    2851.5386    2819.8632    2612.8465   -4.7698478    -253.2704   -294.00865   -3887.2122 
22068000    146.44596   -4487.5069   -4236.5035   -4487.5069            0    1879.3189    17.863221    23.409574    22.083765    9234.7769    2614.3912    1138.3594    1885.2061   -121.48798   -44.721703    368.43728   -3983.3973 
22069000    142.08378   -4502.4577    -4258.931   -4502.4577            0     1607.752     18.05583    23.270507     21.92559    9212.4381     1795.556    2180.5352    847.16489    -580.8852    100.13189   -216.32589   -4042.9231 
22070000    140.09919   -4474.2685   -4234.1433   -4474.2685            0    1583.0081    17.963834    23.531404    21.797935    9214.2975    2415.9981    733.85592    1599.1704    74.582605    422.54281    231.43963   -4021.4169 
22071000    142.06154   -4479.8802   -4236.3915   -4479.8802            0    2653.5673    18.017572    23.099187    22.025809    9166.9492    2350.0759    3516.0289    2094.5969    296.84981    11.532753   -277.94016   -3881.6347 
22072000    151.28584   -4461.7273   -4202.4285   -4461.7273            0    2108.0418    17.817634    23.524621    21.998199    9220.6133    2754.8746    2367.8862    1201.3644   -1479.2744    542.84829    132.03306   -3918.9534 
22073000    139.47458   -4492.0907   -4253.0361   -4492.0907            0    1307.1408    18.317992    23.046017    21.899123    9244.8621    607.30666    2127.6288    1186.4868    46.829723   -405.58698    269.45199   -4076.7984 
22074000     145.2934   -4489.8431   -4240.8152   -4489.8431            0    1681.3591    17.844838    23.577984    21.960339    9239.7097    1798.6522    411.66879    2833.7563    532.70752   -277.17237    444.98682   -4014.2492 
22075000    137.85316    -4474.239   -4237.9634    -4474.239            0    1499.5281    18.036337     23.19795     22.07249    9235.2633    1516.8768    1205.8198    1775.8877    -176.4048   -790.00765    161.68297   -4035.9967 
22076000    140.13075   -4481.4239   -4241.2446   -4481.4239            0    1491.7881      18.0242    23.367496    21.935547    9238.8227     1726.635    2153.5977     595.1317   -72.906349   -66.354234   -559.25572   -4040.2429 
22077000    144.09403   -4494.8051   -4247.8328   -4494.8051            0    1586.1516    17.902457    23.656854    21.766246    9218.3494     1385.713    482.69651    2890.0453    214.15673   -155.50946   -314.59367   -4034.5903 
22078000    154.62099   -4477.1756   -4212.1605   -4477.1756            0    1851.7372    18.162682    23.155588    22.000916    9252.8721    1075.1739    3462.0862    1017.9517    210.56678     125.8569    221.13061   -3962.2803 
22079000    141.59557   -4482.5038   -4239.8139   -4482.5038            0    2017.6874    17.897339    23.515714    21.913033    9222.5099    1529.5301    2357.3255    2166.2068   -438.26585    603.38073    91.933492   -3968.4332 
22080000    149.51706   -4473.6109   -4217.3438   -4473.6109            0    985.20524    18.166951    23.203491    21.984648    9267.3359    1483.7279    1579.3462   -107.45843    -274.7845    -612.8881   -69.599159   -4084.1888 
22081000    139.94858    -4476.247     -4236.38    -4476.247            0    1569.5306     17.93652    23.403752    22.061305    9260.9358    1451.3849    1403.9489    1853.2581    122.62494    180.70061    815.21086   -4024.3972 
22082000    137.86149   -4485.4345   -4249.1446   -4485.4345            0    2136.5426    17.862611    23.287139    22.178932    9225.7507    3651.4215    1988.7598    769.44661   -97.846477    60.501745    489.55984   -3961.6768 
22083000    137.05827   -4485.3645   -4250.4513   -4485.3645            0    1836.5533    17.981819    23.415063    21.880578    9212.7171    2359.0885    1823.1216    1327.4499   -442.66169   -21.626526   -51.957707   -4003.6956 
22084000    144.81767   -4460.1725     -4211.96   -4460.1725            0    1577.2683    18.060461    23.430862    21.826511     9236.372     1085.398    1281.9608    2364.4463   -472.28336   -575.94736    253.97148   -3999.4972 
22085000    141.77347   -4480.9125   -4237.9176   -4480.9125            0    1148.9487    18.114302    23.377912    21.841779    9249.4379    23.305145    1049.4748     2374.066    -77.42386     335.3818   -32.186189   -4082.9318 
22086000    139.71006   -4472.4157   -4232.9574   -4472.4157            0    2791.3878    17.865245    23.402564    22.007337    9201.1034    3325.3212    2502.6654    2546.1767   -488.91689   -174.44324    727.51225   -3858.3849 
22087000    143.72685   -4491.4084   -4245.0655   -4491.4084            0    2253.6957    18.080068    23.183436    21.938153    9195.5548     1975.925    2218.4779    2566.6842    584.28798   -850.52037    24.092136   -3942.8275 
22088000    151.15171   -4478.6442   -4219.5754   -4478.6442            0    2401.0155    17.834886    23.652787    21.808491    9199.7976     2739.356    2044.8875     2418.803    212.60287    260.64977    224.52522   -3897.4321 
22089000    134.67593   -4483.1034   -4252.2735   -4483.1034            0    1161.3438    18.037234    23.234429      22.1005    9261.9847    1817.6237    1206.0912    460.31651   -476.43261    106.20995    623.11959   -4095.4032 
22090000    144.31909   -4482.0459   -4234.6879   -4482.0459            0    2061.1999    17.839365    23.505954    22.049981    9246.2468    2651.2122    2051.2119    1481.1756    533.68731    462.42392     56.16552   -3956.7412 
22091000    139.33623   -4490.0198   -4251.2022   -4490.0198            0    1829.3146    17.981732    23.410752    21.862968    9203.5632    1657.7272    1021.3841    2808.8326    136.95507   -10.040485     491.7172   -4005.6633 
22092000    146.22229   -4474.1112   -4223.4912   -4474.1112            0    2440.4574    18.026495    23.254952    21.998038    9221.6939    2564.2075    2928.8362    1828.3286   -508.51977    236.78941    -123.5424   -3895.2767 
22093000    139.18904   -4484.4169   -4245.8517   -4484.4169            0    2545.2703    17.822201     23.28172    22.098583    9169.3982    3179.1668     2237.349     2219.295    -394.7678    71.671674    139.51808   -3905.4822 
22094000    147.47753   -4493.3002   -4240.5287   -4493.3002            0    1952.9191    18.075001    23.200518    21.997963    9224.8326    1093.8099    2248.8221    2516.1254   -64.855663    417.16316   -482.46017   -3977.7933 
22095000    139.62754   -4483.0216   -4243.7048   -4483.0216            0    3544.5619    17.802109     23.62605    21.711601    9131.7586    3647.5974    3118.6908    3867.3973   -558.15715   -9.1201571    746.06982   -3771.6495 
22096000    143.25939   -4473.6321   -4228.0904   -4473.6321            0    1376.7028    18.097271    23.357654    21.895295    9255.3557    1675.3426    496.43769    1958.3282   -194.82073     220.1518    371.99761   -4042.2632 
22097000    144.74317   -4481.8864   -4233.8016   -4481.8864            0    1975.3277     17.76966    23.735493    21.815073     9200.979    1911.9208     1070.649    2943.4134   -363.84861   -368.42923    116.56266   -3968.7386 
22098000    138.96187   -4487.8092   -4249.6334   -4487.8092            0     1951.101    18.017019    23.197627    21.975155    9184.5618    1583.2137    2683.1213     1586.968   -220.20114    223.26525   -455.47223   -3988.2884 
22099000    151.25116   -4491.3495   -4232.1102   -4491.3495            0    2492.5201    17.983802    23.347882    21.919397    9203.5972     2491.229    2332.0428    2654.2886   -633.72596   -476.10058    182.36252   -3897.5517 
22100000    137.20094   -4482.4177     -4247.26   -4482.4177            0     1346.672    17.964457    23.317564    22.081628    9249.7152    2113.5415    1291.7032    634.77123   -581.53375    240.34581   -106.38547   -4065.5972 
22101000    138.37741   -4498.4505   -4261.2763   -4498.4505            0     1033.295    17.906451    23.378919    22.086064    9245.9656    952.78721    1650.6506    496.44722   -553.24479   -151.68427     59.45887   -4121.9438 
22102000    149.34057   -4479.5498   -4223.5852   -4479.5498            0    2420.2676    17.981194     23.35205    21.844368    9172.4009    1154.8478    2306.3181    3799.6369    221.00953    108.70856    491.84487   -3899.8258 
22103000    142.36605   -4472.4966   -4228.4861   -4472.4966            0    1601.2862    18.120036    23.242674    21.903273    9224.7408    2463.4864    1540.8987    799.47349    607.46199    -320.8088   -532.15712   -4013.0596 
22104000    139.24022   -4471.7988   -4233.1459   -4471.7988            0    2211.1874    17.820135    23.628107    21.797403    9177.9284    3291.5558    1621.1171    1720.8895    183.42334    1349.9818   -219.21539   -3937.1769 
22105000    148.55423   -4476.2474   -4221.6306   -4476.2474            0    2112.2881     18.07303    23.099213    21.952476    9164.5609    1221.6258     2542.511    2572.7274   -270.36753   -218.82181   -216.75435   -3939.3112 
22106000    139.81185   -4490.2741   -4250.6413   -4490.2741            0    1239.9404    17.901105    23.477951     21.95026    9225.2828    1142.2449     1713.777    863.79919    13.057625   -400.42916    322.49808   -4083.8182 
22107000    142.55591   -4494.3634   -4250.0275   -4494.3634            0    1282.5888    18.027855    23.266016    22.031384    9240.7637    1149.0807    1736.5322    962.15363   -692.78806   -415.91143    291.07516   -4077.1768 
22108000    143.96694   -4482.7018   -4235.9474   -4482.7018            0     2399.847    17.893222    23.433939     21.87397    9171.9449    2662.5548    2285.2901    2251.6963    191.99064   -28.689974    131.49825   -3914.9356 
22109000    142.67151   -4488.4117   -4243.8776   -4488.4117            0    1416.4666    17.886962    23.421019    21.992432    9213.3088    3029.4989    706.57352    513.32739    1054.4721   -352.04339    750.07744   -4053.5517 
22110000    141.08834   -4479.8535    -4238.033   -4479.8535            0    1866.1364    17.960027    23.204672    22.043171    9186.6357     851.1191    1616.8567    3130.4334    295.30541   -250.35256   -155.91867   -3988.0124 
22111000    140.35371   -4471.4051   -4230.8436   -4471.4051            0    1997.9074    17.883452    23.462402    21.908153    9192.4143     1052.501    2316.0108    2625.2105   -120.23876     264.8848    -262.4694   -3963.0003 
22112000    145.14443   -4479.1417   -4230.3691   -4479.1417            0    2443.7953     18.08888    23.065143    21.948389    9157.3641    2068.5446    4435.4175    827.42393    99.825208   -532.94228    336.23091   -3903.9984 
22113000    139.29963   -4480.4524   -4241.6976   -4480.4524            0    1541.6421    17.864463    23.544109    21.938323    9227.3213    2321.3504    715.93854    1587.6373     269.9598    307.52184    264.35134   -4034.2372 
22114000    146.14219   -4465.6683   -4215.1856   -4465.6683            0    1510.8834    17.983308    23.269185    22.070242    9235.4454     309.8789    2800.1206    1422.6508   -995.71679    316.94024   -84.616486   -4011.6855 
22115000     154.2154   -4486.8605   -4222.5406   -4486.8605            0    1322.1194    17.851108    23.448386    22.056747     9232.506    2522.8339    404.84052    1038.6838   -858.42083   -157.21546   -796.97868   -4044.5216 
22116000     143.6966   -4491.2491    -4244.958   -4491.2491            0    2250.9166    17.992505    23.182003    22.081445    9210.2214    2278.2672     2991.722    1482.7605   -165.20083    246.68511    14.756575   -3942.6112 
22117000    135.68263   -4490.6541   -4258.0987   -4490.6541            0    637.41441    17.948449    23.619562    21.875982    9273.9832    1011.2144   -998.34382    1899.3726   -347.08486   -639.63727    480.47713   -4171.8874 
22118000    146.42699   -4497.8928   -4246.9219   -4497.8928            0    1101.8485    18.046941    23.245088     22.01484    9235.2861    1106.2973    958.87559    1240.3725   -307.91659   -612.68342    157.97015    -4098.517 
22119000    150.24639   -4486.4869   -4228.9697   -4486.4869            0    1532.7554    17.975793    23.262552    22.054761    9222.4806    513.63614    1960.9929    2123.6371   -337.66888    221.54964   -370.38829   -4022.8135 
22120000    140.41207   -4484.1806   -4243.5191   -4484.1806            0    1655.9463    17.942993     23.46217    21.879049    9210.6761    1487.7866    2239.6762    1240.3761   -208.38749   -258.71967    89.260995   -4021.0787 
22121000    136.40521   -4475.4268   -4241.6329   -4475.4268            0    2069.6146    18.105031    23.288322    21.849324    9212.4566    1874.3585    2580.9399    1753.5453   -1171.7939    -1070.751   -118.67142   -3963.5715 
22122000     148.7134   -4474.7837   -4219.8941   -4474.7837            0    1922.6789    17.855017    23.503884    21.989916    9228.3374    1067.3684    1738.3978    2962.2704   -242.15643     144.7385    595.51132   -3961.1287 
22123000    129.72404    -4478.251   -4255.9084    -4478.251            0    504.06562    18.032518    23.310951     22.08135    9282.0091    713.91946   -281.96717    1080.2446   -179.47617    291.47898    490.38199   -4187.6738 
22124000    149.42151   -4482.5505   -4226.4472   -4482.5505            0    1900.2469    17.855862    23.486198    21.975976    9215.9837     1809.415    1943.1934    1948.1322    125.31204     519.5474   -49.451407   -3971.0432 
22125000    153.49712   -4477.7397   -4214.6509   -4477.7397            0    2897.2333    18.063758    23.101254    22.001298    9181.0419    1790.4311    4533.1322    2368.1366   -10.992079    177.31032   -20.746216   -3826.7227 
22126000     141.4332   -4477.8237    -4235.412   -4477.8237            0    2581.8112    17.881295    23.442121    21.982714    9214.6148    2694.8177    2472.2539    2578.3619   -617.88787   -252.23573    223.42245   -3888.4535 
22127000    143.80784     -4476.28   -4229.7982     -4476.28            0    1852.6004    18.113337    23.132186     22.01388    9223.8398    1272.0419    1211.4255    3074.3339    41.786252   -563.70816    13.185299    -3980.586 
22128000    146.28776   -4484.2252    -4233.493   -4484.2252            0    1324.3012    17.912521    23.481277    21.991157    9249.6754    2079.1412     472.4025      1421.36   -947.04013    290.98903    314.29227   -4054.8487 
22129000    150.53015   -4480.9194   -4222.9159   -4480.9194            0    2506.7979    17.938704    23.431844    21.864658     9190.523     3178.402    2605.8061    1736.1857   -782.61503    204.02517   -263.52728   -3886.9189 
22130000    142.41896     -4493.93   -4249.8287     -4493.93            0    2238.6262    18.115958    23.143698    21.927357    9193.4888    1806.9536    3219.8873    1689.0377   -114.03292   -219.06239    616.44513   -3949.6791 
22131000    140.58944   -4496.2863   -4255.3208   -4496.2863            0    1462.5352    17.975055    23.423424    21.982532    9255.4665    1062.9939    1481.6595    1842.9521    94.243073   -156.00577    139.65137   -4057.9056 
22132000    140.48779   -4460.0209   -4219.2296   -4460.0209            0    1763.3801    18.010412    23.426908    21.839065    9214.5188    2273.5965    1062.8888    1953.6549    115.98767   -103.48122   -342.99591    -3982.259 
22133000     143.8446   -4488.3953   -4241.8506   -4488.3953            0    1809.8598    17.909992    23.493209    21.884196    9208.0641    1555.6734     1117.853    2756.0529    531.75913   -30.474587   -114.57222   -3998.8042 
22134000     140.4201   -4492.5771   -4251.9019   -4492.5771            0    2770.1412    17.939818    23.224924    22.036085    9181.3546    2802.5476    2766.1626    2741.7133    360.24904   -59.390216    36.139432   -3880.9782 
22135000    134.68712   -4487.9401    -4257.091   -4487.9401            0    1745.1474      17.8317    23.550239    21.961538    9222.5459    2648.7397     1174.537    1412.1654   -496.90639   -620.93567   -162.66247   -4022.3663 
22136000    143.68127   -4478.6442   -4232.3794   -4478.6442            0    1654.1721    17.967405    23.327355    21.958253     9203.407    804.05719    2345.5025    1812.9565    950.26934   -117.09889    60.440305   -4010.3527 
22137000    133.56088   -4476.2958    -4247.377   -4476.2958            0    1017.9025    17.956354    23.307602    22.121835    9258.4202    817.14078    2051.5236    185.04306    154.65074    357.24788    116.70642   -4109.9352 
22138000    145.43415   -4485.6445   -4236.3753   -4485.6445            0    1887.6492    18.008969    23.329658    21.939634    9217.7856    2098.1024     1370.764    2194.0812    466.61222   -708.02058    -656.6206    -3982.615 
22139000    134.98994   -4495.7801   -4264.4119   -4495.7801            0    2651.3352    17.987873    23.274542    21.913318    9174.2189    3346.8207    2418.5189    2188.6661     77.50691   -574.59055    434.38441   -3909.6724 
22140000    143.13703   -4487.1901   -4241.8582   -4487.1901            0    2705.0174    17.861271    23.410378    22.005166    9201.2203    2621.2913     2258.061       3235.7   -1059.2866   -236.58921   -41.441312   -3878.8709 
22141000     139.5712   -4493.4942    -4254.274   -4493.4942            0    1721.5115    18.158405    23.160135     21.86878      9196.94    701.26831    2166.3901    2296.8761    223.31735   -476.56797    378.73326   -4023.3712 
22142000    143.49843   -4492.8699   -4246.9185   -4492.8699            0    1870.5998    17.880968    23.481082    21.961921    9221.0304    2613.3361    2061.7067    936.75673   -169.03502   -660.17576    240.77392   -3995.3616 
22143000    138.34763   -4483.8931     -4246.77   -4483.8931            0     1428.675    18.081255    23.142684    22.078862    9238.8726    1100.7503    1313.5292    1871.7455    1032.1462   -543.13332    210.24126   -4054.2711 
22144000     136.6966   -4474.0829   -4239.7896   -4474.0829            0    1418.3469     17.90967    23.437197    22.073031    9265.2092    573.97266    2045.1632    1635.9048   -559.63732   -172.73069    431.24475   -4048.1375 
22145000    144.27954   -4469.8723   -4222.5822   -4469.8723            0    2227.7687    18.098427    23.231151    21.891104    9204.0553    1630.2838    2293.1472     2759.875    639.90362    738.11491    208.01785    -3923.545 
22146000    140.05064   -4485.3297   -4245.2877   -4485.3297            0    2054.6273    17.814973    23.630767    21.923205    9229.2633    2545.1482    1200.4841    2418.2496   -656.93433   -30.853431   -253.80524   -3968.7363 
22147000    132.46104   -4481.9271   -4254.8934   -4481.9271            0    2103.7667    17.970817    23.314768    21.986893    9212.1883    2354.8255    2476.0842    1480.3905   -271.01185    558.55417    276.59099   -3972.2517 
22148000    137.90503    -4494.484   -4258.1195    -4494.484            0    1471.0593    17.991122    23.456233    21.902512    9242.9467    1176.6433     702.6477    2533.8868   -255.55465   -26.311252    234.76563   -4059.8223 
22149000    150.95705   -4475.1237   -4216.3885   -4475.1237            0    2534.4614    17.917612    23.358275    21.946052    9184.9602    2446.3652    2926.7862    2230.2329    565.41226   -344.79016   -10.512163   -3876.8892 
22150000    137.72329   -4478.6174   -4242.5644   -4478.6174            0    2152.8272    18.007711    23.295734    21.971686     9217.185    2236.3643    2730.3798    1491.7376   -583.14415   -75.335439   -349.71679   -3953.1745 
22151000    151.16359   -4483.0125   -4223.9233   -4483.0125            0    2012.2085    17.923243     23.41331     21.90294    9191.4033    1775.9008    3047.8661    1212.8586    675.24677   -411.39003    123.48006   -3954.1924 
22152000    139.90745   -4492.5186    -4252.722   -4492.5186            0    1784.0519    17.960996    23.224249    22.088287    9213.7015    2406.8042    2149.6536    795.69804   -742.89048    -209.2724   -49.421713   -4012.9946 
22153000    140.41771   -4473.4811     -4232.81   -4473.4811            0    904.42812    18.025142    23.387728    21.949346    9253.1223    374.73444    552.28331    1786.2666    786.96762    582.80171    392.24503   -4110.7598 
22154000     139.8394   -4488.5864   -4248.9065   -4488.5864            0    1555.4974    18.084616    23.379251    21.849837    9238.2156    1340.4961    1425.4883    1900.5079     673.0042   -549.64437    188.75526   -4039.3345 
22155000    139.04346   -4478.8712   -4240.5555   -4478.8712            0     2582.484    17.962198    23.383944    21.892551    9195.4631     3596.996    1473.0563    2677.3998   -540.24357    526.92481    403.55346   -3894.2279 
22156000    138.04997   -4501.2784   -4264.6655   -4501.2784            0    2031.8664    17.892616     23.32661    22.004239    9183.9991    1869.8883     1528.428    2697.2829   -188.56169    55.476977   -386.59669   -3992.5189 
22157000    150.91583   -4503.9266   -4245.2621   -4503.9266            0    1855.8454    17.763127    23.444463    22.041716     9179.206    2968.3933    2550.3907     48.75223   -914.35435    25.970916   -451.00722   -3996.8213 
22158000    142.93862   -4491.6957   -4246.7038   -4491.6957            0     1819.739    18.010537    23.235396     21.98395    9199.8865    1542.3795    1478.4755    2438.3619   -5.7906511    340.46736    283.00494   -4002.5477 
22159000    138.64225   -4478.5337   -4240.9056   -4478.5337            0    1832.3084    17.763925    23.541823    22.078005     9232.915    2293.4433    1916.1042    1287.3776   -343.89333    170.79276    26.202444   -3994.1805 
22160000    146.36428   -4472.3076   -4221.4443   -4472.3076            0    1183.9569    18.080748    23.228784    22.045555     9258.996     1043.361    2947.0866   -438.57684    289.78219   -528.35206    484.45951   -4061.5711 
22161000    134.25501    -4486.128   -4256.0195    -4486.128            0    1910.8801     17.92863    23.550252    21.807494    9207.6419    2235.6391    740.42391    2756.5773   -121.43789    43.631167   -299.15145   -3999.4188 
22162000    145.26557   -4488.3231   -4239.3429   -4488.3231            0      2423.65    18.183657    23.192075    21.757573    9175.5322    1413.2071    3114.8961    2742.8469    10.008518    198.36426    129.69607   -3915.0204 
22163000    145.92753   -4486.5819   -4236.4671   -4486.5819            0    2110.8767    17.955736    23.273633    22.017293    9200.9209    1514.8145    1482.9022    3334.9136   -451.28062   -417.15397   -60.902794    -3953.217 
22164000    139.89945   -4481.5371   -4241.7543   -4481.5371            0    1902.9502     17.84721     23.67858    21.752731    9192.6296    2864.6881    1125.7512    1718.4113    81.737289    196.23257   -362.87687   -3986.6351 
22165000    141.97412   -4481.4705   -4238.1317   -4481.4705            0     2332.728    18.074266    23.181965    21.912008    9181.0658     1841.181     2428.586    2728.4169    56.230995    145.23711    258.44803   -3925.7878 
22166000    153.41916   -4494.4785   -4231.5233   -4494.4785            0    1173.1985    17.889066    23.543302    21.978001    9256.4235    790.85224    1641.5917    1087.1515    240.58777   -371.33832   -478.59699   -4073.1469 
22167000    137.57343   -4483.0111    -4247.215   -4483.0111            0     3210.614      18.0961    23.102652    21.837064    9129.3754    3122.9376    4634.8512    1874.0532    361.27069    102.63123    262.29975   -3819.7456 
22168000    151.77295   -4475.3566   -4215.2229   -4475.3566            0    1750.2353    17.808968    23.608884      21.9379    9223.7873    2890.9633    444.97344    1914.7692   -150.65172    106.45697    118.21631   -3979.7822 
22169000    149.62429   -4480.3589    -4223.908   -4480.3589            0    1385.6637    18.034643    23.200349    22.051353     9226.507    1024.4164    2067.6289    1064.9459   -847.59231    459.87416   -127.18892   -4037.4543 
22170000    141.96963   -4482.3001    -4238.969   -4482.3001            0    1722.0263    17.975504    23.402313    21.927495    9224.2039    1635.1149    1900.8346    1630.1294   -597.53699   -995.37088    750.62176   -4007.3125 
22171000    142.24363   -4482.1613   -4238.3606   -4482.1613            0    1868.1365    17.922951    23.316911    22.058334    9218.3509    1273.5505    2150.9035    2179.9554    424.59537    410.13005    475.93466    -3987.208 
22172000    140.09222   -4478.6027   -4238.4894   -4478.6027            0    2268.9182    18.043913    23.205436    21.990864    9207.9455    1829.4482    2771.1672    2206.1391   -12.314619    197.01324   -459.03999      -3933.8 
22173000    140.60723     -4483.66    -4242.664     -4483.66            0    1930.9373     17.81868    23.516211    21.953113    9198.9657    2279.3379    1136.3287    2377.1454   -797.77296   -252.45279    529.19222   -3983.6143 
22174000    135.96863   -4480.2126    -4247.167   -4480.2126            0    1506.4082    18.046179    23.258957    21.867246    9178.4553    1224.6066    2165.7986    1128.8195   -324.08184    2.0772982    205.91536   -4045.5217 
22175000    139.51014   -4468.6183   -4229.5027   -4468.6183            0    1659.1701     17.95349    23.406589    21.906365    9205.7113    701.73157    1222.1795    3053.5993    403.36198   -145.35451    139.09619   -4006.7494 
22176000    140.22926   -4483.2964   -4242.9482   -4483.2964            0    3026.1457    17.941275    23.410149    21.808696    9159.8256    2776.2792    2924.6666    3377.4914   -499.49646   -286.01689   -292.32136   -3838.6955 
22177000    150.38229   -4477.1676   -4219.4175   -4477.1676            0    2813.8186    17.978658    23.313172    21.873118    9167.8888    3275.7665    2904.7869    2260.9024   -344.78209   -272.67608    245.78722   -3843.1979 
22178000    146.24363   -4479.8189   -4229.1623   -4479.8189            0    1853.8981    17.959267    23.292342    22.022349    9212.2439    1675.2518    2852.2357    1034.2069   -34.080296    486.99174    723.55774    -3980.089 
22179000    140.59712   -4475.2495   -4234.2709   -4475.2495            0    2287.8482    17.785219    23.502884    21.906817    9157.1358    2403.7895    2336.1526    2123.6025    389.19074    35.632435    290.19409   -3928.7346 
22180000    137.99023   -4474.5576   -4238.0471   -4474.5576            0    1847.8684    18.208732    23.112929    21.891893    9213.3593    1429.4131    1739.6759    2374.5163   -70.210119    242.65975    169.73885   -3989.7538 
22181000     149.1689   -4488.8364    -4233.166   -4488.8364            0    2004.4522     17.83078    23.475322    21.987448    9203.5786     1879.974    1267.8451    2865.5377   -362.21874    239.05615   -304.57528   -3964.1189 
22182000    143.57863   -4463.8089     -4217.72   -4463.8089            0     2035.635    17.951258    23.393375    21.922488    9206.1411     1554.799     1447.262     3104.844    -191.3694   -1052.8836   -687.44666   -3944.4113 
22183000    135.21008   -4478.5543   -4246.8088   -4478.5543            0    204.01716    18.001176    23.482765    21.975875    9289.5844    1092.0715   -402.35101   -77.669058   -31.214635    184.33532    450.89132   -4219.1688 
22184000    142.15212   -4494.0431   -4250.3993   -4494.0431            0    2021.7786    18.051282    23.168247    22.014479    9206.8196    1017.1665     3182.457    1865.7123    476.03507   -97.680702   -569.78768    -3978.931 
22185000     146.5411   -4473.8973   -4222.7309   -4473.8973            0    3015.8295    17.778153    23.405424    21.981736    9146.7148    3654.7928    3546.7931    1845.9027   -672.97799    479.72646    101.61083    -3820.433 
22186000    146.40041   -4478.6144   -4227.6891   -4478.6144            0    1406.2374    18.037572    23.253319    22.036389    9242.7978    1127.8045    1441.7153    1649.1925   -165.96357   -183.42756    91.254715   -4038.1329 
22187000      138.324   -4479.2112   -4242.1285   -4479.2112            0    2064.1069    17.845713    23.467617    21.933082    9185.4944    3287.5164    1542.0364     1362.768   -1002.3881    51.783626    107.08194   -3965.6187 
22188000    143.85138    -4466.397   -4219.8406    -4466.397            0    1405.6797    18.056265    23.336842    21.931259    9241.3105    2796.8186    1190.9964    229.22419    114.15435   -579.64859   -221.66764   -4030.3901 
22189000    144.76189   -4502.4461   -4254.3292   -4502.4461            0    2011.1419    17.984078    23.367614    21.915969    9210.0767    3044.1324    1895.8314    1093.4619   -151.57345   -252.11074   -372.79882   -3984.1936 
22190000    150.61032    -4473.826    -4215.685    -4473.826            0    1416.3106    17.933611    23.453961    21.958558     9236.082    1550.4317    1161.3002       1537.2    428.38336    111.27784    455.72188   -4024.9097 
22191000    145.56287    -4480.928   -4231.4382    -4480.928            0    2888.1087      18.0105    23.331095     21.82898    9172.6395    1897.5113    3074.4538    3692.3609   -234.22859   -59.895115    232.10719   -3845.0857 
22192000    146.26842   -4482.4722   -4231.7731   -4482.4722            0    1318.3396    17.956858    23.488831    21.964612     9264.357    782.71011     2065.188    1107.1209    69.774478   -204.62686     451.1994   -4053.6507 
22193000    144.85443   -4482.4833   -4234.2077   -4482.4833            0    2142.5821     17.90366    23.219658     22.21271    9234.1981    2330.0359    2335.7191    1761.9915   -215.80135   -9.5503943   -46.000206   -3945.6634 
22194000    145.69019    -4470.535    -4220.827    -4470.535            0    1488.6648    18.001449    23.398874    21.935106    9239.3658    1009.9988    1769.0681    1686.9276    303.26933   -900.44284    -682.1539   -4020.2343 
22195000    140.53286   -4481.9293   -4241.0608   -4481.9293            0    650.70943    18.038276    23.515983    21.899365    9289.4433    106.54438     212.8288    1632.7551   -413.60672    159.53051     137.3189   -4152.9047 
22196000     141.3225   -4478.3727   -4236.1508   -4478.3727            0     2251.096    17.869073    23.321314     22.02441    9178.2381    1878.0049    2890.0904    1985.1928   -113.87712    656.87509    611.92273   -3934.8299 
22197000     141.7601   -4480.9746   -4238.0026   -4480.9746            0    778.27841    18.026453    23.225908    22.131324    9265.9595    515.67131    659.20229    1159.9616    154.83022    347.57086    629.21042   -4132.8303 
22198000    145.38319   -4478.0613   -4228.8795   -4478.0613            0    3326.1519    17.952856    23.318049    21.822991    9135.6624    3320.0255    2806.3507    3852.0795   -306.28696   -365.76384    749.99929   -3785.7221 
22199000    145.98554   -4477.2795   -4227.0653   -4477.2795            0    1852.6969     17.97417    23.262057      22.0021    9199.4339    2480.7553    2925.3361     151.9993   -411.19011    97.435212   -137.98148   -3978.4995 
22200000    141.37923   -4481.2431   -4238.9239   -4481.2431            0    2188.4076    17.976394    23.172925     22.14585    9225.1999    2649.1862    3103.6726    812.36386    845.30498   -234.94414    326.59015   -3944.4954 
22201000    139.53895   -4476.3334   -4237.1684   -4476.3334            0    1378.4753      17.9934    23.458498    21.881946    9236.3286    1567.5354     898.0773    1669.8132    41.320979     19.88849     271.9128   -4051.4845 
22202000     141.8987   -4473.1371   -4229.9276   -4473.1371            0    1842.3845    18.107086    23.415116    21.796809    9241.4006    1343.3244    2173.8673    2009.9618   -924.63844    43.724646    814.00068   -3981.6178 
22203000    141.35597   -4490.1982   -4247.9189   -4490.1982            0    1315.4766    17.841419     23.55217    21.999662    9244.3489    2373.2559    895.42386    677.75013    218.60995    255.88241    220.42959   -4070.5672 
22204000    142.03838   -4491.8217   -4248.3728   -4491.8217            0    1426.1187    18.008994    23.220902    22.088933    9237.2625    1051.8159    2174.1011    1052.4392    603.49908   -197.72231   -675.31741   -4056.2518 
22205000    133.99732   -4485.1735   -4255.5067   -4485.1735            0    2642.2498     17.89272    23.460939    21.905309    9195.4108    2802.2818    2788.3532    2336.1144    600.91538   -466.87246    461.96617   -3901.1661 
22206000    140.96147   -4489.6161   -4248.0129   -4489.6161            0    679.88954    18.108335    23.304455    21.982335    9276.6526    19.749774    265.40142    1754.5174    63.781364   -425.13226    311.26795   -4156.0304 
22207000    144.62802   -4490.3066   -4242.4191   -4490.3066            0    975.75354      17.9008    23.433472    22.057797    9252.7584    220.02084    1489.3559    1217.8839    -133.7827    219.55358    451.51435    -4110.749 
22208000    143.69169   -4474.6003   -4228.3177   -4474.6003            0    1630.6204    17.980588    23.553833    21.824101    9242.7634    2341.7979     975.1154     1574.948    357.74498   -778.06303     272.3477   -4008.5162 
22209000    140.87408   -4482.1107   -4240.6574   -4482.1107            0     1180.827    18.069218    23.360875    21.871719    9232.3312    1305.0057    518.68756    1718.7879    742.81847    93.379322   -341.04912    -4081.666 
22210000    143.05504   -4465.8892   -4220.6978   -4465.8892            0    1368.8428    17.839176    23.410785    22.130345    9242.2759    1356.1815    1939.8552    810.49174   -537.15143    410.57645    650.74571   -4036.1927 
22211000    136.97865   -4479.0304   -4244.2537   -4479.0304            0      1304.89    18.039331    23.295023    22.015152    9251.3533    1758.4048    661.13165    1495.1336   -162.98184   -255.57807    209.53233    -4068.196 
22212000    147.78656   -4486.8905   -4233.5894   -4486.8905            0    2153.7403    17.745783    23.648308     22.00859    9236.0752     3421.425     1180.016      1859.78    -589.5754   -92.832115   -354.49506   -3943.4834 
22213000    147.09027   -4482.2181   -4230.1104   -4482.2181            0    2488.0908     18.04051    23.172778    22.008823    9200.7608    3023.6472    2504.8362    1935.7892     408.5002   -1104.1901   -286.58634   -3896.2493 
22214000    145.69794   -4492.0583    -4242.337   -4492.0583            0    1177.2173    17.903002    23.515932    21.955269    9243.2949    2250.9374    662.98312    617.73132   -432.01118   -322.04922    307.87648   -4083.6435 
22215000    130.12661   -4491.1153   -4268.0827   -4491.1153            0    1337.7734    18.054351    23.310601    21.989193     9254.323    828.00333    2342.6114    842.70556     314.9472   -395.14855    118.94874   -4087.5304 
22216000    143.95134   -4490.8193   -4244.0916   -4490.8193            0    1999.0766    17.782471    23.315104    22.145946    9181.7129    1591.5314    2585.3208    1820.3775    185.48898   -337.14133    930.04535   -3976.4035 
22217000    142.71632   -4498.2153   -4253.6045   -4498.2153            0    1729.1922    17.944981    23.188587    22.173735     9226.907    1781.0384    1946.7233    1459.8148     -129.948   -390.83319   -8.7251132   -4020.9158 
22218000    147.26248   -4484.7455   -4232.3426   -4484.7455            0    1825.2455    17.950405    23.434643    21.901434    9213.0867    1675.4487    1817.4611    1982.8268    627.06389    432.95588    296.44414   -3987.0964 
22219000     147.1397   -4476.7126   -4224.5202   -4476.7126            0    2497.7273    18.103127    23.298975    21.743377    9171.0147     2832.358    2001.5566    2659.2672   -643.75739    741.06734     307.1988   -3890.4496 
22220000    138.36674   -4487.4645   -4250.3087   -4487.4645            0    2561.2031    17.890086    23.436515    21.895578    9180.4054    2884.1463    2395.3563    2404.1068    90.420837   -302.13282   -238.56029   -3907.3974 
22221000    145.37515   -4486.7349   -4237.5668   -4486.7349            0    1894.3538    17.887836    23.305428    22.052782    9193.4447    2019.8247    2652.6264    1010.6102    93.877794    379.06286    439.22693   -3983.5776 
22222000    146.00263   -4500.8892   -4250.6457   -4500.8892            0    1909.7577    18.066801    23.221606    21.926102    9198.8799    1278.7842    2608.5734    1841.9155   -152.07167   -285.77356    803.28425   -3994.4398 
22223000    133.26218   -4472.3774   -4243.9706   -4472.3774            0    2965.3453    17.876533    23.532924    21.734103    9143.2568    2574.5824     1651.222    4670.2315   -104.92624   -365.26596     95.76269   -3848.5565 
22224000    143.89864   -4486.0218   -4239.3844   -4486.0218            0    1739.7476    18.103638    23.247417    21.913609    9222.6231    2068.5806    906.70312    2243.9591    451.33058     351.2739    3.2741213    -4005.384 
22225000    138.77018   -4487.0312   -4249.1838   -4487.0312            0    2148.9301    17.946813    23.395693    21.974537    9226.6277    1386.5019    2494.5084      2565.78    577.12403   -114.50868    67.035009   -3960.0218 
22226000    140.54278   -4477.4824   -4236.5969   -4477.4824            0    2089.3915    18.103758    23.341442    21.718838     9177.682    2126.6879    1738.0473    2403.4393    667.23663    281.73393    314.49429    -3956.938 
22227000    154.33682   -4467.9293   -4203.4013   -4467.9293            0    1201.7728    17.955795    23.396298    22.059702    9267.2621    1416.2505    1730.6043    458.46367   -143.83422   -673.73485    170.37726   -4040.9775 
22228000     151.7176   -4483.4227   -4223.3839   -4483.4227            0    2104.3923    17.876809     23.26376    22.136262    9206.0684    3074.5988    1662.6058    1575.9724   -258.65947    -605.6824    516.49495    -3940.846 
22229000    145.37677   -4481.6402   -4232.4694   -4481.6402            0    1757.9332    17.948175    23.455072    21.932203    9232.9253    2303.0874    1893.8627    1076.8494   -987.14056   -379.04196    -905.2558   -3995.7589 
22230000    141.55961   -4461.9175   -4219.2891   -4461.9175            0    780.63473    18.136056      23.4397    21.816553    9274.2975    197.94666    1704.3174    439.64015   -691.18583   -245.76351   -5.6684473   -4113.7035 
22231000    140.88806   -4470.1697   -4228.6924   -4470.1697            0    2306.6461     17.92131    23.340834    21.975846    9192.4596    1978.5808    2159.5862    2781.7713    1021.7618    224.53574   -192.70348   -3919.4574 
22232000     134.5185   -4464.7201     -4234.16   -4464.7201            0    2528.0973    17.944601    23.311137    21.997218    9201.6355    3326.3337    2534.3533     1723.605   -89.243172   -177.59977    -344.7453   -3894.8984 
22233000    142.98257   -4493.0251   -4247.9578   -4493.0251            0    1230.8959    18.135523    23.400831    21.784097    9244.8728    804.95039    277.83832     2609.899    37.197444    722.37629   -97.758601   -4081.9998 
22234000    142.99466   -4470.7501   -4225.6622   -4470.7501            0    1899.4657    17.946148     23.36234    21.961907    9207.8369    1782.4065    1952.8683    1963.1224   -153.73887    -8.549694    568.58181   -3970.5889 
22235000    145.17184   -4496.6698   -4247.8502   -4496.6698            0    1515.8456     18.03723    23.241839     22.01235    9227.9822     1331.186    1583.6575    1632.6934    146.99701   -268.96207   -510.61616   -4043.8467 
22236000    142.03231   -4483.2744   -4239.8359   -4483.2744            0    2648.4095     17.75697    23.636147    21.787581    9144.3863    3772.1185    962.75987      3210.35   -196.07048    779.71921   -348.41255     -3886.64 
22237000    142.14271   -4483.6051   -4239.9773   -4483.6051            0    2470.4117    18.150048    23.189237    21.793255    9172.4705    1689.8302    3501.0776    2220.3273    45.092091    68.834848   -17.143006   -3909.5077 
22238000    142.35813   -4472.1508   -4228.1538   -4472.1508            0    2814.8304    17.946055    23.385424    21.889048    9186.3101    2406.0874    3686.1567    2352.2472    1078.9145    102.39055    15.981391   -3851.0428 
22239000    144.20171   -4483.6358    -4236.479   -4483.6358            0    1871.2071    18.094923    23.388732    21.763513    9210.6957    1303.0592    964.37776    3346.1843    287.01856   -142.31216    853.08809   -3985.1225 
22240000    142.43668   -4479.0743   -4234.9427   -4479.0743            0    1030.9446     17.94774    23.440926    22.035011    9270.3859    1109.9755     1190.396    792.46218   -354.24685    443.84135    12.560779   -4095.5599 
22241000    140.64417    -4489.423   -4248.3637    -4489.423            0    2484.7092    17.849097    23.251695    22.152978    9193.9682    3897.4077    1509.6039     2047.116    223.31505    153.23556    991.78819   -3915.2025 
22242000    149.28481   -4492.4158   -4236.5467   -4492.4158            0    2472.5019     17.86056    23.298397    22.128551    9208.1863    2517.2032    2813.6984     2086.604   -1014.7625   -330.94305    31.077276   -3904.5096 
22243000    148.77354   -4477.3094   -4222.3166   -4477.3094            0    384.94828    18.055948    23.421339    22.006822    9306.5635    534.75343    364.07485    256.01656   -788.66126   -73.773584    781.92814   -4170.0688 
22244000    143.53685    -4478.709   -4232.6917    -4478.709            0    1912.0463     18.01964     23.46859    21.835265    9234.0364    1855.6874    1283.8746    2596.5768   -72.993588    229.89662    8.2234243   -3975.1985 
22245000    142.49149   -4464.5183   -4220.2928   -4464.5183            0    1995.5747    18.013349    23.432564    21.812286    9206.9433    1895.8271    1483.5034    2607.3935   -266.75381    371.10751    14.569691   -3952.3394 
22246000    142.67191    -4487.196   -4242.6612    -4487.196            0     1319.474    17.957624    23.347584    22.046523    9243.3822    609.52214    1023.2343    2325.6657    -525.1906   -422.65549   -750.89273   -4064.7892 
22247000    142.01289   -4482.7568   -4239.3515   -4482.7568            0    1388.3324    17.952921    23.325936    22.022968    9222.5294    308.90842    2142.2818    1713.8069     249.6378    262.59176   -11.235801   -4052.6193 
22248000    152.69251   -4484.4731   -4222.7634   -4484.4731            0    2212.5468     18.04143    23.155152    22.077696     9223.003    3151.9555    1939.7926    1545.8922    40.645175    332.52945    866.49031    -3925.158 
22249000     139.7917   -4488.7795   -4249.1813   -4488.7795            0    2233.7924    17.757301    23.451678    22.093419    9200.5507    3558.4069    2464.9293    678.04106   -235.00325    -134.0927    331.91576   -3949.4497 
22250000    147.37504   -4464.0937   -4211.4979   -4464.0937            0    1883.7542    18.130649    23.284668    21.878079    9236.1845    2910.2483    1518.3264    1222.6877    642.32867    935.56401    166.17431   -3957.7557 
Loop time of 375.665 on 64 procs for 250000 steps with 864 atoms

Performance: 114.996 ns/day, 0.209 hours/ns, 665.486 timesteps/s
194.5% CPU use with 32 MPI tasks x 2 OpenMP threads

MPI task timing breakdown:
Section |  min time  |  avg time  |  max time  |%varavg| %total
---------------------------------------------------------------
Pair    | 17.253     | 25.197     | 34.058     | 104.3 |  6.71
Bond    | 1.0316     | 1.2226     | 1.5534     |  11.9 |  0.33
Kspace  | 186.92     | 197.78     | 207.43     |  41.5 | 52.65
Neigh   | 0.80831    | 0.86246    | 0.91672    |   2.8 |  0.23
Comm    | 57.061     | 61.907     | 68.35      |  27.7 | 16.48
Output  | 0.56813    | 0.56841    | 0.57021    |   0.0 |  0.15
Modify  | 68.587     | 71.215     | 74.63      |  15.9 | 18.96
Other   |            | 16.92      |            |       |  4.50

Nlocal:        27.0000 ave          38 max          17 min
Histogram: 4 4 5 3 0 5 3 1 1 6
Nghost:        2135.03 ave        2268 max        2022 min
Histogram: 8 6 2 0 0 0 2 6 5 3
Neighs:        6575.09 ave        9445 max        4197 min
Histogram: 4 4 6 2 2 5 2 1 2 4

Total # of neighbors = 210403
Ave neighs/atom = 243.52199
Ave special neighs/atom = 2.0000000
Neighbor list builds = 3096
Dangerous builds = 0

unfix		3
unfix		2
unfix		1

write_data	data.final.${pid} nocoeff
write_data	data.final.0 nocoeff
System init for write_data ...
PPPM initialization ...
  extracting TIP4P info from pair style
  using 12-bit tables for long-range coulomb (../kspace.cpp:340)
  G vector (1/distance) = 0.37197065
  grid = 24 27 25
  stencil order = 5
  estimated absolute RMS force accuracy = 0.0031197581
  estimated relative force accuracy = 9.3950588e-06
  using double precision FFTW3
  3d grid and FFT values/proc = 4410 672
Last active /omp style is kspace_style pppm/tip4p/omp

write_restart   restart.lmp.${pid}
write_restart   restart.lmp.0
System init for write_restart ...
PPPM initialization ...
  extracting TIP4P info from pair style
  using 12-bit tables for long-range coulomb (../kspace.cpp:340)
  G vector (1/distance) = 0.37197065
  grid = 24 27 25
  stencil order = 5
  estimated absolute RMS force accuracy = 0.0031197581
  estimated relative force accuracy = 9.3950588e-06
  using double precision FFTW3
  3d grid and FFT values/proc = 4410 672
Last active /omp style is kspace_style pppm/tip4p/omp
Total wall time: 0:06:15
