#include		in.partitions
include		in.temp
variable        temperature equal 227.00
variable	tempDamp equal 100.0
include		in.pressure
variable        pressure equal 2738.0
variable        pressureDamp equal 1000.0 # This is 1 ps
include		in.seed
variable        seed equal 745823

units		real
atom_style	full
#include		in.box
read_restart	restart.lmp.${pid}
read_restart	restart.lmp.0
Reading restart file ...
  restart file = 30 Jul 2021, LAMMPS = 30 Jul 2021
  restoring atom style full from restart
  orthogonal box = (0.12006257 0.068612857 0.10685485) to (18.087510 23.560565 22.106341)
  2 by 4 by 4 MPI processor grid
  restoring pair style lj/cut/tip4p/long/omp from restart
  restoring bond style harmonic/omp from restart
  restoring angle style harmonic/omp from restart
  864 atoms
  576 bonds
  288 angles
Finding 1-2 1-3 1-4 neighbors ...
  special bond factors lj:    0        0        0       
  special bond factors coul:  0        0        0       
     2 = max # of 1-2 neighbors
     1 = max # of 1-3 neighbors
     1 = max # of 1-4 neighbors
     2 = max # of special neighbors
  special bonds CPU = 0.002 seconds
  read_restart CPU = 0.008 seconds
include 	in.setup
variable	out_freq equal 1000
variable	out_freq2 equal 10000
variable	out_freq3 equal 1000

timestep	2.0

neigh_modify    delay 7 every 1

include		in.tip4p
# This is TIP4P/Ice

# create groups ###
group ox type 2
288 atoms in group ox
group hy type 1
576 atoms in group hy

# set charges - beside manually ###
set group ox charge -1.1794
Setting atom values ...
  288 settings made for charge
set group hy charge 0.5897
Setting atom values ...
  576 settings made for charge

# ### TIP3P Potential Parameters ###
pair_style lj/cut/tip4p/long/omp 2 1 1 1 0.1577 8.5
pair_coeff 1 1*2 0.000 0.000
pair_coeff 2 2 0.21084 3.1668
bond_style  harmonic
bond_coeff  1 450 0.9572
angle_style harmonic
angle_coeff 1 55 104.52
kspace_style pppm/tip4p/omp 1.0e-5
pair_modify tail yes

thermo          ${out_freq}
thermo          1000
thermo_style    custom step temp pe etotal epair emol press lx ly lz vol pxx pyy pzz pxy pxz pyz enthalpy

restart 	${out_freq3} restart.lmp.${pid} restart2.lmp.${pid}
restart 	1000 restart.lmp.${pid} restart2.lmp.${pid}
restart 	1000 restart.lmp.0 restart2.lmp.${pid}
restart 	1000 restart.lmp.0 restart2.lmp.0


include         in.dump
dump            myDump all atom ${out_freq2} dump.water.${pid}
dump            myDump all atom 10000 dump.water.${pid}
dump            myDump all atom 10000 dump.water.0
dump            myDump2 all dcd ${out_freq2} dump.dcd
dump            myDump2 all dcd 10000 dump.dcd
dump_modify     myDump append yes
dump_modify     myDump2 append yes


variable natoms 	equal  "count(all)"                        # NUMBER ATOMS
variable H      	equal  "enthalpy/v_natoms"                 # ENTHALPY-per-atom
variable Vol      	equal  "vol/v_natoms"                 # volume-per-atom
fix AVG all 		ave/time ${out_freq} 1 ${out_freq} v_Vol v_H file vol_enthalpy.dat
fix AVG all 		ave/time 1000 1 ${out_freq} v_Vol v_H file vol_enthalpy.dat
fix AVG all 		ave/time 1000 1 1000 v_Vol v_H file vol_enthalpy.dat


timer           timeout 23:50:00 every 1000
New timer settings: style=normal  mode=nosync  timeout=23:50:00

fix 		1 all shake 1e-6 200 0 b 1 a 1
       0 = # of size 2 clusters
       0 = # of size 3 clusters
       0 = # of size 4 clusters
     288 = # of frozen angles
  find clusters CPU = 0.001 seconds
fix             2 all nph aniso ${pressure} ${pressure} ${pressureDamp}
fix             2 all nph aniso 2738 ${pressure} ${pressureDamp}
fix             2 all nph aniso 2738 2738 ${pressureDamp}
fix             2 all nph aniso 2738 2738 1000
fix             3 all temp/csvr ${temperature} ${temperature} ${tempDamp} ${seed}
fix             3 all temp/csvr 227 ${temperature} ${tempDamp} ${seed}
fix             3 all temp/csvr 227 227 ${tempDamp} ${seed}
fix             3 all temp/csvr 227 227 100 ${seed}
fix             3 all temp/csvr 227 227 100 745823


run             250000
PPPM initialization ...
  extracting TIP4P info from pair style
  using 12-bit tables for long-range coulomb (../kspace.cpp:340)
  G vector (1/distance) = 0.37164531
  grid = 24 27 25
  stencil order = 5
  estimated absolute RMS force accuracy = 0.0031665587
  estimated relative force accuracy = 9.5359976e-06
  using double precision FFTW3
  3d grid and FFT values/proc = 4410 672
Last active /omp style is kspace_style pppm/tip4p/omp
Neighbor list info ...
  update every 1 steps, delay 7 steps, check yes
  max neighbors/atom: 2000, page size: 100000
  master list distance cutoff = 10.8154
  ghost atom cutoff = 10.8154
  binsize = 5.4077, bins = 4 5 5
  1 neighbor lists, perpetual/occasional/extra = 1 0 0
  (1) pair lj/cut/tip4p/long/omp, perpetual
      attributes: half, newton on, omp
      pair build: half/bin/newton/omp
      stencil: half/bin/3d
      bin: standard
Per MPI rank memory allocation (min/avg/max) = 10.19 | 10.20 | 10.22 Mbytes
Step Temp PotEng TotEng E_pair E_mol Press Lx Ly Lz Volume Pxx Pyy Pzz Pxy Pxz Pyz Enthalpy 
 8500000    250.12734   -4306.4809   -3877.7712   -4306.4809            0    1825.8225    17.967447    23.491952    21.999486    9285.7721    2783.2993    2076.6418    617.52627    1070.3446    273.08715    118.14738    -3630.512 
 8501000    229.77526   -4302.9568   -3909.1299   -4302.9568            0    2876.5294    17.984183    23.214662    22.162513    9252.7765    2329.5194    3525.3295    2774.7394   -126.86852    35.971352    171.93759   -3520.9645 
 8502000    228.25053   -4310.5313   -3919.3177   -4310.5313            0    1892.8347    18.122105    23.246938    21.903647    9227.6441    723.50257    3666.0987    1288.9029    958.45232   -235.89547    -312.7751   -3664.5881 
 8503000     221.0734   -4297.8701   -3918.9578   -4297.8701            0    2585.3336    17.973136    23.300529    22.108821    9258.8107    724.91008    4483.8506      2547.24    77.076175    194.68748   -498.43049   -3569.8596 
 8504000    207.68917   -4309.3623   -3953.3902   -4309.3623            0    2217.0816    17.912024    23.455604    21.978299    9233.9038    2748.1384    1891.9314     2011.175   -144.96199    66.140761    73.180761   -3654.8224 
 8505000    225.39685   -4301.0061   -3914.6837   -4301.0061            0    1533.9377    17.941615    23.699984    21.946919    9332.1805    2039.9138    799.98012    1761.9192   -1025.0409   -174.70926    873.94006   -3705.9143 
 8506000    226.22739   -4283.7071   -3895.9611   -4283.7071            0    2821.1101    18.020285    23.549489    21.811686    9256.1925    2846.9409    1487.8894    4128.4999   -778.46353   -120.15423    635.09108   -3515.1336 
 8507000    231.41071   -4309.6349   -3913.0049   -4309.6349            0    3496.0676    17.810803    23.228758    22.324302    9236.0733    5316.3568    3216.9266    1954.9194   -519.76182    1280.1323    491.12227   -3442.0892 
 8508000    234.54245   -4307.5688    -3905.571   -4307.5688            0     2599.146    18.116305    23.362821     21.83108    9239.9608    3213.9069    3148.1369    1435.3944    150.42551    406.74586   -224.90486   -3555.3222 
 8509000    241.80219    -4299.178   -3884.7374    -4299.178            0    2765.2807    18.036041    23.373137    21.961454    9258.0454    3091.0309    2381.1505    2823.6608   -585.24206   -49.566454    625.59631   -3511.3717 
 8510000    228.69354   -4302.2292   -3910.2563   -4302.2292            0    3274.9794     17.96055    22.959333    22.356809    9219.1039    4122.4858    2913.1528    2789.2997   -348.99703   -1614.4838    24.093754   -3469.9314 
 8511000    224.71753   -4305.4511   -3920.2929   -4305.4511            0    3384.1822    17.974468    23.500593    21.764134    9193.4023    3281.4207    3427.8791    3443.2468   -2275.3526   -8.8177883    655.41501   -3466.5542 
 8512000    231.29327   -4273.6812   -3877.2525   -4273.6812            0    2678.9413    17.954271    23.484884    22.047891    9296.5805    2850.6195    2848.6428    2337.5615    1630.4801   -388.63229    99.011277   -3514.0387 
 8513000     237.6818   -4308.3807   -3901.0023   -4308.3807            0    2164.8696    17.967972    23.443123    22.114303    9315.1058    3327.9416    1713.4663    1453.2009   -731.61042   -872.18414    582.76847    -3606.902 
 8514000    222.17576   -4317.4826   -3936.6809   -4317.4826            0    2534.0909    18.191909    23.174565     21.87425    9221.9559    2063.1136    3640.5151    1898.6439   -481.53648    344.95611     282.1645   -3595.8641 
 8515000    238.59994   -4324.8121     -3915.86   -4324.8121            0    1384.0381    18.115982    23.218925    22.084242    9289.3746    479.34768    2805.8681    866.89845   -156.64021   -35.671014   -204.32744   -3728.3561 
 8516000    217.17908   -4287.6566   -3915.4191   -4287.6566            0    2936.9562      17.8412    23.510917    22.032479    9241.8097    3165.5709    2656.9121    2988.3856   -194.02057   -35.460881   -283.56315   -3519.5693 
 8517000      232.915   -4314.8713   -3915.6629   -4314.8713            0    3194.8241    17.814815    23.663877    21.899008    9231.9118    3655.7559    3496.7005    2432.0158   -379.99376    195.60017    192.99207   -3485.5183 
 8518000    219.53064   -4318.9995   -3942.7315   -4318.9995            0    2305.6619    17.968077    23.254589    22.197756    9275.1156    1027.5951    2963.8409    2925.5498    167.54632    291.14787     70.48372   -3630.8491 
 8519000    235.24564   -4317.5257   -3914.3227   -4317.5257            0    3872.8094    18.194389    23.078646    21.841414    9171.2505     2097.674     4037.388    5483.3662   -78.102096   -590.30719    141.30495   -3396.3218 
 8520000    214.50265   -4312.9478   -3945.2976   -4312.9478            0    2629.4061    18.060665    23.395485    21.946443    9273.2066    2869.6354    2391.0729    2627.5101   -534.35193   -137.20481    204.64469   -3589.6962 
 8521000    230.41626   -4327.6993   -3932.7737   -4327.6993            0    3147.3216    17.947564    23.565877    21.846856    9240.1297    3177.0228    2667.9119      3597.03   -158.92067    267.36406    431.59122   -3508.6475 
 8522000    233.53061   -4297.6654   -3897.4019   -4297.6654            0     4080.281    17.830886    23.535949    21.966359    9218.5521    5378.4068    4038.7426    2823.6936    500.47593   -956.36629    805.26517   -3348.8361 
 8523000     212.8867   -4303.1162   -3938.2356   -4303.1162            0    2944.9874    17.957793    23.417643    22.068823    9280.5843    2272.5454    4670.7774    1891.6393    -901.0922   -364.55261    712.74367   -3539.6381 
 8524000    246.59451   -4296.2429   -3873.5883   -4296.2429            0    2477.4564    18.069795     23.50547     21.80814    9262.7683    1161.6388    1670.7963    4599.9341   -321.31951   -659.64728    664.77696   -3538.9138 
 8525000    220.42926   -4284.6373   -3906.8291   -4284.6373            0    2362.5236    17.987523    23.267035    22.203405    9292.4875     3451.102    2458.1806    1178.2883    631.41481   -328.02798   -531.15416   -3586.6566 
 8526000    233.01155   -4280.7084   -3881.3346   -4280.7084            0    2868.8615    18.353932    23.352232    21.477277    9205.2745    2467.7752    3505.3802    2633.4292   -309.00084   -13.812245   -133.45491   -3496.1914 
 8527000    231.32285   -4290.0521   -3893.5726   -4290.0521            0    3263.7614    17.938543     23.22052    22.076174    9195.6603    1586.1787    5360.6554    2844.4502    731.06792     57.01196   -939.37143   -3455.8719 
 8528000    228.47403   -4322.1594   -3930.5627   -4322.1594            0    3777.1152    17.946472    23.388677    21.920935    9201.1859    4598.4086    3729.4572    3003.4798   -596.25964   -680.10093   -608.57297   -3423.7122 
 8529000    216.44356   -4318.0082   -3947.0314   -4318.0082            0    2869.4009    18.022426    23.467504    21.830643    9233.0817    2805.2352    1715.7494     4087.218    469.87637    1076.3239   -851.93077   -3560.6521 
 8530000    242.55322      -4309.4   -3893.6721      -4309.4            0    2849.9148    17.780065     23.29413    22.244967    9213.2236    3423.7385    3693.6063    1432.3996   -678.48376    647.31236    149.54464   -3510.7421 
 8531000    232.69609   -4285.3966   -3886.5634   -4285.3966            0    2915.0602    18.007046     23.43019     21.92546    9250.5378    2927.1972    2552.3861    3265.5974    74.090324    -171.8001    480.26838   -3493.2938 
 8532000    228.83152   -4293.4713   -3901.2619   -4293.4713            0    3049.2782    18.060611    23.372306    21.801137    9202.6551    4360.4879    2157.9954    2629.3512   -451.24163   -611.87573   -204.20136   -3492.0144 
 8533000    225.91892   -4295.1892   -3907.9719   -4295.1892            0    975.49652    18.004315     23.13007    22.377479    9318.9012    1423.2024    3093.0507   -1589.7636   -565.15926    247.39555   -359.54218   -3775.3954 
 8534000    220.27287   -4315.1735   -3937.6333   -4315.1735            0    3888.9673    18.059973    23.274326    21.889302    9200.8114    2615.8956     4680.816    4370.1904   -461.87533   -765.35601    133.92827   -3415.7946 
 8535000    225.01932   -4339.0175   -3953.3421   -4339.0175            0    3413.0839    18.082406    23.574297    21.785136     9286.568    3131.3749    3029.4807    4078.3962    131.82235    -209.0727   -103.59274   -3491.0909 
 8536000    211.36016    -4297.766    -3935.502    -4297.766            0    2243.2683    17.820463    23.370935    22.242768    9263.6878    3107.3053    2624.5016    997.99793   -719.03675    110.46658    196.41618   -3632.4333 
 8537000    224.43256   -4295.9025   -3911.2328   -4295.9025            0    3220.2558    17.989812    23.429465    21.875064    9220.1572    2012.0618    2903.6696    4745.0359   -436.95465     87.70274   -354.33471   -3478.2162 
 8538000    237.42765   -4325.7302   -3918.7873   -4325.7302            0    2699.4176    18.039709    23.281487     22.02363    9249.7317    2328.3635    3954.1102    1815.7792    910.14357   -433.75071   -661.63505   -3554.6417 
 8539000    224.58891   -4296.7384   -3911.8007   -4296.7384            0    2752.7501    17.999516    23.101508    22.215681    9237.6348    3876.7647    2698.8372    1682.6483   -143.91515    531.81677    267.66616   -3540.9463 
 8540000     231.1301   -4324.5339   -3928.3848   -4324.5339            0    2025.0354     18.06333     23.41841    21.866149    9249.6978    1277.5966    1554.1448    3243.3649    150.15699    615.56575   -289.95159   -3655.2129 
 8541000    225.14307   -4311.2667   -3925.3791   -4311.2667            0    2869.2076    17.894654    23.382762    22.093625    9244.5564    3171.3349    1818.9209    3617.3671    206.83195   -51.290865    288.22807   -3538.5458 
 8542000    221.48832   -4308.2256   -3928.6022   -4308.2256            0    2839.1286    17.926479    23.333604     22.03862    9218.5203    3384.1755    2896.6936    2236.5167     433.0429    555.92353   -186.99024   -3546.9022 
 8543000     238.9491   -4312.8253   -3903.2747   -4312.8253            0     2540.847    18.159727    23.553034    21.684538    9274.8387    2502.5536    1875.3938    3244.5936   -262.07761    118.51969    302.60248   -3559.5896 
 8544000    228.39347   -4298.9817   -3907.5231   -4298.9817            0    2659.5683    17.908637    23.296384    22.154393    9242.9566    1742.7862    3607.2605    2628.6584    1357.0962   -124.67448   -191.12502   -3549.0159 
 8545000    209.21978   -4315.3031   -3956.7076   -4315.3031            0    3026.7587    17.863856    23.605736    21.888503    9230.1512    3544.9026    3503.6647    2031.7087    402.59119   -233.85699   -395.97844   -3549.2687 
 8546000    234.71365   -4306.9818   -3904.6906   -4306.9818            0    3104.6155    18.027736     23.48294    21.790992     9225.091    3809.2421    3254.0614     2250.543   -1522.9168    129.36653   -36.658565   -3487.0003 
 8547000    215.74771   -4300.7179   -3930.9337   -4300.7179            0    3121.3992    18.036675    23.092863    22.100971    9205.4627    2948.6529    3272.3803    3143.1644   -264.26061   -285.27182    225.42208   -3511.8789 
 8548000    233.14472    -4310.725   -3911.1229    -4310.725            0     3719.913    18.033251    23.380367    21.861403    9217.2927    3685.8816    3293.7626    4180.0947   -108.10263   -471.64343    868.41164   -3411.0745 
 8549000    243.33023   -4319.6387    -3902.579   -4319.6387            0    2553.8343    17.887855    23.664507    21.813974     9234.014    3523.3347    667.52404    3470.6442      1521.24     100.7994     452.6266   -3558.6576 
 8550000    232.73509   -4328.9456   -3930.0456   -4328.9456            0    2302.5837    17.920517    23.462842    22.000305     9250.386    2010.1326    2335.0542    2562.5643   -435.05824   -544.20912    -360.4657   -3619.4101 
 8551000    234.30119   -4299.8217   -3898.2375   -4299.8217            0    3530.3949    18.076624    23.350546    21.874949     9233.395    3908.0208    3638.9668    3044.1969   -736.36952   -70.640599    551.62694   -3422.8359 
 8552000    221.33055   -4306.3154   -3926.9624   -4306.3154            0     1229.054    18.189038    23.218846    22.049794    9312.2559    219.74057    1041.7502    2425.6712    216.90164   -83.643655    -922.9598    -3760.045 
 8553000    230.10243   -4328.0568   -3933.6691   -4328.0568            0    2249.7319    18.038836    23.143577    22.029055    9196.7601    1663.5988    2952.7809    2132.8162    1509.5479    369.62946    932.74949   -3631.9231 
 8554000    221.14488   -4283.3433   -3904.3085   -4283.3433            0    2331.9729    18.068482    23.488105    21.878646    9285.1747    1945.8811    1724.7044    3325.3332    241.79066   -19.463222    120.07176    -3588.525 
 8555000    218.28169   -4288.6091   -3914.4818   -4288.6091            0    2278.3211    17.795315      23.4345    22.145138     9235.061    1684.0698    3305.4661    1845.4275    93.438399   -275.42531    535.59389   -3607.6286 
 8556000    240.14742   -4285.3464   -3873.7419   -4285.3464            0    3764.7332    17.879398    23.415223     21.88456    9161.9734    4425.8058    2731.4052    4136.9887    345.16703    156.26171   -232.73972   -3370.7059 
 8557000    221.90295   -4293.0396   -3912.7056   -4293.0396            0    2955.0909    17.876942    23.741898    21.728767    9222.3957    3274.3312    674.43838    4916.5031    140.12804     207.3413    255.23463   -3515.2482 
 8558000    222.06598   -4297.6482   -3917.0347   -4297.6482            0    3271.2852    17.837011    23.469455    22.032509    9223.3572     3804.759    4171.7491    1837.3475    283.22049   -686.24141    581.15453   -3477.0037 
 8559000    223.07295   -4294.6462   -3912.3068   -4294.6462            0     2627.703    18.249126    22.910535    22.053038    9220.3145      3145.76    2961.6545    1775.6945   -221.57888   -807.17599    755.69141   -3558.9627 
 8560000    214.83333    -4319.342    -3951.125    -4319.342            0    2675.6686    18.196496    23.325319    21.875986    9285.0233     2302.138    2474.5279      3250.34   -441.65338    45.426992   -131.11145   -3588.8059 
 8561000    224.72212   -4307.3857   -3922.2197   -4307.3857            0    2166.3512     17.94608    23.320976    22.223001     9300.773    2807.4471    2776.5334    915.07327   -164.39141    378.14419    424.59852    -3628.371 
 8562000    235.58741   -4308.7985   -3905.0097   -4308.7985            0    1895.5613    17.956252    23.579517    21.994114    9312.3022    1787.2107    719.95563    3179.5177   -560.83599    -971.7792  -0.97506608   -3647.5728 
 8563000    240.95176   -4298.0593   -3885.0763   -4298.0593            0     3038.818    18.001911    23.564343    21.789857    9243.3268    2902.0183    4526.0261    1688.4097    128.36274    249.23758    694.18256   -3475.4301 
 8564000    226.68106   -4308.6574   -3920.1338   -4308.6574            0    3149.5004    17.917916    23.188875    22.221344    9232.8865    3906.6546    2308.9036    3232.9429    52.241115    278.79827   -209.12764   -3496.0467 
 8565000    219.70572   -4319.2263   -3942.6582   -4319.2263            0      1985.65    18.220544    23.370727    21.867624    9311.8325    1320.1476    2918.5223    1718.2802    357.43816    -9.507961    -813.1983        -3673 
 8566000     243.6535    -4307.955   -3890.3413    -4307.955            0    3386.6458    18.029122     23.27182    21.960024     9213.778    4407.8828    2693.1716    3058.8831    878.38239   -71.068608    275.02385   -3435.2658 
 8567000    213.84763   -4318.0242   -3951.4967   -4318.0242            0    2888.8245    17.911883    23.158136    22.261222    9234.0845    2687.1108      4334.05    1645.3126    695.41357    564.59435   -105.25123   -3562.4597 
 8568000    232.35989   -4317.3633   -3919.1064   -4317.3633            0    2819.6464    18.018964    23.420335    21.841052    9217.1465    2025.7742    2418.8231     4014.342   -1739.4727   -757.32865   -329.83883   -3540.0821 
 8569000     222.8926   -4341.2875   -3959.2572   -4341.2875            0    2141.4111    17.888997     23.27757    22.256125    9267.7266    1783.4207    3403.5895    1237.2232    -1117.582    171.87076   -603.36246   -3669.8235 
 8570000    231.40747   -4314.6681   -3918.0437   -4314.6681            0    2539.2954    18.156005    23.237324    21.835009     9212.124    2141.9278    2486.1818    2989.7765    406.73902    414.39223    295.32271   -3576.8909 
 8571000    224.46636   -4306.5297   -3921.8021   -4306.5297            0    3483.8466     18.16468     23.17125    21.976673    9249.9449    1898.3194    4179.5996    4373.6209   -1179.0146   -84.554207    26.510093   -3451.8278 
 8572000     231.8905   -4261.3304    -3863.878   -4261.3304            0    3402.1259    17.924055    23.357498    22.148198    9272.5883    3375.6211    4551.2352    2279.5212    97.195717    286.73194    160.95067   -3403.8045 
 8573000    212.84508   -4311.4403   -3946.6312   -4311.4403            0    2415.7935    17.896474    23.760188    21.747184    9247.4155    2644.0673    1924.0683     2679.245    41.790762     195.4443    31.258351   -3620.8274 
 8574000    232.54048   -4322.6661   -3924.0997   -4322.6661            0    3733.3103    17.865374    23.507868    21.898322    9196.7883    4862.1677    4114.7304    2223.0329    1427.5634    588.65975    50.117654   -3423.3667 
 8575000    227.15702   -4316.2058   -3926.8664   -4316.2058            0    2008.8935     17.98901    23.264609    22.106127    9251.5755    2414.7143    1923.4327    1688.5336    1056.5041    257.31246   -989.90741    -3655.817 
 8576000     226.5448   -4313.3474   -3925.0573   -4313.3474            0    2558.3191    18.193657     23.12711    21.943917    9233.2694    2053.8427    4568.7779    1052.3366   -466.55959    102.94723   -1485.0516   -3580.5598 
 8577000    226.28923   -4320.9111   -3933.0591   -4320.9111            0    2249.9132    18.148838    23.232878    21.972112    9264.5354    2600.5761    1555.5075    2593.6559    825.10342   -737.48167    200.22978   -3629.0649 
 8578000    237.71468   -4287.3869   -3879.9521   -4287.3869            0    3679.5963    17.897405    23.387982    22.068074    9237.3463    3374.3014    4688.7484     2975.739   -10.624169   -355.64251    535.08523   -3384.2471 
 8579000    228.72898   -4318.5539   -3926.5203   -4318.5539            0    2954.2109    17.848236    23.631886    21.975276     9268.896    3939.1318     2611.576    2311.9248   -87.571761   -204.90008    -891.9637   -3527.1779 
 8580000    243.93517    -4302.342   -3884.2455    -4302.342            0    2877.2486     17.76557    23.641463     21.99503    9238.0015    3655.8877    2551.8754    2423.9827   -429.93656   -579.35725    275.53865   -3496.6031 
 8581000    223.05324   -4296.1409   -3913.8353   -4296.1409            0    3620.2919    17.910151    23.302237    22.042752    9199.4672    3992.2916    2813.7047    4054.8795   -1443.9577   -407.23247    173.51101   -3428.1196 
 8582000    222.15927   -4317.4356   -3936.6622   -4317.4356            0    3055.8565    18.280839    23.043572    21.909309    9229.4242    1436.5364    2650.9725    5080.0607   -761.53719    26.447097    202.90574   -3525.3388 
 8583000    222.13873    -4323.084   -3942.3458    -4323.084            0    2901.7378    18.102962    23.290855    21.887175    9228.3653    1718.3149    2912.8683    4074.0301   -324.73919    426.31932    306.29023   -3551.8118 
 8584000    242.41098   -4301.2891   -3885.8049   -4301.2891            0    2782.4567    17.972026    23.516597    21.970671    9285.7036    3769.7556    1046.2795     3531.335    564.48547    38.644501   -442.66246   -3508.9978 
 8585000    233.76031   -4319.6146   -3918.9574   -4319.6146            0     3765.029    17.808322    23.678528    21.762593    9176.7381     4301.821    3302.6188    3690.6473    403.74163    1129.2937   -342.46697   -3415.0711 
 8586000    239.46601   -4332.4353   -3921.9988   -4332.4353            0    2462.4166    17.881281    23.361741    22.134928    9246.5974    2276.3701    3543.8119    1567.0678    635.38416   -20.345457   -130.75651   -3589.9366 
 8587000    226.92812   -4321.2835   -3932.3365   -4321.2835            0    3161.8267    18.067909    23.165187    21.983984    9201.3196    3697.9686    2619.6944     3167.817   -916.67931    296.36684    616.05543   -3508.0453 
 8588000    233.01306   -4289.1077   -3889.7313   -4289.1077            0    2455.8656    18.314531    23.109221    21.922732    9278.4572    1972.6727    2066.7796    3328.1446    557.56834   -170.96144    1050.0168   -3557.4115 
 8589000    218.00759   -4318.6852   -3945.0276   -4318.6852            0    3539.4919    17.950001    23.443841    21.948634    9236.3578    4133.7875    4052.0676    2432.6207   -633.75447    696.48623    326.33092   -3468.2481 
 8590000    234.58039   -4312.1001   -3910.0373   -4312.1001            0      2074.44    17.702558    23.749989     21.98467    9243.1367    2089.2498    1763.6993    2370.3708    804.77381   -793.07702    349.05164   -3630.3993 
 8591000    212.52054   -4303.7304   -3939.4774   -4303.7304            0    4237.3763    17.869235    23.502298    21.863789    9182.0935    5630.3786    3983.0649    3098.6853    80.130007   -427.94283    -638.8808   -3372.0444 
 8592000    237.10761   -4314.0418   -3907.6474   -4314.0418            0    2416.4837    17.966812    23.456198    21.936397    9244.7237    2521.9706    2193.7439    2533.7367    672.95365   -221.58606    167.61714   -3581.8455 
 8593000    217.12348   -4308.3986   -3936.2564   -4308.3986            0    3533.1357    17.948386    23.124114    22.125176    9182.8448    3468.9901    3788.9689     3341.448    134.90469    309.21542   -279.37808   -3463.0905 
 8594000    218.38229   -4299.1749   -3924.8752   -4299.1749            0     2412.993    18.078395    23.257733    21.983608    9243.2823    3425.7601    683.43781     3129.781   -323.73196    900.05077    743.21212   -3599.5946 
 8595000    225.25056   -4324.1778   -3938.1061   -4324.1778            0    1778.2971    18.144288    23.307518    21.867877    9247.8885    2908.3575    1477.2215    949.31227   -901.83697   -47.526328   -496.10307   -3698.2654 
 8596000    227.05403   -4288.6943   -3899.5315   -4288.6943            0    3747.1486     17.79494    23.438072    22.110978    9222.0266    5057.5558     3297.686    2886.2039     97.82261    560.91963    -154.6368   -3395.5632 
 8597000    226.31277   -4307.2851   -3919.3927   -4307.2851            0    2341.4977    17.825968    23.608163    22.048522    9278.8638    1784.9503    2491.4327    2748.1101    -338.7315   -229.16931   -575.18102   -3602.5349 
 8598000     228.6157   -4340.6966   -3948.8571   -4340.6966            0    2721.7337    18.026453    23.475172    21.838471    9241.4747    2171.1253     1829.405    4164.6707   -230.49399    701.21229   -229.51612   -3582.0289 
 8599000    221.80188   -4292.0362   -3911.8753   -4292.0362            0    3333.7301    18.037674    23.072755    22.206028    9241.6784     4347.479    2081.9475     3571.764   -371.36084    343.11063    15.937181   -3462.5538 
 8600000    223.20414   -4323.1677   -3940.6035   -4323.1677            0    2204.6407     18.06121    23.417039    21.976148    9294.5934     2461.681    1515.5455    2636.6957   -265.39247   -479.15695    374.33485   -3641.7598 
 8601000    214.78628   -4312.6067   -3944.4704   -4312.6067            0    3338.7644     17.80723    23.630077    21.834592    9187.6957    2832.0287    3099.6803    4084.5844   -145.31165   -38.064573    206.73964   -3497.0989 
 8602000    229.51169   -4299.3665   -3905.9913   -4299.3665            0    1872.9479    17.942972    23.507715    22.005346    9281.8168    2325.8375    2076.9431    1216.0631    41.798618   -41.696396     526.2216   -3652.4583 
 8603000    225.04523   -4297.8409    -3912.121   -4297.8409            0    617.20543    18.042826    23.592379    22.039257    9381.5208    1173.8312    1291.9691   -614.18395   -166.61257    555.71772    1375.5945   -3827.6751 
 8604000    236.58416   -4324.0318   -3918.5346   -4324.0318            0    2984.1912    18.087531    23.203735    22.023633    9243.2809    3329.8423    2985.8151    2636.9161    208.52476   -496.47548    1110.1534   -3516.2544 
 8605000     234.2205   -4303.1795   -3901.7336   -4303.1795            0    2806.1809    18.090898    23.194084    22.011602    9236.1075    3446.2367    3649.9239     1322.382    -199.9465   -1058.2008    488.32714   -3523.7434 
 8606000    229.11496   -4328.3788   -3935.6836   -4328.3788            0    3498.6656    17.971188    23.282726     21.84061    9138.5097    2989.7663     2880.837    4625.3934    34.585914   -460.90688   -853.83768   -3469.3962 
 8607000    225.55047   -4328.1039   -3941.5182   -4328.1039            0    2347.4465    17.770377    23.559081    22.159863    9277.3095    2986.8824    2507.0663    1548.3908   -146.77503    -739.3667    326.69836   -3623.9085 
 8608000    221.08603   -4292.5147   -3913.5808   -4292.5147            0     2305.416    17.916732    23.569722    21.840569    9223.1067    3031.5363     1419.698    2465.0137    277.61905     386.7788    370.67747   -3603.4803 
 8609000    220.80003   -4304.8534   -3926.4097   -4304.8534            0    2279.5767    17.954453    23.265351    22.155931    9254.9011    2726.0392    3055.0379     1057.653    418.19999   -528.31215   -367.15046   -3618.7278 
 8610000    222.65178   -4306.7874   -3925.1699   -4306.7874            0    2876.4346    18.275876    23.169003    21.820403     9239.497    1497.8733    2355.8417    4775.5889    400.21231   -151.16468   -284.39309   -3537.5744 
 8611000     229.0745   -4307.4087   -3914.7828   -4307.4087            0    1932.1761    18.116974    23.350107    22.022064    9316.0657    2899.4187    3022.8053   -125.69577    1172.6133   -380.79576   -38.619371   -3652.2672 
 8612000    225.85714     -4307.23   -3920.1186     -4307.23            0    2556.7403    17.814545    23.220831    22.286467    9219.2105    2186.4026    4354.8468    1128.9715   -445.46295   -330.89329    260.09329   -3576.3579 
 8613000    216.91982   -4299.4793   -3927.6862   -4299.4793            0    2239.3654    17.951756    23.508805     21.95504    9265.5612    2413.2394    1343.7066    2961.1501    460.73308    110.38588    284.30337   -3625.0836 
 8614000    236.80967   -4295.7261   -3889.8424   -4295.7261            0    2640.9929    17.970622    23.678492    21.872084    9306.9487    2134.1576    2454.9981    3333.8229    261.12595    47.862314    84.888054   -3531.3744 
 8615000    230.40624   -4290.7566   -3895.8482   -4290.7566            0    4496.1925    17.889048    23.279982    21.996491    9160.5863    4510.5788    4737.7577    4240.2411    932.81328    470.50815    554.64281    -3295.167 
 8616000    224.29972   -4325.4642   -3941.0221   -4325.4642            0    1791.0162    18.188499    23.373506    21.896563    9308.8641    2164.2035    1018.0818    2190.7631   -833.36644    166.93175   -498.80552   -3697.8733 
 8617000    222.60288   -4338.1985   -3956.6648   -4338.1985            0    3286.5956    17.991179    23.308021    21.985333    9219.3027    2849.5767    3098.7221    3911.4879   -117.62975   -161.06489   -760.11582   -3514.7686 
 8618000    224.83736   -4320.9839   -3935.6204   -4320.9839            0    2526.0249     17.84514    23.310164    22.161644    9218.6488    2625.4777    3217.6252    1734.9718   -1429.0236    301.28805    511.79811   -3596.0101 
 8619000    230.71534   -4310.8533   -3915.4151   -4310.8533            0    2991.6488    18.031204    23.464075    21.796238    9221.6731    4311.4715    1510.6424    3152.8325   -406.91717   -119.81461    170.85224   -3513.0723 
 8620000    230.93687   -4326.1463   -3930.3284   -4326.1463            0    3019.9294    17.863171    23.318759    22.081163    9197.8417    3492.8208    2959.1846    2607.7829    910.34424    119.21475    28.961468   -3525.2318 
 8621000     232.6068   -4337.4769   -3938.7968   -4337.4769            0    1015.9633    17.950397     23.51637    22.097761    9328.0876    2183.3194    442.00838    422.56224   -766.42377   -287.02891    361.24323   -3800.5846 
 8622000    238.98616   -4295.8307   -3886.2166   -4295.8307            0    2557.4435    17.977039    23.641834    21.726265    9233.8839    2869.4923    1751.4302     3051.408    141.76625    692.71313   -289.28319    -3541.814 
 8623000    224.17547   -4338.2551    -3954.026   -4338.2551            0    2624.0901    18.074692    23.203158    22.072683    9257.0612    1701.9916     3502.628    2667.6507    924.12166    901.68467    903.97958   -3599.7614 
 8624000    236.03843   -4303.4209   -3898.8591   -4303.4209            0       2345.2    18.169202    23.261669    21.904969    9258.0468     1140.446    2881.0555    3014.0986   -697.19856   -369.42299   -362.04028   -3582.2123 
 8625000    233.48044   -4282.3971   -3882.2196   -4282.3971            0    3847.1993    18.023294    23.345811    21.850391    9193.9545    3213.3359    3429.4971    4898.7648   -249.55769    46.401075    362.42162   -3366.3702 
 8626000    231.46331   -4315.4917   -3918.7715   -4315.4917            0    3200.1528    17.755626    23.589211    22.061357    9240.2052    4101.5687    2477.6376    3021.2522    427.66708    404.08027   -492.76643   -3487.5224 
 8627000     233.0004   -4308.9005   -3909.5457   -4308.9005            0    3444.9957     17.85361    23.715123    21.663319    9172.2616     4771.145    1861.7318    3702.1102   -379.99939    63.986187    2.6952093   -3448.7155 
 8628000     227.8827   -4307.2088   -3916.6257   -4307.2088            0    2848.5018    18.045735    23.240255    21.944872    9203.4049    3195.6271    2704.5105    2645.3677    806.37886    420.42827    400.08464   -3534.2934 
 8629000     229.9104   -4287.3761   -3893.3176   -4287.3761            0    4204.3999    18.016987    23.173005    21.838787    9117.8622    5109.7777    3756.8816    3746.5402    265.22205    86.151631    247.00814   -3334.2389 
 8630000    210.90814   -4307.3745   -3945.8852   -4307.3745            0    1912.4149    18.268412    23.257216    21.844825    9281.2636    1041.5151    2216.3967     2479.333    82.574421    1117.1503    98.127409   -3687.0251 
 8631000    214.81008   -4320.4812   -3952.3041   -4320.4812            0    2350.1289    18.057277    23.251959    22.035413    9251.9443    3148.3219    2989.9755    912.08916    805.20982    913.41671   -434.51028   -3635.2009 
 8632000    234.05512    -4293.686   -3892.5235    -4293.686            0    2305.4028     17.96864    23.233499    22.185149    9261.7314    2556.6681    3998.0763    361.46402    -1023.574   -756.35695    294.94943   -3581.1262 
 8633000    231.09405   -4325.4511   -3929.3638   -4325.4511            0    2312.8966    17.815645     23.53776    22.001206     9225.994    2238.3157    2101.4481     2598.926    542.70748   -461.70632    617.28217   -3618.1598 
 8634000    216.93651   -4318.4203   -3946.5986   -4318.4203            0    3237.2182    17.884281    23.603864    21.857265    9226.7851    3174.0356    3029.5666    3508.0526    -531.3151    144.89478    -173.1148   -3510.9881 
 8635000    213.23938   -4322.4102   -3956.9252   -4322.4102            0    2785.9793    18.008501    23.223809    22.073834    9231.8508    2216.9026    3944.5821    2196.4531    77.905434    516.37934    724.96774   -3581.8291 
 8636000    221.20356   -4300.4903   -3921.3549   -4300.4903            0    1858.9255    18.158877    23.118245    22.162148    9303.6999     1451.187    2419.4782    1706.1113    260.66677    728.63798    289.90676   -3669.1268 
 8637000    225.03763   -4321.0648    -3935.358   -4321.0648            0    2882.7351    18.232579    23.243012     21.69681    9194.6754    2829.2793    1665.3187    4153.6074    -149.0091    409.75638    410.19023   -3548.7979 
 8638000    226.48383   -4309.8979   -3921.7124   -4309.8979            0    1935.3846    17.883712    23.354835    22.144962    9249.3116    2707.3982    1744.4378    1354.3178    849.29373   -378.98974    33.000111    -3660.645 
 8639000    208.71771   -4317.1679   -3959.4328   -4317.1679            0    3248.1338    17.877456    23.452439    21.766124    9125.8817    3687.4403     3184.026    2872.9351   -1621.1757   -1253.2717    512.99664   -3527.1334 
 8640000    224.74142   -4303.2202   -3918.0211   -4303.2202            0    3182.7306    17.845198    23.414558    21.947983    9170.6888    2758.3435    4114.5153    2675.3331    633.01447    272.99147   -135.85228   -3492.3465 
 8641000    222.78519   -4330.2025   -3948.3563   -4330.2025            0    3359.7103    17.799427    23.264171    22.183287    9185.8532    4181.5064    4442.9994    1454.6251    498.07757    687.45835    393.37294   -3498.2685 
 8642000    219.80884   -4311.4495   -3934.7047   -4311.4495            0    3084.4773    18.129576    23.178872    21.852914    9183.0999    2084.9234    2957.0759    4211.4326    128.09056    80.623472   -268.27352   -3521.6127 
 8643000    214.24275   -4305.4788   -3938.2741   -4305.4788            0    3114.0653    18.155309    23.099727    22.026773    9237.6473    1590.8051    3763.2738    3988.1169   -443.82338   -133.83624   -155.29052   -3518.7422 
 8644000    212.98395   -4292.4331   -3927.3859   -4292.4331            0    2294.1775    17.924699    23.405199    22.027312    9241.1435    1905.0657    2057.3131    2920.1538   -1646.8195   -116.00075    1244.3158   -3618.1937 
 8645000    234.11612   -4300.6215   -3899.3545   -4300.6215            0    3095.1372    17.859814    23.680949    21.773126     9208.668    2984.4563    2995.5938    3305.3615    570.13573    294.37628    340.02946   -3483.6808 
 8646000    240.08023    -4345.788   -3934.2987    -4345.788            0    950.18231    17.961486    23.462113    22.071326    9301.1748    1594.7115    1165.6962    90.139312    366.08953    152.03429    261.27792   -3805.4083 
 8647000    220.49379   -4327.5486   -3949.6298   -4327.5486            0     3634.606    18.148537    23.007142    21.953175      9166.46    1852.4705    5994.4986    3056.8488    134.24539    229.33711    246.81773   -3463.7433 
 8648000    207.03275   -4307.4208   -3952.5737   -4307.4208            0    2461.9702    18.063728    23.158887    21.942319    9179.2582    1608.4658    3234.8816    2542.5632    -938.2317    -674.6507   -85.652605   -3622.9896 
 8649000     234.8103   -4293.3083   -3890.8514   -4293.3083            0    1777.9871    17.972477    23.562698    22.097232    9357.7366    2645.7936    1800.1885    887.97917    112.53359   -490.72831   -159.17953   -3648.2042 
 8650000    226.67119   -4317.9903   -3929.4836   -4317.9903            0    3044.3076     17.84337    23.583693    21.906752    9218.6365    3887.4888    1923.2999     3322.134    155.23805    -287.3549   -545.04975   -3520.1937 
 8651000    236.25598   -4300.5866   -3895.6519   -4300.5866            0    2557.6986    17.939368    23.326166    22.009923    9210.1993    4265.4976    2254.7935    1152.8048   -1023.5187    178.46549    820.40818   -3552.0985 
 8652000    219.67233   -4325.6353   -3949.1244   -4325.6353            0    1966.0206    18.119473    23.203164    22.037296    9265.1209    1797.3954    2858.1356    1242.5308    407.66294   -382.52086    -121.7624   -3683.4712 
 8653000    218.98214   -4288.2557   -3912.9278   -4288.2557            0    2104.0073     18.09967    23.298126    21.976862    9267.3877     1460.664    3402.0977    1449.2601    431.55288    62.306898   -16.118542     -3628.56 
 8654000    217.43721   -4309.8426   -3937.1626   -4309.8426            0    2895.6738    17.977192    23.420176    21.910338    9224.8877    2330.2451    3213.6774    3143.0989    249.24131   -680.48038   -446.05672   -3547.5916 
 8655000    220.27893   -4310.4902   -3932.9397   -4310.4902            0    2352.1887    17.901695    23.668556    21.810134    9241.1122    3225.8645     1299.398    2531.3036   -686.30681    -3.438158     901.3002   -3615.9302 
 8656000    210.36811   -4328.6881   -3968.1244   -4328.6881            0    2858.5016    17.800155    23.496203    22.157549    9267.0859    3241.0772    2865.3879    2469.0398   -556.73988    1006.6691   -681.80685   -3581.7952 
 8657000    223.69477   -4323.0668   -3939.6616   -4323.0668            0    2117.0483    18.076329      23.4575    21.919906    9294.5993    1496.1712    2408.8558     2446.118    311.20235    724.95228   -91.763485   -3652.6911 
 8658000    222.71085   -4315.0024   -3933.2836   -4315.0024            0    3088.7973    18.294674    23.061607    21.944639    9258.5439    3382.9805    3607.3557    2276.0559   -37.861696    678.22735    162.03442   -3516.2146 
 8659000    221.49215   -4312.9198   -3933.2898   -4312.9198            0    2663.8891    18.073716    23.226587    22.104461     9279.248    2671.2741    3185.3938    2134.9994    687.15553    157.96783    832.62427   -3572.7902 
 8660000    241.20905   -4306.8897   -3893.4656   -4306.8897            0    3652.7103    17.757067    23.549335    21.927652    9169.4233    2973.4643     3394.753    4589.9138   -596.69314   -648.04298   -178.90206   -3405.0009 
 8661000    213.12783    -4316.757   -3951.4632    -4316.757            0    3001.0446    17.694868    23.672966    22.008371    9219.0864    3147.4356    2941.9082      2913.79    1099.1861    1008.6391    612.35005     -3547.97 
 8662000     214.1517   -4296.8484   -3929.7998   -4296.8484            0    3630.4183    18.046777    23.322482    21.855858    9199.0354    4465.6767    4337.8695    2087.7086   -388.51133   -378.99268   -431.89915   -3442.7483 
 8663000    230.44964   -4314.0542   -3919.0714   -4314.0542            0    2246.6788    18.396079    22.968601    22.018806    9303.6545    1408.5475    2271.7262    3059.7626    166.51337   -79.669939    195.89004   -3614.2324 
 8664000    227.44386   -4322.0474   -3932.2164   -4322.0474            0    2949.3502    18.060945     23.17941    22.102676    9253.1097    2031.5611    4076.9448    2739.5448    202.19991    -851.7324    -146.6938   -3534.2101 
 8665000    221.86346   -4308.6478   -3928.3814   -4308.6478            0    2844.1938    18.078324    23.425105    21.930536    9287.2891    3831.6104    2102.4236    2598.5473   -41.409532    -731.6625    85.553243   -3543.1479 
 8666000    232.51997   -4311.0172    -3912.486   -4311.0172            0    4391.1084    17.998886    23.542959    21.730184    9208.1012    4053.9648    2371.7879    6747.5724   -235.97949    -464.2464     -474.697   -3322.8009 
 8667000    214.02123   -4317.0309   -3950.2058   -4317.0309            0    1705.1646    17.908657    23.423332    22.157293    9294.5509    2714.3088    1226.7326    1174.4524   -233.54622   -370.77818    96.682288   -3719.0682 
 8668000    235.40268   -4295.7801    -3892.308   -4295.7801            0    2695.1139    18.026875    23.419767    21.973018    9276.6829    2890.6274    2156.0656    3038.6488    549.09454    931.89429    349.97475   -3527.6836 
 8669000    230.53744    -4290.876   -3895.7427    -4290.876            0     2231.991    18.175398     23.18531    21.919504    9236.9276    152.47768    4065.7442    2477.7511    41.236733    47.068117    453.62306   -3595.0688 
 8670000    234.38084   -4318.4805   -3916.7598   -4318.4805            0    3768.9255    18.029138    22.884003    22.246066    9178.2566    3301.7829    5532.7608    2472.2329   -507.19705   -234.47441    187.62999   -3412.2685 
 8671000    222.18771   -4306.0326   -3925.2105   -4306.0326            0    1982.0479    18.003845    23.521341    21.948824    9294.7688    1772.5462    1811.0527    2362.5447    1043.7106   -562.94723    125.07509   -3656.5347 
 8672000    228.18809   -4317.3951   -3926.2885   -4317.3951            0    1534.0714    17.815941     23.73652    21.939748    9278.0658    1439.7803      1195.91     1966.524   -159.07248   -674.02475    773.92377   -3718.7117 
 8673000    222.69983   -4318.8082   -3937.1084   -4318.8082            0    3366.9271     17.96232    23.421557    21.979436    9246.8694    3903.7916    4767.3564    1429.6332    57.264955    341.26705     108.1307   -3483.0577 
 8674000    219.44735   -4311.1022   -3934.9769   -4311.1022            0    2145.5812    18.402268    22.894869     21.95963    9251.9771    1351.6992    2608.2381    2476.8064    440.24231   -294.67864   -269.61221   -3645.4724 
 8675000    229.57333   -4302.2804   -3908.7996   -4302.2804            0    2590.8109    18.166795    23.138346    22.074712    9279.0962    2533.9895      1941.07    3297.3733      471.809   -411.20656    269.95169   -3558.1952 
 8676000    220.55989   -4307.0993   -3929.0672   -4307.0993            0    2300.9088    17.876808    23.387184    21.947792    9176.1127    2310.8329    2142.6399    2449.2535    378.27919    871.43578    523.53169     -3621.15 
 8677000    234.37824   -4297.5377   -3895.8214   -4297.5377            0    2153.0351    17.736795    23.677078    22.086422    9275.3138    679.88241    2731.7924    3047.4304   -977.54321   -363.49488    118.19283   -3604.5783 
 8678000    236.09073   -4308.6965   -3904.0451   -4308.6965            0    3005.8221    17.962279    23.200897     22.07933    9201.3618    2942.1946    3416.6002    2658.6714    494.92658    201.37257    -434.5402   -3500.6866 
 8679000    222.61181   -4308.3551   -3926.8061   -4308.3551            0    2247.6111    18.118903    23.235743    21.983196    9255.0609    1048.4041    2516.6182    3177.8111   -312.96487    446.49491    -60.39021   -3623.4335 
 8680000    227.20454   -4316.4924   -3927.0716   -4316.4924            0    2381.9428    18.177166    23.266653    21.806787    9222.5661   -327.75894    2510.3145    4963.2729    341.70388    91.799516   -529.84098   -3606.6963 
 8681000    238.25412   -4318.8264    -3910.467   -4318.8264            0    4758.2656    17.933747    23.167651    22.049561    9161.2136    5262.9561    3447.9493    5563.8913    123.08797    181.86635    268.61205   -3274.7298 
 8682000    232.89471   -4293.3885    -3894.215   -4293.3885            0    3101.1231    17.918646    23.391106    22.008141    9224.4253    3734.1591    1831.3743    3737.8358    242.24797   -557.70504    149.40989   -3477.0247 
 8683000     223.1363   -4317.7951   -3935.3472   -4317.7951            0    2405.7939    18.022268    23.415023    21.908594     9245.247    1507.6121    3269.8246    2439.9451   -316.56017    468.19661   -33.411889   -3610.9681 
 8684000    220.84125   -4321.5792   -3943.0648   -4321.5792            0    3052.8124    17.862604    23.339042    22.096715    9212.0338    2999.1397    2171.1241    3988.1734    330.82068    268.70514   -96.050948   -3532.9254 
 8685000    229.72819   -4301.5817   -3907.8355   -4301.5817            0    2947.7581    18.087692    23.221969    22.008586    9244.3062    959.22332    4010.3764    3873.6746   -670.92768   -124.35599    167.36683   -3510.4225 
 8686000    230.78292   -4293.2562   -3897.7022   -4293.2562            0     2431.913     18.05909     23.25574    21.853798    9178.1035    1380.1339    2159.4637    3756.1415    1165.9297   -323.97176    324.03447   -3572.1828 
 8687000    219.85969    -4312.866   -3936.0341    -4312.866            0    1626.4702    17.934043    23.302387    22.106149    9238.2929    1115.3332    2063.3702    1700.7071   -690.40588    545.43718    776.58398   -3716.8981 
 8688000    240.01328    -4304.506   -3893.1315    -4304.506            0    3763.0894    17.983198    23.437721    21.794345    9185.9933    4051.6961    2910.4524    4327.1197    672.30883    482.80665    390.50448   -3388.9968 
 8689000    217.78246   -4323.6989   -3950.4273   -4323.6989            0    2409.6256    17.891879    23.405254    21.936337    9186.1474    2289.9873    2831.1667    2107.7228    14.798961    649.18584    501.75396   -3627.6084 
 8690000    237.29899   -4294.0855   -3887.3632   -4294.0855            0    2145.8086    17.788727    23.513886    22.218941    9293.7854    3215.3817    2397.4746    824.56937    199.70159    157.75121    234.41641   -3596.5196 
 8691000    224.46436   -4296.0459   -3911.3217   -4296.0459            0    2554.4788    17.999455    23.335459    21.951227    9220.0758    2667.9865    3029.7575    1965.6923   -729.99175     170.8116   -584.41082   -3567.8328 
 8692000    221.26853   -4289.2991   -3910.0524   -4289.2991            0    2697.5471    18.265901    22.964344    21.938533    9202.4345    2149.8018    3593.1805    2349.6591   -225.06841   -469.59342   -39.451686   -3548.0198 
 8693000    226.84783   -4301.8455   -3913.0361   -4301.8455            0    4154.2252    17.951476    23.233828    21.921571    9143.0819    3910.3535    2439.3171     6113.005   -398.15013     275.6132    440.15731   -3359.1015 
 8694000    231.07737   -4297.9071   -3901.8484   -4297.9071            0    2127.5004    17.973473     23.51641    21.928789    9268.6759    3013.1979    1002.2432      2367.06   -353.52251   -134.89111    484.87335   -3614.2654 
 8695000    221.44184   -4306.2164   -3926.6726   -4306.2164            0    1891.2924    17.690661    23.629968    22.213871    9286.0592    2780.2209    1555.5537    1338.1025    716.92911    527.40982   -161.13041   -3670.5393 
 8696000    223.40103   -4304.0431   -3921.1414   -4304.0431            0    2306.1821    17.911344    23.365016    22.094894    9246.6873    2163.1843    3122.8096    1632.5525   -489.81471   -49.413166   -137.55025   -3610.1448 
 8697000    218.27688   -4286.9501    -3912.831   -4286.9501            0     3080.291    18.062018    23.247754    21.917492    9203.1846     1703.519    5286.1997    2251.1545   -304.44185   -480.63466  -0.16951438   -3499.3974 
 8698000    226.32943   -4301.4412   -3913.5203   -4301.4412            0    3511.4949    18.243335    23.075119    21.823818      9187.11    2550.6552    3886.2575    4097.5721    275.62615   -359.29466    1585.5826   -3443.0341 
 8699000    226.98906   -4291.7148   -3902.6633   -4291.7148            0    2434.1202     18.08754    23.262976    22.141097    9316.3095    2900.4884    3793.9012    607.97113    88.299985    1012.4066   -100.09577   -3571.9423 
 8700000    211.93549   -4297.4922   -3934.2421   -4297.4922            0    634.19413    18.082753    23.580358    21.964745    9365.7188    287.50612     872.2363    742.83997    1263.1593    526.35589    20.862463   -3847.6179 
 8701000    221.02755   -4296.6511   -3917.8174   -4296.6511            0    3840.3357    17.832996    23.428009    21.887942     9144.598     4589.794    3469.4074    3461.8056   -2226.9895   -802.92301    966.62302   -3405.6526 
 8702000    233.47886    -4306.076   -3905.9012    -4306.076            0    3064.8562     17.74518    23.470164    22.052803    9184.6019    3654.4064    3247.3141    2292.8479    375.98798    60.002223    493.21915   -3495.3698 
 8703000    223.46053   -4325.1272   -3942.1235   -4325.1272            0    3213.0385    18.004548    23.436535    21.827986    9210.6287    3104.5595    3100.6694    3433.8866   -1115.8989    280.64992    197.99477   -3510.5238 
 8704000    228.37156   -4332.2716   -3940.8506   -4332.2716            0    2291.4944    17.980958    23.308014    22.086214    9256.3414     3227.756    2157.2945    1489.4327   -113.61439   -583.46474   -204.89497   -3631.5121 
 8705000    218.24247   -4326.6539   -3952.5938   -4326.6539            0    3185.9505    18.035514    23.393517      21.8454    9216.8823    3099.7788    2460.3459    3997.7266   -225.00453    5.8039353    100.04188   -3524.3422 
 8706000    220.54538   -4318.5298   -3940.5226   -4318.5298            0    2986.7582    17.873469    23.633252    21.778141    9199.2649     2946.758    2203.3996    3810.1171    50.729037     768.9519   -409.18373   -3539.8136 
 8707000    227.36436   -4310.2394   -3920.5447   -4310.2394            0    3405.4163    17.715847    23.433235    22.117854    9181.9972    3073.8892    3188.9485    3953.4112     502.7344   -102.97512    185.05508   -3464.5253 
 8708000    225.94498   -4291.6363   -3904.3743   -4291.6363            0    1649.3732    18.152134    23.413092    21.890609    9303.4556     639.2314     2066.247    2242.6412    117.27052   -208.33624    54.807991   -3680.5851 
 8709000    224.35056   -4318.7099   -3934.1807   -4318.7099            0     1226.291     18.10776    23.179648    22.180697    9309.9374    63.630308    2668.1064    947.13642    13.512125   -158.49987   -366.61916   -3767.6799 
 8710000    241.90809   -4313.3615   -3898.7394   -4313.3615            0    2231.7529    18.087521    23.191349    22.159552     9295.356    2217.7345    3514.0073     963.5168    222.97622   -467.44449    532.85785   -3596.1957 
 8711000    229.88494   -4327.5953   -3933.5804   -4327.5953            0     2315.942    18.048275    23.423887    21.879146     9249.644    1407.4636    3321.6271    2218.7351   -754.03432    37.284182    -206.1193   -3621.1677 
 8712000    227.99333   -4310.7679   -3919.9952   -4310.7679            0    2405.1478    17.972961    23.328382    22.091061    9262.3423    1937.2482    3127.6582    2150.5369   -807.38347   -480.84459    1004.8263   -3595.1036 
 8713000    228.61065   -4294.9003   -3903.0695   -4294.9003            0     3308.901    17.813152    23.600222    21.797869    9163.7009    4705.8738    2993.0287    2227.8005   -499.65093   -122.21792    93.860817   -3460.8574 
 8714000    222.14696   -4306.9007   -3926.1484   -4306.9007            0    3269.6952    17.852933    23.574132    21.960341    9242.3917    3307.7795    3739.9243    2761.3818   -601.27094    441.28357    744.17246   -3485.4236 
 8715000    213.35087   -4338.3903   -3972.7142   -4338.3903            0    1659.8158    17.990597    23.329454    22.139151    9292.0412    1760.1785     1684.404     1534.865     132.0426    38.692237    856.46618   -3747.7844 
 8716000    224.81788   -4309.6625   -3924.3323   -4309.6625            0    4364.7234    18.139522    23.034537    21.773708    9097.8279    3714.3923    4790.2825    4589.4953   -351.78072   -34.357399    285.69874     -3345.21 
 8717000    221.88626     -4321.42   -3941.1145     -4321.42            0    3541.7877    17.917123    23.231319    22.093877    9196.3201    3239.6502     3923.114    3462.5989   -763.70351   -817.50574    210.41676   -3466.0939 
 8718000    217.49941   -4288.0595    -3915.273   -4288.0595            0    3518.5806    17.977815    23.384844    21.958617    9231.5872     3869.465    3662.9449     3023.332   -935.95452   -11.119428    122.23384   -3441.5551 
 8719000    225.26643   -4295.8088   -3909.7099   -4295.8088            0    2473.9261    18.177922    23.549903     21.70922    9293.4631    2649.5792    2666.1466    2106.0526   -158.34032    98.500583       466.51   -3574.4047 
 8720000    224.33904   -4319.4449   -3934.9355   -4319.4449            0    3847.1956    17.950463    22.955278    22.195995    9146.0344    4147.3195    5640.7397    1753.5277   -1199.3344    300.43245    361.41899   -3421.7753 
 8721000    230.82864   -4321.1516   -3925.5192   -4321.1516            0     2410.958    18.089136    23.397888    21.800842    9227.1537    2746.6205    2955.0426    1531.2107   -418.74884   -453.24346   -59.475373     -3601.08 
 8722000    228.56307   -4330.5692   -3938.8199   -4330.5692            0     1944.776    18.007949    23.481491     21.98673    9297.1654     2065.576    1157.0328    2611.7191    371.75056   -431.73927   -185.47007   -3675.1285 
 8723000    211.54365   -4291.4254   -3928.8468   -4291.4254            0    3377.6632    17.747736    23.230826    22.274829     9183.791    4201.3809    3695.1922    2236.4166   -803.22406     888.6342    8.0637615   -3476.4555 
 8724000    231.86924   -4322.0913   -3924.6753   -4322.0913            0    3123.2592    18.074655    23.373769    21.852723    9232.1813    4348.2793    1620.2119    3401.2863   -703.06438   -549.46984   -187.59871   -3504.1538 
 8725000    220.74143   -4315.6517   -3937.3084   -4315.6517            0    2754.0186    17.870271     23.42839     22.09506     9250.576    1481.9906    2918.5564    3861.5087    459.00296   -673.99196    630.93143   -3565.7633 
 8726000    229.51184    -4317.298   -3923.9226    -4317.298            0    3115.4048    17.798507    23.655004    21.882481    9213.0443    3779.5489    2257.2745     3309.391    61.377102   -439.38404    424.18962    -3505.328 
 8727000     238.0164   -4272.9218   -3864.9698   -4272.9218            0    3289.5796    17.952209    23.459489    21.913876    9229.0213    3266.1379      3392.88    3209.7209   -673.29133    652.52166   -304.85844   -3422.2062 
 8728000    228.01236   -4286.0561   -3895.2507   -4286.0561            0    2497.9923    18.012398    23.234785    22.094337    9246.7939    2176.2211    3489.9713    1827.7846    549.85884    352.96594    191.79918   -3558.3839 
 8729000    235.69131   -4309.4786   -3905.5117   -4309.4786            0    3088.8021    18.177056    23.162343    21.888564    9215.5937    2805.9756    1937.1013    4523.3293    204.34786   -556.76474    464.43833   -3490.3768 
 8730000    237.40287   -4298.2562   -3891.3558   -4298.2562            0    2499.5601    17.957124    23.514517    21.888378    9242.4355    3229.1345    508.91944    3760.6264    636.50116   -1337.2914    442.62731   -3554.4365 
 8731000    231.17803   -4300.4558   -3904.2246   -4300.4558            0    2464.8811    17.666111     23.75576    21.981341    9224.9512    3302.0768    1973.2435    2119.3229    -558.2045   -191.08577    1014.0872   -3572.6082 
 8732000    220.97097   -4300.8241   -3922.0874   -4300.8241            0    2664.6174    17.970184    23.405971    21.987968    9248.3506    3074.7622    2276.3876    2642.7023    778.64932     137.6283   -404.53562   -3562.6899 
 8733000    219.67781   -4314.0642   -3937.5439   -4314.0642            0    2674.2863    18.256987    23.123721    21.897877    9244.6154    1098.0192    2935.5081    3989.3315   -217.04606   -205.06677   -139.59174    -3576.988 
 8734000    229.57741   -4298.7858    -3905.298   -4298.7858            0    2942.8814    18.240255    23.147243    22.009731    9292.7638    2277.9808    4787.8873     1762.776   -543.05699    831.32673   -600.05977   -3506.4627 
 8735000    224.23408   -4322.2307   -3937.9011   -4322.2307            0    3925.6101    17.825638    23.478254    21.950441    9186.5855    5070.6821    3361.9694    3344.1788   -134.42166    192.21044    448.86189     -3411.96 
 8736000    231.95303   -4327.5422   -3929.9826   -4327.5422            0    2888.0321    17.734363    23.751358    21.962368    9250.8833    3287.9356    3167.1346     2209.026    -1042.918    -18.39655    349.80949   -3540.3448 
 8737000    223.16904   -4312.4994   -3929.9953   -4312.4994            0    1498.3931    17.932356    23.558404    21.948887     9272.476    1259.9724    1286.5974    1948.6097    55.480011   -254.57839    740.74054   -3727.3683 
 8738000    224.31038   -4292.8021   -3908.3418   -4292.8021            0       2792.1    18.083532      23.2624    22.030781    9267.6086    2113.8798    3172.6696    3089.7507   -1242.4982   -10.057562    23.391151   -3530.9656 
 8739000     218.3991    -4287.631   -3913.3024    -4287.631            0    3015.6656    18.139233     23.03853    21.988916    9189.1959     3404.196    2868.3878     2774.413   -241.71593   -27.131947    -27.50176    -3509.158 
 8740000    225.85426    -4307.972   -3920.8656    -4307.972            0     2991.241    18.082475    23.206357    22.076074    9263.7468    663.51206    4077.5052    4232.7057    639.94077    240.79578   -1161.2197   -3516.7422 
 8741000    228.02527    -4335.944   -3945.1165    -4335.944            0    2062.2017    17.826412    23.601794    21.990536     9252.195    2669.1502    2044.4447    1473.0101    510.42854    605.14488    259.87558   -3666.8558 
 8742000    236.84571   -4321.9662   -3916.0207   -4321.9662            0    2665.8126     17.89957     23.50007    21.970099    9241.5276    4011.2401    1853.6146     2132.583     194.9153   -626.56871     591.0245   -3556.7273 
 8743000    232.95711   -4296.7255   -3897.4449   -4296.7255            0    2832.3071    17.985447    23.266485    22.129893    9260.4336    2859.0557     4822.266    815.59965   -240.57112   -161.53817    276.73894   -3514.9308 
 8744000     220.3148   -4289.5819   -3911.9699   -4289.5819            0    2835.8214    18.314071    23.056924    21.891664    9244.1084    2956.0732    3605.8483    1945.5427    1127.4911   -224.96971   -765.42958   -3529.6563 
 8745000    239.11311   -4300.9538   -3891.1221   -4300.9538            0    2777.7811    18.110362    23.173924    22.030732    9246.0374    1550.9139     2546.344    4236.0853    234.09562    844.97879   -283.28205   -3516.5551 
 8746000    220.45349   -4296.1825   -3918.3328   -4296.1825            0    2142.2347    17.940386    23.348756    22.010597    9219.9243    2827.1093    2412.8185    1186.7764    174.50891    -1178.821    645.30762   -3630.2812 
 8747000      222.548   -4312.4125   -3930.9729   -4312.4125            0    2766.6864    17.692755    23.920084    21.889181    9263.7681    2731.5126    927.08228    4641.4644   -367.13095   -802.96322   -567.47025   -3557.1865 
 8748000    236.13999   -4299.3932   -3894.6573   -4299.3932            0    2184.0054    17.908822    23.480595    21.941943    9226.8021    2280.9619    1557.5781    2713.4762   -924.82413   -270.79726   -72.403202     -3600.77 
 8749000    222.35374   -4322.0867     -3940.98   -4322.0867            0    3067.9227    17.978917    23.148595    22.145383    9216.6133    2911.2284    3246.5343    3046.0055    94.962293    -146.0538   -550.49192   -3528.6056 
 8750000    236.58023   -4292.4135   -3886.9231   -4292.4135            0    2537.3902    18.128176    23.363844    21.841514    9250.8399    2216.1911    1486.7194    3909.2599    447.23578   -183.68709    86.824275   -3544.5936 
Loop time of 412.006 on 64 procs for 250000 steps with 864 atoms

Performance: 104.853 ns/day, 0.229 hours/ns, 606.787 timesteps/s
190.5% CPU use with 32 MPI tasks x 2 OpenMP threads

MPI task timing breakdown:
Section |  min time  |  avg time  |  max time  |%varavg| %total
---------------------------------------------------------------
Pair    | 17.534     | 25.131     | 33.46      | 106.9 |  6.10
Bond    | 0.8903     | 1.0551     | 1.6035     |  14.2 |  0.26
Kspace  | 201.67     | 212.37     | 220.95     |  38.6 | 51.55
Neigh   | 1.4383     | 1.5119     | 1.615      |   4.3 |  0.37
Comm    | 65.216     | 69.558     | 73.444     |  22.7 | 16.88
Output  | 0.67369    | 0.67399    | 0.67546    |   0.0 |  0.16
Modify  | 73.989     | 76.359     | 82.206     |  20.6 | 18.53
Other   |            | 25.35      |            |       |  6.15

Nlocal:        27.0000 ave          39 max          17 min
Histogram: 7 1 4 3 4 1 4 1 3 4
Nghost:        2126.47 ave        2237 max        2029 min
Histogram: 12 4 0 0 0 0 0 3 9 4
Neighs:        6577.19 ave        9739 max        4249 min
Histogram: 7 1 4 5 2 3 3 2 4 1

Total # of neighbors = 210470
Ave neighs/atom = 243.59954
Ave special neighs/atom = 2.0000000
Neighbor list builds = 5009
Dangerous builds = 0

unfix		3
unfix		2
unfix		1

write_data	data.final.${pid} nocoeff
write_data	data.final.0 nocoeff
System init for write_data ...
PPPM initialization ...
  extracting TIP4P info from pair style
  using 12-bit tables for long-range coulomb (../kspace.cpp:340)
  G vector (1/distance) = 0.37193812
  grid = 24 27 25
  stencil order = 5
  estimated absolute RMS force accuracy = 0.0031227592
  estimated relative force accuracy = 9.4040966e-06
  using double precision FFTW3
  3d grid and FFT values/proc = 4410 672
Last active /omp style is kspace_style pppm/tip4p/omp

write_restart   restart.lmp.${pid}
write_restart   restart.lmp.0
System init for write_restart ...
PPPM initialization ...
  extracting TIP4P info from pair style
  using 12-bit tables for long-range coulomb (../kspace.cpp:340)
  G vector (1/distance) = 0.37193812
  grid = 24 27 25
  stencil order = 5
  estimated absolute RMS force accuracy = 0.0031227592
  estimated relative force accuracy = 9.4040966e-06
  using double precision FFTW3
  3d grid and FFT values/proc = 4410 672
Last active /omp style is kspace_style pppm/tip4p/omp
Total wall time: 0:06:52
