#include		in.partitions
include		in.temp
variable        temperature equal 87.99
variable	tempDamp equal 100.0
include		in.pressure
variable        pressure equal 8101.0
variable        pressureDamp equal 1000.0 # This is 1 ps
include		in.seed
variable        seed equal 745823

units		real
atom_style	full
read_restart	restart.lmp.${pid}
read_restart	restart.lmp.1
Reading restart file ...
  restart file = 30 Jul 2021, LAMMPS = 30 Jul 2021
  restoring atom style full from restart
  orthogonal box = (0.017354265 -0.024559671 0.018245387) to (24.712647 24.754561 22.791755)
  4 by 4 by 2 MPI processor grid
  restoring pair style lj/cut/tip4p/long/omp from restart
  restoring bond style harmonic/omp from restart
  restoring angle style harmonic/omp from restart
  1920 atoms
  1280 bonds
  640 angles
Finding 1-2 1-3 1-4 neighbors ...
  special bond factors lj:    0        0        0       
  special bond factors coul:  0        0        0       
     2 = max # of 1-2 neighbors
     1 = max # of 1-3 neighbors
     1 = max # of 1-4 neighbors
     2 = max # of special neighbors
  special bonds CPU = 0.002 seconds
  read_restart CPU = 0.015 seconds
include 	in.setup
variable	out_freq equal 1000
variable	out_freq2 equal 10000
variable	out_freq3 equal 1000

timestep	2.0

neigh_modify    delay 7 every 1

include		in.tip4p
# This is TIP4P/Ice

# create groups ###
group ox type 2
640 atoms in group ox
group hy type 1
1280 atoms in group hy

# set charges - beside manually ###
set group ox charge -1.1794
Setting atom values ...
  640 settings made for charge
set group hy charge 0.5897
Setting atom values ...
  1280 settings made for charge

# ### TIP3P Potential Parameters ###
pair_style lj/cut/tip4p/long/omp 2 1 1 1 0.1577 8.5
pair_coeff 1 1*2 0.000 0.000
pair_coeff 2 2 0.21084 3.1668
bond_style  harmonic
bond_coeff  1 450 0.9572
angle_style harmonic
angle_coeff 1 55 104.52
kspace_style pppm/tip4p/omp 1.0e-5
pair_modify tail yes

thermo          ${out_freq}
thermo          1000
thermo_style    custom step temp pe etotal epair emol press lx ly lz vol pxx pyy pzz pxy pxz pyz enthalpy

restart 	${out_freq3} restart.lmp.${pid} restart2.lmp.${pid}
restart 	1000 restart.lmp.${pid} restart2.lmp.${pid}
restart 	1000 restart.lmp.1 restart2.lmp.${pid}
restart 	1000 restart.lmp.1 restart2.lmp.1


include         in.dump
dump            myDump all atom ${out_freq2} dump.water.${pid}
dump            myDump all atom 10000 dump.water.${pid}
dump            myDump all atom 10000 dump.water.1
dump            myDump2 all dcd ${out_freq2} dump.dcd
dump            myDump2 all dcd 10000 dump.dcd
dump_modify     myDump append yes
dump_modify     myDump2 append yes


variable natoms 	equal  "count(all)"                        # NUMBER ATOMS
variable H      	equal  "enthalpy/v_natoms"                 # ENTHALPY-per-atom
variable Vol      	equal  "vol/v_natoms"                 # volume-per-atom
fix AVG all 		ave/time ${out_freq} 1 ${out_freq} v_Vol v_H file vol_enthalpy.dat
fix AVG all 		ave/time 1000 1 ${out_freq} v_Vol v_H file vol_enthalpy.dat
fix AVG all 		ave/time 1000 1 1000 v_Vol v_H file vol_enthalpy.dat




fix 		1 all shake 1e-6 200 0 b 1 a 1
       0 = # of size 2 clusters
       0 = # of size 3 clusters
       0 = # of size 4 clusters
     640 = # of frozen angles
  find clusters CPU = 0.000 seconds
fix             2 all nph aniso ${pressure} ${pressure} ${pressureDamp}
fix             2 all nph aniso 8101 ${pressure} ${pressureDamp}
fix             2 all nph aniso 8101 8101 ${pressureDamp}
fix             2 all nph aniso 8101 8101 1000
fix             3 all temp/csvr ${temperature} ${temperature} ${tempDamp} ${seed}
fix             3 all temp/csvr 87.99 ${temperature} ${tempDamp} ${seed}
fix             3 all temp/csvr 87.99 87.99 ${tempDamp} ${seed}
fix             3 all temp/csvr 87.99 87.99 100 ${seed}
fix             3 all temp/csvr 87.99 87.99 100 745823


run             250000
PPPM initialization ...
  extracting TIP4P info from pair style
  using 12-bit tables for long-range coulomb (../kspace.cpp:340)
  G vector (1/distance) = 0.37512739
  grid = 30 30 30
  stencil order = 5
  estimated absolute RMS force accuracy = 0.0031934861
  estimated relative force accuracy = 9.6170886e-06
  using double precision FFTW3
  3d grid and FFT values/proc = 5400 960
Last active /omp style is kspace_style pppm/tip4p/omp
Neighbor list info ...
  update every 1 steps, delay 7 steps, check yes
  max neighbors/atom: 2000, page size: 100000
  master list distance cutoff = 10.8154
  ghost atom cutoff = 10.8154
  binsize = 5.4077, bins = 5 5 5
  1 neighbor lists, perpetual/occasional/extra = 1 0 0
  (1) pair lj/cut/tip4p/long/omp, perpetual
      attributes: half, newton on, omp
      pair build: half/bin/newton/omp
      stencil: half/bin/3d
      bin: standard
Per MPI rank memory allocation (min/avg/max) = 10.55 | 10.56 | 10.57 Mbytes
Step Temp PotEng TotEng E_pair E_mol Press Lx Ly Lz Volume Pxx Pyy Pzz Pxy Pxz Pyz Enthalpy 
 1750000    88.874644   -9826.6646   -9487.8339   -9826.6646            0    6647.2637    24.695292     24.77912    22.773509    13935.739    6871.4817    6481.3801    6588.9294   -325.76407   -95.703254   -326.42325   -8136.8543 
 1751000    86.135653   -9820.4231   -9492.0347   -9820.4231            0    8307.8437    24.695824     24.67923     22.75006    13865.568    8095.6236      8841.28    7986.6275    136.11553    79.554799    696.90096   -7812.0634 
 1752000    88.077171   -9822.8472   -9487.0569   -9822.8472            0    8494.8927    24.631441    24.798187    22.687198    13857.683    8922.5752    7408.2732    9153.8298    130.44905   -355.38762    5.3212862   -7770.2382 
 1753000    90.213739   -9835.6555   -9491.7195   -9835.6555            0    8061.4747    24.720385    24.710434    22.723334    13880.581    8122.8736    7573.0204      8488.53   -85.310952    119.75059    381.36839   -7859.8027 
 1754000    86.090201   -9833.3541    -9505.139   -9833.3541            0    7229.5859    24.689316    24.763191    22.742546     13904.48    7443.1731    7088.6064    7156.9782    -254.6558   -164.15955    543.14659   -8039.1049 
 1755000    87.875973   -9817.3638   -9482.3405   -9817.3638            0    8223.9527    24.639258    24.749999    22.747916    13872.171     8064.765    8558.1356    8048.9575   -306.52572   -154.32642   -209.73697   -7818.5413 
 1756000    88.584298   -9813.5458   -9475.8221   -9813.5458            0    7620.0726     24.71614    24.723685    22.750189    13902.051     7550.477    7787.3195    7522.4213   -216.46898   -74.804974    189.06493   -7930.8741 
 1757000    87.416345   -9828.9171   -9495.6461   -9828.9171            0    8420.8597    24.693689    24.667833    22.746771    13855.964    8318.3334    8482.5007    8461.7449    -8.356375     461.0882   -28.022396   -7794.0007 
 1758000    88.058792   -9835.1479   -9499.4276   -9835.1479            0    7646.9933    24.681647    24.736764     22.75285    13891.618    8294.8167    7395.1982    7250.9648   -627.33475   -762.92466   -148.28712    -7950.185 
 1759000    90.208381   -9813.8759   -9469.9604   -9813.8759            0    9085.7501    24.622174    24.720446    22.741663    13842.194    9581.7868    9154.5328    8520.9308    109.43006    65.395474    793.43017   -7635.7818 
 1760000    88.808434    -9821.784   -9483.2057    -9821.784            0     8505.108    24.740262    24.651065    22.749543     13874.35    8131.3946    8647.6903     8736.239    174.95492     12.11948   -17.427775   -7762.2553 
 1761000    85.146574    -9817.387   -9492.7694    -9817.387            0    7583.3597    24.597259    24.846277    22.746735    13901.674    8793.9533    6344.3401    7611.7858    17.339735   -174.40744    408.96103   -7955.3065 
 1762000    91.667805   -9822.9146   -9473.4352   -9822.9146            0    8003.4199    24.745327    24.671205    22.749512     13888.51    7021.7672    9006.2369    7982.2556    49.950347   -519.84826   -384.56767   -7852.3451 
 1763000    89.608093   -9820.4623   -9478.8353   -9820.4623            0    8141.8611     24.67708    24.737414    22.743265    13883.561    8275.4002    8044.0025    8106.1804   -66.941223    0.4042659    195.36123   -7830.2917 
 1764000    85.011204   -9831.9903   -9507.8888   -9831.9903            0    7258.5343    24.674181    24.765467    22.774646    13916.848    7682.5197     7087.527    7005.5561    -691.4386   -156.06437    292.48605   -8034.6752 
 1765000    89.706516   -9831.3103   -9489.3081   -9831.3103            0    8765.8433    24.726788    24.653008    22.720489    13850.176    8016.4937    9243.5127    9037.5236    73.935297   -357.75342     503.1966   -7718.6901 
 1766000    90.184035   -9831.0401   -9487.2175   -9831.0401            0     8243.061    24.685838    24.711547    22.755117    13881.195    7894.2719    8445.5582    8389.3528   -12.151935   -757.00856   -306.35178   -7818.4675 
 1767000    88.943594   -9825.3728   -9486.2792   -9825.3728            0    7980.3717    24.774981    24.595481    22.804197    13895.796    6853.9013    9263.0192    7824.1945   -428.73813   -646.25257   -307.49647   -7869.0096 
 1768000    88.290643   -9837.8759   -9501.2717   -9837.8759            0      8198.97    24.602735    24.714271    22.795572    13860.589    8927.7778    7993.5878    7675.5445     365.2536   -288.69236    208.37231   -7843.9116 
 1769000    87.954271   -9831.1559   -9495.8341   -9831.1559            0    7967.0897    24.690779    24.664525    22.806174    13888.648    8369.2419    8234.3127    7297.7146    12.836533    191.66609    177.00047   -7882.0866 
 1770000     89.12598   -9838.9833   -9499.1944   -9838.9833            0    7780.2562    24.731575    24.695565    22.743204    13890.644    7132.2006    7949.3181      8259.25    62.767508     135.9339   -24.405193   -7923.0639 
 1771000    87.750683   -9825.6103   -9491.0647   -9825.6103            0    8519.6505    24.612665    24.788095    22.703157    13851.221    8841.0511    7855.9544    8861.9461   -948.49338   -267.79087    317.44216   -7770.0454 
 1772000    88.104169   -9813.7332   -9477.8399   -9813.7332            0     8309.713    24.689318    24.718553    22.719218     13865.18    8230.3163     8495.782    8203.0406   -945.41205    226.49584   -244.84719   -7797.5376 
 1773000    87.587691   -9837.6263   -9503.7021   -9837.6263            0    8916.0945     24.62755    24.739886    22.720946    13843.481    8845.0861    8537.4059    9365.7916    -36.58467     -100.789    607.74092   -7703.6052 
 1774000    92.694665   -9821.6941   -9468.2998   -9821.6941            0    7604.6996    24.736563    24.642022    22.813424    13906.126    7634.0015     8523.025    6657.0723    40.644094   -98.901648   -71.311714   -7926.0166 
 1775000    89.331863   -9826.8568    -9486.283   -9826.8568            0    8299.1809    24.649773    24.721345    22.755554    13866.678     8721.311    8148.4779    8027.7539   -79.041667   -231.15018    111.80824    -7807.929 
 1776000    88.516954   -9823.7594   -9486.2924   -9823.7594            0    7199.7522    24.676787    24.758607    22.807786     13934.71     7584.458    6915.1027     7099.696    65.760727    299.45617    494.68039   -8023.1339 
 1777000    88.910353    -9823.671   -9484.7042    -9823.671            0    8409.7224    24.729499    24.728437    22.663658    13859.322    7707.4119     8496.374    9025.3812    3.4430445   -627.21586    465.87011   -7784.8975 
 1778000    88.746096   -9834.9015   -9496.5609   -9834.9015            0    7691.0664    24.687669    24.768662    22.710709    13887.156     7896.766    7200.1239    7976.3093    78.533413   -213.52596   -45.829546   -7938.8898 
 1779000    84.781893   -9824.8028   -9501.5756   -9824.8028            0    8026.3126    24.727823    24.709778    22.736088    13892.183    7234.3013    8375.5327    8469.1037    200.81783   -864.47173    374.39527   -7875.4187 
 1780000    90.908649   -9828.3232    -9481.738   -9828.3232            0    8120.1378    24.693683    24.711107    22.743843    13878.481    7696.7955    8443.6083    8220.0095    121.07512   -272.43057    645.21313   -7838.1945 
 1781000    91.758256   -9824.3965   -9474.5722   -9824.3965            0    7968.5085    24.765564    24.723985    22.672524    13882.465    6965.0817    8346.4772    8593.9667   -574.28726    -221.2735    301.40437    -7861.256 
 1782000    88.996844   -9812.5413   -9473.2447   -9812.5413            0    8398.5353    24.705192    24.782838    22.659881    13873.847    8570.4883    7842.0668    8783.0507   -395.98168   -536.36152   -153.36992   -7773.9201 
 1783000    88.649581   -9818.8729   -9480.9002   -9818.8729            0     8592.705    24.665256     24.71689    22.722951    13853.011    9477.6917    7915.9591    8384.4641  -0.97228016   -323.07757   -126.73663   -7744.8992 
 1784000    87.552076    -9837.986   -9504.1976    -9837.986            0    8005.0905    24.686428    24.726375    22.731132    13875.216    7711.7945    8467.9811    7835.4958    124.24348   -336.24281    195.08447   -7884.3211 
 1785000    86.269582   -9830.9335   -9502.0345   -9830.9335            0    9021.4099    24.608577    24.788842    22.680207    13835.337    9430.7978    8546.9462    9086.4859    -238.9621   -401.96611    95.308003   -7681.7467 
 1786000    85.856338    -9823.474   -9496.1505    -9823.474            0    7553.4989    24.791684    24.678285     22.72934    13906.179    6805.9986    8221.8223     7632.676    340.92874     249.7638    251.28349   -7964.2453 
 1787000    86.722967   -9818.6175     -9487.99   -9818.6175            0    8168.4043    24.653161    24.784821    22.724046    13884.941    8188.4439    7344.7277    8972.0414   -304.65679    -412.9942   -17.624053   -7833.9075 
 1788000    86.742099   -9812.4126   -9481.7122   -9812.4126            0    8424.9592    24.732283    24.643272    22.752726    13867.431    8224.8073    8610.8367    8439.2335   -394.62446   -61.510569    897.79479   -7777.8295 
 1789000    84.800721   -9820.8927   -9497.5937   -9820.8927            0    7964.5164     24.61496    24.726861    22.813897    13885.694    7899.6007    8084.4517    7909.4969     245.1896    160.76903   -1.1961991   -7884.7106 
 1790000    87.722029   -9832.1344    -9497.698   -9832.1344            0    7945.7113    24.695029    24.723031    22.749676    13889.495    8004.5911    7383.8524    8448.6903   -412.59727    234.45718    247.86328   -7888.1826 
 1791000    85.529695   -9828.2887   -9502.2105   -9828.2887            0    9057.3336    24.660047    24.687779    22.717336    13830.355    8965.8811    9257.0871    8949.0326    178.03926   -397.81935    345.15668   -7675.3324 
 1792000     87.18425   -9827.9354   -9495.5493   -9827.9354            0    8019.8458     24.71152    24.720976    22.721647    13880.492    8433.9061    7601.6773    8023.9539   -706.59947   -150.18583    292.91774   -7872.0699 
 1793000    91.610972   -9836.6117   -9487.3489   -9836.6117            0    7231.5232    24.653401    24.828305     22.73702    13917.379    7252.5419    6568.3429    7873.6848    421.37021    527.94865    498.46957   -8019.5616 
 1794000    87.426213   -9823.1083   -9489.7997   -9823.1083            0    8962.6186     24.71401    24.631177    22.752954    13850.523    8388.9339    9713.1948    8785.7271   -311.09971   -348.63916    112.54152   -7679.3895 
 1795000    86.001676   -9835.9167   -9508.0391   -9835.9167            0    8200.6297    24.719365    24.632755     22.77169    13865.819    7602.2626    9535.3057    7464.3209   -680.44025   -1103.7745   -514.17427    -7849.718 
 1796000    89.523843   -9813.4626   -9472.1569   -9813.4626            0    8416.9506    24.613949      24.7888    22.731206    13869.451    9122.4279    7955.2227     8173.201    225.46658   -327.26587   -17.073661   -7769.6458 
 1797000    87.987491   -9828.9778   -9493.5294   -9828.9778            0    8102.1093    24.745263    24.685878    22.710437    13872.864    7263.7093    8424.1151    8618.5035    104.31477   -33.377238    602.52875   -7854.2985 
 1798000    86.895434   -9826.0934   -9494.8084   -9826.0934            0    7902.2726    24.671542    24.739231    22.760459    13891.959    8163.3998    7963.6508    7579.7673    9.2877394    214.80241   -257.33717   -7893.8082 
 1799000      90.1564   -9825.8314   -9482.1141   -9825.8314            0    7819.1897     24.70385     24.77216    22.721194    13904.637    8024.6708    7586.2292     7846.669   -312.97898   -160.18031   -342.57485   -7896.5007 
 1800000    91.784929   -9827.6962   -9477.7701   -9827.6962            0     8544.513    24.655203    24.737602    22.730129    13863.347    8756.8801    8564.3429    8312.3161   -707.51319    -531.7576    213.36136   -7750.2175 
 1801000    88.841536   -9831.9905   -9493.2861   -9831.9905            0    7294.6234    24.759405    24.760349    22.703476      13918.4    6796.2093    7403.3544    7684.3066   -175.22173  -0.45903756    158.22861   -8012.5826 
 1802000    87.933664   -9821.3594   -9486.1161   -9821.3594            0    8590.0528    24.634331    24.737465    22.753145    13865.559    8834.9603    8364.2478    8570.9503    195.39276    322.43117    423.47779    -7749.079 
 1803000    88.334843   -9827.3524   -9490.5797   -9827.3524            0    8155.1348    24.784136    24.651597    22.714947    13878.118    6632.3913    9457.7813    8375.2317    189.41731     443.4698    338.70234   -7839.9958 
 1804000    86.618202    -9816.748     -9486.52    -9816.748            0    7727.4673    24.671878    24.810506    22.711422    13902.156    8331.2133    6413.6386      8437.55    155.94105    108.11772    53.788869   -7919.7862 
 1805000    87.007657   -9816.1578   -9484.4449   -9816.1578            0    7507.7601    24.713505    24.747492    22.743764    13910.024    7030.1241    7932.4294    7560.7267   -92.487497   -510.52918    242.18429   -7961.3949 
 1806000    90.169546    -9823.756   -9479.9886    -9823.756            0    7924.4557    24.635301    24.770509    22.764774    13891.724    8434.6403    7723.0203    7615.7064   -298.97361    259.45504   -524.81427   -7874.5212 
 1807000    87.208676   -9822.4506   -9489.9713   -9822.4506            0    7478.5653    24.694286    24.661888    22.840594    13910.097    7481.8172    8089.7256     6864.153    361.54484   -407.25044    103.75587   -7972.8359 
 1808000    87.634921   -9834.3104   -9500.2061   -9834.3104            0    7603.0873    24.731665    24.658144    22.804149    13906.813    7013.6038    8188.4589    7607.1991   -609.94628    326.51496    264.44925   -7958.1738 
 1809000    87.252647   -9822.3392   -9489.6923   -9822.3392            0    8231.6176    24.649091    24.737598    22.778065    13889.137     8475.555    7785.6314    8433.6664   -219.98945    282.65968   -98.600106   -7822.3056 
 1810000    84.197472   -9821.1662   -9500.1671   -9821.1662            0    8548.5307    24.648451    24.671485    22.788185    13857.812    8819.2548    8926.9328    7899.4046   -24.407478    180.69199   -31.409602   -7772.4921 
 1811000    87.349846   -9835.2354    -9502.218   -9835.2354            0    7457.9543    24.662205    24.753175    22.776033    13904.036    8334.8611    6693.8596    7345.1422    315.19567   -383.52018     204.0146    -7989.923 
 1812000    90.933705    -9840.105   -9493.4243    -9840.105            0     7631.821    24.677919    24.706451     22.80628    13905.076    7693.0076     7108.647    8093.8084   -634.98435   -798.69303    247.41828   -7945.7576 
 1813000    90.421214   -9819.9279    -9475.201   -9819.9279            0    7965.5012    24.617894    24.698794      22.8595    13899.314    8229.4268    8647.4407    7019.6362    179.21592   -101.33448   -120.73575   -7860.5363 
 1814000    91.163549   -9834.2725   -9486.7155   -9834.2725            0    8277.1537    24.656718    24.706995     22.77266    13872.954    8430.5458    7994.8506    8406.0646   -114.86976    698.51999    867.25788   -7812.0585 
 1815000    86.426874   -9837.8305   -9508.3319   -9837.8305            0    8164.8068    24.643064    24.723658    22.773998    13875.438    8277.2931    8159.1114    8058.0158    240.98484   -560.72322    539.79288   -7856.1095 
 1816000    89.827914    -9810.447    -9467.982    -9810.447            0    8212.4293    24.679506    24.775655    22.717864    13890.859    8050.1463    7868.5499    8718.5917    88.274832    12.158749    226.35806   -7804.2758 
 1817000    85.444149   -9828.6761    -9502.924   -9828.6761            0     8328.159    24.704576    24.765172    22.673558    13871.979    8858.7978    6551.3209    9574.3582    302.92317   -453.74831    603.98077   -7818.0659 
 1818000    85.366496   -9825.4268   -9499.9707   -9825.4268            0    8676.8989    24.683557     24.73675    22.687319    13852.672    9355.8682    8664.9746    8009.8539    677.11153   -120.84892    -24.76074   -7747.0028 
 1819000    87.426613   -9835.7126   -9502.4024   -9835.7126            0     8438.179      24.7231    24.663185    22.716176    13851.197    8117.2653    8620.9962    8576.2755   -151.78304   -80.529276    191.66267   -7797.8439 
 1820000    85.950653   -9826.8465   -9499.1634   -9826.8465            0    8530.4879    24.598293    24.758475     22.76618    13864.973    9212.7571    7887.0879    8491.6187   -382.19153   -105.58315    285.41879   -7774.2441 
 1821000    91.103309    -9837.167   -9489.8397    -9837.167            0    7845.7259    24.673363    24.674271    22.802326    13881.994    7687.7718     7937.674    7911.7319    90.558283   -330.89096   -156.93026   -7901.4361 
 1822000    87.351535   -9811.9824   -9478.9585   -9811.9824            0    7971.7908    24.594635     24.75853    22.820965    13896.302    8570.4924    7993.0478    7351.8321   -168.66987   -358.06515   -741.36808    -7863.369 
 1823000    85.531808   -9836.6912   -9510.6049   -9836.6912            0    8851.8598    24.659395    24.703726    22.723446    13842.645    9106.2766    8603.3307    8845.9722    64.992024   -773.99437   -68.332752   -7723.5846 
 1824000    90.082315   -9827.1809    -9483.746   -9827.1809            0    8103.5967    24.717731    24.670794    22.775415    13888.586    7876.9797    8477.3006    7956.5098    366.67235   -88.648295    607.52323   -7842.3561 
 1825000     89.07573   -9816.0191   -9476.4218   -9816.0191            0    8028.3811    24.653902    24.787149    22.730409    13890.551    8287.2683    7345.5319    8452.3433    118.07727    155.43239    527.61895   -7850.0368 
 1826000    88.830706   -9831.3186   -9492.6555   -9831.3186            0    8186.3842    24.756426    24.686745    22.704462    13875.959    7643.4923    8693.3152     8222.345   -171.40337   -746.51338    206.82784   -7836.0045 
 1827000    86.528216   -9835.7311   -9505.8461   -9835.7311            0    7653.1319    24.696848    24.754992    22.735447    13899.777    7983.6675    7116.6767    7859.0517   -567.64502    300.17614   -112.98167   -7954.4492 
 1828000    91.277779   -9818.7943   -9470.8018   -9818.7943            0     9330.851    24.669035    24.675094    22.719968    13829.889    9163.7705    9315.0718    9513.7108   -21.528598    314.49177    903.44654   -7588.8182 
 1829000    87.825485   -9830.9863   -9496.1555   -9830.9863            0    7783.1577    24.688533     24.66891    22.805278    13889.309    7685.1475    7896.7805     7767.545   -54.353949    547.90486    230.71549   -7919.5888 
 1830000    90.361759   -9836.1414   -9491.6412   -9836.1414            0    7767.9771    24.637871    24.695126    22.820937    13885.064    8676.0895    7655.9778    6971.8641   -539.80817    125.22328    124.33227   -7918.6303 
 1831000    88.197888   -9814.7119   -9478.4614   -9814.7119            0    7932.6193    24.682011    24.619684     22.86104    13891.816    8824.9397    8514.7692     6458.149   -126.08401   -105.45715    361.57648   -7871.3295 
 1832000    87.510861   -9827.5355   -9493.9042   -9827.5355            0    7952.1821    24.643417    24.754942    22.768789    13890.017     8757.463    7601.4162    7497.6671   -549.19441   -290.39325   -297.95863   -7883.0175 
 1833000    84.294168   -9838.3203   -9516.9525   -9838.3203            0    6976.4217    24.746799    24.691908    22.797636    13930.397    6900.5608    7237.3556    6791.3489   -163.74041    319.24532    306.81254   -8099.6189 
 1834000    88.208378    -9812.822   -9476.5315    -9812.822            0    8582.7232    24.635681    24.745669    22.747619     13867.55    9307.6565     7996.232     8444.281   -302.07656    183.53126    164.90881   -7740.7273 
 1835000    84.807485    -9817.538   -9494.2132    -9817.538            0    7814.7408     24.82199    24.590661    22.759372    13892.074    7543.7984    8789.3963    7111.0277   -90.326174    111.94135   -234.54944   -7910.9338 
 1836000    88.117605   -9825.2049   -9489.2604   -9825.2049            0    7653.7672    24.677067    24.727652    22.779563    13900.224     8044.107    7537.3951    7379.7995    -492.4806   -706.67867    376.46578   -7937.6848 
 1837000    87.500566    -9824.479    -9490.887    -9824.479            0    7973.4786    24.655652     24.79176    22.719078    13887.196    8827.9226    7294.5736    7797.9397    79.218008   -309.88531   -307.53931   -7876.0143 
 1838000    90.628334   -9819.7285   -9474.2119   -9819.7285            0    8430.8525    24.776492    24.713016    22.650112    13868.706    8070.3027    8062.5022    9159.7526   -119.03968   -653.46564   -172.74257   -7768.9806 
 1839000    86.192744   -9837.1829   -9508.5769   -9837.1829            0    7757.4247    24.687759    24.768751    22.708052    13885.632    7523.1008    7497.4537    8251.7194   -353.80465   -215.37685   -198.36412   -7937.6386 
 1840000    90.750695   -9831.1095   -9485.1264   -9831.1095            0    8124.0992    24.656435    24.727969    22.766006    13880.515    8021.4144    8182.9918    8167.8915   -131.72127   -561.63396    339.95964     -7840.54 
 1841000    86.622795   -9832.3822   -9502.1366   -9832.3822            0    8525.3282    24.643992    24.698416    22.756356    13851.056    8671.3707    8488.1332    8416.4807    342.07438    9.6411349    654.78106    -7779.991 
 1842000    88.816985   -9825.6907   -9487.0798   -9825.6907            0    7964.6237    24.691417    24.694468     22.77335    13885.854    7674.2674    8924.3694    7295.2342   -455.93413   -230.03124   -423.26195   -7874.1564 
 1843000       89.518   -9820.5381   -9479.2547   -9820.5381            0    9629.8083    24.613364    24.690803    22.735037    13816.621    10106.496    9289.0578    9493.8712   -434.85726    543.98793    217.31466   -7538.8364 
 1844000    87.723838   -9828.9046   -9494.4613   -9828.9046            0    7661.5339    24.720029    24.735799    22.746299    13908.672    7332.3249    7911.1067    7741.1702   -299.04764    308.31723   -315.18332   -7940.3674 
 1845000    84.141838   -9825.9501   -9505.1631   -9825.9501            0     9053.475    24.649102     24.71085    22.752242    13858.396    9730.1288    8235.8701    9194.4262    290.55388   -834.74978    131.86869   -7675.3607 
 1846000    88.124969   -9823.5204   -9487.5479   -9823.5204            0    8982.6468    24.684845     24.78523    22.632773    13847.173    9244.5732    8193.6429    9509.7242   -138.15284   -79.560801    489.07998   -7673.5309 
 1847000    90.538943   -9827.0537   -9481.8779   -9827.0537            0    8577.5215    24.708521    24.738774    22.668567    13856.355     8561.183    8260.6825    8910.6991   -214.95576   -622.06084    111.66267   -7748.5262 
 1848000    86.766055   -9844.1474   -9513.3556   -9844.1474            0    7494.4937    24.745568    24.726524    22.712934    13897.405    6821.8262     7635.973     8025.682   -479.08057   -90.639824    161.58209   -7994.3762 
 1849000    88.787357   -9821.6822   -9483.1843   -9821.6822            0    8337.0025    24.679457    24.741036    22.731848     13879.96    8470.7759    8009.2719    8530.9598   -770.09859   -341.22443   -607.89721   -7795.5667 
 1850000    88.010427   -9835.8781   -9500.3422   -9835.8781            0    8815.5781    24.663095    24.689244    22.740894     13847.23    9108.8476    8327.9459    9009.9406    73.122992    199.28661   -122.74974    -7720.057 
 1851000    89.241733   -9834.4897   -9494.2595   -9834.4897            0    8704.7602    24.647892    24.667185    22.789998    13856.185    8952.6921    8893.3336    8268.2549    293.33861   -4.4794003    61.367437   -7735.2169 
 1852000    89.687718    -9819.152   -9477.2216    -9819.152            0    8777.6039    24.635465    24.675787    22.786198    13851.719    8291.1075    9804.9486    8236.7554    287.48613   -474.33404   -636.38839   -7704.0305 
 1853000    88.782877   -9832.8457   -9494.3649   -9832.8457            0    7252.2892     24.69584    24.704789    22.824447    13925.321    7552.0214    7305.7182    6899.1281    142.45809    -633.2517     42.98681   -8021.5226 
 1854000    88.610728   -9830.9416    -9493.117   -9830.9416            0    8076.3653    24.657935    24.710816    22.785831     13883.81    7990.5012     8509.125    7729.4695   -427.92868    -579.5702    535.06892   -7857.8055 
 1855000    85.423543    -9813.842   -9488.1685    -9813.842            0    7601.0438    24.700831    24.716438    22.774986    13904.506    7884.1329    7995.3003    6923.6984   -390.89981    164.31063   -234.19348   -7946.8064 
 1856000    86.697011   -9832.6483   -9502.1198   -9832.6483            0    8125.4714    24.674431     24.70607      22.7665    13878.645    8097.3243     8316.015    7963.0748    -877.5451   -225.96907    436.06386   -7857.4772 
 1857000    89.989902    -9837.102   -9494.0195    -9837.102            0    7128.7921    24.614344    24.723267    22.874725    13920.345    7981.4551    7126.9182     6278.003    179.19521    214.46898   -203.51469   -8046.7752 
 1858000    90.163793   -9838.0598   -9494.3143   -9838.0598            0    8051.3097    24.652815    24.677661    22.811136    13877.698    8036.5712    8610.3337     7507.024    477.48251   -120.34074   -137.44484   -7864.7937 
 1859000    89.115951   -9831.8642   -9492.1135   -9831.8642            0    9086.6375    24.661977    24.675946    22.739017    13838.001    9067.6448    9285.0631    8907.2046    351.43204   -147.37062   -572.07115   -7658.3114 
 1860000    88.121284   -9834.2899   -9498.3314   -9834.2899            0    8308.0726    24.640218    24.788708    22.714304    13873.878     8591.119    7969.0608    8364.0379   -560.08338   -516.93039   -62.073344   -7817.3069 
 1861000    88.243344    -9824.866   -9488.4421    -9824.866            0    8494.4983    24.689303    24.713678    22.725165    13866.066    8308.4225     8217.093    8957.9793    29.226518   -616.12928   -206.15515   -7770.6646 
 1862000    89.997264   -9829.3463   -9486.2357   -9829.3463            0    7962.3839    24.714402    24.773606    22.692573    13893.865    7652.8418    7151.6993    9082.6107   -391.62398   -33.432791    519.35377   -7872.8356 
 1863000    89.644866   -9831.0831    -9489.316   -9831.0831            0    8240.5671    24.701802    24.714825    22.718893      13869.9     8055.108    7975.4859    8691.1073    24.851036    12.333576   -107.45263   -7822.4284 
 1864000    90.647456   -9814.1567   -9468.5673   -9814.1567            0     8087.491    24.719121    24.734923    22.718822    13890.869    8252.2977    7928.1019    8082.0733    553.18582   -254.63676    271.29384   -7830.1705 
 1865000    90.456223   -9823.2551   -9478.3947   -9823.2551            0    7834.1985    24.735175    24.767647    22.697244     13905.06    7834.7051    7209.0358    8458.8546    147.81229   -329.61321    689.24704   -7889.6895 
 1866000    86.391958   -9829.9885   -9500.6229   -9829.9885            0    7997.8629    24.704342    24.739542     22.71708    13884.091    7750.2866    7658.7825    8584.5198   -126.90758   -41.669342    576.28505   -7881.1739 
 1867000    85.077073   -9830.4312   -9506.0786   -9830.4312            0    8723.6226    24.693401     24.71882    22.681991      13844.9    8717.8608    8171.0167    9281.9904    -419.8615    301.05407   -364.87232     -7744.66 
 1868000    85.392792   -9835.6005   -9510.0442   -9835.6005            0    8146.0476    24.759062    24.642246    22.736233    13871.805    7734.0914    8415.4617    8288.5896   -23.157105   -319.50834    348.78789   -7862.0495 
 1869000    88.661308    -9826.912   -9488.8947    -9826.912            0    8796.4229    24.662507    24.697497    22.744509     13853.73    9208.5793    8598.5989    8582.0904   -229.01737    463.41493    80.966713   -7711.6439 
 1870000    86.096983   -9821.3824   -9493.1414   -9821.3824            0    8926.2371    24.692964    24.690297    22.719383    13851.476    8727.8809    8732.7858    9318.0447   -394.45464    563.12259   -402.67496   -7689.9561 
 1871000    88.482679   -9838.6333    -9501.297   -9838.6333            0    7108.5783     24.73292    24.722556    22.773785    13925.281    7592.7711    7134.4693    6598.4944   -286.06295    -571.8679     257.1592   -8057.6447 
 1872000    90.132484   -9825.9812   -9482.3551   -9825.9812            0    7960.6484    24.693435     24.75179    22.718174      13885.5    8459.3836    7390.1454     8032.416     80.91858    300.12403    538.54394   -7870.2778 
 1873000    84.565287   -9826.7712   -9504.3698   -9826.7712            0    7510.3455    24.741279    24.701434    22.777562    13920.395    7084.3762    7792.8151    7653.8451   -351.50383    346.32124   -294.12447   -7979.6594 
 1874000    91.509134   -9825.6683   -9476.7937   -9825.6683            0    7874.4395    24.655656    24.723308    22.794899    13895.072    8645.8292    7660.8103    7316.6789   -354.88781    472.73685   -119.54345   -7881.0749 
 1875000      86.3997    -9806.705     -9477.31    -9806.705            0    8129.0001    24.700021    24.687049    22.780352     13890.79     8128.342    8481.3262    7777.3321    512.32199   -239.13707   -240.32994   -7830.5134 
 1876000    89.239916   -9827.8837   -9487.6604   -9827.8837            0    8634.5137     24.67146    24.717737    22.712718     13850.73    9076.0743    8196.7359    8630.7308   -171.06385   -333.13555    586.60287      -7743.5 
 1877000    88.877902   -9830.5111    -9491.668   -9830.5111            0    7376.0209    24.763897    24.691059    22.744549    13907.082     6449.398     8083.713    7594.9516    106.31972   -1104.2732    109.73986   -7995.6595 
 1878000     86.77683   -9827.4691   -9496.6363   -9827.4691            0     7757.871    24.688793    24.806316    22.683186    13892.045    7430.0388    7686.3238    8157.2505    486.55594    362.84563   -551.79208    -7924.882 
 1879000    89.827589   -9828.2772   -9485.8135   -9828.2772            0    8349.4621    24.691564    24.722389    22.708454    13862.023    8080.1289    8136.7898    8831.4676   -109.76304    125.35746   -517.29403    -7797.858 
 1880000    86.165403   -9830.9251   -9502.4233   -9830.9251            0    8257.6404    24.700785    24.730889    22.717613    13877.562     7814.116    8391.1761    8567.6291   -434.09375   -157.68245     1180.319   -7831.1594 
 1881000     87.32411    -9838.923   -9506.0036    -9838.923            0    7855.5495    24.657997    24.727296    22.777379    13887.951    7626.2368    7839.5568    8100.8548    183.01406    265.98728    649.29153   -7914.9287 
 1882000    85.519952   -9815.1566   -9489.1155   -9815.1566            0     8921.228    24.657639    24.677069     22.75497    13845.905    8684.5666    9174.5506    8904.5668    572.56436     804.4083    506.16648    -7687.667 
 1883000    85.042486   -9821.9071   -9497.6864   -9821.9071            0    7546.6112    24.672992    24.745407     22.77434    13904.719    8175.4509    7050.4838    7413.8989   -38.639216   -485.93212     164.6279   -7967.3388 
 1884000    87.439005   -9840.8073   -9507.4499   -9840.8073            0    8206.1896    24.687044     24.70864    22.751599    13878.095    8563.6002    7925.3154    8129.6534   -102.63762    609.77923    688.96115   -7846.5353 
 1885000    89.283262   -9852.3452   -9511.9567   -9852.3452            0    7302.6837    24.708634    24.751587    22.743011    13909.123    7171.5351    7339.5722    7396.9439    188.65534   -1342.6234     -12.0534   -8030.6052 
 1886000    88.068225   -9824.6969   -9488.9407   -9824.6969            0    8159.7933    24.723462    24.686256    22.741163    13879.607    7832.3197    8098.7383     8548.322   -350.37389    115.94404    104.94257   -7837.2366 
 1887000    88.640645   -9837.6454   -9499.7068   -9837.6454            0    7765.2156    24.651911    24.761344    22.759656    13892.823    8741.8135     7163.619    7390.2142   -31.714934   -782.40825   -547.03181   -7926.3765 
 1888000    88.383937   -9831.6631   -9494.7033   -9831.6631            0    7314.5775     24.74366     24.69577    22.784425    13922.736    7161.4623    7720.2588    7062.0114   -119.37093    181.86925   -162.56288   -8009.4869 
 1889000    84.939174   -9825.4967   -9501.6698   -9825.4967            0    8442.9202    24.665435    24.761931    22.690502    13858.537     8161.418    7876.9061    9290.4363     93.95816     45.48489    28.706451   -7795.2496 
 1890000    87.662786   -9825.2868   -9491.0763   -9825.2868            0    7989.9996    24.774611    24.723466    22.661452    13880.462    7533.5818    7895.6818    8540.7351   -397.90346    -1107.703    661.14228   -7873.6423 
 1891000    88.897692   -9844.0847   -9505.1662   -9844.0847            0    7796.8126    24.717705    24.735937    22.710764    13885.715    7562.1224    7782.4841    8045.8314   -275.17638   -1039.5779   -152.18332   -7926.2421 
 1892000    86.714404   -9832.6833   -9502.0885   -9832.6833            0    8753.0817    24.648385    24.712875    22.721994    13840.704    9056.2279    8628.5186    8574.4987    308.72771    24.355558    686.65491   -7735.2573 
 1893000    86.570997   -9819.2769   -9489.2287   -9819.2769            0    8576.5735    24.643198    24.755966     22.73044    13867.073    8932.0731    8087.3363     8710.311    126.34378   -691.23495    326.45361    -7754.728 
 1894000    89.508072   -9834.9988   -9493.7532   -9834.9988            0    7805.9029    24.723959    24.692395    22.754644    13891.568    7288.5379    7986.3083    8142.8626   -204.76826   -377.56001     276.9611    -7912.322 
 1895000    89.437645   -9812.2104   -9471.2333   -9812.2104            0    8100.5466    24.653249    24.766922    22.743228    13886.677    8620.0093    7681.9286    7999.7018   -294.41764   -118.63069    -388.3647   -7830.6868 
 1896000    87.207652   -9829.0274   -9496.5521   -9829.0274            0    7601.3623    24.682209     24.68897    22.804404     13896.51    7880.3824     8450.627    6473.0774   -271.28471    2.6755412   -701.42235   -7956.0118 
 1897000    87.312691   -9825.8669   -9492.9911   -9825.8669            0    8581.9286     24.64104    24.668748    22.793811    13855.528    9006.7651    8521.4972    8217.5234    -600.4042   -341.55039   -103.27563   -7758.8522 
 1898000    85.170098   -9834.1657   -9509.4585   -9834.1657            0    7700.5745    24.698584    24.714238    22.782537    13906.613     8049.932    6979.3909    8072.4008    58.976657    439.00523   -264.75103   -7947.6766 
 1899000    88.809998   -9832.9643     -9494.38   -9832.9643            0    7500.2588    24.711737    24.751318    22.740054     13908.91    7652.4767    7056.4409    7791.8588   -29.496697    567.04359    90.338358   -7972.9736 
 1900000    87.094847   -9832.9028   -9500.8575   -9832.9028            0    7948.2721    24.724633    24.750839     22.68879    13884.528    7911.0581    7259.8048    8673.9532   -127.40265    28.340488    463.85638   -7891.3992 
 1901000    89.925955   -9828.6485   -9485.8098   -9828.6485            0    8876.3193    24.677968    24.768954     22.66212    13852.163    9705.6988    8253.7265    8669.5324     296.8973    173.91529    -325.8365   -7692.6194 
 1902000    87.144103   -9832.9835   -9500.7504   -9832.9835            0    8407.1955    24.727993    24.716037    22.689889    13867.561    8522.9424    8380.3086    8318.3356     323.3883   -116.96802   -207.48119   -7800.4443 
 1903000    86.336143   -9810.7338   -9481.5811   -9810.7338            0    8342.9831    24.696855    24.723136    22.746374    13888.565    8648.5384    7980.3247    8400.0862    245.90567    212.94578    -820.8822   -7791.7059 
 1904000    87.320129   -9835.6746   -9502.7704   -9835.6746            0    8620.7471    24.669765    24.750341    22.690645    13854.569     8990.183    7931.2791    8940.7792   -304.43009     150.6856   -331.88209   -7760.9082 
 1905000     86.91015   -9823.3396   -9491.9984   -9823.3396            0    8387.8981    24.740805    24.745536    22.658616     13872.16     8414.815    8177.9931    8570.8863    154.19958   -250.83898   -563.06929   -7795.0325 
 1906000    82.518651   -9839.6971   -9525.0984   -9839.6971            0    8436.6377    24.689274    24.756407    22.690671     13868.94     8657.409    7762.2183    8890.2858    184.54062   -462.31722    636.08736    -7818.668 
 1907000    87.063253   -9822.4974   -9490.5726   -9822.4974            0    9266.1424    24.608368    24.774184    22.695118     13836.13    10316.807    7984.1024    9497.5183   -498.99256    286.90433    670.33164    -7620.797 
 1908000    90.281029   -9839.2072   -9495.0147   -9839.2072            0     7939.803     24.73151    24.686119    22.749946    13889.411    8427.9728    7655.1648    7736.2713    336.54961    192.03151   -572.08717   -7886.7059 
 1909000    90.598631   -9823.8627   -9478.4594   -9823.8627            0     8236.214    24.625635    24.716564    22.790244    13871.535    8723.8268     8371.708    7613.1074    17.356706    132.14824    127.19595   -7812.2559 
 1910000    87.053693   -9827.1308   -9495.2424   -9827.1308            0    7947.9485    24.669602    24.710103    22.783344    13888.463    8310.6292    7773.8975    7759.3188    491.45971    233.25557   0.89510295   -7885.3935 
 1911000    87.981933   -9844.1925   -9508.7653   -9844.1925            0    8160.6189    24.653544    24.715278    22.760842    13868.618    8387.8514    8408.8913    7685.1141   -368.12575   -304.62908   -401.62127   -7858.2021 
 1912000    85.507806   -9821.7472   -9495.7525   -9821.7472            0    8141.3518    24.755109     24.68108    22.718379    13880.539    7381.2378    8322.9282    8719.8894   -323.76392   -598.97802   -678.22201   -7847.6708 
 1913000    90.524362   -9825.4393   -9480.3192   -9825.4393            0    9220.6548    24.621942    24.683556    22.747961    13825.234     8228.905     9849.021    9584.0384   -296.15065    -140.6944   -196.05926   -7621.1875 
 1914000    84.772576   -9832.4023   -9509.2106   -9832.4023            0    7398.7482    24.719373    24.639818    22.836002    13908.972    7380.6693    7944.2204     6871.355   -531.33615   -319.31686    340.32831   -8008.3886 
 1915000    88.870584   -9828.0511   -9489.2359   -9828.0511            0    8657.4497    24.680355    24.743077    22.692309    13857.465    8774.1222    8502.3881    8695.8388   -649.18966   -475.17937    117.76114    -7739.592 
 1916000    88.386124   -9821.2109   -9484.2427   -9821.2109            0    7915.4522    24.704254    24.824088    22.648695    13889.551    7769.3422    7545.8718    8431.1426    -101.2455   -438.65103   -290.70616   -7880.8502 
 1917000    83.472397   -9830.9037   -9512.6688   -9830.9037            0    8003.6976    24.724136    24.732309    22.679873    13868.401    8077.7194    7815.2081    8118.1654   -75.691835    771.31972    361.74372   -7893.8697 
 1918000    88.258322   -9814.0227   -9477.5417   -9814.0227            0     7443.208    24.711624    24.728145    22.765747    13911.524    7387.1756     7820.418    7122.0304   -415.64439   -394.03399   -348.64987   -7967.4241 
 1919000    86.031206   -9820.4028   -9492.4126   -9820.4028            0     7788.151    24.740786    24.688981    22.766604    13906.407    7255.2935    8429.7538    7679.4057    461.43967   -261.17048   -421.63435   -7912.8924 
 1920000     85.89243   -9823.3576   -9495.8965   -9823.3576            0      8441.11    24.565302     24.78475      22.7822    13870.826    9518.0273    7385.7506    8419.5522     -162.457   -161.78541   -87.202966   -7788.3295 
 1921000    86.783958   -9825.6424   -9494.7824   -9825.6424            0    8150.9744     24.71208    24.646942    22.765459    13865.922    8121.3191    8951.6134    7379.9908   -13.838761   -603.48195   -395.63983   -7846.4903 
 1922000    87.690696   -9826.5854   -9492.2685   -9826.5854            0    8397.0901    24.590039    24.735778    22.784319    13858.647    8972.0207    8454.2864    7764.9632   -565.31803   -104.10646    105.86764   -7795.0977 
 1923000    85.734692   -9819.6026   -9492.7429   -9819.6026            0    8513.8652    24.709846    24.640939    22.776118    13867.782    8357.4882    8995.3871    8188.7202    283.31274    309.67472    2.8541772   -7770.8361 
 1924000    87.536874   -9839.0103   -9505.2798   -9839.0103            0    7748.7072    24.679755    24.697761    22.797669     13895.97    8571.5083    7453.5411    7221.0722   -209.99029   -813.88675    127.78083   -7934.9386 
 1925000     89.10809   -9832.5411   -9492.8205   -9832.5411            0    7379.7492    24.640026    24.740852    22.817381    13909.823    8033.5805    7036.3724    7069.2946   -245.19425   -415.12081   -80.548001   -7995.7608 
 1926000     87.57939   -9831.4362   -9497.5436   -9831.4362            0    8167.9152    24.731848    24.654659    22.748558    13871.053    7850.7063    8652.4596    8000.5796   -182.73781    297.64781    956.31463   -7845.2146 
 1927000    87.712691   -9819.4945   -9485.0938   -9819.4945            0    8152.5289    24.631299    24.772654    22.745449    13878.878    8423.5094    7234.5105    8799.5667   -264.93061    263.31075   -1.8327932   -7834.9469 
 1928000    90.056749   -9840.8378   -9497.5004   -9840.8378            0      8114.38    24.730376    24.708881     22.71228    13878.564    7670.2828    8266.9709    8405.8862   -609.14191    246.66789    319.49998   -7855.1124 
 1929000    89.798376   -9835.6162   -9493.2639   -9835.6162            0    8866.7449    24.670907    24.736153    22.671853    13835.801    8622.8438      9128.02    8849.3711    -27.02102   -444.42191   -157.43169   -7704.1236 
 1930000    85.556944   -9829.5891    -9503.407   -9829.5891            0    8284.3939     24.69415     24.72052    22.732476    13877.091    8570.7544    8175.3376    8107.0897    249.03547   -726.64742    798.15358   -7826.7854 
 1931000    88.229742    -9830.372        -9494    -9830.372            0     8559.608    24.656464    24.708818    22.764855     13869.08    8832.7511    8409.9527    8436.1201   -274.91771     470.5472    226.45323   -7762.6797 
 1932000    89.989244   -9819.3735   -9476.2934   -9819.3735            0    8829.6147    24.636772    24.695466    22.765177    13850.711    8598.5692    9362.4552    8527.8196    -582.0608    -189.9881    265.51025   -7692.7253 
 1933000    88.081101   -9831.9859   -9496.1806   -9831.9859            0    8024.9099    24.694072    24.673031    22.771526    13874.181    7721.8872    8316.1991    8036.6433   -387.71015    -444.3199    93.108094   -7872.4147 
 1934000    86.841686    -9822.777   -9491.6968    -9822.777            0    8187.9395    24.710906     24.64609    22.798393    13884.842    8126.8885    8728.7569    7708.1732   -248.68328   -211.63405   -71.203391   -7833.6704 
 1935000    91.138747   -9822.0279   -9474.5655   -9822.0279            0    7401.9372    24.721401    24.723425    22.756276    13908.584    7742.3747    6723.4533    7739.9836   -303.26916   -527.55798    236.64125   -7973.1386 
 1936000    89.718515   -9817.9528   -9475.9049   -9817.9528            0    8285.9034    24.769138    24.747565    22.622935    13867.313    7494.3824    8378.2823    8985.0454     97.83522    274.28159    653.75217   -7800.1594 
 1937000    88.516648   -9846.6752   -9509.2093   -9846.6752            0    8379.6795    24.697544    24.745258    22.675899     13858.31    7817.5023    8758.0522     8563.484    261.80994   -517.07843   -460.21025   -7815.5987 
 1938000    90.129234   -9822.8817    -9479.268   -9822.8817            0    7774.5943    24.750692    24.764863    22.666045    13893.096     7239.122    8022.5706    8062.0904   -38.528211   -381.80133   -1.3640416   -7904.0065 
 1939000    85.726486   -9837.9075    -9511.079   -9837.9075            0    7659.7226    24.731799    24.726493    22.714998    13890.917    7345.8181    7784.3432    7849.0066   -481.25591   -267.82791    42.381221   -7959.3358 
 1940000    89.566503   -9812.9533   -9471.4849   -9812.9533            0    8850.9961    24.684494    24.720739    22.682846    13841.502      8436.08    8816.1422    9300.7662    -359.8481   -291.53937    49.092873   -7684.7865 
 1941000    88.244096   -9825.0888    -9488.662   -9825.0888            0    7913.3051    24.724044    24.711968    22.738636    13892.847    8292.3278    7617.0231    7830.5644   -356.65982   -179.45608    161.39949   -7885.3241 
 1942000    90.034719   -9826.7112   -9483.4578   -9826.7112            0     8389.309    24.622944    24.810304    22.709527    13873.312    8538.6375    7856.2787    8773.0108   -50.937312   -861.43768   -237.54631   -7786.0656 
 1943000    87.563752   -9828.8382   -9495.0053   -9828.8382            0     8178.784    24.642532    24.717025     22.79141    13882.022    8437.5938    8473.1444    7625.6136    34.937068    271.73376   -244.51261   -7839.1692 
 1944000    87.974658   -9834.7169   -9499.3174   -9834.7169            0    7901.9067    24.711546    24.691653    22.775421    13896.854    7343.2647    8080.9418    8281.5136   -163.09546   -634.06745   -8.7099031   -7897.8272 
 1945000    86.847439   -9821.0605   -9489.9585   -9821.0605            0    8340.7489    24.646749    24.732621    22.764788     13876.93    8587.4436    7823.6365    8611.1667   -76.219111     -1027.74    151.89644   -7801.9511 
 1946000    89.593594   -9829.2336    -9487.662   -9829.2336            0    7938.1273    24.654356    24.715101    22.790156    13886.838    8322.1515    7456.1197    8036.1107    -296.8979    298.29985    597.68248   -7879.9905 
 1947000    86.980443   -9827.6919   -9496.0828   -9827.6919            0    7312.3271    24.642397    24.718624    22.840455    13912.719    8165.5599    7258.7191    6512.7023    206.48749   -25.509025   -590.20042   -8012.3917 
 1948000    89.395961   -9830.6973   -9489.8791   -9830.6973            0     8078.085    24.660001    24.711202    22.787176    13886.009    8339.2768    8026.5621    7868.4162    204.81789   -1048.5562    -261.7142   -7853.9602 
 1949000    88.412547    -9824.241    -9487.172    -9824.241            0    7065.8426     24.69019    24.721768    22.808814    13922.161    7214.0033    7264.6893    6718.8352   -248.09517   -933.60658   -177.24183   -8052.5202 
 1950000    88.407738   -9826.8995   -9489.8489   -9826.8995            0    8713.0667    24.744984     24.65958    22.706047    13855.251    7530.1999     9227.505    9381.4952   -141.86372   -190.72177    476.32926   -7729.2464 
 1951000    89.682983   -9819.7576   -9477.8452   -9819.7576            0    8132.7227    24.622269     24.78532    22.742163    13878.878     9300.237    7662.2343    7435.6969   -14.485932    -96.29521   -39.997911   -7831.7073 
 1952000    87.836157   -9830.3249   -9495.4534   -9830.3249            0    8350.6658    24.670261    24.761786    22.695748    13864.372    9141.2304    7948.5696    7962.1973    -139.1502    -198.0075    260.36442   -7806.9685 
 1953000    85.983598   -9834.3237   -9506.5151   -9834.3237            0    8483.3051    24.677082     24.67035    22.766735    13860.212    8837.1826    8455.4874    8157.2453   -374.76381    46.272809   -8.9158777   -7791.7255 
 1954000    86.880532   -9817.1091   -9485.8809   -9817.1091            0    7811.9068    24.655908    24.719162    22.819484    13907.868     7977.709    7784.0801    7673.9313   -203.12652    982.38241    900.32294   -7901.3763 
 1955000    87.257099   -9835.8124   -9503.1485   -9835.8124            0     8467.708    24.706873     24.63038    22.794244    13871.201    7531.8193    9442.0853    8429.2192   -150.43075   -623.06386     966.0075   -7790.1546 
 1956000    84.050265   -9844.5339   -9524.0959   -9844.5339            0    7142.6423    24.654222    24.775897    22.793151    13922.751    6777.8983    7167.4624    7482.5663   -581.37539   -497.48648      172.919   -8073.7893 
 1957000    86.887655    -9820.301   -9489.0457    -9820.301            0    8659.8304    24.696288    24.664153    22.764367    13866.073    8282.8167    9189.7289    8506.9456   -299.65626   -21.732732    1009.5934   -7737.8336 
 1958000    86.993357   -9821.6176   -9489.9593   -9821.6176            0    8416.1885    24.634781    24.793194    22.705388    13867.882    9171.8711    7117.9772    8958.7172   -296.13697    544.48003   -180.43653    -7787.795 
 1959000    89.016241   -9817.0036   -9477.6331   -9817.0036            0    8177.5844    24.765058    24.588742    22.802052    13885.119    7411.4095    9345.3093    7776.0345   -574.10498   -178.73381    587.57405   -7821.6706 
 1960000    87.726271     -9821.69   -9487.2375     -9821.69            0    8281.2426    24.674197    24.732776    22.742086    13878.617    8261.1263    7995.1977    8587.4036    93.994285   -311.44947   -19.464544   -7811.0693 
 1961000     90.25732   -9828.0809   -9483.9788   -9828.0809            0    7828.1491    24.735406      24.7634    22.680698     13892.67    7785.0205    7552.8507    8146.5762    181.16744    422.57538    532.63204   -7897.9148 
 1962000    88.270624   -9831.5983   -9495.0705   -9831.5983            0    8070.3128    24.749848    24.745245    22.663473    13880.042    7526.0671    8231.4345    8453.4366   -198.17579    816.22773   -369.75255    -7861.428 
 1963000    85.929437   -9828.7962    -9501.194   -9828.7962            0    7946.5203     24.69951     24.81507    22.661998    13889.994      8219.86    6980.4975    8639.2033   -265.32431   -619.12335   -356.01626   -7891.4569 
 1964000    90.618733   -9832.1536   -9486.6736   -9832.1536            0    8574.9671    24.722899    24.666256    22.739965    13867.316    7974.2186    8878.7032    8871.9796   -57.903439   -819.55441   -32.696134   -7752.4673 
 1965000    89.298128   -9838.8099   -9498.3647   -9838.8099            0    7934.0641    24.598915    24.739338    22.808886    13880.596    8792.3058    7563.3092    7446.5772   -285.52469    231.85211    283.38217   -7892.2384 
 1966000    88.712139   -9838.8702    -9500.659   -9838.8702            0      8470.19    24.712742    24.635034    22.766154    13860.017    8092.4138    9357.8582     7960.298    81.664395   -569.20978    237.64191   -7788.5445 
 1967000    89.481025   -9826.6869   -9485.5444   -9826.6869            0    7580.9678    24.664394    24.778572    22.734448    13894.123    7543.3206    7359.1047    7840.4782    72.954743   -56.456649   -103.12209   -7949.4012 
 1968000    88.093414   -9825.8453    -9489.993   -9825.8453            0    7960.9734    24.750471    24.670413      22.7352    13882.211    8090.3609    8156.4416    7636.1178    158.84099    22.957679   -283.40817   -7878.2318 
 1969000    85.399181    -9826.354   -9500.7734    -9826.354            0    8651.2195    24.687882    24.766499    22.655582    13852.358    8074.6018    8553.5605    9325.4962    30.503302   -864.55784   -161.11109    -7753.033 
 1970000    85.630201   -9817.0368   -9490.5754   -9817.0368            0    8708.8375    24.701744    24.680128     22.72396    13853.485    8528.8389    8458.3954    9139.2783   -248.38988   -1342.4086    347.05548   -7731.0517 
 1971000    83.026814   -9811.7591    -9495.223   -9811.7591            0    8113.3966    24.712865    24.701279    22.739719     13881.22    7820.3309    8042.5129    8477.3459   -402.48655   -412.53659    117.27667   -7852.7199 
 1972000    88.185492   -9838.7372   -9502.5339   -9838.7372            0    7778.5467    24.686483    24.709449    22.759929    13883.315    7708.7397    8078.9735    7547.9268    484.84845    125.68991    16.168825   -7927.5812 
 1973000    87.443325   -9824.2338     -9490.86   -9824.2338            0    8518.8659    24.621407    24.744206     22.75213    13861.444    9015.8113    8191.4846    8349.3018    341.36087   -777.81665   -612.37373   -7768.7291 
 1974000    90.868085   -9815.6267   -9469.1961   -9815.6267            0    8029.6246    24.699127    24.652956    22.810878    13889.691    7738.7847    8573.8057    7776.2835    76.694394    607.81652    384.82994     -7842.66 
 1975000    86.901641   -9830.7117   -9499.4031   -9830.7117            0    7837.2693    24.646736    24.682428    22.845755    13898.016    8605.3229    7567.4871     7338.998    44.986668   -219.24388      473.538   -7910.8802 
 1976000    87.532606   -9825.8328   -9492.1186   -9825.8328            0    7878.5346    24.685319     24.70955    22.771064    13889.509    8285.8055    8197.1201    7152.6782   -521.12874    179.60758   -69.370534   -7896.2092 
 1977000    88.062482   -9826.7962   -9491.0618   -9826.7962            0    6958.5143    24.751172    24.693694    22.793076     13931.08    6707.3443    7429.6762    6738.5223   -587.07326    166.62925    403.74898    -8077.297 
 1978000    86.928197   -9813.3525   -9481.9425   -9813.3525            0     8644.381    24.690066    24.708574    22.726402    13864.386    7975.4835    9066.9296    8890.7298   -570.97569    145.03693    248.14658   -7734.0673 
 1979000    87.295075   -9835.4231   -9502.6145   -9835.4231            0    7636.5489    24.694511    24.728515    22.754114    13894.995    7375.7738    8179.3988    7354.4742    185.30741    616.56111    29.365288   -7955.1118 
 1980000    88.218789   -9819.3268   -9482.9965   -9819.3268            0    9051.6903    24.681116    24.671551    22.703442    13824.611    8818.1751    9745.6589    8591.2369   -279.24165    580.94781    361.05424   -7658.0148 
 1981000     91.49612   -9834.6611   -9485.8361   -9834.6611            0     7026.955    24.791261    24.669069    22.779035    13931.141    6559.5235    7531.4349    6989.9066   -20.663276    37.401325    1147.1416   -8058.1598 
 1982000    86.122095    -9816.202   -9487.8652    -9816.202            0    8081.8831    24.626495    24.774521    22.762762     13887.78    9170.2541    7137.1839    7938.2114   -128.67643    187.23304    252.06912   -7850.9685 
 1983000    88.145665   -9816.1192   -9480.0678   -9816.1192            0    7709.2919    24.731299    24.720914    22.740111    13902.857     6950.926     8301.056    7875.8936    338.94419   -241.53614   -277.14565   -7916.9402 
 1984000    88.635652   -9820.7715    -9482.852   -9820.7715            0    8296.2145    24.710896    24.697336    22.724259    13868.463    8296.6924    8426.7086    8165.2426    461.59953    20.575035   -121.09222   -7804.8819 
 1985000     87.78925   -9838.4989   -9503.8063   -9838.4989            0    8201.0299    24.691511    24.735593    22.712268    13871.726    8887.1582    7410.2032    8305.7284   -205.12203   -403.02912   -153.03862   -7844.6978 
 1986000     87.84438   -9823.7957   -9488.8928   -9823.7957            0    7125.0073    24.758393     24.69818    22.786307    13933.536    6425.5716    7479.9182    7469.5322    271.06216    105.76864   -137.01088   -8041.0463 
 1987000    88.489031   -9834.2153   -9496.8547   -9834.2153            0     8690.302     24.66517    24.748075     22.69091    13850.883     8716.094    8506.2478     8848.564   -405.95657   -448.24298    280.69147   -7741.4058 
 1988000    89.255112   -9806.8206   -9466.5394   -9806.8206            0    8492.9977    24.765594    24.655176    22.720308    13873.022    7417.9531    9236.5884    8824.4515    456.92359    100.00695    453.88364   -7748.2039 
 1989000    91.914899    -9841.783   -9491.3615    -9841.783            0    7311.6993    24.704457     24.76859    22.733373    13910.427    6914.2105    7506.7727    7514.1149    93.741937    65.136254    234.24964   -8008.0421 
 1990000    89.704457   -9817.9266   -9475.9323   -9817.9266            0    8437.2362    24.711597    24.746148    22.671695    13864.123    7928.6814    8371.7867    9011.2404    60.524146   -243.97983   -685.46645   -7769.9736 
 1991000    88.277984   -9818.9461   -9482.3901   -9818.9461            0    8302.0366    24.719713    24.714585    22.692207    13863.519    7719.8342    8582.6934    8603.5822   -362.07438   -100.39741    626.83554   -7803.8412 
 1992000    89.617351   -9818.3264   -9476.6642   -9818.3264            0    8910.0205    24.703021    24.765937    22.638265    13849.942    8413.5795    8472.9429     9843.539      371.647   -364.53275    42.894075   -7676.9541 
 1993000    86.331147   -9822.7866   -9493.6529   -9822.7866            0    8446.9437    24.779629     24.67758     22.68997    13874.946    7653.2447    8789.9979    8897.5886   -36.495583   -377.20379   -147.60177   -7784.3981 
 1994000    85.840033   -9823.0888   -9495.8275   -9823.0888            0    8601.4906    24.644957    24.769311    22.689541    13850.571    9256.7798    7938.1645    8609.5275   -744.02448   -321.22942    608.94086   -7758.3576 
 1995000    86.541913   -9821.6969   -9491.7596   -9821.6969            0    7629.0545    24.762053    24.706782    22.713524    13895.922     7001.559     8209.997    7675.6074   -368.66613     442.9342   -188.31668   -7945.6725 
 1996000    85.380182   -9826.7575   -9501.2493   -9826.7575            0    7941.8099    24.673876    24.751157    22.736134    13885.116    7493.2028    8168.0434    8164.1836   -265.98861    200.21018    332.44607   -7893.0315 
 1997000    91.129231   -9818.7296   -9471.3034   -9818.7296            0    7743.5664    24.720538    24.686071    22.755212    13886.435      8477.64    8046.5182    6706.5411   -322.20507   -647.55247   -16.027254   -7903.0809 
 1998000    85.480081   -9837.2912   -9511.4021   -9837.2912            0    7050.7525    24.667438    24.803886    22.749029    13918.955    7823.2399    6338.5241    6990.4934   -416.92948   -400.04661    215.14327   -8080.1439 
 1999000    85.378179   -9843.7202   -9518.2197   -9843.7202            0    7142.1998    24.713929    24.733977    22.766647    13916.654    7529.1518    6878.4737    7018.9738   -125.59031    372.00164    314.71549   -8068.6379 
 2000000    88.831608   -9818.1736    -9479.507   -9818.1736            0    8556.6803    24.658319    24.691265    22.773988     13865.83    8797.2475    8777.8104    8094.9832     83.65748   -92.058221   -40.463147   -7749.1844 
Loop time of 641.058 on 64 procs for 250000 steps with 1920 atoms

Performance: 67.389 ns/day, 0.356 hours/ns, 389.980 timesteps/s
196.2% CPU use with 32 MPI tasks x 2 OpenMP threads

MPI task timing breakdown:
Section |  min time  |  avg time  |  max time  |%varavg| %total
---------------------------------------------------------------
Pair    | 71.185     | 75.211     | 86.768     |  34.8 | 11.73
Bond    | 0.81586    | 1.134      | 2.2573     |  23.8 |  0.18
Kspace  | 304.95     | 319.42     | 333.77     |  36.7 | 49.83
Neigh   | 0.13768    | 0.1549     | 0.18614    |   3.4 |  0.02
Comm    | 91.325     | 104.69     | 114.66     |  65.5 | 16.33
Output  | 0.61412    | 0.61445    | 0.61622    |   0.0 |  0.10
Modify  | 109.24     | 114.78     | 120.74     |  28.0 | 17.91
Other   |            | 25.05      |            |       |  3.91

Nlocal:        60.0000 ave          62 max          57 min
Histogram: 1 0 2 0 7 0 11 0 8 3
Nghost:        3587.09 ave        3622 max        3554 min
Histogram: 4 1 3 4 5 5 2 2 1 5
Neighs:        21932.9 ave       22819 max       20623 min
Histogram: 1 1 1 1 4 11 2 5 3 3

Total # of neighbors = 701853
Ave neighs/atom = 365.54844
Ave special neighs/atom = 2.0000000
Neighbor list builds = 251
Dangerous builds = 0

unfix		3
unfix		2
unfix		1

write_data	data.final.${pid}
write_data	data.final.1
System init for write_data ...
PPPM initialization ...
  extracting TIP4P info from pair style
  using 12-bit tables for long-range coulomb (../kspace.cpp:340)
  G vector (1/distance) = 0.37528685
  grid = 30 30 30
  stencil order = 5
  estimated absolute RMS force accuracy = 0.0031738621
  estimated relative force accuracy = 9.5579914e-06
  using double precision FFTW3
  3d grid and FFT values/proc = 5400 960
Last active /omp style is kspace_style pppm/tip4p/omp
WARNING: Not all mixed pair coeffs generated from mixing. Use write_data with 'pair ij' option to store all pair coeffs. (../write_data.cpp:312)

write_restart   restart.lmp.${pid}
write_restart   restart.lmp.1
System init for write_restart ...
PPPM initialization ...
  extracting TIP4P info from pair style
  using 12-bit tables for long-range coulomb (../kspace.cpp:340)
  G vector (1/distance) = 0.37528685
  grid = 30 30 30
  stencil order = 5
  estimated absolute RMS force accuracy = 0.0031738621
  estimated relative force accuracy = 9.5579914e-06
  using double precision FFTW3
  3d grid and FFT values/proc = 5400 960
Last active /omp style is kspace_style pppm/tip4p/omp
Total wall time: 0:10:41
