LAMMPS (30 Jul 2021)
  using 1 OpenMP thread(s) per MPI task
package omp 0
using multi-threaded neighbor list subroutines
echo both

include		in.partitions
variable        pid world 0
include		in.temp
variable        temperature equal 249.24
variable	tempDamp equal 100.0
include		in.pressure
variable        pressure equal 5250.0
variable        pressureDamp equal 1000.0 # This is 1 ps
include		in.seed
variable        seed world 745823

units		real
atom_style	full
read_restart	restart.lmp.${pid}
read_restart	restart.lmp.0
Reading restart file ...
  restart file = 30 Jul 2021, LAMMPS = 30 Jul 2021
  restoring atom style full from restart
  orthogonal box = (0.52538795 1.7103689 0.64097207) to (17.682184 21.918809 21.572224)
  4 by 4 by 4 MPI processor grid
  restoring pair style lj/cut/tip4p/long/omp from restart
  restoring bond style harmonic/omp from restart
  restoring angle style harmonic/omp from restart
  864 atoms
  576 bonds
  288 angles
Finding 1-2 1-3 1-4 neighbors ...
  special bond factors lj:    0        0        0       
  special bond factors coul:  0        0        0       
     2 = max # of 1-2 neighbors
     1 = max # of 1-3 neighbors
     1 = max # of 1-4 neighbors
     2 = max # of special neighbors
  special bonds CPU = 0.763 seconds
  read_restart CPU = 1.002 seconds
include 	in.setup
variable	out_freq equal 1000
variable	out_freq2 equal 10000
variable	out_freq3 equal 1000

timestep	2.0

neigh_modify    delay 7 every 1

include		in.tip4p
# This is TIP4P/Ice

# create groups ###
group ox type 2
288 atoms in group ox
group hy type 1
576 atoms in group hy

# set charges - beside manually ###
set group ox charge -1.1794
Setting atom values ...
  288 settings made for charge
set group hy charge 0.5897
Setting atom values ...
  576 settings made for charge

# ### TIP3P Potential Parameters ###
pair_style lj/cut/tip4p/long/omp 2 1 1 1 0.1577 8.5
pair_coeff 1 1*2 0.000 0.000
pair_coeff 2 2 0.21084 3.1668
bond_style  harmonic
bond_coeff  1 450 0.9572
angle_style harmonic
angle_coeff 1 55 104.52
kspace_style pppm/tip4p/omp 1.0e-5
pair_modify tail yes

thermo          ${out_freq}
thermo          1000
thermo_style    custom step temp pe etotal epair emol press lx ly lz vol pxx pyy pzz pxy pxz pyz enthalpy

restart 	${out_freq3} restart.lmp.${pid} restart2.lmp.${pid}
restart 	1000 restart.lmp.${pid} restart2.lmp.${pid}
restart 	1000 restart.lmp.0 restart2.lmp.${pid}
restart 	1000 restart.lmp.0 restart2.lmp.0


include         in.dump
dump            myDump all atom ${out_freq2} dump.water.${pid}
dump            myDump all atom 10000 dump.water.${pid}
dump            myDump all atom 10000 dump.water.0
dump            myDump2 all dcd ${out_freq2} dump.dcd
dump            myDump2 all dcd 10000 dump.dcd
dump_modify     myDump append yes
dump_modify     myDump2 append yes


variable natoms 	equal  "count(all)"                        # NUMBER ATOMS
variable H      	equal  "enthalpy/v_natoms"                 # ENTHALPY-per-atom
variable Vol      	equal  "vol/v_natoms"                 # volume-per-atom
fix AVG all 		ave/time ${out_freq} 1 ${out_freq} v_Vol v_H file vol_enthalpy.dat
fix AVG all 		ave/time 1000 1 ${out_freq} v_Vol v_H file vol_enthalpy.dat
fix AVG all 		ave/time 1000 1 1000 v_Vol v_H file vol_enthalpy.dat


timer           timeout 23:50:00 every 1000
New timer settings: style=normal  mode=nosync  timeout=23:50:00

fix 		1 all shake 1e-6 200 0 b 1 a 1
       0 = # of size 2 clusters
       0 = # of size 3 clusters
       0 = # of size 4 clusters
     288 = # of frozen angles
  find clusters CPU = 0.006 seconds
fix             2 all nph iso ${pressure} ${pressure} ${pressureDamp}
fix             2 all nph iso 5250 ${pressure} ${pressureDamp}
fix             2 all nph iso 5250 5250 ${pressureDamp}
fix             2 all nph iso 5250 5250 1000
fix             3 all temp/csvr ${temperature} ${temperature} ${tempDamp} ${seed}
fix             3 all temp/csvr 249.24 ${temperature} ${tempDamp} ${seed}
fix             3 all temp/csvr 249.24 249.24 ${tempDamp} ${seed}
fix             3 all temp/csvr 249.24 249.24 100 ${seed}
fix             3 all temp/csvr 249.24 249.24 100 745823

run             250000
PPPM initialization ...
  extracting TIP4P info from pair style
  using 12-bit tables for long-range coulomb (../kspace.cpp:340)
  G vector (1/distance) = 0.37338109
  grid = 24 24 24
  stencil order = 5
  estimated absolute RMS force accuracy = 0.0032629358
  estimated relative force accuracy = 9.8262343e-06
  using double precision FFTW3
  3d grid and FFT values/proc = 2535 216
Last active /omp style is kspace_style pppm/tip4p/omp
Neighbor list info ...
  update every 1 steps, delay 7 steps, check yes
  max neighbors/atom: 2000, page size: 100000
  master list distance cutoff = 10.8154
  ghost atom cutoff = 10.8154
  binsize = 5.4077, bins = 4 4 4
  1 neighbor lists, perpetual/occasional/extra = 1 0 0
  (1) pair lj/cut/tip4p/long/omp, perpetual
      attributes: half, newton on, omp
      pair build: half/bin/newton/omp
      stencil: half/bin/3d
      bin: standard
Per MPI rank memory allocation (min/avg/max) = 9.234 | 9.237 | 9.239 Mbytes
Step Temp PotEng TotEng E_pair E_mol Press Lx Ly Lz Volume Pxx Pyy Pzz Pxy Pxz Pyz Enthalpy 
 7000000    267.79108   -3901.0539   -3442.0691   -3901.0539            0    5573.1913    17.156796     20.20844    20.931252    7257.1181    6988.4614    5009.7389    4721.3736   -546.66399   -7.9430198    989.30858   -2852.2158 
 7001000    262.83682    -3921.284   -3470.7907    -3921.284            0    4918.9437     17.15466    20.205923    20.928645    7254.4068    4259.2935    5981.1742    4516.3634    1699.8829   -906.76938   -330.32763   -2950.3759 
 7002000    255.22707   -3916.9602   -3479.5097   -3916.9602            0    6984.0915    17.187641    20.244771    20.968882    7296.3289    5676.3436    8131.1275    7144.8034     843.1661   -741.38377   -275.60873   -2736.3362 
 7003000    249.83523    -3916.411    -3488.202    -3916.411            0    5108.6247    17.235595    20.301255    21.027386     7357.571    5032.8835    4389.0336    5903.9569    155.68605   -351.16249    1985.6885   -2940.0332 
 7004000    242.44659   -3947.8382    -3532.293   -3947.8382            0    4959.6533    17.302778    20.380387    21.109348    7443.9437    6055.5685    3508.3413    5315.0501   -701.04279    468.08675   -710.37488   -2993.8617 
 7005000    256.08186   -3938.3275   -3499.4119   -3938.3275            0    4181.4797     17.27769    20.350837    21.078742    7411.6116    2982.6635    4950.7995    4610.9762   -323.41156    548.51664    -606.4228   -3047.4327 
 7006000    251.37972   -3910.4034   -3479.5472   -3910.4034            0     5274.707    17.257455    20.327002    21.054054    7385.6004    6419.9533    4924.2436     4479.924    544.47224   -134.96771   -606.38178   -2911.4011 
 7007000    242.86553   -3902.5429   -3486.2797   -3902.5429            0    6225.4664    17.237279    20.303238     21.02944    7359.7275    7349.8529    5912.1038    5414.4423    379.84603    400.89239    -1218.379    -2818.075 
 7008000    248.47273   -3901.7682   -3475.8945   -3901.7682            0    5622.9549    17.284889    20.359316    21.087525    7420.8798     3142.977    6986.9946    6738.8931   -1243.5729   -834.12832    210.27629    -2867.345 
 7009000     252.4564   -3893.3508   -3460.6491   -3893.3508            0    6705.3288    17.200794    20.260263    20.984928    7313.0923    5138.2289    7577.7199    7400.0377   -545.62025   -1236.1214   -1469.1416   -2745.4993 
 7010000    249.63752   -3909.7028   -3481.8326   -3909.7028            0    5470.4676    17.303778    20.381565    21.110569    7445.2352    5921.6808    4661.4809    5828.2412   -438.50275   -174.24733    183.13278   -2887.8431 
 7011000    251.92269   -3896.6153   -3464.8284   -3896.6153            0    5854.7689    17.238283     20.30442    21.030665     7361.013    7386.8246    5496.2967    4681.1853   -761.53267   -1339.6335    936.45029   -2836.3024 
 7012000    256.31847   -3859.8962   -3420.5751   -3859.8962            0    5879.6308    17.149987     20.20042    20.922945     7248.481    6481.9874    5417.6714    5739.2336    -185.4235   -57.048016   -1083.0582   -2799.0296 
 7013000    261.15145   -3876.0909   -3428.4862   -3876.0909            0      6375.62    17.159165     20.21123    20.934142    7260.1244    6076.8477    5338.7966    7711.2157    313.69165   -114.06545    845.69122   -2753.4262 
 7014000    244.98247   -3890.3663   -3470.4747   -3890.3663            0    5960.2351    17.260905    20.331066    21.058264    7390.0315    8377.5804    4158.5972    5344.5276    678.75041    654.92786   -377.63655   -2828.1042 
 7015000    251.64966   -3898.2861   -3466.9672   -3898.2861            0    5205.2062    17.233876     20.29923    21.025289    7355.3694    5953.8605    4767.6725    4894.0855   -419.27056   -232.80714    866.88198    -2908.602 
 7016000     254.7845   -3894.3338   -3457.6419   -3894.3338            0    6854.8865    17.218968     20.28167    21.007101    7336.2975    7758.4986    5178.6181    7627.5427   -765.40187   -257.06131   -19.022785   -2724.2213 
 7017000    259.32006   -3906.2339   -3461.7682   -3906.2339            0    6308.0195    17.181616    20.237674    20.961532    7288.6591    6651.5377    7836.0411    4436.4796   -364.87925   -949.26438    306.10486   -2791.2407 
 7018000    238.98911   -3921.6797   -3512.0605   -3921.6797            0    3993.3293    17.214008    20.275827    21.001049    7329.9594    5446.3553    3933.6484    2599.9841   -1015.1004    508.94766    1217.1055   -3085.1739 
 7019000    246.52701   -3908.5897   -3486.0508   -3908.5897            0    6178.1137    17.207488    20.268148    20.993095     7321.634    6944.3086    6530.6987    5059.3338   -824.94616    1049.4809    1671.5368    -2826.361 
 7020000    241.07849   -3918.9452    -3505.745   -3918.9452            0    4388.0707    17.241843    20.308614    21.035008    7365.5748    4049.6148    5457.8013    3656.7962   -75.515094    442.95431   -1000.4719   -3034.3812 
 7021000    248.03643   -3913.6874   -3488.5614   -3913.6874            0     4735.159    17.200802    20.260272    20.984938    7313.1024    4445.0192    5392.9362    4367.5215    108.90778   -308.10507   -1170.9944   -2983.5373 
 7022000    264.13164   -3887.2777   -3434.5652   -3887.2777            0    6533.9214    17.264965    20.335848    21.063217    7395.2474    4584.8186     7343.815    7673.1304    876.35141   -371.76881    61.947682    -2729.868 
 7023000    244.45473   -3916.4941   -3497.5071   -3916.4941            0    5885.5536    17.199252    20.258447    20.983047    7311.1257    4592.2403    7291.6263    5772.7942   -681.10108    962.30723    361.56323   -2869.9583 
 7024000    252.14262   -3847.8216   -3415.6578   -3847.8216            0    5890.5614    17.228065    20.292385      21.0182    7347.9319    6893.4807    4952.9619    5825.2417    65.606787    -676.2142    657.67523   -2784.4131 
 7025000    255.17588   -3884.1685   -3446.8058   -3884.1685            0    4604.1799    17.225526    20.289395    21.015102    7344.6837    4565.3677    4749.7884    4497.3837     279.3129   -755.30469   -21.512979   -2953.6305 
 7026000    264.40691   -3846.1112   -3392.9268   -3846.1112            0     5645.597    17.182604    20.238838    20.962737    7289.9161     5352.595    6186.5516    5397.6445    483.13326   -185.54635    120.47976   -2792.7098 
 7027000    255.68725   -3876.1145   -3437.8753   -3876.1145            0    5788.6777    17.178951    20.234535     20.95828     7285.268    5436.0347    6035.0724     5894.926    142.76347   -855.30716   -522.80428   -2822.8389 
 7028000    244.64455   -3885.3987   -3466.0863   -3885.3987            0    5156.2464    17.185297     20.24201    20.966022    7293.3442    3771.8419    5384.9123    6311.9851    661.61603    607.47523    299.90722   -2917.6373 
 7029000    220.96948   -3882.3911    -3503.657   -3882.3911            0    5186.1959    17.238738    20.304956     21.03122    7361.5957    3937.7783    6306.8056    5314.0038    640.03592    -779.9307   -760.54211   -2946.8601 
 7030000    256.94368   -3885.4089   -3445.0162   -3885.4089            0    6238.5131    17.207463    20.268119    20.993065    7321.6026    6542.9761    5665.5456    6507.0176    462.58709    343.17059   -506.12187   -2778.8799 
 7031000    256.72994   -3856.4852   -3416.4588   -3856.4852            0    5648.9195    17.214389    20.276277    21.001515    7330.4469    5275.6765    6684.1948    4986.8872     1722.573    193.25203    183.18887   -2812.5495 
 7032000    256.99749   -3890.3473   -3449.8624   -3890.3473            0    5419.9881    17.231878    20.296876    21.022851    7352.8114    5418.5592    5037.8017    5803.6035    716.60811   -304.21192    258.66311   -2868.6597 
 7033000    256.29467   -3916.1573    -3476.877   -3916.1573            0    4294.3057    17.359791     20.44754    21.178904    7517.7701    3968.5516    4314.9503    4599.4153   -524.81995    -866.2406    394.36981   -3006.0538 
 7034000    237.93041   -3915.3656    -3507.561   -3915.3656            0    4848.3725    17.253365    20.322185    21.049065    7380.3512    5280.6152    3809.2837    5455.2185   -65.988119   -1839.9027   -346.03448   -2985.7072 
 7035000    236.93448   -3938.4612   -3532.3636   -3938.4612            0    4178.0251      17.2273    20.291484    21.017266    7346.9527     5100.677    5525.0519    1908.3466   -152.76468   -686.35135    944.65157   -3084.6975 
 7036000    248.16933   -3947.1807    -3521.827   -3947.1807            0    5343.2745     17.23068    20.295465    21.021389    7351.2779    6126.5591    5773.7439    4129.5205   -822.20669    154.18684   -271.45484     -2948.97 
 7037000    248.94463   -3924.0304   -3497.3478   -3924.0304            0    7329.4737    17.139319    20.187854    20.909929    7234.9621    6066.3411    8371.7399    7550.3402   -2058.6204   -1144.2839   -499.38872   -2723.9821 
 7038000    255.72594   -3942.0702   -3503.7647   -3942.0702            0    4313.9324    17.268157    20.339608    21.067111    7399.3493    3678.5223    4217.0389    5046.2361    -186.0048   -323.01584    898.81644     -3038.24 
 7039000    243.52018    -3904.393   -3487.0078    -3904.393            0    5301.4291    17.196639    20.255369     20.97986    7307.7945    6383.5756    6197.7126     3322.999   -350.14257    2048.2876   -213.32834    -2921.999 
 7040000    248.88563   -3962.4294   -3535.8479   -3962.4294            0    3301.1939    17.219245    20.281997    21.007439    7336.6523    4755.6247    1221.6829    3926.2741   -899.14531    88.965159    230.95406   -3182.6283 
 7041000    239.28536   -3918.3558   -3508.2289   -3918.3558            0    6000.0573    17.218076     20.28062    21.006013     7335.158    4883.6731     8542.079    4574.4198    1022.6629    609.28791    791.41589   -2866.3682 
 7042000    244.50478   -3931.7174   -3512.6446   -3931.7174            0    5037.8469    17.222457    20.285779    21.011357     7340.758    3918.4816    7105.0689    4089.9902   -1666.5847   -343.31228    1006.5359   -2973.3057 
 7043000    255.02235    -3922.816   -3485.7164    -3922.816            0    6200.3921    17.160189    20.212436    20.935391    7261.4244    6175.3222    6143.5384    6282.3157   -823.56561    806.40802     169.7654   -2829.0922 
 7044000    249.71102   -3917.7196   -3489.7235   -3917.7196            0    6380.0517    17.213275    20.274964    21.000155    7329.0235    6916.4189     4311.369    7912.3671   -452.05857    679.65531    188.08449   -2807.7834 
 7045000    241.82844   -3963.0011   -3548.5154   -3963.0011            0    5414.9226    17.214413    20.276305    21.001544    7330.4775    6686.6823    5361.9002    4196.1852   -571.80025   -30.469424   -1447.6014   -2969.6196 
 7046000    251.82474   -3914.3982   -3482.7792   -3914.3982            0    4903.5453    17.214889    20.276866    21.002125    7331.0857    6147.5343     4679.809    3883.2926    708.67458   -580.32055    567.97533     -2958.51 
 7047000     252.8576   -3960.1814   -3526.7921   -3960.1814            0    5650.7442    17.172658    20.227123    20.950603    7277.2642     5111.961    6184.8655    5655.4062    1041.3387   -696.05278    272.87046   -2927.0705 
 7048000    247.78684   -3916.5462   -3491.8481   -3916.5462            0    5179.0446    17.161991    20.214559    20.937589    7263.7123    4199.6224    4982.3316    6355.1797   -827.21986    1228.8918   -251.18225   -2943.2122 
 7049000    252.08337   -3903.9779   -3471.9156   -3903.9779            0    8792.3416     17.15657    20.208173    20.930975    7256.8301    9595.2797    10263.128    6518.6177   -15.849412   -577.16573   -608.24406    -2541.392 
 7050000    246.86078   -3935.7526   -3512.6416   -3935.7526            0    5190.6478    17.257121    20.326609    21.053647     7385.172    6553.4766     2742.277    6276.1897    716.75537   -2167.9325    432.18736   -2953.5821 
 7051000    267.98318   -3945.1896   -3485.8756   -3945.1896            0    5613.5118     17.28144    20.355253    21.083316    7416.4379    4222.5083    6927.4678    5690.5592    1096.6623   -469.39737    -1042.145   -2878.7118 
 7052000    238.12429   -3915.3604   -3507.2236   -3915.3604            0    4569.8887    17.250627     20.31896    21.045725    7376.8382    5658.7723    3396.5595    4654.3344     1541.068   -3166.6609    1253.4421   -3015.5784 
 7053000    254.03676   -3951.5756   -3516.1653   -3951.5756            0    5704.6361    17.188021    20.245218    20.969345    7296.8124    5543.4387    5881.2549    5689.2146    7.5912878   -1021.8457    518.31416   -2909.0977 
 7054000    249.08078   -3885.9167   -3459.0008   -3885.9167            0    5026.3231    17.244421     20.31165    21.038154    7368.8795    5333.5313    5933.7134    3811.7245    170.68944   -1675.9719   -1350.9137   -2918.8342 
 7055000    250.40669   -3923.6742   -3494.4857   -3923.6742            0    3123.9556     17.29645    20.372933    21.101628    7435.7796    3442.1543    3727.8288    2201.8837     1124.758   -911.20871    965.68945   -3155.7139 
 7056000    261.99646    -3879.643   -3430.5901    -3879.643            0     7191.855    17.128227    20.174789    20.896397    7220.9244     7349.668    8637.2411    5588.6559   -2030.9432   -1119.9272    166.27871   -2673.2174 
 7057000    258.15369    -3920.957   -3478.4904    -3920.957            0    7985.2172    17.146748    20.196605    20.918993     7244.375    8845.9682    6442.1672    8667.5163   -475.24065   -1210.9202   -171.07978   -2634.8381 
 7058000    247.19571   -3922.2341   -3498.5492   -3922.2341            0    5431.6393    17.226371    20.290389    21.016132    7345.7635    4547.4836    7083.0479    4664.3865   -404.55102   -103.07014     786.6751   -2916.6553 
 7059000    252.04053   -3915.3513   -3483.3625   -3915.3513            0     4233.095    17.210318    20.271482    20.996548    7325.2476    5607.6311    3048.6079    4043.0461    1462.3933   -527.99778   -88.264648   -3031.1357 
 7060000    231.29432   -3927.9942   -3531.5637   -3927.9942            0    4844.0947    17.198293    20.257318    20.981877    7309.9032    7607.9278     2829.771    4094.5853    395.80459   -142.71824   -386.31164   -3015.1471 
 7061000    235.88469   -3876.4091   -3472.1108   -3876.4091            0    5125.9768     17.23356    20.298857    21.024903    7354.9649    7206.2855    3976.5914    4195.0536    298.10383   -1931.2393    238.41025   -2922.2749 
 7062000    244.77441   -3904.8069    -3485.272   -3904.8069            0    3913.0124    17.318316    20.398689    21.128306    7464.0166    3286.2141    5319.5167    3133.3064     869.5143   -476.23558    189.54472   -3059.3209 
 7063000    251.39062   -3877.7125   -3446.8376   -3877.7125            0    5646.8602    17.239525    20.305884    21.032181    7362.6052    6955.8061    6382.3317    3602.4427   -395.58995   -13.790664      34.4475   -2840.5001 
 7064000      241.528   -3889.8962   -3475.9255   -3889.8962            0    5393.4741    17.211522      20.2729    20.998017    7326.7848    6172.1972    5353.6359    4654.5891    397.73183   -182.51736    -1955.071   -2899.6131 
 7065000    235.37709   -3900.1056   -3496.6773   -3900.1056            0    5821.0851    17.192219    20.250163    20.974467    7302.1612    6941.6206    6501.0488    4020.5859     1394.322    465.34969    726.68057   -2876.7636 
 7066000    259.11236   -3884.3253   -3440.2156   -3884.3253            0    5796.1072    17.237686    20.303717    21.029937    7360.2488    7260.4525     3854.262     6273.607    1771.5775    591.14433   -1000.4872   -2818.0517 
 7067000    232.35278   -3908.8945   -3510.6498   -3908.8945            0    7668.0062    17.167518    20.221069    20.944332    7270.7318     8630.842    5890.1724    8483.0044    1005.5809   -2062.8604    1966.7247   -2697.5638 
 7068000    248.43809   -3920.1194    -3494.305   -3920.1194            0    3788.0233    17.219326    20.282092    21.007538    7336.7557    5338.3275    3412.3565    2613.3859   -1739.5147   -242.64589    984.20168   -3088.9901 
 7069000    233.43901   -3929.4313   -3529.3248   -3929.4313            0    5581.0867    17.236615    20.302456     21.02863    7358.8769    4312.2879    6517.6768    5913.2954   -806.91064    562.51115    1576.6882   -2930.3532 
 7070000    250.68817   -3931.7191   -3502.0481   -3931.7191            0    2665.0228    17.328096    20.410208    21.140236    7476.6683    3296.6189    1687.0456    3011.4038    85.354305   -1077.9496   -1498.5726   -3211.4553 
 7071000    255.83538   -3925.7474   -3487.2543   -3925.7474            0    5811.0835     17.22251    20.285842    21.011422    7340.8263    6561.4519    4996.0205    5875.7781    1326.3031    909.00818    522.79472   -2865.1289 
 7072000    272.16991   -3896.3139    -3429.824   -3896.3139            0    4770.7988    17.306674    20.384976    21.114101    7448.9731    4809.3677    3934.0163    5569.0124    423.47027    1687.3233   -307.76856   -2911.5453 
 7073000     232.7385    -3917.066   -3518.1602    -3917.066            0    5932.5883    17.296292    20.372747    21.101435    7435.5754    5586.3688    5570.0839    6641.3124    620.17313    449.20258   -253.18862   -2874.8289 
 7074000    251.35291   -3927.8959   -3497.0856   -3927.8959            0    5838.2009    17.250488    20.318796    21.045555    7376.6591    5509.0539    6198.0633    5807.4856   -1482.3772   -199.31158   -192.48953   -2869.0061 
 7075000    245.29234   -3905.3043   -3484.8816   -3905.3043            0    5988.9392    17.238526    20.304707    21.030962    7361.3249    5911.4167    7442.4037    4612.9971   -3063.1567   -9.9919135   -67.959914   -2841.9248 
 7076000    248.22353   -3914.5271   -3489.0805   -3914.5271            0    5753.2582    17.305386    20.383459    21.112531    7447.3109    7067.1982    5520.7058    4671.8708    320.15992    451.68317    99.672552   -2864.2111 
 7077000    242.37351   -3917.1991   -3501.7792   -3917.1991            0    7652.1039    17.155813    20.207282    20.930052    7255.8705     7796.278    7796.4961    7363.5375   -146.06762    1101.1861    446.21445    -2692.038 
 7078000    265.38522   -3900.6486   -3445.7874   -3900.6486            0    6450.6753    17.240174    20.306647    21.032971    7363.4356    8044.0894    6222.8837    5085.0526   -464.80081   -680.98838   -864.45002   -2753.0613 
 7079000    250.45062   -3924.1877   -3494.9239   -3924.1877            0    5086.3423    17.201502    20.261097    20.985792    7313.9958    4296.7874    6278.3839    4683.8557     1048.176    389.95652    624.40287   -2952.3784 
 7080000    253.62655   -3891.9217   -3457.2145   -3891.9217            0    6596.3006     17.24783    20.315666    21.042312    7373.2504    7427.0783    8454.0238    3907.7998    1079.0501   -422.66455   -944.39785   -2747.9058 
 7081000    254.19038   -3923.7614   -3488.0878   -3923.7614            0    2973.5586    17.293646    20.369631    21.098208    7432.1646    3682.8521    2824.6161    2413.2077    -968.0787    317.96528    93.808404   -3165.7823 
 7082000    241.16728   -3921.5029   -3508.1504   -3921.5029            0    5258.0845     17.20094    20.260436    20.985107    7313.2792    4767.6613    5910.2908    5096.3015    -1945.584    400.60916    1517.7927   -2947.3406 
 7083000    225.92426   -3908.9183   -3521.6918   -3908.9183            0    3523.0276    17.251119     20.31954    21.046325    7377.4694    2193.2561    3602.6042    4773.2224   -308.34111   -607.57812     547.7765   -3142.6393 
 7084000    265.44718   -3909.8545   -3454.8871   -3909.8545            0    3748.4671    17.269319    20.340977    21.068529    7400.8435    2789.8139    1713.8659    6741.7214     474.2768    468.62176    341.31617   -3050.3011 
 7085000    260.31537   -3937.7389   -3491.5672   -3937.7389            0    5350.3895    17.263166    20.333729    21.061022    7392.9353    5177.0766    5660.6945    5213.3974    819.96274    257.17826    906.36315   -2914.6969 
 7086000    248.34417   -3921.1017   -3495.4483   -3921.1017            0    5133.4413    17.267573     20.33892    21.066398    7398.5985    3685.5993    7854.0768    3860.6479    -343.0528    8.4177138    692.35999    -2941.545 
 7087000    240.00425   -3906.4707   -3495.1117   -3906.4707            0    5393.4467    17.220781    20.283805    21.009312    7338.6149    6500.1759    6470.3752    3209.7889    138.91719   -822.13515    223.82054   -2917.8717 
 7088000    256.02543    -3891.095   -3452.2762    -3891.095            0    6807.0176    17.172682    20.227151    20.950632    7277.2949    6932.9979    7904.5058    5583.5489    283.66261   -1361.5477   -965.31579   -2729.8346 
 7089000    238.54073   -3922.6583   -3513.8076   -3922.6583            0    5497.5646    17.229632    20.294231    21.020111    7349.9371    5520.6236    6972.6378    3999.4324   -80.258195      580.012   -1056.2163   -2924.5165 
 7090000    244.72223   -3904.7444   -3485.2989   -3904.7444            0    5536.9464    17.223303    20.286776    21.012389    7341.8398      6091.67    5466.1205    5053.0486   -860.13081    737.72392   -436.44359   -2892.4403 
 7091000    235.39202   -3932.8869    -3529.433   -3932.8869            0    5268.9858    17.212031    20.273499    20.998637    7327.4344    4693.9837    3535.5157    7577.4581   -119.45477    2088.8027     486.1721   -2966.3728 
 7092000    263.41977   -3927.7229   -3476.2305   -3927.7229            0    7116.9002    17.169526    20.223434    20.946782    7273.2838    7312.9949    8243.4893    5794.2164    46.739975     408.8793    1566.5033   -2721.3168 
 7093000    247.71067   -3949.3194   -3524.7518   -3949.3194            0    5831.1275    17.200183    20.259543    20.984183    7312.3127    5776.4742    6000.7031    5716.2052   -267.55859   -757.95357    1540.6041   -2902.9053 
 7094000    244.61428   -3922.4283   -3503.1678   -3922.4283            0    4572.7445    17.261588    20.331871    21.059098    7390.9092    5548.1047    4906.2272    3263.9015   -315.43564    -932.7473    285.34672    -3010.277 
 7095000    259.65186   -3962.8394    -3517.805   -3962.8394            0    6150.5642    17.113208    20.157099    20.878074    7201.9467    7981.9172    5992.9902    4476.7852    785.99368   -717.39842   -80.756274   -2871.7928 
 7096000    250.76441   -3912.3178   -3482.5162   -3912.3178            0    5303.9924    17.202904    20.262749    20.987503    7315.7843     6421.626    4581.5098    4908.8413    1265.0097    434.11242    -63.41075   -2916.6162 
 7097000    255.76784   -3940.6564   -3502.2791   -3940.6564            0    2834.7328    17.259516     20.32943    21.056569    7388.2476    2941.7453    3438.7628    2123.6905    1419.5503    313.80561   -929.56961   -3196.8366 
 7098000    246.76257     -3960.76   -3537.8174     -3960.76            0    4818.6641    17.187587    20.244707    20.968816    7296.2604    5403.8412    4506.2815    4545.8695    389.80214    403.35885   -991.96582   -3025.0707 
 7099000    246.34619   -3925.0202   -3502.7912   -3925.0202            0    3161.2231    17.249067    20.317123    21.043822     7374.837    3413.6763    1963.6639    4106.3291    1408.9848   -21.299524   -1063.9482   -3162.7877 
 7100000    241.87062   -3939.0849    -3524.527   -3939.0849            0    6505.4162    17.180062    20.235843    20.959635    7286.6807    7562.5081    7386.6529    4567.0875    729.00696    222.54228    1788.1703   -2833.2044 
 7101000    245.60537   -3963.6776   -3542.7184   -3963.6776            0    6172.8197    17.170976    20.225142    20.948551    7275.1264    5165.2786    5809.0204    7544.1603   -204.55164   -791.22998   -555.12704   -2887.7807 
 7102000     251.3688    -3923.168   -3492.3305    -3923.168            0    4668.8157    17.257502    20.327058    21.054112    7385.6612    3910.3184    5901.2929    4194.8358    -1137.438    -1013.106    832.25158   -2989.4416 
 7103000    244.87718   -3910.3096   -3490.5985   -3910.3096            0    4760.7993    17.200554    20.259981    20.984636    7312.7864    4296.3392    5439.0011    4547.0577    129.67656   -893.43542   -2005.6898   -2982.8617 
 7104000    255.09634   -3930.6532   -3493.4268   -3930.6532            0    5463.0321    17.172539    20.226983    20.950458    7277.1135    6343.8876    4827.1629    5218.0459   -331.80636    1856.7234   -162.08699   -2913.6394 
 7105000    258.03476   -3897.4452   -3455.1824   -3897.4452            0     5411.804    17.196089    20.254721    20.979188     7307.093    4913.9872    5772.1068    5549.3179   -847.86748    1685.4545   -234.91147   -2878.4656 
 7106000    238.67895   -3938.2326    -3529.145   -3938.2326            0    4605.3219    17.193697    20.251904    20.976271    7304.0447    5565.1101    4540.7851    3710.0705    64.294202    1912.8875   -2343.6223   -3038.5769 
 7107000    244.57105    -3940.368   -3521.1816    -3940.368            0    6735.3662    17.181824     20.23792    20.961786     7288.924    7759.7052     6508.401    5937.9923   -173.66614    1218.4166   -219.71936   -2805.2022 
 7108000    250.23059   -3923.5782   -3494.6915   -3923.5782            0    6068.4507    17.172494     20.22693    20.950403     7277.056    6045.3686    5085.5197    7074.4638   -222.55786    1438.9373   -859.19194   -2850.6565 
 7109000    240.57676   -3923.9336   -3511.5933   -3923.9336            0    4610.1133    17.266523    20.337683    21.065118    7397.2496    5517.3206    3005.6049    5307.4144    872.92952   -169.62596   -771.30221   -3014.2482 
 7110000    247.42608    -3923.279   -3499.1991    -3923.279            0     6078.686    17.131584    20.178742    20.900492    7225.1707    6141.5389    5846.0772    6248.4418    587.28902    245.84794   -1120.4963   -2858.6776 
 7111000    257.56799    -3930.819   -3489.3563    -3930.819            0    4977.9807    17.191614     20.24945    20.973728    7301.3894    3222.3147    6105.3492    5606.2782      960.885    1267.7877   -1339.4857   -2959.2846 
 7112000    253.73118   -3937.9798   -3503.0933   -3937.9798            0    5375.4256    17.180067     20.23585    20.959642    7286.6876    6462.3399    4382.2824    5281.6544    776.28207    792.70371    614.64223   -2931.8529 
 7113000    244.95051   -3938.1797   -3518.3429   -3938.1797            0    6297.7995    17.186187    20.243058    20.967108     7294.477    5695.9474    5577.1729    7620.2782    487.97197    2234.3307    578.04139   -2848.3675 
 7114000    258.03354   -3914.6155   -3472.3548   -3914.6155            0    5731.8227    17.205228    20.265486    20.990338    7318.7494    6088.5196    5162.6332    5944.3153    315.86093   -828.65171    603.27078   -2860.5604 
 7115000    249.84127   -3924.5544    -3496.335   -3924.5544            0     5168.991    17.235551    20.301203    21.027332    7357.5145    5430.5648    6241.5088    3834.8994     234.2229    693.65635     1559.616   -2941.6929 
 7116000    236.57305   -3935.5177   -3530.0396   -3935.5177            0    5873.1806    17.161167    20.213587    20.936583     7262.665    7084.9171    7109.6365    3424.9882    228.22247   -1000.4566    595.15815    -2907.961 
 7117000    253.08649   -3974.1694   -3540.3878   -3974.1694            0    5821.6427    17.113116    20.156991    20.877962    7201.8305     5793.305    5743.8072    5927.8161   -1518.0491   -817.02577   -320.86432    -2928.933 
 7118000    244.76027   -3957.5272   -3538.0165   -3957.5272            0    5086.7734    17.189244    20.246659    20.970837    7298.3705    6981.7214    2753.7636    5524.8353    942.99088    674.79629   -619.31562   -2996.5842 
 7119000    257.86568   -3947.7077   -3505.7348   -3947.7077            0    6454.4176    17.182044    20.238179    20.962054    7289.2037    7564.3644     6236.912    5561.9763   -235.40178    78.979363   -37.755199   -2819.5943 
 7120000    238.94678   -3931.2638   -3521.7172   -3931.2638            0    5323.8979    17.223044     20.28647    21.012073    7341.5084    4211.0958    5858.3397    5902.2584   -790.52195   -780.26362    581.60695   -2951.6962 
 7121000    251.18827   -3942.6953   -3512.1672   -3942.6953            0    5750.8159    17.164966    20.218063    20.941219    7267.4904    5667.4481     6439.101    5145.8985    997.75037   -1245.1163    1816.1039   -2902.6446 
 7122000     258.3526   -3904.5066   -3461.6991   -3904.5066            0     4253.062    17.221595    20.284764    21.010306    7339.6559    2952.6058    4417.2266    5389.3535   -34.891004     645.5836   -125.08258   -3006.4456 
 7123000    244.33041   -3948.3305   -3529.5565   -3948.3305            0    6307.2439    17.160443    20.212735      20.9357    7261.7459    5321.9152    6049.5828    7550.2337    616.56076    800.60334    93.205829   -2861.5871 
 7124000    255.32127   -3911.6228   -3474.0109   -3911.6228            0    6009.0909    17.201703    20.261334    20.986038    7314.2522    6404.2038    5458.4201    6164.6487   -1331.7088   -316.57619    -243.7305    -2833.016 
 7125000    268.03922   -3906.5526   -3447.1425   -3906.5526            0    5795.9744    17.164158    20.217111    20.940233     7266.464    4895.6536    7097.7769    5394.4927    39.891116     981.1371    1074.6445   -2832.9204 
 7126000    257.81075   -3950.2565   -3508.3777   -3950.2565            0    5359.1735    17.158258    20.210161    20.933034    7258.9725    6579.6078    4851.5031    4646.4095   -68.752831    1541.1478   -177.48347   -2941.0306 
 7127000    247.92979   -3908.2292    -3483.286   -3908.2292            0    4368.1334    17.252057    20.320644    21.047469    7378.6726    3126.0647    4762.8459    5215.4895    1151.8871    1563.1138    781.74407   -3013.2295 
 7128000    248.93222   -3893.0345   -3466.3732   -3893.0345            0    5280.3146    17.152767    20.203694    20.926336    7252.0062     5946.316    5258.5893    4636.0384    1071.5682    798.53162    651.29339   -2907.9109 
 7129000    256.69078   -3890.8733   -3450.9141   -3890.8733            0    7499.6495    17.159937    20.212139    20.935083    7261.1039    8298.0135    8947.4132    5253.5218    796.18269   -171.74488    518.02852   -2656.7331 
 7130000    244.69513   -3922.5791     -3503.18   -3922.5791            0    5127.5839    17.152018    20.202812    20.925422    7251.0562    4534.5759    6779.7635    4068.4125   -389.22252    717.65713    557.71805    -2960.942 
 7131000    245.51506   -3941.7083   -3520.9039   -3941.7083            0    4569.0083    17.183654    20.240074    20.964017    7291.2522     5937.385    4481.2217    3288.4181    662.47199    17.393712   -917.31805   -3035.0564 
 7132000    246.48076   -3900.6376    -3478.178   -3900.6376            0    5743.5789    17.193581    20.251767    20.976128    7303.8958    5289.8215    6303.2121    5637.7032    494.68641    783.84913   -112.29153    -2866.373 
 7133000     249.8461   -3927.7158   -3499.4882   -3927.7158            0    3013.3377    17.324128    20.405534    21.135395     7471.533    3619.2733    2569.3123    2851.4274    1646.0487    1945.4752    254.41654   -3171.1409 
 7134000    246.71113   -3940.4479   -3517.5934   -3940.4479            0    4866.0394    17.212951    20.274583     20.99976    7328.6098    5397.2792    4532.8157    4668.0233   -311.97878    896.19117   -233.44961   -2997.5099 
 7135000    232.62532   -3909.2449    -3510.533   -3909.2449            0    4250.1407    17.217914    20.280429    21.005815    7334.9508    4178.7544    3777.9328    4793.7349   -176.51859   -696.21813    365.76202   -3055.8838 
 7136000    250.93858   -3897.7128   -3467.6127   -3897.7128            0    5577.2795      17.1578    20.209622    20.932476    7258.3914    5378.8977    6846.9823    4505.9586    -458.7681    812.07183   -1072.3634   -2877.2231 
 7137000    250.86592   -3930.6336    -3500.658   -3930.6336            0    3557.0714    17.317946    20.398253    21.127854    7463.5378    3256.3309      4613.44    2801.4433    775.54335   -629.30611    439.49562   -3113.4777 
 7138000    250.76452   -3884.4139   -3454.6121   -3884.4139            0    5131.6281    17.187221    20.244276    20.968369     7295.794    5197.3301    4854.3003    5343.2539   -520.60149    -73.96887    974.33191   -2908.5982 
 7139000    232.22449   -3911.5804   -3513.5556   -3911.5804            0    5207.7895    17.189763     20.24727     20.97147    7299.0314    5176.1213    3744.4507    6702.7965   -905.38104   -2373.0203    978.20349   -2959.1922 
 7140000    249.19283   -3903.8845   -3476.7765   -3903.8845            0    5728.2512     17.24991    20.318116     21.04485    7375.9186    5246.8052    6903.7757    5034.1727    214.23604   -135.87371   -1103.2689   -2860.5873 
 7141000    253.64914   -3928.2695   -3493.5236   -3928.2695            0    4536.2309    17.218195    20.280759    21.006158    7335.3098    3807.4122    6437.3353    3363.9451    1226.2832     344.8658    300.10535   -3008.2468 
 7142000    246.54396   -3898.4041   -3475.8362   -3898.4041            0    5470.2023    17.189085    20.246471    20.970643    7298.1679    3651.9179    8534.9063    4223.7826   -546.20729   -212.83065   -731.39911   -2893.6081 
 7143000    234.95858    -3871.294   -3468.5831    -3871.294            0    6080.4846    17.147917    20.197981    20.920418    7245.8555    6782.0833    6011.6821    5447.6885    63.148171   -479.08975   -736.30273   -2826.0377 
 7144000    254.28045   -3883.5628   -3447.7348   -3883.5628            0     4755.095     17.20292    20.262767    20.987522    7315.8041    4369.0057    5670.8227    4225.4565    369.08097    1043.1179    519.78807   -2940.3971 
 7145000    258.26711   -3899.0212   -3456.3602   -3899.0212            0    5087.9463    17.233564    20.298862    21.024908    7354.9699    4357.7168    4812.6721    6093.4499   -96.149036   -293.80927    1666.2178   -2910.6032 
 7146000    239.32471   -3916.5112   -3506.3168   -3916.5112            0    5813.5661    17.187234    20.244291    20.968385    7295.8107    7776.9224    5654.7738     4009.002   -1092.8928    -32.43709    492.57331   -2887.7422 
 7147000    232.45272   -3903.5661   -3505.1501   -3903.5661            0    5178.4171    17.258629    20.328385    21.055487    7387.1082    5212.8635    5382.4216    4939.9662   -343.41042     -350.157    -1884.761   -2947.2616 
 7148000       238.88   -3907.7013   -3498.2692   -3907.7013            0    6103.8915    17.233563    20.298861    21.024907    7354.9687    5891.8153    5341.5779    7078.2814    2629.3471    302.43169   -1156.6921   -2843.5372 
 7149000    263.38509   -3900.0394   -3448.6064   -3900.0394            0    6442.7533    17.248693    20.316682    21.043365    7374.3569    6951.7858    8435.6655    3940.8086    1493.8008     541.6456   -1545.9944   -2755.7048 
 7150000     241.7704   -3917.3397   -3502.9536   -3917.3397            0    5318.9999    17.330732    20.413314    21.143453    7480.0817    5993.9765    5072.7063    4890.3169   -187.28726    939.49072   -176.98655   -2922.7075 
 7151000     265.9412    -3925.328   -3469.5139    -3925.328            0    3975.4641     17.36546    20.454218    21.185821    7525.1383    3288.9631      5060.22    3577.2091    918.52125    374.56628    15.463507   -3033.2209 
 7152000    234.94595   -3896.5002   -3493.8109   -3896.5002            0    4990.4081    17.302918    20.380552     21.10952    7444.1249     6788.822    2140.9951    6041.4072    472.43553   -1867.1992    2225.1327   -2952.0276 
 7153000    252.70587   -3887.9261   -3454.7969   -3887.9261            0    5194.0855    17.230185    20.294882    21.020785    7350.6441    6419.2605    3801.6749     5361.321   -800.58903   -1616.6808    697.69402   -2897.9826 
 7154000    249.83458   -3906.1106   -3477.9027   -3906.1106            0    5904.9842    17.210873    20.272136    20.997225    7325.9563    5226.9474    5357.9684    7130.0369     295.6608    717.29398    1182.7976    -2847.005 
 7155000    247.13522   -3889.8139   -3466.2326   -3889.8139            0     5397.911    17.296501    20.372993    21.101691    7435.8454    7036.6398    4532.9549    4624.1382    1271.4463   -1226.3434   -114.91957   -2880.8606 
 7156000    222.86955   -3874.8614   -3492.8706   -3874.8614            0    3535.4478    17.298002    20.374762    21.103522    7437.7817    2538.9717    2520.3546    5547.0172   -756.34429    245.07041   -1642.4232    -3109.372 
 7157000    242.87825     -3914.67    -3498.385     -3914.67            0    3041.0575    17.308811    20.387493    21.116709    7451.7336    2643.1949    4281.4773    2198.5003   -843.74848    593.52965    669.53112   -3167.8954 
 7158000    242.20517   -3901.9851   -3486.8537   -3901.9851            0    7249.0704    17.230641    20.295419    21.021341    7351.2275      8837.21    5022.3205    7887.6808   -80.499851   -598.57889    405.21851     -2709.68 
 7159000    242.03566   -3906.9489   -3492.1081   -3906.9489            0    5017.5167    17.260202    20.330239    21.057407    7389.1289    6588.8268    4137.8529    4325.8705    403.12783    445.49895   -358.51033   -2951.4061 
 7160000    258.80374    -3895.215   -3451.6342    -3895.215            0    5039.9609    17.282986    20.357075    21.085203    7418.4289    2878.2726    5766.6366    6474.9734   -776.77416   -2810.5028   -143.03557     -2906.36 
 7161000    248.50876   -3949.1918   -3523.2563   -3949.1918            0    7390.8161    17.198287     20.25731     20.98187    7309.8953     7952.469    7037.7212    7182.2582   -945.12847    -682.8523     78.94647   -2735.3411 
 7162000    249.04485   -3932.6561   -3505.8017   -3932.6561            0    6392.2454    17.255207    20.324355    21.051312    7382.7152    6271.2404    7769.9101    5135.5857   -191.42729   -665.45137    189.46115    -2817.553 
 7163000    246.71805   -3905.4575   -3482.5912   -3905.4575            0    4177.7372    17.282368    20.356347    21.084449    7417.6331    5240.3004    2588.9545    4703.9568     1287.491   -1160.5177   -383.22579   -3030.6496 
 7164000    244.01884   -3922.8401   -3504.6002   -3922.8401            0    5828.6339    17.226116    20.290089    21.015822    7345.4381    6655.0896    5149.8466    5680.9655    1516.6275   -691.93535   -345.19293   -2880.2038 
 7165000    238.85061   -3909.8327   -3500.4509   -3909.8327            0    6263.8083    17.260576    20.330679    21.057863    7389.6092    6592.0576    6784.5385    5414.8289    747.70737    -1618.583   -592.10277   -2825.4011 
 7166000    247.30159   -3890.4295    -3466.563   -3890.4295            0    4929.0547    17.251683    20.320203    21.047012    7378.1922    4824.4293    5764.6129    4198.1219    586.94873    243.98619   -165.78427   -2936.1802 
 7167000    240.80055   -3913.8619    -3501.138   -3913.8619            0    5484.4615    17.160579    20.212895    20.935866    7261.9188     6587.757    5759.9006    4105.7268    192.10592    258.70481    593.56948   -2920.2916 
 7168000     263.6369   -3889.6239   -3437.7593   -3889.6239            0    5358.4711    17.176728    20.231917    20.955568    7282.4398    4749.0412    5634.2235    5692.1488    908.79622   -129.42402   -522.91301   -2868.6526 
 7169000     257.9628    -3886.239   -3444.0996    -3886.239            0    6602.1674    17.236293    20.302076    21.028237    7358.4638    6042.8297     8116.983    5646.6894    948.34426    817.33328     692.3923   -2735.5837 
 7170000    255.62125   -3910.2708   -3472.1447   -3910.2708            0    5079.4216    17.372165    20.462115       21.194    7533.8573    5522.5538    5852.6232    3863.0876    -317.3679    1094.2825    193.28228   -2914.0504 
 7171000    246.98941   -3926.5924    -3503.261   -3926.5924            0    3544.3511    17.435061    20.536199    21.270733    7615.9833    3781.5958    2478.5182    4372.9394    1123.6546    -349.4326   -228.85456   -3109.5853 
 7172000    248.94094   -3928.3753    -3501.699   -3928.3753            0    6169.8751    17.306721    20.385032     21.11416    7449.0346    6500.0952    6709.2602    5300.2697   -522.70999   -53.815038   -165.39859   -2831.4252 
 7173000    245.36184   -3927.9629   -3507.4211   -3927.9629            0     4795.673    17.213705     20.27547    21.000679    7329.5722    3456.8554    6180.7686    4749.3951   -437.35472   -219.74287   -1198.7512    -2994.791 
 7174000    242.76697   -3923.6514   -3507.5572   -3923.6514            0    4029.6865    17.286929    20.361719    21.090013    7423.5072    3347.0611    4728.7286    4013.2697   -436.16805    1141.1251   -378.72727   -3071.2862 
 7175000    243.94409   -3906.9615   -3488.8497   -3906.9615            0    5423.0968     17.25167    20.320188    21.046997    7378.1761    5574.6108    4741.4607     5953.219   -524.88884    130.77115   -92.499285   -2905.3075 
 7176000    252.35631   -3948.8961    -3516.366   -3948.8961            0    5207.4545     17.22056    20.283545    21.009043    7338.3329    6696.1554    4367.8283    4558.3797   -70.302815    1677.6143    708.16542   -2959.0535 
 7177000    255.31573   -3905.2644   -3467.6619   -3905.2644            0    4822.7223     17.22923    20.293757     21.01962    7349.4217    6171.1724    4367.5105    3929.4839    86.589427    -469.3486    326.06862   -2950.7444 
 7178000    260.44696   -3903.7213   -3457.3241   -3903.7213            0     6431.049    17.194003    20.252264    20.976643    7304.4342    7762.6554    4710.7288    6819.7628   -239.08792    537.31065   -454.53421   -2772.2393 
 7179000    236.53296    -3875.548   -3470.1386    -3875.548            0    5548.7225    17.167467    20.221009     20.94427     7270.667    6205.2302     4248.737    6192.2002    33.190332    120.11179    496.33134   -2881.7786 
 7180000    245.82317   -3894.8878   -3473.5554   -3894.8878            0    4894.6435    17.251084    20.319499    21.046283    7377.4247    4101.1901    5423.3836    5159.3569   -1059.8683   -807.32547    220.52003     -2946.93 
 7181000    245.53938   -3883.9954   -3463.1493   -3883.9954            0    6807.1226    17.218699    20.281353    21.006772    7335.9535    6076.6403    6396.1167    7948.6109   -1304.3903    123.36076   -481.00136   -2734.8733 
 7182000    267.90785   -3878.6865   -3419.5016   -3878.6865            0    4736.3734    17.225405    20.289251    21.014953    7344.5279    6186.1801     6250.775    1772.1652   -1229.2305   -309.53005    -351.3889   -2912.1773 
 7183000    249.80239   -3894.1916   -3466.0388   -3894.1916            0    5134.4372    17.247446    20.315214    21.041844    7372.7585    3695.2957     6276.339    5431.6767   -85.746295   -1245.6109    348.61667    -2913.963 
 7184000    241.83947   -3898.9245   -3484.4199   -3898.9245            0    4739.2262    17.237258    20.303214    21.029415     7359.701    3545.6052    5632.1954    5039.8781    -988.9664    549.19082   -1650.3084   -2975.7412 
 7185000    255.03984   -3875.4768   -3438.3472   -3875.4768            0     4097.144    17.289112     20.36429    21.092676    7426.3195    2243.8043    6117.4872    3930.1404    498.90011   -954.87881    14.815731    -2994.605 
 7186000    248.69376   -3873.1128   -3446.8602   -3873.1128            0    4184.2918    17.248275     20.31619    21.042855    7373.8213     3990.182    3250.4257    5312.2678    297.19309    732.85539    391.99614   -2996.8831 
 7187000    246.55993    -3932.387   -3509.7917    -3932.387            0    4774.3045     17.31868    20.399118     21.12875    7464.4872    4790.0684    4191.0173    5341.8278   -558.37782   -438.65068    248.81846   -2990.0519 
 7188000    253.68866   -3882.8512   -3448.0375   -3882.8512            0    6215.1792    17.243047    20.310032    21.036478    7367.1186    6304.6253    6438.4589    5902.4534    270.78764    -379.0128   -993.39562    -2780.267 
 7189000    245.42087   -3933.6365   -3512.9935   -3933.6365            0    4929.6012    17.249823    20.318013    21.044744    7375.8066    3991.5215    6021.0225    4776.2595   -379.73467    313.17401    675.09045   -2982.7233 
 7190000    261.46338   -3899.7426   -3451.6033   -3899.7426            0    5284.1126    17.305127    20.383154    21.112215    7446.9764    5242.5248    4841.6275    5768.1854   -284.20299   -1178.0312    791.68213   -2877.7142 
 7191000    237.75611   -3862.3701   -3454.8642   -3862.3701            0    4747.9134    17.305766    20.383907    21.112994    7447.8015    5825.4974    4457.5789     3960.664    21.664887    1201.8142   -361.71186   -2939.1528 
 7192000      254.998   -3914.8612   -3477.8033   -3914.8612            0    5788.7527    17.292865    20.368711    21.097255    7431.1577    6051.4469    5774.8626    5539.9485   -760.28574   -84.654212   -698.28393   -2850.4425 
 7193000    234.75318   -3881.2311   -3478.8722   -3881.2311            0    5397.8483     17.26977    20.341507    21.069079    7401.4229    5450.2343    5883.0663    4860.2444   -111.07389   -318.61751   -1187.8806   -2896.2168 
 7194000    250.24507   -3883.8433   -3454.9319   -3883.8433            0    3389.6139    17.277511    20.350626    21.078523    7411.3807    2836.7021    3996.3007     3335.839    2015.6089   -1024.9899   -1178.7382   -3088.5574 
 7195000    248.60228   -3906.3132   -3480.2174   -3906.3132            0    5227.7068     17.24326    20.310283    21.036737    7367.3911    4995.9436    7022.1677    3665.0089    408.30523   -999.46679     464.2028   -2918.5221 
 7196000    255.03023   -3914.8381    -3477.725   -3914.8381            0    4158.5663    17.244418    20.311647     21.03815    7368.8759    5835.2536      1614.45    5025.9954    636.51939    275.16472    1116.1867   -3030.8142 
 7197000    248.77472   -3904.0576   -3477.6662   -3904.0576            0    6079.4352    17.235274    20.300876    21.026994    7357.1595    4921.2597     6393.054     6923.992    1068.9357    150.69452   -987.35496   -2825.3634 
 7198000    259.38891   -3918.3076   -3473.7238   -3918.3076            0    4115.4487    17.265828    20.336865     21.06427    7396.3565    3279.4451    5154.1802    3912.7207    135.89172    1088.3173   -21.159258   -3029.7975 
 7199000    247.45883   -3886.4564   -3462.3204   -3886.4564            0     5823.928    17.205515    20.265824    20.990689    7319.1162    5400.4176    6618.6368    5452.7294    2599.6265   -786.02164    1330.0097   -2840.6638 
 7200000     254.5205   -3938.3036   -3502.0642   -3938.3036            0    5176.6241    17.154495    20.205729    20.928443    7254.1975    4410.3339    5263.3494    5856.1889     508.3328   -804.27088    551.39324   -2954.4031 
 7201000    246.30322   -3922.9795   -3500.8242   -3922.9795            0    5889.6428    17.178396    20.233882    20.957603    7284.5618    6000.2055    5998.1906    5670.5324    1431.7447    153.64017    432.82744   -2875.1212 
 7202000    252.83562   -3921.6392   -3488.2876   -3921.6392            0    5043.8142    17.218466    20.281079    21.006488    7335.6562    6324.2819    4528.2907    4278.8701    471.57365   -761.75899    95.494241   -2948.6852 
 7203000    230.11775   -3913.5399    -3519.126   -3913.5399            0    5291.9464    17.131406    20.178533    20.900275    7224.9459    4394.0433    4982.1541    6499.6418   -1099.2637   -381.72774   -1018.9805   -2961.5219 
 7204000    241.73902   -3941.5794    -3527.247   -3941.5794            0     4288.947    17.163896    20.216802    20.939913    7266.1309    4795.7755    3560.6454    4510.4201    706.70938    713.23938   -967.75654   -3072.7513 
 7205000    247.67603    -3954.647   -3530.1387    -3954.647            0    5366.7458    17.156143    20.207671    20.930455    7256.2894     5610.078    5205.6662    5284.4931     271.5523   -512.02939    829.05187      -2962.2 
 7206000    246.64375   -3947.9901   -3525.2511   -3947.9901            0    4462.3442    17.171645     20.22593    20.949367     7275.977    4437.4482    3211.9337    5737.6508    877.05099    1742.8428   -466.86403   -3051.7399 
 7207000    243.34389   -3935.1108   -3518.0277   -3935.1108            0    3816.0559    17.223202    20.286656    21.012266    7341.7102    3088.8002    4852.9396     3506.428    2374.4975   -1249.1648   -651.57554   -3109.4376 
 7208000    252.22946   -3925.8768   -3493.5641   -3925.8768            0    5379.8055      17.1817    20.237773    20.961634    7288.7656    5123.6953     5515.807    5499.9143    178.90947    119.65035     556.5921   -2921.6953 
 7209000    244.70739    -3924.642   -3505.2219    -3924.642            0    5067.5122    17.250896    20.319276    21.046052    7377.1825    4446.4462    4602.5711    6153.5192   -1574.3101    248.60441     242.3815   -2960.0151 
 7210000    261.86173   -3912.0027   -3463.1807   -3912.0027            0    4814.5021    17.201836    20.261491      20.9862    7314.4221    5380.6681    4229.7156    4833.1225   -137.31072   -436.82781    37.970887   -2949.6017 
 7211000    234.38138   -3885.5039   -3483.7823   -3885.5039            0     6295.208    17.125617    20.171715    20.893213    7217.6244    6977.0192    6174.1429    5734.4619    169.83593    1587.6165    888.02429   -2821.1383 
 7212000    245.75159   -3891.6035   -3470.3937   -3891.6035            0    6599.2859    17.147252    20.197198    20.919607    7245.0131    5488.7266    7573.6317    6735.4994   -1010.5896   -61.014944    474.48035   -2773.1059 
 7213000     259.3796   -3904.7352   -3460.1675   -3904.7352            0    5942.2518    17.234921    20.300461    21.026564    7356.7079    6072.2789    4817.3361    6937.1404     296.4912    337.54016   -1866.2821   -2822.6231 
 7214000    240.07887   -3892.0704   -3480.5835   -3892.0704            0     3487.123    17.262804    20.333303    21.060581    7392.4711    2767.8065    4355.2336     3338.329    1190.9266    718.10245   -129.67945   -3104.6311 
 7215000    232.18609   -3939.4178   -3541.4588   -3939.4178            0    2736.5799    17.330258    20.412755    21.142874    7479.4675    1384.0433    5092.4585    1733.2378    1611.5873    114.04176    -1654.445   -3242.9517 
 7216000    242.54742    -3912.916    -3497.198    -3912.916            0    6761.4198    17.226102    20.290073    21.015804    7345.4198    6927.7528    6065.1011    7291.4053    852.97171    574.70959    132.21649   -2772.8781 
 7217000    244.80302    -3931.201   -3511.6171    -3931.201            0    6150.4164    17.277712    20.350862    21.078768     7411.639     5590.409    6754.7981    6106.0423    23.482612   -1624.4996    422.39533   -2846.8115 
 7218000    251.35278   -3913.8624   -3483.0523   -3913.8624            0    4870.0108    17.247483    20.315257    21.041889    7372.8054    6095.5382     4373.017     4141.477   -428.99138    401.44831    351.38112   -2959.4054 
 7219000    241.73812   -3847.9437   -3433.6129   -3847.9437            0    6149.9637    17.144888    20.194414    20.916724    7242.0176    6065.1759    6381.9346    6002.7805    136.79084    1059.1534   -463.49135   -2784.0697 
 7220000    250.60226   -3919.4065   -3489.8828   -3919.4065            0    6557.9323    17.142802    20.191957    20.914179    7239.3744     6110.365    6048.7331    7514.6988    143.00845   -378.91449   -1962.3087   -2797.5039 
 7221000    246.73026   -3905.4318   -3482.5446   -3905.4318            0    4253.8842    17.184406     20.24096    20.964935      7292.21    4430.6296    4579.9282    3751.0948    136.03038   -1001.6889    542.96869   -3030.1465 
 7222000    242.40697   -3906.6771   -3491.1999   -3906.6771            0    5220.2603    17.165228    20.218371    20.941538    7267.8226    5722.4036    4827.2904    5111.0868   -364.31861   -795.70229   -695.19739    -2937.885 
 7223000    239.17643   -3913.2773    -3503.337   -3913.2773            0    4728.5113    17.165492    20.218683     20.94186    7268.1583    5404.8454    5268.4584    3512.2301    1761.5518   -160.05123    424.00905   -3002.1213 
 7224000    250.49317   -3913.0008    -3483.664   -3913.0008            0    6030.9672    17.162968    20.215709    20.938781    7264.9524    8136.1406    4910.8234    5045.9375   -679.62182     564.0955   -510.63188   -2844.6717 
 7225000    242.22964   -3945.2471   -3530.0738   -3945.2471            0    5286.2792    17.142759    20.191906    20.914126      7239.32    5332.0819    5445.4719    5081.2839   -58.230129   -479.56622    967.18007   -2971.9587 
 7226000    251.32359   -3936.1817   -3505.4216   -3936.1817            0    3979.0691    17.202614    20.262407    20.987149    7315.4138     4296.238    5086.4103     2554.559   -2478.2985   -917.27281   -89.252005   -3080.9035 
 7227000    264.80316   -3884.2099   -3430.3463   -3884.2099            0    4767.6461    17.213925     20.27573    21.000949    7329.8541    5179.3939    5809.9546    3313.5898   -691.30107   -592.07898    1562.8222   -2920.6926 
 7228000    254.01591   -3892.1305   -3456.7559   -3892.1305            0    6466.1767    17.114927    20.159123    20.880171    7204.1163    6533.9412    6957.5099    5907.0788    -911.5315    1379.0772   -492.68901   -2777.3894 
 7229000    251.66481   -3918.6307   -3487.2858   -3918.6307            0    5425.2067    17.192443    20.250427     20.97474    7302.4459    5991.2076    4049.2384    6235.1741    116.06427    270.21962    -595.0161   -2909.5085 
 7230000    263.94392   -3929.2836   -3476.8927   -3929.2836            0    4548.2591    17.215018    20.277018    21.002282    7331.2506    3228.5691    6422.3261    3993.8822   -51.491348   -1851.6211    957.61059   -2990.5985 
 7231000    246.75035   -3893.3187    -3470.397   -3893.3187            0    3896.1087    17.221845    20.285058     21.01061    7339.9751    4232.8332    3602.1376    3853.3553   -1559.4344   -1054.9913   -310.70649   -3053.3342 
 7232000    259.71015    -3928.027   -3482.8927    -3928.027            0    5057.3819    17.207905    20.268639    20.993604    7322.1664    5050.3384    4793.7796    5328.0277    56.495616    380.76877   0.36264949   -2942.8337 
 7233000    243.13943   -3930.1284   -3513.3957   -3930.1284            0    6315.5664    17.264078    20.334803    21.062135    7394.1074    5632.7263    6278.0856    7035.8873   -156.85981    32.663877    208.15124   -2832.3536 
 7234000     259.7377   -3936.3123   -3491.1307   -3936.3123            0    4951.9978    17.275882    20.348707    21.076536    7409.2847    4603.8653    6724.3697    3527.7585   -551.61521   -479.46554   -148.46513   -2956.0336 
 7235000    245.60536   -3956.2006   -3535.2414   -3956.2006            0    5667.1925    17.251774    20.320311    21.047124    7378.3098    5290.5258    6446.5182    5264.5335    903.62456   -2255.5013    493.78927   -2925.4227 
 7236000    246.80332   -3953.6688   -3530.6563   -3953.6688            0    4237.7918     17.27922    20.352638    21.080607    7413.5797     4980.877    4668.0783    3064.4202   -511.43359    210.03167    1058.4235   -3072.4686 
 7237000    240.34862     -3921.45   -3509.5007     -3921.45            0    4435.9936    17.285293    20.359792    21.088017    7421.4002     4515.038    2707.9937    6084.9491    747.33426     -2119.62    309.64127   -3029.3776 
 7238000    254.94416   -3939.5673   -3502.6018   -3939.5673            0    5819.8314    17.206434    20.266907    20.991809    7320.2887     6973.347    4286.6241    6199.5232    -640.6621    309.04482    819.27472   -2881.2829 
 7239000    240.92761   -3942.4259   -3529.4842   -3942.4259            0    4948.8906     17.23673    20.302592    21.028771    7359.0245    5060.5877    4743.6361    5042.4479    620.88797    2596.9602    404.84188   -2998.3504 
 7240000     247.2345   -3944.1353   -3520.3839   -3944.1353            0     5968.934    17.219731    20.282568    21.008031    7337.2724    7505.2921    5180.8376    5220.6724    -1310.972   -57.742643   -597.73734   -2881.6686 
 7241000    237.81444   -3940.8351   -3533.2293   -3940.8351            0    4455.5935    17.212259    20.273768    20.998916    7327.7261    4579.6778    3882.7383    4904.3644    994.10707   -41.106512    -1435.358   -3057.0717 
 7242000    240.84127   -3924.5347    -3511.741   -3924.5347            0    5686.8244    17.168911    20.222709    20.946031    7272.5012    4946.4371    6923.9298    5190.1062    478.53506    539.45978    910.42053   -2908.5852 
 7243000    254.42773   -3937.0855   -3501.0051   -3937.0855            0    5198.5158    17.203397    20.263329    20.988104    7316.4131    4847.0554    5802.2452    4946.2469    -697.7738    193.06041    669.93453   -2946.3111 
 7244000    258.21647   -3947.3763   -3504.8021   -3947.3763            0    3617.6653    17.263104    20.333656    21.060947    7392.8563    4338.6041    1491.2641    5023.1277   -1183.5581    1599.5254   -946.66769   -3114.7555 
 7245000    257.11723   -3923.0976   -3482.4075   -3923.0976            0    4746.1526      17.2291    20.293604    21.019461    7349.2554    5332.4417    4997.2804    3908.7357    257.63561    235.04226     156.4531   -2973.7084 
 7246000    249.70469   -3934.0246   -3506.0393   -3934.0246            0    5087.9976    17.171059     20.22524    20.948652    7275.2322    6398.7907    4029.2675    4835.9347    1109.0204    865.36636   -1132.9035   -2966.1936 
 7247000      249.692   -3949.2649   -3521.3014   -3949.2649            0    4389.6151    17.324402    20.405857     21.13573    7471.8875    5274.2446    3149.5635    4745.0372   -1414.4157   -516.61151   -1022.3434   -3042.9658 
 7248000    254.42914   -3924.5852   -3488.5024   -3924.5852            0    5782.2013    17.160946    20.213328    20.936315    7262.3854    7902.4207    3469.3678    5974.8153   -395.99571     601.6949    893.09274   -2876.0838 
 7249000    234.66691   -3940.5161   -3538.3051   -3940.5161            0    5911.9717    17.237231    20.303181    21.029382     7359.666     4979.134    6344.9088    6411.8723   -240.79237   -383.52858    812.57171   -2903.7544 
 7250000    258.26438   -3928.7627   -3486.1064   -3928.7627            0    6107.1051    17.296181    20.372616      21.1013    7435.4325    5221.4935    7826.0053    5273.8166    463.15794   -273.90584     71.75151   -2823.8632 
Loop time of 542.193 on 64 procs for 250000 steps with 864 atoms

Performance: 79.676 ns/day, 0.301 hours/ns, 461.090 timesteps/s
99.1% CPU use with 64 MPI tasks x 1 OpenMP threads

MPI task timing breakdown:
Section |  min time  |  avg time  |  max time  |%varavg| %total
---------------------------------------------------------------
Pair    | 20.374     | 25.678     | 30.52      |  47.1 |  4.74
Bond    | 0.28799    | 0.29863    | 0.31505    |   1.2 |  0.06
Kspace  | 230.5      | 243.49     | 262.44     |  47.3 | 44.91
Neigh   | 4.9579     | 6.0251     | 8.0241     |  31.4 |  1.11
Comm    | 111.08     | 132.21     | 146.45     |  68.3 | 24.38
Output  | 1.7182     | 1.7195     | 1.7212     |   0.0 |  0.32
Modify  | 124.16     | 127.78     | 132.44     |  20.6 | 23.57
Other   |            | 4.991      |            |       |  0.92

Nlocal:        13.5000 ave          18 max           9 min
Histogram: 3 0 9 13 6 11 11 4 5 2
Nghost:        2161.61 ave        2189 max        2142 min
Histogram: 5 6 13 3 12 12 5 6 1 1
Neighs:        4154.58 ave        5802 max        2399 min
Histogram: 1 3 5 13 9 13 5 8 4 3

Total # of neighbors = 265893
Ave neighs/atom = 307.74653
Ave special neighs/atom = 2.0000000
Neighbor list builds = 12732
Dangerous builds = 0

unfix		3
unfix		2
unfix		1

write_data	data.final.${pid}
write_data	data.final.0
System init for write_data ...
PPPM initialization ...
  extracting TIP4P info from pair style
  using 12-bit tables for long-range coulomb (../kspace.cpp:340)
  G vector (1/distance) = 0.37427775
  grid = 24 24 25
  stencil order = 5
  estimated absolute RMS force accuracy = 0.0030700927
  estimated relative force accuracy = 9.2454929e-06
  using double precision FFTW3
  3d grid and FFT values/proc = 2730 288
Last active /omp style is kspace_style pppm/tip4p/omp
WARNING: Not all mixed pair coeffs generated from mixing. Use write_data with 'pair ij' option to store all pair coeffs. (../write_data.cpp:312)

write_restart   restart.lmp.${pid}
write_restart   restart.lmp.0
System init for write_restart ...
PPPM initialization ...
  extracting TIP4P info from pair style
  using 12-bit tables for long-range coulomb (../kspace.cpp:340)
  G vector (1/distance) = 0.37427775
  grid = 24 24 25
  stencil order = 5
  estimated absolute RMS force accuracy = 0.0030700927
  estimated relative force accuracy = 9.2454929e-06
  using double precision FFTW3
  3d grid and FFT values/proc = 2730 288
Last active /omp style is kspace_style pppm/tip4p/omp
Total wall time: 0:09:04
