LAMMPS (30 Jul 2021)
  using 1 OpenMP thread(s) per MPI task
package omp 0
using multi-threaded neighbor list subroutines
echo both

include		in.partitions
variable        pid world 0
include		in.temp
variable        temperature equal 267.75
variable	tempDamp equal 100.0
include		in.pressure
variable        pressure equal 10250.0
variable        pressureDamp equal 1000.0 # This is 1 ps
include		in.seed
variable        seed world 745823

units		real
atom_style	full
read_restart	restart.lmp.${pid}
read_restart	restart.lmp.0
Reading restart file ...
  restart file = 30 Jul 2021, LAMMPS = 30 Jul 2021
  restoring atom style full from restart
  orthogonal box = (0.65106403 1.8583987 0.79429660) to (17.556508 21.770779 21.418899)
  4 by 4 by 4 MPI processor grid
  restoring pair style lj/cut/tip4p/long/omp from restart
  restoring bond style harmonic/omp from restart
  restoring angle style harmonic/omp from restart
  864 atoms
  576 bonds
  288 angles
Finding 1-2 1-3 1-4 neighbors ...
  special bond factors lj:    0        0        0       
  special bond factors coul:  0        0        0       
     2 = max # of 1-2 neighbors
     1 = max # of 1-3 neighbors
     1 = max # of 1-4 neighbors
     2 = max # of special neighbors
  special bonds CPU = 1.375 seconds
  read_restart CPU = 1.621 seconds
include 	in.setup
variable	out_freq equal 1000
variable	out_freq2 equal 10000
variable	out_freq3 equal 1000

timestep	2.0

neigh_modify    delay 7 every 1

include		in.tip4p
# This is TIP4P/Ice

# create groups ###
group ox type 2
288 atoms in group ox
group hy type 1
576 atoms in group hy

# set charges - beside manually ###
set group ox charge -1.1794
Setting atom values ...
  288 settings made for charge
set group hy charge 0.5897
Setting atom values ...
  576 settings made for charge

# ### TIP3P Potential Parameters ###
pair_style lj/cut/tip4p/long/omp 2 1 1 1 0.1577 8.5
pair_coeff 1 1*2 0.000 0.000
pair_coeff 2 2 0.21084 3.1668
bond_style  harmonic
bond_coeff  1 450 0.9572
angle_style harmonic
angle_coeff 1 55 104.52
kspace_style pppm/tip4p/omp 1.0e-5
pair_modify tail yes

thermo          ${out_freq}
thermo          1000
thermo_style    custom step temp pe etotal epair emol press lx ly lz vol pxx pyy pzz pxy pxz pyz enthalpy

restart 	${out_freq3} restart.lmp.${pid} restart2.lmp.${pid}
restart 	1000 restart.lmp.${pid} restart2.lmp.${pid}
restart 	1000 restart.lmp.0 restart2.lmp.${pid}
restart 	1000 restart.lmp.0 restart2.lmp.0


include         in.dump
dump            myDump all atom ${out_freq2} dump.water.${pid}
dump            myDump all atom 10000 dump.water.${pid}
dump            myDump all atom 10000 dump.water.0
dump            myDump2 all dcd ${out_freq2} dump.dcd
dump            myDump2 all dcd 10000 dump.dcd
dump_modify     myDump append yes
dump_modify     myDump2 append yes


variable natoms 	equal  "count(all)"                        # NUMBER ATOMS
variable H      	equal  "enthalpy/v_natoms"                 # ENTHALPY-per-atom
variable Vol      	equal  "vol/v_natoms"                 # volume-per-atom
fix AVG all 		ave/time ${out_freq} 1 ${out_freq} v_Vol v_H file vol_enthalpy.dat
fix AVG all 		ave/time 1000 1 ${out_freq} v_Vol v_H file vol_enthalpy.dat
fix AVG all 		ave/time 1000 1 1000 v_Vol v_H file vol_enthalpy.dat


timer           timeout 23:50:00 every 1000
New timer settings: style=normal  mode=nosync  timeout=23:50:00

fix 		1 all shake 1e-6 200 0 b 1 a 1
       0 = # of size 2 clusters
       0 = # of size 3 clusters
       0 = # of size 4 clusters
     288 = # of frozen angles
  find clusters CPU = 0.055 seconds
fix             2 all nph iso ${pressure} ${pressure} ${pressureDamp}
fix             2 all nph iso 10250 ${pressure} ${pressureDamp}
fix             2 all nph iso 10250 10250 ${pressureDamp}
fix             2 all nph iso 10250 10250 1000
fix             3 all temp/csvr ${temperature} ${temperature} ${tempDamp} ${seed}
fix             3 all temp/csvr 267.75 ${temperature} ${tempDamp} ${seed}
fix             3 all temp/csvr 267.75 267.75 ${tempDamp} ${seed}
fix             3 all temp/csvr 267.75 267.75 100 ${seed}
fix             3 all temp/csvr 267.75 267.75 100 745823

run             250000
PPPM initialization ...
  extracting TIP4P info from pair style
  using 12-bit tables for long-range coulomb (../kspace.cpp:340)
  G vector (1/distance) = 0.37459988
  grid = 24 24 24
  stencil order = 5
  estimated absolute RMS force accuracy = 0.0031226203
  estimated relative force accuracy = 9.4036783e-06
  using double precision FFTW3
  3d grid and FFT values/proc = 2535 216
Last active /omp style is kspace_style pppm/tip4p/omp
Neighbor list info ...
  update every 1 steps, delay 7 steps, check yes
  max neighbors/atom: 2000, page size: 100000
  master list distance cutoff = 10.8154
  ghost atom cutoff = 10.8154
  binsize = 5.4077, bins = 4 4 4
  1 neighbor lists, perpetual/occasional/extra = 1 0 0
  (1) pair lj/cut/tip4p/long/omp, perpetual
      attributes: half, newton on, omp
      pair build: half/bin/newton/omp
      stencil: half/bin/3d
      bin: standard
Per MPI rank memory allocation (min/avg/max) = 9.237 | 9.240 | 9.243 Mbytes
Step Temp PotEng TotEng E_pair E_mol Press Lx Ly Lz Volume Pxx Pyy Pzz Pxy Pxz Pyz Enthalpy 
13000000    269.94117   -3818.0815   -3355.4116   -3818.0815            0    9295.8651    16.905444     19.91238    20.624603    6942.8113    13212.628    7580.2357    7094.7319    1267.1592   -2706.9357    499.71244   -2414.1701 
13001000    272.35733   -3843.2972    -3376.486   -3843.2972            0     9357.127    16.870338     19.87103    20.581773    6899.6484     10694.32    8213.6181    9163.4426    763.29204   -1237.2634   -1101.8117   -2434.9317 
13002000    269.86805   -3823.9501   -3361.4055   -3823.9501            0    8422.4593     16.90252    19.908936    20.621035    6939.2088    9074.2175    6656.8287    9536.3318     211.7377    752.78981   -378.22978   -2509.0422 
13003000     271.9855   -3847.7085   -3381.5347   -3847.7085            0    11110.837     16.87437    19.875779    20.586692    6904.5968    10061.357    13393.314    9877.8388   -454.33388   -1404.8573    1387.5383   -2262.7127 
13004000    254.60026   -3844.9027   -3408.5266   -3844.9027            0    10593.026    16.861897    19.861088    20.571475     6889.297    11203.822    9374.2488    11201.008   -52.795867    859.15972   -1886.6179     -2344.21 
13005000     265.9114   -3811.7605   -3355.9974   -3811.7605            0    8771.6492    16.894459    19.899441    20.611201    6929.2857    7821.8252    10361.205    8131.9174     1082.274    519.35201   -1119.4545   -2469.5651 
13006000    269.38136   -3812.1497   -3350.4393   -3812.1497            0    7055.1658    16.932149    19.943835    20.657182    6975.7648    6742.1143    9018.4129    5404.9701    91.841175    285.40494    248.04519   -2632.6864 
13007000    268.84306   -3812.4105   -3351.6227   -3812.4105            0    11461.176    16.855069    19.853044    20.563144    6880.9303    10434.313    10514.322    13434.892   -1241.9294    841.58131   -300.38934   -2201.4787 
13008000    271.43568   -3830.3108   -3365.0793   -3830.3108            0    9700.7241    16.901379    19.907591    20.619642    6937.8032    10526.801    9695.9084    8879.4628    1410.5521   -590.70509   -385.15935   -2383.5528 
13009000    280.92916   -3845.5553   -3364.0523   -3845.5553            0    12882.469    16.813852    19.804497     20.51286    6830.5746    14524.407    11959.581    12163.418    626.94961   -66.180519     1003.822   -2080.7404 
13010000    265.22597   -3837.9591   -3383.3709   -3837.9591            0    10669.477     16.88815     19.89201    20.603504    6921.5259    9456.8705    10179.773    12371.788   -948.01004    867.91985    541.44626   -2306.3581 
13011000    276.98333   -3839.4423   -3364.7024   -3839.4423            0    10753.758    16.825684    19.818434    20.527295    6845.0054    9982.7412    9066.1677    13212.366    2142.3959   -1622.7993   -79.191008   -2291.1828 
13012000     268.2635   -3804.4307   -3344.6362   -3804.4307            0    7912.4586    16.941202    19.954499    20.668227    6986.9603    5385.3007    8805.8595    9546.2155    1280.2468    131.39382   -1305.7748   -2538.3753 
13013000    273.99216   -3814.8286   -3345.2154   -3814.8286            0    9548.1558    16.909667    19.917354    20.629755    6948.0155    8680.0363    9316.7069    10647.724   -680.96183   -207.24481    1584.4679   -2377.7039 
13014000    262.44132   -3836.3968   -3386.5814   -3836.3968            0     12316.06    16.852994    19.850601    20.560614    6878.3902    9731.9942     15027.64    12188.546   -480.26062   -1864.2645   -3330.6213   -2151.1049 
13015000    263.47323    -3829.361   -3377.7769    -3829.361            0     8973.753    16.885071    19.888384    20.599748    6917.7409    8611.1273    9855.8213    8454.3105    495.46574    -460.3496    442.23418   -2472.4315 
13016000    272.00024     -3829.97   -3363.7709     -3829.97            0    11224.455    16.839451     19.83465    20.544091    6861.8214    10068.397    12161.084    11443.884    1742.6743    421.71736    594.10169   -2240.5102 
13017000    280.75669   -3837.5732   -3356.3658   -3837.5732            0    11160.937    16.873572    19.874839    20.585718    6903.6165    12340.364    9838.7662    11303.682    -1223.093     835.7652    107.49558   -2232.6585 
13018000    254.48753   -3831.9526   -3395.7697   -3831.9526            0    10501.159    16.914185    19.922676    20.635266    6953.5859    12090.266    10535.955    8877.2553    141.64296    -1520.705    -2450.656   -2330.8375 
13019000     261.9392   -3854.6244   -3405.6696   -3854.6244            0    10563.858    16.946861    19.961164    20.675131    6993.9645    10419.035    9498.0732    11774.464    898.23243   -1497.5779    1313.2149   -2328.1583 
13020000    258.69505   -3867.1576   -3423.7631   -3867.1576            0    8068.8221    16.978313     19.99821    20.713502    7032.9768     5844.442     10022.41    8339.6145     757.5982    1067.0207   -428.85169   -2596.1541 
13021000    272.13427   -3838.5961   -3372.1673   -3838.5961            0      11221.2    16.866423    19.866418    20.576996    6894.8454    14052.684    9408.1149    10202.802    814.71335   -564.92251    -704.8134   -2243.8279 
13022000    270.71327   -3791.7508   -3327.7575   -3791.7508            0    10921.173    16.843042    19.838878    20.548471    6866.2111    11754.159    10165.339    10844.022   -59.474344   -295.72415   -1572.6806   -2234.1479 
13023000    256.53188   -3836.5893   -3396.9025   -3836.5893            0    10249.865    16.882963      19.8859    20.597176    6915.1499    11231.034    9587.4907    9931.0689     244.6893   -1273.6001    1928.9064   -2363.1998 
13024000    286.65373   -3831.6092   -3340.2945   -3831.6092            0    8561.2677    16.895869    19.901101     20.61292    6931.0202    7415.1497    8892.6835      9375.97   -97.201793   -61.549626   -29.673533    -2474.906 
13025000      265.173   -3832.2142   -3377.7168   -3832.2142            0    9939.3382    16.884714    19.887962    20.599311    6917.3012    7409.6186    9964.8613    12443.535   -640.90531     833.7151   -2360.9483    -2375.019 
13026000    276.18064   -3801.7451   -3328.3809   -3801.7451            0    11056.911     16.83168    19.825495     20.53461    6852.3251    11600.151    10204.808    11365.774    101.90343    2174.4737   -129.14324   -2223.4181 
13027000    275.80435   -3807.4933    -3334.774   -3807.4933            0    8681.2523    16.874411    19.875827    20.586741     6904.646    8120.3157     11896.22    6027.2207   -596.43385    648.09684    1699.0161   -2460.5964 
13028000    263.11445   -3852.5895   -3401.6203   -3852.5895            0    12107.465    16.850991    19.848242     20.55817    6875.9382    11872.963    11480.226    12969.207    432.57997    794.05022     484.2558   -2187.5018 
13029000    255.87313   -3826.3438   -3387.7861   -3826.3438            0    10095.087    16.877343    19.879281    20.590319    6908.2463    11172.596    10794.458    8318.2079    851.81947    1770.6804    1348.1676   -2370.7092 
13030000    277.29785    -3805.328    -3330.049    -3805.328            0    11102.614    16.860991     19.86002     20.57037    6888.1865     8094.875    11226.072    13986.894   -1853.9279    204.93111   -77.197956   -2214.7123 
13031000    281.32767   -3800.4167   -3318.2307   -3800.4167            0    11784.149    16.888541    19.892471    20.603981    6922.0065    10964.334    11738.321    12649.792   -586.85963    1111.9424   -7.8560454   -2128.6165 
13032000    271.35557   -3858.5939   -3393.4997   -3858.5939            0    9780.8616     16.88337     19.88638    20.597672    6915.6501    11011.314    8328.6235    10002.647   -1807.7854    647.69959     18.26241   -2407.0249 
13033000    275.94138   -3847.5476   -3374.5935   -3847.5476            0    10034.999    16.837957    19.832889    20.542268    6859.9944    8458.5615    9800.4212    11846.014    -1070.205    924.88204   -290.96171   -2370.6321 
13034000    266.90268   -3868.3288   -3410.8667   -3868.3288            0    10525.574    16.817887     19.80925    20.517783     6835.494    11758.681    8933.6653    10884.375   -1146.8671    771.52015    1195.6896   -2361.5863 
13035000    247.15661   -3866.0322   -3442.4143   -3866.0322            0    10749.578    16.835345    19.829812    20.539081    6856.8023    11985.802    9990.4096    10272.522   -1601.4876   -566.40253    980.42042   -2367.4626 
13036000    258.27663   -3859.5116   -3416.8343   -3859.5116            0    12416.679    16.799611    19.787722    20.495486     6813.233    11001.012    13869.689    12379.337   -1165.7919   -11.983017   -1629.6247   -2183.0632 
13037000    280.37401   -3863.4445    -3382.893   -3863.4445            0    9530.2334    16.831994    19.825866    20.534994    6852.7093    8205.1009    10181.531    10204.068   -972.11331    218.15368    706.18946    -2430.444 
13038000    269.92157   -3863.8513   -3401.2149   -3863.8513            0    10168.858     16.91414    19.922623    20.635211    6953.5305    8375.7846    10831.752    11299.036    -1459.156    179.11092    758.85434     -2369.99 
13039000    271.25608    -3838.384   -3373.4603    -3838.384            0    9289.3324    16.924884    19.935278    20.648319    6966.7895      8761.15     8074.403    11032.444   -1759.3775    1184.2169   -2353.8875   -2429.6318 
13040000    255.23461    -3823.785   -3386.3216    -3823.785            0    11633.617    16.886338    19.889875    20.601292    6919.2972    13023.748    12161.895    9715.2072    746.14327   -239.59378   -1644.6733   -2212.3635 
13041000     268.2181   -3841.4676    -3381.751   -3841.4676            0    10406.844    16.938174    19.950932    20.664533    6983.2143    10705.354    10964.928    9550.2508    103.88222    136.26218   -1740.3148   -2321.8865 
13042000    265.83859   -3831.6074   -3375.9692   -3831.6074            0    9855.6387    16.906913    19.914111    20.626395    6944.6212    8330.8231    10256.982    10979.111   -1975.1238    1608.5776   -1624.7596   -2377.7883 
13043000    270.59204   -3823.5749   -3359.7894   -3823.5749            0    10901.625    16.869277    19.869781    20.580479     6898.347    10891.897    13715.657      8097.32    749.95355    2545.3036   -2477.6395    -2263.028 
13044000    275.47959   -3820.4194   -3348.2568   -3820.4194            0    11601.799    16.882079    19.884859    20.596097    6914.0636    12582.459    12637.848    9585.0911   -453.70119    -1054.683    407.32134   -2178.3949 
13045000    258.56897   -3852.9709   -3409.7925   -3852.9709            0    11325.697    16.852362    19.849856    20.559842    6877.6156    12403.451    11877.526    9696.1151   -233.79234   -924.96486    220.23366   -2273.7915 
13046000    280.10409    -3868.924   -3388.8352    -3868.924            0     9429.165    16.908119    19.915531    20.627866    6946.1072     11484.96    7562.9754    9239.5592    985.00904    811.63304   -213.77315   -2433.6434 
13047000    260.62437   -3862.0446   -3415.3433   -3862.0446            0     9723.901    16.883998     19.88712    20.598438     6916.422     8951.686    9743.5934    10476.423   -1798.8066    384.98506   -194.60232    -2434.504 
13048000    268.55555   -3845.5677   -3385.2727   -3845.5677            0     8673.639     16.90377    19.910408    20.622559    6940.7481    9222.6063    8864.9706    7933.3402   -919.78241    1649.7048    852.42959   -2507.2949 
13049000    273.68337    -3827.952   -3358.8681    -3827.952            0    10679.255    16.821138    19.813078    20.521749    6839.4582    11500.001    11357.802    9179.9624    676.98563   -2096.3224    2602.1718     -2293.65 
13050000    261.05384   -3864.5842   -3417.1469   -3864.5842            0    8892.1333    16.889121    19.893154    20.604689    6922.7198    9846.8842    9701.4486     7128.067   -1353.6845    322.42327    2383.5098   -2519.3903 
13051000     271.6637   -3838.3565   -3372.7342   -3838.3565            0    10331.953    16.906716    19.913878    20.626154    6944.3782    10769.195     9197.491    11029.173    50.018226   -216.13304    1630.7452   -2326.3488 
13052000    268.36886   -3865.9695   -3405.9945   -3865.9695            0    9620.2171    16.902795     19.90926     20.62137    6939.5476    11430.435    9191.1342    8239.0816   -898.88272   -800.38492   -173.91779    -2432.369 
13053000    270.01772   -3872.6623   -3409.8612   -3872.6623            0    10876.215    16.859603    19.858385    20.568676    6886.4849    10781.336    10438.123    11409.185    -245.5314    707.47979   -313.02151   -2317.5377 
13054000     271.3532   -3834.4062   -3369.3161   -3834.4062            0    8815.4376     16.95189    19.967088    20.681267    7000.1927    10540.257    8062.9505    7843.1052   -1682.8947    609.84333    389.82704   -2469.3426 
13055000    269.47398   -3807.4284   -3345.5592   -3807.4284            0    10763.323    16.885536    19.888931    20.600315    6918.3122    10583.304    10906.968    10799.698    1204.3125    344.27722   -779.00703   -2259.5777 
13056000    279.31628   -3813.9933   -3335.2547   -3813.9933            0    10170.477    16.928753    19.939835    20.653039     6971.568    9100.1738    9685.3696    11725.889   -229.58806    398.36933   -572.06461   -2301.1901 
13057000     270.7445   -3858.4635   -3394.4167   -3858.4635            0    9512.0736    16.921432    19.931212    20.644108    6962.5281    8095.7833    11627.866    8812.5714     555.7232    807.09142    665.35174   -2428.5481 
13058000    255.81538   -3826.8495   -3388.3907   -3826.8495            0    10263.288    16.899897    19.905846    20.617835    6935.9788    8900.8117    10757.417    11131.636    1170.2413    154.65167   -674.77473   -2350.2166 
13059000    276.51657   -3842.3597   -3368.4197   -3842.3597            0    11534.156     16.83259    19.826567     20.53572    6853.4365     13351.52    8454.0325    12796.914    909.47943   -414.47085   -132.85964   -2215.5769 
13060000    249.40423   -3863.9498   -3436.4795   -3863.9498            0    11027.897    16.850888    19.848121    20.558045    6875.8121    12693.959    10226.216    10163.518   -35.354696   -541.61138     573.0695   -2330.6387 
13061000    266.77686   -3853.2272   -3395.9808   -3853.2272            0    9050.0232    16.936834    19.949353    20.662897    6981.5564    7536.3978    9760.4905    9853.1812   -209.30092   -229.94592    956.36321   -2474.5179 
13062000    269.31362   -3818.1217   -3356.5274   -3818.1217            0    11696.553    16.904106    19.910804     20.62297    6941.1622     12023.96    11778.082    11287.619   -527.52564   -577.11664    846.67095   -2172.4884 
13063000    268.97652   -3786.0159   -3324.9994   -3786.0159            0    11642.622     16.86462    19.864295    20.574797    6892.6348     13008.97    10945.991    10972.904    1889.0746   -1386.5448   -477.73095   -2154.6597 
13064000    262.51961   -3811.1497   -3361.2001   -3811.1497            0    9743.1403    16.927546    19.938413    20.651567    6970.0776    8680.4412    8562.5288    11986.451   -1020.8677   -653.00099   -562.51809   -2370.7959 
13065000    258.77577   -3869.1595   -3425.6267   -3869.1595            0    7290.9209    16.915066    19.923714    20.636341    6954.6726    8188.9659    7600.0565    6083.7403   -1385.6351    308.29703    14.769841   -2686.1321 
13066000    282.71484   -3825.0146   -3340.4511   -3825.0146            0    10599.171    16.873582    19.874851     20.58573    6903.6289     12496.76    11287.131    8013.6225   -1225.0745   -1557.7089    1113.6268   -2273.3017 
13067000    257.53895    -3851.828    -3410.415    -3851.828            0     9130.364    16.915187    19.923856    20.636489     6954.822    9902.9584    8730.7855    8757.3481   -1272.1651   -28.361608   -1286.6823   -2484.3318 
13068000    271.06681   -3832.1031   -3367.5039   -3832.1031            0    10992.457    16.859318     19.85805    20.568329    6886.1363    12297.726    8614.4239     12065.22   -331.73988    2242.2682   -626.84734   -2263.5619 
13069000    257.28836   -3837.7243   -3396.7409   -3837.7243            0     11817.81     16.84867    19.845508    20.555338    6873.0969    10558.095    11270.746     13624.59    1352.5838   -315.15158    1260.8938   -2212.1582 
13070000    272.94237   -3823.5499    -3355.736   -3823.5499            0    11088.934    16.921243    19.930989    20.643877    6962.2939    9969.7422    11230.171     12066.89   -478.72265    229.02561   -1940.4632   -2229.7887 
13071000    264.76171   -3833.3707   -3379.5782   -3833.3707            0    11749.914    16.865277    19.865068    20.575598      6893.44    10139.675    11893.148    13216.918   -587.29994   -421.56524    1256.4185   -2198.3153 
13072000    276.89531   -3794.2206   -3319.6316   -3794.2206            0    9790.6728    16.970261    19.988726    20.703679    7022.9761    10545.631    9255.0331    9571.3544   -235.43696    2178.5068    68.537899   -2316.8424 
13073000    254.38702    -3860.318   -3424.3073    -3860.318            0    10603.248    16.905344    19.912262     20.62448    6942.6873    11291.899    10833.607    9684.2378   -1332.9497   -144.71392    223.57949   -2350.7075 
13074000    283.35232   -3859.7808   -3374.1246   -3859.7808            0    12377.024    16.838408     19.83342    20.542818    6860.5454    12037.966    12875.178    12217.929   -1108.2641    76.864912   -75.497775   -2135.7536 
13075000    264.19008   -3845.4664   -3392.6536   -3845.4664            0    11303.282     16.85026     19.84738    20.557278    6875.0426    12031.593    10594.619    11283.636    211.07255    400.38805   -1352.1257    -2259.325 
13076000    272.86042   -3857.4905   -3389.8171   -3857.4905            0    9971.0686    16.916645    19.925573    20.638267    6956.6202     9497.562    10158.092    10257.552   -281.98353   -500.73742    1815.6427   -2378.2006 
13077000    265.38204   -3850.9341   -3396.0784   -3850.9341            0    11537.297    16.827862    19.820998    20.529952    6847.6634    11518.667     11419.02    11674.206    636.36704   -1511.9828   -850.80639   -2243.8929 
13078000     272.0102   -3804.4183   -3338.2021   -3804.4183            0    9202.4724    16.903296     19.90985    20.621982    6940.1647    8806.3302    9369.5116    9431.5756   -1802.4688    49.530851   -1068.0817   -2406.7722 
13079000    273.57718   -3844.6621   -3375.7602   -3844.6621            0     12859.65     16.77439    19.758016    20.464717    6782.5941    12811.041    11579.607    14188.302   -58.096489   -1431.4845   -2238.4973   -2103.7199 
13080000    275.32878   -3807.7555   -3335.8514   -3807.7555            0    9875.2308    16.873874    19.875194    20.586087    6903.9872    10439.396    10421.136    8765.1603    315.26887    429.06088    -715.9951   -2341.5384 
13081000      285.145   -3864.5789   -3375.8501   -3864.5789            0     11624.97    16.826603    19.819515    20.528416    6846.1262    12593.994    10254.404    12026.513    229.62985   -1167.4628   -782.18265   -2215.1698 
13082000    269.04996    -3876.053   -3414.9106    -3876.053            0    9357.1802    16.892145    19.896715    20.608377    6926.4385    9378.6671     10796.07    7896.8035    1531.7549   -549.01826    451.17485    -2469.695 
13083000    263.30446   -3851.9976   -3400.7027   -3851.9976            0     8914.968    16.865998    19.865918    20.576478    6894.3245    10948.551    7617.9918    8178.3609   -1112.4292   -321.50206   -381.21147   -2504.3326 
13084000    283.26522   -3845.5361   -3360.0292   -3845.5361            0     9643.375    16.951085    19.966139    20.680284    6999.1954     8984.315    10224.695    9721.1151     3331.622    1474.7776    1190.4415   -2375.6712 
13085000    272.89528   -3854.2505   -3386.5173   -3854.2505            0    9943.8426    16.799889     19.78805    20.495825    6813.5716    10157.874    10984.158    8689.4953    739.04901    3014.1485    848.95167   -2398.4081 
13086000    271.00077    -3857.536     -3393.05    -3857.536            0    10933.849    16.867199    19.867332    20.577943    6895.7972    9295.3353    11806.371    11699.841    1206.2712    1207.4314    118.45566   -2293.4532 
13087000    271.61753   -3896.8756   -3431.3324   -3896.8756            0    8739.1814    16.925156    19.935598     20.64865     6967.125    8708.8423    8318.4563    9190.2456    -253.0224    789.13958   -496.86869   -2543.3584 
13088000    265.39806   -3831.7495   -3376.8663   -3831.7495            0    11994.689    16.877304    19.879235    20.590271    6908.1984    14891.071    11451.049    9641.9467     2269.995   -1305.2688   -671.60162   -2168.4135 
13089000    262.87853   -3900.0764   -3449.5116   -3900.0764            0    8851.1798    16.912618     19.92083    20.633354    6951.6533    7716.2088    10792.844     8044.487   -266.58885   -26.801481    1960.0794   -2552.1548 
13090000     266.1369   -3865.0889   -3408.9394   -3865.0889            0    8734.4266    16.890089    19.894294    20.605869    6923.9102    8811.7478    9466.3272    7925.2048   -54.610218   -255.25456   -141.22803   -2526.9533 
13091000    260.81204   -3876.7489    -3429.726   -3876.7489            0    10304.318    16.841905    19.837539    20.547085    6864.8211    10340.786    9679.6011    10892.568    511.59863   -1208.6307    529.91976    -2398.095 
13092000    263.71067    -3832.321     -3380.33    -3832.321            0    12776.552    16.844501    19.840597    20.550252    6867.9959     13376.21     12107.86    12845.586    -261.2761   -205.18137   -254.82726   -2100.5964 
13093000    262.14404   -3872.9736   -3423.6677   -3872.9736            0    9925.4648    16.866227    19.866188    20.576757    6894.6053    8941.2936    10142.616    10692.485    -1463.357     297.9541   -378.80207   -2425.6548 
13094000    259.75987   -3863.5403   -3418.3208   -3863.5403            0    9600.1072    16.917653     19.92676    20.639497    6957.8634      9233.67    9606.0119    9960.6398    689.34172    292.53553    539.70436   -2444.1662 
13095000    267.70445   -3868.4282    -3409.592   -3868.4282            0     10540.06    16.861901    19.861092     20.57148    6889.3017    9308.3611    9138.4976     13173.32   -482.68525    888.94439   -345.38698   -2350.5964 
13096000    268.83513   -3829.7152    -3368.941   -3829.7152            0    9838.2089    16.889838    19.893999    20.605563    6923.6017     10202.75    10240.336    9071.5401   -96.175802   -177.47884    17.026712   -2375.5413 
13097000    273.05172   -3863.3183    -3395.317   -3863.3183            0    12309.503    16.872255    19.873287    20.584111    6902.0002    11741.439    14108.862    11078.208    1320.4218   -1688.5492      1854.13   -2156.2598 
13098000    269.57284   -3910.0622   -3448.0236   -3910.0622            0    8564.6782    16.944138    19.957956    20.671809    6990.5932     9352.808    8390.8139    7950.4128   -104.58252   -1994.1498   -751.16288   -2574.8492 
13099000    267.56258   -3847.6141    -3389.021   -3847.6141            0    8941.4847    16.909397    19.917036    20.629425    6947.6822    9897.5015     7268.004    9658.9487    98.609755   -325.65651    -1096.747   -2483.0267 
13100000    270.43495   -3854.9008   -3391.3845   -3854.9008            0    11836.817    16.841229    19.836743     20.54626    6863.9948    10167.219    13340.872    12002.359   -899.74876   -1057.2948   -59.755012    -2206.468 
13101000    271.93791   -3887.7377   -3421.6454   -3887.7377            0    11799.463    16.821995    19.814088    20.522794    6840.5034    11166.254    13194.207    11037.927    733.50638    1192.0352   -1811.2144   -2244.5106 
13102000     264.3428   -3827.5132   -3374.4387   -3827.5132            0    11434.843    16.880189    19.882632    20.593791    6911.7412    11190.716    10973.161    12140.654    310.18526   -387.59538   -1804.0899    -2221.799 
13103000    267.47137   -3852.5678    -3394.131   -3852.5678            0    8769.1666    16.959792    19.976395    20.690907    7009.9865     8985.478    11375.765    5946.2564    10.318239   -1049.6893    182.68678   -2497.6287 
13104000    270.65557    -3847.317   -3383.4226    -3847.317            0    9625.6747    16.897078    19.902526    20.614395    6932.5083    9139.9038    10900.447    8836.6733   -863.19185    736.80615    1543.2079    -2410.233 
13105000    278.81518   -3847.1496   -3369.2699   -3847.1496            0    11001.743    16.868633    19.869022    20.579693    6897.5568    11473.135     11891.87    9640.2235   -774.87456    754.56937    266.44976   -2262.5629 
13106000    262.07967   -3863.9895   -3414.7939   -3863.9895            0    10090.112    16.843312    19.839197    20.548801    6866.5417    10317.768    11444.174    8508.3953    848.62185   -1259.5049   -488.61723   -2404.3552 
13107000     260.7917   -3873.8543   -3426.8662   -3873.8543            0    9911.2585    16.876088    19.877802    20.588787    6906.7048    11918.611    7791.6753    10023.489   -451.40652   -347.31634     23.09538   -2428.5328 
13108000    261.99876   -3867.0095   -3417.9526   -3867.0095            0    10969.551    16.860859    19.859864    20.570208     6888.024     11168.14    9913.1081    11827.406   -589.45698   -630.69752    -472.0176   -2316.0089 
13109000     263.2767   -3848.2794   -3397.0322   -3848.2794            0    8150.8477    16.846961    19.843495    20.553253    6871.0056    7489.4229    9484.5741     7478.546    820.53526   -1206.2704    1688.6573   -2580.2637 
13110000    270.83803   -3853.7736   -3389.5665   -3853.7736            0    8345.3457    16.899738    19.905659    20.617641     6935.783    7392.3093    8995.3454    8648.3824    646.37093    294.24664   -547.27349   -2545.4241 
13111000    272.34218   -3808.9641   -3342.1789   -3808.9641            0    10805.339     16.85574    19.853836    20.563964     6881.753    11880.367     11253.43     9282.219    760.05208   -1669.4112     -101.546   -2257.7193 
13112000    259.02635   -3823.1414   -3379.1791   -3823.1414            0    10052.363    16.868539    19.868911    20.579579    6897.4415    10551.709    8269.3575    11336.022   -969.24943    1732.0827    601.39027   -2367.9907 
13113000    258.73106   -3825.0204   -3381.5642   -3825.0204            0    10602.608    16.851076    19.848341    20.558273    6876.0411    11678.789    9229.6083    10899.428   -1905.1503    175.34252    1052.1291   -2318.3346 
13114000     268.0433   -3792.4573   -3333.0402   -3792.4573            0    10459.025    16.847237     19.84382     20.55359     6871.343    10602.402    11041.521     9733.151    719.67588   -17.164686   -12.361859   -2284.9258 
13115000    275.92223   -3867.5819   -3394.6606   -3867.5819            0    7697.6499    16.917493    19.926573    20.639302     6957.667    7585.6892    7123.8062    8383.4542    105.16779    86.205369   -121.30889   -2613.5767 
13116000    260.55413   -3890.8458   -3444.2649   -3890.8458            0    10661.098    16.882424    19.885265    20.596517     6914.487    10311.224    12038.073     9633.995    187.76021    574.46163   -276.31209   -2369.1924 
13117000    256.69441   -3882.2977   -3442.3323   -3882.2977            0    9858.8378     16.89735    19.902846    20.614728    6932.8435    11338.387    8252.5152    9985.6111   -127.92287    2133.5362   -345.86376   -2445.5209 
13118000    261.57616   -3873.5251   -3425.1925   -3873.5251            0    13067.115    16.835828    19.830381     20.53967    6857.3923    13277.168    13770.058    12154.118   -1474.8749    1145.0408    562.57978   -2118.3761 
13119000    260.77779   -3824.2159   -3377.2517   -3824.2159            0    9758.9262    16.929199     19.94036    20.653583    6972.1196    9961.9951    9221.3377    10093.446   -14.460019    944.79643    1371.4261   -2384.9523 
13120000    260.17775   -3848.8305   -3402.8947   -3848.8305            0    10817.115    16.848782    19.845639    20.555474    6873.2337    10195.757    10148.156    12107.433    1720.5865    175.84323   -431.65819   -2318.5972 
13121000    265.06037   -3857.0128   -3402.7084   -3857.0128            0    10566.258    16.877272    19.879197    20.590232    6908.1591    10795.283    11041.094     9862.397    8.1086263    -1710.744    379.63843   -2338.1747 
13122000    281.90619   -3814.9308   -3331.7532   -3814.9308            0    10690.593     16.82299     19.81526    20.524009     6841.718    11293.117    9783.7597    10994.902    986.43128   -1036.7929    407.81475   -2265.0519 
13123000    248.02373   -3855.4215   -3430.3173   -3855.4215            0    10321.459    16.874407    19.875823    20.586737    6904.6419    9591.1989     12508.01    8865.1669    501.05488    1295.4831    807.53557   -2390.9762 
13124000    287.03112   -3858.1407   -3366.1791   -3858.1407            0    10893.419    16.834931    19.829325    20.538577    6856.2971    11318.185    9524.8277    11837.244    -454.1695   -85.060764   -304.79561   -2276.9237 
13125000    283.94186   -3823.0906   -3336.4239   -3823.0906            0    10717.459    16.901113    19.907278    20.619318    6937.4756    10432.337    10284.305    11435.735   -891.48413    613.75885    59.972339   -2252.0746 
13126000    272.06929   -3848.3715    -3382.054   -3848.3715            0    9935.3504    16.875728    19.877379    20.588349    6906.2636    10592.795    10385.078    8828.1779    270.52026   -487.83853   -1478.8223   -2381.3579 
13127000    269.23808   -3852.8524   -3391.3875   -3852.8524            0    9951.3643    16.926797    19.937531    20.650653    6969.1519     9353.313     11456.49    9044.2903   -951.20209    394.78198     1284.164   -2379.9515 
13128000    273.20347   -3855.4352   -3387.1738   -3855.4352            0    10849.617    16.879007    19.881241    20.592349    6910.2898    11812.713    9019.0239    11717.113   -1466.6711    1446.8468    590.48495    -2293.755 
13129000    280.22897   -3834.9284   -3354.6255   -3834.9284            0    9656.9714     16.88998    19.894166    20.605736    6923.7761    9362.8963    9651.4909    9956.5271    -1742.949     378.4614    1633.6197   -2379.5015 
13130000    264.68685   -3864.1753   -3410.5111   -3864.1753            0     12746.76    16.814208    19.804916    20.513294    6831.0082    11932.887    12894.461    13412.933   -416.51996    959.03166    421.47413   -2140.6374 
13131000    274.12575   -3894.7215   -3424.8794   -3894.7215            0    9320.4358    16.816408    19.807508    20.515979    6833.6905    8941.4971    8669.9442    10349.866    444.92042    591.97913   -813.09677   -2495.9827 
13132000    274.91117   -3821.5488   -3350.3604   -3821.5488            0    10564.118    16.895896    19.901133    20.612953    6931.0536    9661.9506    10851.129    11179.274   -870.21791     376.9558   -411.00924   -2282.5151 
13133000     266.4928    -3844.925   -3388.1655    -3844.925            0    12117.563    16.863223    19.862649    20.573092    6890.9219     12041.26    12919.056    11392.373   -884.41876   -32.754635    741.78675   -2170.3864 
13134000    257.09099   -3856.4888   -3415.8437   -3856.4888            0    9560.8111    16.918241    19.927453    20.640215    6958.5897    8735.3957    10111.657    9835.3809     1329.857    655.94005    339.10174   -2445.5753 
13135000    269.16087   -3909.5087   -3448.1762   -3909.5087            0    8990.6471    16.860464      19.8594    20.569727    6887.5406    9986.4094     8184.459    8801.0729    463.63534   -2405.9639   -313.81486   -2545.0862 
13136000    263.82939   -3822.9532   -3370.7586   -3822.9532            0    12027.822    16.826343    19.819209    20.528099    6845.8089    12835.439    11865.316    11382.712     686.7503   -514.33858   -350.22779   -2169.9116 
13137000    258.80987   -3819.0392   -3375.4479   -3819.0392            0    10219.615    16.851159    19.848439    20.558374    6876.1428    11073.587     9776.135    9809.1225    373.85388   -600.00177   -459.64118   -2350.6097 
13138000    263.37597   -3813.9148   -3362.4974   -3813.9148            0    8088.1047    16.955143    19.970918    20.685234    7004.2225    8477.9574    9564.4654    6221.8914    596.66668   -184.26708   -1300.2356   -2536.3024 
13139000    255.73004   -3856.2325     -3417.92   -3856.2325            0     12518.23    16.863762    19.863284     20.57375    6891.5825     12514.39    12196.752    12843.548   -124.90562   -762.53444   -138.47643   -2159.7545 
13140000     266.6534    -3823.954   -3366.9192    -3823.954            0    9050.5922    16.908401    19.915863     20.62821    6946.4552    8875.9115    7023.7059    11252.159   -50.143457   -698.59893    739.77423   -2450.0316 
13141000     252.7694   -3829.7225   -3396.4844   -3829.7225            0    8865.4711    16.880906    19.883477    20.594666    6912.6225    9037.9742    7938.0921     9620.347    1837.4457   -933.26386   -1694.4122   -2502.7252 
13142000    252.79683   -3808.5936   -3375.3084   -3808.5936            0    9974.2281     16.82352    19.815885    20.524656    6842.3648    10444.359    11255.897    8222.4287    1656.2686    2938.6673   -200.44737   -2379.9915 
13143000    262.46996   -3816.6897   -3366.8252   -3816.6897            0    9784.7253    16.808397    19.798072    20.506206    6823.9292    10134.422     10548.42    8671.3347    -74.15065   -120.37486     224.5555   -2393.0492 
13144000    254.52063    -3815.203   -3378.9633    -3815.203            0    11291.773    16.848049    19.844777    20.554581    6872.3372    12612.042    11792.574    9470.7032    1216.3162    1560.9167    283.27134   -2247.2342 
13145000    272.15335   -3817.1537   -3350.6922   -3817.1537            0    10327.433    16.896906    19.902323    20.614186    6932.2967    9204.2197    9819.6475    11958.431    2144.2672    469.69171    1591.4919   -2306.5842 
13146000    255.70392   -3834.5596   -3396.2919   -3834.5596            0    10130.516    16.851575    19.848929    20.558882    6876.6524     8472.395     11331.14    10588.013   -951.56418      360.644   -957.56963   -2380.3133 
13147000    260.70649   -3851.4876   -3404.6456   -3851.4876            0    11443.398    16.813651     19.80426    20.512615    6830.3297    11615.909    10681.284    12033.001    953.30336   -469.03416    1019.0162   -2264.7304 
13148000    257.10123   -3851.8748   -3411.2121   -3851.8748            0    8929.7453    16.919437    19.928862    20.641674    6960.0656    10653.945    9806.2073     6329.084   -314.72135    239.83579   -270.21363   -2504.7946 
13149000    267.44738   -3804.8371   -3346.4414   -3804.8371            0    9336.8201    16.948456    19.963043    20.677077    6995.9391    7594.7831    8683.9415    11731.736    -594.3409   -247.83954     84.74962   -2393.8188 
13150000    257.47452    -3838.945   -3397.6425    -3838.945            0    8233.9814    16.932193    19.943887    20.657236    6975.8193    8192.4974    7923.0976    8586.3492   -824.69716   -1536.4764    42.469197    -2559.957 
13151000    279.77931   -3822.9909   -3343.4587   -3822.9909            0    11102.612    16.841916    19.837553    20.547098    6864.8348    13756.789    10545.853    9005.1931   -1438.4113    176.60139    528.05152   -2231.9032 
13152000    255.21006   -3822.8331   -3385.4118   -3822.8331            0    11181.062    16.808253    19.797902    20.506029    6823.7532    12235.163    11052.861    10255.163    925.73596   -992.77784   -699.41145   -2272.7011 
13153000    278.72604   -3862.2719   -3384.5451   -3862.2719            0    9090.2057    16.911591    19.919621    20.632102    6950.3874    7375.0909    9745.6413    10149.885   -945.89869   -101.02164   -704.98997    -2463.123 
13154000    255.89395   -3825.9974   -3387.4039   -3825.9974            0    10489.867    16.840514    19.835902    20.545388     6863.121    10822.361    10548.298    10098.943    -44.06285   -1288.6265    1548.0169   -2337.4565 
13155000    273.82101   -3845.1386   -3375.8187   -3845.1386            0    9622.2473    16.868613    19.868998    20.579668    6897.5316    8780.7189    11507.384    8578.6392   -755.76787   -221.88366   -1331.6677   -2407.8839 
13156000    247.69212   -3855.6205   -3431.0847   -3855.6205            0    10789.437    16.793692    19.780751    20.488265    6806.0341    10054.276    11610.067    10703.968   -930.94851    432.10652    495.28971   -2360.1357 
13157000    251.01782   -3841.8192   -3411.5833   -3841.8192            0     8969.277    16.858517    19.857106    20.567351    6885.1547    7634.0357    10487.649    8786.1464    233.65633   -714.18125    575.01265    -2510.952 
13158000    276.53038   -3870.5701   -3396.6065   -3870.5701            0    10926.081    16.820695    19.812556    20.521208    6838.9175    12074.839    10645.517    10057.888    1694.8943    487.80263   -1023.2979   -2306.8545 
13159000    264.73332   -3849.7905   -3396.0466   -3849.7905            0     9262.366    16.882733     19.88563    20.596895    6914.8675    8070.8599    8833.2852    10882.953    704.70962   -1162.0286   -195.57823   -2461.9717 
13160000    274.85916   -3842.3285   -3371.2293   -3842.3285            0    9379.5096     16.87674    19.878571    20.589583     6907.506    10772.132     11070.15    6296.2464   -82.073616   -822.63718    121.03545   -2426.3479 
13161000    261.29151   -3892.3807    -3444.536   -3892.3807            0    9892.4688    16.902153    19.908503    20.620587    6938.7564    8595.5016    10002.561    11079.344    -1050.559   -516.88935    607.06885   -2443.4711 
13162000    256.44162   -3867.6733   -3428.1411   -3867.6733            0    8480.7795    16.919647    19.929109     20.64193    6960.3246    9386.6141    6506.8783    9548.8461   -1135.8338   -1014.5557    681.69017    -2567.264 
13163000    259.97975   -3840.8943   -3395.2979   -3840.8943            0    8804.7011    16.863507    19.862984     20.57344    6891.2707    10851.081    7125.4994     8437.523    1915.3166    2606.7006    1106.7186   -2510.4068 
13164000    277.14784   -3869.6115   -3394.5896   -3869.6115            0    11606.605    16.770412     19.75333    20.459864    6777.7696    12493.251    11323.197    11003.366   -702.21202   -173.27714   -1238.5258   -2247.3137 
13165000      272.983    -3866.803   -3398.9195    -3866.803            0    12264.812    16.785461    19.771056    20.478223    6796.0317    12765.237    11174.817    12854.383    219.69972   -1390.4861   -571.14323   -2183.3153 
13166000    274.05108   -3862.4526   -3392.7384   -3862.4526            0    9444.6005    16.826567    19.819474    20.528373    6846.0831     11154.79    9439.6439    7739.3678    98.567743    2859.7106    1257.0723   -2449.7602 
13167000    251.96061   -3886.7712   -3454.9194   -3886.7712            0    9891.7953    16.840344    19.835701     20.54518    6862.9125    9798.5915    9243.4704    10633.324   -750.04828   -1990.4419    568.09977    -2464.864 
13168000    271.82469   -3822.0389   -3356.1407   -3822.0389            0    10046.268    16.843752    19.839715    20.549338    6867.0803    9575.3303    10839.635    9723.8377   -358.16941   -1334.0296    546.23172   -2350.0138 
13169000    279.37358   -3838.8123   -3359.9756   -3838.8123            0    8814.7692    16.844931    19.841104    20.550777    6868.5222    8223.8557    8508.0644    9712.3874    44.984391    -1227.497    -1694.231    -2476.997 
13170000    276.26726   -3882.9733   -3409.4607   -3882.9733            0    11249.487    16.881286    19.883925    20.595129    6913.0894    10154.149    11462.015    12132.296   -887.36647    1466.3149    579.95583   -2275.2838 
13171000    264.12539   -3844.7555   -3392.0536   -3844.7555            0    9230.9389    16.877469    19.879429    20.590472    6908.4009    9411.6618    9177.1144    9104.0406    1648.7025   -1335.9574   -1275.6497   -2462.0186 
13172000    267.75068   -3869.2675    -3410.352   -3869.2675            0    8479.2229    16.840173      19.8355    20.544972    6862.7039    8790.6533    7612.8459    9034.1695   -72.380547    115.29778   -436.14893   -2561.7048 
13173000    263.90315   -3862.0331   -3409.7121   -3862.0331            0    11022.906    16.788273    19.774368    20.481653    6799.4475    9816.5252    12152.963     11099.23   -1068.6887   -312.61148    1523.7119    -2316.648 
13174000    262.23307   -3870.2688   -3420.8103   -3870.2688            0    10770.094    16.839961     19.83525    20.544714    6862.4448    12766.908    9681.7757    9861.5985   -227.17819    62.192665    187.70486   -2342.9208 
13175000    270.16884   -3814.2214   -3351.1612   -3814.2214            0    12960.988    16.832961    19.827004    20.536173    6853.8898    11998.523    14186.766    12697.676     1689.185   -787.41843    959.53089   -2055.6203 
13176000     269.5626   -3865.4009   -3403.3798   -3865.4009            0    12447.105    16.834723     19.82908    20.538322    6856.0425    13529.454    11178.435    12633.427    379.18657   -490.87989    -497.4078   -2158.8143 
13177000    264.82767   -3813.4341   -3359.5285   -3813.4341            0     10041.19    16.875431    19.877029    20.587987    6905.8991    8586.0866    12956.665    8580.8194   -27.972697    1417.9639    934.49608   -2348.2255 
13178000    275.59017   -3849.6416   -3377.2895   -3849.6416            0    10621.779    16.851151     19.84843    20.558365    6876.1339    10636.183    9589.1429    11640.011    558.67154    -676.5787   -377.59481   -2312.1231 
13179000    258.78209    -3850.341   -3406.7973    -3850.341            0    9212.5183     16.91408    19.922552    20.635138    6953.4565    8442.1089     9411.789    9783.6571   -261.65982   -892.16835    539.18614   -2472.5648 
13180000    261.88553   -3828.8532   -3379.9904   -3828.8532            0    11817.178     16.82876    19.822057    20.531048    6848.7603    13293.497    12768.872    9389.1652    1063.3452   -1349.7277   -636.75773   -2199.6653 
13181000     263.5771    -3824.436   -3372.6739    -3824.436            0    10000.253    16.821025    19.812945    20.521611    6839.3199    10774.434    6956.6742    12269.649   -356.52513    35.796682    -1287.073   -2375.2041 
13182000    281.41155   -3821.3075   -3338.9778   -3821.3075            0     11079.78    16.854765    19.852687    20.562774    6880.5586    11328.344    11682.375    10228.621   -1793.4543   -1037.3522   -440.99033   -2227.1674 
13183000    268.88821   -3859.2558   -3398.3906   -3859.2558            0    10544.277    16.797249    19.784941    20.492605    6810.3604    10768.879    9893.9721     10969.98   -1505.3147    538.99142   -604.48233   -2351.1107 
13184000    267.01949   -3883.0693    -3425.407   -3883.0693            0    7820.0891    16.893816    19.898684    20.610417     6928.495    8457.7417    7226.4167    7776.1089    495.12427    -210.1549    1665.2565   -2635.2262 
13185000    261.21922   -3804.5639   -3356.8431   -3804.5639            0     10531.38    16.782155    19.767162     20.47419     6792.017    10569.055    10577.413    10447.671   -533.71243    -794.5993    378.82465   -2313.6614 
13186000     281.0908   -3851.8409   -3370.0609   -3851.8409            0    10412.419    16.823118    19.815411    20.524165    6841.8738    9972.7738    10938.389    10326.093   -856.93979     1164.975   -1359.2232    -2331.092 
13187000     271.6478   -3874.1885   -3408.5934   -3874.1885            0     9699.294    16.866256    19.866221    20.576793    6894.6405    9903.6009     8822.716    10371.565   -1904.5988    868.40686   -32.085587   -2433.3172 
13188000    271.99928    -3804.549   -3338.3515    -3804.549            0    10651.782    16.860993    19.860022    20.570372    6888.1883    11003.618    9762.0851    11189.644    1243.7095    773.59254   -505.27778   -2268.3037 
13189000    256.59709   -3851.3167    -3411.518   -3851.3167            0     11016.04    16.829967    19.823478    20.532521    6850.2337    10210.234    11786.953    11050.933    222.57455    521.36482   -561.80802   -2310.9756 
13190000    269.05744   -3810.6253   -3349.4701   -3810.6253            0    10210.673    16.869092    19.869562    20.580253    6898.1198    10244.965    10045.039    10342.016   -5.5648247    -968.0861   -696.36572   -2322.2559 
13191000    268.39655   -3831.3435    -3371.321   -3831.3435            0    9052.6084    16.921244    19.930991    20.643879    6962.2959    8626.4521    9473.6707    9057.7024   -481.86877    1832.2728   -211.78302   -2452.1378 
13192000    269.67875   -3838.7488   -3376.5287   -3838.7488            0    8299.7879    16.929725     19.94098    20.654225    6972.7697    8753.4605    6907.2537    9238.6496    659.93789    1145.6634    -752.0011   -2532.5175 
13193000    257.84518   -3825.2724   -3383.3345   -3825.2724            0    10307.244    16.872654    19.873757    20.584598    6902.4898    10526.215    11153.603    9241.9144   -97.232031   -996.45969    -1312.392   -2345.7482 
13194000    279.90934   -3829.4563   -3349.7012   -3829.4563            0    10232.205    16.862077    19.861299    20.571694    6889.5171     9997.617    9631.0406    11067.956   -119.21072    -496.9862   -190.52951   -2321.6047 
13195000    274.07784    -3865.784   -3396.0239    -3865.784            0    8789.2797    16.936643    19.949129    20.662665    6981.3213    10284.557    7198.9794    8884.3029   -772.44364    -347.5447    1561.0593   -2501.1398 
13196000    263.35382   -3830.7046   -3379.3252   -3830.7046            0    9546.1908    16.894284    19.899235    20.610987    6929.0701    7877.0286    10666.387    10095.157    1273.7186   -888.84447   -1390.6988   -2414.6503 
13197000     265.0847   -3829.9328   -3375.5867   -3829.9328            0     9815.661    16.949694    19.964501    20.678587    6997.4721    10160.318    9855.6846    9430.9809     106.9473   -1005.3821   0.57253882   -2373.8891 
13198000    271.05295   -3831.8298   -3367.2543   -3831.8298            0    9360.0665    16.883671    19.886735     20.59804    6916.0203    10979.524    7088.6469    10012.029   -685.06117   -392.65106    1055.4848   -2423.1694 
13199000    267.09695   -3817.4016   -3359.6065   -3817.4016            0    9714.8935    16.906085    19.913135    20.625384    6943.6009    9994.8031    9143.7409    10006.136    911.66106    722.93482   -180.04881    -2375.825 
13200000    268.72684   -3839.7324   -3379.1438   -3839.7324            0    9711.2873    16.880555    19.883064    20.594238    6912.1916    10387.947    9372.2339    9373.6815   -193.60234   -90.403693   -1463.1885   -2400.1759 
13201000    271.95877   -3834.0213   -3367.8932   -3834.0213            0    8020.9629    16.901245    19.907434    20.619479    6937.6384    8961.6414    8110.2084    6991.0389   -273.84941    237.24738   -18.829048   -2556.3455 
13202000    270.06809   -3836.6425   -3373.7551   -3836.6425            0    10591.934    16.881109    19.883717    20.594914    6912.8725    9743.6427    10617.022    11415.137   -885.76014    1158.5346     897.9853   -2305.9064 
13203000    272.94528   -3888.5545   -3420.7356   -3888.5545            0    11513.732    16.845657    19.841959    20.551663    6869.4107    12237.311    11329.318    10974.568    388.12607    2033.2942   -361.54977   -2267.2518 
13204000    261.69564   -3888.2432   -3439.7058   -3888.2432            0    9942.2278    16.878524    19.880672     20.59176    6909.6969     10684.58    9680.7129    9461.3902    -27.79943   -1315.2456    390.83714   -2437.8191 
13205000    261.95896   -3884.2451   -3435.2564   -3884.2451            0    9306.1365    16.899177    19.904999    20.616957     6935.093     10818.09    10312.992    6787.3276    85.977951   -1146.9948    725.18413   -2494.0224 
13206000    273.45524   -3896.3879    -3427.695   -3896.3879            0    10973.736    16.873626    19.874903    20.585784     6903.683    11436.376    11724.271    9760.5604   -426.94569    1233.4114    469.76347   -2322.8248 
13207000    263.38608   -3850.6659   -3399.2312   -3850.6659            0    7447.2284    16.925216    19.935669    20.648724    6967.1993    9157.6284    7623.2447    5560.8121    6.1565354   -611.87052    844.30088   -2642.5224 
13208000    265.31561   -3834.7794   -3380.0375   -3834.7794            0    9408.3206    16.884681    19.887924    20.599271     6917.261    9253.9538    8743.5791    10227.429    207.36894    1160.7119    136.62321   -2430.9153 
13209000     270.6289   -3854.0322   -3390.1835   -3854.0322            0    9697.1979    16.920908    19.930595    20.643469    6961.8811    9195.2275    9104.2199    10792.146   -1173.7148   -1217.5707   -1724.4536   -2405.6086 
13210000    286.61213   -3851.3323   -3360.0889   -3851.3323            0    9843.8659    16.858881    19.857535    20.567795    6885.6002    7963.4125    11666.493    9901.6923   -88.041875    28.623413   -499.11995   -2371.5736 
13211000    277.55735    -3887.717   -3411.9932    -3887.717            0    9193.9378    16.878446     19.88058    20.591664    6909.6007    10855.376    7682.9398    9043.4974    602.52529    970.38154   -1334.1347   -2485.5253 
13212000    273.32482    -3863.584   -3395.1146    -3863.584            0    10644.325    16.842996    19.838825    20.548416    6866.1559     10361.81    10140.897    11430.269   -993.03462     448.0589    107.03298   -2329.2361 
13213000    273.84632   -3846.6404   -3377.2772   -3846.6404            0    10097.889    16.891111    19.895498    20.607116    6925.1671    11595.543    9924.1163    8774.0071    832.34064    137.17654   -225.92584   -2357.4262 
13214000    270.55832   -3876.3291   -3412.6014   -3876.3291            0    11188.334    16.876879    19.878734    20.589753    6907.6768    11572.246    10778.755    11214.001   -1289.2299    68.173973   -1151.7808   -2285.4732 
13215000    262.03216   -3895.2016   -3446.0874   -3895.2016            0    10116.347    16.862829    19.862185    20.572612    6890.4389    11725.523    9071.8376      9551.68    1251.9842   -952.05366   -252.00561   -2429.4959 
13216000    257.33518   -3837.5044   -3396.4407   -3837.5044            0    8733.4555    16.856049    19.854199     20.56434    6882.1306    8276.4782    8213.5377    9710.3506    11.135385    386.72481   -605.91225   -2519.8741 
13217000    260.94413   -3864.4827   -3417.2334   -3864.4827            0    8923.6573    16.830014    19.823534    20.532578    6850.2916    8192.0727     9858.466    8720.4331    626.39928   -811.32827   -22.246398   -2525.7201 
13218000    272.94811   -3839.2194   -3371.3956   -3839.2194            0    10759.998    16.811457    19.801675    20.509938    6827.6559    11149.538    10224.203    10906.254    39.621149   -1256.4735    567.59615   -2299.9757 
13219000    289.95324   -3834.1241   -3337.1541   -3834.1241            0    10207.455     16.79912    19.787144    20.494887    6812.6354    12041.945     8725.747    9854.6735    94.268301   -347.72824     1452.158   -2322.9894 
13220000    270.14957   -3899.4893   -3436.4621   -3899.4893            0    10924.305    16.867793    19.868033    20.578668    6896.5264    10664.903    10177.663     11930.35   -26.523155   -1388.7182    412.44379    -2337.709 
13221000    261.99708   -3852.7787   -3403.7246   -3852.7787            0    9799.6032    16.860784    19.859776    20.570117    6887.9321    9842.8515    11003.184    8552.7741    558.11106   -1999.4966    -225.6061   -2419.3209 
13222000    262.94586   -3868.0493   -3417.3691   -3868.0493            0    9412.6978    16.948721    19.963355      20.6774    6996.2675    9313.2612    10217.916    8706.9166    347.20928     234.1135    1277.7259   -2456.9596 
13223000    260.59114   -3858.1058   -3411.4615   -3858.1058            0    7988.1421    16.943344    19.957022     20.67084    6989.6109    7654.2467    7161.9777    9148.2018   -671.39867    807.97387     529.2817   -2597.1798 
13224000    265.62742   -3837.1058   -3381.8295   -3837.1058            0    10237.274    16.937942    19.950659     20.66425    6982.9274    11611.869    10042.837    9057.1149   -704.41853   -139.56386   -443.03564   -2339.2775 
13225000    249.54713   -3817.6056   -3389.8904   -3817.6056            0    9321.6042    16.971918    19.990677      20.7057    7025.0323    10610.792    8299.7872    9054.2333   -181.02828     448.5201    1256.1425   -2434.8651 
13226000    275.63141   -3835.6743   -3363.2515   -3835.6743            0    9979.6434    16.957105     19.97323    20.687628    7006.6545    9347.5223    9040.5161    11550.892    1029.1781   -2647.5693   -1496.2343   -2343.4829 
13227000    271.28694   -3769.6949   -3304.7184   -3769.6949            0    9420.7557    16.873037    19.874209    20.585066    6902.9603     9051.717    7651.8735    11558.677   -825.19072   -847.58484   -161.24711   -2356.3065 
13228000    283.50392   -3818.3695   -3332.4535   -3818.3695            0    9092.6071     16.84754    19.844177     20.55396    6871.7141    8653.3868     10599.22    8025.2142    12.363483    0.5498842   -466.21738   -2421.2206 
13229000    268.68931   -3822.3315   -3361.8072   -3822.3315            0    9826.4569    16.925018    19.935435    20.648482    6966.9546    8422.0348    12881.255    8176.0812   -1894.1013    875.83113    1070.5447   -2363.3813 
13230000    274.27281   -3840.3128   -3370.2186   -3840.3128            0    9216.9129    16.889957    19.894138    20.605708    6923.7473    11105.593     8846.867    7698.2788   -529.89758    17.368578   -336.96217   -2439.5339 
13231000    276.91187   -3863.0775     -3388.46   -3863.0775            0    8520.9611    16.909484    19.917138    20.629531    6947.7892    9335.2872    7706.7347    8520.8615    2421.1255    280.49562    656.15181   -2525.0619 
13232000    264.07049   -3848.3936   -3395.7858   -3848.3936            0    9380.2469    16.909665    19.917352    20.629752    6948.0128    10169.522    10542.402     7428.817    -517.2335    955.22768    365.65006   -2445.2888 
13233000    243.30367   -3817.6612    -3400.647   -3817.6612            0    10367.939    16.886105    19.889601    20.601009    6919.0113    9491.7313    11678.686    9933.3989    1553.2752   -1795.7486   -127.64267   -2354.4527 
13234000    267.51473   -3812.4825   -3353.9714   -3812.4825            0    9926.9443    16.862327    19.861593    20.571999    6889.8233    7583.9213    10895.701     11301.21    1755.8541   -2175.4695    209.32474   -2356.5021 
13235000    253.82518   -3847.7396    -3412.692   -3847.7396            0    9661.8146    16.873227    19.874432    20.585297    6903.1931    9628.9349    8077.2771    11279.232   -293.98081    341.94429   -768.15159   -2439.9792 
13236000    262.08839    -3840.963   -3391.7524    -3840.963            0     10899.21    16.856112    19.854274    20.564418    6882.2089    11710.973    12597.346    8389.3101    530.67494   -1728.4816   -1385.9248   -2297.7992 
13237000    266.65936   -3872.6954   -3415.6504   -3872.6954            0    7508.2305    16.970397    19.988886    20.703844     7023.144    9485.4617    6448.7088    6590.5208   -785.42909    530.93011    2180.7089   -2646.6172 
13238000    266.81776   -3831.4761   -3374.1596   -3831.4761            0    10465.536    16.879047    19.881287    20.592397    6910.3385    9711.2448    11258.816    10426.546    -454.1949   -131.26558     1845.464   -2319.4409 
13239000    266.81377    -3832.795   -3375.4853    -3832.795            0    11490.376    16.822708    19.814928    20.523664    6841.3736    12383.956    10521.653    11565.519   -1648.8901    392.04008   -653.87202   -2229.0397 
13240000    267.89734   -3807.2089   -3348.0421   -3807.2089            0    10320.308    16.901035    19.907187    20.619223    6937.3801    11874.364    9061.3332    10025.227    -1171.912   -1641.1164   -156.04799   -2303.8893 
13241000    266.96416   -3842.4755   -3384.9081   -3842.4755            0    10107.797    16.862983    19.862367      20.5728    6890.6282    10307.156    10756.163    9260.0726    787.80677   -951.52694   -310.40313   -2369.1478 
13242000    279.04495   -3841.8691   -3363.5956   -3841.8691            0    9382.1826    16.856189    19.854365    20.564512    6882.3032    8510.2056    9465.5503    10170.792     393.7391   -62.949392    447.17874   -2421.8934 
13243000    275.31811   -3826.1056   -3354.2198   -3826.1056            0    9944.3025    16.890101    19.894308    20.605884    6923.9244    8533.3109    9296.9503    12002.646    2022.0406    977.69899   -827.61553   -2350.0607 
13244000    265.00827   -3812.8106   -3358.5955   -3812.8106            0    12924.772    16.816767    19.807931    20.516417    6834.1285    11266.173    12656.851    14851.292   -789.04436   -3839.7177   -987.04348   -2070.3996 
13245000     272.5091   -3820.2683    -3353.197   -3820.2683            0    10468.045    16.872705    19.873818    20.584661    6902.5527     8252.623     11021.34    12130.172    566.28629    -1142.478   -1446.7364    -2299.414 
13246000    259.77872   -3844.7105   -3399.4586   -3844.7105            0    7120.3826    16.870494    19.871214    20.581964    6899.8399    7038.8179    5325.5669    8996.7628    1345.6561    434.38732    1310.6746   -2682.9553 
13247000    262.82086   -3840.5486   -3390.0826   -3840.5486            0    11604.916    16.820166    19.811934    20.520563    6838.2726    12716.375    9477.9927    12620.379   -442.19515    345.70166   -173.21304   -2232.7338 
13248000    270.59699   -3826.0029   -3362.2089   -3826.0029            0    10450.566    16.785303    19.770869     20.47803    6795.8394    10810.482    10559.494    9981.7209   -439.65889     163.1962    148.64612   -2326.4497 
13249000    253.59782   -3822.7277   -3388.0697   -3822.7277            0    10873.687    16.749262    19.728418     20.43406    6752.1579    10520.313    11741.354    10359.395    1969.1191    131.44886   -843.17041   -2317.3019 
13250000    271.32957   -3812.8688   -3347.8192   -3812.8688            0    9617.0123    16.835587    19.830098    20.539377    6857.0989    10430.176    10176.748    8244.1128    1690.0741    1258.6586    377.30019   -2386.0819 
Loop time of 586.278 on 64 procs for 250000 steps with 864 atoms

Performance: 73.685 ns/day, 0.326 hours/ns, 426.419 timesteps/s
99.1% CPU use with 64 MPI tasks x 1 OpenMP threads

MPI task timing breakdown:
Section |  min time  |  avg time  |  max time  |%varavg| %total
---------------------------------------------------------------
Pair    | 22.353     | 27.636     | 32.503     |  45.9 |  4.71
Bond    | 0.28758    | 0.29629    | 0.31386    |   1.1 |  0.05
Kspace  | 244.05     | 257.19     | 272.92     |  38.0 | 43.87
Neigh   | 6.0216     | 7.1596     | 8.623      |  27.0 |  1.22
Comm    | 132.87     | 149.64     | 162.84     |  53.4 | 25.52
Output  | 0.95077    | 0.95226    | 0.9587     |   0.1 |  0.16
Modify  | 135.54     | 138.44     | 141.45     |  12.5 | 23.61
Other   |            | 4.965      |            |       |  0.85

Nlocal:        13.5000 ave          18 max           9 min
Histogram: 1 3 8 9 13 7 11 8 3 1
Nghost:        2309.39 ave        2346 max        2262 min
Histogram: 2 2 6 6 10 9 9 8 8 4
Neighs:        4492.23 ave        6148 max        2635 min
Histogram: 2 3 7 7 8 10 13 5 5 4

Total # of neighbors = 287503
Ave neighs/atom = 332.75810
Ave special neighs/atom = 2.0000000
Neighbor list builds = 14715
Dangerous builds = 1

unfix		3
unfix		2
unfix		1

write_data	data.final.${pid}
write_data	data.final.0
System init for write_data ...
PPPM initialization ...
  extracting TIP4P info from pair style
  using 12-bit tables for long-range coulomb (../kspace.cpp:340)
  G vector (1/distance) = 0.37494053
  grid = 24 24 24
  stencil order = 5
  estimated absolute RMS force accuracy = 0.0030843979
  estimated relative force accuracy = 9.2885727e-06
  using double precision FFTW3
  3d grid and FFT values/proc = 2535 216
Last active /omp style is kspace_style pppm/tip4p/omp
WARNING: Not all mixed pair coeffs generated from mixing. Use write_data with 'pair ij' option to store all pair coeffs. (../write_data.cpp:312)

write_restart   restart.lmp.${pid}
write_restart   restart.lmp.0
System init for write_restart ...
PPPM initialization ...
  extracting TIP4P info from pair style
  using 12-bit tables for long-range coulomb (../kspace.cpp:340)
  G vector (1/distance) = 0.37494053
  grid = 24 24 24
  stencil order = 5
  estimated absolute RMS force accuracy = 0.0030843979
  estimated relative force accuracy = 9.2885727e-06
  using double precision FFTW3
  3d grid and FFT values/proc = 2535 216
Last active /omp style is kspace_style pppm/tip4p/omp
Total wall time: 0:09:49
