LAMMPS (30 Jul 2021)
Processor partition = 0
  using 2 OpenMP thread(s) per MPI task
using multi-threaded neighbor list subroutines
variable        pid world 0 1
variable        phase world IceV IceIII

shell cd ${phase}
shell cd IceV
include Restart.lmp
echo both
log log.lammps
#include		in.partitions
include		in.temp
variable        temperature equal 243.97
variable	tempDamp equal 100.0
include		in.pressure
variable        pressure equal 7684.0
variable        pressureDamp equal 1000.0 # This is 1 ps
include		in.seed
variable        seed equal 745823

units		real
atom_style	full
read_restart    restart.lmp.${pid}
read_restart    restart.lmp.0
Reading restart file ...
  restart file = 30 Jul 2021, LAMMPS = 30 Jul 2021
  restoring atom style full from restart
  triclinic box = (-3.1475943 -0.10564706 -0.11380665) to (14.757593 22.685646 19.343805) with tilt (0.095458350 -6.6270425 -0.24186667)
  2 by 4 by 4 MPI processor grid
  restoring pair style lj/cut/tip4p/long/omp from restart
  restoring bond style harmonic/omp from restart
  restoring angle style harmonic/omp from restart
  1008 atoms
  672 bonds
  336 angles
Finding 1-2 1-3 1-4 neighbors ...
  special bond factors lj:    0        0        0       
  special bond factors coul:  0        0        0       
     2 = max # of 1-2 neighbors
     1 = max # of 1-3 neighbors
     1 = max # of 1-4 neighbors
     2 = max # of special neighbors
  special bonds CPU = 0.002 seconds
  read_restart CPU = 0.007 seconds

include 	in.setup
variable	out_freq equal 1000
variable	out_freq2 equal 10000
variable	out_freq3 equal 1000

timestep	2.0

neigh_modify    delay 7 every 1

include		in.tip4p
# This is TIP4P/Ice

# create groups ###
group ox type 2
336 atoms in group ox
group hy type 1
672 atoms in group hy

# set charges - beside manually ###
set group ox charge -1.1794
Setting atom values ...
  336 settings made for charge
set group hy charge 0.5897
Setting atom values ...
  672 settings made for charge

# ### TIP3P Potential Parameters ###
pair_style lj/cut/tip4p/long/omp 2 1 1 1 0.1577 8.5
pair_coeff 1 1*2 0.000 0.000
pair_coeff 2 2 0.21084 3.1668
bond_style  harmonic
bond_coeff  1 450 0.9572
angle_style harmonic
angle_coeff 1 55 104.52
kspace_style pppm/tip4p/omp 1.0e-5
pair_modify tail yes

thermo          ${out_freq}
thermo          1000
thermo_style    custom step temp pe etotal epair emol press lx ly lz vol pxx pyy pzz pxy pxz pyz enthalpy

restart 	${out_freq3} restart.lmp.${pid} restart2.lmp.${pid}
restart 	1000 restart.lmp.${pid} restart2.lmp.${pid}
restart 	1000 restart.lmp.0 restart2.lmp.${pid}
restart 	1000 restart.lmp.0 restart2.lmp.0


include         in.dump
dump            myDump all atom ${out_freq2} dump.water.${pid}
dump            myDump all atom 10000 dump.water.${pid}
dump            myDump all atom 10000 dump.water.0
dump            myDump2 all dcd ${out_freq2} dump.dcd
dump            myDump2 all dcd 10000 dump.dcd
dump_modify     myDump append yes
dump_modify     myDump2 append yes


variable natoms 	equal  "count(all)"                        # NUMBER ATOMS
variable H      	equal  "enthalpy/v_natoms"                 # ENTHALPY-per-atom
variable Vol      	equal  "vol/v_natoms"                 # volume-per-atom
fix AVG all 		ave/time ${out_freq} 1 ${out_freq} v_Vol v_H file vol_enthalpy.dat
fix AVG all 		ave/time 1000 1 ${out_freq} v_Vol v_H file vol_enthalpy.dat
fix AVG all 		ave/time 1000 1 1000 v_Vol v_H file vol_enthalpy.dat



fix 		1 all shake 1e-6 200 0 b 1 a 1
Finding SHAKE clusters ...
       0 = # of size 2 clusters
       0 = # of size 3 clusters
       0 = # of size 4 clusters
     336 = # of frozen angles
  find clusters CPU = 0.000 seconds
fix             2 all nph tri ${pressure} ${pressure} ${pressureDamp}
fix             2 all nph tri 7684 ${pressure} ${pressureDamp}
fix             2 all nph tri 7684 7684 ${pressureDamp}
fix             2 all nph tri 7684 7684 1000
fix             3 all temp/csvr ${temperature} ${temperature} ${tempDamp} ${seed}
fix             3 all temp/csvr 243.97 ${temperature} ${tempDamp} ${seed}
fix             3 all temp/csvr 243.97 243.97 ${tempDamp} ${seed}
fix             3 all temp/csvr 243.97 243.97 100 ${seed}
fix             3 all temp/csvr 243.97 243.97 100 745823


run             250000
PPPM initialization ...
  extracting TIP4P info from pair style
  using 12-bit tables for long-range coulomb (../kspace.cpp:340)
  G vector (1/distance) = 0.37875319
  grid = 24 27 36
  stencil order = 5
  estimated absolute RMS force accuracy = 0.0025175362
  estimated relative force accuracy = 7.5814856e-06
  using double precision FFTW3
  3d grid and FFT values/proc = 5670 1296
Last active /omp style is kspace_style pppm/tip4p/omp
Neighbor list info ...
  update every 1 steps, delay 7 steps, check yes
  max neighbors/atom: 2000, page size: 100000
  master list distance cutoff = 10.8154
  ghost atom cutoff = 10.8154
  binsize = 5.4077, bins = 5 5 4
  1 neighbor lists, perpetual/occasional/extra = 1 0 0
  (1) pair lj/cut/tip4p/long/omp, perpetual
      attributes: half, newton on, omp
      pair build: half/bin/newton/tri/omp
      stencil: half/bin/3d/tri
      bin: standard
Setting up Verlet run ...
  Unit style    : real
  Current step  : 3750000
  Time step     : 2
Per MPI rank memory allocation (min/avg/max) = 10.32 | 10.35 | 10.41 Mbytes
Step Temp PotEng TotEng E_pair E_mol Press Lx Ly Lz Volume Pxx Pyy Pzz Pxy Pxz Pyz Enthalpy 
 3750000    249.71228   -4844.2498   -4344.7944   -4844.2498            0    8683.2249    17.905188    22.791293    19.457611    7940.3083    8052.4663    10075.979    7921.2295    180.44484    911.29312    457.99166   -3339.2661 
 3751000    249.29469   -4873.0802   -4374.4601   -4873.0802            0    8555.9662    18.046537    22.811433    19.222208    7913.1559    7562.6423    9551.5137    8553.7427   -2702.9362    1364.4431   -1442.8227   -3387.0565 
 3752000    240.54268   -4844.3912   -4363.2761   -4844.3912            0    6542.5428    17.729732    23.089063    19.464252    7967.9427    9786.8291    5336.6753    4504.1241    1482.1529    57.613102    1721.7887   -3603.0047 
 3753000    230.37281   -4846.1403   -4385.3662   -4846.1403            0    7716.2592    18.062568    22.997371    19.140606    7950.8464    5781.7248    7649.3827    9717.6701    611.73845    800.40463   -433.87193   -3490.6278 
 3754000    236.89184   -4885.4331   -4411.6201   -4885.4331            0     7022.138    17.842707    23.010878    19.369089    7952.4901    6551.2458    7145.9756    7369.1927    630.99531   -616.76293    22.951827   -3597.2002 
 3755000    234.88179   -4847.4871   -4377.6945   -4847.4871            0    6227.9321    17.973172    23.222766    19.165538    7999.4424    6153.6525    4891.1205    7639.0233   -1725.5156    616.73703   -1186.6045   -3651.1211 
 3756000    246.77264   -4854.2865   -4360.7108   -4854.2865            0     6994.179    17.868179    23.049143    19.373085    7978.7315    7597.2984    5959.2938    7425.9446   -111.44407   -75.866098     289.8514   -3546.8568 
 3757000    237.89893    -4853.069   -4377.2417    -4853.069            0    7004.0247    18.100585    22.908674      19.2047    7963.4283    7509.2266    6814.2642    6688.5834    1552.6584    405.15169   -75.857761   -3563.8053 
 3758000    243.49048   -4858.4036   -4371.3925   -4858.4036            0    7105.5702    18.144782    22.849313    19.208694     7963.844     5966.037    6951.2964    8399.3771   -53.419009    355.39646   -1498.8006   -3546.1197 
 3759000    241.30225   -4826.5787   -4343.9444   -4826.5787            0    9638.6559    17.873445    22.823189    19.395367    7911.9327    7331.8476    11127.239    10456.881    833.48312    408.69611   -472.73957   -3231.7647 
 3760000    249.01156   -4847.6628    -4349.609   -4847.6628            0    7985.2871    18.089738    22.977405    19.117295    7946.2038    7367.0621    7581.3618    9007.4374    757.84609   -109.98694   -18.439574   -3424.2161 
 3761000    247.28321   -4874.8883   -4380.2913   -4874.8883            0    6835.9525    17.961755    22.829822    19.423567    7964.8988    7760.1482    7180.2868    5567.4226    1728.3404   -501.85938    1236.6073   -3586.2279 
 3762000    254.96563   -4844.6586   -4334.6958   -4844.6586            0     7888.792    18.090586    22.825428    19.291448    7965.9284     5903.125    8969.1181    8794.1329   -494.74872    1044.9038     1467.222   -3418.2162 
 3763000    248.90726   -4827.5845   -4329.7392   -4827.5845            0    6345.6152    18.077728    22.535133     19.49193    7940.7006    7035.7657    6828.7329    5172.3471    767.63827    116.31904    755.73909   -3594.8727 
 3764000    247.94012   -4870.5708   -4374.6599   -4870.5708            0    7668.4205    18.006656    22.659666    19.451433    7936.6668    7252.9429    8084.7631    7667.5554    100.27583   -1028.3674    1206.0678   -3487.0545 
 3765000    250.65703   -4879.4739   -4378.1289   -4879.4739            0     7299.113    18.173061    22.664524    19.357706    7973.1252    5676.3423     8417.472    7803.5248    898.18394   -195.59094    662.49266   -3529.3891 
 3766000    245.62571   -4863.1597    -4371.878   -4863.1597            0    5798.0715    18.085155    22.728521    19.448151    7994.1399    6141.4586    6247.2697     5005.486    22.114507    637.12081   -1729.8035   -3695.9021 
 3767000    249.48943   -4869.9624   -4370.9527   -4869.9624            0    6875.9212    17.987175    22.935533     19.20725    7923.8635    6061.2006    7102.9635    7463.5994   -441.67582   -161.36228   -1719.4527   -3576.3615 
 3768000    245.35695   -4888.3011   -4397.5569   -4888.3011            0    7371.9568    17.896639    23.067322    19.274444    7957.0216     5236.765    8062.6264    8816.4792   -127.33808    129.46527   -462.52083   -3542.0781 
 3769000    250.02921    -4874.694   -4374.6047    -4874.694            0    5864.6431    17.961331    23.097193    19.181175    7957.4317    3432.1476    6084.7843    8076.9974    281.96549    349.52561   -356.35801   -3694.0071 
 3770000    238.36181   -4852.7008   -4375.9477   -4852.7008            0    7394.7111    17.849041    23.110314    19.287815    7956.1653     6809.152    7070.2209    8304.7605   -430.14417   -528.39072   -1177.2113   -3517.9208 
 3771000      238.918   -4863.4248   -4385.5593   -4863.4248            0     8118.586    17.787373    23.018584    19.309204    7905.9633    10019.255    7290.7693    7045.7338   -881.24241   -1116.6732   -534.08232   -3449.4834 
 3772000    245.27942   -4861.0851   -4370.4959   -4861.0851            0    8080.3773    17.956731    22.974926    19.245153    7939.6759    9976.3813    8329.7784    5934.9722    39.114271    680.16729   -182.61719   -3434.8526 
 3773000     244.5422   -4887.4832   -4398.3686   -4887.4832            0    7300.7607    17.891531    23.049749    19.265966    7945.1938    6741.1777    7253.0942    7908.0102   -467.88503    541.88096   -2512.2083   -3552.4112 
 3774000    253.36973   -4834.0069   -4327.2362   -4834.0069            0    8358.7483    17.921715    23.153264    19.200184     7967.043    7044.7882    8400.5678    9630.8889    890.91258    1481.1761   -1075.1291   -3356.0236 
 3775000    241.41182   -4836.8974   -4354.0439   -4836.8974            0    6167.2576    17.811459     23.21339    19.357419    8003.6025    5927.6302    4707.7532    7866.3893    51.493128   -239.23087   -257.84718   -3634.1749 
 3776000    258.48127   -4868.2322   -4351.2377   -4868.2322            0    7102.5944    17.869014    23.140411    19.240392    7955.8315    8289.7472    5299.8076    7718.2284    -139.3945   -1803.5183    1485.3876   -3527.1405 
 3777000    255.15685   -4851.5048   -4341.1596   -4851.5048            0     7704.512    17.861269    23.118917    19.279405    7961.1063    8227.4608     6706.568    8179.5072    88.441171   -93.027357   -440.46124   -3446.6306 
 3778000    251.28824   -4888.5462   -4385.9387   -4888.5462            0    7970.6912    17.926499    22.950696    19.251388    7920.5146    7032.7707    9478.7449     7400.558   -645.93584    1585.9206    958.71225   -3465.2236 
 3779000    239.53909   -4852.4034   -4373.2956   -4852.4034            0    6848.6809    18.162964     22.88719    19.196336    7979.9017    5483.5253    7541.4381    7521.0794    526.57627   -598.57715   -752.51523   -3576.2551 
 3780000    256.02227    -4853.425   -4341.3488    -4853.425            0    7261.2443    17.862655    22.900549    19.433995    7949.7595     6747.567    7502.9276    7533.2384     1047.394   -294.25514   -450.39565   -3499.4868 
 3781000    248.97159   -4844.5201   -4346.5462   -4844.5201            0     7115.337    18.098588    22.946209    19.239945    7990.2335    7172.8468    6712.0974    7461.0667    39.021368    -115.5373   -226.06641   -3517.4005 
 3782000    238.38096   -4845.0611   -4368.2698   -4845.0611            0    7480.9243     17.88596    22.795879    19.545152    7969.0701    8676.6986    6887.5558    6878.5186   -9.9911443    -722.6169    1238.0151   -3498.8314 
 3783000    240.45145   -4855.7071   -4374.7745   -4855.7071            0    7888.8119    18.017201    22.641346    19.469602    7942.3062    7867.5908    8066.7177    7732.1272    672.42628   -209.61674   -2.4746584   -3461.0103 
 3784000    234.37138   -4869.1223   -4400.3506   -4869.1223            0    8068.8173    18.056965    22.878933    19.185072    7925.8152    7596.2087    7915.6477    8694.5955    1131.1381    504.59778    577.08827   -3467.6769 
 3785000    249.86642   -4907.6756   -4407.9119   -4907.6756            0    6949.9573    17.868383    22.786248    19.527373    7950.6365    8160.0124    7229.9772    5459.8822   -561.52794   -1173.3651   -453.06605   -3602.0513 
 3786000    251.60662   -4900.1053    -4396.861   -4900.1053            0    9009.2401    18.080442     22.80628    19.173936    7906.3269    7507.2109    9325.6124    10194.897   -924.82386   -80.180621   -1124.7724   -3358.0446 
 3787000    244.12843   -4856.8156   -4368.5286   -4856.8156            0    7924.5298    18.000004    22.655915    19.473772    7941.5322    8550.5838    8297.2026    6925.8031    299.88337   -458.23776    821.17474   -3450.7166 
 3788000    235.18703   -4847.8294   -4377.4263   -4847.8294            0    7974.6293    18.058791    22.816789    19.247784    7930.9267     8755.474    7762.2917    7406.1222    329.50228   -494.69711   -723.29376   -3455.0454 
 3789000    246.49957   -4875.3381   -4382.3085   -4875.3381            0    6140.3941    17.964598    22.866264    19.402982    7970.4198    5299.1482    6288.9568    6833.0773    326.45806     128.1476    1907.9525   -3668.5466 
 3790000    245.25166    -4863.336   -4372.8024    -4863.336            0    6450.6207    18.102396    22.791545    19.359921    7987.5462    6524.3548    7060.1842    5767.3231   -298.63632    565.60376   -2032.8337   -3621.3685 
 3791000    247.60457   -4866.4256   -4371.1858   -4866.4256            0    6139.9358    18.075843    22.720528     19.52504    8018.7914    6996.9974     6540.726    4882.0841    440.58486    1336.4931    1157.0484   -3653.1458 
 3792000    252.29923   -4875.0414   -4370.4117   -4875.0414            0    8084.6232    18.218361    22.510105    19.301014    7915.2923    6158.2408    9698.9785    8396.6503    572.29042   -92.498166    409.62986   -3437.1518 
 3793000    250.16339   -4846.5156   -4346.1579   -4846.5156            0    10070.528    18.099382    22.552489    19.277261    7868.7104    10531.484    10213.618    9466.4822   -161.32797    186.40312   -1670.3776   -3190.4936 
 3794000    228.56874   -4856.4064   -4399.2407   -4856.4064            0    7518.3651    18.100073    22.602488    19.472517    7966.3368    5958.9285    8668.2762    7927.8906    38.548786    1231.5448   -1777.5287   -3525.7506 
 3795000    240.50584    -4887.648   -4406.6066    -4887.648            0    7013.7499    18.205597    22.684477    19.240575    7946.0581    7277.3802    6703.1425     7060.727   -1050.9409   -979.47519    961.78506   -3593.8174 
 3796000     253.3522   -4907.6367    -4400.901   -4907.6367            0    7648.3744    18.040836    22.741119    19.315613    7924.5933    7666.1099    7741.5376    7537.4758   -293.77657   -982.39695    49.322593   -3516.9626 
 3797000     243.9961   -4851.4028   -4363.3805   -4851.4028            0    8766.5634    18.003125    22.769003    19.346647    7930.4461    8964.2831    9208.0617    8127.3454   -576.30772   -672.14424   -2288.3003   -3349.4623 
 3798000    237.38934   -4865.4254   -4390.6174   -4865.4254            0    6582.8889    18.093011    22.845525    19.317712    7984.8666    5110.8015    6417.6199    8220.2453   -110.84251   -191.16294   -896.25035   -3624.0328 
 3799000    248.03506   -4849.6258    -4353.525   -4849.6258            0    5654.3845    17.939343    22.915812    19.456476    7998.4523    8622.5756    4566.5821    3773.9959    744.70013   -877.27025   -656.93212   -3693.9455 
 3800000    241.93444   -4867.9854   -4384.0867   -4867.9854            0    9554.1483    18.008521    22.755108    19.193744    7865.3247    9737.3133     10317.09    8608.0417    951.76471    2.0305182   -460.24946   -3288.1524 
 3801000      259.128    -4826.219    -4307.931    -4826.219            0    8218.4032    18.006894    22.749381    19.448146     7966.849    7981.4901    8454.1742    8219.5452   -1.4654476    833.48519    102.04561   -3353.0485 
 3802000    230.84342   -4848.7626   -4387.0473   -4848.7626            0    8740.7819    18.102729    22.614174    19.398656    7941.3882    7207.5444    9425.9696    9588.8317    1380.0452     717.7312    901.21717   -3374.7161 
 3803000     237.2936   -4882.2681   -4407.6516   -4882.2681            0    8915.9719    17.996787    22.842145     19.21945    7900.8319    10140.163    8452.1695    8155.5837    1507.3362    241.60216    344.24124    -3380.304 
 3804000    255.57714   -4854.0839   -4342.8981   -4854.0839            0    7289.6316    17.936424    22.777568    19.457615    7949.3723    6577.3421    7563.5344    7728.0182   -40.170887     102.9355    1436.1812    -3497.786 
 3805000    241.80026   -4839.4879   -4355.8575   -4839.4879            0    8987.6845    18.093172    22.722047    19.234677    7907.6429    10526.521    7822.2764    8614.2557     1092.552   -1832.4904    1051.5981    -3319.354 
 3806000    251.02693   -4825.8827   -4323.7978   -4825.8827            0    9253.4269    17.907405    22.738061     19.45374    7921.1676    10139.398     8639.972    8980.9106   -653.83716   -432.72928   -808.85708   -3254.8225 
 3807000     234.7142   -4872.6569   -4403.1995   -4872.6569            0    7610.3395    18.174051    22.710144    19.260994    7949.6923    7758.6463    6982.5461    8089.8262    933.85571    771.37215   -696.57778   -3520.8712 
 3808000    254.46716   -4883.4664   -4374.5007   -4883.4664            0    6382.9582    18.075978    22.745188    19.372509    7964.8429    5523.8841    6657.6686    6967.3219    1169.9106    236.89885    -503.1624   -3633.0622 
 3809000    247.61828   -4872.5174   -4377.2503   -4872.5174            0    7950.8901    17.969693    22.869259     19.32805    7942.9307    8177.0682    7744.5512    7931.0509    1065.8652   -753.42992    739.59584   -3456.2232 
 3810000    241.14731   -4856.6311   -4374.3067   -4856.6311            0    8225.6042    17.913212    22.729551    19.442973    7916.3866    8806.6238    9282.3487    6587.8401   -1051.1509   -1348.3902     124.1014   -3424.6411 
 3811000    249.55876   -4851.2338   -4352.0855   -4851.2338            0    7022.1149    18.045054    22.861889    19.284716    7955.7946    5961.1616    6832.6567    8272.5264    128.33979   -265.04183    103.49376   -3537.3298 
 3812000    257.79559   -4834.3475   -4318.7245   -4834.3475            0    8706.6206     17.92899    22.751241    19.401399    7913.9623    9426.1366    9338.5305    7355.1945   -796.52815    883.47193   -1455.7662   -3313.8322 
 3813000     245.8946   -4841.2675   -4349.4479   -4841.2675            0    4328.7871    18.223783    22.781189     19.43183    8067.3077    3740.1809    4741.9307    4504.2498   -1149.4676    1383.4818   -338.84693   -3840.1514 
 3814000    239.68749   -4867.7524   -4388.3479   -4867.7524            0    6987.8263    18.069714    22.729695    19.408521      7971.45    5971.0748    7926.5675    7065.8367   -410.55614    339.84937   -272.32408   -3575.9752 
 3815000    243.05784   -4875.0246   -4388.8789   -4875.0246            0    7837.7257    18.190475    22.507837    19.344908    7920.3521     7139.675    7969.9549    8403.5471   -123.57355   -2074.0382    188.11076   -3483.5416 
 3816000    246.56635   -4833.9833   -4340.8201   -4833.9833            0    8825.6964    18.083987     22.49459    19.555961     7955.206    9212.1984    10401.722    6863.1683   -62.980823   -1192.7478    27.586522   -3316.8759 
 3817000    240.20601   -4866.2927    -4385.851   -4866.2927            0    9575.9266    18.230216    22.577533    19.233571    7916.4089    9249.2081    9546.2484    9932.3233    1052.2679   -959.94541    676.03618   -3280.2844 
 3818000    248.54196   -4869.9839   -4372.8693   -4869.9839            0    6452.6504    18.001398    22.694366    19.472499    7955.1065    6791.6255    7045.9238     5520.402    331.28564   -1458.6589   -866.31694   -3624.2517 
 3819000    233.55917   -4867.1582    -4400.011   -4867.1582            0    8160.4029    18.027122    22.597291    19.428355    7914.4149    8400.4754    8705.4557    7375.2777    2474.7242   -234.41147    1483.0043   -3458.1078 
 3820000    244.44429    -4849.702   -4360.7832    -4849.702            0    9244.4903    17.967882    22.815495     19.28933    7907.5859    10608.187    8955.2658    8170.0182     -1216.37   -756.11553   -1698.8368   -3294.6713 
 3821000    247.73133   -4870.8407   -4375.3475   -4870.8407            0    6810.3446    17.927088    22.821664    19.474001    7967.3194    7103.0614    7025.2807    6302.6916   -149.65504    1705.7334    917.24033   -3584.0182 
 3822000    254.18705   -4827.9687   -4319.5632   -4827.9687            0    7769.3402    18.090463    23.013742    19.157742    7975.9284    7488.7229    7462.6592    8356.6385    577.20675   -150.91369    1087.9558   -3415.8279 
 3823000    237.84378    -4885.817   -4410.1001    -4885.817            0    7395.4661    17.793566    23.042849    19.305998    7915.7384    6899.6102    7656.8778    7629.9102    523.29624    821.33712    49.741478   -3556.3458 
 3824000    233.27903   -4867.3417   -4400.7548   -4867.3417            0    10013.158    17.938596      23.0153    19.087217    7880.3902    8241.8225     10891.76    10905.892   -1354.5754    1139.7051   -930.18001   -3249.9685 
 3825000    236.45313   -4859.0433   -4386.1079   -4859.0433            0    9244.5475    17.897453    22.826005    19.358036    7908.2872    8869.7671    10043.005    8820.8708   -14.908498     342.3246    1100.7059   -3319.8948 
 3826000    249.22773   -4868.4515   -4369.9653   -4868.4515            0    5786.6071    17.921771    23.008005     19.37464    7989.0203    6175.0687    5120.5552    6064.1975     830.2561    -1232.702   -814.21948    -3695.758 
 3827000    231.89005   -4882.2155   -4418.4067   -4882.2155            0    5911.4215    17.850383    23.133685    19.228511      7940.32    5715.1149    4933.3862    7085.7635   -554.75634   -337.77793   -812.19552   -3733.8557 
 3828000    254.90197   -4838.4247   -4328.5892   -4838.4247            0    9250.8133    17.984512    22.764308    19.295515    7899.6796    8546.1244    9351.3489    9854.9667   -492.40878   -734.72178   -592.53196   -3262.8148 
 3829000    238.01418   -4868.6482   -4392.5905   -4868.6482            0    8656.1591    17.981634    22.666571    19.428205    7918.5865    9042.0054    9893.3871    7033.0848     536.7792    935.29916   -396.84924   -3392.9386 
 3830000     261.3713   -4869.8487   -4347.0738   -4869.8487            0    7143.3866    18.073073    22.780793      19.2913    7942.5937    7096.4659    7124.8159    7208.8779   -202.11784   -745.69387   -1200.2112   -3519.6226 
 3831000    247.24793   -4864.7466   -4370.2202   -4864.7466            0    6455.6887    18.023158    22.678909    19.586335    8005.8274    5862.1592    6766.8571    6738.0498    605.13974   -978.76105    1021.0882   -3616.4748 
 3832000    236.87868   -4875.6712   -4401.8846   -4875.6712            0    7115.8851    18.206126    22.675975      19.2617    7952.0322    4826.3205    7859.2868    8662.0481   -180.54536   -674.79682   -921.74971   -3576.6395 
 3833000    250.60182   -4859.5199   -4358.2853   -4859.5199            0     7088.674    18.256538    22.565141    19.353418    7972.8603    4955.1766    7342.4768    8968.3685   -163.63198   -313.53917    599.07421   -3534.0427 
 3834000    248.35682    -4835.216   -4338.4717    -4835.216            0    8074.2089    17.956382    22.759877    19.467314    7956.0001    8800.4869     8752.344    6669.7958   -5.2862897    1847.8265   -23.147142   -3401.6204 
 3835000    248.80275   -4880.8791   -4383.2428   -4880.8791            0    8055.6035    18.046111    22.959749    19.089071    7909.2547    7313.8074    8097.4548    8755.5483     146.0791    182.86822   -966.14582   -3454.0421 
 3836000    243.32256    -4877.971   -4391.2958    -4877.971            0    7237.9901    17.950368    22.883022    19.344776    7946.0346     7620.801    7673.2507    6419.9187    592.21935   -480.43484    1181.4766    -3552.523 
 3837000    240.91768    -4873.766   -4391.9009    -4873.766            0    7058.8404    17.968574    22.824873    19.409249    7960.3236    8240.6928    6896.1536    6039.6749   -535.81442    -304.5791   -1975.8503   -3572.4178 
 3838000    255.75099    -4895.535   -4384.0014    -4895.535            0    5292.4192    18.164346    22.794768    19.335878    8006.0599    5258.3747    5094.5307    5524.3521    756.37874   -855.08788    1845.8708   -3766.0576 
 3839000    236.03677   -4888.9851   -4416.8824   -4888.9851            0    9115.8802    17.899272    22.783017    19.343546     7888.287    9639.4744    8752.1296    8956.0365   -440.93066    533.77258   -3668.9321   -3368.1681 
 3840000    236.41808   -4863.4149   -4390.5496   -4863.4149            0    7988.9395    18.031803    22.869349    19.264354    7944.1494    7139.9525    7587.3251    9239.5407   -7.1632231    445.83617     1428.768   -3464.9728 
 3841000     239.7555   -4873.9255   -4394.3849   -4873.9255            0     6297.063    18.054709    22.748754    19.422426    7977.2206    7130.8341    5847.8715    5912.4833   -897.14032    60.915437   -79.459997   -3661.7873 
 3842000    238.68279   -4861.7638   -4384.3687   -4861.7638            0    8420.9301    17.970216    22.556596     19.52981    7916.3481    9425.3339    7828.5444     8008.912    330.66541   -459.75043   -25.327586    -3412.157 
 3843000    257.13464    -4862.524   -4348.2229    -4862.524            0    7396.8934    18.151113    22.611062    19.386707    7956.6133    6082.8341     8204.601    7903.2453   -203.42621    774.98268    277.61536   -3489.8945 
 3844000    245.21694   -4870.8361   -4380.3719   -4870.8361            0    7796.9228    18.159316    22.497622    19.426863    7936.6781    7038.4561    9165.5183    7186.7941   -1444.0168     -279.793   -987.97465   -3477.8913 
 3845000    239.07177   -4885.0607   -4406.8876   -4885.0607            0    7775.7142    17.782847    22.588876    19.701683    7914.0579    8842.7386     9131.024      5353.38   -36.305021      764.352   -528.94145    -3509.427 
 3846000    251.59607   -4863.5957   -4360.3725   -4863.5957            0    8507.4689     17.96142    22.768215    19.329041    7904.6012     10077.98    8408.5643    7035.8626   -1475.8382    -174.7763   -1299.6263   -3379.6272 
 3847000    245.90063   -4861.3228   -4369.4912   -4861.3228            0    8867.4479    17.917231    22.892542    19.238596    7891.1133    8827.6856    8560.5404    9214.1177    1423.9955   -334.08324   -1267.8282   -3348.9916 
 3848000     250.6646   -4874.2958   -4372.9357   -4874.2958            0    7641.8814     17.90423    23.022878    19.250341    7935.1233    8137.2798    7094.2539    7694.1106   -120.84064   -415.62846   -1309.4106   -3488.5741 
 3849000    229.53823   -4832.5983   -4373.4935   -4832.5983            0    7809.9917    17.935931    22.944705    19.271188    7930.7614     9161.012    7136.8041    7132.1591    2665.7092    472.74018    1695.2789   -3470.1741 
 3850000    235.28004   -4853.7028   -4383.1136   -4853.7028            0    5710.4277    17.989608    23.030116    19.283206    7989.0858    5989.5791    5217.7501     5923.954   -1993.1275    -288.3808   -571.84282   -3717.7767 
 3851000    243.38829   -4902.2683   -4415.4616   -4902.2683            0    7221.9686    18.028308    23.026086    19.158704    7953.1874    8124.9828    6448.6952    7092.2277    47.165957   -172.04235    -1388.284   -3577.7921 
 3852000     249.0124   -4872.7579   -4374.7024   -4872.7579            0    5437.0395    17.888381    22.932715    19.481353    7991.8185    4498.0649    5892.0152    5921.0382    -1551.036    693.77791   -1032.3046    -3741.002 
 3853000    241.83923   -4840.4712   -4356.7629   -4840.4712            0    7687.2788     18.07602    23.005743    19.089782    7938.5295    5676.1825     8598.265    8787.3887   -535.67829    1195.0427    276.97473   -3466.7658 
 3854000    249.91695   -4850.2664   -4350.4016   -4850.2664            0    10314.184    17.854371    22.967427    19.202399     7874.308     10697.58    10529.745    9715.2261    404.83799    1401.3458    1887.7788   -3165.9341 
 3855000    258.39378    -4842.342   -4325.5225    -4842.342            0    9473.0272    18.016044    22.808666    19.222092    7898.7792     8914.285    8973.8321    10530.965    1436.2656   -635.86895    1347.3707   -3234.2715 
 3856000    235.45254   -4879.0873   -4408.1531   -4879.0873            0    6818.3776    17.920413    23.030171    19.332499    7978.7192    6958.5669    6712.1971    6784.3689    47.760886    2048.6191   -470.14455   -3614.7569 
 3857000    248.42113   -4864.1444   -4367.2715   -4864.1444            0    6913.1451    17.926408    23.118495    19.184439    7950.6371    5259.7064    6846.9055    8632.8233   -541.34701   -183.38626    413.68021   -3565.6793 
 3858000    253.39827   -4858.9764   -4352.1486   -4858.9764            0    8154.4171    17.853478    23.115202    19.203544    7925.0483    9012.4678    7628.0982    7822.6853   -1812.8754   -338.94825   -379.25732   -3409.6716 
 3859000    234.23016    -4862.919   -4394.4298    -4862.919            0    6730.3626     18.00932    22.902898    19.376296    7992.0557    7498.7759    5924.2839    6768.0281   -1385.3424    521.68903     125.5378    -3609.966 
 3860000    252.67616   -4859.3819   -4353.9983   -4859.3819            0    6826.4476    17.934233    22.875404     19.42775    7970.2891    5293.6329    7300.2397    7885.4702   -1053.5947    557.19687     542.4017   -3560.5024 
 3861000    256.71051   -4859.9089   -4346.4562   -4859.9089            0    4406.3215    18.164974    23.046426    19.216594     8044.791    3950.8054    4042.0371    5226.1221   -462.24588    528.49233    1093.8949   -3829.4844 
 3862000    244.43413   -4854.1194   -4365.2209   -4854.1194            0     9571.669    17.970981    22.718508    19.336432      7894.56    9138.0158    9743.6137    9833.3775   -127.33043   -775.98933    1580.5545   -3263.1958 
 3863000    231.79648   -4851.9369   -4388.3153   -4851.9369            0    9516.5078    18.023887    22.702457     19.30514    7899.4033    10848.516    10279.356    7421.6513    1071.8541    46.213423    1031.4864    -3291.969 
 3864000    238.39689   -4838.0654   -4361.2422   -4838.0654            0    6413.3682    18.039367    22.800277    19.402074    7980.1226    6550.8408    6968.5643    5720.6994   -1171.5396    175.39206    257.36626   -3614.8422 
 3865000    243.98127   -4868.2462   -4380.2535   -4868.2462            0    4909.2098    18.114754    22.873839    19.445793    8057.4416    3436.5796    6240.0143    5051.0355    240.24478   -126.55901   -1626.9923   -3803.3746 
 3866000    240.80841   -4883.9189   -4402.2723   -4883.9189            0    6542.3865    18.145546     22.67873    19.298509    7941.6827    5026.8911     6807.769    7792.4995    1654.9015   -89.138869    1111.6539   -3644.5246 
 3867000    245.57878     -4898.94   -4407.7521     -4898.94            0    7441.9876    18.074324    22.620157    19.366795    7917.9988    7155.4142    8924.2002    6246.3483   -43.789238    589.20826   -629.81482    -3548.382 
 3868000    237.32383    -4866.883    -4392.206    -4866.883            0    8199.1938    18.175719    22.547694    19.372902    7939.4137      6605.81    9027.0586    8964.7126    1559.2246   -115.59803   -540.00175   -3442.8361 
 3869000    240.42268   -4877.9179   -4397.0428   -4877.9179            0    8650.1538    17.979526    22.704727    19.458248    7943.2503     10138.08    8525.1182    7287.2627    387.64515    -929.6102   -845.52947   -3394.9731 
 3870000    244.14907   -4868.5251   -4380.1968   -4868.5251            0    8564.4741     17.95507     22.75469    19.367672    7912.8957     8531.428    8567.7515    8594.2429    2118.2678   -1261.3949    384.22699   -3391.8439 
 3871000     245.9281   -4893.2224   -4401.3358   -4893.2224            0    6346.1268    18.058678    22.971323    19.234512     7979.086     6080.427    6637.8297    6320.1237   -119.00929   -448.24262   -963.53681   -3662.8574 
 3872000    256.61032   -4856.7521   -4343.4998   -4856.7521            0    8091.5143    17.826099    23.116838    19.219981    7920.2284     11566.54    5997.3132    6710.6894    2264.6065    -1132.834    1426.3079   -3408.8618 
 3873000    241.88693   -4854.0091   -4370.2054   -4854.0091            0    8711.5006    17.803298    23.055089    19.214033    7886.5271    10372.509    7664.6029    8097.3895    -508.7723   -1195.8202   -470.33187   -3368.2355 
 3874000    252.29869   -4864.4827   -4359.8542   -4864.4827            0    8263.8726    17.839642    23.204086    19.139001     7922.639    7735.0041    7573.8557    9482.7581    404.29899   -293.28789   -262.53609   -3405.0169 
 3875000    245.31674    -4837.075   -4346.4113    -4837.075            0    8775.8115    17.949608    23.209923    19.005599    7917.9037    8224.3642    8708.4666    9394.6036    109.64599   -532.23487   -1175.5625   -3333.0288 
 3876000    241.34541   -4869.9612   -4387.2406   -4869.9612            0    9085.0618    17.826743    23.011808     19.28599    7911.6063    10150.089      9682.46    7422.6362   -232.58955    2351.7056    180.15205   -3338.9819 
 3877000    241.28646   -4870.6902   -4388.0875   -4870.6902            0    7980.5963    17.929383    23.088956    19.163727    7933.2221    6854.0152    7668.6461    9419.1277   -632.12854     1260.134   -622.71779   -3464.7492 
 3878000    234.88508   -4851.3233   -4381.5241   -4851.3233            0    9130.4798      17.7994    23.053152    19.151824    7858.6115    8641.0068    8479.3672    10271.065   -265.97402    63.084398   -54.947715   -3335.0818 
 3879000     249.5355   -4821.9089    -4322.807   -4821.9089            0    6121.3287    17.916006    22.899634     19.43502    7973.6054     6502.958    6297.1029    5563.9254    86.497174   -593.53123   -1993.7032    -3610.977 
 3880000    237.70375   -4885.0899    -4409.653   -4885.0899            0     7461.452    17.943605    22.879413    19.350888    7944.2973    7963.6642    6686.8831    7733.8087     1333.454    197.17317    72.029839   -3545.1734 
 3881000    230.12984   -4874.9664   -4414.6783   -4874.9664            0    6871.4422    18.010613    22.948796    19.224686    7945.9833    6334.8501    7272.7353    7006.7411   -298.81953    565.22172    810.68499    -3618.388 
 3882000    250.78256   -4849.1883   -4347.5922   -4849.1883            0    7041.9464    17.830037    23.124077     19.35395    7979.6945    8581.5877     6492.332    6051.9195    992.75002    570.04893    1179.9284   -3528.0811 
 3883000    254.65016   -4857.8473   -4348.5155   -4857.8473            0    6242.5591    17.957391     23.31109    19.025054    7964.0086    5981.2057     5694.144    7052.3276    554.76987    -752.3799   -1378.5387   -3623.4616 
 3884000    239.94023   -4879.2234   -4399.3133   -4879.2234            0    6160.2402      17.8027    23.000682    19.417042     7950.778     6125.145    6587.4331    5768.1424    2011.8606     952.5343    530.73076   -3685.0091 
 3885000    242.07243   -4870.4394   -4386.2647   -4870.4394            0    9154.6629     18.02493    22.883403    19.146066    7897.2112    7836.3905    10490.871    9136.7273    956.84016    912.85951   -1838.6719   -3331.8972 
 3886000     250.2216   -4859.8076   -4359.3335   -4859.8076            0    7098.1243    17.827728    22.903449    19.461352    7946.3904    8326.6251    7201.3576    5766.3902    2378.2995   -815.64661   -1211.9181   -3536.7322 
 3887000    242.33622   -4870.5153    -4385.813   -4870.5153            0    8562.8539    18.000407    22.840872    19.363649    7961.2673    8265.2623    8829.5128    8593.7866    -1086.845   -367.55014   -2162.7109   -3391.6064 
 3888000    239.56759   -4856.6665   -4377.5017   -4856.6665            0    8925.1419    18.018668    22.717112    19.339813     7916.406    9970.6078    8868.8138    7936.0041   -25.192939   -187.38868    536.33264   -3347.0703 
 3889000    234.07605    -4877.521     -4409.34    -4877.521            0    7253.1763    17.987808    22.858204    19.320479    7943.9818    8143.6838    7328.3074    6287.5377    293.19205    415.52084   -251.05887   -3569.0245 
 3890000    261.61551   -4889.7729   -4366.5096   -4889.7729            0    6129.7723    18.059516      22.8034    19.369718    7976.8056    5750.2546     7312.369    5326.6933    2020.5682    1810.9758    1744.6604   -3653.4115 
 3891000    239.53156   -4859.9504   -4380.8577   -4859.9504            0    7296.4558    18.146243    22.891744    19.143638    7952.2512    6407.4551    6587.3639    8894.5483     1620.257   -260.67698   -340.91503   -3534.6481 
 3892000    242.27522   -4860.8281   -4376.2478   -4860.8281            0    7557.1602    17.979894    22.812148    19.292441    7912.9875    6535.2258    7941.8774    8194.3774   -479.68842   -955.68477   -1256.5086   -3504.1303 
 3893000    235.29911   -4865.7205   -4395.0932   -4865.7205            0    7188.6188    18.028427    22.811103    19.371527    7966.5076    7340.1758    7405.0581    6820.6224   -919.30165   -1569.8347    232.33738   -3559.8954 
 3894000    247.00597    -4868.729   -4374.6865    -4868.729            0    8318.8473    18.003981    22.811039    19.298666    7925.7597    8754.7517    8507.6767    7694.1134   -300.47481   -1119.2861   -749.98055   -3413.1187 
 3895000    246.20784   -4874.6393   -4382.1932   -4874.6393            0    8357.8028    17.973378    22.843792    19.318189    7931.6643    9272.8912    8485.4917    7315.0255   -591.31994     1407.168    736.00954   -3415.4028 
 3896000    241.88539   -4867.5952   -4383.7946   -4867.5952            0    8285.8301    17.908158    23.008632    19.220719    7919.7478    8157.0507    7047.7223    9652.7172   -17.449132   -1157.2648    800.40682   -3426.7696 
 3897000    245.02301   -4896.7952   -4406.7189   -4896.7952            0    7789.4666    17.920805    22.824051    19.428339    7946.6833    7517.9345     7768.592    8081.8734   -1036.7892    -1084.344    613.74021   -3503.9647 
 3898000    249.90369   -4890.9378   -4391.0995   -4890.9378            0    9093.4304    18.017733    22.620371    19.367409    7893.5322     8715.328     9954.631    8610.3324   -87.739615    66.778905    231.23226   -3344.2723 
 3899000    248.03071   -4843.2341   -4347.1421   -4843.2341            0    8344.9739    18.067082    22.547275    19.472549    7932.4054     6819.061     9874.997    8340.8638     281.7978    950.68398   -2285.1993   -3381.7455 
 3900000    246.93338   -4884.4763    -4390.579   -4884.4763            0    6737.1092    18.104961    22.717896    19.343909    7956.2775    6997.1313    6308.8928    6905.3036    1290.0707    855.18397    283.98191   -3608.8443 
 3901000    259.90854   -4845.9486   -4326.0994   -4845.9486            0    7914.1265    18.030069    22.811014    19.361983    7963.2771    8347.4023    7482.4846    7912.4925    635.42181   -829.90213     756.0874   -3406.9826 
 3902000    242.44848   -4852.2379    -4367.311   -4852.2379            0    6577.9783    17.957273      22.8673    19.416021     7972.885    5255.4282    6635.1704    7843.3364    149.13519   -565.57425   -767.70832   -3602.4477 
 3903000    250.84746   -4874.4224   -4372.6965   -4874.4224            0    6481.3461    18.043563    22.841739    19.412999    8000.9965    6525.0418     6137.683    6781.3135    920.15701   -1076.9076    1106.7175    -3616.412 
 3904000    237.34734   -4866.0583   -4391.3343   -4866.0583            0    8230.8867    17.879002    22.903396    19.338406    7918.8815    7720.0478    8779.2517    8193.3606     483.2306    485.03677   -889.18523   -3440.7593 
 3905000    234.79683   -4856.4276   -4386.8049   -4856.4276            0    8673.9216    17.901649    23.076115    19.172749    7920.2721    10579.759    6484.3099    8957.6957    -947.1941   -801.59291    732.71404   -3384.8885 
 3906000    237.21829   -4885.9469    -4411.481   -4885.9469            0    6543.5815    17.927423    23.163276    19.215961    7979.5783    5828.7677    5939.6126    7862.3641    575.47191   -235.07931    17.908656   -3649.9785 
 3907000    233.31669   -4849.4214   -4382.7592   -4849.4214            0    6492.3233    17.840796    23.182542    19.304708    7984.3305    9396.0721    4254.5996    5826.2981   -1521.3613   -620.47109   -810.42891   -3626.7718 
 3908000    233.79779   -4880.1048   -4412.4804   -4880.1048            0    7142.3736    17.840597    23.180791     19.20788    7943.5944    7802.7839    6171.9042    7452.4328    1005.7463   -638.14216    854.14601   -3585.0423 
 3909000    240.84697   -4884.1316   -4402.4079   -4884.1316            0    6420.8499    17.946753    22.967106     19.33754    7970.6436    5468.8019    7789.5093    6004.2385    -39.94899   -557.02546    750.57439   -3656.0248 
 3910000    250.20653   -4862.3934   -4361.9494   -4862.3934            0    8411.9191    17.947655    22.920954    19.333066    7953.1859    9634.0572    7856.4504    7745.2498   -563.74144    366.64957     618.6346   -3386.2588 
 3911000    239.69085   -4882.1645   -4402.7532   -4882.1645            0    7527.8494    17.951044    23.085974    19.246743    7976.1837    8178.2934    6238.9444    8166.3104   -261.39219   -502.43213    52.349146   -3527.0802 
 3912000    238.39801   -4850.6567   -4373.8313   -4850.6567            0    7164.0937    17.850324    22.994552    19.446427    7981.9844    7174.3734    7036.1362    7281.7715   -848.98585    154.28907   -562.92443   -3539.8659 
 3913000    239.10007   -4859.5788   -4381.3491   -4859.5788            0    8519.5002    18.050243    22.874879    19.200831    7927.9679    7071.5626     9961.161    8525.7771    1072.7799    289.42907    405.29617   -3396.3136 
 3914000    239.31821   -4865.9026   -4387.2366   -4865.9026            0     7490.467     18.07257    22.792996    19.247156    7928.4429    7228.4205    7009.6165    8233.3639   -878.26311   -1095.5145   -818.17004   -3521.1273 
 3915000    236.59441   -4862.6494   -4389.4313   -4862.6494            0    7495.2307    18.076589    22.701842     19.36785    7948.0211    6556.2871       7852.2    8077.2051    935.68826    1275.4574    2214.7201   -3520.6312 
 3916000    250.12993   -4831.0125   -4330.7218   -4831.0125            0    8715.2297    18.053899    22.600134    19.389376    7911.2634    7823.6082    10440.122    7881.9594   -245.11572    67.350627   -2151.3949   -3325.1789 
 3917000    237.80365   -4862.6959   -4387.0593   -4862.6959            0    7326.7692    18.122294    22.645345     19.30701    7923.3187      4905.25     8320.042    8755.0156    236.58647    1378.6974    520.12762   -3540.4256 
 3918000    243.81886   -4843.0522   -4355.3844   -4843.0522            0    7346.1758    18.112916    22.643501    19.365678    7942.6358    6230.0978    7688.2779    8120.1517    199.50727    807.17372     478.7403   -3504.4386 
 3919000    264.28603   -4870.9129   -4342.3082   -4870.9129            0    8033.2589    18.013899    22.376256    19.704976    7942.7531    8208.4235    9390.4058    6500.9472    197.96148    570.17064    358.15721   -3411.7604 
 3920000    237.68233   -4848.3161    -4372.922   -4848.3161            0    5151.5421    18.239837    22.762812    19.351542    8034.5664    4135.9408    5751.1542    5567.5313   -777.92373    1.9025717    81.889747   -3769.2854 
 3921000    246.46854   -4856.6551   -4363.6876   -4856.6551            0    8246.1397    17.870991    22.682395    19.568772    7932.3365    8162.3341    8818.5745    7757.5104    247.34962    1222.8438    1329.3682    -3409.733 
 3922000    249.54544   -4892.9084   -4393.7867   -4892.9084            0    8615.6683    18.040559    22.859382    19.196422    7916.5285    7497.3149    7813.6127    10536.077   -563.95891    357.95312    84.155521   -3399.0695 
 3923000      240.101   -4888.2315   -4407.9998   -4888.2315            0    7439.0683    17.940775    22.956764    19.316594    7955.7738    8710.6625     6178.531    7428.0115    153.64353   -286.55693   -1539.6648   -3544.8685 
 3924000    242.47779   -4868.1538   -4383.1682   -4868.1538            0    8349.4774    17.979043    22.766872    19.334935    7914.3025    8100.2279    8118.5525    8829.6518    24.053892    1367.5122   -2566.4731    -3419.455 
 3925000    254.52615   -4891.0159   -4381.9322   -4891.0159            0    6603.6806     18.17786    22.696607    19.228223    7933.0985    6073.5712    6843.1755    6894.2951    1146.8609   -1795.0285   -1831.1539   -3617.9121 
 3926000    241.72238   -4859.9991   -4376.5245   -4859.9991            0    9175.8778    17.961695    22.607048    19.368518    7864.7978    7803.3935    10729.374    8994.8657    1199.4129    59.459351    398.13852   -3324.0513 
 3927000    253.76962   -4852.7485   -4345.1779   -4852.7485            0    9415.7455    18.114064    22.596653    19.247722    7878.4241    10768.467    8475.5689     9003.201    281.79427   -1141.6138   -1399.2241   -3263.3206 
 3928000     247.8307   -4862.3451   -4366.6531   -4862.3451            0    6587.4747    18.088216    22.649378    19.505008    7990.9451    6736.2159    6839.7337    6186.4744    196.50997    1028.7188   -316.25934   -3598.9505 
 3929000    249.21347   -4869.4113   -4370.9535   -4869.4113            0    4602.7157    18.140165    22.793486    19.448397    8041.4767    3978.7688     5592.035    4237.3434    204.36008   -924.43135   -344.18822   -3831.1623 
 3930000    244.77495   -4859.4515   -4369.8714   -4859.4515            0    7165.2862    18.059301     22.89044    19.138859    7911.7239    8725.6269    6650.0928     6120.139    126.54039   -1246.2229   -1726.1224   -3543.1093 
 3931000    239.73498   -4870.0856    -4390.586   -4870.0856            0    8901.7644    17.882752     22.88907    19.368297    7927.8226    10265.917    7571.2263    8868.1501   -549.43664   -556.50886    2370.2165   -3361.3715 
 3932000    250.95382   -4870.8573   -4368.9187   -4870.8573            0    7511.9392    17.935413    22.912895    19.315961    7937.9373    7726.7569    6411.0207    8398.0401   -1120.6449   -245.57413    2793.0746   -3499.2865 
 3933000    236.99435   -4883.2652   -4409.2472   -4883.2652            0    7349.1455    18.147044    22.857801     19.18439    7957.7141    7049.8012    7004.3677    7993.2676   -1004.2293    375.98338   -129.05595   -3556.3414 
 3934000    244.76382   -4897.9299   -4408.3721   -4897.9299            0     6374.723    17.926604    22.855028    19.488471    7984.6808    8172.9166    6476.2833     4474.969   -1194.7179   -1057.7568    328.54775   -3666.0459 
 3935000    250.06874   -4850.5659   -4350.3975   -4850.5659            0    6659.5456    18.038768    22.917059    19.235683    7951.9449    5844.1074     6875.396    7259.1335   -1053.7956    415.51655    249.26642   -3578.0836 
 3936000    253.20278   -4870.7448   -4364.3079   -4870.7448            0    6164.8544    17.903412    22.949913    19.396123    7969.5131    6299.5253    6919.1007    5275.9371    1168.4513    599.26008    -215.5408   -3647.7843 
 3937000    238.61455   -4870.4551   -4393.1965   -4870.4551            0    8208.8757    18.034422    22.873831    19.226726    7931.3381    8172.1015    8639.8597    7814.6659    171.27698    759.65445     2740.658   -3443.6723 
 3938000    253.82334    -4859.969   -4352.2909    -4859.969            0    9913.8457    18.014351    22.844621    19.186322    7895.7668    10098.699    9898.6917    9744.1464   -144.86992   -711.95146    638.51628   -3210.6951 
 3939000    235.05977    -4877.027   -4406.8784    -4877.027            0    7146.7804    17.953296    22.808522    19.394433    7941.7907    6180.5025    7335.3326    7924.5062    455.46475   -35.071067     532.8477   -3579.1177 
 3940000    253.59152   -4834.3459   -4327.1316   -4834.3459            0    9359.6332    18.049725    23.030071    19.068367    7926.4614    9643.3851    7979.4113    10456.103   -2658.5658    -388.7971   -157.45695   -3245.1645 
 3941000    246.02191   -4857.9457   -4365.8714   -4857.9457            0    7337.6668    17.846699    22.754735    19.529526    7930.8801    8488.8236    7753.8594    5770.3175    359.04552   -412.09659    447.35001   -3517.1694 
 3942000    252.82751   -4873.6382    -4367.952   -4873.6382            0    7466.5642     17.97223    23.031687    19.150867    7927.1336    6544.6562    6814.3128    9040.7236   -632.02206   -240.44661    2317.7215   -3504.7491 
 3943000    245.23396   -4872.6018   -4382.1036   -4872.6018            0    8325.0851    17.816977    23.150396    19.247094    7938.8501     8291.964    8197.4041    8485.8872   -76.325684    1239.9336    1273.8694   -3418.2253 
 3944000    244.03619   -4858.4672   -4370.3646   -4858.4672            0    6504.2575    17.874498    23.004523    19.376558    7967.5301    7675.6015    5472.8366    6364.3345   -1136.3051   -383.48054    819.45353   -3614.5813 
 3945000    242.04403   -4858.1798   -4374.0619   -4858.1798            0    6856.5737    18.142756    22.752943    19.265183    7952.6884    6574.1685    6502.0275    7493.5252    625.41355   -441.33844   -126.99322   -3578.8241 
 3946000    256.58906    -4898.549   -4385.3391    -4898.549            0    7466.3984    17.948375    22.688732    19.496331    7939.4102     6933.467    8814.4812    6651.2469   -1220.1096   -212.70695    593.01312   -3520.8187 
 3947000    257.59488   -4888.9638   -4373.7423   -4888.9638            0    8247.4543    18.240983    22.413513    19.375859    7921.7135    4969.8361    9856.5243    9916.0026   -709.44895    601.39171    181.69896   -3420.9133 
 3948000    246.74135   -4865.7685   -4372.2554   -4865.7685            0    8310.5845    17.909821    22.806313    19.458497    7947.9588    8594.5625    8622.5745    7714.6166   -362.25847    1341.2118     2586.044    -3408.952 
 3949000    243.65575   -4845.4262   -4358.0846   -4845.4262            0    7787.0149       18.168    22.788571    19.228343    7960.9714    6795.5918    7869.2209     8696.232     -1715.04    856.82798   -1204.6106   -3453.9919 
 3950000    242.85524   -4870.4009   -4384.6604   -4870.4009            0    7694.3556    17.935945    22.918841    19.346873    7952.9399    7420.2094    7573.2071    8089.6502   -860.27125    249.44799   -1302.4527   -3492.2269 
 3951000    240.22206   -4855.7298    -4375.256   -4855.7298            0    6673.2733    17.877308    23.199343    19.245786    7982.0316    6906.4062    6050.1207    7063.2931     84.02949    493.59623    1488.4415   -3598.4219 
 3952000    248.07497   -4873.5693   -4377.3887   -4873.5693            0    7852.8804     17.87256    22.927431    19.358088    7932.4005    6236.1441    8337.5386    8984.9586   -1314.2592    1393.8692   -946.57875   -3468.9209 
 3953000    237.66536    -4881.584   -4406.2239    -4881.584            0    7579.5509    18.091177    22.689506    19.302101     7923.124     6016.604    7115.9068     9606.142    572.42356   -315.87718    606.69193    -3530.402 
 3954000    234.58338   -4882.0293   -4412.8336   -4882.0293            0    7302.0714    18.068302     22.67586    19.387027    7943.1421    8390.1041    7974.3229    5541.7871   -1834.2028    25.979579    148.57408   -3566.9428 
 3955000    232.94962   -4875.2709   -4409.3429   -4875.2709            0    8489.9219    18.075498    22.668435    19.360256     7932.734    9135.6254    8852.6155    7481.5249   -283.24931    928.03605      3076.36   -3427.1372 
 3956000    252.47378   -4901.0174   -4396.0386   -4901.0174            0    7171.8544    18.089151    22.616811    19.357349    7919.4575    7363.7237      7682.64    6469.1995   -847.21527   -319.06961    366.84791   -3567.7098 
 3957000    244.88582   -4859.0868   -4369.2849   -4859.0868            0    6335.9698    18.122737    22.650297    19.438753    7979.3242    5401.2937    7657.6249     5948.991    52.120844   -683.54912    1063.7907   -3631.9664 
 3958000    242.22394   -4831.9884   -4347.5106   -4831.9884            0    10320.165    17.999294    22.539249    19.454737     7892.603    9893.7721    11104.441    9962.2812    807.38788   -1408.0542   -885.17185   -3159.6027 
 3959000    241.14741   -4869.5997   -4387.2751   -4869.5997            0    6663.9581    18.222068    22.540097     19.44567    7986.8653    7652.8465    6293.8835    6045.1444    187.31919   -821.25673    4.7539741   -3611.0556 
 3960000    241.70983   -4849.7142   -4366.2647   -4849.7142            0    7231.0606    18.110438     22.72828    19.331912    7957.3845    7092.2265    7027.3655    7573.5897    1137.0489    362.08977    545.26121    -3527.098 
 3961000     250.7023   -4862.3515    -4360.916   -4862.3515            0    10269.282    18.006769    22.649909    19.225939    7841.3318    9473.5088    10541.297    10793.039   -240.75248   -1217.3794   -955.87865   -3186.5437 
 3962000    253.01896   -4875.8673   -4369.7982   -4875.8673            0     8030.987    18.036389    22.598679    19.385349    7901.4404    8141.6052    8607.7083    7343.6475    392.87219   -1057.3391    273.40912   -3444.3522 
 3963000    245.36722   -4873.7212   -4382.9564   -4873.7212            0    7474.3258    18.085583    22.588051    19.471564    7954.4858    7821.6818    7792.9602    6808.3353   -402.93324   -937.82855    2656.5835   -3515.8747 
 3964000    240.96548   -4863.4333   -4381.4726   -4863.4333            0    8804.7382    18.120855    22.597356     19.32859    7914.7372    8770.6266    8628.0205    9015.5675    504.70523   -203.34674   -868.49021   -3365.1564 
 3965000    237.67486   -4896.9228   -4421.5437   -4896.9228            0     8428.399    18.210662    22.572428    19.291353    7929.8817    7816.7237     9120.169    8348.3043    377.31907    106.08809    1518.4226   -3446.8062 
 3966000    242.25309   -4864.6001    -4380.064   -4864.6001            0    8746.3079    18.046387    22.505697    19.566004    7946.6643    8844.1747    9602.3631     7792.386    547.52954   -394.21066    1008.3523   -3366.4198 
 3967000    234.80245   -4877.7288   -4408.0949   -4877.7288            0    7163.3742    18.135156    22.533164    19.424807    7937.8004    7461.7607    7924.2804    6104.0815   -93.369068    -341.2841   -214.37981   -3578.8292 
 3968000    250.91045   -4862.9918   -4361.1399   -4862.9918            0    7508.9368     18.00916    22.678678    19.473708    7953.5285    6892.5505    8065.5037    7568.7563   -525.64821    1110.8638    -549.2017   -3490.1479 
 3969000    246.00154   -4874.9201   -4382.8867   -4874.9201            0    8586.6306    18.076622    22.491223    19.453135    7908.9704    8403.2002    8829.8208    8526.8709   -683.99814    585.58986    618.52724   -3392.4685 
 3970000    228.94902   -4871.8613   -4413.9349   -4871.8613            0    7475.5856    18.179067    22.561724    19.320123    7924.1691    6360.5016    9283.6259    6782.6295   -432.42855     236.0553    2130.7535   -3550.0123 
 3971000    250.74745   -4891.3444   -4389.8185   -4891.3444            0    6725.3986    18.047115    22.720683    19.387563    7949.7302    5556.6985    7193.6585    7425.8388    1091.5993    920.42909    1014.7293   -3610.0848 
 3972000    239.05925   -4890.4024   -4412.2543   -4890.4024            0    8325.5528    17.915229     22.73772    19.444474    7920.7346     8798.441    8425.0153     7753.202   -1344.8823    995.27768   -39.676272   -3450.5215 
 3973000    231.84252   -4869.1126   -4405.3989   -4869.1126            0    7215.4359    18.112721    22.876365    19.212216    7960.6437    6116.8856    7775.6358    7753.7864   -1293.2098   -173.40888    1916.0338   -3567.7025 
 3974000    243.01468     -4850.56   -4364.5006     -4850.56            0    9414.7779    17.924079    22.803333    19.308042    7891.7521     7804.038    9916.1725    10524.123   -270.75106     385.9914    885.53989   -3280.9246 
 3975000    240.96258   -4882.6972   -4400.7423   -4882.6972            0    7695.4729    17.947369    23.044893    19.198255    7940.3059    6877.8602    7964.8022    8243.7562   -1188.2919    1396.1242    -578.6486   -3509.5972 
 3976000    227.51527   -4845.0242   -4389.9656   -4845.0242            0    6712.2645    18.091767    22.932601    19.268995    7994.5377    5499.9118    6827.5185    7809.3633   -540.14471   -133.68525    891.40959   -3607.3684 
 3977000    248.61653   -4821.5506   -4324.2868   -4821.5506            0    7445.4336    17.822031    22.943217    19.511961    7978.3379    6887.6856    7902.8477    7545.7676    388.26194    256.78472    1879.3819   -3457.9669 
 3978000    253.67699   -4864.3193   -4356.9339   -4864.3193            0    6758.2673     18.05288    23.071746    19.100456    7955.5588    5080.0775    7053.8286    8140.8957   -860.62053   -623.76507    306.52287    -3572.815 
 3979000    250.54125   -4862.1693   -4361.0558   -4862.1693            0    7801.0742    17.814787    23.076315    19.319385    7942.1925    8838.7138    7548.3432    7016.1657    191.87846   -679.02187   -219.12432   -3457.4673 
 3980000    251.24005   -4843.8178   -4341.3067   -4843.8178            0    6340.9327    17.913073    23.321309    19.140465    7996.0496    7091.5716    5329.5721    6601.6545    273.62086    -181.0291    108.85628    -3601.864 
 3981000    244.91158   -4848.8306   -4358.9772   -4848.8306            0    5531.6153    17.820042     23.44812    19.074961    7970.4055    5279.3064    5141.5461    6173.9934     152.9437    1031.8993   -402.45228   -3715.9812 
 3982000    248.11807   -4878.4571   -4382.1903   -4878.4571            0    6846.4606    17.847617    23.122134    19.296812    7963.3116    8353.2699    4278.7614    7907.3506   -1490.6727   -1315.4785    261.65592   -3587.0648 
 3983000    236.53002   -4862.2758   -4389.1865   -4862.2758            0    7027.4245    18.049793    22.860915    19.248963    7942.7916    7614.2778    7558.2317    5909.7641    301.80379    140.83345    3135.7739   -3575.1474 
 3984000    251.92317   -4859.8982   -4356.0207   -4859.8982            0    7035.0898    18.043205    22.708654    19.471253    7978.0906    6184.6471    7252.0308    7668.5915   -1047.5939   -398.56947   -712.24669   -3537.4721 
 3985000    242.43344     -4892.26   -4407.3632     -4892.26            0    6324.3967    18.030024    22.887732    19.304298    7966.2344    5543.1925    6349.3391    7080.6584   -1510.1955     35.71854     -2241.91   -3672.5988 
 3986000    233.46108   -4847.4818   -4380.5307   -4847.4818            0    8028.7741    17.899318    22.826722    19.462075     7951.868    8774.8329      7621.94    7689.5495   -1543.7363   -607.01001    939.56098   -3449.4351 
 3987000    238.00356   -4875.2103   -4399.1738   -4875.2103            0    6213.5873    18.049398    22.789361    19.393581     7977.244     5420.328    6552.5323    6667.9015    330.02659    110.61831    563.30408   -3676.2856 
 3988000    253.47465   -4870.5684   -4363.5878   -4870.5684            0    7186.9333    18.090518    22.859267     19.28821    7976.3687    8357.9508    5946.6013    7256.2478     745.1473   -486.73154    5.1778265   -3527.5523 
 3989000    245.06584   -4869.4925   -4379.3305   -4869.4925            0    7031.7502     17.86876    22.856159    19.435921    7937.8481    6746.0021    6596.8017    7752.4469   -663.37811    -1140.246   -265.28784   -3565.2973 
 3990000    249.86061   -4865.0894   -4365.3373   -4865.0894            0    8353.9742    17.907646    22.978345    19.253104    7922.4224    6488.0871    8885.8393    9687.9962   -2135.2981   -439.37553   -1444.2531   -3400.1157 
 3991000    247.67355   -4887.5035   -4392.1258   -4887.5035            0    8752.0389    17.888538    22.934425     19.26974    7905.6678    9633.0139    7938.3573    8684.7456   -470.74609   -936.43835    645.38259   -3383.0502 
 3992000    246.18847   -4877.5624   -4385.1551   -4877.5624            0    8157.3336    17.980913    22.885612    19.253613    7922.9427    6519.9502    8593.0881    9358.9626   -1681.0942    1377.2681   -465.82316   -3442.5915 
 3993000     255.6797   -4861.7701   -4350.3791   -4861.7701            0    7652.3525    17.958359    22.816541    19.494418    7987.7915    8183.4406    7968.3084    6805.3086     672.7964    868.12479    22.282214   -3458.9279 
 3994000    246.66996   -4860.6682   -4367.2978   -4860.6682            0    7344.9145    17.990383     23.16559    19.157164    7983.8982    8000.4605    6183.0429    7851.2401   -1642.0115    130.61639   -997.88168   -3512.0782 
 3995000    252.01343   -4845.1386   -4341.0806   -4845.1386            0    6934.6764    17.935298    23.041798    19.266673    7962.1746    7099.0042    6689.0452    7015.9799    -222.0671    212.52618   -976.09769    -3535.825 
 3996000    243.56671   -4865.6036   -4378.4401   -4865.6036            0    6493.8719    17.767744     23.10548    19.349943    7943.7756    9714.8418    5369.8881    4396.8859    126.80672   -615.71101    708.84114   -3626.1132 
 3997000    238.84325   -4855.0047   -4377.2886   -4855.0047            0    7441.4948    18.017765    23.166842    19.084115    7965.9902    7642.1394    6979.0861    7703.2588   -1644.8709   -434.97492   -530.00532   -3512.7671 
 3998000    250.19173   -4851.3944   -4350.9801   -4851.3944            0    6533.3338    17.873856    23.073882    19.266655    7945.9396    7192.6794    5753.7569     6653.565    1297.1014   -1143.7349    1345.4243   -3593.8753 
 3999000    241.32097   -4875.3087   -4392.6369   -4875.3087            0    7063.4651    17.923859    23.047616    19.260163    7956.4163    8588.4854    7177.4258    5424.4842   -1497.2429    630.93386   -103.19569   -3573.0195 
 4000000    247.76618   -4840.4475   -4344.8846   -4840.4475            0    8703.6089    17.982945    22.996326    19.197534    7938.9801    8906.4903    8772.8116    8431.5249    979.15179    642.40627   -315.14597   -3337.1643 
Loop time of 480.557 on 64 procs for 250000 steps with 1008 atoms

Performance: 89.896 ns/day, 0.267 hours/ns, 520.229 timesteps/s
195.2% CPU use with 32 MPI tasks x 2 OpenMP threads

MPI task timing breakdown:
Section |  min time  |  avg time  |  max time  |%varavg| %total
---------------------------------------------------------------
Pair    | 35.994     | 41.131     | 51.742     |  53.5 |  8.56
Bond    | 0.95841    | 1.3122     | 2.1719     |  24.6 |  0.27
Kspace  | 226.57     | 237.53     | 241.58     |  22.4 | 49.43
Neigh   | 3.2799     | 3.4652     | 3.6135     |   4.5 |  0.72
Comm    | 76.162     | 81.468     | 85.576     |  27.6 | 16.95
Output  | 0.53778    | 0.53812    | 0.5397     |   0.0 |  0.11
Modify  | 85.69      | 90.215     | 110.44     |  78.4 | 18.77
Other   |            | 24.9       |            |       |  5.18

Nlocal:        31.5000 ave          37 max          26 min
Histogram: 1 4 4 3 6 4 1 3 2 4
Nghost:        2912.16 ave        2925 max        2893 min
Histogram: 1 1 1 1 6 4 8 5 2 3
Neighs:        10537.7 ave       12437 max        8749 min
Histogram: 1 4 4 3 7 3 2 3 2 3

Total # of neighbors = 337206
Ave neighs/atom = 334.52976
Ave special neighs/atom = 2.0000000
Neighbor list builds = 8141
Dangerous builds = 0

unfix		3
unfix		2
unfix		1

write_data	data.final.${pid}
write_data	data.final.0
System init for write_data ...
PPPM initialization ...
  extracting TIP4P info from pair style
  using 12-bit tables for long-range coulomb (../kspace.cpp:340)
  G vector (1/distance) = 0.38313742
  grid = 24 30 32
  stencil order = 5
  estimated absolute RMS force accuracy = 0.0019779676
  estimated relative force accuracy = 5.9565907e-06
  using double precision FFTW3
  3d grid and FFT values/proc = 5712 768
Last active /omp style is kspace_style pppm/tip4p/omp
WARNING: Not all mixed pair coeffs generated from mixing. Use write_data with 'pair ij' option to store all pair coeffs. (../write_data.cpp:312)

write_restart   restart.lmp.${pid}
write_restart   restart.lmp.0
System init for write_restart ...
PPPM initialization ...
  extracting TIP4P info from pair style
  using 12-bit tables for long-range coulomb (../kspace.cpp:340)
  G vector (1/distance) = 0.38313742
  grid = 24 30 32
  stencil order = 5
  estimated absolute RMS force accuracy = 0.0019779676
  estimated relative force accuracy = 5.9565907e-06
  using double precision FFTW3
  3d grid and FFT values/proc = 5712 768
Last active /omp style is kspace_style pppm/tip4p/omp
Total wall time: 0:08:00
