LAMMPS (30 Jul 2021)
  using 1 OpenMP thread(s) per MPI task
package omp 0
using multi-threaded neighbor list subroutines
echo both

include		in.partitions
variable        pid world 0
include		in.temp
variable        temperature equal 249.28
variable	tempDamp equal 100.0
include		in.pressure
variable        pressure equal 5250.0
variable        pressureDamp equal 1000.0 # This is 1 ps
include		in.seed
variable        seed world 745823

units		real
atom_style	full
read_restart    restart.lmp.${pid}
read_restart    restart.lmp.0
Reading restart file ...
  restart file = 30 Jul 2021, LAMMPS = 30 Jul 2021
  restoring atom style full from restart
  triclinic box = (-3.2242167 -0.27670903 -0.074784845) to (14.834216 22.856708 19.304783) with tilt (0.088920542 -6.6501109 0.33285150)
  4 by 4 by 4 MPI processor grid
  restoring pair style lj/cut/tip4p/long/omp from restart
  restoring bond style harmonic/omp from restart
  restoring angle style harmonic/omp from restart
  1008 atoms
  672 bonds
  336 angles
Finding 1-2 1-3 1-4 neighbors ...
  special bond factors lj:    0        0        0       
  special bond factors coul:  0        0        0       
     2 = max # of 1-2 neighbors
     1 = max # of 1-3 neighbors
     1 = max # of 1-4 neighbors
     2 = max # of special neighbors
  special bonds CPU = 0.177 seconds
  read_restart CPU = 0.448 seconds

include 	in.setup
variable	out_freq equal 1000
variable	out_freq2 equal 10000
variable	out_freq3 equal 1000

timestep	2.0

neigh_modify    delay 7 every 1

include		in.tip4p
# This is TIP4P/Ice

# create groups ###
group ox type 2
336 atoms in group ox
group hy type 1
672 atoms in group hy

# set charges - beside manually ###
set group ox charge -1.1794
Setting atom values ...
  336 settings made for charge
set group hy charge 0.5897
Setting atom values ...
  672 settings made for charge

# ### TIP3P Potential Parameters ###
pair_style lj/cut/tip4p/long/omp 2 1 1 1 0.1577 8.5
pair_coeff 1 1*2 0.000 0.000
pair_coeff 2 2 0.21084 3.1668
bond_style  harmonic
bond_coeff  1 450 0.9572
angle_style harmonic
angle_coeff 1 55 104.52
kspace_style pppm/tip4p/omp 1.0e-5
pair_modify tail yes

thermo          ${out_freq}
thermo          1000
thermo_style    custom step temp pe etotal epair emol press lx ly lz vol pxx pyy pzz pxy pxz pyz enthalpy

restart 	${out_freq3} restart.lmp.${pid} restart2.lmp.${pid}
restart 	1000 restart.lmp.${pid} restart2.lmp.${pid}
restart 	1000 restart.lmp.0 restart2.lmp.${pid}
restart 	1000 restart.lmp.0 restart2.lmp.0


include         in.dump
dump            myDump all atom ${out_freq2} dump.water.${pid}
dump            myDump all atom 10000 dump.water.${pid}
dump            myDump all atom 10000 dump.water.0
dump            myDump2 all dcd ${out_freq2} dump.dcd
dump            myDump2 all dcd 10000 dump.dcd
dump_modify     myDump append yes
dump_modify     myDump2 append yes


variable natoms 	equal  "count(all)"                        # NUMBER ATOMS
variable H      	equal  "enthalpy/v_natoms"                 # ENTHALPY-per-atom
variable Vol      	equal  "vol/v_natoms"                 # volume-per-atom
fix AVG all 		ave/time ${out_freq} 1 ${out_freq} v_Vol v_H file vol_enthalpy.dat
fix AVG all 		ave/time 1000 1 ${out_freq} v_Vol v_H file vol_enthalpy.dat
fix AVG all 		ave/time 1000 1 1000 v_Vol v_H file vol_enthalpy.dat



fix 		1 all shake 1e-6 200 0 b 1 a 1
       0 = # of size 2 clusters
       0 = # of size 3 clusters
       0 = # of size 4 clusters
     336 = # of frozen angles
  find clusters CPU = 0.056 seconds
fix             2 all nph tri ${pressure} ${pressure} ${pressureDamp}
fix             2 all nph tri 5250 ${pressure} ${pressureDamp}
fix             2 all nph tri 5250 5250 ${pressureDamp}
fix             2 all nph tri 5250 5250 1000
fix             3 all temp/csvr ${temperature} ${temperature} ${tempDamp} ${seed}
fix             3 all temp/csvr 249.28 ${temperature} ${tempDamp} ${seed}
fix             3 all temp/csvr 249.28 249.28 ${tempDamp} ${seed}
fix             3 all temp/csvr 249.28 249.28 100 ${seed}
fix             3 all temp/csvr 249.28 249.28 100 745823


run             250000
PPPM initialization ...
  extracting TIP4P info from pair style
  using 12-bit tables for long-range coulomb (../kspace.cpp:340)
  G vector (1/distance) = 0.38262976
  grid = 24 30 36
  stencil order = 5
  estimated absolute RMS force accuracy = 0.0020144937
  estimated relative force accuracy = 6.066588e-06
  using double precision FFTW3
  3d grid and FFT values/proc = 4320 480
Last active /omp style is kspace_style pppm/tip4p/omp
Neighbor list info ...
  update every 1 steps, delay 7 steps, check yes
  max neighbors/atom: 2000, page size: 100000
  master list distance cutoff = 10.8154
  ghost atom cutoff = 10.8154
  binsize = 5.4077, bins = 5 5 4
  1 neighbor lists, perpetual/occasional/extra = 1 0 0
  (1) pair lj/cut/tip4p/long/omp, perpetual
      attributes: half, newton on, omp
      pair build: half/bin/newton/tri/omp
      stencil: half/bin/3d/tri
      bin: standard
Per MPI rank memory allocation (min/avg/max) = 9.351 | 9.359 | 9.366 Mbytes
Step Temp PotEng TotEng E_pair E_mol Press Lx Ly Lz Volume Pxx Pyy Pzz Pxy Pxz Pyz Enthalpy 
 7250000    246.94415   -4811.6442   -4317.7253   -4811.6442            0    5131.5708    18.058432    23.133417    19.379568    8095.8774    3604.6125    4889.7823    6900.3177   -1195.9462    76.443518   -681.19709   -3711.8404 
 7251000    244.16963   -4832.0077   -4343.6383   -4832.0077            0    5540.1452    18.027431    22.991603    19.338569    8015.4412     4981.871     5761.377    5877.1875   -761.00837   -279.55166   -8.1770422    -3696.012 
 7252000    246.87741   -4836.4169   -4342.6315   -4836.4169            0     3271.848    18.184742    22.805001    19.631553     8141.265    2566.5912    4711.9159    2537.0368    286.14815   -1058.5244      1234.87   -3954.1585 
 7253000    244.07322   -4838.2723   -4350.0958   -4838.2723            0    4339.9532    18.234906    22.820819    19.396679    8071.6465    2995.4403     5892.697    4131.7223    -170.7828    551.30521    1266.3709   -3839.2109 
 7254000    228.72462   -4843.2391   -4385.7616   -4843.2391            0    5035.0388    18.041182     22.91992    19.479554    8054.8434    4711.6533    4944.2771    5449.1861   -1658.4359    87.287593   -546.18839   -3794.2873 
 7255000    247.11688   -4840.9989   -4346.7346   -4840.9989            0    4422.7285    18.336884    22.961676     19.18257    8076.7365    4749.9909    3749.8043    4768.3904   -2268.8328    971.32529    815.99218   -3825.7773 
 7256000    253.50677    -4840.123   -4333.0781    -4840.123            0    6650.0358    18.045027    22.780532    19.494035    8013.5168    8046.0734     6415.728     5488.306    143.76942    340.04865    1123.9505   -3555.8956 
 7257000    250.44291   -4847.2588    -4346.342   -4847.2588            0    4810.9124    18.153581    22.951514    19.335899    8056.3439    3742.7407     5198.445    5491.5516    333.48405   -360.34333   -110.85206    -3781.091 
 7258000    251.51037   -4835.2276   -4332.1758   -4835.2276            0    5871.1017    18.218725    23.089181    19.113953    8040.3881    2433.4874    6139.6077    9040.2102    1878.4674    519.27869     881.4878   -3643.7256 
 7259000    248.30886   -4811.1807   -4314.5323   -4811.1807            0    4479.5171    18.097662    22.934164    19.515506    8100.0032    4739.6066    5268.0632    3430.8813   -770.55605    1108.9362   -1091.6413   -3785.3658 
 7260000    245.67562   -4825.6927   -4334.3112   -4825.6927            0    3975.3048    18.252374     23.11591    19.279168    8134.2712    2543.8302      3721.69    5660.3943     131.3939     1146.568   -2543.2928   -3862.7207 
 7261000    243.21685   -4831.1754   -4344.7117   -4831.1754            0    6147.0293    17.991809    22.912821    19.436708    8012.6487    7218.3352    5183.8049    6038.9478    -904.5327   -1513.5338    -1498.139   -3626.3928 
 7262000    267.30884   -4842.0752   -4307.4245   -4842.0752            0    6610.7369    18.130005    22.884341    19.347948    8027.3327    7606.6356    5949.8099    6275.7651   -355.60789    97.938353    -1711.923   -3533.5028 
 7263000    256.14329   -4811.6879   -4299.3697   -4811.6879            0    5984.7734    18.084776     22.92848    19.375416    8034.1408    5428.4152    5954.3962    6571.5088   -314.67609   -1178.1401   -901.37938   -3598.1356 
 7264000    253.67123    -4859.288   -4351.9142    -4859.288            0    5880.4569    18.040758    22.844873    19.520437    8045.1299    6686.0961    6099.4273    4855.8473   -224.70084    606.78549    682.71127   -3661.9603 
 7265000    244.31232   -4820.6721   -4332.0172   -4820.6721            0    5856.4791    18.247864    22.867398    19.311648    8058.3869    4922.0468    6199.4433    6447.9471    552.03599   -79.818158   -357.58628   -3643.7445 
 7266000    261.05502   -4861.0794   -4338.9371   -4861.0794            0    4783.7823    18.181141     22.90005    19.439374    8093.5646    4643.7029    5741.9711     3965.673    62.565447    625.00095    709.92961   -3774.2769 
 7267000    249.49685   -4843.3354   -4344.3108   -4843.3354            0    6770.4297     18.03009    22.884426     19.33959    7979.6748    6052.2332    7518.5752    6740.4807   -374.38293    872.97699   -2.8534855   -3556.3995 
 7268000    241.42063   -4851.0338   -4368.1627   -4851.0338            0     5035.322    18.030165     23.17038    19.277678    8053.5537    6797.2222    3833.5574    4475.1866    131.05779    1089.2556    -2867.655     -3776.75 
 7269000     242.4707   -4828.1614     -4343.19   -4828.1614            0    6480.4753    17.961594    22.979974    19.379183    7998.8926    7160.3401    6523.2302    5757.8557    1216.5542    511.77342   -492.36406    -3587.206 
 7270000    256.65769    -4862.971   -4349.6239    -4862.971            0    5042.9782    18.080004    23.087667    19.347697    8076.2145    4093.3942    5459.4084    5576.1319   -504.06476    912.82426   -1400.0294   -3755.6452 
 7271000    251.33469   -4866.8839   -4364.1835   -4866.8839            0    4573.6891    17.999053    23.117809    19.298951    8030.2678    3828.1704    4608.9607    5283.9361    633.22616   -449.93211    1055.6818    -3828.544 
 7272000    253.58221   -4842.1433   -4334.9475   -4842.1433            0    6720.2813    17.976993       22.821    19.591714    8037.5583    7317.0819     7409.153    5434.6089    143.42998    1099.8939     237.6328   -3547.1992 
 7273000    242.22576   -4860.2731   -4375.7916   -4860.2731            0    5785.4709    18.167952     22.81985    19.394787    8040.8838    5452.4459    5935.8167      5968.15    93.655639    279.77793    279.76105   -3697.3408 
 7274000    256.01405   -4810.9802   -4298.9204   -4810.9802            0    7362.6214    18.041662    22.620644    19.606418    8001.6542    6385.5918     8870.086    6832.1865    961.79886   -406.38084    1583.7091   -3439.7326 
 7275000    260.25332   -4841.8959   -4321.3571   -4841.8959            0    5328.2892    18.411664    22.643824    19.340083    8063.0834    4768.5863    5348.5657    5867.7156   -443.67748    517.54088   -1468.4734    -3694.794 
 7276000     264.0246   -4849.8528    -4321.771   -4849.8528            0    7707.4128    18.187604    22.704261    19.384842    8004.7012     6413.169    7625.9181    9083.1514    -303.1761    220.88167    994.76442   -3422.0048 
 7277000     259.3367   -4837.9943   -4319.2889   -4837.9943            0    3452.8407    18.108111    23.073289    19.456607     8129.237    2240.2314    3963.6722    4154.6186   -91.104197   -760.09508   -112.16668   -3909.9319 
 7278000    247.00199   -4848.8801   -4354.8456   -4848.8801            0    5155.9603    18.036505    23.109443    19.284479    8038.0329    3730.8758    5355.9871    6381.0181   -1210.2585   -664.24879   -1246.7768   -3750.4306 
 7279000    245.25862   -4829.4222   -4338.8747   -4829.4222            0    5417.3601    17.976909    23.183927    19.296552    8042.3274     4518.991    4745.0435    6988.0459    -84.14016   -998.82796   -1505.3537   -3703.4774 
 7280000    257.35909   -4833.2364   -4318.4864   -4833.2364            0    3814.0807    18.038916    23.134755     19.38592    8090.2464    5208.5554    3043.7262    3189.9607    33.737759   -403.40127    506.03708   -3868.4709 
 7281000    264.33062   -4847.0004   -4318.3065   -4847.0004            0    3572.6949    18.146259    23.115269    19.378232    8128.3092    4730.6534    2515.9219    3471.5094    238.87155    230.18476   -72.800166   -3894.7883 
 7282000    244.64175   -4819.4257   -4330.1119   -4819.4257            0     5483.712    17.995624    23.029249     19.42775     8051.359    5684.5512    5122.9559    5643.6289    1434.2108    959.00954   -895.53445     -3686.21 
 7283000    246.97469   -4833.2028   -4339.2229   -4833.2028            0    5920.8055    18.221254    22.840113    19.277169    8022.6854    3111.3722    6771.4112    7879.6331    312.35152    140.51373    547.40599    -3646.473 
 7284000    242.43737   -4857.5573   -4372.6526   -4857.5573            0    6478.2974    18.144722    22.725777    19.391118     7995.984    6067.4163    6895.5796    6471.8962    4.7247204    413.20701   -84.718585   -3617.1975 
 7285000    251.74715   -4876.0138   -4372.4884   -4876.0138            0    4803.1462    18.197347     22.46552    19.684493     8047.274    5019.5707    6084.5709     3305.297   -678.38204    26.743279   -1566.7023   -3808.7853 
 7286000    239.24627   -4849.3708   -4370.8488   -4849.3708            0    5938.7699    18.154266    22.814813    19.395176    8033.2139    5470.2326    5943.9286    6402.1484    880.94511    219.28619    1018.9095   -3675.0851 
 7287000    245.67184   -4822.4631   -4331.0891   -4822.4631            0    4744.7528     18.00868    23.010252    19.460369    8064.0708     5247.423    4919.9907    4066.8447    450.39331    122.34791    1040.7894   -3773.0767 
 7288000    247.12195   -4839.9297   -4345.6553   -4839.9297            0    3354.7031    18.124178    23.010429    19.374189    8079.9108    3473.2495     3282.671    3308.1888   -907.83376   -1137.8262    1201.7263   -3950.3464 
 7289000    246.12373   -4847.2842   -4355.0064   -4847.2842            0    5688.3221    17.978064    23.000069    19.453616     8044.006    5280.0427    5768.7901    6016.1334    1133.4251    949.60868   -520.85418    -3687.689 
 7290000    254.11311   -4844.4285   -4336.1709   -4844.4285            0    8123.4014    17.978555    23.017623    19.251291    7966.6387    9292.8225    7912.5612    7164.8206   -1335.8657    910.82386     -1384.21   -3392.3514 
 7291000    249.22192   -4841.5067   -4343.0321   -4841.5067            0    3623.9856    18.285572      23.0198    19.304112    8125.6837    3540.1921    2812.1028    4519.6619   -525.79041   -965.24572     2016.978   -3913.5725 
 7292000    245.19047   -4834.5136   -4344.1024   -4834.5136            0     5156.735    18.002103    22.563255     19.83694    8057.4883     5899.326    6089.7292    3481.1498   -485.94365    -1213.809   -224.18869   -3738.1334 
 7293000    259.97103   -4832.3216   -4312.3474   -4832.3216            0    6027.7297    18.158168    22.886659    19.324776    8030.9867    5297.5896    5298.3144     7487.285   -17.460472   -806.31101    1559.4757   -3606.3574 
 7294000    251.78624   -4880.9162   -4377.3126   -4880.9162            0    5010.3968    18.074668    22.787817    19.501704     8032.405    4594.6317     5593.091    4843.4676    491.00259    123.82675    1523.1016   -3790.3727 
 7295000    244.68295   -4865.9307   -4376.5345   -4865.9307            0    4390.1731     18.30917    22.880937     19.26876    8072.2802    2581.7028    4173.9268    6414.8898   -1759.4652    -815.4627   -1860.3182   -3859.6973 
 7296000     255.7077   -4877.7397   -4366.2928   -4877.7397            0    6404.7273    18.174458    22.694431    19.405832    8004.1098     6159.013    6804.6017    6250.5672    217.34793    332.91666   -120.52865   -3618.6578 
 7297000    258.97492   -4860.1121   -4342.1302   -4860.1121            0    6738.4764    18.232271    22.729902    19.375641    8029.6096    6966.1029    6913.2041    6336.1221    176.77224    339.03218   -896.33643   -3553.0303 
 7298000    246.11611   -4866.4757    -4374.213   -4866.4757            0    4493.2273    18.232402    22.782937    19.463585     8084.933     2865.926    6460.2955    4153.4603   -542.88474    1518.2258   -62.125953   -3844.4146 
 7299000     250.3004    -4826.134   -4325.5023    -4826.134            0     5815.978    18.144851    23.010843     19.33417    8072.5633    4881.9264    5762.2794    6803.7283   -1025.1442    217.62242   -1128.8412   -3640.7869 
 7300000    248.87947   -4866.4683   -4368.6786   -4866.4683            0    5353.2819    18.005748    22.849863    19.555932    8045.8749    6838.1386    6410.6604    2811.0468    679.96618    267.86923    351.61699     -3740.52 
 7301000    261.65665   -4807.3067    -4283.961   -4807.3067            0     4500.377    18.220318    23.028247    19.322603    8107.4161    2328.5334    5382.8821    5789.7156   -1369.1323    1109.0469   -713.91934   -3751.8439 
 7302000    249.02934   -4864.4214    -4366.332   -4864.4214            0    5278.4165    18.086888     22.88371    19.396732    8028.2122    6081.4468    4696.7374    5057.0652    657.34502    40.549818    2086.3565   -3748.3179 
 7303000    248.98348   -4875.6823   -4377.6846   -4875.6823            0    4996.9227    18.110519    22.721447    19.467548    8010.8413    4700.4519    5273.4124    5016.9037   -1319.8289    235.93503   -989.64647   -3793.8946 
 7304000    254.27174   -4821.2731   -4312.6982   -4821.2731            0    5833.5655    18.195164    22.873287    19.385703    8068.0042     3495.779     6582.538    7422.3795    238.61128    422.66727   -348.06836   -3626.3001 
 7305000    269.10122   -4869.1866   -4330.9509   -4869.1866            0     5079.679    18.014591    22.848538    19.583129    8060.5539    5693.3956    5383.8772    4161.7644    -449.1498    873.35735    347.31427   -3733.8097 
 7306000    261.32677   -4827.7424   -4305.0566   -4827.7424            0    4758.4975    18.080657    23.090334     19.32994    8070.0262    7105.3489    3023.5768    4146.5669   -765.58835    141.68095   -402.42166   -3745.0145 
 7307000    238.22694   -4860.8163    -4384.333   -4860.8163            0    5053.3048    18.040859    23.080204    19.332865    8049.9476    4787.7249    5164.8168    5207.3729    751.27992    672.76882   -65.632035   -3791.0738 
 7308000    252.08156   -4857.7961   -4353.6018   -4857.7961            0    4473.2427    18.031155    23.034822    19.396518    8056.2357    3604.4121    4290.2518    5525.0641    734.41054   -785.15344    1705.3518   -3828.0319 
 7309000     251.9132   -4849.6042   -4345.7466   -4849.6042            0    5160.2104    18.229102    22.979578    19.296166    8083.1073    6327.4939    3492.6645    5660.4728    666.66922   -585.31461    1674.7273   -3737.4413 
 7310000    254.04408   -4856.2859   -4348.1664   -4856.2859            0    7597.9101    18.023601    22.883995    19.383214    7994.6452    8487.1089    7425.5688    6881.0525    534.07773    659.56814   -839.33476    -3462.298 
 7311000    256.26704   -4838.6491   -4326.0834   -4838.6491            0    4920.0084     18.10552    22.971773    19.432882    8082.4446    4890.5468    5480.4493    4389.0291    730.49126    438.95483    305.40612   -3746.1415 
 7312000    257.17435   -4814.7762   -4300.3958   -4814.7762            0    3170.5791     18.16837    22.905943    19.454344    8096.1904    3309.4875    3422.9801    2779.2697    715.59767   -946.33624   -212.02957   -3926.0308 
 7313000    253.65055   -4830.4016   -4323.0692   -4830.4016            0    3054.3676     18.10554    22.889732    19.619048    8130.7407    2960.9937    3537.6123     2664.497   -906.77862    1274.4683   -24.945709   -3960.8868 
 7314000    245.74247    -4843.918   -4352.4027    -4843.918            0    6070.3125    18.292365    22.979805    19.184395    8064.2559    5819.2296    5405.8584    6985.8495     719.3363   -463.55795    1093.2687   -3638.4799 
 7315000    247.88528   -4871.6976   -4375.8964   -4871.6976            0    5579.9179    18.009234    22.946991    19.430189    8029.6758    7208.7377    4504.1847    5026.8313    -929.8292   -257.22003   -1602.2323   -3722.4624 
 7316000     260.2979   -4830.6574   -4310.0294   -4830.6574            0    6500.1095    18.129207    22.972304    19.304509    8039.7422    6962.4645    5688.3976    6849.4666    958.58651   -309.36888    1509.8608   -3547.8825 
 7317000    251.75829   -4863.2814   -4359.7337   -4863.2814            0    4816.1697    18.003293    23.035929    19.410576     8050.004    4950.1989    4471.6608    5026.6493   -353.26494   -1208.8606    175.45527   -3794.3103 
 7318000    254.52078   -4858.4529   -4349.3799   -4858.4529            0    5020.9702    17.978874    22.989732    19.477898    8050.7901    5875.7052    5309.4109    3877.7945   -584.85074    60.789989    -227.8959   -3759.8552 
 7319000     245.1779   -4874.5593   -4384.1732   -4874.5593            0    6208.5194    18.123249    22.843634    19.339234    8006.4598    6636.3601    5639.3616    6349.8365   -340.58916   -223.46802    46.045045   -3659.2292 
 7320000    254.33577   -4844.9018   -4336.1989   -4844.9018            0    5317.4017     18.18074    22.913907    19.362245    8066.1524    5549.9744    4338.8288    6063.4018   -1173.3951    -192.5855    418.09373    -3710.678 
 7321000    249.95823   -4836.8492   -4336.9019   -4836.8492            0    7481.5161     18.01575    22.872235    19.348019    7972.5535    5534.4697    9193.4958    7716.5827    251.95187    940.32348    2659.0372   -3467.0147 
 7322000    259.93399    -4814.201   -4294.3009    -4814.201            0    3653.8916    18.258972    23.023233    19.341379    8130.7397    4000.4597    3608.4415    3352.7737   -996.74751    -173.5896    1215.3153   -3861.0279 
 7323000    242.74553   -4870.5385   -4385.0174   -4870.5385            0    4541.9918    18.049709    22.853544     19.52555    8054.2862      4500.16     6276.707    2849.1083    1044.1511     606.0188   -676.57115   -3851.4992 
 7324000    236.62943   -4862.8244   -4389.5363   -4862.8244            0    2802.3146     18.17838    22.870329    19.492597    8103.9605    3982.1157    2819.8449    1604.9834    197.90561    -622.3918   -112.88683   -4058.3365 
 7325000    243.75214   -4848.0905   -4360.5561   -4848.0905            0    6099.6216    18.183838    22.786297    19.406499     8040.934    4934.6272     6151.092    7213.1455   -715.93539    1071.6031    1083.2835   -3645.2609 
 7326000    262.29865   -4864.7334   -4340.1037   -4864.7334            0    4238.4553    18.069517    22.886414    19.561507    8089.5919     6399.152    3596.4009    2719.8131    96.000575   -522.59777    1032.4804   -3840.0575 
 7327000    241.19555   -4868.9096   -4386.4887   -4868.9096            0    6528.0664     18.19689    22.816829    19.296388    8011.7703    4908.8517    7435.7231    7239.6244   -1976.5023    1563.4117    74.805415   -3623.7269 
 7328000    266.69941   -4828.9233   -4295.4915   -4828.9233            0    6016.8018    18.125118    22.916454     19.38734    8052.7921    5202.5681    6989.0966    5858.7408     636.7332    832.75019    458.91675    -3588.868 
 7329000    250.61251   -4862.0315   -4360.7755   -4862.0315            0    4625.4363    18.004603    23.056247    19.434673    8067.6937    5520.2138     4239.433    4116.6622   -163.71234    297.33543    61.102188   -3816.5511 
 7330000    258.07351   -4839.7358   -4323.5569   -4839.7358            0      4495.69    18.141793    23.146829    19.264124    8089.4871    4828.9294    3925.3651    4732.7756   -136.17956   -322.00279    776.06518   -3793.1694 
 7331000     253.8107   -4845.4086   -4337.7559   -4845.4086            0    3887.8923    17.858677    23.051485    19.634952    8083.1014    6648.0991    2742.6539    2272.9239   -1161.8907   -597.20263     2354.332   -3879.4366 
 7332000    239.52507   -4844.0879   -4365.0081   -4844.0879            0    7066.6016     18.26893    22.938989    19.028503    7974.2897    6857.7853    7232.1674    7109.8522   -306.58814    1004.7749    668.00283   -3543.1847 
 7333000    259.57694   -4845.4236   -4326.2377   -4845.4236            0    5930.5178    18.065125    23.041173    19.307331    8036.5157    7517.1193    5046.0011    5228.4329    41.457536    -329.1527    963.28148   -3631.1553 
 7334000    252.01982   -4815.2244   -4311.1536   -4815.2244            0    4874.2479    17.975393    22.879302    19.664028    8087.1156    4574.7834    5496.4101    4551.5503    932.38795   -608.57331   -321.76909   -3736.2737 
 7335000    240.77806   -4834.7661   -4353.1803   -4834.7661            0    6073.2736    18.254141    22.658849    19.404179    8025.9142    6704.6069    5299.3377    6215.8762   -1420.1629   -500.32296    956.34241   -3642.3052 
 7336000     236.3973   -4829.2359   -4356.4121   -4829.2359            0    4622.3527    18.242463    22.755515    19.465545    8080.4715    4542.1261    5228.7511    4096.1811   -65.638597    1489.5671    2165.8311   -3811.6892 
 7337000    244.11083   -4854.3649   -4366.1131   -4854.3649            0    5087.7957    18.116526    22.886855    19.396545    8042.3952    6254.5033    5718.9641    3289.9196   -18.275353    720.19484   -1790.6529   -3769.3651 
 7338000    249.17748   -4844.7444   -4346.3587   -4844.7444            0    4384.5918    18.178316    23.007617    19.297915    8071.1543    6438.1563    2838.3976    3877.2215   -237.15668    222.78143    1091.3493   -3830.2505 
 7339000    237.74582   -4867.8343   -4392.3133   -4867.8343            0    5104.6103    18.005158    23.043305    19.387502    8043.8426    5914.4808    4853.4263     4545.924     29.67872    -229.3887   -279.72023   -3793.4853 
 7340000    248.07224   -4849.2479   -4353.0728   -4849.2479            0    8054.8989    18.116612    22.919031    19.171879    7960.4556     6820.709    7838.7664    9505.2214   -165.74793   -407.47542    -1440.538   -3417.9387 
 7341000     240.6932   -4849.7235   -4368.3074   -4849.7235            0    3910.9318    18.002095    23.035431     19.55174    8107.8334    5071.6669    2945.2749    3715.8537    100.91235   -28.674206   -220.84605   -3905.8615 
 7342000    249.25418   -4849.9415   -4351.4024   -4849.9415            0     4666.836    18.118519    22.922717    19.331593    8028.9071    4090.5859    5198.6384    4711.2837    1147.7607   -625.08877    221.01309   -3804.9468 
 7343000    255.81697   -4838.4502   -4326.7846   -4838.4502            0     4945.156    18.094943    23.061713    19.358083    8078.1356    3498.2003    4970.8116    6366.4562    778.31749    496.52751    50.852324   -3744.1892 
 7344000    239.39132   -4825.6119   -4346.7997   -4825.6119            0    5414.0762    18.076739    22.986055    19.397103    8059.7471    3734.6205    6161.8322     6345.776    488.54035    704.66517    639.28134   -3710.4121 
 7345000    237.53034    -4866.074   -4390.9839    -4866.074            0    4023.7622    18.158349    22.904307    19.379238    8059.9105    4986.9219    3681.6722    3402.6926    1746.0195   -507.92955    1193.3897   -3918.0087 
 7346000    250.75757   -4838.4488   -4336.9027   -4838.4488            0    5695.0335    18.120725    22.521249    19.676599     8030.047    4872.7891    7720.3588    4491.9526    393.79423    536.73284    35.379846   -3669.9573 
 7347000    243.33405    -4836.404   -4349.7058    -4836.404            0    5695.1281    18.259131    22.667876    19.394294    8027.2153    4453.8736    6341.3801    6290.1307   -934.91817   -1076.5496   -1867.4615   -3682.9846 
 7348000    249.97339   -4850.5132   -4350.5356   -4850.5132            0    5242.7002    17.957404     22.81097    19.638244    8044.3312    5903.3113    5389.9145    4434.8747    320.88103    724.48251    64.407765   -3735.4708 
 7349000    250.60602   -4852.5357   -4351.2927   -4852.5357            0    5488.9145    18.094864    22.926585    19.301644    8007.3533    6458.3004    4859.3624    5149.0807   -857.59635   -597.98933   -54.225146   -3710.3025 
 7350000    240.18684   -4823.2315   -4342.8281   -4823.2315            0    6250.7094    17.965191    23.178166    19.225599    8005.5429    7679.2998    4288.8331    6783.9953    733.23787     328.5148   -563.83257   -3613.0414 
 7351000    245.57088   -4880.1648   -4388.9927   -4880.1648            0    3190.4043    18.049976    23.174838    19.365458    8100.6731    2583.6867    3030.0765    3957.4498     -1043.67   -10.862115    86.279167   -4012.0783 
 7352000    249.39417   -4849.3319   -4350.5127   -4849.3319            0    4373.4353    18.120549    23.112187    19.250334    8062.1459    4887.3058    3198.6837    5034.3165    424.43497   -3.8714124    544.69914   -3836.2924 
 7353000    259.89938   -4845.8538   -4326.0229   -4845.8538            0    5943.8731    17.868039     23.02181    19.497913    8020.5564    7499.5678    5620.4302    4711.6214    799.79483     747.7979    1940.6418   -3630.7586 
 7354000    247.64414   -4830.6315   -4335.3126   -4830.6315            0    5739.5463     18.19388    22.783751    19.367983    8028.5097    4219.0278    6286.6156    6712.9954   -395.96112    707.19275   -428.92391    -3663.283 
 7355000    263.70167   -4821.0575   -4293.6216   -4821.0575            0    5117.1159    18.149717    22.681322     19.61054    8072.8665    5202.3523     5721.304    4427.6914    -270.5154    682.58923    2167.6553   -3691.1606 
 7356000    243.04395   -4863.9284   -4377.8105   -4863.9284            0    3572.4209     18.23336    22.870716     19.40791    8093.2921    2801.7073    3425.8583    4489.6971    530.76091   -174.51326    -292.4573   -3956.1492 
 7357000    251.74584   -4843.6882   -4340.1654   -4843.6882            0    5360.8659    18.104357    22.887089     19.42944    8050.7059     5296.098    5935.8839    4850.6157   -499.16006    639.25324   -33.631789   -3710.7392 
 7358000    245.16202   -4815.2363    -4324.882   -4815.2363            0    6105.5005    17.941492     23.19554    19.339864     8048.528    6838.3515    5601.7012    5876.4488    1113.7226   -759.26082    368.21461   -3608.2213 
 7359000    248.66644   -4852.3358   -4354.9722   -4852.3358            0    6778.2726    17.952323    22.990405    19.358234    7989.7466    6740.0466    6260.9687    7333.8024    550.82957   -239.06588    949.54483   -3565.1525 
 7360000    248.12449   -4819.0216   -4322.7419   -4819.0216            0    5317.5253    18.102791     23.07685     19.35392    8085.2043     3825.462    6250.1831    5876.9308   -604.05395    629.35942    113.77056   -3695.7291 
 7361000    258.21272   -4828.9086   -4312.4513   -4828.9086            0    4954.6438    18.126563    23.036821    19.415652    8107.5565    4830.1916    4707.4674    5326.2724   -540.85051    612.12818   -312.39406   -3726.6123 
 7362000    252.92337   -4850.5059   -4344.6279   -4850.5059            0    4771.7911    18.220102    22.880391    19.371284    8075.5606    2460.7145     5879.723    5974.9358   -1067.0953    1022.4039   -1159.5952   -3782.6361 
 7363000     247.1359   -4849.9801   -4355.6778   -4849.9801            0    6095.3242    18.155213    22.733167    19.308095    7968.9429    5023.9796    6618.7153    6643.2778   -597.30347    -1294.358   -758.68746   -3647.2862 
 7364000    248.88117   -4827.0954   -4329.3023   -4827.0954            0    5243.3665    17.987622    22.894677    19.602142    8072.5698    6118.0948    5312.1676     4299.837   -275.59445   -1152.1975   -950.34983        -3712 
 7365000    236.77614   -4816.7689   -4343.1874   -4816.7689            0     5290.719    18.203055    22.906547    19.342143    8065.0765    3215.2751    5356.6196    7300.2622    1246.6382   -186.87823    3888.8458   -3720.8884 
 7366000    242.84688   -4852.8249   -4367.1011   -4852.8249            0    5078.2339    18.066922    22.918943    19.371757    8021.3555    3968.5027    5390.6473    5875.5518   -1092.4888    266.31051   -102.18208   -3773.0329 
 7367000    241.27352   -4864.3578    -4381.781   -4864.3578            0    5634.9149    17.987267    22.984368    19.419641     8028.584     5951.162    5826.6243    5126.9583    54.718726   -272.96893    1786.3729   -3721.9963 
 7368000    240.66366   -4853.3917   -4372.0347   -4853.3917            0    6084.3684    18.102606    22.855813    19.354111    8007.7593    5768.9721    6696.6633    5787.4698   -961.50929    864.93475    1001.0913    -3661.472 
 7369000    244.16592   -4859.2241   -4370.8621   -4859.2241            0    4002.8031    18.237057    22.880099    19.311543     8058.044    2613.1932    5170.1166    4225.0996   -1121.8797    687.11289     51.97446   -3900.4595 
 7370000    244.70332   -4846.3511   -4356.9143   -4846.3511            0    5323.8244    18.037675    23.012159    19.443793     8070.843     7082.304    3743.2961     5145.873    926.13759    50.553248    864.96566   -3730.2737 
 7371000    234.99215   -4835.4517   -4365.4384   -4835.4517            0    6692.2745    17.892251    23.171328    19.294594    7999.2918    7973.4778    5713.1477     6390.198   -291.59969    980.31215   -452.14826   -3584.7078 
 7372000    258.16208   -4834.2339   -4317.8779   -4834.2339            0    3962.6438    17.961323    23.313536    19.370479    8111.2321     6058.873    2459.6947    3369.3637   -634.36914   -1465.3584     298.0167   -3849.1209 
 7373000    244.22774   -4843.6726   -4355.1869   -4843.6726            0    6045.9242    18.013047    23.006383    19.325273     8008.684    5476.3287    6151.7388    6509.7052   -251.52797   -900.86259    1387.5444   -3649.0324 
 7374000    247.61308   -4822.6491   -4327.3924   -4822.6491            0    6234.5429    17.860876    23.135174    19.364335    8001.6233    6927.1247    4565.7657    7210.7383    961.16221   -323.10067   -211.24512   -3599.8495 
 7375000     260.3806   -4831.8524   -4311.0591   -4831.8524            0    5733.8541     18.26042    22.966797    19.201894    8052.9547    5203.2789    5382.8681    6615.4154    2294.6189   -78.944638   -1071.3108   -3637.6518 
 7376000    249.48357   -4862.9594   -4363.9614   -4862.9594            0    6260.8292    17.959774    22.872472    19.498337    8009.6132    6387.6446    7123.1029    5271.7402   -182.56228    293.06495    369.91086   -3632.6215 
 7377000    250.10559   -4860.6054   -4360.3633   -4860.6054            0    6269.0033    18.153455    22.830074    19.396181    8038.6446     5479.108    7697.9895    5629.9125    1028.1454    1560.0817   -1751.4264   -3625.4143 
 7378000    250.96243   -4868.4115   -4366.4556   -4868.4115            0    5250.5633    18.250695    22.685176    19.430904     8044.787    4953.0332    5033.5028    5765.1539   -167.26724   -990.40926   -1232.1424   -3750.4335 
 7379000    264.10072   -4838.3023   -4310.0683   -4838.3023            0     3098.316    18.248255    22.766952    19.574462    8132.3502    3030.0581    2814.8908    3449.9991     416.2092     978.6248    140.32776   -3942.6018 
 7380000    241.46246   -4864.2593   -4381.3046   -4864.2593            0    4189.3977    18.270319    22.556493    19.606031    8079.9263    2701.5365    5172.9294    4693.7273    433.59573    658.32696   -331.71722   -3887.6367 
 7381000     240.8983   -4863.9775   -4382.1511   -4863.9775            0    6143.6955    18.018194    22.864281    19.391302    7988.6939    4502.4099     6256.733    7671.9436    668.78542   -1211.5958    938.71165   -3666.3681 
 7382000    261.83672   -4844.1693   -4320.4635   -4844.1693            0    3707.4195     18.11161    23.069952    19.409775    8110.0635    3531.2308     3569.708    4021.3196    -280.5279    -796.9473   -738.55668   -3881.9612 
 7383000    248.69123   -4825.0074   -4327.5942   -4825.0074            0    4345.4072    18.033446    23.021907    19.440971    8071.1977    4684.7412    5168.9848    3182.4956    439.29166    68.251657       2526.2   -3816.0957 
 7384000    242.90818   -4865.4025   -4379.5562   -4865.4025            0    3641.7314    18.053381     23.22598    19.254314    8073.4775    2982.3269    2984.1901    4958.6771    -1930.106   -1440.9792   -2740.6793   -3950.7664 
 7385000    247.20443   -4858.4993   -4364.0599   -4858.4993            0    5828.6522    18.137042    22.975902    19.301985    8043.4247    6664.7515    4579.8753    6241.3297    1172.4354    155.84904    1624.7574   -3680.3293 
 7386000    242.48589   -4805.2424   -4320.2407   -4805.2424            0    6337.6364    18.102342    22.924287    19.378349    8041.6905    6550.9693    5667.3757    6794.5641   -876.56977    840.55645   -195.85565   -3576.9639 
 7387000    251.27709   -4852.2839   -4349.6987   -4852.2839            0    5899.2914    18.293082     22.68721    19.398064    8050.5649    5402.6554    6633.5875    5661.6312    395.09899   -287.71994    1718.6609   -3657.0675 
 7388000    242.95307   -4837.0313   -4351.0952   -4837.0313            0    5636.9517    18.241244    22.568744    19.534581    8042.0346    4122.4914    7968.5759    4819.7879   -1627.1181   -788.68778   -1582.1802   -3689.9663 
 7389000    234.90883    -4846.766   -4376.9194    -4846.766            0    7434.0447     18.15881    22.571964    19.472786    7981.5057    7911.2681    8365.0116    6025.8544   -925.59444    151.52514   -610.37055   -3511.5812 
 7390000    254.12308    -4835.652   -4327.3745    -4835.652            0     5146.068    18.149539    22.834317    19.488505    8076.6665    4353.6051    5450.6673    5633.9316    999.39622    742.59186    392.26455   -3721.2196 
 7391000    242.42473    -4840.598   -4355.7186    -4840.598            0    6556.3587    18.084143    22.826899    19.416121    8015.0701    8640.3681    4678.4974    6350.2105   -825.95627    271.48462    1289.0499   -3589.3355 
 7392000    253.85844   -4850.5176   -4342.7694   -4850.5176            0    3910.9227    18.048299    23.061785    19.375803    8064.7131    3929.3451    3974.2293    3829.1938   -212.81522    182.96576   -799.55453    -3882.784 
 7393000    245.77758   -4859.9012   -4368.3157   -4859.9012            0    3293.2822    18.003423    23.097075    19.495531    8106.7564    4608.9098    3291.5858    1979.3511   -869.40655   -875.44192   -2905.1259   -3978.9551 
 7394000     252.8077   -4849.3836    -4343.737   -4849.3836            0    6099.0735    17.954809       23.231    19.172004    7996.7993    7712.9751    4643.7272    5940.5182    705.22462   -740.28679   -606.32739   -3632.4319 
 7395000    252.59405   -4852.8333    -4347.614   -4852.8333            0    3910.2245    17.968274     23.15665    19.388065    8067.0837    4799.5311    3018.0943    3913.0483    501.09723   -899.61831   -147.89172   -3887.5755 
 7396000    254.38097   -4869.5423    -4360.749   -4869.5423            0    4769.0427    18.059855    22.993539    19.361517     8040.063    4441.6495    4683.6652    5181.8136   -30.815205    194.70562   -1151.6079   -3801.5497 
 7397000    248.62656   -4876.5722   -4379.2883   -4876.5722            0    5659.5416    18.245176    22.786212    19.214944    7988.3905    3844.4898    6698.6865    6435.4484    51.363584    988.48158    254.53851   -3719.9377 
 7398000     254.7331   -4861.7138   -4352.2161   -4861.7138            0    7336.9397    17.957982    22.816032    19.496085    7988.1292    7679.5027    7117.9339    7213.3826   -365.71199    579.47896     943.5819   -3497.4724 
 7399000    255.08886   -4832.8337   -4322.6245   -4832.8337            0    3241.5305    18.302964    22.948534    19.397591    8147.4961    3499.2188    2370.9757     3854.397   -255.75303    343.14417   -986.64833   -3937.4565 
 7400000    242.64278   -4848.7282   -4363.4127   -4848.7282            0    5261.0252    17.883689    22.910554     19.51511    7995.8329    6371.8811    5638.8145      3772.38   -812.79356     1156.609     -621.818   -3749.9192 
 7401000    263.52976   -4821.8652   -4294.7732   -4821.8652            0    6070.7899     18.08118    22.996962    19.315342    8031.5548    6348.4949    6030.5645    5833.3103   -996.90617    478.22632    240.27714   -3583.6895 
 7402000    248.98251   -4840.3224   -4342.3266   -4840.3224            0     5567.137     17.93647    23.028058    19.408442    8016.5032    6085.6337    5225.9608    5389.8165   -349.31001    174.23937   -571.73402   -3691.4588 
 7403000     263.8075   -4866.9595   -4339.3119   -4866.9595            0     4916.719    18.002648    23.021476    19.408857     8043.953     5781.232    4123.8308     4845.094   -227.97307   -313.85529    235.64544   -3762.5178 
 7404000    252.28072   -4856.4323   -4351.8397   -4856.4323            0    5646.2264     18.05962    22.946003    19.285843    7991.9781    6977.5503     5477.439      4483.69   -1054.6979    188.20943    579.35386   -3693.7449 
 7405000    249.42695   -4862.6413   -4363.7566   -4862.6413            0    4921.8022    17.865926    23.117907    19.514464    8059.9188    7087.5749    4321.4247    3356.4071    330.72262   -27.255681    1478.1542   -3785.2201 
 7406000    236.05935   -4849.5926   -4377.4447   -4849.5926            0    5199.0743    18.236501    23.123942    19.142235    8072.2764    5099.5543    4350.8579    6146.8108   -926.25741     -516.455   -406.89905   -3765.3791 
 7407000     244.3863   -4841.4107    -4352.608   -4841.4107            0    4616.1369     17.88088    23.152988    19.461769    8057.0906    4597.9591    4539.4823    4710.9693    1503.3857   -1180.6158    774.32157   -3810.1915 
 7408000    247.61585   -4869.8966   -4374.6343   -4869.8966            0    6326.1829    18.072413     23.00634    19.271763    8012.8148    3639.9569    6990.1919    8348.4001    113.19881     275.2411   -2089.8718   -3635.3649 
 7409000    247.22712   -4866.2111   -4371.7264   -4866.2111            0    4511.3486    18.197503    22.810002    19.440443    8069.4376    3823.9589    4644.0637    5066.0232     1505.408    -744.0578    2155.2421   -3840.8107 
 7410000    250.76963    -4841.867   -4340.2968    -4841.867            0    3888.5688    18.159133    22.791674    19.503529    8072.0627    3539.7175    3493.6587    4632.3303    1083.6143   -865.43873    106.44038   -3882.5237 
 7411000    240.18367   -4849.3144   -4368.9174   -4849.3144            0    4225.1432    18.390359    22.775198    19.309965    8087.8642    3351.5353    3839.5494    5484.3447    1629.9059    6.3085594   -858.58118   -3870.5483 
 7412000     242.9386    -4826.736   -4340.8287    -4826.736            0    4901.6917    18.015342    22.919031    19.521181    8060.1817    3738.3277     5017.749    5948.9986    497.35047     326.1512    1442.8755   -3764.6374 
 7413000     248.9477   -4847.7835   -4349.8573   -4847.7835            0    5988.4305    17.872445    23.207037    19.287911    7999.9793    6497.8763    5144.8014    6322.6137   -474.87069    451.69388     113.8833   -3651.1782 
 7414000    251.60024    -4867.553   -4364.3215    -4867.553            0    5880.0144     17.96647    23.258524    19.158231    8005.7185    6367.2597    4498.6858    6774.0976    -931.0906    115.81785   -1683.1176   -3677.7993 
 7415000     257.6212    -4869.419   -4354.1448    -4869.419            0    5735.0591     17.95927    23.046546    19.383501    8022.8143    6871.1202    5369.8678    4964.1895    941.20379   -404.77573    1879.2788    -3683.117 
 7416000    254.77223   -4820.3484   -4310.7725   -4820.3484            0    3764.3564    18.119399    23.097994    19.408258    8122.7785     4375.438    3336.4098    3581.2213   -838.12586    188.65949    -854.6628   -3864.8378 
 7417000    239.81266   -4844.7344   -4365.0794   -4844.7344            0    4589.6219    18.196542    22.805924    19.459461    8075.4611    5245.8023    4129.0655     4393.998   -367.52398   -383.55845    1232.7187    -3824.549 
 7418000    244.10402   -4814.9553   -4326.7171   -4814.9553            0    6360.4217    18.233845     22.92949    19.168791    8014.3325    5017.3465    5917.4023    8146.5162       183.04    636.69352   -154.83777   -3583.3058 
 7419000    255.26733   -4825.5206   -4314.9544   -4825.5206            0    4715.4901    18.102647    22.808189    19.669732    8121.4077    6681.5802    5214.1925    2250.6976     1309.679    1290.7257    1851.8496   -3756.4404 
 7420000    246.07294   -4835.3009   -4343.1246   -4835.3009            0     4580.575    18.408211    22.772332     19.30054    8090.7456    5599.3514    4107.3786     4034.995   -1115.8916   -884.51545   -849.66884   -3802.6387 
 7421000    246.77388   -4834.8078   -4341.2295   -4834.8078            0    3498.3104    18.003875    22.875155    19.576862     8062.563    5834.7644     2526.777    2133.3897    111.31373    -325.0211    1381.1007   -3929.8835 
 7422000    243.31622    -4850.173   -4363.5105    -4850.173            0    6534.3351    18.023712    23.196592    19.106442    7988.1872    6650.5892    5866.2674    7086.1486   -1447.7433   -688.29867    633.26735   -3602.2636 
 7423000    242.44662   -4864.4411   -4379.5179   -4864.4411            0    4294.7695    18.022374    23.038978    19.516294    8103.4988    4213.7263    4527.7948    4142.7875   -36.548632    81.979783    345.24531   -3871.9569 
 7424000     242.1558   -4845.5267   -4361.1852   -4845.5267            0    2699.6175    18.294743    23.190381    19.209345    8149.7959    1950.2675    1390.5798    4758.0052    359.92358    200.44366    232.06848   -4040.3184 
 7425000    236.02229   -4834.8711   -4362.7973   -4834.8711            0    5269.2018    17.967034    23.136096    19.302778    8023.9147    5678.4261    5070.0531     5059.126   -479.99586    523.98892   -496.87355   -3746.1924 
 7426000    250.04681   -4856.5256   -4356.4011   -4856.5256            0    6181.8159    17.995905    23.214251    19.181165    8013.1518    5983.2752    5721.7752    6840.3973    459.06905    360.82731    2636.9063   -3633.9719 
 7427000    251.59628   -4831.8528   -4328.6291   -4831.8528            0    5653.2761    17.928927     23.25956    19.310213     8052.725    6424.7407    4946.0185    5589.0691   -280.01617    975.30559    86.604704   -3664.7042 
 7428000    249.15976   -4836.8166   -4338.4663   -4836.8166            0    3873.5905    18.226324    22.992651     19.32659    8099.2231    1387.4451    4555.9229    5677.4036    166.06525   -543.59937   -642.93468   -3880.9222 
 7429000    248.74945   -4836.0735   -4338.5439   -4836.0735            0    4287.1621    18.096373    22.795446    19.625686    8095.8874    5800.2398    3763.1008    3298.1456    -340.9032    -693.5606   -1405.4972   -3832.3578 
 7430000     252.1318   -4845.5638   -4341.2691   -4845.5638            0    4299.0754    18.221901    22.777445    19.458661    8076.2848    3667.3876    5141.8846    4087.9539    620.78527    81.673361    768.50089   -3834.9054 
 7431000    244.94071   -4850.0296   -4360.1179   -4850.0296            0    5161.6737    18.114383    22.942616    19.362598    8046.9282    5697.1378    4640.0875    5147.7959    342.43516   -173.14371   -1364.0986   -3754.3635 
 7432000    253.56433   -4847.1967   -4340.0367   -4847.1967            0    5921.2926    18.003227    23.070637    19.354554    8038.8351    6071.8971    6130.8427     5561.138    1400.5784     311.4628   -101.56405   -3645.8352 
 7433000    248.95596   -4868.5773   -4370.6346   -4868.5773            0    6208.3234     17.97878    23.144058    19.252127    8010.8475    8077.6295    5312.5392    5234.8016    1499.3894     233.1605    561.67847   -3645.3162 
 7434000     244.9257   -4870.8912   -4381.0095   -4870.8912            0    4083.6066    18.020848    23.101969    19.411289    8081.2511    3734.4456    3701.9119    4814.4625    1637.6617   -712.67294    910.83483   -3899.7289 
 7435000     274.3629   -4869.7802   -4321.0205   -4869.7802            0    7890.7093    18.122279    22.748324    19.383341    7990.8107    9646.8093    7214.1589    6811.1596   -847.76303     665.6586   -76.929961   -3401.4547 
 7436000    257.88291    -4846.792   -4330.9943    -4846.792            0    4895.0032    18.120059    22.837921    19.438607    8044.1713    5922.5156    4775.3996    3987.0944    281.46117   -421.30516    1225.3672   -3756.7322 
 7437000    249.51036   -4861.3474   -4362.2959   -4861.3474            0    4294.3167    18.011115    22.903324    19.633642    8099.1605    5781.7636    4618.3405    2482.8461   -38.949286    752.33829    91.196383     -3855.06 
 7438000    251.62687    -4832.245   -4328.9601    -4832.245            0    5018.2643    18.251508    22.813273    19.374023    8066.8906    5279.9583    4740.6408    5034.1937   -539.26434   -413.08144    1048.9164   -3738.5748 
 7439000    236.57336   -4861.7181   -4388.5422   -4861.7181            0    4151.1439    18.171734    22.858733     19.46963    8087.3496    2954.2544    5200.1791    4298.9984   -2550.2714    582.60398   -1120.2373   -3898.9326 
 7440000    262.00601   -4821.0604    -4297.016   -4821.0604            0    7822.5812    18.021434    22.727317    19.429446    7957.8903    7371.3191    8918.1657    7178.2589    878.95042   -208.05092    958.35371   -3389.1455 
 7441000    250.53998   -4836.7169    -4335.606   -4836.7169            0    3317.1631    18.356246    22.868772    19.319618     8110.082    2841.5905     3639.987    3469.9119   -614.94421    263.27986   -1058.3036   -3943.2612 
 7442000    255.88868   -4855.4929   -4343.6839   -4855.4929            0    4992.6777    18.048912    22.884378     19.53535    8068.8446    6757.3013    4073.8732    4146.8587    -248.4201   -495.30128    1653.1411   -3756.1665 
 7443000    247.04205     -4846.83   -4352.7153     -4846.83            0    5004.0359    18.099995    23.030387    19.303738    8046.7609    4254.7611      3756.96    7000.3867    -1304.811   -903.61878   -28.078877   -3765.4729 
 7444000    250.41397   -4836.1395   -4335.2806   -4836.1395            0    5801.6188    17.858878    23.107672    19.462875    8031.8824    6331.5661    6162.8159    4910.4745   -142.73098     211.7018   -879.43831   -3655.6977 
 7445000    257.04805   -4863.3253   -4349.1974   -4863.3253            0    3992.7628    18.038414    23.062122    19.420215    8078.8893    4116.8546    3651.0445    4210.3892   -128.69018   -987.32387    37.555856   -3878.7609 
 7446000     250.8193   -4858.8801   -4357.2105   -4858.8801            0    5102.4942    18.129151    23.026284    19.317206    8063.9095    5103.9062    3808.1722    6395.4042   -423.19316   -1256.2162    2369.8267   -3757.1375 
 7447000    251.65389   -4856.7489     -4353.41   -4856.7489            0    3773.7436    17.914049    23.077965    19.525466    8072.2142     5688.826    2522.0419     3110.363   -74.722251   -492.00731   -960.94823   -3909.1462 
 7448000    248.56578   -4839.6242   -4342.4619   -4839.6242            0    4804.4727    18.143998     22.98881    19.376979    8082.3112     3975.281    4444.9135    5993.2235    370.59958   -267.56767    705.54426    -3776.148 
 7449000    254.26326   -4838.9331   -4330.3752   -4838.9331            0    4165.3984    18.174166    22.828952    19.496841     8089.184    3554.5155    4669.9815    4271.6982   -925.76096   -449.27695    794.05853   -3838.9729 
 7450000    242.86156   -4834.7407   -4348.9876   -4834.7407            0    5683.7359    18.294176    22.474184    19.494875    8015.2533    4600.3754    6400.0877    6050.7447    608.45985   -130.53509    2333.7006   -3684.5915 
 7451000    245.15641   -4838.2659   -4347.9228   -4838.2659            0    5909.2753    18.129481    22.868968    19.384062    8036.6814    3466.4931     6909.929    7351.4038   -1035.3547   -42.798045   -1001.6576   -3655.3159 
 7452000    248.01188   -4849.2533   -4353.1989   -4849.2533            0    6184.3341    17.969803    23.055741    19.413966    8043.3442    6194.2498    5806.1811    6552.5715   -1301.2723    454.63758   -348.84328   -3627.7522 
 7453000    240.62976   -4862.2266   -4380.9374   -4862.2266            0    5721.1966    18.015093    23.203168    19.185362      8019.62    6235.0438    4325.6622     6602.884   -18.400608    1136.9489    572.31003   -3711.7981 
 7454000    236.17033   -4859.7654   -4387.3956   -4859.7654            0    5517.3253    18.044172    23.059719    19.305436    8032.8672    5746.8294     4985.907    5819.2396   -234.32394     316.7891   -576.67724   -3741.0347 
 7455000    239.87112   -4857.6958    -4377.924   -4857.6958            0    6464.2933     17.99287    23.289464    19.126801    8014.9767    5815.5433    6068.0857    7509.2509   -1791.8058    171.36974   -129.71667   -3622.3113 
 7456000    245.05053    -4862.587   -4372.4557    -4862.587            0    5159.2281    18.025977    23.035278    19.373847     8044.668    6056.2761    4112.1737    5309.2343   -693.18275   -329.38698    1100.2595   -3767.1584 
 7457000    257.58044   -4863.5198   -4348.3271   -4863.5198            0    5045.3367    18.162882    22.912524    19.348745    8052.1246    5595.2277    5186.3354     4354.447   -153.34043    833.69107     1102.752   -3755.8432 
 7458000    255.39549   -4847.3366   -4336.5141   -4847.3366            0    4145.8653    18.140561    22.619579    19.678109    8074.5548    4485.9547    4435.7066    3515.9346   -1597.7482   -1078.7609    577.14823   -3848.3007 
 7459000     249.3062     -4847.44   -4348.7968     -4847.44            0    5346.0795     17.99326    22.864587    19.580659    8055.6485    4805.3871    6095.2822    5137.5692   -984.44031    361.89286   -290.18547   -3720.7213 
 7460000    247.74677   -4837.7659   -4342.2418   -4837.7659            0    3363.6143    18.182346    23.091248    19.278963    8094.3318    2494.6961    3138.7923    4457.3543    409.71702   -160.27309   -321.35301   -3945.1754 
 7461000     251.3422   -4849.0891   -4346.3737   -4849.0891            0    4773.8497    17.957333    23.171169    19.361994    8056.3784    3626.7303    4727.4297     5967.389   -13.949484   -166.05033    57.527331   -3785.4749 
 7462000    244.42824    -4834.782   -4345.8953    -4834.782            0    5601.1061    18.121901    22.962282    19.318245    8038.7121     4502.852    5610.7881    6689.6781    966.68079    1246.6901   -45.057647    -3689.242 
 7463000    248.67373   -4841.0541   -4343.6759   -4841.0541            0    6350.9848    17.919424    23.099943    19.347271    8008.5643    7000.5036    5832.3135    6220.1372   -473.10454    1080.2357    1494.9315   -3601.9018 
 7464000    257.34423   -4865.9218   -4351.2016   -4865.9218            0    2867.0773    18.039862    23.108772    19.469081     8116.252    4029.8545    2620.5883    1950.7889   -644.47322     -1029.81   -412.63286   -4011.8336 
 7465000    234.39957   -4861.4358   -4392.6077   -4861.4358            0     4300.494    18.014436    23.120252    19.378636    8071.1686     3845.062    4805.7574    4250.6627    415.31178    211.35811    1431.8484   -3886.3978 
 7466000    256.26445   -4868.9281   -4356.3676   -4868.9281            0    5743.1085    18.027846    23.027281    19.317131    8019.1646    5921.1403    4860.0441    6448.1412    868.04209   -586.42444    621.95026   -3684.7036 
 7467000    252.01326   -4885.7614   -4381.7037   -4885.7614            0    5193.5201    17.826975    23.233214    19.294014    7991.1547    6114.6633    4285.0318    5180.8653   -571.04713    232.22507    371.06456   -3776.4364 
 7468000    270.04288   -4874.5535   -4334.4343   -4874.5535            0    4753.5091    18.200862    22.930056    19.358618     8079.257    4385.8297    4577.3134    5297.3843   -597.56188    -360.1406   -71.520483   -3774.3394 
 7469000    243.01901   -4835.0296   -4348.9616   -4835.0296            0    5973.0938     18.01642    22.911994    19.489761    8045.2191    7335.1603    5300.5712    5283.5498    1347.3386    642.43284    2490.8672   -3648.1309 
 7470000    235.63499   -4855.0407   -4383.7416   -4855.0407            0    5320.1764    18.169414    22.810487    19.334428     8013.215    4377.1944    5125.5708    6457.7639   -1171.8306   -461.57771    1497.6719   -3762.0017 
 7471000    246.52441   -4855.3253    -4362.246   -4855.3253            0    6569.6875    18.127844     22.74788    19.441248    8016.9881    6076.7558    7847.2092    5785.0975   -418.09286    1222.5901    431.68404   -3594.1211 
 7472000    231.35349   -4852.4821   -4389.7465   -4852.4821            0    4435.7708    18.044328    22.891173      19.5273    8065.8651     5878.603    3607.2406    3821.4687   -2039.0081   -1743.2069    -45.37392   -3867.9563 
 7473000    235.45168   -4854.8111   -4383.8786   -4854.8111            0    4714.7815    18.155102    22.932473    19.331581    8048.5373    4770.4168    4895.6773    4478.2504    1401.1456   -1543.0953    1962.6751   -3830.4592 
 7474000    244.89897   -4841.2022    -4351.374   -4841.2022            0    5323.0686    17.898931    22.996965    19.592403    8064.6464    6123.1148    5546.0975    4299.9934   -1097.6799    230.87088   -1815.4504   -3725.3034 
 7475000    244.75731   -4864.1982   -4374.6533   -4864.1982            0    6910.6836    18.123486    22.981418    19.209654    8000.8866    6293.8357    7716.0305    6722.1848    716.35813    1267.7345    1339.8349   -3568.2821 
 7476000    245.03935   -4852.4804   -4362.3715   -4852.4804            0    4920.6842    18.017224    22.974129    19.459543    8054.8893    5528.7034    5079.4799    4153.8694    321.72959    127.58284   -1468.4639   -3784.3274 
 7477000    261.82476   -4807.3355   -4283.6536   -4807.3355            0    5800.6029    18.127419    22.965487    19.336489    8049.8772    4984.8982    5433.7163    6983.1942    961.78076   -688.28804    694.42692   -3602.6674 
 7478000    250.12234   -4827.3916    -4327.116   -4827.3916            0    5727.4945    18.103805    22.816928    19.495178    8052.9357    5403.2431    6456.4028    5322.8377   -345.55664   -275.65791   -2765.1637   -3654.4572 
 7479000    255.35133   -4842.8461   -4332.1118   -4842.8461            0    4559.3703    18.179034     22.86887    19.472045    8095.1903    4127.0146    4991.5679    4559.5284    701.99514    295.35768    634.60678   -3793.8324 
 7480000    265.78266   -4833.6275   -4302.0294   -4833.6275            0    5244.0026    18.085198    22.797342    19.574538    8070.4734    5860.9477    5577.4796    4293.5805    2038.2767    312.60119   -1000.6274   -3684.8125 
 7481000    263.53531   -4846.7657   -4319.6625   -4846.7657            0    6273.2921    18.086511    22.876203     19.35957    8010.0355    8041.8434    5576.7248     5201.308    320.84678   -1934.6736   -5.3147769   -3586.8281 
 7482000    249.23543    -4844.053   -4345.5514    -4844.053            0    6540.6774    18.181104    23.107726    19.123162     8034.099    6360.0179    5209.6584     8052.356    834.81227   -1619.7633   -2502.5367   -3579.1861 
 7483000    255.93202   -4874.8613   -4362.9657   -4874.8613            0    6268.9701    17.810572    23.217002    19.396379    8020.5595    7333.7182    6243.2341    5229.9579    158.69135    1045.4873   -117.48322    -3629.674 
 7484000    260.68822   -4842.4765   -4321.0679   -4842.4765            0    5452.0293     17.96808    23.223996    19.289261    8049.2279    5924.4247    5110.7332    5320.9301   -1450.8308    638.20697   -2106.7615   -3681.0556 
 7485000    240.30025    -4857.619   -4376.9888    -4857.619            0    4390.7327    17.986329    23.171514    19.407958    8088.6635    6823.2558     2681.385    3667.5573    864.81536   -39.454058   -78.433564   -3859.0366 
 7486000    237.54702   -4838.4356   -4363.3122   -4838.4356            0     3917.519     18.18016    22.972482    19.288805    8055.8419    4069.4188    2741.8453    4941.2927     96.30865   -1123.4946    356.21424   -3903.0578 
 7487000    240.39734   -4833.9995   -4353.1751   -4833.9995            0    6751.0047    18.195952    22.606436    19.536748     8036.356    7649.5499    7773.4965    4829.9676   -1541.5811    182.36653   -70.497255   -3561.9438 
 7488000    257.32814   -4849.0145   -4334.3264   -4849.0145            0    6289.7034    18.234737    22.742303    19.444202     8063.509    4835.1769    7726.8505    6307.0828   -664.53084    1302.3614     353.8451   -3594.6698 
 7489000     245.5343     -4838.76   -4347.6611     -4838.76            0    6465.9978    18.120199    22.795067    19.385987    8007.4045    6789.0221    5676.6548    6932.3167    847.39014    -1026.255    2209.0985   -3592.5633 
 7490000    259.30497   -4844.8888   -4326.2468   -4844.8888            0    5184.8702    18.019302    22.854091     19.53525    8044.9042    5116.1311    5833.0522    4605.4274    416.21571    690.65275    26.487879   -3717.9232 
 7491000    245.35537   -4852.1271   -4361.3861   -4852.1271            0    7178.3627    18.109524    22.906511    19.201675    7965.3538    6968.0627    7088.9976    7478.0278    201.63247    479.69588   -453.84183   -3527.5007 
 7492000    250.50305   -4859.8894   -4358.8523   -4859.8894            0    3351.4289    18.050678    23.004747    19.557607    8121.3214    3419.0212    3935.1508    2700.1147     511.3179   -177.81215    638.53476   -3961.9053 
 7493000    268.09796   -4851.5479   -4315.3188   -4851.5479            0    5973.7926    18.236815    22.775014    19.351464    8037.5092    4511.4853    6726.2725    6683.6201    439.18282   -287.57049    240.68183   -3615.0779 
 7494000    246.14725    -4824.089   -4331.7641    -4824.089            0    5796.4876     18.27173    22.604027    19.495621    8051.9777    5371.7283    5843.0174    6174.7171    313.12233   -1232.8479   -725.28601   -3651.0835 
 7495000    263.06077   -4847.2057   -4321.0517   -4847.2057            0    4672.1495    18.258749    22.790197    19.458534    8097.0947    4822.8075    5773.6606    3419.9805   -418.49743    87.458811   -910.62525   -3769.3277 
 7496000    243.46031    -4848.269   -4361.3183    -4848.269            0    4169.1604    18.135806    22.964064    19.393172    8076.7097    3761.9051    3525.6322    5219.9437    23.677805   -614.37117    1107.5308   -3870.2307 
 7497000    250.88665   -4850.4465   -4348.6422   -4850.4465            0    3916.9877    17.937071    22.962708    19.568097    8059.7807    3466.9228    4599.0671    3684.9731   -1159.7478   -464.12854   -1031.7072   -3888.2252 
 7498000    256.16915   -4831.3117   -4318.9417   -4831.3117            0    5283.4425    18.111991    23.120232    19.173758    8029.0769    4042.4555    5426.1934    6381.6785   -497.31649   -875.55811   -1001.7297   -3700.2726 
 7499000    251.10567   -4869.2988   -4367.0564   -4869.2988            0    5329.5636    18.002261    23.004768    19.429956    8046.6801    5556.3281    4857.7688    5574.5938   -157.46109   -875.14157     1933.795   -3741.6184 
 7500000     261.8501   -4839.0093   -4315.2768   -4839.0093            0     5450.437    17.983775    22.974826    19.523583    8066.6385    6890.6506    4190.7306    5269.9299    232.98594    173.20208   -359.40068   -3674.0675 
Loop time of 554.146 on 64 procs for 250000 steps with 1008 atoms

Performance: 77.958 ns/day, 0.308 hours/ns, 451.145 timesteps/s
99.2% CPU use with 64 MPI tasks x 1 OpenMP threads

MPI task timing breakdown:
Section |  min time  |  avg time  |  max time  |%varavg| %total
---------------------------------------------------------------
Pair    | 28.334     | 31.913     | 35.821     |  30.4 |  5.76
Bond    | 0.28929    | 0.29643    | 0.30655    |   0.8 |  0.05
Kspace  | 264.79     | 274.18     | 284.27     |  31.5 | 49.48
Neigh   | 4.2218     | 4.7538     | 5.4926     |  18.7 |  0.86
Comm    | 101.62     | 113.33     | 124        |  53.3 | 20.45
Output  | 1.3171     | 1.3201     | 1.3308     |   0.3 |  0.24
Modify  | 116.6      | 119.9      | 124.77     |  19.7 | 21.64
Other   |            | 8.454      |            |       |  1.53

Nlocal:        15.7500 ave          19 max          12 min
Histogram: 1 3 7 0 18 13 0 17 3 2
Nghost:        2486.22 ave        2526 max        2448 min
Histogram: 1 2 10 11 7 13 11 4 4 1
Neighs:        5186.61 ave        6322 max        3980 min
Histogram: 1 3 7 2 16 13 12 5 3 2

Total # of neighbors = 331943
Ave neighs/atom = 329.30853
Ave special neighs/atom = 2.0000000
Neighbor list builds = 8808
Dangerous builds = 0

unfix		3
unfix		2
unfix		1

write_data	data.final.${pid}
write_data	data.final.0
System init for write_data ...
PPPM initialization ...
  extracting TIP4P info from pair style
  using 12-bit tables for long-range coulomb (../kspace.cpp:340)
  G vector (1/distance) = 0.38324154
  grid = 24 30 36
  stencil order = 5
  estimated absolute RMS force accuracy = 0.0019509601
  estimated relative force accuracy = 5.8752585e-06
  using double precision FFTW3
  3d grid and FFT values/proc = 4320 480
Last active /omp style is kspace_style pppm/tip4p/omp
WARNING: Not all mixed pair coeffs generated from mixing. Use write_data with 'pair ij' option to store all pair coeffs. (../write_data.cpp:312)

write_restart   restart.lmp.${pid}
write_restart   restart.lmp.0
System init for write_restart ...
PPPM initialization ...
  extracting TIP4P info from pair style
  using 12-bit tables for long-range coulomb (../kspace.cpp:340)
  G vector (1/distance) = 0.38324154
  grid = 24 30 36
  stencil order = 5
  estimated absolute RMS force accuracy = 0.0019509601
  estimated relative force accuracy = 5.8752585e-06
  using double precision FFTW3
  3d grid and FFT values/proc = 4320 480
Last active /omp style is kspace_style pppm/tip4p/omp
Total wall time: 0:09:14
