LAMMPS (30 Jul 2021)
Processor partition = 1
  using 2 OpenMP thread(s) per MPI task
using multi-threaded neighbor list subroutines
variable        pid world 0 1
variable        phase world IceIh IceIII

shell cd ${phase}
shell cd IceIII
include Restart.lmp
echo both
log log.lammps
#include		in.partitions
include		in.temp
variable        temperature equal 65.22
variable	tempDamp equal 100.0
include		in.pressure
variable        pressure equal 2098.6
variable        pressureDamp equal 1000.0 # This is 1 ps
include		in.seed
variable        seed equal 745823

units		real
atom_style	full

read_restart	restart.lmp.${pid}
read_restart	restart.lmp.1
Reading restart file ...
  restart file = 30 Jul 2021, LAMMPS = 30 Jul 2021
  restoring atom style full from restart
  orthogonal box = (0.015205833 0.046313869 0.014331879) to (19.984795 19.953687 20.685666)
  4 by 2 by 4 MPI processor grid
  restoring pair style lj/cut/tip4p/long/omp from restart
  restoring bond style harmonic/omp from restart
  restoring angle style harmonic/omp from restart
  972 atoms
  648 bonds
  324 angles
Finding 1-2 1-3 1-4 neighbors ...
  special bond factors lj:    0        0        0       
  special bond factors coul:  0        0        0       
     2 = max # of 1-2 neighbors
     1 = max # of 1-3 neighbors
     1 = max # of 1-4 neighbors
     2 = max # of special neighbors
  special bonds CPU = 0.002 seconds
  read_restart CPU = 0.007 seconds
include 	in.setup
variable	out_freq equal 1000
variable	out_freq2 equal 10000
variable	out_freq3 equal 1000

timestep	2.0

neigh_modify    delay 7 every 1

include		in.tip4p
# This is TIP4P/Ice

# create groups ###
group ox type 2
324 atoms in group ox
group hy type 1
648 atoms in group hy

# set charges - beside manually ###
set group ox charge -1.1794
Setting atom values ...
  324 settings made for charge
set group hy charge 0.5897
Setting atom values ...
  648 settings made for charge

# ### TIP3P Potential Parameters ###
pair_style lj/cut/tip4p/long/omp 2 1 1 1 0.1577 8.5
pair_coeff 1 1*2 0.000 0.000
pair_coeff 2 2 0.21084 3.1668
bond_style  harmonic
bond_coeff  1 450 0.9572
angle_style harmonic
angle_coeff 1 55 104.52
kspace_style pppm/tip4p/omp 1.0e-5
pair_modify tail yes

thermo          ${out_freq}
thermo          1000
thermo_style    custom step temp pe etotal epair emol press lx ly lz vol pxx pyy pzz pxy pxz pyz enthalpy

restart 	${out_freq3} restart.lmp.${pid} restart2.lmp.${pid}
restart 	1000 restart.lmp.${pid} restart2.lmp.${pid}
restart 	1000 restart.lmp.1 restart2.lmp.${pid}
restart 	1000 restart.lmp.1 restart2.lmp.1


include         in.dump
dump            myDump all atom ${out_freq2} dump.water.${pid}
dump            myDump all atom 10000 dump.water.${pid}
dump            myDump all atom 10000 dump.water.1
dump            myDump2 all dcd ${out_freq2} dump.dcd
dump            myDump2 all dcd 10000 dump.dcd
dump_modify     myDump append yes
dump_modify     myDump2 append yes


variable natoms 	equal  "count(all)"                        # NUMBER ATOMS
variable H      	equal  "enthalpy/v_natoms"                 # ENTHALPY-per-atom
variable Vol      	equal  "vol/v_natoms"                 # volume-per-atom
fix AVG all 		ave/time ${out_freq} 1 ${out_freq} v_Vol v_H file vol_enthalpy.dat
fix AVG all 		ave/time 1000 1 ${out_freq} v_Vol v_H file vol_enthalpy.dat
fix AVG all 		ave/time 1000 1 1000 v_Vol v_H file vol_enthalpy.dat


timer           timeout 02:55:00 every 1000
New timer settings: style=normal  mode=nosync  timeout=02:55:00

fix 		1 all shake 1e-6 200 0 b 1 a 1
Finding SHAKE clusters ...
       0 = # of size 2 clusters
       0 = # of size 3 clusters
       0 = # of size 4 clusters
     324 = # of frozen angles
  find clusters CPU = 0.000 seconds
fix             2 all nph aniso ${pressure} ${pressure} ${pressureDamp}
fix             2 all nph aniso 2098.6 ${pressure} ${pressureDamp}
fix             2 all nph aniso 2098.6 2098.6 ${pressureDamp}
fix             2 all nph aniso 2098.6 2098.6 1000
fix             3 all temp/csvr ${temperature} ${temperature} ${tempDamp} ${seed}
fix             3 all temp/csvr 65.22 ${temperature} ${tempDamp} ${seed}
fix             3 all temp/csvr 65.22 65.22 ${tempDamp} ${seed}
fix             3 all temp/csvr 65.22 65.22 100 ${seed}
fix             3 all temp/csvr 65.22 65.22 100 745823


run             250000
PPPM initialization ...
  extracting TIP4P info from pair style
  using 12-bit tables for long-range coulomb (../kspace.cpp:340)
  G vector (1/distance) = 0.37153776
  grid = 24 24 24
  stencil order = 5
  estimated absolute RMS force accuracy = 0.0035924897
  estimated relative force accuracy = 1.0818676e-05
  using double precision FFTW3
  3d grid and FFT values/proc = 3211 432
Last active /omp style is kspace_style pppm/tip4p/omp
Neighbor list info ...
  update every 1 steps, delay 7 steps, check yes
  max neighbors/atom: 2000, page size: 100000
  master list distance cutoff = 10.8154
  ghost atom cutoff = 10.8154
  binsize = 5.4077, bins = 4 4 4
  1 neighbor lists, perpetual/occasional/extra = 1 0 0
  (1) pair lj/cut/tip4p/long/omp, perpetual
      attributes: half, newton on, omp
      pair build: half/bin/newton/omp
      stencil: half/bin/3d
      bin: standard
Setting up Verlet run ...
  Unit style    : real
  Current step  : 37500000
  Time step     : 2
  Walltime left : 2:54:59.95
Per MPI rank memory allocation (min/avg/max) = 10.18 | 10.19 | 10.19 Mbytes
Step Temp PotEng TotEng E_pair E_mol Press Lx Ly Lz Volume Pxx Pyy Pzz Pxy Pxz Pyz Enthalpy 
37500000    69.799475   -5109.2006   -4974.5864   -5109.2006            0    2201.1924    19.969589    19.907373    20.671334     8217.725    1976.3434    2001.7435    2625.4904    129.36053    236.49424    -261.5746   -4710.7799 
37501000    60.112606   -5114.6701   -4998.7379   -5114.6701            0    1409.8908    20.047751    19.986387    20.556262    8236.5265    974.79527    1042.7738    2212.1033   -398.47193   -190.88283    -34.94629     -4829.38 
37502000    67.153436   -5126.9956   -4997.4845   -5126.9956            0    1454.4646    19.950732    19.843929    20.800007    8234.7418    1683.1532    2002.1158    678.12489   -329.72082    702.74438   -24.134262   -4822.8102 
37503000     64.32559   -5123.7013    -4999.644   -5123.7013            0    2603.7278    19.871309     19.90504    20.785071    8221.3102    2662.5403    2845.6175    2303.0256   -272.45572    223.23988    269.63246   -4687.4587 
37504000    62.779045   -5129.1863   -5008.1116   -5129.1863            0    2144.6414    19.931443    19.914718    20.755108    8238.3053     2729.571    1375.5735    2328.7798   -90.622039    -270.4307    260.70391   -4750.4388 
37505000    66.718081   -5127.6898   -4999.0184   -5127.6898            0    1884.7622    19.923112    19.914168    20.710199    8216.8173    2258.1613    1877.8394     1518.286    47.663724    46.745215   -400.71475   -4773.1601 
37506000    63.299698   -5115.5878    -4993.509   -5115.5878            0    1821.5305    19.992976    19.973507    20.621842    8234.9166    1185.4509    2076.8078    2202.3329    43.604606   -396.13006   -845.43485   -4774.7472 
37507000    65.265601   -5122.4835   -4996.6133   -5122.4835            0    1801.5121    19.912938    19.924929    20.734683    8226.7731    2250.0009    1500.2793    1654.2562   -353.44665   -135.89936   -29.016147   -4780.4696 
37508000    66.536763    -5124.186   -4995.8642    -5124.186            0    1449.1108    19.991646    19.928663    20.653471    8228.4825    1269.0937    1513.3239    1564.9149   -395.85516   -71.605191   -123.23114   -4821.9651 
37509000    66.163213   -5120.8816   -4993.2803   -5120.8816            0    1565.3601    20.001958    19.892738    20.757575    8259.3087    1898.7204    1442.5732    1354.7866   -305.02633     369.1467   -8.8393282   -4804.7271 
37510000    67.004787   -5120.6012   -4991.3769   -5120.6012            0     2797.528    19.963882    19.877214       20.619    8182.1623    2284.8087    3226.4939    2881.2814    103.36495   -78.220521    692.95811   -4657.5522 
37511000    62.931541   -5119.8552   -4998.4865   -5119.8552            0    1581.6073    20.002648    19.890573    20.689904    8231.7707    891.03708    1895.9795    1957.8054    153.57276   -329.50202    117.37412   -4808.6115 
37512000    68.636351   -5119.7818   -4987.4108   -5119.7818            0    1293.9101    20.033028    19.924974    20.709129    8266.2055     753.2828    1942.9743    1185.4731   -510.23908   -169.30596   -194.35143   -4831.4246 
37513000    69.589515     -5124.37   -4990.1608     -5124.37            0    2081.3651    20.019105    19.909467    20.709407    8254.1423    1056.6431    2257.0293    2930.4229    159.00747   -235.77955    253.26075   -4739.6098 
37514000    64.825302   -5127.0834   -5002.0624   -5127.0834            0    2225.1409    19.924478    19.981287    20.660661    8225.3545    3270.0167    1270.4979     2134.908   -35.627841    345.88378   -632.31284   -4735.1381 
37515000     65.36813   -5128.4813   -5002.4134   -5128.4813            0    1722.6567    20.066498     19.86203    20.712428     8255.174    1289.2553     2129.296    1749.4189    -336.6873   -626.18192     40.77305   -4795.0172 
37516000    66.595958   -5123.5597   -4995.1238   -5123.5597            0    2879.1514    19.856545    19.928474    20.734046    8204.6828    3213.4359    2808.7038    2615.3144    -45.14011    493.10954    622.50788   -4650.6135 
37517000    67.046487   -5125.5139   -4996.2091   -5125.5139            0    2200.4096    19.913434    19.910226     20.69898    8206.7522    2826.2805    1893.1954     1881.753   -197.19892    27.214164    -29.59352   -4732.8486 
37518000    64.518457   -5128.4597   -5004.0305   -5128.4597            0    1965.1424    19.952873    19.969015    20.630965    8220.1854    2487.8799    1367.0774      2040.47    31.239077   -387.65309   -588.58659   -4768.4434 
37519000    66.469695    -5129.194   -5001.0016    -5129.194            0    1767.6078    19.961436    19.873976    20.787785    8246.7862    1951.8614    1835.6791    1515.2828   -37.516769   -29.291859    23.438868   -4788.4098 
37520000    64.793344   -5123.8482   -4998.8888   -5123.8482            0    2486.3741    19.978874     19.78783    20.780798    8215.4508    1480.3721    3156.7468    2822.0035   -333.72542   -51.979434    378.31756   -4700.9866 
37521000    64.143061   -5128.3396   -5004.6343   -5128.3396            0    1552.0206    19.981897    19.847297    20.782511    8242.0665    1658.7194    1798.2714    1199.0709   -62.339816    757.77459   -530.38723   -4818.0782 
37522000      65.6567   -5124.1519   -4997.5274   -5124.1519            0    2071.8895    20.007045    19.946342     20.67434    8250.4539    2708.1409    1079.9581    2427.5695    225.35187    -84.43031   -1274.9838   -4748.2285 
37523000    62.020503   -5121.5237    -5001.912   -5121.5237            0    2329.9489    19.893032    19.927384    20.774204    8235.2286    3112.8549    2504.8145    1372.1772    11.177956    622.33063   -104.64342   -4722.0796 
37524000    66.284019   -5112.7803    -4984.946   -5112.7803            0     1433.681    19.878562    20.013856    20.694683    8233.3108    1002.7389    1521.7525    1776.5516   -112.56511    616.10168    169.00402   -4812.7976 
37525000    67.886591   -5121.6246   -4990.6996   -5121.6246            0    1881.6622    19.882883    19.990881     20.80288    8268.6526    2375.5469    1667.4718    1601.9679    86.746228    758.03743   -713.60975   -4763.7903 
37526000    68.900718   -5124.7293   -4991.8484   -5124.7293            0    1627.7869    19.930135    19.965695    20.843718    8294.1114    2151.6682    1564.3902    1167.3024     300.4976    482.70161    477.76876   -4794.9495 
37527000    69.501688   -5123.8376   -4989.7977   -5123.8376            0    1415.7747    19.892769    19.948347     20.83506    8267.9319    2039.8721    1020.9083    1186.5437   -447.19201    225.99209   -127.39521   -4819.0846 
37528000    63.553968   -5124.5226   -5001.9534   -5124.5226            0    2010.9252    19.874259    19.959104    20.736289    8225.5135    2103.6315    1917.7444    2011.3996   -328.23218    25.610705   -132.98945   -4760.7215 
37529000    64.168975   -5118.0913   -4994.3361   -5118.0913            0    2309.8544     19.93149    19.999114    20.541542    8188.1079    1890.9973    2271.7915    2766.7744   -527.37407    392.97341    0.9480949   -4718.5044 
37530000    65.124469   -5120.9513   -4995.3532   -5120.9513            0     2047.271    20.006127    19.857669     20.75483    8245.3759    495.42403    3414.6554    2231.7335   -392.78162   -61.347306      -576.97   -4749.1682 
37531000    65.205385   -5114.9505   -4989.1964   -5114.9505            0    1773.6468    19.969254    19.873918    20.714887    8221.0614    1619.5575    1761.6055    1939.7773   -364.87763    627.81103    235.49523   -4776.5437 
37532000    67.331557   -5123.9027   -4994.0482   -5123.9027            0    2518.2508    19.845198     19.91169    20.747499    8198.4039    2642.2479    3013.9408    1898.5636    103.87687     1181.296      831.441   -4692.9527 
37533000    65.280163   -5121.2569   -4995.3586   -5121.2569            0    1982.2936    19.836032     19.95384    20.780917     8225.191     3355.826    544.43165    2046.6232    219.40758   -64.989247   -296.63361   -4757.5706 
37534000    66.066701   -5131.4698   -5004.0546   -5131.4698            0    2435.7667    19.844931    19.956683    20.772412    8226.6851    2878.1805    2067.8909    2361.2287    -333.1519   -536.15495   -247.95241   -4711.8168 
37535000    63.790879   -5129.8448   -5006.8188   -5129.8448            0    2781.3054    19.899753    19.787471    20.722218    8159.7003    2813.7792    3220.7678     2309.369   -468.39988    148.87602    -103.2994    -4675.841 
37536000    65.427233   -5130.5462   -5004.3643   -5130.5462            0    2704.3874    19.967481    19.890723    20.659217    8205.1719    2235.7567    2945.6274    2931.7781   -252.13752   -68.607508   -159.14914   -4680.7464 
37537000    63.836233   -5122.0068   -4998.8932   -5122.0068            0    2194.4527    19.894504    19.782671    20.891661    8222.2565    1211.1311    3380.7931    1991.4339    9.6604834    1037.2539    300.43169   -4735.7494 
37538000    68.158036   -5126.0271   -4994.5786   -5126.0271            0    2211.9008    19.874318    19.939707    20.754947    8224.9378    2992.5725    1786.4987    1856.6313      8.80347     318.5046    354.31127    -4729.256 
37539000    64.457119   -5127.3605   -5003.0495   -5127.3605            0    2250.2928    19.871857    19.925157    20.698276    8195.4797    2555.1757    2391.7962    1803.9066   -217.18187   -464.32771   -61.050231   -4734.0885 
37540000    66.362418   -5127.4054   -4999.4199   -5127.4054            0    2102.6924    19.824132    19.981196    20.686962    8194.3097    2273.9959    1606.0022     2428.079   -368.01022    225.22405    362.99682   -4748.1364 
37541000    65.963898   -5122.8951   -4995.6782   -5122.8951            0    3217.8659    19.852598    19.858958    20.771166     8189.072    3278.2732    3605.3027    2770.0217   -101.14442    997.86941   -373.36919    -4611.371 
37542000    63.872699    -5123.806   -5000.6221    -5123.806            0    2174.5562    19.952082    19.900225    20.719665    8226.7618    2625.1246    1176.8112    2721.7328    -152.2683    218.72945    208.93794   -4739.7213 
37543000    66.865784    -5120.816   -4991.8597    -5120.816            0    1674.5462    19.913274    19.989372    20.695912    8238.0873     2488.908    786.32818    1748.4023      91.9102    1368.7706    467.33283    -4790.673 
37544000    63.841203   -5128.7032   -5005.5801   -5128.7032            0    1451.6186    19.957251    19.968637    20.643143    8226.6869    812.38716    2273.7692    1268.6994   -23.096361     220.2847   -287.25726   -4831.4181 
37545000    67.145442   -5138.0626   -5008.5669   -5138.0626            0    1239.0593    19.913077       20.028    20.688254    8250.8712    1279.3565    604.44579    1833.3756   -79.601887    300.31827   -540.13378   -4859.4703 
37546000    64.680206   -5126.4427   -5001.7014   -5126.4427            0    2127.1891    19.855011    19.852969    20.894383    8236.1674     3055.585    1897.1373     1428.845   -246.64437    660.81213    1143.1824   -4746.1919 
37547000    66.232406   -5125.9347   -4998.1999   -5125.9347            0    2348.8948    19.931898    19.911336    20.655702    8197.6432    1221.5465    3514.3147    2310.8233   -340.51292    846.02926    719.83036   -4717.3796 
37548000    64.686815   -5131.2282   -5006.4743   -5131.2282            0    2340.1348    19.813068    20.012968    20.828552    8258.9019      2894.94    1795.2404    2330.2242   -310.38935    715.05728    526.20864   -4724.6106 
37549000    64.726407   -5119.9883    -4995.158   -5119.9883            0    1754.5871    19.940475     19.88703    20.721267    8217.1602    1614.0187    2199.5362    1450.2064   -504.81504    503.29267     298.9033   -4784.8903 
37550000    62.877977   -5123.1647   -5001.8993   -5123.1647            0    3055.8372    19.955324    19.872521    20.616034    8175.5478    4081.2412    1386.0102    3700.2601    -289.7673    928.37691    801.67863   -4637.5458 
37551000    67.906254   -5110.9858   -4980.0229   -5110.9858            0    2405.6236    19.931893     19.85508    20.705651    8194.2477    2780.4102    2134.9359    2301.5247   -175.69126    565.88586   -110.23486   -4692.5396 
37552000    64.502004   -5127.6618   -5003.2643   -5127.6618            0    1955.2023    19.891101    19.920241    20.842748    8258.6371    2690.4752    1220.4266     1954.705    82.807705    1241.9784    -365.5326   -4767.7724 
37553000    60.903449   -5126.1582   -5008.7008   -5126.1582            0    2231.3703    19.883889    19.913919      20.7779    8227.3452    2411.8022    2121.2114    2161.0973   -554.97668    707.06123    136.96544   -4740.9645 
37554000    68.318612   -5123.4249   -4991.6667   -5123.4249            0     2040.663    20.014613    19.991245    20.603677    8243.8819    1477.1187    1425.2519    3219.6183    195.17167    1489.0414   -9.3805871   -4746.3208 
37555000    67.395439   -5127.3637    -4997.386   -5127.3637            0    2020.1267    19.954273    19.785046    20.843273    8228.8451    2478.0021    2076.0849    1506.2931   -199.10475   -363.94506    388.43097    -4754.952 
37556000      69.2032   -5121.0003   -4987.5361   -5121.0003            0    1735.1782    20.018137    19.931741    20.625705    8229.5804    639.57449     2383.457    2182.5031   -143.36272   -77.055803    476.30375   -4779.2801 
37557000    63.849948   -5130.9177   -5007.7777   -5130.9177            0    1228.6315    19.959159     19.89245    20.770804     8246.769    355.28061    1803.5743    1527.0398    211.01494    441.13667    409.27302   -4860.0094 
37558000    66.591258   -5125.1869     -4996.76   -5125.1869            0    2540.1595    19.901217    19.931265    20.668237    8198.1888    2201.8049    2366.1416    3052.5321    35.977291    266.59485   -48.714664    -4693.053 
37559000    64.475549   -5124.2602   -4999.9137   -5124.2602            0    2342.0171    19.927751    19.870611    20.752769    8217.6107    2617.2898    2572.5285     1836.233    39.835225    255.77158    79.498774   -4719.2337 
37560000    65.502706   -5121.2176   -4994.8901   -5121.2176            0    3242.1157    19.978412     19.80987    20.636134    8167.1577    2021.2683    4261.4527    3443.6261   -1.2610748     518.0457    773.04414    -4608.723 
37561000    66.431927   -5124.8098   -4996.6903   -5124.8098            0    2036.1732    19.949881    19.865379    20.769964     8231.385    1123.4849    2319.6965    2665.3383    189.43278    395.07459    861.07537   -4752.2552 
37562000    68.555466   -5118.0971   -4985.8822   -5118.0971            0    2583.8578    19.989546    19.904415    20.622793    8205.4016    2780.4137    2263.2962    2707.8635   -66.443791    207.18574    833.93679   -4676.6787 
37563000    67.171026   -5120.4798   -4990.9348   -5120.4798            0    2553.4451    19.905379    19.776934    20.802877    8189.4142     3134.663    2467.2989    2058.3735     39.98945    59.818726   -431.23822   -4685.9661 
37564000    64.275658   -5122.3112   -4998.3501   -5122.3112            0    2269.0468    19.986176    19.874352    20.634176    8196.1489    1927.8225    2308.0322    2571.2859    97.231141    267.69244    191.49191   -4727.1255 
37565000    66.240894   -5127.7432   -4999.9921   -5127.7432            0    1999.6045    19.872553    19.892126    20.809984    8226.3392    1612.7683    2981.2031    1404.8421    -313.5807    429.81301    421.99274   -4760.0941 
37566000    68.341701     -5120.93   -4989.1272     -5120.93            0    1027.5905    19.981977    19.969429    20.693615    8257.3456    637.72487    1423.2568    1021.7898   -646.14052    877.43431   -138.30742   -4865.3797 
37567000    64.750997   -5123.8706   -4998.9929   -5123.8706            0    3222.9111    19.906834    19.824577    20.738797    8184.4536    3758.9111    3086.8687    2822.9534   -172.93963   -252.77433    -567.1557   -4614.3002 
37568000    64.204804   -5121.0782   -4997.2538   -5121.0782            0    1439.6213    19.941293    20.023684    20.599589    8225.3774    2053.9956    1102.8135    1162.0548   -72.310152     645.4419    100.88549   -4824.5587 
37569000    61.809677   -5128.0985   -5008.8933   -5128.0985            0    1926.8385    19.939703    19.853099    20.849317    8253.5127    2642.9413    1627.2413    1510.3329   -234.87675    269.31434   -662.80268   -4776.9617 
37570000    63.816784   -5117.9539   -4994.8779   -5117.9539            0    2140.4475    19.972555     19.95199    20.657191    8231.7303     2330.231    2310.8399    1780.2714    111.01523     8.874867    196.55434   -4737.9143 
37571000    64.838964   -5119.5092   -4994.4618   -5119.5092            0    2390.7215    19.895679    19.901553    20.717027    8203.0087    2310.9151    2863.8101    1997.4393   -279.88114   -319.49141   -245.31198   -4708.4539 
37572000    71.062323   -5121.6616    -4984.612   -5121.6616            0    1593.9932    19.978761    19.933242    20.634397     8217.473    1247.8281     1903.683    1630.4685   -66.519766   -66.058162    541.34561   -4793.5824 
37573000    60.916559   -5122.9511   -5005.4684   -5122.9511            0    2389.4815    19.969236    19.750245    20.804683     8205.311    3155.2952    2304.6846    1708.4647   -10.655928    867.43874    164.58433   -4719.5286 
37574000    62.718795   -5123.5702   -5002.6117   -5123.5702            0    2862.6071    20.016678    19.865085    20.608325    8194.5503    3090.8755    2388.1339    3108.8121    121.03585     214.5443    163.11429   -4660.5041 
37575000    63.649907   -5124.1946   -5001.4404   -5124.1946            0    2208.5353    19.970304    19.877592    20.658327    8200.5616     1851.283    2509.6315    2264.6913   -12.532929     253.7985    431.97871   -4737.3067 
37576000    64.136366   -5123.4279   -4999.7355   -5123.4279            0    2327.5129    19.853998    19.973986    20.724249    8218.4802    1873.6921    3081.9984     2026.848    23.188924    145.85458   -46.384818   -4720.7642 
37577000    64.164402   -5132.6431   -5008.8966   -5132.6431            0    3008.5218    19.869003     19.95807    20.665937    8195.0143    3470.7783    2617.5634    2937.2238    125.36262   -8.9392746    26.220133   -4649.3305 
37578000    67.610976   -5120.7063   -4990.3128   -5120.7063            0    1657.6115    19.923641    19.878087    20.796844    8236.4628    1600.6623    1359.0036    2013.1686   -91.656838   -406.10704   -23.836221   -4791.1999 
37579000    63.283007   -5124.1337   -5002.0871   -5124.1337            0    1555.7318    20.028158    19.912181    20.647808    8234.4347      867.168    2345.0872    1454.9403   -51.708445   -756.79551   -280.47007    -4815.258 
37580000    69.604097   -5127.8669   -4993.6295   -5127.8669            0    2308.2859    19.914357     19.92794    20.735502     8228.928    2336.4387    2487.5555    2100.8634     135.7894    842.44982    164.60778   -4716.6111 
37581000    64.948722   -5119.6597   -4994.4006   -5119.6597            0    2212.7631    19.913605    19.932115    20.689969    8212.2681    2228.4156    2269.1386     2140.735   -304.38292     305.8456   -162.33167   -4729.3835 
37582000    66.347357    -5132.604   -5004.6476    -5132.604            0     1874.179    19.905187    19.915288    20.691375    8202.4234    2381.8748    706.09274    2534.5694    223.96199    191.45751    -600.5439   -4780.4509 
37583000    66.275361   -5120.9694   -4993.1518   -5120.9694            0    2566.1906    19.779501    19.934207    20.757308    8184.3711    3078.8366    2337.0158    2282.7193   -212.85789   -26.521771    193.97981   -4686.8496 
37584000    66.663915   -5115.5965   -4987.0296   -5115.5965            0    2317.7476    19.914536    19.963412    20.668337    8216.9473     1858.145    2829.9685    2265.1294   -9.5875613    117.81197    471.48202   -4709.2806 
37585000    63.592736   -5126.9357   -5004.2918   -5126.9357            0    1413.5087    19.914147    19.895389    20.791827    8237.7154    2031.7957     1233.363    975.36745   -244.39627   -93.443787    932.41194   -4834.4748 
37586000    66.349836    -5130.582   -5002.6207    -5130.582            0    1781.2934    19.943049    19.882656    20.726267    8218.3959    1831.7568    1718.1252    1793.9982   -280.08579    184.03595    167.93033   -4789.1205 
37587000    64.869066   -5126.6739   -5001.5684   -5126.6739            0    2316.1306    19.970168    19.933518    20.590974    8196.7662    2703.0648    1830.8082    2414.5187   -59.025242    139.72452    19.800819   -4724.6948 
37588000    66.254684   -5127.0685   -4999.2908   -5127.0685            0    1546.6778    19.856445    19.954788    20.801735     8242.295    2237.6112    2122.4748     279.9474   -139.03785    553.34312    369.02664   -4813.3717 
37589000    61.375514   -5126.8082   -5008.4403   -5126.8082            0    2318.4113    19.895075    19.932451    20.651812    8189.6332    2764.6243    2246.5515    1944.0582   -47.385751    207.06849   -339.89805   -4731.5353 
37590000    62.614079    -5121.136   -5000.3795    -5121.136            0    2789.3758     19.81342    19.921873    20.750443    8190.6238    3438.2971    2688.5076    2241.3228   -252.22048    231.91101    578.31783   -4667.1834 
37591000    65.010949   -5127.9268   -5002.5478   -5127.9268            0    3111.1912    19.862205    19.819088    20.834924    8201.6844    2547.2421    4270.4691    2515.8625   -179.85656    160.53804   -582.76413   -4630.4084 
37592000    66.929818   -5129.1266   -5000.0468   -5129.1266            0    2551.4952    19.966571    19.870597    20.619891    8180.8942    2703.8302    2936.4306    2014.2249    333.01404    54.748899   -329.75033    -4695.628 
37593000    67.406578   -5122.6408   -4992.6415   -5122.6408            0    2501.3926    19.910919    19.914258     20.63049    8180.2197    2968.7657    2012.7015    2522.7107    73.363749   -183.52461   -215.96518   -4694.2251 
37594000    62.679934   -5118.6074   -4997.7239   -5118.6074            0    1753.3374    20.017615    19.968494    20.580021    8226.2793    2281.7137    674.82681    2303.4716   -127.30319    448.71154    528.36793   -4787.3728 
37595000    63.860898   -5134.0115   -5010.8504   -5134.0115            0     1583.919    19.866582    19.858953    20.846104    8224.4038    2020.4373    2008.0534    723.26639    181.18905    223.73513    222.91165   -4820.8681 
37596000    66.311031   -5123.8512   -4995.9648   -5123.8512            0    2519.0303    19.985472    19.922511    20.592447    8199.1047    2759.3527    2217.2085    2580.5296     75.71529   -111.35833   -1306.7141   -4694.7504 
37597000     64.00014   -5119.7622   -4996.3326   -5119.7622            0    2554.8779    19.944831    19.913294    20.688759    8216.8983    2030.2229     2919.324    2715.0868    69.286079    77.827667    167.95443   -4690.1687 
37598000    63.181925   -5119.2686   -4997.4169   -5119.2686            0    1922.6707    19.907961     19.88242    20.705991    8195.8128    2212.5629    2096.3121    1459.1371   -248.66356    347.84072   -53.395511   -4767.6048 
37599000    65.008716   -5125.7727    -5000.398   -5125.7727            0    1803.0826    19.956295    19.927835    20.708272    8235.3849    2332.1832    1272.6166    1804.4479   -342.14109    159.26436  -0.98391101   -4783.8394 
37600000    63.387213   -5124.1807   -5001.9331   -5124.1807            0     2298.946    19.983263    19.921437    20.722656    8249.5925    2589.5444    2217.6323    2089.6612    244.98515    211.74221   -395.79682   -4725.3427 
37601000    64.717778   -5135.8706    -5011.057   -5135.8706            0    1618.6661    20.050516    19.850706    20.772654    8267.8673    1532.8382    1628.5959    1694.5644   -51.807221    607.73221    -210.4542   -4815.8808 
37602000    64.652071   -5121.9275   -4997.2406   -5121.9275            0    2809.0611    19.916287    19.945088    20.653333    8204.1668    2407.3987    2990.2389    3029.5458    8.3005397     517.4216   -663.41172   -4661.1382 
37603000    67.416215   -5122.2157   -4992.1979   -5122.2157            0    2126.5755    19.876741    19.883078    20.751461    8201.2014    2810.9411    1866.9251    1701.8603    143.90986    439.35526   -184.26001   -4737.8465 
37604000    67.252107   -5124.1053    -4994.404   -5124.1053            0    1996.9995    19.890186    19.948806    20.659979    8197.5794    1266.7407    2819.0783    1905.1795   -338.38537    167.91422    269.91462   -4755.6561 
37605000    65.985276   -5115.2025   -4987.9443   -5115.2025            0    2116.3486    19.949456    19.847188    20.843147    8252.6481    2733.8939    1746.5201    1868.6317     171.7724   -318.09745    561.76484   -4733.2282 
37606000    61.646229   -5126.0757   -5007.1858   -5126.0757            0    1979.9898    19.953836    19.903425    20.776249    8251.2809    1363.7624     2772.597    1803.6101   -250.13454    331.57891   -11.009167   -4768.9208 
37607000     66.52531   -5124.7669   -4996.4672   -5124.7669            0    1334.8674    19.929771    19.989955    20.671464    8235.4125    1238.8151     676.5554    2089.2317   -166.90139    56.142192   -571.82768   -4836.1429 
37608000     66.18145    -5121.337   -4993.7005    -5121.337            0    2673.6181    19.852031    19.928503    20.738356     8204.535    3741.5941    2431.5426    1847.7175   -149.61995    150.21067   -692.61355   -4673.7895 
37609000    65.303066   -5123.2556   -4997.3132   -5123.2556            0    2589.4959    19.840949     20.02768    20.643462    8203.0548    2787.2435    1437.7011    3543.5431   -8.8841213    161.06526     434.0018   -4687.5236 
37610000    68.354479   -5124.8802   -4993.0529   -5124.8802            0    1536.3176    19.985379    19.930948    20.746302    8263.8236    672.05636    2137.0288    1799.8676     -40.7209     422.8784    1278.3405   -4807.8968 
37611000    66.814872   -5118.4881     -4989.63   -5118.4881            0    1543.8271    19.911857    19.962637    20.739499    8243.8089    1856.3474    1427.9278     1347.206    130.29753   -78.098027    354.04149   -4804.0195 
37612000    65.547003   -5120.8627   -4994.4498   -5120.8627            0    2105.8915    19.907434    19.889057    20.758571    8219.1507    2508.7337    2032.1093    1776.8314   -125.75723    -308.0725    63.336369   -4742.0211 
37613000    64.635444   -5128.8819    -5004.227   -5128.8819            0    2018.0794    19.999298    19.860049    20.706577    8224.3838    1221.3036    2491.8383    2341.0963    231.24104    335.16727    690.48636   -4762.1701 
37614000    66.259717   -5123.1029   -4995.3154   -5123.1029            0    2514.9614    19.924959    19.995716    20.644148    8224.9142    3375.8242    1690.9503    2478.1097   -107.95581     131.6197    1030.9425   -4693.6409 
37615000    65.689274   -5124.6676   -4997.9803   -5124.6676            0    1969.2091      19.8938    19.942568    20.730246    8224.3822    1796.2851    2256.1286    1855.2137    32.547916    845.91692   -356.58182   -4761.7851 
37616000    62.713269   -5127.5519   -5006.6041   -5127.5519            0    2181.6965    19.912825     19.94367    20.686248    8215.2294    1760.9453    2588.0807    2196.0636   -398.71425    133.03524    429.86446   -4745.2135 
37617000    63.672139   -5129.8444   -5007.0473   -5129.8444            0    1408.7091    19.902221    19.917508       20.882    8277.6799    1970.0118    1077.6561    1178.4595   -428.50627    225.48065    53.135036   -4836.9859 
37618000    62.419587   -5123.3966   -5003.0152   -5123.3966            0    2333.5529    19.891414    19.894432    20.756431    8213.9089      2329.73    3366.6491    1304.2797   -260.62729    177.17644   -273.43278   -4723.4755 
37619000    60.296864   -5119.2449   -5002.9573   -5119.2449            0    2125.8024     19.95474    19.812941    20.774331     8213.383    655.37472    4384.0481    1337.9844    435.56461    341.43663    454.84081   -4748.3207 
37620000    65.993799   -5125.3539   -4998.0793   -5125.3539            0    1703.0887    19.971464    19.925181    20.676245    8227.8021     1758.213    1763.3676    1587.6856   -257.20792   -315.52172    91.888904   -4793.7188 
37621000    63.046524   -5127.3107   -5005.7202   -5127.3107            0    2542.9904    19.930504    19.846635    20.708168    8191.1868    2171.9215    2845.8481    2611.2015    94.516635    175.17031    191.50716   -4701.9344 
37622000    67.035908   -5120.5121   -4991.2277   -5120.5121            0    2554.1151    19.906548    19.924036    20.733766    8223.4013    2827.8665    2321.9864    2512.4925   -172.39167   -287.77246   -14.854342    -4684.913 
37623000    64.277824   -5119.8571   -4995.8919   -5119.8571            0    2433.9354    19.919169    19.993982    20.563399    8189.6511    2458.6187    1957.7137    2885.4738    217.95308    633.92585   -1596.2745   -4705.1884 
37624000    67.985329   -5128.5089   -4997.3934   -5128.5089            0     2277.154    19.901028    19.957056    20.658362    8204.7974    3227.5459    874.21661    2729.6995    52.332161    645.09936   -255.42838   -4724.9125 
37625000    65.483462   -5117.5679   -4991.2776   -5117.5679            0    2642.6062    19.977836    19.913588    20.641916    8211.9814    2674.7641    3135.5729    2117.4817    143.37302    135.11636    151.97751   -4674.7903 
37626000    62.312004   -5127.5938   -5007.4199   -5127.5938            0    2823.9004     20.03644    19.802264    20.703342    8214.4003    2311.5177    3244.9386    2915.2448   -185.91435   -11.918703   -7.2571022   -4669.1206 
37627000    68.477616   -5134.5497   -5002.4849   -5134.5497            0    1847.0265     19.97931    19.854452    20.754285    8232.7739    1510.9305    2472.5925    1557.5565   -182.18838    406.45062    786.79914   -4780.7187 
37628000    64.167156   -5126.0401   -5002.2884   -5126.0401            0    1562.3236    19.951519    19.957215     20.64932    8222.0788    1775.7451    1173.0773    1738.1485    68.242209   -114.47677   -109.46215   -4814.9492 
37629000    70.669897   -5125.5369    -4989.244   -5125.5369            0     614.5281    20.005395    19.963948    20.770848    8295.5999    553.09354    583.57085    706.91991   -400.24981    405.51573    405.14572   -4914.8967 
37630000    62.138258   -5127.9072   -5008.0683   -5127.9072            0    2951.4953    19.879024    19.958581    20.664908     8198.949    2958.0699    2827.7182    3068.6977   -231.52281    735.08597    579.46436   -4655.1484 
37631000    61.244498    -5126.669   -5008.5538    -5126.669            0    1936.1097    19.961878    19.836461    20.739751    8212.3816    1267.2026    3034.3472    1506.7793   -6.6220806   -46.867966   -9.7953953   -4776.6676 
37632000    67.561618   -5119.4558   -4989.1575   -5119.4558            0    1482.1538    19.973447    19.860784    20.786475    8245.7515    1115.9996    1406.9837    1923.4781    45.628394    177.30244    450.86781   -4810.9199 
37633000    68.716401   -5121.8905   -4989.3652   -5121.8905            0    2600.9839    19.840074    19.898479    20.789706    8207.5114     3254.904    2252.7372    2295.3105   -213.83155    605.65745   -720.64059   -4678.0322 
37634000    64.132698    -5126.102   -5002.4167    -5126.102            0    2949.8005    19.890025    19.930551    20.664319    8191.7323    3288.2194    2832.4484    2728.7338   -249.63224    266.44365    375.12141   -4650.0099 
37635000    65.463931   -5124.4336   -4998.1809   -5124.4336            0    3084.8912    19.893838    19.944929    20.612726     8178.742    3269.9266    3034.9485    2949.7985   -304.82665   -718.80137    146.99648   -4630.2195 
37636000    65.002784   -5123.9087   -4998.5454   -5123.9087            0    2228.1322    19.917258    19.921652    20.783297    8246.4942     2046.216    2458.6713    2179.5092    215.04103   -589.95329   -190.20135   -4730.5754 
37637000    61.903755   -5122.0162   -5002.6296   -5122.0162            0    1667.4298    19.941531    19.907392    20.690821    8213.9223    1412.9568    2268.3274     1321.005   -409.96961    766.03341   -160.80416   -4802.8854 
37638000    64.404418   -5125.1256   -5000.9163   -5125.1256            0    2091.5684    19.913902    19.985338    20.594903    8196.4848     2578.972     1433.375    2262.3583    162.06088    244.07224    735.42206   -4750.8958 
37639000    62.100378   -5130.1424   -5010.3766   -5130.1424            0    1477.1833    20.009237    19.811978    20.796815    8244.3266    1724.2285    1262.4645    1444.8569   -168.78004     445.9379    480.09332   -4832.7674 
37640000    67.629322   -5125.8729    -4995.444   -5125.8729            0    1803.6305    19.986562    19.963379    20.602914    8220.5487    2628.9892     1376.623    1405.2793   -42.063318   -21.403319    3.4134966   -4779.2099 
37641000     66.53002   -5126.6682   -4998.3595   -5126.6682            0    1916.8355    19.881412    19.883573     20.80412    8224.1492    2210.3859    1694.8088    1845.3119   -257.11055   -206.67158   -230.57896   -4768.4528 
37642000    64.869114   -5123.8079   -4998.7023   -5123.8079            0     2572.958     19.88387    19.849479    20.771775    8198.2963    3304.7838    2718.5824    1695.5077   -42.799881    516.35238   -794.19565   -4691.0699 
37643000    64.314695   -5124.8855   -5000.8492   -5124.8855            0    2346.1137    19.874236    19.901528    20.745324    8205.3497    3596.2732    1572.6538     1869.414     -212.307   -39.701615    29.731714   -4720.0977 
37644000    65.212582   -5123.6376   -4997.8697   -5123.6376            0    1161.8169    19.904981    19.964668    20.681733     8218.845    382.20667    2186.6376     916.6064    81.132543    60.887243    308.56105   -4858.6103 
37645000    61.793753   -5119.3581   -5000.1836   -5119.3581            0    1878.2254    20.017707     19.98655    20.617064    8248.5761    1294.6376    2071.4521    2268.5864   -3.1887571    46.159051    721.15657   -4774.2387 
37646000    65.041271    -5130.336   -5004.8984    -5130.336            0    1178.1567    19.901387    20.075985    20.653716    8251.9845    1192.9926    829.65666     1511.821    7.2783413    525.53209   -312.41033   -4863.1111 
37647000     64.21093   -5132.4158   -5008.5796   -5132.4158            0    1530.5058    20.028576    19.884016    20.734382     8257.437    973.03393    2150.6289    1467.8545   -51.951432    726.21701    158.47997   -4824.2665 
37648000      62.1224    -5125.242   -5005.4337    -5125.242            0    405.45883    19.914354    20.043258     20.74286    8279.4821    532.85433   -215.87991    899.40209   -117.81132   -16.724228    825.85821   -4956.4755 
37649000    66.264065   -5122.2265   -4994.4306   -5122.2265            0    2306.8849     19.94111    20.017024    20.630362    8234.8497    2071.7797    1916.3635    2932.5117   -132.27783      225.449    95.239792   -4717.3811 
37650000    63.339482   -5121.1518   -4998.9963   -5121.1518            0    2434.5775    19.889559    19.792969    20.856113    8210.4976    2275.0044    3284.9979    1743.7303   -355.16428    229.39198   -627.75231   -4707.4759 
37651000    67.148843   -5118.4258   -4988.9236   -5118.4258            0    1961.9707    20.023727    19.895725    20.602628      8207.81    1138.5416    2912.8442    1834.5263   -136.82763    792.45675    477.14561   -4754.0708 
37652000    65.975126   -5120.7755   -4993.5369   -5120.7755            0    1915.1813    19.923291    19.904257    20.798654    8247.8789    2748.8284    1432.9294    1563.7861    -178.1228   -283.38814    225.31721   -4763.1658 
37653000     62.50498   -5119.9107   -4999.3646   -5119.9107            0    1895.4788    19.970392    19.983731     20.58054     8213.342    894.82929     2539.502    2252.1052    5.6987438   -236.32476   -726.72773   -4772.3181 
37654000    64.424246   -5124.4594   -5000.2118   -5124.4594            0    1353.5871    19.905403    19.854208    20.891372    8256.3956    1490.6925    1630.5776    939.49107   -603.77636   -546.46109   -319.76801    -4837.225 
37655000    67.104081   -5129.6644   -5000.2485   -5129.6644            0    1509.1564    20.062293    19.874788    20.633187      8227.15    932.79993    1490.5844     2104.085   -227.70946    143.17527   -430.87875   -4819.1731 
37656000    63.828506    -5127.469   -5004.3704    -5127.469            0    1804.4027    19.890863    19.874464    20.786808     8217.446    2612.8155    1652.4018    1147.9909    248.21407   -170.69374   -336.91279   -4788.1253 
37657000    66.842503   -5125.0529   -4996.1415   -5125.0529            0    2557.7779    19.910195    19.970975    20.685211     8224.978    2708.6879    1915.0991    3049.5468     37.85539     539.4828    273.96282   -4689.3287 
37658000    62.919499   -5129.8881   -5008.5425   -5129.8881            0    2338.6069    19.973256    19.911739    20.668525    8219.9193     1417.965    2755.9297     2841.926   -403.31238    921.85684   -81.483842   -4728.1924 
37659000    63.861557   -5128.6229   -5005.4605   -5128.6229            0    892.62761    20.027552    19.893014    20.728304    8258.3295    384.63841    841.74327    1451.5012    105.40076    435.18775   -221.87374   -4897.9531 
37660000    63.874124   -5120.5833   -4997.3967   -5120.5833            0    2156.7154    19.937375     19.86358    20.758192    8220.8176    2082.1808     2508.245    1879.7205   -207.19922   -557.71796   -696.86889   -4738.8234 
37661000     63.56468   -5124.8375   -5002.2477   -5124.8375            0    2477.1296    19.935018    19.922003    20.687465    8215.9337    2879.5874    2612.8177    1938.9836   -452.56379    156.27748    -332.6602   -4705.4356 
37662000    63.873636   -5121.8129   -4998.6273   -5121.8129            0    1049.6623    19.965743    20.054357    20.609957    8252.2295    1532.0693      118.201    1498.7164   -43.657389   -377.66732   -39.082119   -4872.3001 
37663000    67.947795   -5126.7979   -4995.7549   -5126.7979            0    2392.9325    19.955812    19.899528    20.697239    8219.1062    2590.3764    2320.3506    2268.0705   -266.59836      320.829    138.16274   -4708.9207 
37664000    63.886477   -5125.5477   -5002.3372   -5125.5477            0    2066.9714    19.896416    19.886344    20.695767    8188.6314    1891.8911    2484.4088    1824.6143   -280.57627   -631.79068    251.60485   -4755.4937 
37665000    65.945102   -5127.0591   -4999.8784   -5127.0591            0    1761.2417    19.991483     19.86727    20.707268    8224.4337    382.08113     3198.782    1702.8619   -152.14731    699.15232   -130.47535   -4788.6264 
37666000    66.255241   -5119.7127   -4991.9339   -5119.7127            0    2538.1575    19.946414    19.871321    20.616822    8171.7163    3540.6184    1692.6585    2381.1956    30.513178   -159.86185    376.52538   -4689.4462 
37667000    65.611323   -5123.5293   -4996.9924   -5123.5293            0    2092.7186    19.974071    19.825894    20.743818     8214.631    1986.3176    2328.2596    1963.5786    46.768161   -325.74044    370.37884   -4746.2805 
37668000    66.495447   -5117.9532   -4989.7111   -5117.9532            0    1106.5093    19.917943    19.961152    20.821197     8278.197    1639.1335    794.49249    885.90201    425.02008    234.95138    77.712623   -4856.1234 
37669000    67.985327   -5122.0533   -4990.9379   -5122.0533            0    2060.7288    19.934486    19.937356     20.69554    8225.2551    2876.7578    955.84123    2349.5873   -237.84824    147.33912    465.65256   -4743.7392 
37670000    65.944296    -5125.674   -4998.4949    -5125.674            0    2463.3427    19.835284    19.991941    20.748609    8227.7747    2733.8372    2347.5888     2308.602   -77.272831    188.36473    131.62451   -4702.9094 
37671000    66.139586    -5122.502   -4994.9462    -5122.502            0    1446.9505    19.917273    20.001888    20.722293    8255.4104     1457.346    1174.4312    1709.0743   -136.73827   -493.10551    652.83603   -4820.7381 
37672000    63.544395   -5127.0247    -5004.474   -5127.0247            0    1923.9601     19.87488    19.933088    20.801575    8240.9128    3400.1726    869.65859    1502.0491    72.760436     354.0421    806.84636   -4773.2424 
37673000    63.280125   -5128.9269   -5006.8858   -5128.9269            0    1127.4123    20.038947    19.897945    20.739141    8269.3977    705.72661    1526.9782     1149.532   -25.189673    73.162309   -271.74443   -4870.9191 
37674000    64.729795   -5125.6814   -5000.8446   -5125.6814            0    2547.9935    19.972456    19.906981    20.698983    8229.7361    1312.0727    2996.4437    3335.4643   -104.32765    182.61838   -317.70317   -4695.0286 
37675000     64.54133   -5124.6012   -5000.1279   -5124.6012            0    2194.0894    19.953217    19.935586    20.654168     8215.796    2706.6799    2207.2892    1668.2992   -8.2282727    549.58046   -570.29025   -4737.2343 
37676000    64.162011   -5128.1378    -5004.396   -5128.1378            0    2611.2431    20.006717    19.882422    20.639298    8209.9409    2291.8949    3178.4868    2363.3476    170.09642   -176.03248   -59.746316   -4691.7425 
37677000    67.040919   -5125.1645   -4995.8705   -5125.1645            0    2332.7579    19.859272    19.958033    20.782837    8237.3193     2943.781    2261.0002    1793.4925   -301.17318    1084.6507    186.66594   -4715.6296 
37678000    66.284386   -5124.9274   -4997.0924   -5124.9274            0    1932.1244    19.941817    19.913177     20.75973     8243.791    1941.4783    1829.5537    2025.3411   -224.65007    330.44121   -401.62835   -4764.7984 
37679000    64.770998   -5115.3228   -4990.4065   -5115.3228            0    2340.0338    19.969543     19.87045    20.691516     8210.472    1872.1975     2820.537    2327.3667   -360.22066    21.487953    510.59804   -4710.2078 
37680000    69.205571   -5125.2613   -4991.7926   -5125.2613            0    1626.7293    19.982385     19.80543    20.738393    8207.4206     1800.881    1658.0456    1421.2613   -290.10177    39.927246    383.82169   -4797.0783 
37681000    65.202313   -5127.9286   -5002.1805   -5127.9286            0    2962.2407    19.935756    19.910077    20.684516    8210.1481    2734.0659     3299.563    2853.0932    9.4232946    412.33458    429.18993   -4647.4919 
37682000    65.462334   -5122.6951   -4996.4455   -5122.6951            0    2626.3231    19.942887    19.975015    20.615808    8212.5024    2552.6655    1460.2947    3866.0091   -308.70933   -370.00704   -370.40353   -4681.8883 
37683000    61.243579   -5123.3257   -5005.2123   -5123.3257            0    1679.3197    19.940704    19.868657    20.736711    8215.7813    1851.4741    1954.9452    1231.5398   -151.47504    860.35468   -797.77165   -4803.9983 
37684000    63.610355    -5128.988   -5006.3101    -5128.988            0    1738.1988    19.915832     19.83849    20.859984    8241.7805    2240.2639    1360.0924    1614.2402    200.96138   -327.85749    266.43683   -4797.3822 
37685000    65.686367      -5117.7   -4991.0183      -5117.7            0     2610.896    19.951554    19.875102    20.658536    8191.9186    2514.2634    2912.8102    2405.6143    -381.7517    777.37072    271.97118   -4679.0927 
37686000    66.678383   -5119.9493   -4991.3545   -5119.9493            0    2450.9872     19.90108    19.870573    20.713336    8191.0027    1969.9966    2878.5233    2504.4416   -209.37185    203.93285   -167.13229    -4698.566 
37687000    66.449724   -5129.7836   -5001.6297   -5129.7836            0    2861.9964    19.840272    19.838451    20.739484    8163.0666    1394.3799    3738.9405    3452.6688   -206.12232     305.8074   -36.925011   -4660.9092 
37688000    65.171254   -5119.3693   -4993.6811   -5119.3693            0    2792.0499    19.939005    19.937729      20.5509    8169.7738     3256.337    1533.3297     3586.483   -495.10775    525.19627   -1064.4598   -4661.0145 
37689000    62.305492   -5127.1261   -5006.9647   -5127.1261            0    1357.1877       19.833     19.92466     20.77487    8209.5176     1723.064    1972.2554    376.24385   -63.072495    466.00383    276.00037   -4844.4721 
37690000    67.505018   -5117.7503   -4987.5612   -5117.7503            0    2470.6067    19.858459     19.98023    20.564289    8159.4278    2672.1039    1745.3614    2994.3547   -179.74808    959.61853    -326.9398   -4693.5667 
37691000    64.803898   -5123.6535   -4998.6738   -5123.6535            0    2030.9231    19.907634    19.964998    20.667804      8214.54    1911.3427    1794.5474    2386.8791    95.359117    240.87927     515.2149   -4755.3679 
37692000    67.410537   -5126.0087   -4996.0018   -5126.0087            0    2897.6401    19.796477    19.947666    20.740809    8190.4112    3473.5938    2850.1004    2369.2262    230.51117   -16.555002   -61.180322   -4649.8823 
37693000     66.22844   -5126.6463   -4998.9192   -5126.6463            0    2587.4456    19.901484    19.931708    20.746114    8229.3726    2466.1184    2486.5527    2809.6656    108.31017    320.54409    787.55597   -4688.3818 
37694000    67.802639   -5123.8092   -4993.0462   -5123.8092            0    2273.6106    19.823364    19.968677    20.756639    8216.4399    2059.3051    2520.4184    2241.1084   -323.58622    218.32164    124.29405   -4720.6032 
37695000    63.657869   -5120.8861   -4998.1165   -5120.8861            0    2655.8183    19.857989    19.888702    20.770987    8203.4938    3276.2879    2119.8224    2571.3447   -405.55527    773.42164   -310.01497   -4680.3756 
37696000    64.254158    -5122.327   -4998.4075    -5122.327            0    2810.9504    19.922656    19.968586    20.531384    8167.9445    2338.8647    2425.3786     3668.608   -274.97607    4.9187544   -10.574265    -4663.564 
37697000    63.098787   -5118.2568   -4996.5655   -5118.2568            0    2919.1383    19.929607    19.986434     20.56001    8189.4994    2781.1073    2956.3808    3019.9268     79.54548   -219.97492   -50.891881   -4647.9169 
37698000    68.221433   -5129.7185   -4998.1477   -5129.7185            0    2273.0749     19.86697    19.923568     20.74008    8209.3576    2325.8199    2476.6084    2016.7963    316.38544   -207.12228    550.49061   -4726.0037 
37699000    66.849224    -5122.404   -4993.4796    -5122.404            0    1880.0991    19.982916    19.977984    20.686532    8258.4436    1493.1608    1550.7249    2596.4116    12.034489     240.8342    67.346578   -4767.0388 
37700000    64.545388   -5128.5311   -5004.0499   -5128.5311            0    1997.0248    20.014215    19.873271    20.787115    8268.0319    2138.3355    1638.1798    2214.5592    140.47036    578.90164    74.577707   -4763.2471 
37701000    64.949412   -5125.0888   -4999.8284   -5125.0888            0    3172.4071    19.980943    19.850992    20.623421    8180.1056      4098.61     1944.572    3474.0393   -130.57855   -527.36696   -263.11181   -4621.3652 
37702000    66.971674   -5129.4207   -5000.2602   -5129.4207            0    1366.3995    19.961606    19.950235    20.718207    8250.7924    735.46749    1579.3354    1784.3956    183.37477   -138.79849    251.01665   -4835.8422 
37703000    61.616795   -5122.7018   -5003.8686   -5122.7018            0    1734.9098    20.023761    19.980746    20.512988    8207.0346    2150.5364    461.92081    2592.2722   -5.9336703    1123.7766    242.77782   -4796.2152 
37704000    62.312267   -5126.6285   -5006.4541   -5126.6285            0    1234.0034    20.062216    19.866034     20.77056    8278.2449    269.91861    1776.8531    1655.2386   -87.988928   -194.92288   -99.921494   -4857.4732 
37705000     62.81045   -5126.7474   -5005.6122   -5126.7474            0     2634.458    19.903069     19.87223    20.724042    8196.7393    2770.2094    3015.3083    2117.8563   -107.44103   -384.05995   -194.20295   -4690.6863 
37706000    63.036186   -5125.3096    -5003.739   -5125.3096            0     2424.149    19.963845    19.894677    20.616239    8188.2394    2371.9252    2307.1352    2593.3865   -117.52631   -71.714274   -211.82064   -4714.2542 
37707000    65.270723   -5126.9591   -5001.0791   -5126.9591            0    1127.9253    19.936739    19.939354    20.783188    8261.8512    2062.2317    244.11681    1077.4273   -14.869782    504.03715   -220.06317   -4865.1746 
37708000      68.1942   -5127.7766   -4996.2584   -5127.7766            0    1651.5473    19.932119    19.918182    20.674455    8207.9979    1326.8183    1791.4569    1836.3668   -290.75634   -30.755682    -420.6997   -4798.5595 
37709000    65.131289   -5123.5063   -4997.8951   -5123.5063            0     2259.671    19.831394    19.940738    20.769758    8213.4557    3528.6309     1223.874    2026.5081   -66.954098    189.99529    88.005053   -4727.2208 
37710000    66.424314   -5116.6877   -4988.5829   -5116.6877            0    2943.6062    19.927213    19.895325    20.665524    8193.0203    4007.9899    1779.8962    3042.9326    218.58887    638.71482     619.4099   -4636.8608 
37711000    63.094669   -5118.9422   -4997.2588   -5118.9422            0    1985.4353    19.961478    19.907391    20.643597    8203.3723    2066.9807    1778.6177    2110.7075     154.8298    384.98032     426.3459   -4759.7258 
37712000     63.29963   -5121.3968   -4999.3181   -5121.3968            0    1984.0494    19.976924    19.956256    20.659349    8236.1511    1740.1351    1572.0628    2639.9504   -387.48932    70.483068    1098.9117   -4761.0024 
37713000    66.532656   -5120.6626   -4992.3488   -5120.6626            0    1853.3218    19.893826    19.927689    20.760258    8230.1549    2217.1801    1588.9362    1753.8491    221.60212    655.85411   -150.91986   -4769.8976 
37714000    64.394362   -5119.4807   -4995.2908   -5119.4807            0    2346.4718    19.941846     19.90439    20.703529    8217.8579    1327.2593    3244.0461      2468.11    6.6902797    383.86864    278.77297   -4714.0684 
37715000     60.90445   -5127.9013   -5010.4419   -5127.9013            0    1945.8195    19.911719    19.959224    20.658531    8210.1642    1592.6222    2153.3058    2091.5306   -41.813406   -241.83692   -333.16163   -4777.4557 
37716000    66.954798   -5131.9617   -5002.8338   -5131.9617            0    1694.8005    19.913528    19.838817    20.769213    8205.1027    2380.3381    1804.1216     899.9418     206.8416    708.57394    40.702687   -4800.0289 
37717000    62.446592    -5127.831   -5007.3975    -5127.831            0    2087.9454      20.0039    19.836405    20.710822     8218.167    1897.1661    2374.1266    1992.5434    156.63874    -165.0382    488.24572   -4757.1499 
37718000     67.21411   -5124.0514   -4994.4233   -5124.0514            0     2140.923    19.967428    19.889739    20.735614    8235.0858     1498.457    2816.7689    2107.5431   -397.77263   -135.66648    832.60993   -4737.2978 
37719000    64.754349   -5119.4303   -4994.5461   -5119.4303            0    2996.4361    19.912563    19.829114    20.708434    8176.6938    3036.1747    3350.3203    2602.8131   -446.99626    347.07285      115.698    -4637.225 
37720000    65.426414     -5131.22   -5005.0397     -5131.22            0    2501.9234    19.983293    19.945376    20.583627    8204.1045    2492.8552    1808.4882     3204.427   -38.096279    276.48772    125.61251   -4705.6884 
37721000    65.667379   -5127.2947   -5000.6497   -5127.2947            0     1983.733    19.956664    19.832398    20.780569    8224.7105    1699.4983    2700.4781    1551.2226   -323.70337    70.736675    45.529797    -4762.703 
37722000     64.65332   -5127.1426   -5002.4532   -5127.1426            0    2720.4519    20.005955    19.884631    20.588199    8190.2125    2047.7222    3319.0783    2794.5553   -222.63248    64.819582     -267.353   -4677.5065 
37723000    65.039195   -5129.8018   -5004.3682   -5129.8018            0    2123.5593    19.927673    19.925712    20.793579    8256.5704    1953.7715    2426.6057    1990.3008    -207.7749    12.965912    654.62943   -4748.6628 
37724000    65.626533   -5127.0558   -5000.4895   -5127.0558            0    1736.4159    20.052263    19.869414    20.698718    8246.9223    1360.2765    1565.6575    2283.3138    19.544986    390.64547   -245.10153   -4791.6457 
37725000    63.525785   -5126.7695   -5004.2546   -5126.7695            0    1869.6534    19.901219     19.85416    20.718882    8186.4857     2310.661    2014.7838    1283.5155    422.06917   -219.78671   -770.99827   -4781.0339 
37726000    66.639525   -5128.4853   -4999.9654   -5128.4853            0    2701.3509    19.966548    19.907721    20.557965    8171.5538    2585.5948    2330.8508    3187.6072   -637.30801    331.52275   -565.73156   -4678.0353 
37727000    70.876438   -5117.3659   -4980.6748   -5117.3659            0    3126.1589    19.995623    19.758429    20.737061    8192.8416    3486.7543     3575.039    2316.6833   -486.88459    328.38742    -358.8504   -4607.1482 
37728000    68.069446   -5122.8608   -4991.5832   -5122.8608            0    1677.6206    19.948497      19.9268    20.672869    8217.6658    2028.4175    1227.3268    1777.1174   -492.56513     1040.152   -77.907785   -4790.5267 
37729000    66.551525   -5122.2265   -4993.8762   -5122.2265            0    2644.1456    19.814064     19.95726    20.664146    8171.3147    2716.3832    1985.3998    3230.6539   -14.786332    1784.6443   -342.82702   -4678.7728 
37730000     69.12022   -5126.7322   -4993.4281   -5126.7322            0    1707.1963    19.818669    19.998104    20.754292     8225.669    2373.2574    1033.6355     1714.696   -98.285593   -9.8396144    573.65743   -4788.6278 
37731000    69.643327   -5127.3274   -4993.0144   -5127.3274            0     2982.245    19.793272    19.988499    20.686948    8184.5386    3679.0735    1854.6351    3413.0265   -102.05167     70.11029   -119.00414   -4637.0444 
37732000    64.699915   -5120.4411   -4995.6618   -5120.4411            0    2222.1127    19.747215    19.946179    20.866876    8219.0763    2798.3538    1996.3132    1871.6712   -262.40305    51.212243    163.41401   -4729.3043 
37733000    64.822713   -5125.2023   -5000.1863   -5125.2023            0    2979.4317    19.846998    19.812229    20.824005     8188.275    3041.4766    4220.2303    1676.5884   -262.81855    98.877014    143.92696   -4644.3897 
37734000    64.316369   -5116.9802   -4992.9407   -5116.9802            0    2269.3155    19.899196     19.89691    20.745862    8213.9613    2139.2076    2166.3899     2502.349   -35.660244     417.9957   -233.13963   -4721.0944 
37735000    63.488674   -5125.3885   -5002.9452   -5125.3885            0     2155.777    19.884178    19.869461    20.744615    8195.9461    3003.1776    1844.0233      1620.13   -88.292033    847.62748    233.93721   -4745.2664 
37736000    62.890671   -5123.0939    -5001.804   -5123.0939            0    1984.9909     19.93934    19.898123    20.640067    8189.0586    2422.7994      1596.24    1935.9333   -530.89044    607.33609    485.07124   -4764.7385 
37737000     68.83793   -5131.0644   -4998.3047   -5131.0644            0    2368.5316    19.874287    19.981855    20.629853    8192.6329     2854.146    1585.4867    2665.9621   -244.04541   -606.05334   -440.80634   -4715.3098 
37738000    66.780028   -5121.6358   -4992.8449   -5121.6358            0    2345.7485     20.04982    19.836758    20.594054    8190.7378    944.60614    3563.0339    2529.6056    3.2596445    180.29848    101.39986    -4712.637 
37739000    66.292605   -5128.9641   -5001.1132   -5128.9641            0      1496.95    20.016352    19.856638    20.756994    8250.0219    889.84555    2338.4208    1262.5835   -174.39026   -758.31501    508.98413    -4821.003 
37740000    66.368461    -5124.991   -4996.9938    -5124.991            0    1599.7814    19.940605    19.962825     20.70402    8241.6658    1096.9394    2376.0921    1326.3127   -104.47447    372.61311    362.23808   -4804.7061 
37741000    66.218507   -5132.6947   -5004.9868   -5132.6947            0    1905.5352    19.993899    19.889796    20.700329    8231.9946    2442.7757    1814.7202    1459.1096   -140.12848   -247.27002    536.11972   -4776.2174 
37742000    63.704819   -5122.4267   -4999.5666   -5122.4267            0    2091.3134    19.890883    19.872302    20.806838     8224.478    1975.5301    2809.0298    1489.3801   -206.22864    91.169096     36.48748   -4748.7228 
37743000    65.422678   -5119.9352   -4993.7621   -5119.9352            0    2523.1352    20.047945     19.87182    20.586269    8201.3466    1828.7192    3408.7861    2331.9004    354.54186   -436.23704   -51.078223   -4691.9744 
37744000    68.371984    -5126.479   -4994.6178    -5126.479            0    1745.9144    19.939213    19.900071    20.729142    8225.1527    1331.5035    2092.4525    1813.7871   -108.34493   -251.07378   -309.25307    -4785.186 
37745000    69.342994   -5121.1708    -4987.437   -5121.1708            0    2401.5964    19.979787    19.941561    20.535895    8182.0784    2906.7633    1683.4029    2614.6231   -172.08318    454.75387    36.006446   -4700.8612 
37746000    67.477523   -5124.2137   -4994.0777   -5124.2137            0    2483.6749    20.016053    19.873597    20.600453    8194.6741    2494.8225    1999.2943    2956.9078    -145.1252    162.29309    14.871871   -4697.2514 
37747000     66.34601   -5124.9369    -4996.983   -5124.9369            0    3142.3049    19.917084    19.804423    20.712883    8170.1217    3751.5332    3378.2598    2297.1218   -184.66948    261.71265    120.27576   -4622.5684 
37748000    66.617016   -5122.9096   -4994.4331   -5122.9096            0    2367.0099    19.936259    19.882264    20.701395    8205.5769     2087.489    3483.6596    1529.8812   -147.16353    73.527061    209.77658   -4711.1732 
37749000    62.665349   -5123.7581   -5002.9027   -5123.7581            0    2255.3231    19.873719    19.928242     20.68663    8192.9043    2705.3971    1575.6143     2484.958   -65.385971    337.94637   -1008.8286   -4733.4251 
37750000    66.839352   -5114.3701   -4985.4648   -5114.3701            0    2653.4623    19.822231    19.960212    20.790113    8225.7312    3820.3064    1424.4111    2715.6694    106.94333    942.24453   -94.187799   -4667.1453 
Loop time of 343.421 on 64 procs for 250000 steps with 972 atoms

Performance: 125.793 ns/day, 0.191 hours/ns, 727.970 timesteps/s
195.9% CPU use with 32 MPI tasks x 2 OpenMP threads

MPI task timing breakdown:
Section |  min time  |  avg time  |  max time  |%varavg| %total
---------------------------------------------------------------
Pair    | 24.763     | 34.41      | 49.947     |  91.7 | 10.02
Bond    | 1.0189     | 1.2307     | 1.9386     |  15.6 |  0.36
Kspace  | 144.44     | 161.55     | 169.63     |  45.8 | 47.04
Neigh   | 0.10065    | 0.10458    | 0.1144     |   1.3 |  0.03
Comm    | 56.976     | 62.738     | 65.933     |  28.3 | 18.27
Output  | 0.46982    | 0.47013    | 0.4715     |   0.0 |  0.14
Modify  | 68.265     | 69.579     | 73.042     |  11.9 | 20.26
Other   |            | 13.34      |            |       |  3.88

Nlocal:        30.3750 ave          37 max          23 min
Histogram: 2 0 5 3 3 8 2 5 1 3
Nghost:        2664.16 ave        2697 max        2636 min
Histogram: 2 1 4 6 4 6 6 1 0 2
Neighs:        9582.62 ave       13001 max        6430 min
Histogram: 2 3 2 2 6 10 3 1 2 1

Total # of neighbors = 306644
Ave neighs/atom = 315.47737
Ave special neighs/atom = 2.0000000
Neighbor list builds = 307
Dangerous builds = 0

unfix		3
unfix		2
unfix		1

write_data	data.final.${pid}
write_data	data.final.1
System init for write_data ...
PPPM initialization ...
  extracting TIP4P info from pair style
  using 12-bit tables for long-range coulomb (../kspace.cpp:340)
  G vector (1/distance) = 0.3727131
  grid = 24 24 25
  stencil order = 5
  estimated absolute RMS force accuracy = 0.0033703118
  estimated relative force accuracy = 1.0149594e-05
  using double precision FFTW3
  3d grid and FFT values/proc = 3458 576
Last active /omp style is kspace_style pppm/tip4p/omp
WARNING: Not all mixed pair coeffs generated from mixing. Use write_data with 'pair ij' option to store all pair coeffs. (../write_data.cpp:312)

write_restart   restart.lmp.${pid}
write_restart   restart.lmp.1
System init for write_restart ...
PPPM initialization ...
  extracting TIP4P info from pair style
  using 12-bit tables for long-range coulomb (../kspace.cpp:340)
  G vector (1/distance) = 0.3727131
  grid = 24 24 25
  stencil order = 5
  estimated absolute RMS force accuracy = 0.0033703118
  estimated relative force accuracy = 1.0149594e-05
  using double precision FFTW3
  3d grid and FFT values/proc = 3458 576
Last active /omp style is kspace_style pppm/tip4p/omp
Total wall time: 0:05:43
