LAMMPS (30 Jul 2021)
Processor partition = 0
  using 2 OpenMP thread(s) per MPI task
using multi-threaded neighbor list subroutines
variable        pid world 0 1
variable        phase world IceII IceVI

shell cd ${phase}
shell cd IceII
include Restart.lmp
echo both
log log.lammps
#include		in.partitions
include		in.temp
variable        temperature equal 100.49
variable	tempDamp equal 100.0
include		in.pressure
variable        pressure equal 7830.3
variable        pressureDamp equal 1000.0 # This is 1 ps
include		in.seed
variable        seed equal 745823

units		real
atom_style	full
box tilt large
read_restart	restart.lmp.${pid}
read_restart	restart.lmp.0
Reading restart file ...
  restart file = 30 Jul 2021, LAMMPS = 30 Jul 2021
  restoring atom style full from restart
  triclinic box = (-10.617348 -9.1012892 0.28211411) to (12.597348 12.091287 21.577885) with tilt (-9.1008414 1.8735369 2.8962984)
  4 by 2 by 4 MPI processor grid
  restoring pair style lj/cut/tip4p/long/omp from restart
  restoring bond style harmonic/omp from restart
  restoring angle style harmonic/omp from restart
  1296 atoms
  864 bonds
  432 angles
Finding 1-2 1-3 1-4 neighbors ...
  special bond factors lj:    0        0        0       
  special bond factors coul:  0        0        0       
     2 = max # of 1-2 neighbors
     1 = max # of 1-3 neighbors
     1 = max # of 1-4 neighbors
     2 = max # of special neighbors
  special bonds CPU = 0.002 seconds
  read_restart CPU = 0.013 seconds
include 	in.setup
variable	out_freq equal 1000
variable	out_freq2 equal 10000
variable	out_freq3 equal 1000

timestep	2.0

neigh_modify    delay 7 every 1

include		in.tip4p
# This is TIP4P/Ice

# create groups ###
group ox type 2
432 atoms in group ox
group hy type 1
864 atoms in group hy

# set charges - beside manually ###
set group ox charge -1.1794
Setting atom values ...
  432 settings made for charge
set group hy charge 0.5897
Setting atom values ...
  864 settings made for charge

# ### TIP3P Potential Parameters ###
pair_style lj/cut/tip4p/long/omp 2 1 1 1 0.1577 8.5
pair_coeff 1 1*2 0.000 0.000
pair_coeff 2 2 0.21084 3.1668
bond_style  harmonic
bond_coeff  1 450 0.9572
angle_style harmonic
angle_coeff 1 55 104.52
kspace_style pppm/tip4p/omp 1.0e-5
pair_modify tail yes

thermo          ${out_freq}
thermo          1000
thermo_style    custom step temp pe etotal epair emol press lx ly lz vol pxx pyy pzz pxy pxz pyz enthalpy

restart 	${out_freq3} restart.lmp.${pid} restart2.lmp.${pid}
restart 	1000 restart.lmp.${pid} restart2.lmp.${pid}
restart 	1000 restart.lmp.0 restart2.lmp.${pid}
restart 	1000 restart.lmp.0 restart2.lmp.0


include         in.dump
dump            myDump all atom ${out_freq2} dump.water.${pid}
dump            myDump all atom 10000 dump.water.${pid}
dump            myDump all atom 10000 dump.water.0
dump            myDump2 all dcd ${out_freq2} dump.dcd
dump            myDump2 all dcd 10000 dump.dcd
dump_modify     myDump append yes
dump_modify     myDump2 append yes


variable natoms 	equal  "count(all)"                        # NUMBER ATOMS
variable H      	equal  "enthalpy/v_natoms"                 # ENTHALPY-per-atom
variable Vol      	equal  "vol/v_natoms"                 # volume-per-atom
fix AVG all 		ave/time ${out_freq} 1 ${out_freq} v_Vol v_H file vol_enthalpy.dat
fix AVG all 		ave/time 1000 1 ${out_freq} v_Vol v_H file vol_enthalpy.dat
fix AVG all 		ave/time 1000 1 1000 v_Vol v_H file vol_enthalpy.dat


timer           timeout 10:00:00 every 1000
New timer settings: style=normal  mode=nosync  timeout=10:00:00

fix 		1 all shake 1e-6 200 0 b 1 a 1
Finding SHAKE clusters ...
       0 = # of size 2 clusters
       0 = # of size 3 clusters
       0 = # of size 4 clusters
     432 = # of frozen angles
  find clusters CPU = 0.000 seconds
fix             2 all nph tri ${pressure} ${pressure} ${pressureDamp}
fix             2 all nph tri 7830.3 ${pressure} ${pressureDamp}
fix             2 all nph tri 7830.3 7830.3 ${pressureDamp}
fix             2 all nph tri 7830.3 7830.3 1000
fix             3 all temp/csvr ${temperature} ${temperature} ${tempDamp} ${seed}
fix             3 all temp/csvr 100.49 ${temperature} ${tempDamp} ${seed}
fix             3 all temp/csvr 100.49 100.49 ${tempDamp} ${seed}
fix             3 all temp/csvr 100.49 100.49 100 ${seed}
fix             3 all temp/csvr 100.49 100.49 100 745823


run             250000
PPPM initialization ...
  extracting TIP4P info from pair style
  using 12-bit tables for long-range coulomb (../kspace.cpp:340)
  G vector (1/distance) = 0.36831027
  grid = 30 40 32
  stencil order = 5
  estimated absolute RMS force accuracy = 0.004360827
  estimated relative force accuracy = 1.3132501e-05
  using double precision FFTW3
  3d grid and FFT values/proc = 7888 1280
Last active /omp style is kspace_style pppm/tip4p/omp
Neighbor list info ...
  update every 1 steps, delay 7 steps, check yes
  max neighbors/atom: 2000, page size: 100000
  master list distance cutoff = 10.8154
  ghost atom cutoff = 10.8154
  binsize = 5.4077, bins = 7 5 4
  1 neighbor lists, perpetual/occasional/extra = 1 0 0
  (1) pair lj/cut/tip4p/long/omp, perpetual
      attributes: half, newton on, omp
      pair build: half/bin/newton/tri/omp
      stencil: half/bin/3d/tri
      bin: standard
Setting up Verlet run ...
  Unit style    : real
  Current step  : 4000000
  Time step     : 2
  Walltime left : 9:59:59.93
Per MPI rank memory allocation (min/avg/max) = 10.66 | 10.67 | 10.68 Mbytes
Step Temp PotEng TotEng E_pair E_mol Press Lx Ly Lz Volume Pxx Pyy Pzz Pxy Pxz Pyz Enthalpy 
 4000000    106.20054   -6762.9359   -6489.7415   -6762.9359            0    8022.4893    23.214696    21.192576    21.295771    10477.077    7472.8445    7214.3349    9380.2884   -289.40213    7.7649352   -340.91771   -5263.9259 
 4001000    98.269911   -6751.2132   -6498.4198   -6751.2132            0    7278.8441    23.155139    21.251979     21.40674    10534.097    7672.5626    6547.0506    7616.9191   -701.32057   -960.31173   -300.00613   -5380.1783 
 4002000    104.59067   -6762.6552    -6493.602   -6762.6552            0    7889.0263    23.062763    21.200422    21.463065    10494.158    7121.0509    7547.0526    8998.9753    131.27445    483.54258    198.46425    -5286.214 
 4003000    97.709179   -6744.2463   -6492.8954   -6744.2463            0    8790.9731    23.068281     21.17283    21.438288    10470.906    9476.6022    8433.9792    8462.3379    1178.9251    194.60229   -688.28834   -5150.4486 
 4004000    93.847309   -6755.7478   -6514.3313   -6755.7478            0    6746.1876     23.12619    21.313355    21.370387    10533.393    6504.4749      6427.17     7306.918    48.933671    216.48582   -317.04676   -5477.9905 
 4005000    102.20287   -6757.2827   -6494.3721   -6757.2827            0    7737.9729    23.026372    21.192522    21.476771    10480.383    8484.4991    7148.6966     7580.723   -297.10831    477.79603    358.43279   -5311.6567 
 4006000    104.62052   -6755.7848   -6486.6549   -6755.7848            0    7787.5182    23.072539    21.105994    21.540165    10489.389    7577.6524     8687.001    7097.9011    888.30117    1084.6719    151.86485   -5295.3439 
 4007000    97.034218   -6747.2425   -6497.6279   -6747.2425            0    9093.6314    23.039804    21.173061    21.387205    10433.174    8463.1461    9911.6011    8906.1469    63.536166   -766.08077    292.39936   -5113.9669 
 4008000    99.419259   -6748.9345   -6493.1845   -6748.9345            0    7779.4344    23.134201    21.186129    21.416646    10496.816    7924.0641    7736.2737    7677.9654   -197.33859    746.43482   -201.18315   -5302.2675 
 4009000    105.27706     -6751.46   -6480.6411     -6751.46            0    7622.6891    23.036524    21.242559    21.488042    10515.274    8361.5691    7001.5455    7504.9527    459.99076    314.74279    205.55411   -5311.6675 
 4010000    100.73965    -6744.625   -6485.4784    -6744.625            0    9202.5901    23.055362    21.110347    21.498461    10463.445    9376.2451    10162.559    8068.9663   -473.45453   -974.39962   -956.21036   -5081.1759 
 4011000    100.49493   -6755.2563   -6496.7392   -6755.2563            0    7611.0359     23.21579    21.131911    21.415734    10506.431    7282.0943    7579.4127    7971.6007   -109.71282   -381.03831    563.35642   -5330.5343 
 4012000    100.49651   -6738.8891    -6480.368   -6738.8891            0    7449.2941    23.243769    21.202057    21.340515    10516.941    7253.3966    7037.2976    8057.1881   -291.87375   -594.48062    749.93972   -5337.8043 
 4013000    102.33349   -6743.9799   -6480.7332   -6743.9799            0    8364.0915    22.967598    21.316338     21.40617    10480.141    9225.1419     7150.714    8716.4186    333.11666   -1358.5156    123.27252   -5202.3479 
 4014000     95.82933   -6753.7632   -6507.2481   -6753.7632            0    8277.8961     22.94694    21.307267    21.453505    10489.403    8705.1795    8351.1957    7777.3131   -509.57425   -41.853451   -990.82302   -5240.9188 
 4015000    102.33984   -6757.4164   -6494.1534   -6757.4164            0    8288.4397    23.063671    21.287012    21.345051    10479.495    8924.9809    8023.5768    7916.7615   -180.96789   -176.63577    124.64548   -5227.4089 
 4016000    102.31256   -6758.6908    -6495.498   -6758.6908            0    8107.5358    23.229804    21.160974    21.314827    10477.629    7499.8254    8594.7345    8228.0474    277.10336   -84.614122    107.40095   -5256.6222 
 4017000    98.998712   -6748.4337   -6493.7655   -6748.4337            0    8173.4479    23.183103    21.077599    21.477965    10495.082    7843.1235    9602.0184    7075.2019    467.74634   -376.86378   -696.72817   -5242.7376 
 4018000    98.138494   -6765.0435   -6512.5882   -6765.0435            0    7181.2289      23.1123    21.244935       21.446      10530.4    7766.5937    6787.9822     6989.111   -135.07426   -189.69658   -167.07974   -5409.7304 
 4019000    97.671251   -6745.9499   -6494.6965   -6745.9499            0      7927.83    23.018971     21.39678    21.251704    10467.141     8081.514    8001.0346    7700.9413    875.24934   -696.76188   -1044.8581   -5284.4933 
 4020000    101.75575   -6762.7177   -6500.9572   -6762.7177            0    8179.8474    23.000664    21.317874    21.389401    10487.764    8229.6975    7704.8473    8604.9973   -474.50664   -543.65318   -38.588084   -5249.8227 
 4021000    98.160046   -6765.0381   -6512.5273   -6765.0381            0    7740.2283    23.065292    21.182394    21.507778    10508.229    7557.7909    7683.8526    7979.0415    314.67087   -162.42291   -145.04584   -5326.3238 
 4022000    100.39305   -6753.5068   -6495.2518   -6753.5068            0    7109.9503    23.288162    21.113997    21.399677    10522.353     6538.997    7399.1234    7391.7306    125.93178   -725.11465   -295.31857    -5404.175 
 4023000    102.16971   -6765.5421   -6502.7167   -6765.5421            0    7514.4052    23.176503    21.175565    21.412313    10508.639    7013.3466       7798.4    7731.4691   -94.164665   -132.10407    677.48312   -5351.0761 
 4024000    108.15768   -6744.0697   -6465.8407   -6744.0697            0    8257.9341    22.996924    21.221235    21.450177    10468.182    9291.3323    8035.6562    7446.8138   -239.78883    171.02116    -329.0694   -5205.1209 
 4025000    103.97487   -6745.0969   -6477.6279   -6745.0969            0    8000.2184    23.052542    21.315602    21.371272     10501.39    8162.0535    6551.2663    9287.3354    474.62826    927.69392   -54.860659   -5252.3784 
 4026000    100.56468   -6741.3863   -6482.6898   -6741.3863            0     8603.123     22.96879    21.341325    21.363281    10471.947    9411.5711    7732.1892    8665.6088    1.5836378    -116.3334   -193.76221   -5168.7984 
 4027000    102.48956    -6752.356   -6488.7079    -6752.356            0    7560.7079    23.071747    21.158453     21.51476    10502.698    8798.4408    7240.0264    6643.6566   -760.87342   -806.74844    -433.6734   -5330.6261 
 4028000    97.799471   -6761.7848   -6510.2017   -6761.7848            0    7292.1637    23.267315    21.110471    21.397311    10510.017    6135.5122    7943.2936    7797.6854    28.884195    388.96224     192.0204   -5392.4748 
 4029000    99.825631   -6757.2584    -6500.463   -6757.2584            0    7967.3779    23.143326    21.162691    21.395129      10478.8    8570.7367    7577.7431     7753.654   -711.88392   -1028.4945   -100.51154    -5282.868 
 4030000    105.38894   -6752.2582   -6481.1515   -6752.2582            0    8322.8608    23.029976    21.222465    21.465079    10491.118    8030.0854    8189.2571    8749.2398     75.68648    210.78251    -184.1635   -5207.7355 
 4031000    102.25361   -6749.9909   -6486.9497   -6749.9909            0    7291.9214    23.000925    21.307937    21.475933    10525.403    8499.1913    6146.5293    7230.0437    59.656341    243.76265    181.73441   -5367.6236 
 4032000    104.64486   -6753.4832   -6484.2907   -6753.4832            0    8072.3692    23.057656    21.314479    21.331153     10483.45    7561.5285    7462.9521    9192.6271    433.77508    252.38194    263.10413   -5250.1033 
 4033000    100.17583   -6749.9756   -6492.2794   -6749.9756            0    8822.2195    23.144484    21.121896    21.440007    10481.062    8167.4227    9807.7818    8491.4539   -199.99652    316.99817   -372.53045   -5143.7542 
 4034000    104.12865   -6769.6275   -6501.7629   -6769.6275            0     7895.945    23.178119    21.057796     21.48598     10486.88    7579.2362    8367.0134    7741.5854   -231.36794    717.54764     414.8225    -5294.154 
 4035000    100.50299    -6763.374   -6504.8362    -6763.374            0    7838.7642    23.106469    21.218916    21.383018    10483.971    7563.0222    7685.6121    8267.6582   -459.93315    183.98846   -91.440525   -5306.3051 
 4036000    101.54407   -6762.5018   -6501.2859   -6762.5018            0     7925.126    22.926959    21.333521    21.445081    10489.063    8739.2139    7406.5228    7629.6413    632.87942     817.4225    481.86567   -5288.9618 
 4037000    101.06379   -6752.0258   -6492.0454   -6752.0258            0    7948.6897     22.98508    21.296541    21.435605    10492.786    8753.3451    7428.3503    7664.3736    91.614114   -82.500666    -150.5104    -5275.685 
 4038000     100.0825   -6751.9906   -6494.5345   -6751.9906            0    8168.8659    23.063772    21.190346    21.450777    10483.623    8749.2838    8037.9603    7719.3535   -14.383513   -760.46656    418.70917    -5245.573 
 4039000    103.71147   -6759.0948   -6492.3034   -6759.0948            0    8007.7189    23.234137    21.107535    21.373333    10481.811     6864.493    8528.5214    8630.1425   -540.44626    68.041585     335.2004   -5268.1917 
 4040000    96.585022   -6752.4169   -6503.9578   -6752.4169            0    7399.6886    23.213521    21.129683    21.427418    10510.027    6799.6931    7972.5807    7426.7921    612.50375   -713.65678    -314.1349   -5369.7486 
 4041000    102.00657   -6763.7226    -6501.317   -6763.7226            0    8484.6032    22.942648    21.291554    21.444276    10475.199    9667.4186    8057.0418    7729.3492   -236.66316   -704.19838   -573.79739   -5205.1238 
 4042000    96.470571   -6747.2144   -6499.0497   -6747.2144            0    8493.0881    23.022482    21.254553    21.415626    10479.364    8622.8876    8130.1779    8726.1989    146.33708   -55.574482   -237.13306   -5201.0445 
 4043000    100.16667   -6746.9974   -6489.3247   -6746.9974            0    7454.2713    23.133836     21.28332     21.33501    10504.609    7510.7759    6717.1889    8134.8491   -148.24726   -62.563961   -57.316912   -5347.3383 
 4044000     103.6143   -6760.6594   -6494.1179   -6760.6594            0    7879.8048    23.191419    21.182721    21.391945     10508.95     7557.099    8259.6962    7822.6194    220.50839   -593.95131   -104.74332   -5286.4412 
 4045000    97.139968   -6768.7828   -6518.8961   -6768.7828            0    8309.3461    23.116715    21.072505    21.476546    10461.807    8309.5791    8657.8948    7960.5644   -257.60284    366.44121   -494.38937   -5251.0999 
 4046000    98.300635   -6749.0674    -6496.195   -6749.0674            0    6688.2098    23.123745    21.294025    21.405544    10540.039    6065.2556    6853.1508     7146.223    1655.8907   -164.76253     238.3676   -5468.1124 
 4047000    96.636529   -6749.1714   -6500.5798   -6749.1714            0    8346.0415    22.957903    21.306912    21.379899    10458.234    8181.5316    7855.4625    9001.1305   -611.02078    972.54148    200.78557   -5227.6197 
 4048000    104.33378   -6755.8525   -6487.4602   -6755.8525            0    7822.5087    23.073186    21.239807    21.405535    10490.211    9360.7485    6549.8766    7556.9009   -251.93134    25.950367   -110.74021   -5290.7027 
 4049000    105.16819    -6758.078   -6487.5393    -6758.078            0    7985.6269    23.086232    21.124003    21.522109    10495.765    8285.7815    8234.1865    7436.9126   -32.970441   -328.33301   -391.32609   -5265.1796 
 4050000    105.50271   -6766.2645   -6494.8652   -6766.2645            0    7586.4545    23.136307    21.211269    21.396593    10500.387    7097.2597    7587.8758    8074.2281   -57.219187   -138.17258    533.52636   -5333.0955 
 4051000    104.14293    -6754.564   -6486.6626    -6754.564            0    7864.2367    23.162729    21.205559    21.377715    10500.276    6678.3268    7779.9675    9134.4157   -143.62322    1159.2292   -202.98344   -5282.3668 
 4052000    96.429484   -6746.3869   -6498.3279   -6746.3869            0    8818.0646    22.998015    21.280768    21.362688    10455.229    8853.4944    8637.4384    8963.2609    621.03199    363.69014    31.390375   -5153.7601 
 4053000     101.5834        -6764   -6502.6829        -6764            0    8443.7768     23.06651    21.196834    21.416542    10471.339    7736.4456    9067.3346    8527.5504   -458.18165    63.448208   -1.5449629   -5213.2021 
 4054000    103.79544   -6756.1233   -6489.1159   -6756.1233            0    7825.6845    23.166091    21.133589    21.433133     10493.29    7308.7492    9188.9487    6979.3556    859.53604   -141.25434   -866.51517   -5291.5211 
 4055000    96.813005   -6742.2212   -6493.1756   -6742.2212            0    7206.1607    23.159722    21.140808    21.506986    10530.148    6946.1557    7732.8681    6939.4583   -651.25067    358.14569    494.81474   -5386.5154 
 4056000     101.7953   -6745.6685   -6483.8063   -6745.6685            0    7522.2556    23.117825    21.221046    21.431508    10513.964    7021.4551    8676.9577    6868.3542   -186.36132   -412.45884   -504.56729   -5330.3784 
 4057000    99.465022   -6746.1248   -6490.2571   -6746.1248            0    8182.7385    23.014738    21.242216    21.411994    10467.982     9039.478    7924.4991    7584.2384   -759.94771    580.32551   -877.68796   -5241.0411 
 4058000    98.889386   -6753.8436   -6499.4567   -6753.8436            0    7582.1786    23.084576    21.275027    21.401217    10510.672    6672.4262    7156.3858    8917.7239   -158.31055    1033.3255    871.08187   -5337.2044 
 4059000    104.85671   -6764.3339   -6494.5964   -6764.3339            0    8036.4045    23.138429    21.147401    21.448311    10495.037    8468.5564    7905.6851    7734.9721   -696.53807    156.05782    515.78136   -5264.5495 
 4060000    99.421756   -6766.3663   -6510.6099   -6766.3663            0     8070.885     23.10274    21.109775    21.478355    10474.857    8651.9692    8021.0053    7539.6805    130.03326    234.73319    32.986915   -5277.6608 
 4061000    98.802882   -6754.6475   -6500.4831   -6754.6475            0    6910.3788    23.102554    21.215513    21.499343    10537.528     6253.342    7029.6746    7448.1197    1046.0373   -637.32124    848.64224   -5438.5028 
 4062000    99.250198    -6743.552   -6488.2369    -6743.552            0    7758.2704    23.063201    21.186026    21.467499    10489.397    7906.5505    8163.0942    7205.1665    547.29471    440.93379   -299.73674   -5301.3992 
 4063000    100.52964   -6736.0692   -6477.4628   -6736.0692            0    8249.1284    23.058737     21.23324    21.411242    10483.194    8686.8843    8573.3634    7487.1375   -268.95462    744.58015    431.09001   -5216.2813 
 4064000    97.405705   -6753.9913   -6503.4211   -6753.9913            0    7577.1803    23.032331    21.296804    21.440983    10517.125    8051.7636    7903.5765    6776.2009    172.06804   -83.762214    269.59874   -5341.2219 
 4065000    97.939568   -6769.8333   -6517.8897   -6769.8333            0    7241.9832    23.069685    21.148715    21.542879    10510.645    7843.6195    7135.9475    6746.3825    -81.39522   -179.71993    310.19169    -5407.788 
 4066000    102.82082   -6749.1638   -6484.6635   -6749.1638            0    7690.5426    23.190717    21.200999    21.363135    10503.535    7348.8774    7413.6683    8309.0822    65.760919   -290.64328    152.78135    -5306.601 
 4067000    96.335375   -6761.5972   -6513.7804   -6761.5972            0    7755.3772    23.077751    21.234695     21.43125    10502.363    7571.5613    7112.5269    8582.0435    360.06734    338.47709    648.91793   -5325.9188 
 4068000    102.20669   -6769.4615    -6506.541   -6769.4615            0    8297.7215    23.059516    21.152246    21.475084    10474.699    8656.0034     8956.068    7281.0931     298.9708    590.94281   -163.36751   -5238.9583 
 4069000     93.85682   -6755.2325   -6513.7915   -6755.2325            0    8195.2715    23.045659    21.229856    21.411058    10475.489     8551.447    8034.1098    8000.2577    8.1182045   -0.8896384    139.62305   -5261.7649 
 4070000    100.46513    -6756.482   -6498.0416    -6756.482            0    7330.9431    22.954653    21.358534    21.415976    10499.776     8721.264    5928.7703     7342.795   -667.31595    -489.3421    271.03217   -5375.4655 
 4071000    99.893815    -6754.057   -6497.0863    -6754.057            0    7566.7896    23.071221    21.245751    21.445297    10511.743    7587.4703    7496.2814    7616.6173    221.07869    322.68807   -252.81663   -5337.0749 
 4072000    105.42781   -6744.6365   -6473.4299   -6744.6365            0    7642.3029    23.168178    21.141181    21.431457    10497.184     7121.368    7426.5069    8379.0337   -665.62864   -6.2564539    116.66952   -5303.4646 
 4073000     96.25403   -6753.3072   -6505.6996   -6753.3072            0    7632.6492    23.253042    21.128655    21.356344     10492.49    7510.2653    8351.8398    7035.8425   -248.65067   -281.40945    75.088597   -5337.7348 
 4074000    102.42555    -6761.206   -6497.7225    -6761.206            0    8140.6899    23.145743     21.13764    21.432329     10485.69    8306.5561    7901.4967    8214.0169   -913.18432   -435.43083   -388.62245   -5252.8236 
 4075000    101.40279   -6759.1139   -6498.2614   -6759.1139            0    7919.4883    23.043887    21.274313    21.411842    10497.003    8256.8832    7765.8989    7735.6827    305.69282   -343.89754   -566.23533   -5285.8826 
 4076000    102.00326   -6760.2932    -6497.896   -6760.2932            0    8195.8901    22.884434     21.41126    21.392524    10482.007    8258.2744    8299.5737    8029.8223    129.61488    86.503593   -677.75186   -5244.9958 
 4077000    101.27268   -6765.3362   -6504.8184   -6765.3362            0    7601.8564    23.070403     21.26994     21.38146    10492.013    7668.0361    7725.2194    7412.3136   -282.49133    358.62351   -583.80686   -5341.6185 
 4078000    102.42115   -6746.3409   -6482.8688   -6746.3409            0    7846.5088    23.129648    21.215514    21.425096    10513.452    8123.6444    7531.5337    7884.3485   -705.66722    226.03729   -328.04296   -5279.7799 
 4079000    100.06282    -6762.588   -6505.1825    -6762.588            0    7825.4607      23.1989    21.125571    21.382884    10479.538    7898.0051     7228.454    8349.9229    21.162146   -322.31647    348.94779   -5309.1915 
 4080000    102.74628   -6745.4179   -6481.1094   -6745.4179            0    7829.9138    23.176799    21.090617     21.47995    10499.679    7877.3133    7634.6409    7977.7871    -115.8461    635.62241   -39.780569   -5282.1378 
 4081000    97.989408   -6761.7162   -6509.6444   -6761.7162            0    7286.8253    23.084994    21.259532    21.443422    10523.921    7125.7792    7562.3007    7172.3961     379.6084   -273.95893   -48.446772   -5391.2581 
 4082000    100.07148   -6763.2324   -6505.8047   -6763.2324            0    7286.1833    23.062661    21.355305    21.337474    10508.922    7002.2958    6901.5705    7954.6837    338.33229   -554.11752    218.22543   -5389.1107 
 4083000    101.36734    -6755.831   -6495.0697    -6755.831            0    8167.8235    23.104136    21.217825    21.374837    10478.362      7712.28    8482.2366    8308.9538   -207.70487    1057.4712   -416.78715   -5246.8943 
 4084000    103.79513   -6746.2918   -6479.2852   -6746.2918            0    7434.7322    23.046723    21.241343    21.488473    10519.539    6896.7106    7603.9938    7803.4922    500.95518   -771.97408     407.2411   -5338.6732 
 4085000    100.73319   -6759.5408   -6500.4108   -6759.5408            0     8083.665    23.096211     21.23086    21.380681    10484.069    7983.9525     7264.123    9002.9196   -471.06929    31.834528    489.75956   -5264.4234 
 4086000    99.450503   -6755.3217   -6499.4914   -6755.3217            0    8110.0856    23.203342    21.178914    21.322526    10478.349    7475.5661    8113.6807    8741.0101     709.1651    291.32921    64.402793   -5260.1407 
 4087000    100.47746   -6768.3159   -6509.8437   -6768.3159            0    7659.8509    22.994136    21.175406    21.556886    10496.267    8080.2926    8103.9695    6795.2906   -328.10039    732.71128    323.48077   -5337.2946 
 4088000     103.0957   -6760.7622   -6495.5548   -6760.7622            0    7726.7573    23.123389    21.171981    21.444689    10498.633    7434.9369    8232.4659     7512.869    568.00399   -965.12938    -309.2171   -5312.4972 
 4089000    95.653105   -6761.5626   -6515.5008   -6761.5626            0    7561.2258    23.250273    21.184813     21.30613    10494.392    6056.3148    8347.2152    8280.1473    967.71405     835.7287   -383.69744   -5358.2556 
 4090000    101.45395   -6766.8107   -6505.8266   -6766.8107            0    7811.6861    23.073784    21.198901    21.501495    10517.217    7829.0198    7964.5555    7641.4831    388.77739   -1182.7578    506.57213   -5307.6482 
 4091000    98.539306    -6765.072   -6511.5856    -6765.072            0    7698.9067    23.117277    21.213404    21.430419    10509.395    7383.6586    7697.6187    8015.4428   -660.57151    455.09891   -416.32411   -5331.5839 
 4092000    98.632928   -6750.8324   -6497.1053   -6750.8324            0    7818.3079    23.097653    21.308687    21.311287    10489.003    7920.4312    7415.6678    8118.8248    710.67864   -270.68165   -691.04774   -5301.1281 
 4093000    99.452965   -6749.6334   -6493.7967   -6749.6334            0    8484.0539    23.008313    21.317349    21.346468    10469.935    7420.9728    7869.9036    10161.285    338.96237    906.93748     1093.177   -5198.3388 
 4094000    101.39052   -6755.6784   -6494.8575   -6755.6784            0    7658.7844    23.069358    21.197192    21.477244    10502.493    8352.1346    7448.3222    7175.8964    846.47385   -351.99059   -2.9782069   -5321.7761 
 4095000    98.963192   -6765.7536   -6511.1768   -6765.7536            0     8160.893    23.054407    21.128133    21.511479    10478.168    8988.4293    7519.0913    7975.1584   -814.09839   -395.83458    557.18909   -5264.0835 
 4096000    105.26441   -6758.4261   -6487.6398   -6758.4261            0    7815.2655    23.225114     21.16579      21.3848    10512.294    6826.3564    8419.3644    8200.0756    31.767475    1059.0441    556.94115   -5289.4734 
 4097000    100.37031   -6757.2982   -6499.1017   -6757.2982            0    7483.6778    23.051649    21.190553    21.477566    10491.302     8219.084    7441.6085    6790.3409   -353.96126    310.11112   -592.57068   -5354.0625 
 4098000     96.08972   -6762.4582   -6515.2732   -6762.4582            0    7438.6539    22.975641    21.304351    21.467847    10508.105    7479.7349    8045.5105    6790.7164    428.04212    479.76984   -514.34932      -5375.3 
 4099000    99.644241   -6749.2478   -6492.9191   -6749.2478            0    8477.9624    23.030363       21.309    21.329711    10467.641     8276.257    7771.9384    9385.6919    117.87202     325.2663    561.88409   -5198.6749 
 4100000    98.653104   -6757.2053   -6503.4262   -6757.2053            0    8085.4596    23.182354    21.207476    21.287478    10465.758    8215.3336     7383.701    8657.3442   -293.39676   -957.92786   -80.689271   -5269.3235 
 4101000    96.712479    -6759.815   -6511.0281    -6759.815            0    7743.8682    23.186284    21.127545    21.449572    10507.486    7321.9334    8203.3011      7706.37    382.75055    -209.6082   -390.26398   -5324.3507 
 4102000    98.485537    -6754.608   -6501.2599    -6754.608            0    8168.3179    23.120286    21.196849     21.42937    10502.046    7615.5787    8415.3559    8474.0192   -888.36558   -74.036689    260.67792   -5250.1876 
 4103000    102.13767   -6747.8396   -6485.0966   -6747.8396            0    7782.3451    23.040442    21.315053    21.366907    10493.464    7641.9194    8135.1254    7569.9905    1203.3892   -793.64958    113.74182   -5294.1145 
 4104000    101.59599   -6753.9608   -6492.6113   -6753.9608            0    7880.5528    22.968855    21.326527    21.425351     10495.12    7827.1208    7763.3258    8051.2118    104.06942     1104.957    315.85139   -5286.4094 
 4105000    103.50734   -6758.9137   -6492.6474   -6758.9137            0     7707.193    23.072875     21.21005    21.451458    10497.846    8078.6704    7799.9142    7242.9946    -135.3753    453.48288    101.10574   -5312.6736 
 4106000    102.12037   -6769.1301   -6506.4316   -6769.1301            0    7257.7954    23.121019    21.098423    21.544538    10509.793    6814.0373    8485.3496    6473.9993    207.89469    662.82693    563.35945   -5393.9964 
 4107000    96.704663   -6747.9601   -6499.1933   -6747.9601            0    8194.2938     23.20417    21.003813    21.495251    10476.271    6945.9614     10212.02    7424.8999   -1078.2938    1125.1733   -74.656265   -5247.2227 
 4108000    103.09889   -6771.0595   -6505.8439   -6771.0595            0    7679.0385    23.126073    21.241694    21.368968    10497.227    7739.3683    6398.4273    8899.3199   -239.42616    897.63707    856.68702   -5330.2501 
 4109000    96.380291   -6751.4358   -6503.5034   -6751.4358            0    7610.4715    22.925341    21.405366    21.402315    10502.658    8333.0635    6575.9278    7922.4231    325.33064   -232.07697    288.40508   -5337.8037 
 4110000    99.135759   -6758.7775   -6503.7568   -6758.7775            0    7810.9698    23.033948    21.266573    21.411059    10488.274    8320.7194    8070.7045    7041.4856    467.98852   -412.71906   -1182.3152   -5308.9852 
 4111000    97.912748   -6747.2602   -6495.3856   -6747.2602            0    8249.4669    23.251795    21.088864     21.40943    10498.198    7187.5187    8719.6618    8841.2201    -455.2679   -286.01849   -228.94533   -5232.3472 
 4112000    100.63511   -6753.5745   -6494.6969   -6753.5745            0    7984.7781    23.250403    21.052175    21.431339    10490.031    7592.4176    7733.2995    8628.6171    311.61424   -582.67167    84.090083   -5273.1349 
 4113000    103.14904   -6760.0212   -6494.6765   -6760.0212            0    7312.5988    23.124519    21.195461    21.427993    10502.606     6818.841    8290.2275     6828.728   -456.61169     221.0237   -258.98982   -5374.6077 
 4114000    100.08331   -6753.3799   -6495.9217   -6753.3799            0    6706.0295    22.981542     21.36036    21.482755    10545.756    7636.8638    6154.0047    6327.2198    328.83357    239.70105   -564.38801   -5464.5409 
 4115000    102.29435   -6754.7889   -6491.6429   -6754.7889            0    8112.7751    22.955862    21.320255    21.425078    10485.965    9167.1239    7851.6415      7319.56   -100.12884   -637.70128    -365.2815   -5250.9802 
 4116000    97.368487   -6767.2308   -6516.7563   -6767.2308            0    7968.1668    23.138771    21.177691    21.425402    10498.999    7380.0268    8248.4475    8276.0262    224.54117    349.82482   -88.294718   -5296.6935 
 4117000    93.957891   -6767.3725   -6525.6716   -6767.3725            0     7640.067    23.301137    21.071946    21.396002    10505.444    6555.0789    8769.9294    7595.1928   -877.62907   -130.71742   -613.40387   -5355.1283 
 4118000    96.989012   -6758.3012   -6508.8029   -6758.3012            0    8078.9633    23.124632    21.140722    21.488422    10505.075    7734.1152    8764.1122    7738.6626   -482.14125   -204.03548   -535.53411   -5271.0593 
 4119000    99.954023    -6757.444   -6500.3183    -6757.444            0    8002.7498      23.1248    21.179656    21.402545    10482.438    7883.5505    7838.6401    8286.0587   -742.55991    60.599611   -109.66301   -5276.8931 
 4120000    100.61047   -6759.0174   -6500.2031   -6759.0174            0    7369.3055    23.159185    21.300142    21.278386    10496.499    6917.5542    6674.6055    8515.7567   -165.04397    644.58751    -390.7865    -5372.105 
 4121000    99.288159   -6753.6292   -6498.2164   -6753.6292            0     8362.373    23.039015    21.231063    21.401042    10468.165    7948.1279    8563.6209      8575.37     237.0339    121.19538    353.73372   -5221.5543 
 4122000    104.64237   -6754.7513   -6485.5652   -6754.7513            0    6960.5669    23.051082    21.188035    21.549204    10524.785    7627.0906    6259.9121    6994.6981   -231.11988    61.721932    316.82408   -5417.1656 
 4123000    101.92427   -6765.2653   -6503.0714   -6765.2653            0    7247.0839    23.062755     21.20888    21.492545     10512.76    8204.9582    6158.6337    7377.6599     -145.801   -630.27788    480.14185   -5391.9642 
 4124000    104.50788    -6758.268   -6489.4279    -6758.268            0    8490.8423    23.146626    21.211875    21.327492    10471.443    7831.1651    9219.7886    8421.5731   -326.22719   -175.70016   -200.98449   -5192.7467 
 4125000    99.553763   -6747.3093   -6491.2134   -6747.3093            0    7360.5949    23.072329    21.200348    21.518998    10525.833    6864.0195    7663.2912    7554.4741    182.54586    538.97453   -16.013432   -5361.2997 
 4126000    101.22152   -6758.4841   -6498.0979   -6758.4841            0    7849.3642    23.042445    21.213345    21.454483    10487.109    8713.8893    7187.2494     7646.954   -548.39735    128.06293   -374.38894   -5297.5869 
 4127000    99.963365   -6752.9895   -6495.8398   -6752.9895            0    8690.0364     23.15537    21.169689    21.336438    10458.951    8739.8798    8453.7422    8876.4872   -1098.7844    319.39708   -12.470004   -5170.3219 
 4128000    99.999047   -6753.9752   -6496.7337   -6753.9752            0    7739.9575    23.210349    21.107939    21.430201     10499.14    6737.3028    8865.8253    7616.7444    420.84276    245.68067   -559.61223   -5311.5977 
 4129000    100.38576   -6741.4745   -6483.2383   -6741.4745            0    6997.6453    23.045001    21.269318    21.496664    10536.621    7648.1525    7672.3409    5672.4426   -609.55923   -124.49274   -663.13164   -5407.9394 
 4130000    97.197399   -6765.5616   -6515.5272   -6765.5616            0    8053.7508    22.967595    21.330335    21.389303    10478.758    8211.3336    7424.5891    8525.3297    694.49985   -282.69012    455.26335   -5284.7374 
 4131000    95.959924   -6758.1982   -6511.3471   -6758.1982            0    7578.7165    23.063242    21.300322     21.37743    10501.758    8029.6293    7389.8326    7316.6875    322.78871    410.20109   -326.79395   -5350.6108 
 4132000    103.16071   -6748.9934   -6483.6188   -6748.9934            0    8125.5154    23.068052    21.222815    21.416676    10484.941    8576.4244    7738.4927    8061.6292   -911.99322    -327.2059    432.19802   -5241.1291 
 4133000    100.85761   -6750.3566   -6490.9066   -6750.3566            0    7228.6415    23.155342    21.150076    21.478846    10518.991    7139.0271    7123.9405     7422.957    602.69267    24.811609     414.8555   -5381.9702 
 4134000    95.107336   -6757.1133   -6512.4555   -6757.1133            0    8075.9937    23.132293    21.161707    21.409679     10480.44    7975.0755    8936.9767    7315.9289   -570.61647    137.15371   -1024.1033   -5278.0684 
 4135000    97.130012   -6762.2217   -6512.3607   -6762.2217            0    7900.8596    23.052402    21.304348     21.34082    10480.827     8085.935    6923.7949    8692.8489   -293.60833   -146.27872    566.49716   -5304.6976 
 4136000    103.05369   -6754.9111   -6489.8118   -6754.9111            0    7207.2439    23.042861    21.218084    21.525398    10524.313    8240.7913    6259.2334    7121.7072    455.75927   -438.39086   -157.81181   -5383.5985 
 4137000    103.17067   -6766.9922    -6501.592   -6766.9922            0    7707.0378    23.061983    21.175931    21.518452    10508.729    7427.6649    8676.3612    7017.0873   -76.313851    355.16392   -109.31222   -5320.4188 
 4138000    100.97888   -6765.0756   -6505.3136   -6765.0756            0    8035.4188    23.145665    21.205582    21.314679    10461.613    7766.3897    8259.5691    8080.2974   -731.07914   -74.976616    36.107376   -5279.3346 
 4139000    100.00346   -6758.2858    -6501.033   -6758.2858            0    8277.2929     23.19246    21.233499    21.287036    10482.952    7642.9522    7390.8427     9798.084    383.85647   -31.114356    153.96538   -5235.5749 
 4140000    102.98688   -6763.3468   -6498.4193   -6763.3468            0    8078.7736     23.02046    21.236699     21.43267    10477.973    7908.8964    8125.7585    8201.6659   -24.232561    446.38614    75.233854   -5263.8979 
 4141000    102.90679   -6768.9706   -6504.2492   -6768.9706            0    8336.8416    22.926613    21.203486    21.555762    10478.776    8871.4248    8255.9743    7883.1257    258.29359   -506.78558    757.20651   -5230.1947 
 4142000    100.73239   -6757.2877   -6498.1598   -6757.2877            0    7188.0939    23.114521    21.173756     21.44905     10497.62    6545.6545    7910.3853     7108.242    1311.6444   -285.90092   -38.220747    -5397.684 
 4143000    98.761105   -6750.7224   -6496.6655   -6750.7224            0    7901.3885    23.111852    21.238875    21.353932    10481.999    8096.0748    7604.3308    8003.7599    138.66774   -342.25232    734.91342   -5288.7865 
 4144000    97.180641   -6750.0746   -6500.0833   -6750.0746            0    8219.8319    23.068685    21.155194     21.46276    10474.309    8399.2497    9160.8103    7099.4357   -238.06242   -154.22747   -629.00381   -5244.4459 
 4145000    101.24102   -6750.7789   -6490.3425   -6750.7789            0    5603.6639    23.175319    21.245731    21.497958    10585.091    6263.5611     5164.359    5383.0715   -503.48248   -353.08284   -683.77375   -5625.2898 
 4146000    100.87257   -6761.0949   -6501.6064   -6761.0949            0    8078.0583    23.095276    21.219902    21.365731    10470.907    7989.7484    7636.4468    8607.9798   -281.12035    528.89561    343.68487   -5268.0268 
 4147000    100.32655   -6760.2632   -6502.1793   -6760.2632            0    8867.9289    23.064162    21.191399    21.388192    10453.733    9546.5745    8517.3828    8539.8294   -866.22603    284.48102   -100.49732   -5150.2017 
 4148000    97.538525   -6764.4989    -6513.587   -6764.4989            0    7489.3359    23.007116    21.283608    21.469365    10512.999    8218.2674    6563.2627    7686.4775   -430.62719   -249.94287   -160.26314   -5365.3122 
 4149000     101.9529   -6743.2235   -6480.9559   -6743.2235            0     8210.533    23.028752    21.265824    21.380975    10470.806    8806.6302    7227.3604    8597.6083   -44.088845   -127.40922    621.33553   -5227.1585 
 4150000    101.15983   -6761.1473   -6500.9198   -6761.1473            0    8564.8882    23.123534    21.146006    21.389244    10458.707    8358.9482    9324.4007    8011.3157    65.399385    954.26469    -160.8041   -5194.5216 
 4151000    105.40372   -6761.4589   -6490.3142   -6761.4589            0    7613.8227     23.00721    21.303575    21.414898    10496.208    7691.9448    7730.2523    7419.2711   -129.54238    138.32858    206.19981   -5324.8174 
 4152000    97.015581   -6756.7981   -6507.2314   -6756.7981            0     8021.748    22.986007    21.291571      21.4105    10478.474    8298.4558     8265.787    7501.0012     -503.229    145.42994    370.74608   -5281.3655 
 4153000     102.4614   -6751.7173   -6488.1416   -6751.7173            0    7084.1681    23.229412    21.126974    21.431231    10517.745    6309.2735    7222.9394    7720.2913    57.308017    781.72751    429.13543   -5401.4974 
 4154000    95.982397   -6744.9379   -6498.0291   -6744.9379            0    7830.0548    23.151862    21.113948    21.450033     10485.36    8128.3754    8289.5362    7072.2528    -237.5458   -512.41976   -288.92183    -5300.671 
 4155000    98.698388   -6760.6374   -6506.7418   -6760.6374            0    8697.0354    23.018775    21.199141    21.417407    10451.229    8739.9943    9125.9537    8225.1581   -341.95835   -273.06966    607.84584   -5181.1357 
 4156000    91.628074   -6758.2565   -6522.5489   -6758.2565            0    7291.9792    23.041629    21.276365    21.454053     10517.68    7542.5051    7275.4792    7057.9533   -264.30556    692.35978    -1203.406   -5404.0352 
 4157000    96.098908   -6750.4006    -6503.192   -6750.4006            0    8333.6799    22.944134    21.367964    21.386639    10485.215    8370.7311    7991.9371    8638.3714    199.36351    317.22529    243.75776   -5228.8381 
 4158000    101.38224   -6768.4534   -6507.6538   -6768.4534            0    8120.3963    23.060289    21.257811    21.385995    10483.656    8394.9252    7692.8874    8273.3762   -440.83862    44.339899    245.16996    -5266.099 
 4159000    98.908983   -6745.5315   -6491.0941   -6745.5315            0    8439.5569    23.193779    21.125724    21.362392     10467.26    8659.9874    8148.7006    8509.9825   -263.55136    170.74585    41.381727     -5202.76 
 4160000    101.96036   -6766.9936   -6504.7068   -6766.9936            0    7522.5001    23.165963    21.124416    21.477639    10510.457    6690.9966    7863.9011    8012.6027    69.953711   -344.71498    569.94176   -5351.6261 
 4161000     96.05127   -6760.4432   -6513.3571   -6760.4432            0    7970.1105    23.024504    21.216378    21.471581    10488.794    8570.6391    7642.1206    7697.5717    301.00248     492.0791   -433.48701   -5294.1829 
 4162000    96.715484   -6743.5162   -6494.7215   -6743.5162            0    8653.8748    22.971918    21.290831    21.395186    10464.197    9324.7668    8124.2361    8512.6215    42.485108    609.84462    -203.3781   -5174.0573 
 4163000    98.604779   -6756.5179   -6502.8631   -6756.5179            0    7209.8446    23.022432    21.293416    21.456437    10518.508    7982.6167    6611.9422     7034.975    1176.6081   -1227.9468   -191.76653   -5396.8611 
 4164000    101.49462   -6769.2808    -6508.192   -6769.2808            0    7875.0288    23.169536    21.145691     21.41299    10490.992    7647.1469    8546.7229    7431.2166     -437.209   -557.80635   -950.01024   -5303.3098 
 4165000    101.78906   -6757.7687   -6495.9225   -6757.7687            0    8139.1085    23.305933    21.037366    21.392467    10488.629    7037.6607     8639.493    8740.1717     244.4372   -432.78283    422.77838   -5250.9165 
 4166000    103.20679   -6751.5846   -6486.0914   -6751.5846            0    7681.7902     23.06862    21.233402     21.43206    10497.965    7537.1121      7164.53    8343.7285    -505.9129   -55.430209    61.114009   -5309.9936 
 4167000    98.514105   -6755.8071   -6502.3855   -6755.8071            0    7522.1453    23.011968     21.29073    21.431893    10500.376     7233.636    7007.4097    8325.3901    602.42195   -166.16769   -88.152397   -5350.4652 
 4168000    99.540572   -6742.5428   -6486.4808   -6742.5428            0    7551.4482    23.021053    21.314969    21.404157    10502.871    7803.1078    7219.7354    7631.5014    338.29982    707.80474    820.08095   -5329.7983 
 4169000    100.63078   -6733.4126   -6474.5461   -6733.4126            0    8575.9932    23.108103    21.167729     21.41137    10473.287    8726.4654    8119.8752     8881.639   -1006.4338    388.38202    408.96584   -5164.6304 
 4170000    97.554198    -6753.583   -6502.6307    -6753.583            0    7665.3911    23.206759    21.054897    21.509116    10509.696    8107.5479    8566.5247    6322.1007   -15.710094   -52.826892    120.96779   -5327.7322 
 4171000    102.00385   -6759.9479   -6497.5492   -6759.9479            0    8266.2625    23.154539    21.079745    21.469456    10479.065    8185.5559    9040.2944    7572.9373   -190.68797   -246.01794   -713.95818   -5234.2459 
 4172000    100.84303   -6755.1319   -6495.7194   -6755.1319            0    7744.9314     23.07968    21.287086    21.368507    10498.329    7369.7561    8027.2431     7837.795    464.21745    703.64317   -65.774728   -5309.9134 
 4173000    95.745131   -6750.6234   -6504.3249   -6750.6234            0    7639.5722    23.075672    21.351333    21.313466    10501.067    7895.5478    6456.0451    8567.1237   -567.71003    533.78778    117.94627   -5334.3451 
 4174000    101.66701    -6762.931   -6501.3988    -6762.931            0    9008.7649    22.993542    21.206229    21.423292    10446.133    9475.6069    9242.1219    8308.5659   -507.54059   -1554.5382   -719.48613   -5128.9484 
 4175000    99.493904   -6757.3709   -6501.4289   -6757.3709            0    6988.8601    23.208459     21.18897    21.424828    10535.945    6777.1678    7482.7059    6706.7066   -764.85176   -148.64302   -256.48845   -5427.5489 
 4176000    96.082003    -6753.909   -6506.7439    -6753.909            0    7746.1123    23.212291    21.121096    21.397137    10490.353    7227.6449    8809.3402    7201.3516       -784.5    134.64426   -742.35127   -5321.6581 
 4177000    101.26826   -6740.3683   -6479.8619   -6740.3683            0     8108.043    23.042891    21.272383    21.421931    10500.542    8363.4496    7260.6557    8700.0236    81.916362    78.337612    346.72842   -5238.1992 
 4178000    100.11906   -6750.9592    -6493.409   -6750.9592            0    7963.5036    22.974952    21.339307    21.399838    10491.689    8699.8254    6796.5335     8394.152   -24.915587     617.5954    726.83905   -5274.9092 
 4179000    100.76693   -6755.5939   -6496.3771   -6755.5939            0    7505.9734    23.021894    21.278606    21.412661    10489.502    7047.7873    7507.6009     7962.532    789.32923    448.77284     49.25085   -5348.1236 
 4180000    101.99793   -6756.3687   -6493.9852   -6756.3687            0     8142.302    23.036407    21.222904    21.432794    10478.481    9023.4321    7075.0141    8328.4599   -1401.4808   -708.58357    715.93023   -5249.6957 
 4181000    99.028236   -6753.7037   -6498.9596   -6753.7037            0     8406.551     23.24752     21.03625      21.3951    10463.073    7758.4518    8535.3461    8925.8549    555.69873    -496.6965   -48.567808   -5216.1771 
 4182000    100.36254   -6747.0482   -6488.8717   -6747.0482            0    7726.0248    23.200565    21.120205    21.435379    10503.351    7288.2835    8010.6432    7879.1477    434.57609   -222.67588   -23.184874   -5305.3946 
 4183000     98.31419    -6762.669   -6509.7618    -6762.669            0    7873.8898    23.076989    21.276204     21.37718    10495.997    7647.6925    8125.4508    7848.5262     171.1798   -555.56377   -42.508103   -5304.4791 
 4184000    97.916702   -6756.4153   -6504.5305   -6756.4153            0    7645.8938    22.974184    21.281067    21.482399     10503.07    8255.9537    7134.9332    7546.7945   -10.342152    125.95693    261.20846   -5333.3592 
 4185000    100.40366   -6746.5398   -6488.2575   -6746.5398            0    8346.9816    23.029225    21.292981    21.371711     10479.85    8294.2126    8294.8294    8451.9029    87.515673    83.352909    134.42435   -5212.5226 
 4186000    103.97622   -6752.9391   -6485.4666   -6752.9391            0     8248.767    23.052534    21.247461     21.36345    10463.985    8059.2979     8610.556     8076.447    246.60745   -658.58751   -433.56894   -5226.6512 
 4187000    97.657339   -6762.6782   -6511.4606   -6762.6782            0    8270.3291    23.082005    21.098515    21.521662    10480.964    8159.2911    8506.0771    8145.6191    552.37015   -251.09918        372.2   -5247.3068 
 4188000    98.748752   -6737.9806   -6483.9554   -6737.9806            0    8105.7275    23.138192     21.13039    21.455248    10489.879    7725.5844    8329.9708    8261.6273   -598.11544    211.18994    510.26376   -5243.9078 
 4189000    97.818792   -6770.9653   -6519.3325   -6770.9653            0    7225.4141    23.126416    21.172819    21.442224    10499.216     6917.488    7474.4367    7284.3176    575.39409   -256.70641     391.6929    -5412.975 
 4190000     106.1104   -6752.3327   -6479.3701   -6752.3327            0      6987.97    23.022051    21.199543    21.584885    10534.653    8202.2833    6446.4436    6315.1831   -632.93911   -264.79797   -263.00939   -5405.7586 
 4191000    102.93198   -6749.7032    -6484.917   -6749.7032            0    8432.4516    23.016443    21.234613    21.430163    10473.891     8248.985    8094.9276    8953.4422   -49.117172    587.26525   -339.42134    -5196.852 
 4192000    102.47602   -6755.4324   -6491.8191   -6755.4324            0    7846.5634      23.0961    21.258357    21.328933    10472.189    8079.9887    7586.9017       7872.8    636.65808   -639.21262    39.896122   -5293.4438 
 4193000    101.12456   -6765.3723   -6505.2356   -6765.3723            0    7558.0341    23.124516    21.228719    21.410628     10510.56    7432.5849    6915.0117    8326.5056   -537.31598    1021.2964    66.508938   -5346.6968 
 4194000    100.45608   -6756.0139   -6497.5968   -6756.0139            0    7794.9076    23.121875    21.124864    21.507239    10505.135    7437.9706    8124.0872    7822.6649    457.22664   -187.38397    442.09772   -5303.3653 
 4195000    102.23972   -6753.9011   -6490.8956   -6753.9011            0    7564.8375    23.110659    21.158406    21.479899    10503.342    6907.5425    8261.8909    7525.0793   -176.77544    638.09701    151.11423   -5332.1102 
 4196000    101.77842   -6763.8412   -6502.0225   -6763.8412            0    7908.0752    23.189872     21.31507    21.216514     10487.19    6208.1954    8702.3254    8813.7049    630.15592     264.4138   -533.27631   -5292.5226 
 4197000    103.39735   -6762.3403   -6496.3569   -6762.3403            0    7884.6712    23.002251    21.313306    21.391349    10487.195    9164.7623    7318.9875    7170.2639   -294.98041    -505.6769   -333.08217    -5290.436 
 4198000    102.54115    -6756.492   -6492.7112    -6756.492            0    8046.3852    22.980298     21.25798    21.501244    10503.674    8279.1622    7554.9464    8305.0471    35.101338   -48.071687   -107.98099   -5260.1231 
 4199000    102.79698   -6754.7466   -6490.3076   -6754.7466            0    7707.7826     23.14165    21.153243    21.438836    10494.759    8325.8434    7652.0509    7145.4537   -427.43807   -335.32284    424.59629   -5310.5907 
 4200000    100.28259    -6755.465   -6497.4942    -6755.465            0    9327.7761    23.207474    21.069794    21.353941     10441.58    8503.1851    10730.033    8750.1107    -148.4083    141.11308   -128.79075   -5077.0629 
 4201000    104.31692   -6768.1808   -6499.8318   -6768.1808            0    7194.2787    23.106735    21.222155    21.436366    10511.852    7086.2857    6560.6087    7935.9418   -75.620069    377.80794    382.02799    -5396.916 
 4202000    100.24745   -6759.4953   -6501.6149   -6759.4953            0    7776.9127    23.056424    21.200577     21.47837    10498.831    8094.1907     7921.266    7315.2813    532.64871    487.75839   -494.25388   -5310.8554 
 4203000    96.748886   -6768.6351   -6519.7545   -6768.6351            0    7828.4454    23.034735    21.297371     21.38511    10491.092    8167.6615    6256.1134    9061.5614   -1008.5941   -54.068017    201.11172   -5321.9881 
 4204000    95.185147    -6747.873    -6503.015    -6747.873            0    7580.6402    23.067784    21.356783    21.321311    10504.022    7641.2701    7236.2646    7864.3859    622.19985   -291.73869    94.505499   -5341.7338 
 4205000    103.07145   -6769.6711   -6504.5261   -6769.6711            0    8038.5547    23.078734    21.141979    21.489362    10485.306    7386.6454    9095.3601    7633.6588    185.73081    527.85386    -554.4263   -5275.2909 
 4206000    97.786624   -6766.7369   -6515.1868   -6766.7369            0    7344.9204    23.147387     21.15985    21.439504    10500.967    6727.6572    8041.4031    7265.7008   -329.44439   -483.89609   -427.63954   -5390.3428 
 4207000    96.646955   -6757.1697   -6508.5513   -6757.1697            0    8145.6029    23.228694    21.153775    21.326834    10479.464    6696.2041    9199.3406    8541.2641    288.45712   -47.284919   -169.55561   -5263.6406 
 4208000     99.71885   -6752.3461   -6495.8254   -6752.3461            0    7990.9656    23.180391     21.16211    21.381339     10488.53    8136.9712    8135.9667    7699.9591   -68.271036   -280.64996   -744.55495   -5273.4917 
 4209000    103.31066    -6757.101   -6491.3406    -6757.101            0    7746.0991    23.064342    21.179068    21.498353    10501.543     7957.042    8731.5964    6549.6588    467.64733    85.905595   -560.17623   -5304.9928 
 4210000    97.514736   -6749.9863   -6499.1356   -6749.9863            0    7938.9261    22.951213    21.343211    21.416174    10490.768    8839.5518     6889.981    8087.2454    448.37978   -356.46353    212.77488    -5284.503 
 4211000    99.535404   -6745.9947   -6489.9459   -6745.9947            0    8365.6489    23.007232    21.279429    21.392388    10473.302    8213.3623    7668.7187    9214.8657    621.77142    -276.1996     624.6426   -5212.1569 
 4212000    99.601449   -6762.8513   -6506.6326   -6762.8513            0    7805.7959    23.035834    21.177197    21.516461     10496.47    8671.9083    7894.2033    6851.2761   -17.512178   -210.56622     -362.735   -5311.7195 
 4213000    99.011578   -6757.9203    -6503.219   -6757.9203            0    7267.1508    23.126745    21.244138    21.399755    10513.866    7157.8219    6548.1193    8095.5111    -1073.074    229.10519    783.68941   -5388.9181 
 4214000    103.32397   -6762.3792   -6496.5846   -6762.3792            0    8532.3937    23.153198    21.154412     21.38594    10474.668    7555.7611    9752.4356    8288.9842   -27.026576   -452.17297   -1468.2387   -5193.1566 
 4215000    97.347577   -6769.3782   -6518.9575   -6769.3782            0    7063.3513    23.142492    21.284001    21.373385    10527.778    7531.8327    6416.3727    7241.8485     401.2954   -506.95164   -14.919198   -5434.4729 
 4216000    99.675318   -6754.9127    -6498.504   -6754.9127            0    8371.2552    23.053422    21.320568    21.325132     10481.56     8012.782    7918.8015    9182.1821    131.02588    66.626348   -883.09363   -5218.8506 
 4217000    99.630757   -6756.6827   -6500.3887   -6756.6827            0    8051.6208    23.013099    21.281092    21.437472    10498.871    8485.8536    7837.8839     7831.125    646.30433   -775.76397   -266.87632   -5267.5627 
 4218000    99.449622   -6749.0629   -6493.2348   -6749.0629            0    7284.7712    23.122052    21.250722    21.418559    10524.229    7068.2383    7584.0947    7201.9805   -73.069669    313.46492   -283.05744    -5375.131 
 4219000    97.365954   -6753.0522   -6502.5842   -6753.0522            0    6932.7739    23.093611    21.187349    21.490382    10515.081    7223.9277     6873.175     6701.219   -730.01576    491.66135     648.7253   -5439.4318 
 4220000    93.917638    -6752.956   -6511.3586    -6752.956            0    7825.0403    23.182188    21.134527    21.391502     10480.65    7403.6242    8067.3376     8004.159    258.31315   -998.19936    307.94548   -5315.3048 
 4221000    96.537046   -6754.6982   -6506.3625   -6754.6982            0     7563.973     23.14647    21.110425    21.481006    10496.303    8530.2357    7075.9365    7085.7467   -26.448304   -674.21147    482.44408   -5348.4861 
 4222000    100.72121   -6765.7385   -6506.6394   -6765.7385            0    8183.1498    23.058221    21.135173    21.512561     10483.92    8631.9532    8158.0605    7759.4357    115.50029   -407.14522    451.15573   -5255.4585 
 4223000    97.880197     -6756.98   -6505.1892     -6756.98            0     8251.487    23.057949    21.308045    21.312743    10471.373    7695.0943    8215.3853    8843.9816    302.96496     109.1163    76.473985   -5245.0696 
 4224000     101.5684   -6751.1347   -6489.8562   -6751.1347            0    6923.0646    23.058227     21.38492    21.357913    10531.551     6883.386    6306.6611    7579.1466    445.68454    423.27029   -104.08501   -5426.5298 
 4225000    98.658275   -6757.9072   -6504.1148   -6757.9072            0    8384.6544    22.977768    21.242278    21.473301    10481.121    8689.7994    9254.5024    7209.6614   -536.43528   -348.76113   -1002.3663   -5222.4667 
 4226000    99.300005   -6759.3153   -6503.8721   -6759.3153            0    8046.8696    23.105103     21.19085    21.443671    10499.181    8551.0723    8444.7799    7144.7565   -1162.3877     -103.498    98.542877   -5271.7371 
 4227000    105.34496   -6747.6513   -6476.6578   -6747.6513            0     7709.246    23.259853    21.103463    21.414765    10511.726    7253.8533    8089.7821    7784.1025   -497.60016    89.819138    665.85755   -5294.8093 
 4228000    99.439774   -6739.3949   -6483.5921   -6739.3949            0    7978.2185    23.183613     21.15524    21.408968    10500.133    8077.4444     9073.528     6783.683    318.30427   -498.71633   -1065.1246   -5261.8583 
 4229000    105.03349    -6765.834   -6495.6418    -6765.834            0    7387.1198    22.941023    21.296551    21.502292     10505.26    8040.9526    6524.1729    7596.2339    24.981453    724.84537    746.77569   -5363.8727 
 4230000    102.14488   -6747.9178   -6485.1563   -6747.9178            0    7690.4754    23.073843    21.235282    21.431772     10501.13    7575.8187    7515.4229    7980.1845   -603.27197    637.75182    472.04575   -5307.3737 
 4231000    101.28482   -6740.5475   -6479.9985   -6740.5475            0    9058.9458    23.012611    21.215657    21.382987    10439.766    8967.7672    9040.0801    9168.9901    498.28694   -70.553953     2.601817   -5100.7443 
 4232000    99.804132   -6756.3792   -6499.6392   -6756.3792            0    6737.5645     23.21477    21.177398    21.426672    10533.961     6615.631    6343.5933    7253.4692   -957.67994    44.653144    1098.2443   -5464.5672 
 4233000    98.170877     -6758.74   -6506.2014     -6758.74            0    7636.1087    23.230409    21.065424    21.472857    10507.923    6711.8736    8673.7696    7522.6831    358.46221   -50.201017   -243.39674   -5335.9885 
 4234000    99.481482   -6751.6089   -6495.6988   -6751.6089            0     8493.908    23.060205    21.253806    21.374502     10476.01    8570.4397    8051.8915    8859.3927   -777.39077   -293.08239    371.45879   -5197.9838 
 4235000     99.40792   -6760.4938    -6504.773   -6760.4938            0    7359.6801    23.128085     21.31168    21.329196    10513.125    7421.4699    7339.4526    7318.1177    819.40412    597.16247   -678.09338   -5376.3637 
 4236000    97.411172   -6747.3301   -6496.7458   -6747.3301            0    8771.9416    22.950145    21.226075     21.45547     10451.85    9461.9863    8613.4962    8240.3422   -594.42698   -318.40961   -374.62734   -5159.6431 
 4237000    100.23293    -6769.532   -6511.6889    -6769.532            0    6691.8697    23.139873    21.224302    21.430303    10525.014    5836.9272     7656.774     6581.908    104.84488    420.17667   -48.215026     -5484.51 
 4238000     99.92043   -6741.1354   -6484.0962   -6741.1354            0    7710.5038    23.179123    21.176326    21.380982    10494.827     6901.647    8002.1813    8227.6831    100.25393    205.03982    308.44927   -5303.9552 
 4239000    96.024681   -6748.8071   -6501.7894   -6748.8071            0     8269.878    23.127295    21.082086    21.498381        10482    8444.7857    8593.5206    7771.3277    572.01135   -124.02885    518.59787   -5237.5797 
 4240000    97.832674   -6750.5589   -6498.8903   -6750.5589            0    6773.3195    23.019666    21.214865    21.602911    10549.978    7761.4765    6423.9952    6134.4868   -367.95722   -13.615064    512.03446   -5456.7433 
 4241000    101.19014   -6756.4369   -6496.1314   -6756.4369            0    9205.8987    23.047304    21.227419    21.316904    10428.971    8500.7074     9146.928    9970.0608    276.94622    103.35692    345.24019   -5095.9525 
 4242000    98.322381   -6752.6827   -6499.7544   -6752.6827            0    8382.8558    23.177185    21.218387    21.270781    10460.597    8603.4869    8335.3989    8209.6815   -114.04489    259.47714     148.5165   -5220.8903 
 4243000    103.46327   -6759.5934   -6493.4404   -6759.5934            0     8333.224    23.070251    21.194184    21.439547    10482.977    8212.9383    8746.1665    8040.5672   -798.44075    296.00223    66.058439   -5219.4283 
 4244000    100.69483   -6760.2308   -6501.1995   -6760.2308            0    7146.2434     23.19017    21.156112    21.454052    10525.655    7075.9046    7615.8368    6746.9888    803.26449    16.721944   -67.872375   -5404.2091 
 4245000    104.85389   -6745.6404   -6475.9102   -6745.6404            0    7939.8911    23.251534    21.217518    21.239723    10478.402    7536.7554    7880.4812    8402.4365   -631.54392   -297.20805    456.99897   -5262.5619 
 4246000    102.25607   -6766.8578   -6503.8103   -6766.8578            0    8134.6231    23.087561    21.230618    21.395132    10487.106    8803.8218    7145.2681    8454.7794   -919.81626   -561.23087    1100.0706   -5259.6711 
 4247000    98.838203   -6755.0927   -6500.8374   -6755.0927            0    7694.0385    23.051145    21.181892    21.532023    10513.373    8359.9758    7405.4981    7316.6417    800.61979   -260.14725    21.086698   -5321.1354 
 4248000    99.099188    -6747.798   -6492.8714    -6747.798            0    8445.7198     23.07283    21.204286    21.420025    10479.595    8552.4268    8263.5172    8521.2155    407.51402   -188.50222    349.21267   -5202.0771 
 4249000    98.906667   -6757.2923    -6502.861   -6757.2923            0     8112.981    23.166827    21.247592    21.274632     10472.21    7159.5842    7570.4031    9608.9556    9.7002759    636.52405    862.34532   -5263.7943 
 4250000     101.3457   -6743.6129   -6482.9073   -6743.6129            0    6942.2593    23.116105    21.236136    21.468151    10538.646    6976.6113    7396.4184    6453.7482   -616.73172    124.74787   -140.71203   -5415.9144 
Loop time of 662.294 on 64 procs for 250000 steps with 1296 atoms

Performance: 65.228 ns/day, 0.368 hours/ns, 377.476 timesteps/s
194.3% CPU use with 32 MPI tasks x 2 OpenMP threads

MPI task timing breakdown:
Section |  min time  |  avg time  |  max time  |%varavg| %total
---------------------------------------------------------------
Pair    | 39.39      | 50.381     | 63.161     | 100.7 |  7.61
Bond    | 0.83314    | 1.1031     | 1.6737     |  15.3 |  0.17
Kspace  | 346.17     | 361.16     | 375.16     |  41.2 | 54.53
Neigh   | 1.3224     | 1.3904     | 1.4418     |   2.4 |  0.21
Comm    | 90.883     | 95.883     | 100.46     |  22.9 | 14.48
Output  | 0.61002    | 0.61046    | 0.61227    |   0.0 |  0.09
Modify  | 122.22     | 126.18     | 129.72     |  14.0 | 19.05
Other   |            | 25.58      |            |       |  3.86

Nlocal:        40.5000 ave          50 max          28 min
Histogram: 2 3 4 3 3 1 0 4 5 7
Nghost:        3159.72 ave        3185 max        3132 min
Histogram: 1 1 4 3 6 5 6 3 1 2
Neighs:        13254.7 ave       16409 max        9085 min
Histogram: 2 3 3 4 3 1 0 4 7 5

Total # of neighbors = 424151
Ave neighs/atom = 327.27701
Ave special neighs/atom = 2.0000000
Neighbor list builds = 2461
Dangerous builds = 0

unfix		3
unfix		2
unfix		1

write_data	data.final.${pid}
write_data	data.final.0
System init for write_data ...
PPPM initialization ...
  extracting TIP4P info from pair style
  using 12-bit tables for long-range coulomb (../kspace.cpp:340)
  G vector (1/distance) = 0.36925962
  grid = 30 40 32
  stencil order = 5
  estimated absolute RMS force accuracy = 0.0041385073
  estimated relative force accuracy = 1.2462992e-05
  using double precision FFTW3
  3d grid and FFT values/proc = 7888 1280
Last active /omp style is kspace_style pppm/tip4p/omp
WARNING: Not all mixed pair coeffs generated from mixing. Use write_data with 'pair ij' option to store all pair coeffs. (../write_data.cpp:312)

write_restart   restart.lmp.${pid}
write_restart   restart.lmp.0
System init for write_restart ...
PPPM initialization ...
  extracting TIP4P info from pair style
  using 12-bit tables for long-range coulomb (../kspace.cpp:340)
  G vector (1/distance) = 0.36925962
  grid = 30 40 32
  stencil order = 5
  estimated absolute RMS force accuracy = 0.0041385073
  estimated relative force accuracy = 1.2462992e-05
  using double precision FFTW3
  3d grid and FFT values/proc = 7888 1280
Last active /omp style is kspace_style pppm/tip4p/omp
Total wall time: 0:11:02
