#include		in.partitions
include		in.temp
variable        temperature equal 130.10
variable	tempDamp equal 100.0
include		in.pressure
variable        pressure equal 2051.3
variable        pressureDamp equal 1000.0 # This is 1 ps
include		in.seed
variable        seed equal 745823

units		real
atom_style	full
box tilt large
read_restart	restart.lmp.${pid}
read_restart	restart.lmp.0
Reading restart file ...
  restart file = 30 Jul 2021, LAMMPS = 30 Jul 2021
WARNING: Restart file used different # of processors: 32 vs. 16 (../read_restart.cpp:659)
  restoring atom style full from restart
  triclinic box = (-10.632702 -9.2882754 0.13598044) to (12.612702 12.278273 21.724019) with tilt (-9.1128863 1.8939191 2.9428168)
  2 by 2 by 4 MPI processor grid
  restoring pair style lj/cut/tip4p/long/omp from restart
  restoring bond style harmonic/omp from restart
  restoring angle style harmonic/omp from restart
  1296 atoms
  864 bonds
  432 angles
Finding 1-2 1-3 1-4 neighbors ...
  special bond factors lj:    0        0        0       
  special bond factors coul:  0        0        0       
     2 = max # of 1-2 neighbors
     1 = max # of 1-3 neighbors
     1 = max # of 1-4 neighbors
     2 = max # of special neighbors
  special bonds CPU = 0.001 seconds
  read_restart CPU = 0.006 seconds
include 	in.setup
variable	out_freq equal 1000
variable	out_freq2 equal 10000
variable	out_freq3 equal 1000

timestep	2.0

neigh_modify    delay 7 every 1

include		in.tip4p
# This is TIP4P/Ice

# create groups ###
group ox type 2
432 atoms in group ox
group hy type 1
864 atoms in group hy

# set charges - beside manually ###
set group ox charge -1.1794
Setting atom values ...
  432 settings made for charge
set group hy charge 0.5897
Setting atom values ...
  864 settings made for charge

# ### TIP3P Potential Parameters ###
pair_style lj/cut/tip4p/long/omp 2 1 1 1 0.1577 8.5
pair_coeff 1 1*2 0.000 0.000
pair_coeff 2 2 0.21084 3.1668
bond_style  harmonic
bond_coeff  1 450 0.9572
angle_style harmonic
angle_coeff 1 55 104.52
kspace_style pppm/tip4p/omp 1.0e-5
pair_modify tail yes

thermo          ${out_freq}
thermo          1000
thermo_style    custom step temp pe etotal epair emol press lx ly lz vol pxx pyy pzz pxy pxz pyz enthalpy

restart 	${out_freq3} restart.lmp.${pid} restart2.lmp.${pid}
restart 	1000 restart.lmp.${pid} restart2.lmp.${pid}
restart 	1000 restart.lmp.0 restart2.lmp.${pid}
restart 	1000 restart.lmp.0 restart2.lmp.0


include         in.dump
dump            myDump all atom ${out_freq2} dump.water.${pid}
dump            myDump all atom 10000 dump.water.${pid}
dump            myDump all atom 10000 dump.water.0
dump            myDump2 all dcd ${out_freq2} dump.dcd
dump            myDump2 all dcd 10000 dump.dcd
dump_modify     myDump append yes
dump_modify     myDump2 append yes


variable natoms 	equal  "count(all)"                        # NUMBER ATOMS
variable H      	equal  "enthalpy/v_natoms"                 # ENTHALPY-per-atom
variable Vol      	equal  "vol/v_natoms"                 # volume-per-atom
fix AVG all 		ave/time ${out_freq} 1 ${out_freq} v_Vol v_H file vol_enthalpy.dat
fix AVG all 		ave/time 1000 1 ${out_freq} v_Vol v_H file vol_enthalpy.dat
fix AVG all 		ave/time 1000 1 1000 v_Vol v_H file vol_enthalpy.dat


timer           timeout 10:00:00 every 1000
New timer settings: style=normal  mode=nosync  timeout=10:00:00

fix 		1 all shake 1e-6 200 0 b 1 a 1
       0 = # of size 2 clusters
       0 = # of size 3 clusters
       0 = # of size 4 clusters
     432 = # of frozen angles
  find clusters CPU = 0.000 seconds
fix             2 all nph tri ${pressure} ${pressure} ${pressureDamp}
fix             2 all nph tri 2051.3 ${pressure} ${pressureDamp}
fix             2 all nph tri 2051.3 2051.3 ${pressureDamp}
fix             2 all nph tri 2051.3 2051.3 1000
fix             3 all temp/csvr ${temperature} ${temperature} ${tempDamp} ${seed}
fix             3 all temp/csvr 130.1 ${temperature} ${tempDamp} ${seed}
fix             3 all temp/csvr 130.1 130.1 ${tempDamp} ${seed}
fix             3 all temp/csvr 130.1 130.1 100 ${seed}
fix             3 all temp/csvr 130.1 130.1 100 745823


run             250000
PPPM initialization ...
  extracting TIP4P info from pair style
  using 12-bit tables for long-range coulomb (../kspace.cpp:340)
  G vector (1/distance) = 0.36723677
  grid = 30 40 32
  stencil order = 5
  estimated absolute RMS force accuracy = 0.004546922
  estimated relative force accuracy = 1.369292e-05
  using double precision FFTW3
  3d grid and FFT values/proc = 11832 2400
Last active /omp style is kspace_style pppm/tip4p/omp
Neighbor list info ...
  update every 1 steps, delay 7 steps, check yes
  max neighbors/atom: 2000, page size: 100000
  master list distance cutoff = 10.8154
  ghost atom cutoff = 10.8154
  binsize = 5.4077, bins = 7 5 4
  1 neighbor lists, perpetual/occasional/extra = 1 0 0
  (1) pair lj/cut/tip4p/long/omp, perpetual
      attributes: half, newton on, omp
      pair build: half/bin/newton/tri/omp
      stencil: half/bin/3d/tri
      bin: standard
Per MPI rank memory allocation (min/avg/max) = 12.76 | 12.76 | 12.77 Mbytes
Step Temp PotEng TotEng E_pair E_mol Press Lx Ly Lz Volume Pxx Pyy Pzz Pxy Pxz Pyz Enthalpy 
22000000    140.06226   -6659.5612   -6299.2595   -6659.5612            0    2267.4828    23.245403    21.566549    21.588038    10822.583    2287.6399    1311.7547    3203.0539   -104.55713   -278.48794   -66.220694   -5941.3685 
22001000    129.73275    -6671.285   -6337.5555    -6671.285            0    2110.5672    23.092983     21.51576    21.825906    10844.486    3414.1797    845.65609    2071.8657    324.07428    223.44379      325.743   -6003.7572 
22002000    128.65276   -6667.4642   -6336.5128   -6667.4642            0    2130.3329    23.133562     21.55068    21.710816    10823.797    2734.0569    1937.5935    1719.3484   -1188.4494    325.88206   -294.20338   -6000.2313 
22003000    127.37397   -6665.1567    -6337.495   -6665.1567            0    1754.0267    23.227496     21.55206    21.626178    10826.073    2191.0606    1069.9809    2001.0385   -119.90194    421.00907   -60.548281   -6060.5567 
22004000    126.09244   -6681.0305   -6356.6654   -6681.0305            0    1953.8281    23.079135    21.549951    21.799916     10842.28    2279.9365    1181.1419     2400.406     837.2052   -117.49269    441.98721   -6047.7192 
22005000    128.07976   -6671.2873   -6341.8099   -6671.2873            0    1975.5594    23.158953     21.70983    21.551421    10835.557     2458.542    578.03048    2890.1056    46.855833    30.386317    161.08544   -6029.6212 
22006000    133.91655   -6674.7136   -6330.2215   -6674.7136            0    1206.2869    23.235416    21.561207    21.693103    10867.889    1314.9379    67.715505    2236.2073    1048.8872     662.7796    565.61986   -6139.0286 
22007000    132.17612   -6688.3347   -6348.3196   -6688.3347            0     1578.107     23.13659    21.465625    21.846091    10849.672    2500.2494    1942.0806    291.99087    579.30198   -835.63594   -113.86917   -6098.6137 
22008000    130.58728   -6666.6888    -6330.761   -6666.6888            0    1541.4871    23.288631    21.600231    21.503009     10816.87    1319.6976    438.11704    2866.6465   -303.57124    1.1900732    49.148497   -6087.5869 
22009000    135.56896   -6664.2096   -6315.4667   -6664.2096            0     2262.153    23.183016    21.487406    21.717058    10818.197    2864.9307    2836.3083    1085.2201    376.15843   -503.44401   -553.60726   -5958.5616 
22010000    128.35333   -6663.5944   -6333.4133   -6663.5944            0    2627.8569    23.127516     21.43028    21.818621    10813.945     3490.976    2733.8116    1658.7831   -110.59939    127.88196    -83.47646   -5918.9732 
22011000    127.02427   -6666.8268   -6340.0646   -6666.8268            0     2191.151    23.343793    21.531382    21.514054    10813.482    1212.5585    1792.6554    3568.2389    290.19487   -732.85582    115.04558   -5994.5124 
22012000     136.2217   -6667.6237   -6317.2017   -6667.6237            0    2088.0811    23.090492    21.484765    21.852737    10841.007     2239.694    1967.5447    2057.0046    878.87936    739.81962   -389.46803   -5987.0657 
22013000    134.58618   -6671.4983   -6325.2835   -6671.4983            0    1946.5445    23.174007    21.476127     21.75856    10828.972    2475.8033    1508.8477    1854.9826    821.34635   -903.57832    665.37547   -6017.8668 
22014000    126.12905   -6679.4988   -6355.0395   -6679.4988            0    1396.4684    23.324356    21.543963    21.576159    10841.999    1001.1777   -307.69215    3495.9197   -400.22247    427.58183     148.8245   -6134.2307 
22015000    129.53244   -6668.3053    -6335.091   -6668.3053            0    2902.8413    23.086689    21.417048    21.870558     10813.87    3429.4232    3050.7855     2228.315   -184.53527    295.58397   -184.02302   -5877.2863 
22016000    131.42403   -6677.8882   -6339.8079   -6677.8882            0    1468.4238    23.210323    21.426208    21.800509    10841.594    1722.1467    1183.4912    1499.6335    965.47228   -19.365697    703.27223   -6107.6302 
22017000    128.35347   -6668.3618   -6338.1803   -6668.3618            0    1720.7064    23.329203    21.464839    21.663451    10848.138    1515.3745    2565.0055    1081.7391    16.368979   -694.61699   -825.77883   -6065.9491 
22018000    131.94491   -6697.2731   -6357.8529   -6697.2731            0    1225.3334    23.244804    21.436723    21.789791    10857.688    736.61207    1273.9101    1665.4781   -123.25187    768.33968    249.29201   -6163.8235 
22019000    131.17482   -6676.7341   -6339.2948   -6676.7341            0    3179.8479    23.231383    21.375391    21.689646    10770.642    2996.0593    3032.8559    3510.6284    452.80174    796.10822    68.931553   -5839.8082 
22020000    126.74861   -6675.6032   -6349.5501   -6675.6032            0    1980.4881    23.293319    21.496998    21.659707    10845.804    2333.2009     946.5334    2661.7299   -160.14819   -965.35782   -91.024319   -6036.2865 
22021000    123.62141   -6675.1602   -6357.1516   -6675.1602            0    1549.7785    23.267635    21.430711    21.746122    10843.529    1489.6683     1648.575    1511.0921    344.00972   -57.069166    302.72847   -6112.0669 
22022000    132.34051   -6673.0536   -6332.6157   -6673.0536            0    2679.4766    23.211742    21.385281    21.734896    10788.977    2195.9186    3491.3698    2351.1414    624.55407   -338.36741     526.7095   -5911.0103 
22023000    130.90654   -6685.5244   -6348.7753   -6685.5244            0    1848.9673    23.271628    21.500143    21.651947    10833.407    1808.5277    2041.9524    1696.4219    335.34404   -413.62403   -1581.8815   -6056.6493 
22024000    143.44336   -6671.4996   -6302.5003   -6671.4996            0    1851.3061    23.233952    21.463072    21.754453    10848.336    1814.0307    2363.4878    1376.3998   -94.043593   -1127.1758   -206.35314   -6009.6017 
22025000    129.67016   -6651.4718   -6317.9032   -6651.4718            0    1751.9307    23.216253    21.481051    21.801809     10872.77    2009.5492    2036.4151    1209.8279   -316.55752    762.82301    79.727037   -6040.1027 
22026000    132.16417    -6656.803   -6316.8188    -6656.803            0    2011.4339    23.229326    21.611141    21.543955     10815.33    2388.3046    1184.2481    2461.7489    -684.7752    -1132.167    172.79504   -5999.5543 
22027000    130.30372   -6665.6525   -6330.4541   -6665.6525            0    2132.0784    23.198908    21.417782    21.815791    10839.593    2645.3637    2223.5323    1527.3393   -69.553384    295.29659   -528.57582   -5993.4059 
22028000    130.02299   -6690.7466   -6356.2703   -6690.7466            0    1176.3499    23.246757    21.454357    21.736659    10841.033    738.27588    1494.2434    1296.5304    44.386048   -81.993561    439.58863   -6170.2831 
22029000    127.42797    -6676.362   -6348.5613    -6676.362            0    1961.9512    23.387982    21.446398    21.566354    10817.424     705.5399    2127.6978    3052.6157    922.36759    651.04785    610.04065   -6039.0419 
22030000    137.59462   -6669.7095   -6315.7557   -6669.7095            0    2443.1802    23.145861    21.420728    21.839436    10828.018    2890.7283    2265.7777    2173.0345   -400.01512    43.668515    382.51378   -5929.9396 
22031000    132.31178   -6664.1447   -6323.7807   -6664.1447            0    2269.9657    23.267674    21.438618    21.682994    10816.058    2199.4282      2637.04     1973.429     173.9251    437.62903   -595.47952   -5965.7138 
22032000    135.87195   -6674.0346   -6324.5123   -6674.0346            0    2010.4462    23.269053    21.479049    21.625762    10808.494    1500.7211    2090.8493    2439.7683   -204.59722   -114.12912   -235.12396    -6007.604 
22033000    127.84798   -6663.3704   -6334.4893   -6663.3704            0     4026.877    23.148096    21.357597    21.740197    10748.086    5095.2504    3852.8353    3132.5454   -2.3107914    1128.1285    152.40142   -5703.2771 
22034000    126.70339   -6675.9458    -6350.009   -6675.9458            0     1266.711    23.288713    21.430046    21.754323    10857.108    1883.8136    1366.5716    549.74774    592.72637   -925.20302   -359.50873   -6149.4383 
22035000    129.35422   -6684.1404   -6351.3845   -6684.1404            0    2716.4563     23.35335    21.379779    21.611194    10790.241    1912.5501    2480.6281    3756.1908   -535.18711    65.840028    496.75115   -5923.9104 
22036000    125.71231   -6668.0063    -6344.619   -6668.0063            0    2942.3082    23.300289     21.37001    21.640818    10775.557    2770.1547    3176.6893    2880.0805    1639.9898   -735.32728   -286.43617    -5882.234 
22037000    129.43252    -6670.071   -6337.1137    -6670.071            0    2298.2285    23.249463    21.414718    21.750342    10829.075    2861.2418    2051.6067     1981.837    -168.8404   -332.75375    290.41394   -5974.1523 
22038000     131.1843   -6678.0025   -6340.5389   -6678.0025            0    2961.7285    23.253164    21.381867    21.732104    10805.117      3613.91    2902.9487    2368.3267   -887.27162   -909.86409   -700.16235   -5873.8252 
22039000    128.57305   -6668.5733    -6337.827   -6668.5733            0     1811.382    23.303475    21.445901    21.666129    10827.952    2025.0886    988.98384    2420.0735   -501.96921    91.108233    1382.8886   -6051.7834 
22040000    129.74821   -6686.7594   -6352.9901   -6686.7594            0    1652.4976    23.267293    21.451632    21.757601    10859.684    1399.8539      1573.83     1983.809     510.3198    9.1115828   -727.79076   -6091.2719 
22041000    123.12212   -6665.1925   -6348.4683   -6665.1925            0    2638.2184    23.236742    21.438334    21.740688    10830.277    3236.3782    3100.5426    1577.7344   -723.18601   -430.46305   -1290.0631   -5931.7657 
22042000    127.83006   -6674.5838   -6345.7488   -6674.5838            0     1539.827    23.320138    21.410174    21.747409    10858.224    1616.3525    1527.6462    1475.4824     72.81062   -232.92116    979.16622   -6101.9078 
22043000    133.16177   -6671.6724   -6329.1219   -6671.6724            0    1749.6138     23.27997    21.471534     21.70844    10851.109    1164.3624    1862.5551    2221.9241    267.67432   -724.86984    353.17635   -6052.2415 
22044000    133.95624   -6676.4058   -6331.8115   -6676.4058            0    2992.6362    23.276886    21.344821    21.701284    10782.087    3436.0812    3315.2558    2226.5716   -20.957098   -128.97136   -10.816569   -5861.2324 
22045000     123.0207    -6691.693   -6375.2297    -6691.693            0    1611.6596    23.287757    21.400928    21.729393    10829.487    1518.3736    1054.5731    2262.0322   -473.09318   -555.49665     647.2295   -6120.6891 
22046000    132.62877   -6675.9743   -6334.7949   -6675.9743            0    1421.2724    23.286074    21.471218    21.747419    10873.283    1101.0258    1465.5701    1697.2214    -651.0376    305.94644   -487.84893   -6109.4156 
22047000    128.52057   -6683.9149   -6353.3036   -6683.9149            0    870.86477    23.320137    21.427883    21.725716    10856.365    1737.5448    67.397159    807.65234   -293.68676   -162.94577    407.21908   -6215.4205 
22048000    129.06608    -6661.612   -6329.5974    -6661.612            0    2079.7993    23.274039    21.370098    21.803718    10844.482    3054.1963    2091.7569    1093.4448   -938.73557   -70.385311   -532.57086   -6000.6654 
22049000    133.72909   -6673.4238   -6329.4139   -6673.4238            0    1978.4828    23.440226    21.376538    21.643267    10844.811    1389.0534    1897.9021     2648.493   -260.82949   -145.49449    77.321539   -6016.4961 
22050000    131.95382   -6679.8916   -6340.4484   -6679.8916            0    1531.1492    23.420774    21.347845    21.703478    10851.371     1483.321    1487.5539    1622.5728   -563.22835   -28.723419   -475.64564   -6098.1347 
22051000    131.13592   -6663.2816   -6325.9425   -6663.2816            0    1599.4566    23.353881    21.373538    21.772905    10868.056    982.61333    1750.7044    2065.0522    -1083.714     572.6779   -311.66525   -6072.4295 
22052000    124.67265   -6673.1068    -6352.394   -6673.1068            0    2304.5731    23.318302     21.37162    21.704601    10816.485    2222.7346    2235.8661    2455.1185    414.47008   -672.56505    412.05367   -5988.8537 
22053000    129.29051   -6680.7469   -6348.1549   -6680.7469            0    2141.2101    23.350786    21.349845    21.685238    10810.864    1865.3668    2203.1873     2355.076     160.1839   -119.01535     145.0314   -6010.5602 
22054000    132.84327   -6670.9952   -6329.2639   -6670.9952            0    2488.1528    23.338246    21.322592     21.74511     10821.06    1531.6816    3491.4325    2441.3443    355.26238    134.85455   -352.43929   -5936.5984 
22055000    133.23693   -6674.9584   -6332.2145   -6674.9584            0    3066.5402    23.341068    21.269176    21.717665    10781.632    3382.8984    3247.2952     2569.427   -1093.8007    447.97422    364.33912   -5850.0346 
22056000    132.97795   -6660.8187   -6318.7411   -6660.8187            0    2875.8467    23.314291     21.34261    21.695787    10795.559     2875.777    3758.5107    1993.2525   -276.74792     207.7333   -477.00881   -5865.9615 
22057000    131.38757   -6676.3411   -6338.3545   -6676.3411            0    3079.9645    23.317982    21.301687    21.697861    10777.596    2525.5929    3280.4917    3433.8087    -20.31249    265.59694   -444.04049   -5854.2452 
22058000    129.27527   -6674.2703   -6341.7176   -6674.2703            0    2790.1544    23.323283    21.329595    21.645543    10768.142    3645.8728    1682.0191    3042.5712   -23.250873   -460.48694    967.93754   -5903.5453 
22059000    132.64903   -6678.7707   -6337.5391   -6678.7707            0    3207.9176    23.331208    21.305352    21.689957    10781.635    3147.8336    3450.5828    3025.3364    385.09846     63.21065   -6.4171695   -5833.1291 
22060000    129.77074   -6693.0131   -6359.1858   -6693.0131            0    1890.8425    23.353365     21.28531    21.771956    10822.482    1364.6283    2845.9504    1461.9488   -77.041913    249.98333   -752.23221   -6060.7451 
22061000    133.88061   -6686.2288   -6341.8291   -6686.2288            0    2581.1248    23.387082    21.305936    21.656953    10791.306    1890.6989    2918.0882    2934.5874    63.980262   -747.43119    387.54664   -5935.6113 
22062000    130.52179   -6671.3623   -6335.6029   -6671.3623            0    1550.3924    23.325937     21.35102    21.794176    10854.209    1471.2625    1943.6297    1236.2851    -963.2136    234.32086   -182.63427   -6090.1796 
22063000    135.02371   -6664.5152   -6317.1749   -6664.5152            0    1113.6181    23.380243    21.348386    21.777132     10869.63     638.3935    1108.4971    1593.9638   -576.82373   -330.11265    652.46906   -6140.6415 
22064000    130.14945    -6677.043   -6342.2414    -6677.043            0    3147.7331    23.404291    21.245336    21.664781    10772.423    2342.6916    3662.3064    3438.2014     -229.542   -102.34332    163.01499   -5847.7176 
22065000    125.72946   -6691.1906   -6367.7592   -6691.1906            0    1525.1302    23.399913     21.30514    21.728996    10832.739    668.74544    2713.9625    1192.6826   -1008.6473   -551.68787   -778.22235   -6126.8125 
22066000    134.83746   -6668.8744   -6322.0132   -6668.8744            0    1994.9763    23.401248    21.255811    21.805785     10846.47    1355.2343    2938.2336    1691.4611   -238.17225    572.03234   -47.792332   -6006.4386 
22067000    122.45939   -6673.5052   -6358.4859   -6673.5052            0    3599.0693    23.411813    21.238311    21.636293    10758.157     2708.193    3898.7323    4190.2827   -301.54819   -260.30428   -42.179247   -5793.8039 
22068000    130.95894   -6691.3174   -6354.4335   -6691.3174            0    2304.0553     23.41429    21.257136    21.710031    10805.533    2151.2468    2695.8923    2065.0269   -45.660678   -83.733558    -543.1295   -5991.3429 
22069000    121.84572   -6679.2968   -6365.8561   -6679.2968            0    2228.8092    23.301453    21.264678    21.796947    10800.341    1985.8525    3332.3444    1368.2307    80.179174     637.0264   -393.78711   -6014.7921 
22070000    129.06319   -6677.5305   -6345.5233   -6677.5305            0    1437.8907    23.427214    21.416807     21.66866     10871.95    1229.8342    1925.1618    1158.6762    33.066472   -815.14156   -284.51977   -6117.5368 
22071000    130.22608    -6673.072   -6338.0733    -6673.072            0    1623.3495    23.435468    21.236331    21.791815    10845.423    1805.5267    1336.5047    1728.0171   -138.46025   -16.563347   -256.03381   -6081.3091 
22072000    132.07023   -6652.7521   -6313.0095   -6652.7521            0    755.30034    23.410219    21.353268    21.809235    10902.103    247.04838    1166.6746    852.17804    714.61257   -297.19022    853.61148   -6192.9197 
22073000    122.88314    -6670.501   -6354.3916    -6670.501            0    1921.7803    23.403359    21.393408    21.633814    10831.566    1503.5767    2185.0463    2076.7178   -487.10535   -749.86851   -703.19077   -6050.8132 
22074000    130.29161    -6679.325   -6344.1578    -6679.325            0    1590.5865    23.398936    21.351543     21.70624    10844.511    416.36031    2277.2321    2078.1671   -639.55922    243.27761   -32.572456   -6092.5969 
22075000    127.09367   -6670.2204   -6343.2797   -6670.2204            0    1843.2574    23.283291    21.359628    21.798079    10840.673    2544.1899    1423.5911    1561.9913   -92.113002   -251.28094    393.82621   -6051.8605 
22076000    132.22417   -6684.4069   -6344.2683   -6684.4069            0    1462.1484    23.401346    21.443037      21.6072    10842.405    939.17025    1876.3263    1570.9487   -548.90557    62.945692   -317.13648   -6113.0656 
22077000    126.70898   -6677.1354   -6351.1843   -6677.1354            0     1589.411    23.414671     21.24879    21.775864     10834.22    1633.6467     2235.895    898.69142    411.53668   -1185.0473    11.508983   -6100.0478 
22078000    130.62766   -6655.1428   -6319.1111   -6655.1428            0    2000.1079     23.36713    21.277742    21.812972    10845.405    2065.6672     2572.618    1362.0384   -761.19175    72.756323    -154.9881   -6002.7559 
22079000    124.58404   -6676.5809    -6356.096   -6676.5809            0    2323.4508    23.404711    21.350893    21.625377    10806.449    1986.7152    2618.0852    2365.5521   -303.79194   -541.74285    145.50517   -5989.9179 
22080000    135.27125   -6670.9662   -6322.9892   -6670.9662            0     1335.895    23.346446     21.30931     21.83471    10862.695    1476.0644    1526.5396    1005.0809    107.51052   -118.44945    593.22083    -6111.355 
22081000    129.29706    -6680.939   -6348.3302    -6680.939            0    896.88586    23.364569    21.347486    21.829297    10887.903    231.91082    1411.5119    1047.2349   -629.74374    77.340456   -30.799354   -6205.9147 
22082000    127.51585   -6673.2542   -6345.2274   -6673.2542            0    3238.6916    23.396467    21.359935    21.570061    10779.574    2373.1584    3146.8523    4196.0641   -33.715705   -107.73073    707.47095   -5836.0759 
22083000    132.05923   -6685.2117   -6345.4974   -6685.2117            0    1359.4755    23.261816    21.297083    21.892782    10845.878    2106.9614    1532.9997    438.46523   -376.35248   -87.948627    847.67379    -6130.461 
22084000    136.27997   -6663.1954   -6312.6235   -6663.1954            0    1312.0117    23.389224     21.40503    21.722318    10875.215    218.25117    1342.6043    2375.1797     768.5491    394.12424    59.388229   -6104.5334 
22085000    129.41082   -6678.8549   -6345.9534   -6678.8549            0     2711.984     23.38853     21.31893     21.65472    10797.442    2097.5651    3120.3173    2918.0696     419.9772    444.29827    686.23401   -5918.8983 
22086000    134.97332   -6695.8426    -6348.632   -6695.8426            0    2653.5804    23.274018    21.310913    21.745785    10785.705     3228.811     2588.767    2143.1631   -311.49173   -273.84017   -32.969945    -5931.228 
22087000    122.84479   -6672.1473   -6356.1366   -6672.1473            0    2320.3945    23.293434    21.396041    21.726942    10828.432    2482.8515    2201.4562    2276.8756   -404.86928   -683.74108    54.925641   -5989.6963 
22088000    128.21998   -6663.2899   -6333.4518   -6663.2899            0    2857.6957    23.331835    21.355095    21.648747    10786.565    2650.1908     3665.065    2257.8313   -208.99477     671.7295    135.25892   -5883.9049 
22089000    128.00303   -6695.9764   -6366.6964   -6695.9764            0    1961.1172    23.288303    21.341881    21.737168    10803.724     1892.157    2546.6104    1444.5843    395.68282   -913.75307   -106.00115   -6057.7004 
22090000    128.81748   -6680.8222   -6349.4471   -6680.8222            0    2692.4924    23.296831    21.429746     21.63498    10801.159    2685.0643    2017.9946    3374.4184   -321.10567     319.7468   -618.97327   -5925.3154 
22091000    128.18925    -6688.368    -6358.609    -6688.368            0    1393.5847    23.259699    21.473718    21.717124      10847.1    1379.1429    922.15383    1879.4573   -167.03086    468.43979    264.12455   -6138.1525 
22092000    134.15113   -6685.2198   -6340.1242   -6685.2198            0    2218.2675    23.308577    21.341048    21.714443    10801.404    1984.3151    2428.8254    2241.6621    55.043397   -218.19449   -223.63395   -5990.6863 
22093000    125.76066   -6667.4214   -6343.9097   -6667.4214            0    2617.8688    23.397158    21.385748    21.609487    10812.647    1003.0362    3129.3993    3721.1708    493.85523    313.24222   -114.07491   -5931.0944 
22094000    127.36204   -6665.8833   -6338.2522   -6665.8833            0    1292.6474    23.250674    21.418844    21.817702    10865.272    1963.5421    1557.3488    357.05138   -420.38145   -328.86138   -543.46107   -6133.4208 
22095000    122.62061   -6678.7531    -6363.319   -6678.7531            0    1533.5614    23.259024    21.450936    21.755665    10854.507    856.31335    1599.3408    2145.0301     96.03738    1331.2395    828.97344   -6120.5534 
22096000    134.88483   -6673.2574   -6326.2744   -6673.2574            0    1203.5122    23.290861    21.526228    21.670858    10864.996    1154.8241    648.84826    1806.8643   -371.54967    684.06221    -717.2478   -6135.5721 
22097000    129.18569   -6675.4173    -6343.095   -6675.4173            0    1629.6442    23.265346    21.454663    21.733063    10848.062     646.5314    2281.7843    1960.6169    181.60307    241.16319   -204.45888   -6085.2725 
22098000    123.57891    -6680.082   -6362.1828    -6680.082            0    2864.1033    23.129643    21.459333    21.770643    10805.787    3013.3283    2822.0699    2756.9116      407.873   -773.97042    160.77769    -5910.825 
22099000    130.30637   -6674.5216   -6339.3164   -6674.5216            0    1644.1164    23.235239    21.566064    21.615416    10831.326    1356.0272    1302.8171    2273.5048    73.285196    131.95295   -290.17985   -6079.6056 
22100000    124.69772   -6672.1989   -6351.4216   -6672.1989            0    2115.8805    23.201217    21.433571    21.767549    10824.674    2074.8598    2218.6237     2054.158    165.71785    387.77953   -54.531611   -6017.3944 
22101000    131.55203   -6696.1431   -6357.7336   -6696.1431            0    2840.5362    23.193851    21.465454    21.636804     10772.24    3483.1704    2781.7987    2256.6397    1580.2951   -675.72462   -108.82466   -5911.4794 
22102000     129.5816   -6677.0501   -6343.7093   -6677.0501            0    2003.5205    23.222426    21.519908    21.646925    10817.931    3094.4545     1404.302     1511.805   -988.92252    107.20811   -126.92205    -6027.617 
22103000    129.05389   -6661.8488   -6329.8655   -6661.8488            0     2060.671    23.197248    21.412725    21.819456    10838.079    2448.9013    2165.4828     1567.629   -20.886456   -51.309288   -293.60112   -6004.1512 
22104000    134.63852   -6687.3372   -6340.9878   -6687.3372            0    1754.9197    23.283858    21.513104    21.626072    10832.674     1133.691    1020.2247    3110.8433    -310.7318      448.043    1201.6692   -6063.7395 
22105000    129.07528   -6666.6656   -6334.6273   -6666.6656            0    2175.1376    23.273509    21.506708    21.668049    10845.651    2335.7732    1413.8035    2775.8362    344.97222     109.6683   -467.59752   -5990.5799 
22106000    124.67531   -6671.9028   -6351.1832   -6671.9028            0    2207.5937    23.154981    21.397211    21.848465    10824.866    2992.2796    2680.2098    950.29174    387.27369   -568.22363   -64.721539   -6002.6713 
22107000    124.57636   -6668.0296   -6347.5646   -6668.0296            0    1984.4034    23.321385    21.487111    21.593767    10820.835    2035.4724     1700.316    2217.4219    170.39611    395.55372   -268.22007   -6034.4043 
22108000    126.68168   -6674.8262   -6348.9453   -6674.8262            0    2847.5511     23.17181    21.437091    21.765024    10811.475    3081.1585    2749.9684    2711.5265   -668.60321   -109.43147   -266.92345   -5899.9598 
22109000    128.70848   -6683.1248   -6352.0301   -6683.1248            0    2521.2033    23.130241    21.421709    21.787109     10795.28    3428.1037     2368.838    1766.6682    19.877884   -597.78346    40.256226   -5955.0967 
22110000    124.74056   -6671.8294   -6350.9419   -6671.8294            0    2462.5304     23.31837    21.489374    21.568572     10807.95    1991.5377    2575.2579    2820.7955    122.07939   -273.82833    -414.8366   -5962.7908 
22111000    130.06486   -6672.2772   -6337.6932   -6672.2772            0     2038.975     23.31064     21.47536    21.673295    10849.747    2553.6897    1834.7644     1728.471   -114.92351   -645.79201   -467.64063   -6015.0613 
22112000    132.14803    -6677.315   -6337.3723    -6677.315            0    2485.2517    23.161729    21.370706    21.838787    10809.817    3090.5577    2437.0373    1928.1601    453.34211    127.77015    582.95723   -5945.5721 
22113000    131.49247    -6669.725   -6331.4686    -6669.725            0    4060.5697    23.287722    21.461545    21.458595    10724.802    4413.2709    3839.2216    3929.2167   -359.23798   -884.73611    49.974937    -5696.354 
22114000    133.03302   -6675.2598   -6333.0405   -6675.2598            0    1908.6918     23.23868    21.475199    21.721973    10840.465    1945.3549    1902.4011    1878.3194   -1180.9964    1121.9971   -896.43338   -6031.2819 
22115000    130.50065   -6666.8363   -6331.1313   -6666.8363            0    1776.6695    23.171385    21.424463     21.83389    10839.096    2114.3567    2051.2863    1164.3655   -233.57289   -253.86617    134.50792   -6050.2805 
22116000    134.19839   -6705.1302    -6359.913   -6705.1302            0    3542.9783    23.183787    21.378082    21.693482     10751.83    3784.7619    3684.6262    3159.5467    890.83576    -521.7133   -591.60316   -5804.3584 
22117000    128.70165   -6706.4563   -6375.3792   -6706.4563            0    2649.3326    23.307817    21.414203    21.606307    10784.104    2138.9732    2347.6854    3461.3392    520.12914   -289.48964   -65.490936   -5958.7052 
22118000    129.91353   -6687.0375   -6352.8428   -6687.0375            0    3359.2633    23.254516    21.283631    21.725439      10752.8    3750.5395    3025.1778    3302.0727   -628.82514    566.56468    84.086214    -5826.048 
22119000    133.02925   -6690.0381   -6347.8284   -6690.0381            0    2241.2003    23.279373    21.414252    21.678635    10807.025    3162.0773    1153.1411    2408.3826    -76.84727   -153.43106    126.34912   -5994.5943 
22120000    127.83658   -6671.9153   -6343.0635   -6671.9153            0    2733.5804     23.31921     21.38444    21.674055    10808.163    3119.2524    2516.3667    2565.1222    27.857668   -659.49451   -331.56711   -5912.1802 
22121000    125.39275   -6669.5208   -6346.9556   -6669.5208            0    1757.9509    23.350515    21.259044    21.840389    10841.779    1775.4548    2193.3603    1305.0375    616.82896    1248.3172    70.448314    -6068.995 
22122000     134.7325   -6665.8135   -6319.2223   -6665.8135            0    2562.0093    23.340074    21.383109    21.644881      10802.6    2472.8559    2555.8843    2657.2878    101.58339   -564.26613   -169.46015    -5915.591 
22123000    125.01007   -6667.8266   -6346.2458   -6667.8266            0    2130.4573    23.299725    21.317521    21.773845    10814.903    2294.0915    1979.2068    2118.0735   -129.23317    1341.3158   -381.43841    -6010.221 
22124000    130.57582   -6672.2145   -6336.3162   -6672.2145            0    2428.1863    23.349523    21.343319    21.680954    10804.841    2599.4227    2367.4191    2317.7172    208.41821   -311.01622   -387.69904   -5953.6886 
22125000    135.47752   -6676.4897   -6327.9821   -6676.4897            0    2625.7749    23.388352    21.307553    21.680195    10804.294    2241.3907     2911.986     2723.948   -175.64229    3.3785344   -428.16772   -5914.2399 
22126000    134.94856   -6693.6371   -6346.4902   -6693.6371            0    1690.7297    23.339567    21.303647     21.75766    10818.298    1679.6022    2088.3448     1304.242   -806.21299   -51.205678    275.01179   -6079.7373 
22127000    127.62037   -6676.0305   -6347.7348   -6676.0305            0    2615.0413    23.338979     21.33367    21.722744    10815.886    3573.5213    1705.4356    2566.1672   -236.89633   -266.93949    469.27883   -5935.2419 
22128000    130.81165   -6677.7302   -6341.2252   -6677.7302            0    2008.7805    23.421603    21.195046    21.800891    10822.441    1702.0757    2651.9381    1672.3276   -809.38298    704.02804   -288.97239    -6024.171 
22129000    138.38687   -6680.3104   -6324.3186   -6680.3104            0    776.70275    23.417809    21.312431    21.779384    10869.883    632.95726    1462.5018    234.64922   -413.99962    -68.83808   -242.50969    -6201.191 
22130000    122.01902   -6683.7097   -6369.8232   -6683.7097            0    1733.9155    23.389237    21.332973      21.7065    10830.718    864.45436    1749.2773    2588.0148   -23.603502    602.14964    138.12929   -6095.9427 
22131000    128.21335   -6694.9068   -6365.0857   -6694.9068            0    1539.7118    23.366416    21.303593    21.753609    10828.699    1332.3996    2279.0098     1007.726   -261.41029   -334.71321   -263.75244    -6121.926 
22132000    135.33475   -6673.2844    -6325.144   -6673.2844            0    1995.8443    23.350229    21.353861    21.698876    10819.441    1677.4834    1874.0594      2435.99   -434.73856    1160.6485    64.165979   -6010.2188 
22133000    132.60624   -6674.5228   -6333.4013   -6674.5228            0    2643.1199     23.33589    21.339648    21.733274    10822.729    2582.4079    2903.5577    2443.3939    593.63675   -1144.6963    461.15989   -5916.2155 
22134000    121.41664   -6675.5495   -6363.2126   -6675.5495            0    1454.7691    23.337466     21.39729    21.731885    10852.002    1560.1615    1067.0998    1737.0459   -765.09594    136.10062   -24.837841   -6132.9731 
22135000    126.27014   -6683.4799   -6358.6577   -6683.4799            0     1911.554    23.360872    21.429473    21.624064    10825.248    1412.1748    2115.2664    2207.2208    597.95375    16.431241    136.06593   -6056.8708 
22136000    134.28413   -6675.3509   -6329.9132   -6675.3509            0    2459.8957    23.197843    21.444007    21.754582    10821.919    3056.7325    2441.6495    1881.3051   -493.23834    461.07997   -337.38206   -5941.6762 
22137000    131.30084   -6684.5923   -6346.8289   -6684.5923            0    1366.3835    23.249911    21.546509    21.625205    10833.242    1255.8012    1268.0791    1575.2701    559.45686   -548.21013   -423.24915   -6130.9516 
22138000    128.49621   -6688.0755   -6357.5268   -6688.0755            0    2846.0555    23.061505    21.505644    21.754297    10789.098    4179.4032    1486.1077    2872.6557   -387.92103    269.39137     315.3009   -5909.7059 
22139000    131.38364   -6687.6027   -6349.6263   -6687.6027            0    2824.1287    23.169338    21.502536    21.644163    10783.111    2739.5571    2623.8621    3108.9668    246.09148    150.52697    102.80235   -5905.5021 
22140000    133.08553   -6683.8324    -6341.478   -6683.8324            0    2200.1549    23.198699    21.516404    21.618103    10790.732    1719.5897    1912.9228    2967.9523    379.04595    408.28467    539.45943   -5995.2357 
22141000    127.11893   -6678.0398   -6351.0341   -6678.0398            0    2568.9056     22.99988    21.554894    21.774448      10794.9    4057.0258     2148.577     1501.114   -200.69612    238.04237   -540.41142   -5946.6047 
22142000    134.26464   -6686.0065   -6340.6189   -6686.0065            0    1930.8461    23.212751    21.556859    21.603523    10810.274    2706.6106    976.45956    2109.4681    25.805273    328.89813   -287.59923    -6036.208 
22143000    132.33276   -6680.3841   -6339.9661   -6680.3841            0    3011.1782    23.143392    21.478558    21.694908     10784.25    2871.2976    2771.6109    3390.6263   -523.10025    1493.4438    80.789762   -5866.3764 
22144000    129.66082   -6678.9132   -6345.3686   -6678.9132            0    2075.4926    23.131948    21.497068    21.772302    10826.692    3553.0207    1270.7115    1402.7456    511.33171   -649.12591   -390.70741   -6017.6562 
22145000    134.10951   -6667.2808   -6322.2923   -6667.2808            0    2415.2846    23.281345     21.44984    21.644167    10808.689    1713.2461    1462.9611    4069.6465   -707.61206     658.7166    718.06451   -5941.5622 
22146000    133.98691   -6694.3822    -6349.709   -6694.3822            0    2039.9024    23.229673    21.392191    21.777486    10821.965    2643.8148    1826.1147    1649.7778    712.48095   -741.02259    -211.2052   -6027.7568 
22147000    126.47676    -6682.838   -6357.4842    -6682.838            0    2399.7216    23.324311    21.386691    21.631429    10790.402    1960.0336    2712.3368    2526.7945   -899.96185    763.58308    30.103197   -5979.8473 
22148000    127.60747   -6686.9654    -6358.703   -6686.9654            0    1862.6466    23.363568    21.381178    21.664206    10822.151    2194.1138    1917.3179     1476.508   -340.81382   -84.157918    387.25897   -6064.7215 
22149000    132.01799   -6666.6796   -6327.0714   -6666.6796            0    1358.7944    23.278922    21.397402    21.835467    10876.431    1790.6231    1394.4694    891.29066   -381.92675    769.32976   -140.28749   -6111.5373 
22150000     126.9115   -6677.2901    -6350.818   -6677.2901            0    1647.2416    23.389665    21.398921    21.609948    10816.073    1045.8248    2286.3655    1609.5344    292.29684    258.67189    184.44783   -6090.9799 
22151000    133.35191   -6673.9805   -6330.9409   -6673.9805            0    1001.9275    23.286041    21.413855    21.801854    10871.362    1336.5554    1576.5416    92.685325    89.823019    220.29808   -342.35175   -6172.0876 
22152000     130.5229   -6694.9989   -6359.2367   -6694.9989            0    1628.8904    23.277637    21.393936    21.780468    10846.679    2308.2452    1020.3034    1558.1227   -1119.3195    126.01123   -147.95828   -6101.5663 
22153000    135.58679   -6674.2775   -6325.4887   -6674.2775            0    1682.9253    23.386078    21.410317    21.656455    10843.459    1514.4437     767.3537    2766.9786   -523.27104   -285.06731    567.74279   -6059.3497 
22154000    132.23701   -6682.2042   -6342.0326   -6682.2042            0    985.60597    23.291006     21.31544    21.919226    10881.976    1203.7812    2263.8698    -510.8331    62.700026    235.31123   -304.99062   -6185.6145 
22155000    127.52084   -6685.2883   -6357.2487   -6685.2883            0    1841.5858    23.379584    21.351917    21.714017    10839.614    951.54978    2694.8637    1878.3441    599.58699   -315.53969   -687.84898   -6066.1222 
22156000    126.03102   -6694.5904   -6370.3833   -6694.5904            0    1783.9167    23.380504    21.318628    21.716068    10824.163    1725.6612    2508.7213    1117.3677   -1141.1396    557.68609   -558.59858   -6088.7754 
22157000    129.03921   -6683.5523   -6351.6068   -6683.5523            0     1846.754    23.358152    21.267572    21.829975    10844.503    1356.2689    2807.2412     1376.752    454.34248    823.10768   -151.08951   -6059.5316 
22158000    131.05806   -6687.2093   -6350.0704   -6687.2093            0    1779.4601    23.437626    21.363797    21.664509    10847.781    1084.2933    2139.8082    2114.2789    911.16598   -705.89627    -523.0207   -6068.5531 
22159000    130.42454   -6676.3552   -6340.8461   -6676.3552            0    2800.1939    23.365392    21.293368    21.692144    10792.446    2713.8137    2859.0914    2827.6766   -48.418627   -248.16114    492.49987   -5900.1046 
22160000    128.51644   -6679.9156   -6349.3149   -6679.9156            0    1872.6755    23.335539    21.330735    21.754413    10828.568    862.45642    2486.5174    2269.0527    368.58013   -264.07804    753.01869   -6053.5753 
22161000    123.95441   -6677.7524   -6358.8872   -6677.7524            0    1694.8482    23.442083    21.314842    21.675051    10830.249    847.80408    2579.2742    1657.4664    -694.4731    618.27558   -735.49935   -6091.1892 
22162000    130.14328   -6674.5654   -6339.7797   -6674.5654            0    2686.6355     23.35834    21.296105    21.718146    10803.511    2089.8546    3297.5439    2672.5078    326.55568   -641.94816    180.46332   -5916.4784 
22163000    133.47084   -6688.5984   -6345.2528   -6688.5984            0    2519.8363    23.318842    21.333197    21.702816    10796.401    2186.7339    2316.3404    3056.4347   -485.54914   -379.69239    398.19844   -5948.4934 
22164000     127.1067   -6682.2312   -6355.2569   -6682.2312            0    2779.9112    23.310066    21.359128    21.677082    10792.644    2866.4221    3055.1308    2418.1808   -1043.6797   -64.774754   -1302.4043   -5917.6999 
22165000    126.64384   -6670.8971   -6345.1136   -6670.8971            0    2547.1175    23.324387    21.353181    21.676128    10795.792    2011.7806    2552.3485    3077.2234    12.190255    119.76773    581.42342   -5944.0812 
22166000    137.41383   -6678.3567    -6324.868   -6678.3567            0    3170.9104    23.310348    21.284811    21.702731    10767.948    2479.5815    4178.0759    2855.0737    234.99943    375.53551    74.803231   -5826.9099 
22167000    131.58728   -6689.9524   -6351.4521   -6689.9524            0    2194.7585    23.300278    21.341855    21.733514     10807.45    2780.5226    1571.7988     2231.954   -851.11854   -645.32786   -165.56785    -6005.524 
22168000    132.16294   -6669.5416   -6329.5605   -6669.5416            0    2120.0233    23.330808    21.337565    21.722192    10813.799    1333.0304    2707.9876    2319.0518    686.61576     136.0355    625.25446   -5995.2155 
22169000    133.71838   -6658.9795   -6314.9971   -6658.9795            0    2031.3142    23.593244    21.302401    21.589298    10850.625    121.95777     3001.626    2970.3589   -551.25381   -337.47985   -375.81158   -5993.5513 
22170000    128.25447    -6677.411   -6347.4842    -6677.411            0    1233.3415    23.366313     21.33487    21.822203    10878.745    1968.4805    937.02565    794.51849   -1022.1569   -751.99134    243.17895    -6151.808 
22171000     134.5167    -6690.187    -6344.151    -6690.187            0    1220.4516    23.349573    21.311591    21.802317    10849.194    701.29346    2038.6738    921.38748   -527.01256    260.13552    -8.798541   -6151.0458 
22172000    131.50388   -6679.0336   -6340.7479   -6679.0336            0    2135.0786     23.40143    21.393603    21.599974     10813.83    1816.9272    1001.6348    3586.6739   -24.237902   -448.69243    286.98194   -6004.0276 
22173000      126.195   -6678.6411   -6354.0122   -6678.6411            0    1338.9317    23.368663    21.332194    21.817147    10875.953    1101.9653    1958.9211    955.90885     -622.394    664.29174   -116.81443    -6141.638 
22174000    126.64593   -6678.8634   -6353.0745   -6678.8634            0    1378.3012    23.331393    21.356055    21.802286    10863.349     827.6994    1748.5834    1558.6208    844.59958     412.6734   -341.30861   -6134.7091 
22175000    136.05955    -6690.161    -6340.156    -6690.161            0    1984.4194    23.352013     21.37282    21.686091    10823.492    2208.8009     1692.478    2051.9792   -1523.3943    568.45886   -188.43937   -6026.9164 
22176000    127.87755   -6682.3545   -6353.3973   -6682.3545            0    1490.9142    23.381679    21.370834    21.689068    10837.723    1938.9326    881.30274    1652.5074    430.52929   -631.58916    108.31271   -6117.7478 
22177000    133.31276   -6662.6438   -6319.7048   -6662.6438            0    2424.2839    23.321177    21.346884    21.723762    10814.838     1674.562    2661.5224    2936.7672   -615.85992    279.90802    275.92129   -5937.3387 
22178000    128.81674   -6667.0096   -6335.6363   -6667.0096            0    2015.9351    23.371455    21.368263    21.694599    10834.443    2034.4584    1961.2627    2052.0842    492.57627   -200.28151    193.37938      -6017.1 
22179000    127.08079   -6671.3635   -6344.4559   -6671.3635            0    1683.5984    23.335028    21.383605    21.760394    10858.154    1106.4597    2287.8817    1656.4539   -318.12227    262.73294    132.20193   -6077.8496 
22180000     132.5506   -6683.5836   -6342.6053   -6683.5836            0    934.31325    23.429464     21.30636    21.806753    10885.857    602.81817    2018.0472    182.07442   -658.27059    439.51239   -498.92516   -6194.2746 
22181000      129.419   -6678.3519   -6345.4294   -6678.3519            0    1573.3705     23.44159    21.352825    21.662647    10843.112    1330.0811    2083.4724     1306.558   -695.30829    241.78146    15.248316   -6096.6235 
22182000    132.40549   -6673.3964   -6332.7913   -6673.3964            0    2828.0391    23.315476    21.261965     21.79398    10803.992    1753.1774    4269.2517    2461.6881    166.22862   -610.09333     27.30818   -5887.1909 
22183000    127.32009   -6684.3258   -6356.8026   -6684.3258            0    2299.3518     23.38527    21.283448     21.73829    10819.564    1773.5299    3876.1703    1248.3551    1009.1478   -268.70061    -1367.461   -5993.9827 
22184000    130.72064   -6690.2669    -6353.996   -6690.2669            0     2257.117    23.385112     21.33638    21.669674    10812.163    1860.8859     2827.954     2082.511    219.60443   -23.817615    381.85323   -5998.0841 
22185000    128.14739    -6659.519   -6329.8676    -6659.519            0    1627.3297    23.347611     21.29216     21.83552    10854.897    2356.5777    1905.6041    619.80722    308.52638    388.07798     152.8917   -6072.2491 
22186000    134.31937   -6673.6124    -6328.084   -6673.6124            0    2245.1691    23.361784    21.374982    21.688497    10830.318    2547.4737    1401.0174    2787.0163   -663.02671    88.641686    189.54593   -5973.4616 
22187000    130.07148   -6694.5182   -6359.9172   -6694.5182            0    2327.4028    23.355093    21.270203    21.724795    10792.173    2125.6591    1916.8821    2939.6672    249.70103    630.99719    581.00161   -5993.6009 
22188000    132.11915   -6665.0452   -6325.1767   -6665.0452            0    1634.2487    23.268329    21.295755    21.916777    10860.127    1958.8697    2715.8281    228.04845    202.87457   -269.34495   -871.97544   -6066.3382 
22189000    125.83296    -6690.147   -6366.4493    -6690.147            0     2209.374    23.349151    21.376596    21.671077    10816.584    1771.9915    2330.5585    2525.5719    375.28439    199.08292    62.739873   -6017.9233 
22190000    131.98809   -6654.9073    -6315.376   -6654.9073            0    2158.7616    23.321452    21.405042    21.709633    10837.376    2813.1635    706.37553    2956.7458   -539.10536    154.50217    475.93171   -5974.1794 
22191000    135.22049   -6675.4453   -6327.5988   -6675.4453            0    1607.7614    23.269585     21.39468    21.854059    10879.941    1577.9818    1752.1618    1493.1407   -1054.2192   -217.16231   -90.112323   -6072.4908 
22192000    129.08041   -6670.4317   -6338.3802   -6670.4317            0    1084.3514    23.400166    21.447108    21.671961    10876.418    1063.6092    886.97587    1302.4692    18.119882     338.7918   -182.96803   -6166.3789 
22193000    133.67356   -6693.7143   -6349.8472   -6693.7143            0    1648.2809    23.207371    21.472388    21.750095    10838.456    1963.1431    885.16643    2096.5331    -290.2592   -245.42321    189.13414   -6089.3071 
22194000     129.4529   -6676.7815   -6343.7719   -6676.7815            0    1405.1122    23.263045    21.466123    21.762365    10867.415    2045.9086    734.38551    1435.0425   -81.980267    490.00816   -698.14578   -6121.0755 
22195000    127.63102   -6659.7313   -6331.4082   -6659.7313            0    1932.8842    23.318867    21.463431    21.645064    10833.417    1790.0621    1804.0967    2204.4936   -778.30789    835.90384   -280.58897   -6026.0236 
22196000    128.91122   -6680.0465   -6348.4302   -6680.0465            0    1782.5695    23.233133     21.44661    21.770628    10847.693    1939.4752    929.83744    2478.3958    189.66674   -612.80571    267.28282   -6066.4233 
22197000    130.03119   -6672.7317   -6338.2344   -6672.7317            0    1466.1527    23.290791     21.46466    21.709268    10853.091    705.92952    1304.3657     2388.163    258.15456    493.02246    950.76473     -6106.17 
22198000    127.26501   -6655.5331   -6328.1516   -6655.5331            0    2319.4885    23.264088    21.413633    21.673914    10797.264    2322.9696    3231.0513    1404.4445    337.68499   -729.36356    782.06968   -5962.9086 
22199000    135.53312   -6680.6684   -6332.0177   -6680.6684            0    2127.5989     23.23345     21.40179    21.768149    10823.938    2969.7923    1530.9204    1882.0839   -962.72239   -247.93485   -437.51075   -5996.1634 
22200000    127.86023   -6679.9386   -6351.0259   -6679.9386            0    2665.7511    23.269804    21.413507    21.635718    10780.821    2419.5468    2405.5191    3172.1876   -43.451152   -382.14814    910.80612   -5931.8973 
22201000    131.55857   -6674.0907   -6335.6643   -6674.0907            0    2479.9181    23.214616    21.334594    21.781732    10787.934    3272.9506    1522.3519    2644.4518   -175.14204    709.05634    437.23713   -5945.4965 
22202000    129.11369   -6674.4213   -6342.2842   -6674.4213            0    2789.6592    23.238261     21.45728    21.637952    10789.329    2753.3429    2799.6895    2815.9453   -728.77563   -155.25838   -917.21581   -5903.3277 
22203000    123.34532    -6687.657   -6370.3587    -6687.657            0    1357.6719    23.304708    21.421355    21.723667    10844.855    994.74407    1418.0372    1660.2344    1075.3163    89.039391   -762.22665   -6155.6279 
22204000    131.03013   -6684.3919   -6347.3249   -6684.3919            0    2975.1082    23.223664    21.320592    21.774056    10781.256    2998.5103    3120.2594    2806.5549       45.502   -204.35548    808.26401   -5879.5381 
22205000     125.8882   -6676.7484   -6352.9087   -6676.7484            0    2206.2824    23.337895    21.436229     21.62787    10819.915     1668.742    1987.3248    2962.7805    108.56579    228.35288   -769.20564   -6004.7631 
22206000    122.36898    -6677.662   -6362.8752    -6677.662            0    1882.9795    23.282219    21.370004    21.779801    10836.347    2305.0484    2462.6196    881.27065   -53.445844   -223.08381   -218.75817   -6065.2948 
22207000    122.77933   -6675.3963    -6359.554   -6675.3963            0    1118.3254    23.334525    21.426594     21.73428    10866.692    1493.6768    804.11431     1057.185    -720.6514    244.83285   -205.32038   -6182.3223 
22208000    130.79792   -6677.5851   -6341.1154   -6677.5851            0    930.25013    23.314126    21.466052    21.749379    10884.743    1275.4358     988.8606    526.45397    612.37844   -829.73175   -333.27906   -6193.4448 
22209000    128.65869   -6662.4203   -6331.4537   -6662.4203            0     1800.732    23.328623    21.426969    21.705506     10849.75    1357.4464    2210.2587    1834.4908    198.20044   -451.08957    79.601854   -6046.5194 
22210000    133.68022   -6688.2535   -6344.3692   -6688.2535            0     2528.376    23.210279    21.393691    21.775868    10812.884    2845.2409    2668.0242    2071.8628    830.33677   -410.10379    234.17155   -5945.6574 
22211000    131.34466   -6671.3334   -6333.4573   -6671.3334            0    1532.5887    23.271944    21.467674    21.702099    10842.249    1808.3774    1266.0618    1523.3269    608.06865   -433.16422    -348.8154   -6091.1196 
22212000    129.24221   -6684.1615   -6351.6938   -6684.1615            0     2919.202    23.272591     21.47071    21.556766    10771.464    2675.3968    2454.7797    3627.4294   -24.350801    323.35859   -72.718384   -5893.1141 
22213000    128.73194   -6677.8063   -6346.6513   -6677.8063            0    2479.7633    23.150761    21.385992    21.806984    10796.681    3564.2682    1837.1622    2037.8595    -229.7695   -84.798871    657.73445   -5956.1914 
22214000    128.91578   -6676.3998   -6344.7718   -6676.3998            0    1980.6726    23.240702    21.469934    21.686881    10821.241     2393.451    2011.6549    1536.9119   -131.50272   -448.24885   -940.74878   -6032.1886 
22215000    125.39718   -6684.5979   -6362.0213   -6684.5979            0    1754.7311    23.196149    21.442781    21.722513     10804.56    2238.8836    1711.2407     1314.069    61.147624   -68.434909    807.16843   -6085.5223 
22216000    129.04964   -6680.6226   -6348.6503   -6680.6226            0    2213.4784    23.204957    21.449339    21.712688    10807.077    2657.6313    2146.1235    1836.6804     365.1478   -476.39431      683.668   -5999.7836 
22217000    132.38197   -6684.3921   -6343.8475   -6684.3921            0    2678.2922    23.303758    21.391038    21.649319    10792.003    2475.6972    2340.0955     3219.084    54.069149   -195.27388   -480.15756   -5922.3103 
22218000    131.23007   -6676.2344    -6338.653   -6676.2344            0    2246.6308    23.213235    21.378152    21.804368     10820.55    2791.7544    2438.2029    1509.9351   -91.248029    568.63238    1048.6572   -5984.1198 
22219000    128.62369   -6681.6813   -6350.8047   -6681.6813            0    1097.0482    23.312765    21.390215    21.777839    10859.847    799.36355     400.9319    2090.8492    321.80398  -0.36601638    1338.4286   -6177.0545 
22220000    123.04503   -6682.2237   -6365.6978   -6682.2237            0    1424.7691    23.381939    21.397315    21.686121    10849.799    2320.0849       716.12    1238.1022   -912.42101   -406.30402   -641.20713   -6140.2521 
22221000    125.11367    -6675.173   -6353.3257    -6675.173            0    2785.3219     23.29004    21.344351    21.704619    10789.601    3003.9289    2644.1985    2707.8385    656.76034   -169.83645   -111.79569   -5915.0407 
22222000    130.30411   -6692.2576   -6357.0582   -6692.2576            0    1386.5214    23.321991    21.411995    21.710002    10841.332    1354.4197    1785.8411    1019.3034   -340.61558    325.03138    662.88025   -6137.8357 
22223000    130.21575    -6690.903   -6355.9309    -6690.903            0    1851.6885    23.341137    21.478885    21.607023    10832.499    2083.9287    804.62228    2666.5146   -311.44822   -461.93455    352.20843   -6063.3995 
22224000     135.1636   -6681.0395   -6333.3394   -6681.0395            0    2332.4384    23.215862    21.364649    21.841448    10833.331    3160.4069    2336.7596    1500.1487   -739.06693    916.69578   -85.993446   -5964.8304 
22225000    125.36567   -6676.1506    -6353.655   -6676.1506            0    1255.3921    23.283937    21.486704    21.714582    10863.698    1147.6955    1115.2134    1503.2675     412.9611   -474.20864    3.8353943   -6154.7558 
22226000    126.67941   -6672.7759   -6346.9008   -6672.7759            0    2194.9594    23.282595    21.421752    21.723162    10834.514    1382.0067    2899.1759    2303.6956   -397.91678    1171.1776    -457.3442   -6000.0747 
22227000    136.23381   -6663.8414   -6313.3882   -6663.8414            0    2095.6615     23.21668    21.462876    21.695584    10810.838    2518.5628    2431.1754    1337.2462    69.227128   -921.58919   -555.06215   -5982.9758 
22228000    136.76725   -6671.8134   -6319.9879   -6671.8134            0     2363.157    23.290825    21.425281     21.66065    10808.934    2593.0405    2025.9365    2470.4939   -72.110854   -313.34779   -388.58616   -5947.4665 
22229000    132.30748   -6675.9566   -6335.6036   -6675.9566            0     1790.129    23.250986    21.442222     21.70443    10820.804    2200.7486    1650.7171    1518.9214   -229.24928   -1085.0175    140.29516   -6053.1028 
22230000    137.91902   -6678.6466   -6323.8583   -6678.6466            0    2019.6539    23.207808    21.417795    21.791008     10831.44    2891.3536    900.37105    2267.2371    839.76138     -689.094    597.21706   -6004.8228 
22231000    140.02924    -6687.325   -6327.1083    -6687.325            0    2883.0472     23.24325    21.424401    21.644692    10778.466    1883.6266    2861.0449    3904.4699     365.3506   -8.5208839    330.20759   -5873.9138 
22232000    130.37106   -6675.4977   -6340.1261   -6675.4977            0    1692.8506    23.307209    21.447203    21.685468    10840.012    1557.6436    2413.2761    1107.6321    1787.7802   -908.19526   -346.63243   -6072.5026 
22233000    128.01119   -6680.3522   -6351.0512   -6680.3522            0     2183.033    23.228457    21.373682    21.838677    10842.415    3167.5193    1817.8187    1563.7609   -380.04044   -327.97097    143.76874    -6005.858 
22234000    128.77146   -6673.8077    -6342.551   -6673.8077            0    3143.7225    23.294316    21.377463    21.627668    10770.003    2791.4261    3377.0336    3262.7076    309.76664   -336.88414   -100.54602   -5848.7683 
22235000    126.00546   -6672.4356   -6348.2943   -6672.4356            0    1900.3999    23.322006    21.407861    21.720147    10844.311    1606.7344    2968.1113    1126.3539   -39.146212   -303.74167   -305.89427   -6047.7401 
22236000    123.92003   -6665.4627    -6346.686   -6665.4627            0    1595.2686    23.405782    21.344224    21.685682    10833.695    1680.8252    1381.3498    1723.6309   -554.72544   -318.25704    181.17629   -6094.6362 
22237000    123.28799   -6673.5668   -6356.4159   -6673.5668            0    1892.4805     23.30811    21.328032    21.794741    10834.517    2707.7723    1831.4305    1138.2388   -887.03654   -1204.4563   -426.30555   -6057.3845 
22238000    139.24157   -6686.8318   -6328.6413   -6686.8318            0    2103.1137    23.323288    21.384457    21.693198     10819.61    2017.6055    2188.2423    2103.4933   -213.97931   -283.58659   -140.14865   -5996.7849 
22239000    125.56659   -6671.8964    -6348.884   -6671.8964            0    1639.2519    23.432584    21.385811     21.66049    10854.609    991.55416    2093.0527    1833.1488    139.93377   -172.05725   -422.43534   -6089.3849 
22240000    130.57282   -6672.1604   -6336.2698   -6672.1604            0    2622.1562    23.282985    21.286886    21.766784    10788.102    2688.7917    3131.7529    2045.9239    67.368588     101.4711   -234.88308   -5923.7171 
22241000    130.31388   -6684.5833   -6349.3588   -6684.5833            0    2817.3923    23.305948    21.326306    21.680069     10775.64    2371.1148    3431.2989    2649.7632    424.61186     666.9145    552.25401   -5906.6009 
22242000    132.12543   -6691.5912   -6351.7066   -6691.5912            0    2458.8707    23.314242    21.317817    21.741562    10805.746    3178.6026     1959.889    2238.1205   -1207.6488   -273.18554   -448.90059   -5964.2114 
22243000    128.59832   -6664.8034    -6333.992   -6664.8034            0    1832.4213    23.403451    21.330975    21.700698    10833.388    1844.6857    1289.5685    2363.0097   -722.62751    127.57583    560.55718   -6044.4807 
22244000    127.09247   -6669.8405   -6342.9028   -6669.8405            0    2460.8279    23.336875    21.289247    21.753944    10807.892    2554.4721    2407.6582    2420.3532    460.46935   -285.45555    301.30928   -5955.0222 
22245000     140.3858   -6681.8179    -6320.684   -6681.8179            0    2167.5179    23.340377    21.346313    21.733231    10828.169    2084.3226    2799.3432    1618.8881   -368.92723   -79.927488    -785.8671   -5978.3944 
22246000    126.89217   -6680.9123   -6354.4899   -6680.9123            0    2110.5849    23.401066    21.258533     21.75741     10823.71    1455.0185    3361.9502    1514.7861    472.46154    173.19334     691.9344   -6021.3283 
22247000     128.6701   -6675.6185   -6344.6225   -6675.6185            0    964.53529    23.439622    21.286461    21.787607    10870.852   -130.45343    2042.9583    981.10099    539.04266   -25.686475   -504.31995   -6191.7049 
22248000    130.20808   -6671.0058   -6336.0535   -6671.0058            0    2558.7624    23.325244    21.361301    21.689398    10806.907    2315.9374    2501.3804    2858.9694   -282.89252    -1118.488   -537.35748    -5932.773 
22249000    130.14166   -6683.0105    -6348.229   -6683.0105            0    2113.1754     23.36431    21.196356    21.802862    10797.611    976.35336    3111.5474    2251.6254    874.01063    686.08611    676.72686   -6015.4628 
22250000    136.78676   -6664.6646    -6312.789   -6664.6646            0    1759.7122    23.496702     21.25814    21.687065    10832.606    351.91016    2817.3388    2109.8876    51.997259     469.6021    668.50866   -6034.7853 
Loop time of 526.862 on 64 procs for 250000 steps with 1296 atoms

Performance: 81.995 ns/day, 0.293 hours/ns, 474.507 timesteps/s
388.6% CPU use with 16 MPI tasks x 4 OpenMP threads

MPI task timing breakdown:
Section |  min time  |  avg time  |  max time  |%varavg| %total
---------------------------------------------------------------
Pair    | 38.859     | 49.132     | 57.168     |  70.4 |  9.33
Bond    | 1.4942     | 1.7137     | 2.4028     |  19.5 |  0.33
Kspace  | 267.55     | 275.66     | 284.28     |  30.6 | 52.32
Neigh   | 1.4811     | 1.5439     | 1.6193     |   3.7 |  0.29
Comm    | 50.49      | 55.637     | 58.856     |  26.4 | 10.56
Output  | 0.47554    | 0.47586    | 0.47709    |   0.0 |  0.09
Modify  | 126.39     | 131.05     | 134.02     |  15.7 | 24.87
Other   |            | 11.65      |            |       |  2.21

Nlocal:        81.0000 ave          96 max          63 min
Histogram: 2 1 1 0 1 4 3 0 2 2
Nghost:        3658.25 ave        3692 max        3609 min
Histogram: 1 0 1 1 3 2 2 4 1 1
Neighs:        25781.2 ave       30546 max       19956 min
Histogram: 2 1 1 0 1 4 3 0 2 2

Total # of neighbors = 412499
Ave neighs/atom = 318.28627
Ave special neighs/atom = 2.0000000
Neighbor list builds = 3534
Dangerous builds = 0

unfix		3
unfix		2
unfix		1

write_data	data.final.${pid}
write_data	data.final.0
System init for write_data ...
PPPM initialization ...
  extracting TIP4P info from pair style
  using 12-bit tables for long-range coulomb (../kspace.cpp:340)
  G vector (1/distance) = 0.36806463
  grid = 30 40 32
  stencil order = 5
  estimated absolute RMS force accuracy = 0.0043445381
  estimated relative force accuracy = 1.3083447e-05
  using double precision FFTW3
  3d grid and FFT values/proc = 11832 2400
Last active /omp style is kspace_style pppm/tip4p/omp
WARNING: Not all mixed pair coeffs generated from mixing. Use write_data with 'pair ij' option to store all pair coeffs. (../write_data.cpp:312)

write_restart   restart.lmp.${pid}
write_restart   restart.lmp.0
System init for write_restart ...
PPPM initialization ...
  extracting TIP4P info from pair style
  using 12-bit tables for long-range coulomb (../kspace.cpp:340)
  G vector (1/distance) = 0.36806463
  grid = 30 40 32
  stencil order = 5
  estimated absolute RMS force accuracy = 0.0043445381
  estimated relative force accuracy = 1.3083447e-05
  using double precision FFTW3
  3d grid and FFT values/proc = 11832 2400
Last active /omp style is kspace_style pppm/tip4p/omp
Total wall time: 0:08:46
