#include		in.partitions
include		in.temp
variable        temperature equal 85.64
variable	tempDamp equal 100.0
include		in.pressure
variable        pressure equal 1168.8
variable        pressureDamp equal 1000.0 # This is 1 ps
include		in.seed
variable        seed equal 745823

units		real
atom_style	full

read_restart	restart.lmp.${pid}
read_restart	restart.lmp.1
Reading restart file ...
  restart file = 30 Jul 2021, LAMMPS = 30 Jul 2021
  restoring atom style full from restart
  orthogonal box = (-0.0033215317 0.10961533 -0.10433345) to (20.003323 19.890386 20.804331)
  4 by 4 by 4 MPI processor grid
  restoring pair style lj/cut/tip4p/long/omp from restart
  restoring bond style harmonic/omp from restart
  restoring angle style harmonic/omp from restart
  972 atoms
  648 bonds
  324 angles
Finding 1-2 1-3 1-4 neighbors ...
  special bond factors lj:    0        0        0       
  special bond factors coul:  0        0        0       
     2 = max # of 1-2 neighbors
     1 = max # of 1-3 neighbors
     1 = max # of 1-4 neighbors
     2 = max # of special neighbors
  special bonds CPU = 0.005 seconds
  read_restart CPU = 0.014 seconds
include 	in.setup
variable	out_freq equal 1000
variable	out_freq2 equal 10000
variable	out_freq3 equal 1000

timestep	2.0

neigh_modify    delay 7 every 1

include		in.tip4p
# This is TIP4P/Ice

# create groups ###
group ox type 2
324 atoms in group ox
group hy type 1
648 atoms in group hy

# set charges - beside manually ###
set group ox charge -1.1794
Setting atom values ...
  324 settings made for charge
set group hy charge 0.5897
Setting atom values ...
  648 settings made for charge

# ### TIP3P Potential Parameters ###
pair_style lj/cut/tip4p/long/omp 2 1 1 1 0.1577 8.5
pair_coeff 1 1*2 0.000 0.000
pair_coeff 2 2 0.21084 3.1668
bond_style  harmonic
bond_coeff  1 450 0.9572
angle_style harmonic
angle_coeff 1 55 104.52
kspace_style pppm/tip4p/omp 1.0e-5
pair_modify tail yes

thermo          ${out_freq}
thermo          1000
thermo_style    custom step temp pe etotal epair emol press lx ly lz vol pxx pyy pzz pxy pxz pyz enthalpy

restart 	${out_freq3} restart.lmp.${pid} restart2.lmp.${pid}
restart 	1000 restart.lmp.${pid} restart2.lmp.${pid}
restart 	1000 restart.lmp.1 restart2.lmp.${pid}
restart 	1000 restart.lmp.1 restart2.lmp.1


include         in.dump
dump            myDump all atom ${out_freq2} dump.water.${pid}
dump            myDump all atom 10000 dump.water.${pid}
dump            myDump all atom 10000 dump.water.1
dump            myDump2 all dcd ${out_freq2} dump.dcd
dump            myDump2 all dcd 10000 dump.dcd
dump_modify     myDump append yes
dump_modify     myDump2 append yes


variable natoms 	equal  "count(all)"                        # NUMBER ATOMS
variable H      	equal  "enthalpy/v_natoms"                 # ENTHALPY-per-atom
variable Vol      	equal  "vol/v_natoms"                 # volume-per-atom
fix AVG all 		ave/time ${out_freq} 1 ${out_freq} v_Vol v_H file vol_enthalpy.dat
fix AVG all 		ave/time 1000 1 ${out_freq} v_Vol v_H file vol_enthalpy.dat
fix AVG all 		ave/time 1000 1 1000 v_Vol v_H file vol_enthalpy.dat


timer           timeout 02:55:00 every 1000
New timer settings: style=normal  mode=nosync  timeout=02:55:00

fix 		1 all shake 1e-6 200 0 b 1 a 1
       0 = # of size 2 clusters
       0 = # of size 3 clusters
       0 = # of size 4 clusters
     324 = # of frozen angles
  find clusters CPU = 0.002 seconds
fix             2 all nph aniso ${pressure} ${pressure} ${pressureDamp}
fix             2 all nph aniso 1168.8 ${pressure} ${pressureDamp}
fix             2 all nph aniso 1168.8 1168.8 ${pressureDamp}
fix             2 all nph aniso 1168.8 1168.8 1000
fix             3 all temp/csvr ${temperature} ${temperature} ${tempDamp} ${seed}
fix             3 all temp/csvr 85.64 ${temperature} ${tempDamp} ${seed}
fix             3 all temp/csvr 85.64 85.64 ${tempDamp} ${seed}
fix             3 all temp/csvr 85.64 85.64 100 ${seed}
fix             3 all temp/csvr 85.64 85.64 100 745823


run             250000
PPPM initialization ...
  extracting TIP4P info from pair style
  using 12-bit tables for long-range coulomb (../kspace.cpp:340)
  G vector (1/distance) = 0.37255126
  grid = 24 24 25
  stencil order = 5
  estimated absolute RMS force accuracy = 0.0033898285
  estimated relative force accuracy = 1.0208368e-05
  using double precision FFTW3
  3d grid and FFT values/proc = 2366 288
Last active /omp style is kspace_style pppm/tip4p/omp
Neighbor list info ...
  update every 1 steps, delay 7 steps, check yes
  max neighbors/atom: 2000, page size: 100000
  master list distance cutoff = 10.8154
  ghost atom cutoff = 10.8154
  binsize = 5.4077, bins = 4 4 4
  1 neighbor lists, perpetual/occasional/extra = 1 0 0
  (1) pair lj/cut/tip4p/long/omp, perpetual
      attributes: half, newton on, omp
      pair build: half/bin/newton/omp
      stencil: half/bin/3d
      bin: standard
Per MPI rank memory allocation (min/avg/max) = 9.229 | 9.232 | 9.238 Mbytes
Step Temp PotEng TotEng E_pair E_mol Press Lx Ly Lz Volume Pxx Pyy Pzz Pxy Pxz Pyz Enthalpy 
 3750000     88.64453   -5073.8446   -4902.8862   -5073.8446            0     2385.652    20.006644     19.78077    20.908665    8274.5379    2478.5605     2394.135    2284.2607    320.49165    888.26083   -573.58309   -4614.9961 
 3751000    86.837109   -5084.7483   -4917.2757   -5084.7483            0    2177.6716    19.902679    19.778968    21.010527    8270.8875     2567.062    3183.6521    782.30063   -22.977186   -474.58214     87.70896   -4654.5997 
 3752000    87.838828   -5085.8423   -4916.4377   -5085.8423            0    867.15601    20.012244    19.985344    20.873036    8348.2036    420.56331    759.55855    1421.3462    49.270506   -17.894937     337.7885   -4810.8615 
 3753000    84.112033   -5085.9967   -4923.7796   -5085.9967            0    1918.0716    20.065772     19.83841    20.861525      8304.41    1544.8411     3343.044    866.32965   -7.0986828    277.40087    470.06202   -4691.4794 
 3754000     80.06218   -5083.2213   -4928.8146   -5083.2213            0    1118.1851    19.935001    19.948072    20.897734    8310.2939    2283.7751   -26.103933    1096.8842   -112.90019    93.985871   -18.329969   -4793.2938 
 3755000    83.873155   -5079.7846   -4918.0282   -5079.7846            0    396.85706    20.047277    20.018501    20.816335    8353.9372   -192.21386    689.68122    693.10383   -307.08729    -216.8622     205.7778   -4869.6777 
 3756000    84.851875   -5072.8135   -4909.1695   -5072.8135            0    1497.8747     19.94253    20.030731    20.828123     8320.074    2160.7624    853.00612    1479.8557   -158.25333    28.667858    587.64502   -4727.4177 
 3757000    85.143264    -5079.051   -4914.8451    -5079.051            0    1499.2586    19.924599    20.057448    20.802059    8313.2647     3850.321   -799.63394    1447.0888   -595.79357   -172.43623   -37.728422   -4733.0743 
 3758000    89.001119    -5086.619   -4914.9729    -5086.619            0    942.69954    20.007757    19.950257    20.724679    8272.4609    1290.3115    24.571736    1513.2154   -29.267909    609.72999    14.322533   -4801.2405 
 3759000    89.337679   -5077.4318   -4905.1366   -5077.4318            0    473.82183    20.182735    19.984747    20.640501    8325.2814   -527.65887    1460.0835    489.04082   -195.98569   -416.90507   -591.46295   -4847.6072 
 3760000    87.380178   -5081.1088   -4912.5888   -5081.1088            0    1364.9959    20.013586    19.963702    20.836049    8324.9447    1058.2679    1338.2178    1698.5021    10.200223   -630.32859   -804.37858   -4746.8635 
 3761000     85.03605   -5084.4429   -4920.4438   -5084.4429            0    732.63004    20.016974    19.993444    20.807576    8327.3633    701.12764    942.32438    554.43812     57.27973   -791.56439   -21.180012   -4831.4687 
 3762000    90.577605   -5077.6303   -4902.9437   -5077.6303            0     1020.597    19.961944    20.030608    20.806454    8319.4583    1939.6273    -379.4792    1501.6428    247.10276    221.59215    962.74851   -4779.1139 
 3763000    87.088898   -5071.7688   -4903.8105   -5071.7688            0    1067.9031    19.958508       20.053    20.753552    8306.1522    119.71573    925.71176    2158.2817    245.62025    372.89762    136.30291   -4774.4483 
 3764000    87.395946   -5088.1769   -4919.6265   -5088.1769            0    124.43621    20.025989    20.021453    20.837437    8354.7582    317.02411    357.93105   -301.64653   -63.099995    752.56057    481.65167   -4904.4645 
 3765000    84.870313   -5083.6074   -4919.9279   -5083.6074            0     1080.583     20.00263    20.087355    20.718054    8324.5128    1123.6935    124.60463     1993.451   -330.04031   -247.91194   -416.80568   -4788.7403 
 3766000    86.657326   -5084.9438   -4917.8178   -5084.9438            0    375.00195    20.093708    19.943043    20.867958    8362.4103     390.2182    507.21838    227.56927    137.92041   -46.186281    8.2332573   -4872.0836 
 3767000     86.53518   -5085.6551   -4918.7647   -5085.6551            0     997.5054    19.993673      19.9747    20.916321    8353.3009    1800.0206    1098.9253    93.570276    387.19269    476.28329     595.2685   -4797.2443 
 3768000    83.837744   -5086.2992    -4924.611   -5086.2992            0    1630.4419    19.991882    20.033116    20.802902    8331.5558    1603.0843    934.05059    2354.1908   -303.54593    478.77687    475.72287   -4726.5006 
 3769000    82.431086    -5074.852   -4915.8767    -5074.852            0    1000.9507    19.958566    19.993513    20.849769    8319.9303    594.61288    1094.2668    1313.9724    -180.6382    214.85819    567.74305   -4794.4237 
 3770000    86.740571   -5084.7327   -4917.4463   -5084.7327            0    1862.1344    19.848773    20.051988    20.874939    8308.3795    2413.0296    1536.1402    1637.2333    136.46728    764.37587   -173.80505   -4691.8129 
 3771000    80.936986   -5081.6116   -4925.5178   -5081.6116            0    842.00131    20.018395    19.959087    20.875669    8340.8506    1233.4518    464.18638    828.36577   -225.86734      280.208   -17.358839   -4823.0944 
 3772000    84.155867   -5076.4934   -4914.1917   -5076.4934            0    1240.6937    19.942335    19.968844     20.81208    8287.8985    1544.0523    1392.1744    785.85434    -91.32105    376.56975   -40.832295   -4764.2285 
 3773000    81.960269   -5084.3083    -4926.241   -5084.3083            0    906.73696    19.936315    20.015475    20.899608    8339.6711     852.5281    563.36071    1304.3221    -32.81988    295.29408     250.5273   -4815.9587 
 3774000    90.617094   -5076.8928   -4902.1301   -5076.8928            0    1673.8986    20.001044    19.924004    20.926923    8339.3973    870.23847    2343.2471    1808.2103    349.56841    1129.6931    439.03239    -4698.548 
 3775000    88.440975   -5076.6614   -4906.0956   -5076.6614            0     1217.988    19.954415     19.85341    20.894688     8277.706    406.79802    1905.7337    1341.4324    527.51687    145.87206   -371.47065   -4759.0578 
 3776000    86.736606   -5071.0611   -4903.7823   -5071.0611            0    1446.9818    19.930499     19.85021    20.972682    8297.3086    1505.8783    2237.0964    597.97063   -91.231556    446.65647     -829.521   -4728.6863 
 3777000    88.264083   -5074.1451   -4903.9204   -5074.1451            0    1029.6463    19.980564    19.904573    20.915936    8318.3639    722.65415     1754.365    611.91971    152.16328   -240.59028    197.87695    -4779.009 
 3778000    87.399031   -5089.5887   -4921.0323   -5089.5887            0     1782.144    19.890144    20.064025    20.743596    8278.2784    1866.0935    1998.3168    1482.0216    263.26626   -246.93768    625.20117   -4705.8737 
 3779000    88.059934   -5084.0661   -4914.2351   -5084.0661            0    1114.7104    20.079431    19.955623    20.780643    8326.7531    1224.0735     506.1388     1613.919    74.424775    60.757456    198.66819   -4778.8678 
 3780000    88.944244   -5080.1743   -4908.6378   -5080.1743            0    1523.8833    20.243546    19.858584     20.72644    8332.1982    320.97814    1884.8682    2365.8037   -116.55667    317.24576    114.76338   -4723.4608 
 3781000    88.957856   -5079.4291   -4907.8664   -5079.4291            0    1165.2294    19.972995    19.997045    20.862524    8332.5104    703.23297     1204.104    1588.3513   -348.64285     50.37982   -318.66587   -4766.2664 
 3782000    84.034748    -5073.846   -4911.7779    -5073.846            0    1219.6219    19.946679    19.990401    20.843736    8311.2752    1143.1014    1970.0971    545.66707    -172.7525    529.20838    66.752096   -4763.9458 
 3783000    84.816595   -5078.5754   -4914.9995   -5078.5754            0    191.98316    20.126847    19.961743    20.733435    8330.0091   -664.72871    199.26337    1041.4148   -60.911364    270.12687    918.48751   -4891.6765 
 3784000    88.302354   -5094.2627   -4923.9642   -5094.2627            0    1476.3143    20.002594     19.93933    20.853969    8317.3623    780.77823    2384.7181    1263.4467   -86.940559    428.94144    243.33377   -4744.8869 
 3785000    83.900796   -5092.6836   -4930.8738   -5092.6836            0    827.04062    19.950768     19.91786    20.952632     8326.086     806.7117    1815.7191   -141.30898   -26.215622    -181.2506    161.08841   -4830.4484 
 3786000    82.768688   -5084.6691   -4925.0428   -5084.6691            0    2145.2787    20.013163    19.832196    20.895061    8293.3537    1553.5596    2768.4513     2113.825   -117.72556   -537.81524    782.24422   -4665.5712 
 3787000    85.483417   -5081.1146   -4916.2526   -5081.1146            0     1110.447     19.98965     19.92914    20.846746    8304.8545    1843.1643    1117.6595    370.51711    272.53364    491.09938    166.03882   -4781.7578 
 3788000    86.423518   -5076.1098   -4909.4348   -5076.1098            0    1831.7586    20.070241    19.759776    20.960829    8312.7182    379.90564    3453.6816    1661.6887    -582.2327     371.1785     337.6739   -4687.3661 
 3789000    86.189678   -5088.4664   -4922.2423   -5088.4664            0    879.57264    20.016001    19.896672    20.910888    8327.7986    864.88857    1227.3385     546.4908    -589.3619    828.08215    223.62269   -4815.4161 
 3790000    83.664041   -5079.3023   -4917.9492   -5079.3023            0    973.82702    20.094442    19.959484    20.670929    8290.5869    1254.7336    588.85593    1077.8915   -289.55783   -654.45375   -206.26674    -4800.204 
 3791000    85.193601   -5080.6977   -4916.3946   -5080.6977            0    204.78663    20.040004    19.921544    20.914307    8349.5731   -758.59558    761.01212    611.94335    351.49806    842.12393   -517.88022   -4891.4578 
 3792000    85.713444   -5084.5807   -4919.2751   -5084.5807            0    1402.1705    19.913526    19.990199     20.88307    8313.0354    1529.8369    1518.8889    1157.7857   -98.005422     1334.836   -304.21974     -4749.28 
 3793000    86.124061   -5075.2493   -4909.1518   -5075.2493            0    2054.0129    19.943141    20.010003    20.795529    8298.7118    2778.9859    1385.1674    1997.8854   -249.62437     224.8912    374.46753   -4660.5583 
 3794000    83.891508   -5088.7784   -4926.9866   -5088.7784            0    1110.0642    19.968757     20.07086    20.727199     8307.257    1529.0542    893.96833    907.16993   -108.32007    476.19323   -205.91557   -4792.4992 
 3795000    82.819414   -5089.3418   -4929.6176   -5089.3418            0     946.5983    19.909339    19.942452    20.960248    8322.0786    606.11829    1844.1586    389.51799    93.164572    690.52782   -880.34774   -4814.7299 
 3796000     85.36217   -5086.7183   -4922.0901   -5086.7183            0     2130.676    19.973822    19.957641    20.762517    8276.5697    2412.5936     1947.324    2032.1105   -51.433706    1132.2427   -134.28995   -4664.9063 
 3797000     85.00304    -5082.946   -4919.0105    -5082.946            0    1941.2211    19.864672    19.994071    21.018751    8348.1365    2631.6062     1072.323     2119.734   -270.12039    25.775236    -866.2817   -4682.6687 
 3798000    82.832745   -5085.2487   -4925.4988   -5085.2487            0    1676.7209    20.017042    19.944074    20.789405    8299.5747    1156.2704     1510.888    2363.0044   -367.50669   -32.365174    79.301649   -4722.5472 
 3799000    84.612028   -5076.9297   -4913.7483   -5076.9297            0     1577.255    19.893649    20.030063    20.821144    8296.6231    1394.1646    1854.2567    1483.3438   -365.17413    -89.62833    1090.0499    -4722.904 
 3800000    80.800468    -5084.707   -4928.8765    -5084.707            0    1425.4041    20.076423    19.883543    20.756281    8285.7088    514.12827    2591.0477    1171.0363    71.443567   -152.33889    -795.8501   -4756.6327 
 3801000    89.705435    -5065.916   -4892.9115    -5065.916            0    1116.8655    19.998282    20.054476    20.727369    8312.8163     1242.545     540.2108    1567.8407    109.92764    320.13062    9.6856781   -4757.5095 
 3802000    82.313863   -5082.6325   -4923.8833   -5082.6325            0    1243.9178    20.005651    19.943521    20.845065     8316.829    622.06933     2112.669    997.01516    75.026018    79.607798    -232.0091   -4773.0055 
 3803000    82.655015   -5086.8258   -4927.4186   -5086.8258            0    277.87401    19.995604    19.938759    20.926757    8343.2372   -106.97984    875.74719    64.854659   -123.22904   -287.61686    430.35704   -4893.6076 
 3804000     87.70284   -5076.7326   -4907.5903   -5076.7326            0    597.15863    19.998985    20.013415    20.900376    8365.3334    154.11926    925.79239    711.56424    90.455491   -46.408773    177.17099   -4834.7371 
 3805000    84.517587   -5076.9657   -4913.9664   -5076.9657            0    1278.1288    19.970647    19.937724    20.851736    8302.5198    1245.7937    1379.7342    1208.8584   -360.35326    818.92078    391.28203   -4759.2058 
 3806000    89.604289   -5074.4535   -4901.6441   -5074.4535            0    1334.2081    20.078636    19.917129    20.731818     8290.836    115.53985    1567.1655     2319.919   -68.187577   -585.12494   -128.25919   -4740.3205 
 3807000    82.898178   -5086.8502   -4926.9741   -5086.8502            0    888.50482    19.918369    19.997567    20.933447    8338.1876    895.00991    1074.1046    696.39991   -280.36622   -668.05851   -45.201527   -4818.9284 
 3808000    84.555177   -5079.9447   -4916.8729   -5079.9447            0    844.99408    19.977239    20.005814    20.938042    8368.1175    1162.4189    453.35708    919.20622    160.50184   -409.91817    248.78849   -4813.7495 
 3809000    87.756194   -5088.2565   -4919.0113   -5088.2565            0    773.90418    20.000417    19.996656    20.950629    8379.0251    614.30986    583.16405    1124.2386    -64.33417    610.92632   -113.46442   -4824.4406 
 3810000    88.233217   -5085.9807   -4915.8155   -5085.9807            0    1687.7136    19.921678    19.880231    20.881786    8270.1806    2313.0563    1329.4525     1420.632    -315.2113    1336.2013    9.4268113   -4712.2568 
 3811000    85.961576   -5080.8789   -4915.0948   -5080.8789            0    781.48052    19.985832    19.987817    20.848343    8328.3536      815.304    214.03496    1315.1026   -611.91935     576.4145   -190.36665   -4820.1758 
 3812000    89.596927   -5074.8217   -4902.0265   -5074.8217            0    1482.3386    19.937672    19.955605    20.917055    8322.2334    2287.7236     982.9593    1176.3329   -173.99006   -209.84533    393.94985   -4722.1132 
 3813000    86.652027   -5074.6021   -4907.4864   -5074.6021            0    1821.7188    19.953584    19.897502     20.82844    8269.4424    2585.2765    1442.1311    1437.7489    71.014833    336.11349   -72.483549   -4687.7847 
 3814000    86.065025   -5081.5801   -4915.5964   -5081.5801            0    2890.2894    19.889228    19.990496    20.687156     8225.121    2225.2079    3827.3274    2618.3329   -113.07609    277.71179   -206.26202   -4568.8919 
 3815000     86.98997    -5087.164   -4919.3966    -5087.164            0    2506.4383    20.034878    19.899246    20.714303    8258.3566    1858.3713    2598.5714     3062.372    326.60737    458.34972    690.19575    -4617.522 
 3816000    88.885262   -5074.6608   -4903.2381   -5074.6608            0    1523.1694    19.922485    19.970455    20.962415    8340.1291    2691.9308    1238.6325     638.9449    165.37649    876.26201    -374.8418   -4717.9716 
 3817000    86.134281   -5088.6228   -4922.5056   -5088.6228            0    1236.9059    19.973368    19.914147    20.906729    8315.7058    1237.7597    1830.5298    642.42813   -173.26912   -144.98349    1365.9184   -4772.4986 
 3818000    86.095184   -5082.8711   -4916.8293   -5082.8711            0    1643.6117    19.997439    19.921553    20.860083    8310.2411     739.4489    2460.5659    1730.8202    -203.4086    107.51572   -172.15767   -4717.6296 
 3819000    82.605476   -5088.8032   -4929.4916   -5088.8032            0    1844.1849    19.968041    19.822468    21.028347    8323.3527     2595.587    1876.7604    1060.2073    383.29114    1157.4905    343.69435   -4705.6305 
 3820000    89.642132   -5084.1721   -4911.2897   -5084.1721            0    1022.4263    20.036756    19.886607    20.937909    8342.9837    1139.4044    843.74418    1084.1304   -543.84897    119.81368    633.96212   -4786.8871 
 3821000    87.587676    -5080.512   -4911.5918    -5080.512            0    788.62194    19.928662     19.98074    20.907408    8325.1088    1115.7693    299.79155    950.30493   -77.178242   -171.27856    394.83754   -4815.8427 
 3822000     92.00127   -5073.7373   -4896.3051   -5073.7373            0    433.71187    19.959956    19.828845    21.057121    8334.0483    1007.1264    238.15781    55.851436   -38.417574    569.93241    -115.7213   -4843.5902 
 3823000    83.222418   -5089.8687   -4929.3673   -5089.8687            0    796.01819    19.911286    19.990885    20.993887    8356.4956     1834.033    621.88934   -67.867802    11.333914    821.71528   -127.11879   -4832.3558 
 3824000    84.172418   -5087.4348   -4925.1012   -5087.4348            0    783.03642    19.934933    19.992067    20.846923    8308.3437    790.12622     1282.415    276.56808   -175.43827    571.26518   -306.50571   -4830.2217 
 3825000    85.135774   -5085.6344   -4921.4429   -5085.6344            0    2148.9009    19.985829    19.893931    20.826031    8280.3611      1366.99    2297.0427    2782.6699    -110.5952    688.90464    645.28573   -4661.9404 
 3826000    84.361642   -5082.4941   -4919.7956   -5082.4941            0    1286.0875     19.95338      19.9032    20.924242     8309.772    118.13405    2932.2015    807.92678   -24.585051    1228.3104     344.5302   -4763.9353 
 3827000    80.414404   -5085.6671   -4930.5812   -5085.6671            0    1481.8628    19.917595    19.954171     21.03009    8358.1795    1943.1095    988.28701     1514.192   -9.2079051    488.79959   -848.64918   -4749.9488 
 3828000    89.972511   -5079.4411   -4905.9215   -5079.4411            0    620.98848    20.072779    19.939859    20.968863    8392.7534    960.36624    1006.4232   -103.82397   -280.12785   0.66477115   -443.66734   -4829.9127 
 3829000    82.463825   -5082.4599   -4923.4214   -5082.4599            0    1885.3792    19.977181    19.925286    20.862503    8304.3409    2502.0436     1216.025    1938.0691    182.52694    349.90053   -198.78602   -4695.0826 
 3830000    85.874354   -5076.3527   -4910.7368   -5076.3527            0    379.53364    20.007958    19.915581    20.936602    8342.6104    20.889708    1174.7324    -57.02115    -97.28615    689.60932    212.78394   -4864.5596 
 3831000    83.952012   -5073.8557   -4911.9472   -5073.8557            0    915.03192    20.077574    19.921958    20.863475    8345.0684    637.75082    1331.1322    776.21274    225.89146   -155.27993    397.25248   -4800.5839 
 3832000    81.994712   -5080.8624   -4922.7287   -5080.8624            0    1619.3218    20.066973    19.886367    20.723583    8269.9359    1259.4364    1639.8355    1958.6935   -266.57544    -208.3324    954.46907   -4727.4247 
 3833000    85.787296   -5078.7559   -4913.3079   -5078.7559            0    1327.0703    19.950559    19.985154    20.916163    8339.5878     1696.821    1134.5441    1149.8456    6.8516999    734.19305    820.20058   -4751.9038 
 3834000    88.407037    -5072.181   -4901.6806    -5072.181            0     753.3666    20.037685    19.970341    20.812133    8328.1706    639.60893    754.16903    866.32184    467.73355    651.97034   -81.997103   -4810.1783 
 3835000     81.16415   -5078.7065   -4922.1746   -5078.7065            0    1218.6786    20.007204     19.98787    20.767379    8304.9034    2898.9747    225.34105    531.72007   -56.312287   -130.89972    340.70579   -4774.5701 
 3836000    83.560163   -5082.3929   -4921.2401   -5082.3929            0    416.01461    19.936037    20.154169    20.731602    8329.8387    777.54315    -460.5684    931.06907    18.160022   -392.35264    113.10519   -4870.7017 
 3837000    83.913333   -5085.4991   -4923.6652   -5085.4991            0    209.19893    20.000925    20.100207    20.763645    8347.4573   -438.67352    451.56557    614.70475    39.302596    -281.1384    -1090.927   -4898.1975 
 3838000    85.580907   -5080.6547   -4915.6047   -5080.6547            0    1611.2671    19.967357    19.864653    20.932754    8302.8643    2105.8933    1648.6917    1079.2162    53.416595    422.28024    543.75534   -4720.4984 
 3839000    81.017423   -5091.3357   -4935.0868   -5091.3357            0    1038.4542    20.025717    19.866048     20.92606    8325.0533    1069.8697    1369.6998    675.79326   -38.304142    783.29483   -1050.8422   -4809.0056 
 3840000    81.497558   -5076.8898   -4919.7149   -5076.8898            0     1459.643    20.070386    19.920199    20.823225    8325.2522    1760.4967    634.32063    1984.1116   -148.45863    570.94928    472.59579    -4742.492 
 3841000    87.542575   -5091.9545   -4923.1213   -5091.9545            0    1336.4959    19.886295    20.022791    20.928236    8333.1865    2545.6572    297.10049    1166.7299    -303.7157    184.96457    20.874632   -4760.6957 
 3842000    84.872587    -5085.683    -4921.999    -5085.683            0    584.55795    20.040046    20.023927    20.792879    8343.7749   -542.37853    1159.3784     1136.674   -124.01887     933.1212    591.64909   -4850.8669 
 3843000    92.159066   -5083.4801   -4905.7436   -5083.4801            0    1347.0948    20.137946      19.8838    20.772485    8317.6955    642.38258     1267.616    2131.2858   -188.63493   -815.61633   -451.59396   -4742.3342 
 3844000    87.283472   -5084.4261   -4916.0925   -5084.4261            0    849.01133    19.974363    20.016091    20.711021    8280.4461    1126.0564    786.58376    634.39377    26.433889    287.81803   -174.81147   -4813.5644 
 3845000    84.046835   -5090.5766   -4928.4852   -5090.5766            0    804.94227    19.971615    20.044657    20.834574    8340.5836    1056.7988    59.489416    1298.5386   -40.613468   -385.15139    850.95226    -4830.573 
 3846000    90.214389   -5088.0895   -4914.1035   -5088.0895            0    582.86791    20.147345    19.906603     20.70142     8302.619   -1009.7301    1896.1483    862.18552   -337.02618   -207.20168    213.09784   -4843.5268 
 3847000    89.868577   -5087.9975   -4914.6784   -5087.9975            0    1825.2802    19.984784    19.902435    20.777689    8264.2402    1770.5256    2027.5354    1677.7795     228.3535   -578.14633    206.39938   -4694.6856 
 3848000      83.9455   -5080.4911   -4918.5951   -5080.4911            0    468.26295    20.074332    20.021905    20.751862    8340.7201   -133.05976    130.40385    1407.4448   -540.61558   -56.122096   -671.41566   -4861.6352 
 3849000    82.800745    -5078.879   -4919.1908    -5078.879            0    1455.2595     19.96399    19.891023    20.945062    8317.3716    1986.7089    1508.9999    870.06967    153.89877    994.35593    815.55139   -4742.6673 
 3850000    83.686795   -5080.1371   -4918.7401   -5080.1371            0    512.27191    20.046459    19.963887    20.895843    8362.6259   -51.674157    1637.7608   -49.270919    49.449571    569.22262    774.03676   -4856.2633 
 3851000    81.780683   -5088.6557   -4930.9348   -5088.6557            0    1245.3234    19.970191    19.875669    20.878856    8287.2544    2058.2123    554.63007    1123.1279   -31.873653     359.3504    44.858923   -4780.4237 
 3852000    87.289948   -5081.4853   -4913.1393   -5081.4853            0    1048.5409    20.026914     19.97894    20.865012    8348.4356    1652.5605   -145.56122    1638.6234    150.93931    422.50114    374.44372   -4785.4759 
 3853000    84.895515   -5073.7284   -4910.0003   -5073.7284            0    672.68551    19.935441    20.053784    20.874104    8345.0707    1131.9663    28.376953     857.7133    -287.5219    702.96846    86.995973   -4828.1315 
 3854000    88.343728   -5082.9958   -4912.6175   -5082.9958            0    1011.0728    20.037801    19.926824    20.926114    8355.5824    703.70903    1327.6202    1001.8892   -203.40255   -1207.8616    438.42612   -4789.4106 
 3855000    90.544888   -5073.8187   -4899.1952   -5073.8187            0     2340.936    19.849328    19.981829    20.905407    8291.6256    2863.2813    2513.9443    1645.5823   -192.11688    685.75875   -389.32957   -4616.1179 
 3856000      83.7966   -5088.2945   -4926.6857   -5088.2945            0    267.80339    20.000307    20.032762    20.880477    8366.0009   -40.917012    324.97464    519.35253    -306.4818    230.20623   -53.874082   -4894.0111 
 3857000    85.211019   -5081.4355   -4917.0989   -5081.4355            0    1157.3537    19.994036    19.864509     20.92297    8310.0117     1239.732     1032.882    1199.4471   -42.216248    240.61307    270.54343   -4776.8358 
 3858000    84.209527   -5075.8655   -4913.4603   -5075.8655            0    907.86078    19.911259    19.988878    20.967356    8345.0859    1646.4169     636.3796    440.78584    173.47867    27.492357    673.89565   -4802.9696 
 3859000     87.73909   -5085.7996   -4916.5874   -5085.7996            0    869.86999    20.026142    19.995266    20.785325     8323.027    1309.8934    392.75144    906.96516   -420.39781    685.36018    453.69039   -4811.0001 
 3860000    89.225171   -5081.2928   -4909.2145   -5081.2928            0    438.01283    20.026294    19.879741    21.024941    8370.3979    923.74496    329.67807    60.615458     69.23262    -267.6863    70.599918   -4855.7447 
 3861000    87.957362   -5078.4713   -4908.8381   -5078.4713            0    1418.4811    19.990608    19.884996    20.984593    8341.6521    775.88421    2412.3792    1067.1798   -79.354335   -22.460678    764.92135   -4736.2736 
 3862000    86.954408   -5079.8443   -4912.1454   -5079.8443            0     1369.549    19.856472    19.941484    20.879813    8267.7276    2241.0513    1326.4399    541.15577   -240.98767   -727.99678   -379.70483   -4747.0103 
 3863000    84.737465   -5090.1096   -4926.6863   -5090.1096            0    1333.6139    19.940099    20.058423    20.760087    8303.3487    2032.4941   -492.55402    2460.9017   -347.93909   -320.86308    847.72136   -4765.1912 
 3864000    85.666699   -5076.6271   -4911.4117   -5076.6271            0    1628.9354     19.99886    19.911729     20.78307    8276.0652    1151.1749    2540.1944     1195.437    284.90216   -351.13982   -131.68214   -4714.8026 
 3865000    85.700367   -5082.2194   -4916.9391   -5082.2194            0    736.80859    19.985301     20.01236    20.913524    8364.4276    2121.0925   -404.03444    493.36776   -405.74617   -789.76015   -402.37869   -4827.0583 
 3866000    82.817189    -5087.132   -4927.4121    -5087.132            0   -262.19417    19.994085    20.004464    20.892031    8356.2054    852.59221   -711.01998   -928.15474   -294.64777    129.05323    492.18677   -4959.3648 
 3867000    80.365428   -5081.1058   -4926.1143   -5081.1058            0    489.06199    20.212154    19.943691    20.719816    8352.2606     -1253.49    1710.2131    1010.4629    11.470193    170.97411    -434.9751   -4866.5421 
 3868000    82.271862    -5081.458   -4922.7898    -5081.458            0    1967.4882    19.926462    19.907174    20.912533    8295.5738    2989.6606    1399.8462    1512.9579   -54.921237    74.664635   -186.17436   -4684.7583 
 3869000    78.894826   -5077.3194   -4925.1641   -5077.3194            0    1692.1976    19.940926    19.966246    20.821256    8289.8879    1882.2581    1928.1511    1266.1834    76.147183    1191.9607   -92.065826   -4720.5782 
 3870000    84.607736   -5079.2816   -4916.1084   -5079.2816            0    1167.0124    20.005753    19.989465    20.814979    8323.9996    1408.3087    565.47083    1527.2578   -171.15467    846.67064     511.5521   -4774.4366 
 3871000    84.539725   -5088.6544   -4925.6124   -5088.6544            0    2505.4362    19.938837    19.942988    20.745204    8249.1226    2090.4984    2751.8976    2673.9124   -110.94601    81.730284   -235.53286   -4624.1959 
 3872000    84.585046   -5070.0188   -4906.8894   -5070.0188            0    1088.0927    19.987583    20.147697    20.675111     8325.945    1270.7255    477.47995    1516.0725   -201.50775   -125.91753   -623.06943   -4774.7674 
 3873000    84.652307   -5079.9318   -4916.6727   -5079.9318            0    1948.7217    20.015864    19.982046    20.731659    8291.7909    1739.5844    1471.4514    2635.1292   -241.31314   -226.98913   -196.88019   -4681.0191 
 3874000    85.245965   -5079.1175   -4914.7135   -5079.1175            0    504.07309    20.014483     19.98905    20.889915    8357.4388     1852.458   -624.39362     284.1549    -242.9213    223.66975    126.61144   -4853.2747 
 3875000    86.383577   -5073.2185   -4906.6206   -5073.2185            0    1198.5292    19.981527    20.056369    20.700966    8296.0548    1904.4577    275.11947    1416.0102    66.843554    1000.9754    1487.2832   -4761.6112 
 3876000    83.602171   -5090.3293   -4929.0955   -5090.3293            0    708.39438    20.029032    19.957974    20.859826    8338.4839    729.37405    516.71276    879.09631    20.316104    398.24128    665.98796   -4842.9489 
 3877000    89.044436   -5090.9478   -4919.2181   -5090.9478            0    1411.3396    20.111124    19.812448     20.85454    8309.5039    1214.6116    2298.6916    720.71568   -21.954208   -68.938881   -147.93437    -4748.184 
 3878000    84.068129    -5084.244   -4922.1115    -5084.244            0    1983.8701    20.011449    20.021229    20.752641    8314.6243    1841.7715    1840.6289      2269.21    109.14788    522.74063   -473.10782   -4681.5469 
 3879000    89.408844   -5073.4376   -4901.0051   -5073.4376            0    1122.0582    20.014682    19.907317    20.796853    8286.2692    860.48808     1125.239    1380.4474    126.82131    464.40231   -344.73382    -4765.408 
 3880000    83.928716   -5093.8384   -4931.9748   -5093.8384            0    726.53396    19.923057    20.010016     20.84985    8312.0157     929.4713    97.337615     1152.793   -344.00837    634.63622    363.95898   -4843.9028 
 3881000    81.565972   -5088.1043   -4930.7974   -5088.1043            0    1436.7976    19.824154    20.057876     20.83288    8283.7867    3110.3718    423.03408    776.98675   -137.10331   -92.056985    231.96229   -4757.2172 
 3882000    86.921481   -5074.9561   -4907.3207   -5074.9561            0    289.21275    20.079897    19.973269    20.811927    8346.8561   -63.589381    399.59603     531.6316    -54.99414    141.92845   -362.50687   -4872.1147 
 3883000    86.967289   -5075.0268    -4907.303   -5075.0268            0    237.68656    19.990727    19.888091    21.014502    8354.8914    519.95944    1196.2546   -1003.1544   -863.61434    366.54527    406.97898   -4878.3415 
 3884000    85.335482   -5088.2193   -4923.6426   -5088.2193            0    632.78289    19.944896    19.989719    20.880011    8324.7113    870.39837    247.24005    780.71024   -96.364883   -185.03444   -833.93769   -4846.8181 
 3885000    81.817001   -5078.4473   -4920.6563   -5078.4473            0    242.41496    20.055244    20.022221    20.787696    8347.3098    512.74469    96.340265    118.15994    97.506207    717.28943    248.27896   -4891.1454 
 3886000    87.589957    -5082.997   -4914.0724    -5082.997            0    1660.0049    19.975986    19.870931    20.819083    8263.9569    1929.9751    2065.8242    984.21532     189.7617  -0.42826741   -152.71958   -4714.0064 
 3887000     83.75227   -5083.6762   -4922.1529   -5083.6762            0    1545.3118     20.06552    20.013966    20.672609    8301.9262    1324.4116    823.61566     2487.908   -589.01111    307.84399   -224.77723   -4735.0541 
 3888000    86.574815   -5088.7776   -4921.8108   -5088.7776            0    1238.0574    20.047192    19.932948    20.797134    8310.5274    1312.1372    946.10146    1455.9334    332.89529   -261.39311    194.84959   -4771.7576 
 3889000    80.419584   -5086.4132   -4931.3173   -5086.4132            0    1475.0138    20.074413    19.946508    20.709844    8292.5204    723.69568    1681.9546    2019.3912   -243.12047    200.43067    106.98067   -4752.9322 
 3890000    87.689086   -5081.6675   -4912.5517   -5081.6675            0    1957.7756    19.988515    19.931508    20.783681    8280.2444    1838.9964    2089.2534     1945.077    83.092045     302.3048     236.6371    -4676.133 
 3891000    89.585762   -5093.0683   -4920.2946   -5093.0683            0     704.7859     19.98031     20.11542    20.715866    8325.9623    1097.0641   -390.39077    1407.6843    148.86796    1238.2908   -118.43049   -4834.7155 
 3892000    84.059427   -5083.6002   -4921.4845   -5083.6002            0    370.31819     20.06506    19.928416    20.947665    8376.2352   -343.99923    788.86833    666.08547   -351.92257    132.25403   -67.063825   -4876.2469 
 3893000    82.937464   -5083.0662   -4923.1143   -5083.0662            0    1314.2603    19.914109    19.967253    20.767929    8257.9525    746.26681    1748.8061    1447.7081    -25.37106    299.27589   -1150.0421    -4764.833 
 3894000    85.347714   -5081.7692    -4917.169   -5081.7692            0    1335.6648    20.005131    19.984035    20.825997    8325.8846     384.0091    1961.6217    1661.3637    37.904028    621.89349    124.26527   -4754.9866 
 3895000    83.539899   -5079.1616   -4918.0479   -5079.1616            0     656.8051    19.950035    19.982996    20.920055    8340.0196    805.86541    473.45714    691.09274   -554.41213    1242.9121    525.95053   -4838.1602 
 3896000     81.63752    -5082.324   -4924.8792    -5082.324            0    724.31813    19.932041     19.99635    20.908612     8333.505    1028.8532    175.14171    968.95946    -263.6288    82.497417   -362.12901   -4836.8487 
 3897000    82.550796   -5088.4812   -4929.2751   -5088.4812            0    1122.7257    20.049396     19.98963    20.757801     8319.312    334.32773    1402.2975    1631.5518   -622.57635    375.57265    906.52434   -4793.0563 
 3898000    83.600376   -5086.8285   -4925.5981   -5086.8285            0    656.39198    19.949439    19.887827    21.016208     8338.201    670.35687     1422.736   -123.91694   -546.04649    372.64939    867.48792   -4845.7782 
 3899000    86.859981   -5078.6928    -4911.176   -5078.6928            0    1587.8063    19.981993    19.897325     20.89811     8308.842    986.41796    2822.8086    954.19242   -162.83622    513.01261    389.73101   -4718.7721 
 3900000    83.706878   -5080.8015   -4919.3658   -5080.8015            0    704.44489    20.057373     19.88104    20.858337    8317.5002    1002.5014    390.72183    720.11147    -72.21678    688.57104   -246.42776    -4833.915 
 3901000      87.2736   -5073.4956   -4905.1812   -5073.4956            0    549.34219    19.936865    19.951879    20.968469     8340.794    1388.3172   -602.27747    861.98686    -170.6644    885.60465    306.01326   -4838.3581 
 3902000    84.077065   -5072.6925   -4910.5428   -5072.6925            0     2017.783     19.96051    19.917589    20.777785     8260.525    2527.7587    1641.8686    1883.7218    183.78999    522.57083    21.987284   -4667.4579 
 3903000    85.401499   -5083.5875   -4918.8835   -5083.5875            0    999.44656      20.0816    19.947677    20.720824    8300.3743    108.39446    1536.1835    1353.7617   -344.35133   -160.20607    -528.6588    -4797.898 
 3904000    82.275712   -5074.4964   -4915.8208   -5074.4964            0    579.22462    20.079559    20.065103    20.696071    8338.4144    590.12946   -489.28844    1636.8328    222.95094    363.64095    56.882711   -4845.3829 
 3905000    81.358695   -5076.1327   -4919.2256   -5076.1327            0    1533.7279    19.977406    19.919313    20.748781    8256.6914    1597.2449    1277.1785    1726.7602   -310.15327    353.25629   -130.15862   -4734.5412 
 3906000    82.766688   -5084.2489   -4924.6263   -5084.2489            0    1437.9366     19.86629    20.100989    20.742701    8283.2256    2555.4187    34.429905     1723.961   -67.593388    275.69458   -2.0388842   -4750.9202 
 3907000     86.03701   -5080.9662   -4915.0366   -5080.9662            0    1449.0008    19.916701    19.925606    20.924464    8303.9221     1748.686    1409.3675    1188.9488   -133.75925   -57.519345    353.17806   -4739.5565 
 3908000    81.198708   -5086.0766   -4929.4781   -5086.0766            0    620.46273    19.862876    20.059749    20.861648    8312.2048     2008.295   -453.10771    306.20088   -238.05356    835.79835   -340.72653   -4854.2625 
 3909000    85.891756   -5089.2256   -4923.5761   -5089.2256            0    693.75435    20.097576    19.928486    20.842159     8347.582    465.02741    200.92888    1415.3067    -28.81581    476.78588    -291.2466   -4839.1178 
 3910000    84.935483   -5081.5942    -4917.789   -5081.5942            0    418.36092    20.015548    19.937805    20.901244    8340.9775   -362.06927    1052.1659    564.98616    -180.0257    135.95663    192.26527   -4866.8976 
 3911000    84.904179   -5090.0149   -4926.2701   -5090.0149            0    1667.7774    19.925391    19.891614    20.898269     8282.991    2208.0113    1490.5715    1304.7494   -323.13184    38.503621   -20.390548   -4724.8043 
 3912000    87.626512    -5083.766   -4914.7709    -5083.766            0    430.46444     20.04793    19.939797    20.909203    8358.4885     15.43733    668.67831    607.27768   -94.986611    205.81036   -411.72566   -4862.2973 
 3913000    87.939483   -5086.7392   -4917.1405   -5086.7392            0     658.8907    19.938195    19.995093    20.933414    8345.4418    361.05094    1031.5781    584.04311   -171.08874   -347.61617    1023.7741   -4836.9471 
 3914000    85.576399   -5088.3988   -4923.3576   -5088.3988            0    1024.7259    19.967654    19.993885    20.874252    8333.6477     1749.841    340.36327    983.97335   -103.06718    630.88802    550.03021   -4798.8147 
 3915000    83.120268   -5080.8264    -4920.522   -5080.8264            0    2118.3597     20.06358    19.787569     20.90378    8298.9987    2881.1845    1764.5888    1709.3059   -294.88451    731.12232   -64.615497   -4664.1319 
 3916000    87.286183   -5080.8736   -4912.5349   -5080.8736            0    1139.5516    19.991569    20.025105    20.834892    8340.9002    1290.6214    1343.6982    784.33533    16.320047    531.23076   -445.27109   -4773.9158 
 3917000    89.888679   -5091.2356   -4917.8777   -5091.2356            0    1711.0611     19.95894    19.994718    20.827158    8311.5642    1648.7125    2123.9956    1360.4752   -542.28885    233.21261    471.68282   -4710.4704 
 3918000    89.759237   -5079.2609   -4906.1526   -5079.2609            0     660.9107    19.922964    19.940946    20.952083    8323.9013    1233.4389    668.64348    80.649739     44.97392    462.01847    525.09121    -4825.921 
 3919000    90.702788    -5082.458     -4907.53    -5082.458            0    938.78306    20.057624    19.784147    21.004376    8335.0192    517.69193    1649.4813    649.17601    150.96282    807.91888    104.70771   -4793.4137 
 3920000    85.398819   -5080.6046   -4915.9058   -5080.6046            0    2093.5586    20.021903    19.933314    20.758762    8284.8818    1898.2304    2341.4535    2040.9918   -18.360626    419.25935    208.18061   -4662.9484 
 3921000    86.751579   -5079.1435   -4911.8357   -5079.1435            0     1290.383     19.91302    20.045728     20.88759    8337.7201    1596.6642    1230.7829     1043.702   -155.47896   -156.96628    -1041.672   -4754.9289 
 3922000    85.751771    -5086.059   -4920.6795    -5086.059            0    650.45856    20.090866    19.960094    20.794591    8338.9549    -34.35916    469.37374    1516.3611   -59.110326    601.90246    1181.2659   -4841.5739 
 3923000    85.234728   -5091.5741   -4927.1918   -5091.5741            0    998.48685    19.941392    19.952294    20.864389    8301.4503    2066.2506    382.76399    546.44593    -113.4594    248.32467    210.08932   -4806.3068 
 3924000    83.359322   -5077.3419   -4916.5765   -5077.3419            0    2292.7505    19.943368    19.798952    20.962358    8277.1504    2032.0518    3267.3557    1578.8439   -310.55102   -392.56142   -1000.7015     -4639.81 
 3925000    84.409712   -5080.2491   -4917.4578   -5080.2491            0    1431.3698    19.867302    19.998861    20.921648    8312.6606    1768.9446    850.47231    1674.6925    17.335386    38.224899   -411.91269   -4743.9306 
 3926000     85.31333   -5093.0749    -4928.541   -5093.0749            0    1585.0496    19.931552    19.935544    20.929165    8316.1272     1494.723     1783.536    1476.8898   -144.66881    600.88379    600.33014   -4736.3027 
 3927000    84.639987   -5081.8848   -4918.6495   -5081.8848            0    834.75265    20.051015    19.820247    20.993544    8343.1716     279.0481    2293.8703   -68.660469    219.86222   -31.665946   -447.88248   -4817.0796 
 3928000    84.405082   -5076.9068   -4914.1245   -5076.9068            0    2021.2318    19.962241    19.864448    20.959258    8311.1609     2721.715    2116.0738    1225.9066    763.38586    490.65411    42.614004   -4669.1315 
 3929000    85.872079   -5072.9282   -4907.3166   -5072.9282            0    1672.8464    19.925208    19.858333    21.070646    8337.2631    1977.3866    1927.9053    1113.2472   -93.434936   -85.095345    311.91098   -4703.9145 
 3930000    86.295607   -5077.8982   -4911.4699   -5077.8982            0    702.74302    19.906626    20.022564    20.939038     8345.917    191.51535     1021.212    895.50167    102.20214    767.71481    291.43401   -4825.9344 
 3931000     88.31549    -5093.478   -4923.1542    -5093.478            0     2231.309    19.853595    19.929088    20.984954    8302.9915    2409.8231    2244.9414    2039.1626   -139.92162   -117.62301    91.175808   -4652.9636 
 3932000     83.60611   -5081.0221   -4919.7807   -5081.0221            0    217.79652    20.012669    19.904817    20.931099     8337.872    599.40902    719.86641   -665.88587   -533.24166    460.07261   -328.79789   -4893.2968 
 3933000    82.379852   -5085.7734   -4926.8969   -5085.7734            0     1544.015    19.890306    19.977295    20.811063    8269.3694    1878.1768    1798.8323    955.03605    -29.78266    532.44358    988.53314   -4740.6883 
 3934000    83.534148   -5088.9137   -4927.8111   -5088.9137            0     -122.345    20.003375    19.986961    20.908409    8359.3213   -731.19611    685.37708   -321.21596    54.353732    508.15218    13.485142   -4942.7264 
 3935000    87.493647   -5077.7451   -4909.0062   -5077.7451            0    1672.9166    19.885928    19.947487     20.82491    8260.7064    2080.5991    1228.2194    1709.9314   -133.68038      118.321   -786.82908   -4707.4634 
 3936000    88.499962   -5079.0561   -4908.3764   -5079.0561            0    1542.9893    20.043759    19.959573    20.708155    8284.6049    1581.3625    1058.0567    1989.5486    221.69211   -186.31345   -93.416219   -4721.9487 
 3937000    84.498305   -5083.3975   -4920.4354   -5083.3975            0     876.3372    20.066376    19.950597     20.69839    8286.3148   -740.71104    2088.0858    1281.6369   -423.57181    586.45916   -157.22797   -4814.5323 
 3938000    85.482322   -5077.5447   -4912.6849   -5077.5447            0    1917.3257     20.14651     19.85858    20.654501    8263.4751    1343.0428     2010.752    2398.1824   -198.63623    207.61064    593.72328   -4681.6197 
 3939000    85.388148   -5092.2542    -4927.576   -5092.2542            0    1721.7345    19.968565    20.008366    20.712698    8275.5173    1326.5833    1835.6113    2003.0088    186.46013    -85.62987    457.01381     -4719.78 
 3940000    88.515522   -5075.2554   -4904.5458   -5075.2554            0    3037.8665     19.89276    19.923425    20.804168    8245.3557     3066.854     2934.462    3112.2833    -115.0602     1128.766   -97.880433   -4539.2422 
 3941000    89.659349   -5089.7894   -4916.8738   -5089.7894            0    667.90741    19.986374    19.964461    20.867167    8326.3581    302.62579    1109.4107    591.68574   -164.22097    44.376592    -895.5789   -4835.7689 
 3942000    88.404272   -5084.5103   -4914.0153   -5084.5103            0    1347.3533    20.041552    19.860741    20.766582    8265.9319    1202.2463    1648.9546    1190.8591    131.64556    137.22402   -190.10195   -4751.5916 
 3943000    85.309988   -5081.4432   -4916.9158   -5081.4432            0    967.38343    19.981147    20.133067    20.749353    8347.0865    1298.5462   -744.68992     2348.294   -200.30699    584.30184   -360.79289   -4799.1526 
 3944000    93.312678   -5089.2025   -4909.2412   -5089.2025            0    1476.3179    19.964649    19.964131    20.781652    8283.0856    2056.1678    500.46084    1872.3249   -36.608027    479.74678   -636.05551   -4730.9015 
 3945000    84.844475   -5078.6431   -4915.0134   -5078.6431            0    286.28365    19.989344    19.994994    20.758173    8296.7679    254.25438    15.920123    588.67644   -618.29184    532.57319    281.18626   -4880.3731 
 3946000    84.930942   -5084.0654   -4920.2689   -5084.0654            0    627.55412    19.924923    20.083316    20.784056    8316.9173    1205.1338    47.377774    630.15082   -252.81239    1535.7114    331.57876   -4844.1506 
 3947000    85.437067   -5080.7676    -4915.995   -5080.7676            0     1504.869    19.957811    19.932409    20.787747    8269.5163    1313.4168    1654.0687    1547.1213     83.64648    126.97926   -510.60095   -4734.5042 
 3948000    87.107658   -5082.1301   -4914.1357   -5082.1301            0    1266.4048    19.963032    19.960194    20.897425    8326.9129    1457.7179     365.8654    1975.6309    53.132413    25.361731   -395.56471   -4760.3442 
 3949000    91.224574    -5086.602   -4910.6678    -5086.602            0    322.72786     20.05278    20.048132    20.697004    8320.6251   -1213.7177    1582.6903    599.21105   -301.64226    488.81649    57.807514   -4871.5054 
 3950000    84.776618   -5083.8237   -4920.3248   -5083.8237            0    1793.4999    19.921976    20.029311    20.804957    8301.6659    2423.3546    754.63299    2202.5121   -465.10867   -415.67062    653.34136   -4703.1835 
 3951000    87.557208    -5087.426   -4918.5646    -5087.426            0    1210.7756    20.015394    19.790001    20.963488    8303.7351    684.82651    2139.8396    807.66067   -119.46974    1089.1451   -191.50265   -4771.9379 
 3952000    85.462591   -5081.3987   -4916.5769   -5081.3987            0    1090.5272    20.014031     19.98112    20.900923    8358.3369    624.61507    1254.6866      1392.28   -544.94068    1634.6309   -186.41213   -4783.6441 
 3953000    78.356972   -5077.2934   -4926.1754   -5077.2934            0    1463.3283    19.885972    20.084467    20.862388      8332.42    1941.7499    973.72344    1474.5116   -113.09775    843.53028    191.04063   -4748.3521 
 3954000      86.3191   -5092.9722   -4926.4986   -5092.9722            0    419.30239    20.069757    19.944252    20.828771    8337.2631    713.72639   -106.99923    651.18001   -239.91254    -91.48147   -35.001201   -4875.5154 
 3955000    87.055079   -5097.4369   -4929.5438   -5097.4369            0     1180.982     20.06733    19.911245    20.823423    8320.3219    155.48247    1294.2793    2093.1843   -352.45599    945.01344    745.68259   -4786.2395 
 3956000    85.510403   -5090.3701   -4925.4561   -5090.3701            0    1879.4371    19.907426     20.09163    20.664106    8265.0767    1996.4971    2091.3833     1550.431   -684.69741    814.20899    23.564192   -4698.9132 
 3957000    87.077054     -5088.26   -4920.3246     -5088.26            0     1376.659    20.035805    19.977928    20.761494    8310.2838    716.40823     1446.305    1967.2638   -273.90794     226.2929   -241.84935   -4753.4777 
 3958000    84.487761   -5076.4115   -4913.4698   -5076.4115            0    1362.4671    19.954578    19.900937    20.918884    8307.1983    347.03091    2476.3534    1264.0168   -176.26043    439.62665     102.5433   -4748.4042 
 3959000    83.575766   -5079.9999    -4918.817   -5079.9999            0    906.93372    20.081843    19.844658    20.958807    8352.4473   -563.01928    2322.2336    961.58688    819.98478    1052.2726   -259.02883   -4808.3417 
 3960000    88.452292   -5078.6687    -4908.081   -5078.6687            0     1087.363    19.924477    20.028065     20.86605    8326.5706    1903.7652    814.30773    544.01602   -356.10248     934.2413    192.02749   -4776.0376 
 3961000     84.43384   -5078.6643   -4915.8266   -5078.6643            0    1684.9755    19.944951    19.870193    21.077324    8353.1549    1730.0008    2181.6969    1143.2286   -675.47726    190.73941   -357.83619   -4710.5592 
 3962000    86.555552   -5086.3914   -4919.4617   -5086.3914            0    67.923601    19.956904    19.991506    20.913056    8343.6522    1692.5052   -1020.6876    -468.0468   -431.13325    691.90175   -510.69271   -4911.1965 
 3963000    87.346042   -5077.0806   -4908.6264   -5077.0806            0    1402.4804    19.883256     20.04137    20.877218    8319.3143    1924.9278    684.80024     1597.713   -104.80055    407.39021    115.07447   -4738.4653 
 3964000    87.698369   -5084.6213   -4915.4876   -5084.6213            0    522.38215    19.984787    20.028835    20.902562    8366.7107    1036.9078   -3.6129207    533.85154   -49.089586    499.55644    204.16297   -4851.7466 
 3965000    79.995903   -5086.4187   -4932.1399   -5086.4187            0    1146.5282     19.96944    20.018528    20.796188    8313.4591    1014.7414    815.73338      1609.11   -196.35301     611.1104   -397.44201   -4793.1311 
 3966000    87.056126   -5093.5206   -4925.6256   -5093.5206            0    531.69195    19.992778    20.002794    20.794451     8315.938    390.58828    135.99239    1068.4952    151.26902    762.67048   -332.51606   -4861.1423 
 3967000    82.374554   -5088.3062   -4929.4399   -5088.3062            0    1260.3974    20.018383    19.901137    20.893875    8323.8811    1829.1492     822.5071    1129.5358    36.074726   -338.85483   -299.46866   -4776.4337 
 3968000    87.462743   -5079.2631   -4910.5838   -5079.2631            0    1130.4127    20.048534    19.942504     20.92523    8366.2832    1378.5072    1164.8463    847.88459    8.3812145    70.140893    141.31217   -4772.6581 
 3969000    88.016373   -5085.8844   -4916.1375   -5085.8844            0    512.33414    20.025448    19.928856    20.880481    8333.0716    454.77994     242.1988    840.02367   -472.51498    -139.3066   -547.43021   -4853.8738 
 3970000    80.421448   -5082.7383   -4927.6388   -5082.7383            0    963.32305    19.967592    19.986183    20.922651    8349.7268    877.30404    1297.5821    715.08305   -97.554416    388.28431     542.6521   -4810.3328 
 3971000    84.475704    -5083.761   -4920.8425    -5083.761            0    411.02568    19.905835    19.904217    21.150268    8379.9492    106.12879    1387.4658   -260.51755   -133.15281   -404.58005    212.28071   -4870.6099 
 3972000    82.946937   -5084.4271    -4924.457   -5084.4271            0     2537.332    19.982491    19.909043    20.710403    8239.2665    2405.1619    2467.8663     2738.968    -4.657736    740.46553    -155.5607    -4619.568 
 3973000    83.947422   -5085.6576    -4923.758   -5085.6576            0    1355.6684    19.942575     19.87836    20.955165    8307.1653    2076.8169    900.51214    1089.6762   -136.32739    100.99165    886.28771   -4759.5167 
 3974000    81.803882   -5077.4828   -4919.7171   -5077.4828            0    889.99748    19.957138    19.979768      20.9689    8361.1177    1447.7241    734.34959    487.91876    286.43957     471.3248   -529.64672   -4811.1923 
 3975000    84.825331   -5087.2223   -4923.6295   -5087.2223            0    1195.9624    19.890877    20.065388    20.757028    8284.5067    1206.2156    1098.8814    1282.7903   -349.23657   -757.56115   -516.47748   -4779.1321 
 3976000    85.746306   -5085.3387   -4919.9697   -5085.3387            0     625.1188    19.943133    20.014606    20.931472    8354.8795     1139.896   -23.014007    758.47437    222.15625    279.81516    55.580835   -4843.8006 
 3977000    93.156707   -5075.0293   -4895.3688   -5075.0293            0    1328.2963    20.006064    19.916046     20.86139    8312.0476    1187.0804    1963.4716    834.33695   -341.28358     16.51125    7.1057066   -4734.3491 
 3978000    87.347592   -5078.2173   -4909.7601   -5078.2173            0    998.48411    19.998869    20.001882    20.761661    8304.9762    1600.0762    114.65694    1280.7192   -501.99902    999.03752    723.02699   -4788.8242 
 3979000    86.481005   -5079.3971   -4912.6112   -5079.3971            0    2588.4629     19.95061    19.974526    20.802203    8289.7606    2209.6431    2720.9838    2834.7619      136.236     115.0919     255.9245   -4599.6721 
 3980000    87.667071   -5071.8711   -4902.7978   -5071.8711            0    1795.7213    19.957574    19.859591    20.815779    8250.3184    1327.8886    2591.9135    1467.3618    21.667172    622.37575    162.47368   -4686.7322 
 3981000    89.105788   -5081.6337   -4909.7857   -5081.6337            0    705.77486    20.054033    19.974249    20.810652    8336.0033   -772.09857    1706.9501     1182.473    86.554103    1103.6693   -642.20165   -4823.9832 
 3982000    80.840384   -5072.1086   -4916.2011   -5072.1086            0     899.2211    19.922423    19.978352    20.920925    8326.8875     919.7042    859.64588    918.31324   -149.53732   -75.799571   -1114.2059   -4807.0005 
 3983000    83.206671   -5083.0659   -4922.5948   -5083.0659            0     1369.632    19.972363    19.913687    20.932353     8325.286    1411.4756    1531.7631    1165.6571   -158.86179   -221.91442    73.992661   -4756.2999 
 3984000    86.505383   -5081.0592   -4914.2263   -5081.0592            0    1239.9017    19.944024    20.092724    20.857734    8358.3149    1954.6178    280.22146    1484.8658   -539.85633    59.445021    1107.7306   -4763.0854 
 3985000    82.019563   -5083.8932   -4925.7116   -5083.8932            0    1323.0893    20.012208    20.017665    20.678156    8283.6215    22.093748    2335.4387    1611.7355    482.22851   -383.11843    863.01263   -4765.8717 
 3986000    84.144085   -5087.4746   -4925.1957   -5087.4746            0    1195.2394    19.960598    20.019304     20.85215    8332.4624    1516.1728    561.91538    1507.6299    -246.4733    -75.20307    42.032914   -4779.9497 
 3987000    84.773229   -5082.1055   -4918.6132   -5082.1055            0    665.70861     20.03688    19.993337    20.820525    8340.7879    504.06651    1011.4073    481.65204   -94.302881   -504.95899    283.34964   -4837.6352 
 3988000    91.219897   -5089.7721   -4913.8468   -5089.7721            0    1315.1423    20.065487    20.018593    20.645097    8292.7808    960.53223    1198.4568    1786.4379    79.473201    422.40959   -192.57443   -4754.7913 
 3989000    80.038793   -5071.9142   -4917.5526   -5071.9142            0    227.56111    20.072717    20.035797    20.744886    8343.0308   -1155.4638    1282.4079    555.73917   -473.44384    403.46918     114.6157   -4889.8642 
 3990000    85.920614    -5080.934   -4915.2288    -5080.934            0    1344.8973    20.019546     19.96956     20.79952    8315.2639    943.58018    1881.4591    1209.6526    130.09026   -776.10968   -215.13543   -4752.1337 
 3991000    88.328686   -5095.2002   -4924.8509   -5095.2002            0    1253.0243    19.955411    19.949391    20.900824     8320.582    1875.2112    1051.2546    832.60706    456.78115   -121.82241    123.54705      -4772.8 
 3992000     84.11925   -5080.3393   -4918.1083   -5080.3393            0    1373.3441    20.029793    19.940944    20.887881     8342.891    1513.7038    1609.7985    996.53011    181.43433    663.86403   -161.77413   -4751.0101 
 3993000    86.528135   -5078.3878    -4911.511   -5078.3878            0    1881.8044    20.071901    19.881324    20.756002    8282.8067    1331.5298    2916.3067    1397.5766    289.73241    263.03727    266.92718   -4684.1961 
 3994000    89.016337   -5082.9109   -4911.2354   -5082.9109            0    1708.5892    19.899892    19.960031    20.807162     8264.656    2138.8706    2008.8961     978.0007    256.58919    637.19319    48.814474   -4705.2965 
 3995000    92.112591   -5079.8429    -4902.196   -5079.8429            0    447.78633    20.054219    20.008041    20.833108    8359.1935    556.99182   -76.760476    863.12763   -278.24409    461.38818   -333.38304   -4847.6063 
 3996000     88.06061   -5081.8147   -4911.9824   -5081.8147            0    349.92615    20.130952    19.895992    20.797828    8330.0554    73.669079    792.47161    183.63775   -317.60782    219.77592    749.28779   -4869.4716 
 3997000    88.982538   -5091.6919   -4920.0816   -5091.6919            0    788.08608    19.986804    19.926844    20.894497    8321.7332    1208.3694    879.49654    276.39227    36.020673   -147.27819   -56.500121   -4824.4363 
 3998000    88.216017   -5080.2512   -4910.1192   -5080.2512            0    7.4255197    19.919383    20.096488    20.853653    8347.9187    418.50129   -655.83533    259.61061   -287.42903    -524.9725   -251.35239   -4909.2152 
 3999000    79.565063   -5079.0133   -4925.5653   -5079.0133            0    1581.1015    19.992924    20.033298    20.832277    8343.8311    1223.2729    1098.1622    2421.8693    177.03224    892.73906    263.16517   -4733.1671 
 4000000    86.665899   -5071.2219   -4904.0795   -5071.2219            0    1505.3669    19.909205    20.020115    20.894232    8328.1185    3031.7334    356.96848     1127.399   -172.35248   -225.89227   -264.05053    -4721.242 
Loop time of 356.237 on 64 procs for 250000 steps with 972 atoms

Performance: 121.268 ns/day, 0.198 hours/ns, 701.780 timesteps/s
99.1% CPU use with 64 MPI tasks x 1 OpenMP threads

MPI task timing breakdown:
Section |  min time  |  avg time  |  max time  |%varavg| %total
---------------------------------------------------------------
Pair    | 18.12      | 27.288     | 36.795     |  87.6 |  7.66
Bond    | 0.25763    | 0.27472    | 0.28962    |   1.3 |  0.08
Kspace  | 143.19     | 152.13     | 161.56     |  37.1 | 42.71
Neigh   | 0.29063    | 0.29486    | 0.29849    |   0.4 |  0.08
Comm    | 81.672     | 82.587     | 83.809     |   6.3 | 23.18
Output  | 0.54415    | 0.54557    | 0.54833    |   0.1 |  0.15
Modify  | 83.708     | 85.063     | 87.966     |  11.2 | 23.88
Other   |            | 8.052      |            |       |  2.26

Nlocal:        15.1875 ave          19 max          11 min
Histogram: 3 6 7 6 0 13 9 9 9 2
Nghost:        2242.05 ave        2273 max        2211 min
Histogram: 2 3 8 10 9 12 8 4 5 3
Neighs:        4735.55 ave        6768 max        3263 min
Histogram: 6 8 9 6 6 17 4 4 3 1

Total # of neighbors = 303075
Ave neighs/atom = 311.80556
Ave special neighs/atom = 2.0000000
Neighbor list builds = 864
Dangerous builds = 0

unfix		3
unfix		2
unfix		1

write_data	data.final.${pid}
write_data	data.final.1
System init for write_data ...
PPPM initialization ...
  extracting TIP4P info from pair style
  using 12-bit tables for long-range coulomb (../kspace.cpp:340)
  G vector (1/distance) = 0.37237438
  grid = 24 24 25
  stencil order = 5
  estimated absolute RMS force accuracy = 0.0034112904
  estimated relative force accuracy = 1.0273e-05
  using double precision FFTW3
  3d grid and FFT values/proc = 2366 288
Last active /omp style is kspace_style pppm/tip4p/omp
WARNING: Not all mixed pair coeffs generated from mixing. Use write_data with 'pair ij' option to store all pair coeffs. (../write_data.cpp:312)

write_restart   restart.lmp.${pid}
write_restart   restart.lmp.1
System init for write_restart ...
PPPM initialization ...
  extracting TIP4P info from pair style
  using 12-bit tables for long-range coulomb (../kspace.cpp:340)
  G vector (1/distance) = 0.37237438
  grid = 24 24 25
  stencil order = 5
  estimated absolute RMS force accuracy = 0.0034112904
  estimated relative force accuracy = 1.0273e-05
  using double precision FFTW3
  3d grid and FFT values/proc = 2366 288
Last active /omp style is kspace_style pppm/tip4p/omp
Total wall time: 0:05:56
