#include		in.partitions
include		in.temp
variable        temperature equal 264.50
variable	tempDamp equal 100.0
include		in.pressure
variable        pressure equal 503.3
variable        pressureDamp equal 1000.0 # This is 1 ps
include		in.seed
variable        seed equal 745823

units		real
atom_style	full
read_restart	restart.lmp.${pid}
read_restart	restart.lmp.1
Reading restart file ...
  restart file = 30 Jul 2021, LAMMPS = 30 Jul 2021
  restoring atom style full from restart
  orthogonal box = (-0.020071113 1.0678901 -0.024486711) to (18.227644 22.561288 22.237683)
  2 by 4 by 4 MPI processor grid
  restoring pair style lj/cut/tip4p/long/omp from restart
  restoring bond style harmonic/omp from restart
  restoring angle style harmonic/omp from restart
  864 atoms
  576 bonds
  288 angles
Finding 1-2 1-3 1-4 neighbors ...
  special bond factors lj:    0        0        0       
  special bond factors coul:  0        0        0       
     2 = max # of 1-2 neighbors
     1 = max # of 1-3 neighbors
     1 = max # of 1-4 neighbors
     2 = max # of special neighbors
  special bonds CPU = 0.002 seconds
  read_restart CPU = 0.009 seconds
include 	in.setup
variable	out_freq equal 1000
variable	out_freq2 equal 10000
variable	out_freq3 equal 1000

timestep	2.0

neigh_modify    delay 7 every 1

include		in.tip4p
# This is TIP4P/Ice

# create groups ###
group ox type 2
288 atoms in group ox
group hy type 1
576 atoms in group hy

# set charges - beside manually ###
set group ox charge -1.1794
Setting atom values ...
  288 settings made for charge
set group hy charge 0.5897
Setting atom values ...
  576 settings made for charge

# ### TIP3P Potential Parameters ###
pair_style lj/cut/tip4p/long/omp 2 1 1 1 0.1577 8.5
pair_coeff 1 1*2 0.000 0.000
pair_coeff 2 2 0.21084 3.1668
bond_style  harmonic
bond_coeff  1 450 0.9572
angle_style harmonic
angle_coeff 1 55 104.52
kspace_style pppm/tip4p/omp 1.0e-5
pair_modify tail yes

thermo          ${out_freq}
thermo          1000
thermo_style    custom step temp pe etotal epair emol press lx ly lz vol pxx pyy pzz pxy pxz pyz enthalpy

restart 	${out_freq3} restart.lmp.${pid} restart2.lmp.${pid}
restart 	1000 restart.lmp.${pid} restart2.lmp.${pid}
restart 	1000 restart.lmp.1 restart2.lmp.${pid}
restart 	1000 restart.lmp.1 restart2.lmp.1


include         in.dump
dump            myDump all atom ${out_freq2} dump.water.${pid}
dump            myDump all atom 10000 dump.water.${pid}
dump            myDump all atom 10000 dump.water.1
dump            myDump2 all dcd ${out_freq2} dump.dcd
dump            myDump2 all dcd 10000 dump.dcd
dump_modify     myDump append yes
dump_modify     myDump2 append yes


variable natoms 	equal  "count(all)"                        # NUMBER ATOMS
variable H      	equal  "enthalpy/v_natoms"                 # ENTHALPY-per-atom
variable Vol      	equal  "vol/v_natoms"                 # volume-per-atom
fix AVG all 		ave/time ${out_freq} 1 ${out_freq} v_Vol v_H file vol_enthalpy.dat
fix AVG all 		ave/time 1000 1 ${out_freq} v_Vol v_H file vol_enthalpy.dat
fix AVG all 		ave/time 1000 1 1000 v_Vol v_H file vol_enthalpy.dat


timer           timeout 23:50:00 every 1000
New timer settings: style=normal  mode=nosync  timeout=23:50:00

fix 		1 all shake 1e-6 200 0 b 1 a 1
       0 = # of size 2 clusters
       0 = # of size 3 clusters
       0 = # of size 4 clusters
     288 = # of frozen angles
  find clusters CPU = 0.000 seconds
fix             2 all nph iso ${pressure} ${pressure} ${pressureDamp}
fix             2 all nph iso 503.3 ${pressure} ${pressureDamp}
fix             2 all nph iso 503.3 503.3 ${pressureDamp}
fix             2 all nph iso 503.3 503.3 1000
fix             3 all temp/csvr ${temperature} ${temperature} ${tempDamp} ${seed}
fix             3 all temp/csvr 264.5 ${temperature} ${tempDamp} ${seed}
fix             3 all temp/csvr 264.5 264.5 ${tempDamp} ${seed}
fix             3 all temp/csvr 264.5 264.5 100 ${seed}
fix             3 all temp/csvr 264.5 264.5 100 745823

run             250000
PPPM initialization ...
  extracting TIP4P info from pair style
  using 12-bit tables for long-range coulomb (../kspace.cpp:340)
  G vector (1/distance) = 0.37126507
  grid = 24 25 25
  stencil order = 5
  estimated absolute RMS force accuracy = 0.0033336696
  estimated relative force accuracy = 1.0039247e-05
  using double precision FFTW3
  3d grid and FFT values/proc = 4116 672
Last active /omp style is kspace_style pppm/tip4p/omp
Neighbor list info ...
  update every 1 steps, delay 7 steps, check yes
  max neighbors/atom: 2000, page size: 100000
  master list distance cutoff = 10.8154
  ghost atom cutoff = 10.8154
  binsize = 5.4077, bins = 4 4 5
  1 neighbor lists, perpetual/occasional/extra = 1 0 0
  (1) pair lj/cut/tip4p/long/omp, perpetual
      attributes: half, newton on, omp
      pair build: half/bin/newton/omp
      stencil: half/bin/3d
      bin: standard
Per MPI rank memory allocation (min/avg/max) = 10.19 | 10.20 | 10.22 Mbytes
Step Temp PotEng TotEng E_pair E_mol Press Lx Ly Lz Volume Pxx Pyy Pzz Pxy Pxz Pyz Enthalpy 
 1250000    265.37575   -3827.7602   -3372.9152   -3827.7602            0   -141.73625    18.247715    21.493398    22.262169    8731.3426    -144.2415    278.99581   -559.96305    1989.9461    1008.8604    340.64023   -3390.9636 
 1251000    274.28751   -3896.3312   -3426.2118   -3896.3312            0    -597.1153    18.211937    21.451256     22.21852     8680.085   -949.91228   -4.9110949   -836.52252   -620.83191    1015.8976   -95.409988   -3501.8007 
 1252000    262.64749   -3842.4721   -3392.3033   -3842.4721            0    206.65041    18.083533    21.300013    22.061868    8497.7792    209.01222    872.46315   -461.52413   -670.71176    -1187.015    605.04891   -3366.6929 
 1253000    288.29797   -3898.5046   -3404.3717   -3898.5046            0   -264.37091    18.063034    21.275868    22.036859    8468.9128    531.82483   -1174.5484   -150.38913   -113.10798    257.29413    1023.4124   -3437.0243 
 1254000    257.75787   -3892.5442    -3450.756   -3892.5442            0     31.76736    18.037278     21.24553    22.005436    8432.7369    898.10686    -782.1718   -20.632976    1735.9252    202.24554    383.28983   -3446.8492 
 1255000    271.15201   -3864.4233   -3399.6781   -3864.4233            0    128.65736    18.143947    21.371173    22.135573    8583.2331    293.83859    1009.0857   -916.95223   -168.38485    1731.3284     -1275.79   -3383.5731 
 1256000    270.12631   -3848.3113    -3385.324   -3848.3113            0    695.49271     18.16713     21.39848    22.163857    8616.1766   -480.28479    1839.5609    727.20203    -376.5944    905.31856    1178.6247   -3297.9298 
 1257000    255.93028   -3878.5993   -3439.9436   -3878.5993            0    427.13983    18.009438    21.212739    21.971472    8393.7503    1225.0042   -225.01753    281.43283     -398.394     406.8528   -869.85569   -3387.6556 
 1258000    270.54742   -3849.1554   -3385.4464   -3849.1554            0    1004.3612    18.053461    21.264592     22.02518     8455.455    2139.2974    1481.7802   -607.99409   -354.45724   -819.45126   -100.05595   -3261.5945 
 1259000     286.6438   -3874.0114   -3382.7137   -3874.0114            0   -483.54194    18.086977     21.30407    22.066069     8502.635   -1259.9077    -402.4089    211.69077    188.54011   -329.59588   -830.42444    -3442.674 
 1260000    271.92789   -3860.2727   -3394.1976   -3860.2727            0    -188.9234    18.183007    21.417181    22.183226    8638.7859   -936.11332    1309.9569   -940.61377   -723.76571     621.6797    677.22362   -3417.9997 
 1261000    262.14339    -3849.524   -3400.2192    -3849.524            0    86.758187    18.078788    21.294424    22.056079    8491.0919   -415.64217    677.53598   -1.6192433    643.76731   -717.54103   -55.166863   -3389.4756 
 1262000    275.99232   -3859.0773   -3386.0359   -3859.0773            0    1964.0148    17.997901     21.19915    21.957397    8377.6297    1631.1951    2265.3637    1995.4856    19.730038   -235.50685    135.87776   -3146.0743 
 1263000    274.74896   -3858.8775   -3387.9672   -3858.8775            0   -565.17875    18.112581    21.334228    22.097307    8538.7959    257.07387   -1222.0476   -730.56251   -306.77792    462.27663   -209.99759   -3458.3487 
 1264000    263.85566   -3885.5699   -3433.3303   -3885.5699            0    660.83995     18.11368    21.335522    22.098647    8540.3492    1386.7036    675.95885   -80.142551    773.17464    970.70434    1187.1815   -3351.0212 
 1265000    274.83741    -3888.789   -3417.7271    -3888.789            0    1631.0816     18.07669    21.291953    22.053519    8488.1356    1129.7293    2933.0932    830.42221    -183.4746    95.775325   -100.13399   -3215.8143 
 1266000    266.24746   -3868.2859   -3411.9468   -3868.2859            0    1281.2661    18.068891    21.282767    22.044005    8477.1545    2040.7517    937.28516    865.76141    558.40269   -1231.7956    725.16847   -3253.5431 
 1267000    265.03472   -3854.8983   -3400.6379   -3854.8983            0    1005.9673    18.060132     21.27245    22.033319    8464.8325    1503.1384    358.48314    1156.2803   -1185.7024    566.41773   -520.91571   -3276.4503 
 1268000    254.24346   -3881.3212   -3445.5566   -3881.3212            0   -750.39994    18.137431    21.363497    22.127623    8573.9882    -517.2562    272.45982   -2006.4034   -299.69139   -648.00125    2.0987752   -3539.3887 
 1269000    262.66999   -3863.8149   -3413.6076   -3863.8149            0    566.28349    18.071087    21.285353    22.046684    8480.2453   -66.331613     1885.437   -120.25493    493.04979    954.52466    585.76432   -3343.5721 
 1270000    268.24144   -3894.1338   -3434.3772   -3894.1338            0   -550.48652     18.11861    21.341329    22.104662    8547.3252    330.46572    127.97046   -2109.8957    424.28114   -577.13201    258.41917   -3502.9975 
 1271000    253.52216   -3841.4363    -3406.908   -3841.4363            0   -186.08361       18.104    21.324121    22.086838    8526.6654    197.28067   -462.26931    -293.2622    127.10283   -8.2046528    582.48946    -3430.048 
 1272000    274.30902   -3826.9707   -3356.8144   -3826.9707            0    100.60186    18.113896    21.335777    22.098911    8540.6554    153.54651     1574.799   -1426.5399   -750.60322    -1184.605   -171.98489   -3344.2838 
 1273000    250.23403   -3860.1831   -3431.2905   -3860.1831            0    311.98966    18.184795    21.419287    22.185407    8641.3346    1446.0595   -62.461791    -447.6287    168.83124   -1682.6893   -966.05576    -3391.972 
 1274000    277.86791   -3799.7212   -3323.4651   -3799.7212            0    1984.6378    18.008589    21.211739    21.970436    8392.5636    1630.4476    2566.3445    1757.1215    1219.1616    635.28732    432.93388   -3080.5515 
 1275000     244.1379   -3808.4921   -3390.0481   -3808.4921            0   -212.57376    18.117614    21.340156    22.103447     8545.916    682.52935   -1067.2639   -252.98667    1059.3529   -915.31336   -74.600821   -3416.5419 
 1276000     269.9813   -3826.6227    -3363.884   -3826.6227            0    873.97698    18.112371    21.333981    22.097051    8538.4989    279.96738    1673.9816    667.98195   -444.07356    311.74066    340.64077   -3255.0518 
 1277000    267.76207   -3840.2294   -3381.2944   -3840.2294            0      562.894    18.153429    21.382341    22.147141    8596.6965    247.40286   -132.72261    1574.0017    277.99128    999.93954    913.62735   -3310.7221 
 1278000    269.73656     -3868.24   -3405.9207     -3868.24            0    619.28721    17.999226    21.200711    21.959014    8379.4808    804.80089    1102.7441   -49.683405   -1291.0459   -364.39573    501.62158     -3330.24 
 1279000    256.07449   -3888.1911   -3449.2882   -3888.1911            0    1575.3071    18.131649    21.356688     22.12057    8565.7918    1109.5786    1148.9954    2467.3472    -462.6165    768.78538    1041.2529   -3252.4956 
 1280000    278.86503   -3883.7061    -3405.741   -3883.7061            0    654.49106    18.093191    21.311389     22.07365    8511.4011   -538.24693    1155.5459    1346.1742     429.7841    410.37105    868.26019    -3324.499 
 1281000    264.71875   -3799.1819    -3345.463   -3799.1819            0   -711.08542    18.163393    21.394078    22.159297      8610.86   -562.03737    158.70185   -1729.9207   -163.47943     229.3591   -218.42751   -3434.7615 
 1282000    257.09424    -3816.598   -3375.9473    -3816.598            0    1085.4183    18.133662    21.359058    22.123025    8568.6445   -973.08347    2970.4593     1258.879   -230.75167   -940.18999   -1297.9195   -3240.3081 
 1283000    268.99424   -3870.6635   -3409.6166   -3870.6635            0    1731.3761    18.165307    21.396332    22.161632    8613.5826    1011.7483    1739.9863    2442.3937   -866.62413   -1038.3588   -675.32273   -3192.1207 
 1284000    248.27333   -3881.7126   -3456.1806   -3881.7126            0    1071.6069    18.248084    21.493833     22.26262     8731.873    1411.7891    601.86195    1201.1695   -631.36521   -826.43155   -669.34282   -3319.7164 
 1285000    270.22591   -3924.5355   -3461.3776   -3924.5355            0    1534.8815    18.237645    21.481537    22.249884    8716.8957    1031.4539    1823.8682    1749.3223    357.53592    350.00156   -419.71186   -3266.2527 
 1286000    257.56056   -3896.5254   -3455.0754   -3896.5254            0    58.230863    18.267169    21.516312    22.285903    8759.2982    1561.7538   -286.49914   -1100.5621     65.03047    533.06763    319.85038   -3447.6367 
 1287000    262.55309   -3858.4844   -3408.4774   -3858.4844            0    1365.5255    18.212532    21.451957    22.219246    8680.9359    1055.9581    1272.9154     1767.703   -421.14832    1020.8615     83.03991   -3235.5984 
 1288000    263.42069   -3872.2845   -3420.7904   -3872.2845            0    1248.1913    18.078998    21.294672    22.056336    8491.3881    874.74145    1144.2806    1725.5519   -459.06832   -618.12432    298.91235   -3266.2167 
 1289000    262.72077   -3846.9674    -3396.673   -3846.9674            0   -151.36207    18.027965    21.234561    21.994075    8419.6824   -578.19475    137.30157   -13.193032   -200.39941   -1369.9226   -169.84061   -3415.2591 
 1290000    249.79654   -3856.1204   -3427.9776   -3856.1204            0    767.74111     18.01447    21.218666    21.977612    8400.7889   -177.90044    1245.0353    1236.0885   -1495.5324   -126.83259     1373.276   -3333.9164 
 1291000    246.19461   -3844.5574   -3422.5883   -3844.5574            0   -91.963875    17.978785    21.176634    21.934076    8350.9637   -979.04526   -377.15684    1080.3105   -974.08334   -412.01686    296.10988   -3433.7886 
 1292000    256.19127   -3849.3703   -3410.2672   -3849.3703            0   -41.851719    17.923387    21.111382     21.86649    8274.0059     -1221.22     975.0689    120.59595    656.50745    479.92355     449.0949   -3415.3174 
 1293000    270.25212   -3849.0294   -3385.8265   -3849.0294            0   -336.99666    18.038199    21.246615     22.00656    8434.0289     328.8273   -741.74739   -598.06988    2.2780357    471.72656    1124.4497   -3427.2776 
 1294000    268.76553   -3869.2784   -3408.6235   -3869.2784            0    1840.5606    17.973093    21.169929    21.927131    8343.0343    1912.9222    1357.7436     2251.016   -204.10278    660.34199    81.485864    -3184.674 
 1295000    259.32566   -3896.1993   -3451.7239   -3896.1993            0   -507.74729    18.042497    21.251678    22.011804     8440.059   -610.27637    635.87546    -1548.841    782.72981   -303.81566   -172.72146   -3514.2224 
 1296000    265.55081   -3833.9334   -3378.7883   -3833.9334            0     1070.257    18.035384      21.2433    22.003126    8430.0811    344.05814    2094.2959    772.41703   -80.282941   -830.18318    205.50361   -3247.2066 
 1297000    261.57901   -3875.1572   -3426.8198   -3875.1572            0     129.6704    18.030885    21.238001    21.997637    8423.7741    993.59415   -243.73153    -360.8514    1241.4957   -1511.0406   -62.452027   -3410.8895 
 1298000    271.52161   -3854.8468   -3389.4681   -3854.8468            0    2192.1209    17.951466    21.144456    21.900747    8312.9539    2295.8871    1930.9698     2349.506   -1131.1287   -1997.8617    800.83863   -3123.7043 
 1299000    264.30863   -3831.4947   -3378.4787   -3831.4947            0   -59.564114    17.933051    21.122765     21.87828    8287.3964    684.44821   -363.01767   -500.12289   -118.84668   -1236.9195   -79.282963   -3385.6778 
 1300000    259.68977   -3857.0401   -3411.9407   -3857.0401            0    1377.3108    17.868983    21.047302    21.800117    8198.8906    399.52753    2970.1598    762.24505   -196.52437   -993.42802     1045.772   -3247.2524 
 1301000    270.87196   -3855.6468   -3391.3815   -3855.6468            0    1546.3499    17.971612    21.168186    21.925325    8340.9732    635.31552    2286.4648    1717.2695    604.50722    504.96977    45.172878   -3203.2765 
 1302000    263.16705   -3870.6114   -3419.5521   -3870.6114            0    520.72964    18.043083    21.252368    22.012519    8440.8814    731.62625    632.10795    198.45472    883.90704    555.94839    1202.2029   -3355.4494 
 1303000    270.34231   -3901.1429   -3437.7855   -3901.1429            0   -320.98293    17.960491    21.155086    21.911757    8325.4976   -827.85302   -950.55398    815.45821   -1492.5946    610.12009    855.71684   -3476.7588 
 1304000    277.19678   -3871.1488    -3396.043   -3871.1488            0    301.52821    18.043393    21.252733    22.012897    8441.3169   -425.57513    1020.4877    309.67212     743.9334     595.7047    1543.0115   -3358.9224 
 1305000      265.088   -3861.4386   -3407.0868   -3861.4386            0    569.31069    17.972114    21.168776    21.925937    8341.6714    502.10815    215.76603     990.0579   -414.05451    1656.9901       611.11   -3337.8275 
 1306000    268.20557    -3848.823   -3389.1278    -3848.823            0    415.16545    18.012962     21.21689    21.975772    8398.6796    418.77106    339.55509    487.17021    908.35246     486.0947   -402.98667   -3338.2758 
 1307000    263.45319   -3885.5639   -3434.0141   -3885.5639            0    1062.5183    18.052803    21.263818    22.024378    8454.5312    -49.79958     557.4609    2679.8935    73.128695    1425.4227    326.10251   -3303.0049 
 1308000    266.87114   -3915.2775   -3457.8695   -3915.2775            0    220.37237    18.006573    21.209364    21.967977     8389.745    60.781792   -294.53143    894.86674    1096.2059    794.81818   -909.52173   -3430.9057 
 1309000    261.57338   -3879.2593   -3430.9314   -3879.2593            0    963.64869    18.108287     21.32917    22.092068    8532.7239     895.3235    802.66599    1192.9566    798.34531    1263.9265    1514.6858    -3311.014 
 1310000    262.79237   -3925.2841    -3474.867   -3925.2841            0    534.82379    18.043582    21.252956    22.013128    8441.5822    711.86161    994.82364   -102.21388    -1074.701   -302.58708   -241.73389   -3409.0239 
 1311000     255.5183    -3873.452   -3435.5024    -3873.452            0    711.89777    18.094039    21.312388    22.074686    8512.5993    1664.2475    444.75975    26.686053    1795.9659   -384.98679    174.10207    -3347.122 
 1312000     260.2557   -3857.9559   -3411.8866   -3857.9559            0   -154.02595    18.063474    21.276386    22.037396    8469.5323    106.25784   -959.02807    390.69238   -167.09822    1477.9149     1160.871   -3430.9118 
 1313000    280.87808    -3835.852   -3354.4366    -3835.852            0    265.75806    17.961103    21.155807    21.912504    8326.3494   -569.85358    519.67277    847.45498   -879.22623     -1116.62   -557.78084   -3322.1653 
 1314000    275.26218   -3858.1541   -3386.3641   -3858.1541            0    1325.7737    17.863892    21.041305    21.793907    8191.8851    1952.9785    96.488566     1927.854    682.19599   -82.563778    1412.4727   -3227.9736 
 1315000    255.07559   -3879.9814   -3442.7906   -3879.9814            0    666.00882    17.855876    21.031863    21.784127    8180.8621    1727.4854      592.079    -321.5379   -224.12239   -1571.6352   -1344.4587   -3363.3294 
 1316000     268.5393   -3827.1813   -3366.9141   -3827.1813            0    143.27388    18.036418    21.244518    22.004388    8431.5312    273.86534    818.30806   -662.35174    265.04478    286.60976   -485.53868   -3349.2964 
 1317000    260.41555   -3907.0861   -3460.7427   -3907.0861            0   -488.39329    18.093838    21.312151     22.07444    8512.3146   -1204.0828    1475.2408    -1736.338   -238.12099    135.09269     -244.946   -3521.3735 
 1318000    264.41424   -3883.6947   -3430.4977   -3883.6947            0   -987.59008    18.219102    21.459696    22.227262    8690.3349   -1517.1808    635.43923   -2081.0287    -213.9625   -931.63038   -171.48786   -3555.6645 
 1319000    253.85246   -3896.7467   -3461.6522   -3896.7467            0    2764.7362    18.001915    21.203879    21.962295     8383.237    2490.8637     2388.525    3414.8199    335.85316    338.56047   -1304.0178   -3123.6331 
 1320000    271.05649   -3872.8144   -3408.2329   -3872.8144            0    102.09119    18.161209    21.391506    22.156633    8607.7548    604.14016    1250.6052   -1548.4718     394.9181    1391.0567    362.82882   -3395.4168 
 1321000    263.18282    -3850.164   -3399.0777    -3850.164            0    378.27486    18.102515    21.322372    22.085026    8524.5676   -1260.9661    2722.2738   -326.48307    1469.9142     811.4603    878.71686   -3352.0498 
 1322000    275.51236   -3792.0744   -3319.8557   -3792.0744            0   -542.17437    18.261447    21.509573    22.278923    8751.0702    212.36432   -1325.5817   -513.30575    92.647534    44.978848   -976.19696   -3389.0509 
 1323000    257.06362   -3847.3795   -3406.7812   -3847.3795            0    2123.6845    17.899701    21.083483    21.837593    8241.2463    1392.7717    3101.1752    1877.1066   -587.53064    582.15033    861.26909   -3151.5353 
 1324000    258.38111   -3832.1216   -3389.2653   -3832.1216            0    891.98784    17.929578    21.118674    21.874043    8282.5827    965.16224    581.63295    1129.1683   -569.50135    480.05549    464.50634   -3281.5194 
 1325000    266.52915   -3844.2928    -3387.471   -3844.2928            0    341.74815    17.989108    21.188793     21.94667    8365.3573    -60.45595     539.1792     546.5212   -12.023382   -154.49898   -1399.1555   -3345.7777 
 1326000    249.61933   -3838.5457   -3410.7067   -3838.5457            0    9.7255278    17.960877    21.155541    21.912228    8326.0345    138.22372   -344.77403     235.7269    276.96757    441.37895   -875.73736   -3409.5258 
 1327000    267.46675   -3903.2931   -3444.8643   -3903.2931            0    175.77355    18.042236    21.251371    22.011486    8439.6935    454.63497    203.25081   -130.56514    1026.8882    444.75357   -1131.9505   -3423.2293 
 1328000    262.12573   -3814.9396   -3365.6651   -3814.9396            0    434.81401    18.120581    21.343651    22.107067    8550.1153    754.97948    949.65305   -400.19052    759.34529    611.64639   -218.63431   -3311.4461 
 1329000    266.24912   -3878.1426   -3421.8008   -3878.1426            0     1422.194    18.017801     21.22259    21.981675    8405.4499    2653.5863    751.91954    861.07622    558.93549    338.49147    1042.1229   -3247.4613 
 1330000    266.78823   -3824.9847   -3367.7188   -3824.9847            0   -175.81847    18.048106    21.258284    22.018647    8447.9329    -239.8397    697.32902   -984.94472    996.68494   -747.65884    988.22791   -3389.3804 
 1331000    254.82049   -3853.1228   -3416.3692   -3853.1228            0   -742.76517    18.162319    21.392813    22.157987    8609.3327   -271.61454   -44.419021    -1912.262    1384.7439   -706.16673    817.12618   -3509.6296 
 1332000    258.17109   -3885.9072   -3443.4108   -3885.9072            0     505.2946    18.036942    21.245135    22.005027    8432.2657    1700.7876    544.01114   -728.91491    271.82232   -180.80708    375.83583   -3381.2717 
 1333000    253.30371   -3857.0842   -3422.9303   -3857.0842            0   -1317.4927    18.120938    21.344072    22.107503    8550.6207   -664.67996    -779.9756   -2507.8226   -560.86252   -664.07061    1580.2783   -3587.2244 
 1334000    269.90641   -3799.2226   -3336.6123   -3799.2226            0    519.25392      18.0826    21.298914     22.06073    8496.4636    757.53589    295.92354    504.30233   -940.88962    439.20941    121.80824   -3272.2704 
 1335000    275.79804   -3886.6988   -3413.9904   -3886.6988            0    1804.9607    18.100353    21.319825    22.082388    8521.5131    1485.3254    3053.0664    876.49048   -402.19933    -289.3228   -551.95202   -3189.6744 
 1336000    272.22331   -3911.0392   -3444.4577   -3911.0392            0   -6.6137926    18.136158    21.361998     22.12607    8572.1834   -406.72326       1611.2   -1224.3181    -1463.166   -405.73598   -665.27139   -3445.2846 
 1337000     265.6015   -3902.4972   -3447.2653   -3902.4972            0   -66.297573    18.056715    21.268425     22.02915    8460.0279    1582.7585   -826.38229   -955.26895   -572.39756   -188.53609   -259.92756   -3455.4452 
 1338000    270.81547   -3847.6008   -3383.4323   -3847.6008            0    1626.5242    17.972656    21.169415    21.926599    8342.4265    2402.6736     1308.249    1168.6499    1811.6486   -327.49553    126.23047   -3185.5401 
 1339000    260.47722    -3923.975    -3477.526    -3923.975            0   -479.93412    18.063871    21.276854    22.037881    8470.0908   -573.30637   -1374.0779    507.58188    703.63954   -590.12449    530.45093   -3536.8111 
 1340000    273.56426   -3886.5237    -3417.644   -3886.5237            0    420.47359     17.99261    21.192919    21.950943    8370.2441    1735.4747   -113.35325   -360.70063    153.90074   -238.57143   -403.66603   -3366.3161 
 1341000     260.6744   -3896.5255   -3449.7385   -3896.5255            0   -430.46178    18.149496    21.377709    22.142343    8591.1102    1065.2848   -300.63057   -2056.0396   -903.49298   -192.68269    90.904049   -3503.6722 
 1342000    264.34771   -3855.0627   -3401.9797   -3855.0627            0    148.64417    18.106525    21.327095    22.089919    8530.2338   -290.20249     852.0371    -115.9021   -947.21769   -429.36842   -1293.1236   -3383.4877 
 1343000    263.91136   -3863.3806   -3411.0455   -3863.3806            0    1648.4053    18.093263    21.311474    22.073739    8511.5041    1132.2838    2216.6315    1596.3006    1582.6126   -938.21984    279.32969   -3206.4264 
 1344000    267.15534   -3863.6568   -3405.7617   -3863.6568            0    259.57918    18.132139    21.357265    22.121168    8566.4866    1364.0469   -319.17852    -266.1308   -292.95354   -1103.1655    243.26966   -3373.3316 
 1345000    251.73828   -3850.9473   -3419.4765   -3850.9473            0   -1122.1627    18.111454    21.332901    22.095932    8537.2019   -1552.1286   -1300.4252   -513.93426   -772.55415    441.00866   -150.36552   -3559.1929 
 1346000    267.17898    -3850.466   -3392.5304    -3850.466            0   -650.88459    18.170724    21.402713    22.168241     8621.291    1337.1897   -3126.2957   -163.54781     -182.452   -102.39722   -222.83648   -3474.3678 
 1347000      260.728   -3857.8003   -3410.9215   -3857.8003            0   -1078.4542    18.119017    21.341808    22.105158    8547.9005   -832.40359   -2507.4554    104.49637   -769.53977   -573.61497    297.26566   -3545.3641 
 1348000    257.11811   -3902.1299   -3461.4382   -3902.1299            0   -556.88276    18.149279    21.377454    22.142079    8590.8028   -977.16442   -98.335225   -595.14863    429.62497     543.9039   -211.77836    -3531.209 
 1349000    270.58363   -3861.5498   -3397.7787   -3861.5498            0    317.37025    17.997174    21.198294    21.956511    8376.6152   -1098.3272     -339.801     2390.239    676.98742     -1302.36    114.29243   -3359.0074 
 1350000    257.51828   -3877.4564   -3436.0789   -3877.4564            0     255.0346     18.04864    21.258914    22.019299    8448.6839   -1621.9605    1298.5139    1088.5505    607.33382    429.80017    952.75588   -3404.6547 
 1351000    259.19312   -3891.8248   -3447.5766   -3891.8248            0    1578.1104    18.017293    21.221992    21.981056    8404.7391    1997.7795    127.75647     2608.795    64.440658    389.73341    1030.6657   -3254.1406 
 1352000    272.39143   -3864.4369   -3397.5673   -3864.4369            0    1513.2197    18.017244    21.221933    21.980996      8404.67   -334.50835    2295.7564    2578.4111    96.232699    874.92595    641.07176   -3212.0867 
 1353000    252.64719   -3839.7252   -3406.6966   -3839.7252            0    225.37954    18.102195    21.321995    22.084636    8524.1153    781.67732    943.71222   -1049.2509    416.86554    899.94409    35.332499   -3378.6784 
 1354000    250.64212   -3832.4259   -3402.8339   -3832.4259            0   -567.82036     18.11663    21.338998    22.102247    8544.5237    95.325102   -1003.5159   -795.27027    328.47703   -220.28754    306.31002   -3473.5918 
 1355000    277.06512   -3812.7375   -3337.8574   -3812.7375            0   -866.37819    18.112184    21.333761    22.096822    8538.2343   -1878.9224     653.3913   -1373.6035   -440.82907   -512.48842    739.95957     -3445.74 
 1356000    245.24024   -3837.0588   -3416.7255   -3837.0588            0    900.16025    18.058506    21.270535    22.031335    8462.5462    1761.4113    143.89917    795.17027    357.84488    224.13212    60.716727   -3305.6299 
 1357000    265.28565   -3870.4265    -3415.736   -3870.4265            0    366.41021    18.170809    21.402813    22.168345    8621.4116    838.60324      1012.13   -751.50257   -110.17483    -392.6951   -15.792048   -3369.6656 
 1358000    264.58472   -3856.4487   -3402.9595   -3856.4487            0    53.532188    18.154762    21.383912    22.148768    8598.5909   -120.51357    137.47339    143.63674    476.66837    341.35349    292.08721   -3396.2465 
 1359000    261.62288   -3867.1367    -3418.724   -3867.1367            0    903.57252     17.98566    21.184732    21.942463    8360.5478    680.68638    1059.8615    970.16973   -384.30704    -1648.015    460.83391   -3308.5514 
 1360000    250.66868   -3833.2492   -3403.6117   -3833.2492            0    199.37051    18.056417    21.268074    22.028786    8459.6092   -662.25421    327.27614    933.08961   -59.354956   -51.334561   -1033.6124   -3379.0144 
 1361000     269.1846   -3843.8772    -3382.504   -3843.8772            0   -115.26966    18.070293    21.284419    22.045716    8479.1283     373.8192   -384.99391   -334.63427    514.15052    889.83805    -408.4872   -3396.7582 
 1362000     256.1264   -3824.7289    -3385.737   -3824.7289            0    964.06626    17.965792    21.161329    21.918224     8332.871    1293.8059   -1011.0516    2609.4444    747.56801    335.22264   -1077.4652   -3268.5775 
 1363000    271.08863   -3862.2961   -3397.6595   -3862.2961            0    12.642285    17.965579    21.161079    21.917964    8332.5747   -352.47606   -783.88476    1174.2877    1671.0129    570.24058    -1248.115   -3396.1232 
 1364000     270.9462   -3821.7311   -3357.3386   -3821.7311            0    640.40696    18.036754    21.244914    22.004798    8432.0034    2138.0902    324.48295   -541.35223    1017.7772   -693.48235   -115.87379   -3278.5864 
 1365000     278.8303   -3851.3307   -3373.4251   -3851.3307            0     705.3178    18.033446    21.241017    22.000762     8427.364    393.85343    1007.0743    715.02563    155.75756    438.87376    36.657345   -3286.7384 
 1366000    253.74375    -3839.476   -3404.5679    -3839.476            0    835.42714    17.989652    21.189434    21.947334    8366.1162    720.74526    1749.7745    35.761699    620.64691    131.13935     1527.213   -3302.6364 
 1367000    256.79756   -3864.3774   -3424.2352   -3864.3774            0   -1025.8405    18.093854    21.312171     22.07446    8512.3382   -1973.0365   -399.68141   -704.80366    523.57511    457.23978    512.02121   -3551.5868 
 1368000    257.77956   -3860.5649   -3418.7396   -3860.5649            0   -150.43489    18.086079    21.303012    22.064974    8501.3684     540.1192   -517.66728   -473.75658   -636.47965    155.41862    404.02544   -3437.3911 
 1369000    264.55198   -3847.8105   -3394.3775   -3847.8105            0    277.59095    18.016565    21.221134    21.980167      8403.72    73.194168    305.41557    454.16311    497.19686   -341.30742    216.29543   -3360.3561 
 1370000    256.98097   -3873.3538   -3432.8972   -3873.3538            0    348.67482    18.101522    21.321202    22.083815    8523.1645   -348.39217    2522.8173   -1128.4007   -818.50092   -404.21317   -132.08668   -3389.5564 
 1371000    264.40372   -3882.8584   -3429.6795   -3882.8584            0    258.53786    18.090049    21.307688    22.069818    8506.9686    -676.2564   -900.62331    2352.4933    568.26162    347.38439    100.10274   -3397.6039 
 1372000    279.35852   -3853.9756   -3375.1646   -3853.9756            0    1560.2936    18.012033    21.215796    21.974638    8397.3796    1097.0282    1020.1047    2563.7481    312.48244   -549.91981    -653.7985   -3184.0799 
 1373000    243.28695   -3837.5779   -3420.5924   -3837.5779            0    817.69608    18.038594    21.247081    22.007042    8434.5834    520.78848    1808.9385    123.36126    737.17799    1028.4584   -354.14719   -3320.0078 
 1374000    262.63731    -3817.374   -3367.2227    -3817.374            0     816.5362     18.07855    21.294144    22.055789    8490.7566    1536.7425    217.41159    695.45452    746.92963    500.27294   -116.15446   -3266.1118 
 1375000    277.39961   -3848.2674    -3372.814   -3848.2674            0    636.63137    18.034314     21.24204    22.001821     8428.581    572.40331    89.152165    1248.3386   -471.76293    751.08341    523.43516   -3294.5579 
 1376000    259.38708   -3838.1966    -3393.616   -3838.1966            0   -629.47993    18.139282    21.365678    22.129881    8576.6135   -235.21326   -179.11694   -1474.1096     689.5515    830.33646   -205.57802    -3472.352 
 1377000    265.15804    -3823.601   -3369.1292    -3823.601            0    816.22712    18.118435    21.341123    22.104448     8547.077   -1212.6083     1606.762    2054.5277   -80.464493    2771.4511   -1181.0914   -3267.3862 
 1378000    261.99041   -3839.6447   -3390.6021   -3839.6447            0    247.93405    18.005767    21.208415    21.966994    8388.6191    1588.1247   -5.4295443   -838.89295    611.64149   -1025.8055    1366.3103     -3360.27 
 1379000    283.53383   -3842.4019   -3356.4346   -3842.4019            0    788.00456    17.895924    21.079035    21.832985    8236.0309    1271.1458    10.263807    1082.6041    1424.9327    870.85755   -784.82454   -3261.7842 
 1380000     265.6481    -3886.367   -3431.0552    -3886.367            0    506.84958    18.004086    21.206435    21.964943    8386.2696   -58.434031    1303.4439    275.53889   -779.49131   -746.10088   -775.21344   -3369.0649 
 1381000      256.471   -3877.3476   -3437.7651   -3877.3476            0    414.38496    17.963735    21.158907    21.915715    8330.0099   -291.05981    1019.4771    514.73758    388.27474   -618.90732   -1310.4224   -3387.4237 
 1382000    271.91026   -3849.7756   -3383.7307   -3849.7756            0     532.1918    17.932862    21.122543     21.87805    8287.1354    1318.3671   -1224.5217      1502.73   -387.08243   -614.28145    1288.5106   -3319.4104 
 1383000    257.90326   -3874.1775   -3432.1401   -3874.1775            0    2.0653022    18.008565    21.211711    21.970408    8392.5307    1858.7548   -1924.8367    72.277797   -413.97447   -1220.1701    145.89696   -3431.8873 
 1384000     255.3203   -3888.9987   -3451.3885   -3888.9987            0    730.74165    17.950369    21.143163    21.899408     8311.429   -1527.5517    1661.8514    2057.9252    678.04897     618.4376   -387.00305   -3362.8126 
 1385000    250.83775   -3878.3638   -3448.4365   -3878.3638            0    392.75116    18.010749    21.214283    21.973071    8395.5833   -1328.5602    1199.3969    1307.4168   -376.03276   -580.15397    607.26624   -3400.3477 
 1386000    265.55128   -3883.6229   -3428.4771   -3883.6229            0    195.65223    18.038564    21.247046    22.007006    8434.5415    554.42047   -601.32085    633.85708   -197.46695    247.12522   -807.67059   -3404.4101 
 1387000    259.65422   -3889.4549   -3444.4164   -3889.4549            0    478.38703    18.059591    21.271813    22.032659    8464.0715    2529.8693   -723.56108   -371.14711   -62.145748     518.1649    422.29218   -3385.3644 
 1388000    277.77467   -3893.0442   -3416.9479   -3893.0442            0   -120.83311    18.036065    21.244102    22.003957     8431.036    219.77622     -469.779   -112.49656    336.27234   -1117.6768   -116.40707   -3431.8053 
 1389000    254.50244   -3913.1541   -3476.9457   -3913.1541            0     772.9926    17.928082    21.116913    21.872218    8280.5101    1617.1167    164.22386    537.63718   -221.99614   -432.09757    773.62351    -3383.597 
 1390000    268.00901   -3876.4784   -3417.1201   -3876.4784            0    951.71356    17.968073    21.164017    21.921007    8336.0459    1318.3546    1155.1177    381.66833   -847.51141    914.39991   -74.269607   -3301.4177 
 1391000    258.80552   -3878.1178    -3434.534   -3878.1178            0    182.21664    18.008863    21.212062    21.970771    8392.9466    275.46659    1759.9676   -1488.7842    273.66018   -243.33651   -73.617677   -3412.2302 
 1392000    260.87059   -3885.0969   -3437.9736   -3885.0969            0   -97.813299    17.943664    21.135266    21.891228    8302.1197     196.8452    609.36922   -1099.6543    1144.6067    -959.0143    454.11203   -3449.8167 
 1393000    266.00464   -3888.3207   -3432.3979   -3888.3207            0    1115.9842    17.909941    21.095545    21.850087    8255.3994    1801.7699    2.7067479    1543.4759   -14.317995     1760.912   -390.10771   -3298.0373 
 1394000     259.9225   -3861.9929   -3416.4946   -3861.9929            0   -310.58797    17.971302    21.167819    21.924946    8340.5403    66.081583     89.03262   -1086.8781    1635.3626    30.297615   -404.92795    -3454.274 
 1395000    277.12568   -3864.6521   -3389.6682   -3864.6521            0   -991.44074    17.972961    21.169774     21.92697    8342.8508   -556.68159   -1355.5447   -1062.0959    88.652579   -1352.0914   -186.53178   -3510.2987 
 1396000    257.93805   -3876.8207   -3434.7237   -3876.8207            0    610.91509    17.877869    21.057768    21.810958    8211.1282    1287.9987    -829.6518    1374.3983   -466.80712    975.05329     41.49859   -3361.5661 
 1397000    256.91425   -3877.1842    -3436.842   -3877.1842            0    1288.7904    17.900506    21.084431    21.838575    8242.3583    1762.9957    2275.7795   -172.40398   -169.89736    467.71512    229.45361   -3281.9212 
 1398000    256.67149   -3882.9222    -3442.996   -3882.9222            0   -158.99578    17.845345     21.01946     21.77128    8166.3964   -1227.3958    564.14221    186.26629    690.63977   -990.66526    402.76401   -3461.9322 
 1399000    269.73184   -3830.7508   -3368.4396   -3830.7508            0    1076.6022    17.972616    21.169367    21.926549    8342.3702    1531.8011     15.99352    1682.0118   -390.30937     609.7328    694.76224   -3237.4549 
 1400000    268.41365   -3886.4808    -3426.429   -3886.4808            0   -1182.4627      18.0955    21.314108    22.076467    8514.6603   -1440.2754   -132.77493   -1974.3377     759.6228    -10.99574   -420.65626   -3573.2643 
 1401000    267.60808   -3860.0462   -3401.3751   -3860.0462            0   -166.10962    18.009856    21.213231    21.971982    8394.3352    528.60667   -487.31062   -539.62491    191.12528   -87.170121    1434.5708   -3421.7107 
 1402000    250.62329   -3846.3189   -3416.7592   -3846.3189            0   -589.26815    18.088141    21.305441     22.06749    8504.2771   -1277.2645   -986.70742    496.16747    459.03519    27.570817    280.69474   -3489.8438 
 1403000    269.99468    -3852.771   -3390.0094    -3852.771            0    -1049.963    18.126268    21.350349    22.114004    8558.1669   -1480.4634    -748.2265   -921.19907   -284.40653    377.12332    1200.1168   -3521.0574 
 1404000    253.59014   -3868.5106   -3433.8657   -3868.5106            0    390.62164    18.032431    21.239822    21.999524    8425.9415    1097.0489   -874.89561    949.71164    264.76327   -720.07908    253.71516   -3385.8647 
 1405000    271.22707    -3870.457   -3405.5831    -3870.457            0    1155.7516    18.053824     21.26502    22.025623    8455.9654    2456.2826    288.55259    722.41952    338.90735    921.66347   -121.23707    -3263.054 
 1406000    243.78472   -3883.5605   -3465.7219   -3883.5605            0   -934.07963    18.211767    21.451056    22.218313    8679.8423      -498.79   -47.016206   -2256.4327   -774.55864   -500.57463   -1267.6882   -3583.9638 
 1407000    265.21946   -3874.3271     -3419.75   -3874.3271            0    1276.4516    18.118409    21.341092    22.104416    8547.0403    972.49108    981.26501    1875.5986    698.72718   -930.82677   -157.31588   -3260.6405 
 1408000    264.23153   -3879.9204   -3427.0366   -3879.9204            0    1333.9631    18.060154    21.272475    22.033345    8464.8626    2238.6478    727.11336    1036.1281    122.74195   -692.44864   -1310.2852   -3262.3571 
 1409000     274.6309   -3880.4365   -3409.7285   -3880.4365            0    132.30915    18.128797    21.353328     22.11709    8561.7496    1409.4973   -242.50328   -770.06659   -491.08825   -403.22785      441.647   -3393.2078 
 1410000    276.00841   -3841.1813   -3368.1123   -3841.1813            0    1570.9513    17.956275     21.15012    21.906613     8319.636    433.11036    1315.1566    2964.5868    377.86427   -598.11998   -1686.8515   -3177.5035 
 1411000    256.84449   -3898.0398   -3457.8172   -3898.0398            0    424.27129    18.078769    21.294402    22.056056    8491.0654   -195.53529    1548.8686   -80.519457     27.12971    179.91619   -628.15531   -3405.2782 
 1412000    250.69555   -3861.4909   -3431.8073   -3861.4909            0     1237.842     18.06783    21.281517     22.04271    8475.6611    482.54376    849.29286    2381.6894   -1734.1101    1327.1981    794.64396   -3278.7991 
 1413000    260.37712   -3853.4121   -3407.1346   -3853.4121            0   -259.69345    18.198674    21.435634    22.202339     8661.135   -221.24321    194.07989   -751.91703    450.00456    43.574361    461.64542   -3439.9375 
 1414000     265.2042   -3865.3227   -3410.7718   -3865.3227            0    1134.1243    17.963525     21.15866    21.915458    8329.7175    2287.1838    1276.9337   -161.74463   -807.34379   -216.16369    780.16347   -3272.9979 
 1415000    252.74267   -3839.1632   -3405.9709   -3839.1632            0    52.023129    17.995852    21.196736    21.954897    8374.7686   -829.90861    1008.1917   -22.213657   -1172.9738    314.70829   -220.76607   -3399.6169 
 1416000    273.07898   -3851.5947   -3383.5467   -3851.5947            0    394.92419    17.921283    21.108904    21.863924     8271.093   -703.11426    845.00277    1042.8841   -1007.1574    352.97068   -26.665923   -3335.9088 
 1417000    253.80026   -3888.7811   -3453.7761   -3888.7811            0    1230.8863    17.967548    21.163398    21.920367    8335.3154    2177.2119    1383.5186    131.92838    -537.7189    1028.9822    187.38348   -3304.1471 
 1418000    268.73375   -3819.1653   -3358.5648   -3819.1653            0    954.00642    17.972453    21.169175     21.92635    8342.1431   -556.78548    2663.6332     755.1715    32.165893    198.51581    233.25724   -3242.4989 
 1419000    283.25323   -3866.8492   -3381.3629   -3866.8492            0   -895.68319    18.032073      21.2394    21.999087     8425.439   -1309.7914   -2426.8032    1049.5451    650.78337   -581.70181   -651.80679   -3491.4212 
 1420000    259.05144   -3842.8994    -3398.894   -3842.8994            0    89.780038    18.062235    21.274927    22.035884    8467.7892   -646.49376   -494.02612      1409.86    455.43863    287.46716   -786.54028   -3387.8068 
 1421000    264.98504   -3881.0678   -3426.8926   -3881.0678            0    1847.1039    18.069871    21.283922    22.045201    8478.5343    2207.8986    1360.9203    1972.4928    1356.9399    331.99169    737.42235   -3198.4968 
 1422000    266.42995   -3872.1971   -3415.5453   -3872.1971            0   -353.82582    18.056874    21.268613    22.029344     8460.252   -2103.6075     1256.774    -214.6439   -231.87063   -1445.8903     245.6264   -3459.2017 
 1423000    270.26608   -3874.8298    -3411.603   -3874.8298            0     430.3707    17.975443    21.172697    21.929998    8346.3072   -824.85843    1486.6459     629.3246   -1351.4459   -29.606566    68.708007   -3359.2173 
 1424000    257.93237   -3889.2809   -3447.1937   -3889.2809            0    982.14559    18.106731    21.327337    22.090169    8530.5242    1529.1151    158.63163      1258.69     390.2473   -243.88394     494.1519    -3325.006 
 1425000    257.70558   -3860.3681   -3418.6696   -3860.3681            0    251.79543    18.081593    21.297728    22.059501    8495.0447     129.8185    606.82679    18.741003   -261.09662   -2155.7136    376.11215   -3387.4743 
 1426000    250.81699   -3890.0018   -3460.1101   -3890.0018            0    672.28768    18.071468    21.285802    22.047148    8480.7815    461.44322    633.53546    921.88437    377.35574    279.59154    -1308.684   -3376.9592 
 1427000    267.70223   -3881.9234    -3423.091   -3881.9234            0    700.64858    18.147741    21.375641    22.140201    8588.6178    966.47453    137.76388    997.70733   -1260.1876    868.90555    507.16743   -3335.3304 
 1428000    279.99277   -3892.6504   -3412.7524   -3892.6504            0    526.24038    18.054829    21.266203    22.026849    8457.3772   -2.6713904    459.25721    1122.1353   -1462.1004    -221.3876    550.87273   -3347.8448 
 1429000    259.57302   -3888.2293     -3443.33   -3888.2293            0    239.56219    18.130259    21.355051    22.118874    8563.8222    1464.6987    173.26594   -919.27803   -89.522906    34.222019    106.13382     -3413.41 
 1430000    263.25037   -3905.8496   -3454.6475   -3905.8496            0   -170.93024    18.106528    21.327099    22.089922    8530.2383    20.656066   -686.36726    152.92048   -545.97609   -334.68339    52.233748    -3475.912 
 1431000    277.63682   -3908.0673   -3432.2073   -3908.0673            0     1390.343    18.035331    21.243237    22.003061    8430.0068    1265.7744    2455.0646    450.18996   -1486.3274    310.84438    90.991819   -3261.2744 
 1432000     274.5477   -3860.8443    -3390.279   -3860.8443            0    310.31793    18.097422    21.316372    22.078812    8517.3738   -178.96056    301.11077    808.80357   -614.29195   -1320.7422    360.93568   -3351.7322 
 1433000    262.11067    -3909.211   -3459.9623    -3909.211            0   -1280.5383    18.124768    21.348582    22.112174    8556.0427   -446.07944    -1452.438   -1943.0975    134.42794    629.02817    173.33721   -3619.7493 
 1434000    269.39908   -3919.2521   -3457.5113   -3919.2521            0    785.65132     18.04765    21.257748    22.018091    8447.2937   -308.89944    2044.3081    621.54529    1.5244277       992.32    676.42925   -3360.7228 
 1435000    276.30584   -3876.0552   -3402.4764   -3876.0552            0    1107.9233    18.119862    21.342804    22.106189    8549.0968    2075.5915   -1430.3846     2678.563   -178.39992    1762.0424   -267.03272   -3264.3408 
 1436000    264.47271   -3849.1504   -3395.8532   -3849.1504            0    837.92249    18.168184    21.399721    22.165142    8617.6753    829.38136    688.68472    995.70138    384.14903    67.355938   -515.83658   -3290.5431 
 1437000    263.05896    -3909.908    -3459.034    -3909.908            0    1239.4747    18.138164    21.364361    22.128518    8575.0281    1951.9027   -313.60581    2080.1271    241.13619    1291.2901    404.39098   -3304.0277 
 1438000    273.89451   -3878.4164   -3408.9706   -3878.4164            0    518.77861    18.275897    21.526593    22.296552    8771.8607   -161.86884    1586.7293    131.47538   -241.92293    1391.5615   -597.19408    -3342.604 
 1439000    254.70223    -3925.764   -3489.2131    -3925.764            0    11.299988    18.265211    21.514006    22.283515     8756.482     620.3555    787.43977   -1373.8953   -419.57163    859.00525    898.39138     -3487.77 
 1440000     269.9643   -3839.4709   -3376.7613   -3839.4709            0    864.23414    18.130066    21.354822    22.118638    8563.5475    323.81156    921.02803    1347.8628    196.05076    973.17554     1.274528   -3268.8267 
 1441000     257.8074   -3844.6181    -3402.745   -3844.6181            0    212.21967    18.186335    21.421101    22.187287    8643.5305   -1507.4806   -616.72119    2760.8608   -63.647189     180.6209   -253.25042   -3375.9932 
 1442000    261.74344   -3863.1177   -3414.4984   -3863.1177            0     336.2554    18.159061    21.388975    22.154012    8604.6999   -930.31539    186.08795    1752.9936    -577.9984    -28.20805   -107.36717   -3372.3015 
 1443000    257.37254   -3867.7419   -3426.6142   -3867.7419            0   -156.30242    18.198218    21.435097    22.201783    8660.4838   -1309.9432    1405.9521   -564.91613    899.43016   -909.30839    1086.6605   -3446.3559 
 1444000    278.24742    -3888.614   -3411.7074    -3888.614            0   -1924.9604    18.223188    21.464508    22.232247    8696.1824   -1499.5653   -1821.8569   -2453.4591    922.81323    713.33731    824.40051   -3655.8403 
 1445000    268.96429   -3886.0167   -3425.0211   -3886.0167            0    1379.1098      18.1732    21.405629    22.171262    8624.8156    576.02421    2412.3647    1148.9405    478.90811     451.8018   -152.87417    -3251.551 
 1446000    261.88227   -3877.3241   -3428.4669   -3877.3241            0     131.6488    18.147889    21.375816    22.140383     8588.829   -1314.7699     802.5484    907.16786    1845.0478     205.0279    135.86463   -3411.9767 
 1447000    258.91043   -3836.9443   -3393.1807   -3836.9443            0    489.22794    18.082266     21.29852    22.060322    8495.9925    1700.5635   -732.55813     499.6784       651.26   -615.47975   -242.22385   -3332.5627 
 1448000    270.02662   -3847.1431   -3384.3267   -3847.1431            0   -66.886571    18.113809    21.335674    22.098805    8540.5324   -189.20849    162.25296   -173.70418    -1687.995   -508.50082    71.557185   -3392.6578 
 1449000    282.01967   -3893.4228   -3410.0507   -3893.4228            0    1827.9351    17.965545    21.161039    21.917923    8332.5285    2348.9337    1704.5864    1430.2851    112.84951   -452.55749    312.33378   -3187.9175 
 1450000    260.45967   -3862.0017   -3415.5827   -3862.0017            0   -1705.1644    18.056146    21.267755    22.028456    8459.2286   -1280.8351   -1353.9563   -2480.7018    28.365403    455.24117    428.26602   -3625.9474 
 1451000    262.88032    -3857.443   -3406.8751    -3857.443            0    868.03744    18.032612    21.240035    21.999745    8426.1955   -281.43691    1936.9164    948.63288   -236.53217   -604.20101    176.87685   -3300.2042 
 1452000    257.62448   -3831.5045    -3389.945   -3831.5045            0   -166.99422    18.112507    21.334141    22.097217    8538.6915   -1008.9644    1447.4994    -939.5177   -66.992704    1012.5898   -323.13503   -3410.7405 
 1453000    256.12435   -3885.1722   -3446.1838   -3885.1722            0   -258.99136    18.016325    21.220851    21.979874    8403.3836   -1081.4052    -502.1882    806.61936   -1202.8116   -1065.8133   -552.09771   -3477.9245 
 1454000    268.13984   -3906.4013   -3446.8188   -3906.4013            0    1352.7866    18.016789    21.221398    21.980441    8404.0338    2390.5581    1223.2179    444.58384    7.6114393    387.73308    77.856467   -3281.0155 
 1455000    268.69068   -3924.2266   -3463.6999   -3924.2266            0    1830.3779    18.033623    21.241226    22.000978    8427.6121    2957.0363    2136.8683    397.22911    -317.7963    119.85048   -13.203079   -3238.7317 
 1456000    261.92861   -3908.2052   -3459.2686   -3908.2052            0    1771.4186    18.016431    21.220976    21.980003    8403.5319     1175.292    1919.3834    2219.5803    878.65245   -875.90713    735.06055    -3242.169 
 1457000    268.79437    -3890.979   -3430.2746    -3890.979            0   -343.24909    18.152242    21.380944    22.145693    8595.0108   -12.270963   -598.93715   -418.53915   -1001.8017    1294.9311   -1234.0144   -3473.3007 
 1458000    262.12006   -3866.3491   -3417.0843   -3866.3491            0    804.70056    18.068817     21.28268    22.043915    8477.0507    357.37852    1109.6348    947.08834   -399.40493   -1031.8239      564.386   -3317.5999 
 1459000    272.47395   -3907.3044   -3440.2934   -3907.3044            0    724.09871    18.057172    21.268963    22.029707    8460.6702    313.87439    144.11338    1714.3084    245.31045    756.47683   -70.963602   -3350.9467 
 1460000    288.63556   -3913.2999   -3418.5884   -3913.2999            0    890.26702    18.087263    21.304407    22.066419    8503.0387    510.56987    977.27106    1182.9601    739.49613    827.17386    205.31564   -3308.1881 
 1461000    249.69746    -3892.874   -3464.9011    -3892.874            0    963.03219    18.063318    21.276203    22.037206    8469.3127    523.59672    337.93348    2027.5664    -303.3855    578.43753   -268.43776    -3345.951 
 1462000    267.00234   -3889.8119    -3432.179   -3889.8119            0    254.73779    18.164866    21.395813    22.161094    8612.9553   -475.74864    1691.7547   -451.79271    210.22348   -1119.6331    480.14413   -3400.1811 
 1463000    272.44656   -3899.1359   -3432.1718   -3899.1359            0    132.94212      18.2183    21.458751    22.226283    8689.1864   -329.44556     280.4447    447.82722   -190.78257    786.10125   -847.08564    -3415.325 
 1464000    254.96128   -3883.2627   -3446.2678   -3883.2627            0    653.74547    18.076361    21.291566    22.053118    8487.6725    288.87901    918.72191    753.63551    1182.9386    81.266177   -137.01255   -3365.3445 
 1465000    250.60892   -3932.1667   -3502.6315   -3932.1667            0    1386.7753    18.130232    21.355018    22.118841    8563.7832    1624.6463    313.81395    2221.8657     801.7187   -236.03215   -410.79799   -3329.4316 
 1466000    270.87838    -3936.237   -3471.9608    -3936.237            0   -918.88267    18.173142    21.405561    22.171191    8624.7334   -2897.1577    919.66069   -779.15101    3.8058212    1558.0636    329.87444   -3587.5405 
 1467000    253.84625    -3913.782   -3478.6982    -3913.782            0    649.30181     18.16581    21.396925    22.162246    8614.2987   -226.68412    685.77856     1488.811   -96.087016   -513.75363   -231.01047    -3397.126 
 1468000    282.86826   -3914.6307   -3429.8042   -3914.6307            0   -1445.2896    18.152185    21.380876    22.145623    8594.9293   -1045.9432    -1221.576   -2068.3496   -2147.7306   -172.41811   -723.76429   -3610.9687 
 1469000    262.94928   -3845.9407   -3395.2546   -3845.9407            0   -776.71392    18.175726    21.408605    22.174344     8628.413   -1877.6415   -629.28942    176.78914   -539.91051    194.22462   -206.15504   -3492.9936 
 1470000     249.2861   -3900.0114   -3472.7435   -3900.0114            0    635.86058    18.101308     21.32095    22.083553    8522.8619   -719.91699    1254.1045    1373.3942    1676.8032   -674.38406   -746.89824   -3393.7078 
 1471000    256.45528   -3881.9719   -3442.4163   -3881.9719            0    294.72582    18.179062    21.412534    22.178414    8633.1649   -540.15617   -361.41856    1785.7522   -258.55204    935.72009   -25.940532   -3405.3086 
 1472000    258.08637   -3914.6128   -3472.2616   -3914.6128            0    522.55498    18.217594    21.457919    22.225422     8688.176   -152.37518    683.54169    1036.4984   -1213.3942    1410.0837    31.801722   -3406.0497 
 1473000    256.44073    -3908.761   -3469.2304    -3908.761            0    1610.6203    18.149738    21.377994    22.142638    8591.4536   -357.32109    3787.6547    1401.5272    1576.0083    880.76402    872.62794   -3267.4236 
 1474000    253.84676   -3869.6682   -3434.5835   -3869.6682            0    1975.2858    18.193068    21.429031      22.1955    8653.1337    3732.5462    195.75089    1997.5604   -627.23407    228.84637    1479.8356   -3185.3082 
 1475000    260.83043   -3881.9186   -3434.8641   -3881.9186            0     609.3351    18.141134     21.36786    22.132141    8579.2416   -84.011644    1277.9478    634.06917   -573.48912   -275.86744    571.37988   -3358.6245 
 1476000    259.09692   -3860.3386   -3416.2553   -3860.3386            0    42.614029    18.190378    21.425863    22.192219    8649.2965   -326.63517    118.90113    335.57613     382.2466    1092.7836    252.47185   -3410.8799 
 1477000     276.1564   -3816.0446    -3342.722   -3816.0446            0    1172.0188    18.074958    21.289913    22.051406    8485.6961    730.95009    420.67502    2364.4312    547.35983   -351.19044   -59.190352   -3197.6786 
 1478000    277.65389   -3875.8016   -3399.9123   -3875.8016            0    720.83324     18.18274    21.416866      22.1829    8638.4054    1298.4429   -1107.9138    1971.9706     12.69004   -119.95153    935.87465   -3309.1001 
 1479000    269.70767   -3883.4904   -3421.2207   -3883.4904            0    385.71852     18.21667    21.456831    22.224295    8686.8548    60.241926    1518.4869   -421.57329    96.464464    1549.0421   -377.35387   -3372.3544 
 1480000    253.63215   -3823.7238    -3389.007   -3823.7238            0   -614.86978    18.239317    21.483507    22.251925    8719.2943   -775.55336    -654.0534   -415.00257    1538.9704   -775.81619   -638.68034    -3467.195 
 1481000    266.76914   -3864.2913   -3407.0581   -3864.2913            0    2032.3311    18.146328    21.373978    22.138478    8586.6126    3133.2751    2532.4764     431.2419   -887.23138   -209.91539   -252.47439   -3152.5555 
 1482000    271.32551   -3874.9793   -3409.9366   -3874.9793            0    1476.5461    18.121184    21.344361    22.107802    8550.9686    1266.0035    1150.8819    2012.7529   -409.35969   -725.96277   -86.784257   -3225.8008 
 1483000    257.78593   -3883.0364   -3441.2001   -3883.0364            0    1382.5756    18.127725    21.352066    22.115782    8560.2317    3073.2288    314.91716    759.58073    735.82981    874.02831    401.03861   -3268.5964 
 1484000    269.97482   -3866.3529   -3403.6253   -3866.3529            0   -722.00688    18.239361    21.483558    22.251977    8719.3564   -513.00531   -2404.8633    751.84798   -357.10452    105.20368   -48.062286   -3495.4377 
 1485000    273.09951   -3896.3762   -3428.2929   -3896.3762            0    1500.3548    18.133265    21.358591     22.12254    8568.0815    1800.5873    622.67123    2077.8057    65.313853    34.358789    596.54209   -3240.8136 
 1486000    261.29816   -3871.7468   -3423.8907   -3871.7468            0    1201.4536    18.160053    21.390143    22.155222    8606.1101    1138.7262    661.74869    1803.8859    725.14775   -299.34807   -805.04131   -3273.0947 
 1487000    253.09095   -3852.1999   -3418.4106   -3852.1999            0   -980.83548    18.285395     21.53778    22.308139    8785.5433   -60.973498   -1816.8506   -1064.6823    162.35445   -942.73846    466.01127   -3544.0833 
 1488000    268.86061   -3867.2643   -3406.4464   -3867.2643            0    1185.7462    18.177148     21.41028    22.176079    8630.4382    1118.0258     555.1113    1884.1015    140.87269   -138.54788   -995.55746   -3257.2012 
 1489000    255.53675   -3867.7985   -3429.8173   -3867.7985            0   -886.82658    18.217105    21.457344    22.224826    8687.4778    161.96079    69.888521    -2892.329    815.77023    293.39995   -11.918153   -3542.1764 
 1490000    268.60364   -3898.6235   -3438.2461   -3898.6235            0   -576.57638    18.276553    21.527366    22.297353    8772.8054    653.24515   -642.92737   -1740.0469   -593.61258     764.1959   -617.18304   -3512.0146 
 1491000    248.37053   -3879.3444   -3453.6458   -3879.3444            0    474.80755    18.230807    21.473483    22.241542    8707.0953   -64.798281    812.81804    676.40288   -278.25215    270.20253    23.691574   -3393.3528 
 1492000      251.862   -3851.9251   -3420.2422   -3851.9251            0   -81.483234    18.251121     21.49741    22.266325    8736.2332    2086.9086   -1124.8116   -1206.5467    186.67501   -270.96643   -307.09119   -3430.6239 
 1493000    266.99078    -3860.009   -3402.3959    -3860.009            0    910.81241    18.193889    21.429998    22.196502    8654.3051    657.83407    1621.5076    453.09555   -405.65558    670.02034    480.10877   -3287.4385 
 1494000    268.23987   -3882.2305   -3422.4765   -3882.2305            0     966.5697    18.145147    21.372586    22.137037    8584.9358    682.44034    705.30741    1511.9613   -734.25105   -94.083163    896.21906   -3301.4596 
 1495000    265.23652   -3856.5553    -3401.949   -3856.5553            0    1021.0053    18.168994    21.400675    22.166131    8618.8288    310.66258     1713.982    1038.3714    596.84592    1037.1416    519.84102   -3273.6119 
 1496000    261.98446   -3875.8019   -3426.7695   -3875.8019            0    380.24082    18.139801    21.366289    22.130514    8577.3496    600.44872   -910.24449    1450.5182    995.43057   -411.76267    802.53703   -3379.2044 
 1497000     256.2111   -3846.3838   -3407.2467   -3846.3838            0   -730.49102    18.139711    21.366184    22.130406    8577.2232   -449.30405   -1232.9651   -509.20388    -479.6272     1064.694    1185.6746   -3498.6238 
 1498000     275.7652   -3848.1659   -3375.5137   -3848.1659            0    1554.4749    18.129535    21.354197     22.11799    8562.7952    910.39547    1722.1906    2030.8388   -596.09776    493.48042   -314.04882   -3181.3916 
 1499000     264.7945   -3898.7012   -3444.8525   -3898.7012            0    428.49348    18.153438    21.382353    22.147152      8596.71    -690.0017    1120.0144    855.46768   -81.096733     544.3684   -1508.9356   -3391.1305 
 1500000    268.59461   -3827.4458   -3367.0839   -3827.4458            0    1765.8772    18.057833    21.269741    22.030514    8461.5993    2574.1605    2189.2237    534.24748    1313.3646   -507.98573   -330.89403    -3149.168 
Loop time of 390.245 on 64 procs for 250000 steps with 864 atoms

Performance: 110.700 ns/day, 0.217 hours/ns, 640.623 timesteps/s
194.0% CPU use with 32 MPI tasks x 2 OpenMP threads

MPI task timing breakdown:
Section |  min time  |  avg time  |  max time  |%varavg| %total
---------------------------------------------------------------
Pair    | 26.046     | 28.453     | 35.671     |  33.5 |  7.29
Bond    | 0.78056    | 1.0898     | 1.9838     |  19.6 |  0.28
Kspace  | 186.55     | 194.37     | 197.72     |  19.3 | 49.81
Neigh   | 3.6654     | 3.9907     | 4.4615     |   9.6 |  1.02
Comm    | 71.372     | 75.932     | 81.035     |  27.0 | 19.46
Output  | 0.76554    | 0.76584    | 0.76746    |   0.0 |  0.20
Modify  | 68.491     | 71.395     | 76.994     |  22.5 | 18.29
Other   |            | 14.25      |            |       |  3.65

Nlocal:        27.0000 ave          32 max          20 min
Histogram: 1 0 2 6 1 8 5 2 2 5
Nghost:        2243.19 ave        2288 max        2190 min
Histogram: 2 2 5 3 5 2 1 2 3 7
Neighs:        7298.16 ave        8752 max        5450 min
Histogram: 2 2 2 3 5 4 2 4 4 4

Total # of neighbors = 233541
Ave neighs/atom = 270.30208
Ave special neighs/atom = 2.0000000
Neighbor list builds = 13913
Dangerous builds = 1

unfix		3
unfix		2
unfix		1

write_data	data.final.${pid}
write_data	data.final.1
System init for write_data ...
PPPM initialization ...
  extracting TIP4P info from pair style
  using 12-bit tables for long-range coulomb (../kspace.cpp:340)
  G vector (1/distance) = 0.37213493
  grid = 24 25 25
  stencil order = 5
  estimated absolute RMS force accuracy = 0.0032314019
  estimated relative force accuracy = 9.731271e-06
  using double precision FFTW3
  3d grid and FFT values/proc = 4116 672
Last active /omp style is kspace_style pppm/tip4p/omp
WARNING: Not all mixed pair coeffs generated from mixing. Use write_data with 'pair ij' option to store all pair coeffs. (../write_data.cpp:312)

write_restart   restart.lmp.${pid}
write_restart   restart.lmp.1
System init for write_restart ...
PPPM initialization ...
  extracting TIP4P info from pair style
  using 12-bit tables for long-range coulomb (../kspace.cpp:340)
  G vector (1/distance) = 0.37213493
  grid = 24 25 25
  stencil order = 5
  estimated absolute RMS force accuracy = 0.0032314019
  estimated relative force accuracy = 9.731271e-06
  using double precision FFTW3
  3d grid and FFT values/proc = 4116 672
Last active /omp style is kspace_style pppm/tip4p/omp
Total wall time: 0:06:30
