LAMMPS (30 Jul 2021)
Processor partition = 1
  using 2 OpenMP thread(s) per MPI task
using multi-threaded neighbor list subroutines
variable        pid world 0 1
variable        phase world IceIh IceIII

shell cd ${phase}
shell cd IceIII
include Restart.lmp
echo both
log log.lammps
#include		in.partitions
include		in.temp
variable        temperature equal 95.22
variable	tempDamp equal 100.0
include		in.pressure
variable        pressure equal 2050.2
variable        pressureDamp equal 1000.0 # This is 1 ps
include		in.seed
variable        seed equal 745823

units		real
atom_style	full

read_restart	restart.lmp.${pid}
read_restart	restart.lmp.1
Reading restart file ...
  restart file = 30 Jul 2021, LAMMPS = 30 Jul 2021
  restoring atom style full from restart
  orthogonal box = (-0.024112673 -0.00076968581 0.0052720574) to (20.024114 20.000771 20.694726)
  4 by 2 by 4 MPI processor grid
  restoring pair style lj/cut/tip4p/long/omp from restart
  restoring bond style harmonic/omp from restart
  restoring angle style harmonic/omp from restart
  972 atoms
  648 bonds
  324 angles
Finding 1-2 1-3 1-4 neighbors ...
  special bond factors lj:    0        0        0       
  special bond factors coul:  0        0        0       
     2 = max # of 1-2 neighbors
     1 = max # of 1-3 neighbors
     1 = max # of 1-4 neighbors
     2 = max # of special neighbors
  special bonds CPU = 0.002 seconds
  read_restart CPU = 0.006 seconds
include 	in.setup
variable	out_freq equal 1000
variable	out_freq2 equal 10000
variable	out_freq3 equal 1000

timestep	2.0

neigh_modify    delay 7 every 1

include		in.tip4p
# This is TIP4P/Ice

# create groups ###
group ox type 2
324 atoms in group ox
group hy type 1
648 atoms in group hy

# set charges - beside manually ###
set group ox charge -1.1794
Setting atom values ...
  324 settings made for charge
set group hy charge 0.5897
Setting atom values ...
  648 settings made for charge

# ### TIP3P Potential Parameters ###
pair_style lj/cut/tip4p/long/omp 2 1 1 1 0.1577 8.5
pair_coeff 1 1*2 0.000 0.000
pair_coeff 2 2 0.21084 3.1668
bond_style  harmonic
bond_coeff  1 450 0.9572
angle_style harmonic
angle_coeff 1 55 104.52
kspace_style pppm/tip4p/omp 1.0e-5
pair_modify tail yes

thermo          ${out_freq}
thermo          1000
thermo_style    custom step temp pe etotal epair emol press lx ly lz vol pxx pyy pzz pxy pxz pyz enthalpy

restart 	${out_freq3} restart.lmp.${pid} restart2.lmp.${pid}
restart 	1000 restart.lmp.${pid} restart2.lmp.${pid}
restart 	1000 restart.lmp.1 restart2.lmp.${pid}
restart 	1000 restart.lmp.1 restart2.lmp.1


include         in.dump
dump            myDump all atom ${out_freq2} dump.water.${pid}
dump            myDump all atom 10000 dump.water.${pid}
dump            myDump all atom 10000 dump.water.1
dump            myDump2 all dcd ${out_freq2} dump.dcd
dump            myDump2 all dcd 10000 dump.dcd
dump_modify     myDump append yes
dump_modify     myDump2 append yes


variable natoms 	equal  "count(all)"                        # NUMBER ATOMS
variable H      	equal  "enthalpy/v_natoms"                 # ENTHALPY-per-atom
variable Vol      	equal  "vol/v_natoms"                 # volume-per-atom
fix AVG all 		ave/time ${out_freq} 1 ${out_freq} v_Vol v_H file vol_enthalpy.dat
fix AVG all 		ave/time 1000 1 ${out_freq} v_Vol v_H file vol_enthalpy.dat
fix AVG all 		ave/time 1000 1 1000 v_Vol v_H file vol_enthalpy.dat


timer           timeout 02:55:00 every 1000
New timer settings: style=normal  mode=nosync  timeout=02:55:00

fix 		1 all shake 1e-6 200 0 b 1 a 1
Finding SHAKE clusters ...
       0 = # of size 2 clusters
       0 = # of size 3 clusters
       0 = # of size 4 clusters
     324 = # of frozen angles
  find clusters CPU = 0.000 seconds
fix             2 all nph aniso ${pressure} ${pressure} ${pressureDamp}
fix             2 all nph aniso 2050.2 ${pressure} ${pressureDamp}
fix             2 all nph aniso 2050.2 2050.2 ${pressureDamp}
fix             2 all nph aniso 2050.2 2050.2 1000
fix             3 all temp/csvr ${temperature} ${temperature} ${tempDamp} ${seed}
fix             3 all temp/csvr 95.22 ${temperature} ${tempDamp} ${seed}
fix             3 all temp/csvr 95.22 95.22 ${tempDamp} ${seed}
fix             3 all temp/csvr 95.22 95.22 100 ${seed}
fix             3 all temp/csvr 95.22 95.22 100 745823


run             250000
PPPM initialization ...
  extracting TIP4P info from pair style
  using 12-bit tables for long-range coulomb (../kspace.cpp:340)
  G vector (1/distance) = 0.3724572
  grid = 24 24 25
  stencil order = 5
  estimated absolute RMS force accuracy = 0.0034025856
  estimated relative force accuracy = 1.0246785e-05
  using double precision FFTW3
  3d grid and FFT values/proc = 3458 576
Last active /omp style is kspace_style pppm/tip4p/omp
Neighbor list info ...
  update every 1 steps, delay 7 steps, check yes
  max neighbors/atom: 2000, page size: 100000
  master list distance cutoff = 10.8154
  ghost atom cutoff = 10.8154
  binsize = 5.4077, bins = 4 4 4
  1 neighbor lists, perpetual/occasional/extra = 1 0 0
  (1) pair lj/cut/tip4p/long/omp, perpetual
      attributes: half, newton on, omp
      pair build: half/bin/newton/omp
      stencil: half/bin/3d
      bin: standard
Setting up Verlet run ...
  Unit style    : real
  Current step  : 31750000
  Time step     : 2
  Walltime left : 2:54:59.93
Per MPI rank memory allocation (min/avg/max) = 10.19 | 10.19 | 10.20 Mbytes
Step Temp PotEng TotEng E_pair E_mol Press Lx Ly Lz Volume Pxx Pyy Pzz Pxy Pxz Pyz Enthalpy 
31750000    99.657733    -5055.755   -4863.5566    -5055.755            0    1428.6694    20.048226     20.00154    20.689454     8296.376    2112.8124    1595.6722    577.52359    189.93946   -161.25284    327.44107    -4690.696 
31751000    92.475563   -5058.3487   -4880.0018   -5058.3487            0     1135.514    20.007285    20.087738    20.551235    8259.5637    49.605136    1300.5535    2056.3833   -246.06418   -268.99317    217.22595   -4743.2209 
31752000    94.919512   -5058.9192    -4875.859   -5058.9192            0    3114.0139    20.043598     19.89362    20.625492    8224.2027    3810.4888    1788.6839     3742.869   -203.22013   -1085.4721    71.228479   -4502.3593 
31753000    95.602214   -5065.0834   -4880.7065   -5065.0834            0    2337.6501     20.13666    19.877987    20.582507    8238.6891    1507.3547    2566.4476    2939.1481   -129.04146    466.04042    -1117.634   -4599.8312 
31754000    90.954731   -5068.8241   -4893.4103   -5068.8241            0    2794.9013     19.98419    19.962172    20.683625    8251.2739    2678.4943    3656.3913    2049.8184    140.35477   -31.785577   -815.32688    -4557.082 
31755000    93.891604   -5058.4299   -4877.3521   -5058.4299            0    1759.3677    20.063299    19.877818    20.748515    8274.8113    1658.2841    2008.3241    1611.4949   -185.80338    67.209732   -666.09977   -4665.0322 
31756000    95.286995    -5053.416    -4869.647    -5053.416            0    1218.7488    20.024683    20.035187    20.693851    8302.3374    1402.9257    266.46416    1986.8565   -402.99219    302.64398   -123.51798   -4722.0796 
31757000    96.426875   -5064.6232   -4878.6559   -5064.6232            0    2306.9525    20.074683    19.956727    20.610829    8257.2131     1227.505    3318.8063    2374.5462    173.86457    928.94953    -86.03101   -4600.8458 
31758000    95.218682   -5059.5032    -4875.866   -5059.5032            0    2461.1498    20.048784     19.90125    20.702211    8260.0967    1535.7986    3257.6927    2589.9582   -281.23015   -371.02078    44.854464   -4579.3835 
31759000    98.151896   -5054.7122    -4865.418   -5054.7122            0    1895.3239    19.914687    20.030077    20.708522    8260.4784    1258.9188    2088.8519     2338.201   -515.08478    26.154173    -162.0423   -4637.0872 
31760000    97.866892    -5065.239   -4876.4945    -5065.239            0    1998.4021    20.009074    19.962768    20.683366    8261.6913    2285.9258    1297.6532    2411.6272   -192.50893   -392.01789    357.98202   -4635.7104 
31761000    94.214047   -5063.9852   -4882.2855   -5063.9852            0    1976.4945    19.882911    20.036165    20.771362    8274.8389    3326.7184    606.36639    1996.3986   -168.74446    457.73794    849.46025   -4643.7621 
31762000    97.515787   -5048.6371   -4860.5697   -5048.6371            0    1791.4604    19.924922    20.006282    20.751513    8272.0433    2894.2542    1399.3841    1080.7427    301.02628    82.462876   -45.932467   -4644.4492 
31763000    100.77343   -5061.1468   -4866.7968   -5061.1468            0    1188.9805    20.102209    19.965216    20.702169     8308.711    466.42438    1302.3577    1798.1595   -235.50803    604.86417    241.50476   -4722.7232 
31764000    94.620388   -5066.1042   -4883.6208   -5066.1042            0    2284.0243    19.907907    19.956189    20.769081    8251.2639    2356.8303    2339.8728    2155.3699    156.41383    217.15036   -753.55424   -4608.7699 
31765000    94.766848   -5064.1299   -4881.3641   -5064.1299            0    1791.4236    19.983762    19.971713      20.6885    8256.9865    1326.3748    2119.5784    1928.3177    14.941824    -16.54683   -52.554853   -4665.6414 
31766000    97.470479   -5067.6387   -4879.6586   -5067.6387            0    1701.8197    19.950755    19.921263    20.818683    8274.2658    1538.1074    2002.2057    1565.1462   -156.28495    74.032119    264.10121   -4674.2972 
31767000    95.350204   -5063.6727   -4879.7818   -5063.6727            0    2115.1999    19.989525     20.02181    20.703127    8285.9397    2083.7952    1508.3268    2753.4775    207.54904    623.35714    720.85033    -4624.177 
31768000    91.520748   -5062.6885    -4886.183   -5062.6885            0      1877.92    20.055539    19.880061    20.752967    8274.3186    959.55218    3314.2494    1359.9584    149.20793     966.8058    378.21475   -4659.5698 
31769000    92.963441   -5061.0708    -4881.783   -5061.0708            0    2315.7541    19.823606    19.950028    20.904833    8267.4749    4073.0402    1439.9665    1434.2557   -305.01487     797.8846   -417.34084   -4602.5664 
31770000    94.740235    -5065.167   -4882.4525    -5065.167            0    2543.3966    19.845048    19.925463    20.798784    8224.2917    1924.0757    2980.2428    2725.8713   -148.59033    1250.9517    178.04159   -4577.3902 
31771000    89.105087   -5060.8301   -4888.9835   -5060.8301            0    2512.1814    19.886315    19.987857    20.757941    8250.9667    2121.5197    2656.3728    2758.6517   -465.56202   -35.569482   -832.65223   -4586.6879 
31772000    94.417682   -5057.6898   -4875.5973   -5057.6898            0    1897.9825    19.900625    19.823786    20.920092    8253.0961    2486.1285    2278.6052    929.21394   -159.66429    273.93169   -535.29464   -4647.1506 
31773000    91.274954   -5062.4791   -4886.4477   -5062.4791            0     1987.079    19.888392    19.943647    20.861695    8274.7302    1790.7401    2588.1541    1582.3428   -15.062125   -403.04431   -931.25853   -4646.6501 
31774000    103.44528   -5059.4067   -4859.9038   -5059.4067            0    2225.6554    19.936826     19.96549    20.698598    8239.0461    2998.6545     1429.714    2248.5978   -108.01217    674.79961   -299.29852   -4592.4734 
31775000    96.565169   -5052.4023   -4866.1683   -5052.4023            0    2076.0376    19.952097    20.001962    20.755274    8283.0369    3090.5962    1458.0387    1679.4781   -327.45239    958.48394    222.46992   -4615.3837 
31776000    98.021562    -5055.955   -4866.9122    -5055.955            0    1727.4322    19.951875    19.925555    20.779553    8260.9568     31.63398    2559.1741    2591.4884   -404.98218    975.77876    388.26893   -4658.7954 
31777000    100.99097    -5062.338   -4867.5684    -5062.338            0    1365.4047    20.008191    19.862719    20.928632    8317.3958     1701.979    1203.8199    1190.4152   -429.52535    944.79602   -676.06498   -4701.9439 
31778000    93.509575   -5064.6855   -4884.3444   -5064.6855            0     2658.691    19.929206    19.899472    20.902075    8289.3589    3869.4148    2272.2182    1834.4399   -539.55694    -652.7882    868.53306   -4562.9305 
31779000    91.237907   -5051.9027   -4875.9427   -5051.9027            0    1430.9539    19.922113    19.887241    20.894117    8278.1628    2929.5696     1017.858    345.43403   -340.66314    257.82878    21.135464   -4703.1858 
31780000    95.363184   -5055.5733   -4871.6574   -5055.5733            0    2208.9392    20.002555    19.899633    20.815535    8285.4885    2855.5087    1737.0649     2034.244     118.3106   -258.03589    -290.5478   -4604.7395 
31781000    98.610127   -5056.3283   -4866.1503   -5056.3283            0    2291.2953    19.949311    19.978301    20.767853    8277.0973    2953.5556    1965.1334     1955.197   -58.623748     29.33905   -323.02519   -4589.5613 
31782000    92.549746   -5050.1646   -4871.6746   -5050.1646            0    2561.5271    19.996867    19.970604    20.670012     8254.559    1981.7062    2516.1959    3186.6791    241.09808    49.913093    423.88808    -4563.307 
31783000    95.916696   -5061.1466   -4876.1632   -5061.1466            0    1431.0487     19.95007      19.9445      20.8573    8298.9977    996.57724    2489.3821    807.18681   -149.79149    347.22068    305.55367     -4702.96 
31784000    93.866469   -5065.9321   -4884.9027   -5065.9321            0    1782.4479    19.990367    19.890802     20.80478     8272.489    2078.9871    1612.2077    1656.1489   -379.13741    311.16309    603.83561   -4669.8579 
31785000     91.18613   -5073.1029   -4897.2428   -5073.1029            0    2411.1568    19.940938    19.993962    20.760066    8277.0044     2653.816    1898.5424     2681.112    -632.2757    806.89036   -23.850209   -4606.1881 
31786000    92.805391   -5068.1919   -4889.2089   -5068.1919            0    1836.6535     20.06804    19.854471    20.802585    8288.5886    1760.7951    1768.1374    1981.0279   -90.351145    235.61263    141.33729   -4667.1932 
31787000    99.530324   -5069.5701   -4877.6175   -5069.5701            0    1595.8745    20.027307    19.934308    20.651279    8244.6205    1330.3223    1263.3968    2193.9044    93.078849   -345.41425   -410.71122   -4685.7306 
31788000    95.818633   -5053.5573    -4868.763   -5053.5573            0    2800.4343    19.965657    20.005285    20.628551    8239.4278    2724.8643    2409.8334    3266.6052   -57.264181    641.98361   -963.55126   -4532.2528 
31789000    91.158713   -5061.4214   -4885.6142   -5061.4214            0    1694.1604     19.97079    19.962237    20.785709     8286.465     1040.552    2388.2179    1653.7112    -408.6834    168.37018    368.16048   -4680.8756 
31790000    95.420974   -5064.7891   -4880.7618   -5064.7891            0    1379.0664    19.981548    19.960827    20.762868     8281.233    2077.7285    911.68668    1147.7839   -229.84246    294.74712    267.79146   -4714.2074 
31791000    96.818354   -5063.5185   -4876.7962   -5063.5185            0    1908.3338    19.845946    20.022504    20.767834    8252.4217    2454.2593    1960.8574    1309.8847    140.12911    192.96203    189.87113   -4647.1223 
31792000    94.529943   -5065.6586   -4883.3496   -5065.6586            0    1192.0031    20.123551    19.819076    20.849113    8315.2559    30.639183    3102.6058    442.76433     244.8797       323.38   -342.11729    -4738.796 
31793000    96.928281   -5058.8403    -4871.906   -5058.8403            0    2269.2772    20.025382    19.870899    20.767518    8263.8595    855.70816    3257.2617    2694.8618    66.953665    320.22618    605.09587   -4598.4129 
31794000    92.468697   -5067.5198   -4889.1861   -5067.5198            0    2096.4082    19.937997    20.083441    20.617734    8255.8269    2698.1047    1735.4379    1855.6821    83.723949    56.297257     729.2119   -4636.7728 
31795000    91.540258   -5069.6236   -4893.0806   -5069.6236            0    2126.6755    20.079016    19.909039    20.682335    8267.8442    1920.7243    2135.9782    2323.3241   -176.05863    47.108717     923.9183   -4636.6502 
31796000    99.405072   -5080.1225   -4888.4115   -5080.1225            0    1379.1319    19.947007     19.93298    20.835546    8284.2813    1693.9068    1902.1594    541.32957   -374.84598   -165.81853    306.59853   -4721.7879 
31797000    95.706247   -5064.3777   -4879.8002   -5064.3777            0    3656.3319    20.014744     19.82895    20.672128    8204.1755    4406.4986    3837.5425    2724.9546   -575.80036    1125.1768   -257.50026    -4442.322 
31798000    92.402382    -5068.143   -4889.9373    -5068.143            0    2326.9815    19.922299    19.880191    20.778976    8229.7026    2028.7674    2078.4985    2873.6785    -279.5726    1534.7225   -120.60073   -4610.6488 
31799000    94.142727   -5055.1628   -4873.6007   -5055.1628            0    2087.6133    20.074324    19.849109    20.774376    8277.7048     1832.079    2509.5276    1921.2332    475.43145    530.08901    407.78116   -4621.5802 
31800000    92.542617   -5065.0262     -4886.55   -5065.0262            0    2391.7178    19.936066    19.987238    20.721137    8256.6873     2516.366    2101.7674      2557.02    108.54237    763.94312    -285.4948   -4598.5505 
31801000     102.0784   -5050.0946   -4853.2279   -5050.0946            0    1461.5377     19.95656    20.008467    20.708531      8268.92    1190.3837    832.04772    2362.1817   -134.10583    1225.7191   -219.98191   -4676.9756 
31802000    95.862039   -5067.5389   -4882.6609   -5067.5389            0    2549.0011    20.001074    19.902347    20.589859    8196.1704    2309.2683    2358.6468    2979.0883    59.103867   -51.017766    1055.3089   -4577.9718 
31803000    93.577867   -5074.0738    -4893.601   -5074.0738            0    1248.3286      20.0227    20.012788    20.680256    8286.7861    284.34034    1476.6791    1983.9663   -287.51478    116.66199    140.76477   -4742.7352 
31804000    95.205852   -5052.7521   -4869.1396   -5052.7521            0    1529.2256    20.079141    19.918526    20.780972    8311.2852    1213.9184    2025.6977    1348.0608   -568.35229    148.44675    67.394829   -4683.7798 
31805000    98.277192    -5065.756   -4876.2202    -5065.756            0    2532.1168     19.92892    19.914855    20.798613    8254.5857    1924.2019    3682.1383    1990.0102    -257.7444    971.48418   -137.59714   -4571.3921 
31806000    98.895324   -5055.1153   -4864.3874   -5055.1153            0    1994.8185    19.993312    19.809358    21.001621    8317.7903     1951.792    2127.0528    1905.6107   -134.55149    74.452858   -531.75415    -4622.403 
31807000    94.034849   -5073.4091    -4892.055   -5073.4091            0    1352.0343    19.901236    19.979904    20.818017    8277.7598    1121.6545    1231.8399    1702.6085   -139.51226    411.65811   -703.02774   -4728.8338 
31808000    92.930688    -5058.669   -4879.4444    -5058.669            0    2362.2319    19.894492     19.89072    20.897667    8269.5362    1650.9287    3436.2665    1999.5005   -555.74689      583.287    220.87248   -4594.5528 
31809000    91.092152    -5055.848   -4880.1691    -5055.848            0    2613.7789    19.830861    19.979973    20.815234    8247.4133     2419.006    2977.6582    2444.6726   -312.79291   -3.7154657    287.12881   -4565.7836 
31810000    97.534295   -5065.8163   -4877.7132   -5065.8163            0    1378.8716    19.913035    19.851227     20.85013    8242.0185    720.75842    2207.5253     1208.331    -265.2524   -304.17063   -383.46893   -4711.9709 
31811000    95.669168   -5060.8893   -4876.3833   -5060.8893            0    2647.2458    19.858675    19.947526    20.938406    8294.3609     3510.953    2589.0646    1841.7197   -106.52923    18.397788    484.69908   -4556.1599 
31812000    100.08847   -5052.1088   -4859.0798   -5052.1088            0     2648.108     19.89874    19.846093    20.811423    8218.6862    2272.1624    2605.9656    3066.1959   -277.43602    255.93047   -502.64902   -4541.6746 
31813000    99.182137   -5065.1035   -4873.8224   -5065.1035            0    1746.3939    19.854631    19.914008     20.92119    8271.9309    1716.8298    2627.6316    894.72033    291.63709    725.07881    2.1974273   -4663.1416 
31814000    92.630938    -5058.088   -4879.4415    -5058.088            0    2168.8634    20.000494    19.913314    20.754328    8265.9532    1033.3641    3363.8988    2109.3274    125.43374    1186.1487   -539.07153    -4617.984 
31815000    97.772938   -5070.2429   -4881.6795   -5070.2429            0    2949.3203    19.923204    20.077009    20.614612    8245.8108    3625.9764    1625.1812    3596.8033   -274.03043   -188.24565     473.1922    -4527.004 
31816000    98.225305    -5051.904   -4862.4683    -5051.904            0    1078.1515    19.962289    19.953869     20.76445    8270.9976    1708.7408    808.47676    717.23705   -339.04048    437.11148   -209.17417   -4732.4173 
31817000    92.481066   -5062.6751   -4884.3176   -5062.6751            0    2530.5722     19.88495     19.94317    20.832997    8261.7196    3512.7438    1475.6455    2603.3274    -225.4584   -292.96448   -626.70484   -4579.4122 
31818000    94.859867   -5061.9413    -4878.996   -5061.9413            0    2213.6608    19.910149    19.991321    20.810413    8283.1724    1482.9657    2755.5911    2402.4255   -51.681668   -139.21196   -1394.2723   -4611.5823 
31819000    94.394463   -5077.6826    -4895.635   -5077.6826            0    1900.3756    20.056362    19.930144    20.789467     8310.094    2793.5842    1487.0906    1420.4522    271.19652   -47.471129    792.65811   -4665.3205 
31820000    93.080672   -5054.4485   -4874.9346   -5054.4485            0    1850.1984    20.006839    19.951188     20.80902    8306.1329    2161.8654    1685.5312    1703.1987   -473.28735    259.31949    513.08587   -4650.8081 
31821000     97.03053   -5061.7608   -4874.6293   -5061.7608            0    2200.6894    20.020517    19.906192    20.657366    8232.6271    2461.5312    1855.4928    2285.0443    -154.1471    1170.0322    655.00744   -4610.4048 
31822000    104.20814    -5060.395   -4859.4209    -5060.395            0    1167.9187    20.075985      19.9549    20.662787    8277.8075    1255.9121    1024.9492    1222.8948   -247.95376    289.48919   -184.25902   -4718.4258 
31823000    96.037341   -5076.4413   -4891.2253   -5076.4413            0    1558.1291    19.998892    19.952331     20.73631    8274.2963    1664.4446    1672.1148     1337.828    162.44449   -69.963959   -325.29989   -4703.2025 
31824000    94.194499   -5067.8201   -4886.1581   -5067.8201            0    1271.3558    19.992537    19.838029     20.90192     8289.963     1357.497    1856.9329    599.63768   -99.374155    459.49521   -163.12562   -4732.4504 
31825000     92.40294   -5062.6105   -4884.4036   -5062.6105            0    2006.0172     19.95713    20.033797    20.671321    8264.7474    3349.4653    340.19246    2328.3937    -118.8791     460.6413     802.2706   -4642.6126 
31826000    99.552758   -5072.7375   -4880.7416   -5072.7375            0    1840.5643    20.014661    19.879498    20.803347    8277.2652         1340    1839.9843    2341.7085   -20.035699    112.44674    -466.5662   -4658.5571 
31827000    92.477044   -5073.7329   -4895.3832   -5073.7329            0    1275.4587    19.933726    19.944178    20.810341    8273.3965    1013.1454    999.37146    1813.8593    -375.2719    172.41482  -0.97785017   -4741.4876 
31828000    98.546244   -5055.8929   -4865.8382   -5055.8929            0     2814.736    19.787855    19.980236    20.816437    8230.1115    4229.1892    1802.2695    2412.7492    283.11447    79.535863   -141.97596   -4527.9918 
31829000    92.526194   -5065.4287   -4886.9842   -5065.4287            0    2392.4511    19.925148    19.946905    20.697928    8226.2888    1371.2717    3680.0369    2126.0445   -375.42799   -250.18351   -60.967319   -4599.9571 
31830000    94.060034   -5053.7172   -4872.3145   -5053.7172            0    1066.5799    19.950942    19.963002    20.902527    8325.0733    757.14307    1895.7232    546.87338   -271.31122     648.6308   -708.81223   -4742.8182 
31831000    99.601229   -5067.5645   -4875.4751   -5067.5645            0     1705.414    19.940621     19.97202    20.752762    8264.8804    2198.9372    1355.1713    1562.1336   -179.12703    279.75784   -71.579987   -4669.9134 
31832000    95.043994   -5073.6758   -4890.3754   -5073.6758            0    1979.0493    19.921907     19.99886    20.769097    8274.7285    1055.8737    2403.0681    2478.2063   -361.81046   -740.93921    -297.9673   -4651.5469 
31833000    96.197792   -5059.6775   -4874.1519   -5059.6775            0    1962.0628    20.014197    19.916555    20.819851    8299.0815    1415.4246    2340.1734    2130.5904    84.882674   -673.82295    144.64899   -4636.6764 
31834000    97.540552   -5052.6825   -4864.5673   -5052.6825            0    2515.1659    19.936357     19.93866    20.768059    8255.3919    2627.7098    2518.4324    2399.3555   -254.98301    880.41148   -368.51717   -4561.7503 
31835000    92.608087   -5063.0727   -4884.4703   -5063.0727            0     2318.229    19.908964    19.945088    20.710316    8223.7775    1589.6909    2998.4149    2366.5813   -262.46506    308.72843    -375.9576   -4606.4326 
31836000    89.716176   -5057.4999   -4884.4747   -5057.4999            0    962.33097    19.991416    20.017201    20.744852    8301.5127    1043.9717    554.38639    1288.6349   -139.93468    596.15918   -306.01335   -4767.9662 
31837000    92.144491   -5062.6014    -4884.893   -5062.6014            0     1538.874    19.992373    19.937714    20.742874    8268.1556    1599.9085    1266.5727    1750.1409    201.12159    531.67828   -96.101763   -4699.3316 
31838000    95.310321   -5062.3295   -4878.5155   -5062.3295            0    2186.9802    20.068736     19.97319    20.573898    8246.7731    1460.3345    2593.2748    2507.3313    -204.1116    797.96924     1000.201   -4615.4858 
31839000    91.736378   -5073.0524   -4896.1311   -5073.0524            0     2354.265    20.028574    19.870633    20.699318     8237.924    2370.2649    2419.2866    2273.2436   -323.14511   -125.00262    508.95505   -4613.2858 
31840000    92.821002   -5062.3437   -4883.3306   -5062.3437            0    1712.1578    19.919502    19.964327    20.889834    8307.4577    1844.2235    1803.3282    1488.9216    117.68943    849.39026   -620.20823   -4675.8929 
31841000    93.821923   -5065.9663   -4885.0229   -5065.9663            0    1437.3657      19.9837    19.884934    20.909477    8308.8939    1159.7177    1532.2749    1620.1044    209.22727     253.3376   -586.99837   -4710.8476 
31842000    93.944787   -5064.3212   -4883.1408   -5064.3212            0     1630.622    19.988919    19.909676    20.745334    8256.0805    2643.9424    1003.0041    1244.9195   -252.21511   -640.46526   -2.2203035   -4686.8033 
31843000     103.2036   -5069.0574   -4870.0205   -5069.0574            0    2219.7238     19.97533    19.899409    20.746546    8246.6956    1560.0361    2337.0833    2762.0521   -115.96376   -202.93448    5.4835836   -4603.0553 
31844000    94.569404   -5061.1791    -4878.794   -5061.1791            0    1797.5113    19.983049     19.95798    20.761785    8280.2425    1227.2717    2004.7333     2160.529   -340.44198     898.4732   -6.4518413   -4661.7286 
31845000    88.119156   -5065.2685   -4895.3233   -5065.2685            0     1007.196    19.910513    19.965556    20.833992    8282.0215    1369.2571    1123.2125    529.11832   -322.68311   -223.17373   -725.57404   -4773.6693 
31846000    98.332608   -5063.4344   -4873.7917   -5063.4344            0    2485.3331     19.87267    19.821507    20.900049    8232.6605    3048.3596    3336.8138    1070.8258   -134.54761   -539.85874   -594.62261   -4575.3904 
31847000    96.964763   -5066.5421   -4879.5374   -5066.5421            0    2311.5151    19.969856    19.956304    20.872969    8318.3898    2201.8895    2207.5538     2525.102   -551.52624    1031.3845   -851.14167   -4599.1155 
31848000    96.834873   -5066.3661   -4879.6119   -5066.3661            0    2338.5023    19.908051    19.988846    20.777095    8268.0159    2854.2047    1517.0022    2644.2999   -26.600047   -214.05367   -705.20975    -4597.634 
31849000    91.544287   -5059.7531   -4883.2022   -5059.7531            0    1111.3405    20.016595    19.982227    20.840814    8335.8281    761.61653     797.9439    1774.4611   -172.77391     1097.591    265.00988   -4748.0971 
31850000     91.51588   -5058.3213   -4881.8253   -5058.3213            0    935.23061    19.986503    20.049795    20.731328    8307.5678    1487.0491     275.1513    1043.4915    450.68784   -204.79621    543.19013   -4768.5152 
31851000    95.483213   -5079.8804    -4895.733   -5079.8804            0    2203.8553     20.05697    19.894485    20.752544    8280.7445    1873.0538    2234.9137    2503.5984   -92.170255    387.92198   -154.81796   -4629.5819 
31852000      97.4248   -5064.2995   -4876.4075   -5064.2995            0    1945.3234    19.957918    19.875673    20.745347     8229.203    985.48582    2433.0835    2417.4008    154.33942    9.8555643    10.981693   -4642.9406 
31853000    95.911366   -5058.3601    -4873.387   -5058.3601            0    1537.6705    20.045833     19.95054     20.74137     8294.996    629.45022    1809.5922    2173.9692   -165.43954    216.33681    524.94699   -4687.3688 
31854000    97.873224   -5060.8986   -4872.1419   -5060.8986            0    2617.2059    19.940989    19.942943    20.685387    8226.2063     2842.664    2585.2738    2423.6798    -113.1969   -145.02415    492.29475   -4558.1536 
31855000    97.657333   -5052.9167   -4864.5764   -5052.9167            0    1493.1783    19.931266     20.01822      20.7911    8295.4092    1924.4494    1020.9125    1534.1729    109.77057   -340.62573     276.1172   -4683.9316 
31856000    91.070056   -5064.7672   -4889.1309   -5064.7672            0    2017.3344    19.906592    19.934195    20.831362    8266.3405    2318.4665    2059.6958    1673.8409    116.37129    179.42445    702.81912   -4645.9289 
31857000    97.250868   -5063.0145    -4875.458   -5063.0145            0     1988.996     19.85165    19.965417    20.819702    8251.8151    2952.0511    1643.5601    1371.3769    24.037241    18.010954   -421.42005   -4636.0937 
31858000    94.752718   -5056.3373   -4873.5987   -5056.3373            0    1289.3444    20.015068    19.950029    20.789293    8301.1891    552.43818    1790.5478    1525.0473   -606.02863    25.401551    526.48103   -4717.5051 
31859000    94.727768     -5060.55   -4877.8595     -5060.55            0    1826.1322      19.8559     19.95022    20.878287    8270.5072    1817.8384    2672.5874    987.97081   -237.57661   -309.01097    755.48704   -4657.5972 
31860000    97.222971   -5055.5096   -4868.0069   -5055.5096            0    2523.8163    20.016546    19.918857    20.686871    8247.9946    3267.9564    2432.2781    1871.2144   -172.15493    207.60763    80.220305   -4564.4207 
31861000    98.984899    -5058.805   -4867.9043    -5058.805            0    1937.7845     19.88117    19.924224    20.883644    8272.3642    2023.1936    2618.1278     1172.032    118.22376    206.23182    -387.9001   -4634.1223 
31862000    98.903411   -5062.7053   -4871.9618   -5062.7053            0    1979.4492    19.960236    19.900824    20.736758    8237.1616    1698.2711    2684.7277    1555.3488   -82.503343    278.27651    153.94646   -4634.1695 
31863000    89.274676   -5060.8526   -4888.6789   -5060.8526            0    1431.3247    19.967598     19.94753    20.872059      8313.43    1412.1049    1496.2962    1385.5728   -63.424204    584.59226    370.91537    -4715.141 
31864000    96.416811   -5061.1219    -4875.174   -5061.1219            0    2233.9742    20.029282    19.887282    20.739788    8261.2378    1449.7811    2457.9902    2794.1514    159.20886   -290.89785   -265.34324    -4606.021 
31865000    91.717286   -5053.0945     -4876.21   -5053.0945            0    1468.4806    19.932242    19.952695    20.800806    8272.5209     2124.388    1107.6373    1173.4165    -487.4184   -361.58768   -138.42076   -4699.0434 
31866000    93.561359   -5069.4388   -4888.9978   -5069.4388            0    1281.3961    20.012129    19.981382    20.722562     8286.331     503.6759    1700.3457    1640.1667   -260.27817   -519.94151   -392.60559   -4734.1442 
31867000     87.99445   -5058.9832   -4889.2785   -5058.9832            0    2398.0529    20.092821     19.75774    20.673544    8207.1637      1147.92    3260.5692    2785.6697     144.8035   -200.93698    338.41902   -4602.2482 
31868000    88.488699   -5056.2635   -4885.6056   -5056.2635            0    2016.0223    20.000423    19.858385     20.86234    8286.0224    122.81755    3717.4512    2207.7981   -530.50166    83.381823    770.84541   -4641.9832 
31869000    92.602415   -5067.2945   -4888.7029   -5067.2945            0    1281.4038     20.00496    20.050183    20.754294    8324.6117    1001.3092    1189.9688    1652.9334   -242.70379    837.89216    -791.8076   -4733.1329 
31870000    94.823713   -5061.1118   -4878.2363   -5061.1118            0    1323.1734    20.095575    19.912901    20.624161    8252.9888     1099.518    1060.3628    1809.6392   -38.039903    264.76154   -682.35762   -4718.9773 
31871000     90.93117   -5067.4218   -4892.0534   -5067.4218            0    2472.0453    20.012646    20.002597    20.624321    8256.0168    2208.5611    2838.3659     2369.209   -320.43236   -22.642172    -139.8108   -4594.4054 
31872000    96.990975   -5056.3269   -4869.2716   -5056.3269            0    1960.2808    20.119373    19.956117    20.660488    8295.2805    985.24218    2359.4934    2536.1068   -26.861538    239.27583   -712.14643   -4632.1205 
31873000    93.568361   -5055.4782   -4875.0238   -5055.4782            0    2828.5596    19.917991    19.862479    20.795732    8227.2214     3072.244     2711.234    2702.2007    283.17943    184.79242    682.97649   -4535.6374 
31874000    93.992657   -5057.0179   -4875.7452   -5057.0179            0    2300.5718    19.770061    20.017353    20.803247    8232.7659    2678.3557    1799.1167    2424.2428   -97.272481   -11.265226   -1201.8241   -4599.5237 
31875000    94.605784    -5050.407   -4867.9518    -5050.407            0    2189.9509    19.967082    19.859207    20.894766      8285.41    2297.6742    2373.8069    1898.3715   -320.30162   -852.71632    370.91727   -4603.3308 
31876000    89.924079   -5064.1523   -4890.7262   -5064.1523            0     2263.651    19.954899    19.911092    20.769353    8252.1584    1981.8378    2041.7838    2767.3314    307.07395     419.9478    117.12937   -4618.2974 
31877000    98.290786   -5073.9877   -4884.4256   -5073.9877            0     1419.772    20.027097     19.91787    20.739305    8272.8493    2070.2856    879.03182    1309.9987   -334.64222    1386.4283   -469.69976   -4713.1287 
31878000    92.442104   -5060.9383   -4882.6559   -5060.9383            0    2986.3606    19.863805    20.073943    20.670917    8242.4224    2663.3658    2622.4484    3673.2675   -747.51897   -19.365858    137.80734   -4523.6737 
31879000    98.600404     -5056.53   -4866.3709     -5056.53            0    1129.8035    20.003295    19.888052    20.807685      8277.85    801.37365    1407.4848    1180.5522     122.5549    454.35277    520.29312   -4729.9765 
31880000    92.964995   -5074.5044   -4895.2136   -5074.5044            0    1678.5227     20.10583    20.033689    20.551329    8277.9509    1134.7528    1251.5562     2649.259   -54.010221    3.7470173   -130.71859   -4692.5732 
31881000     91.39304   -5073.9845   -4897.7253   -5073.9845            0    2212.9343       20.009    19.916461    20.775826    8279.3429    895.88197    3775.1603    1967.7606    217.44333    325.08704   -377.27186    -4630.523 
31882000    97.732284    -5056.952   -4868.4671    -5056.952            0    1106.7417    19.996786    20.011711    20.807652    8326.5959    2044.6611    117.62808    1157.9358    208.99484    327.03617   -721.79288     -4734.07 
31883000    96.065424   -5054.6198   -4869.3495   -5054.6198            0    1771.1171    20.049087    19.792534    20.876124    8284.1101    1907.8678     2917.334    488.14946   -4.0066931    608.75447   -1184.1961   -4655.3716 
31884000    94.972321   -5065.1186   -4881.9565   -5065.1186            0    2570.4647    19.968795    19.892049    20.754854     8244.248    2293.2082    2417.8303    3000.3555   -181.99621    280.10123    618.49302   -4572.8995 
31885000     96.11757   -5066.5798    -4881.209   -5066.5798            0    1873.9474    20.003717    19.836025    20.925342    8303.0553     1345.614     2633.855    1642.3733   -347.08363    589.61941   -452.22783   -4654.2898 
31886000    98.551777   -5066.2178   -4876.1524   -5066.2178            0    2542.2044    19.940227    19.852369    20.867401    8260.5852     3183.049     2935.312    1508.2522   -626.58022   -149.43485    224.21509   -4569.8876 
31887000    93.190478   -5065.3425   -4885.6169   -5065.3425            0    1710.8608    19.813732    19.968767    20.914673    8275.0116    1833.9072    2139.4945    1159.1805    118.24693    466.55917    -193.6037   -4679.1458 
31888000    98.871254    -5076.955   -4886.2735    -5076.955            0    2420.2871    19.974511    19.914994    20.793139    8271.3495    2489.2275    2694.1822    2077.4517   -339.69405    440.02789    9.9375403   -4594.3163 
31889000    89.796705   -5068.6904   -4895.5099   -5068.6904            0    2365.6578    19.831139    20.012565    20.753082    8236.3164    3469.0351    1553.4237    2074.5146   -5.7425349    1775.0091   -120.96249   -4611.3513 
31890000    96.404723   -5061.6676   -4875.7429   -5061.6676            0    2003.6729    19.947205    19.972147    20.789916    8282.4635    3037.6127    1463.2193    1510.1868    -324.8343    425.72453   -844.39999   -4633.7168 
31891000    95.615853   -5066.3299   -4881.9267   -5066.3299            0    2438.0113    19.957107    19.847391    20.798308    8238.1376    1633.2522    3908.4978     1772.284    111.51392    337.59698    358.86451   -4589.0124 
31892000    95.446553   -5063.5803   -4879.5036   -5063.5803            0     1694.104    20.004096    19.822086    20.840741    8263.8312    779.18093    2591.8283    1711.3028    131.89065    659.35794    880.56953    -4675.331 
31893000    93.934406   -5066.4887   -4885.3283   -5066.4887            0    2201.0942    19.919585    20.023008    20.708198    8259.4648    1912.4772    2178.6666    2512.1387    370.45193    612.22367   -101.52102   -4620.1937 
31894000    92.709337   -5056.7145   -4877.9168   -5056.7145            0    2777.8203    19.976691    19.786103    20.842528    8238.2355    3215.0075    2621.2443     2497.209   -358.05406    136.67012    507.49118   -4544.1722 
31895000    93.838612   -5060.3657   -4879.3901   -5060.3657            0    1517.6596    19.910331      19.9251    20.854778    8273.4103    1435.6106    1919.0322    1198.3361    131.51843    707.63233    741.66798   -4696.2705 
31896000    96.796433   -5073.9079   -4887.2279   -5073.9079            0    2325.0952     19.92344    20.046926    20.651537    8248.3008    1878.6433    2448.3716    2648.2705   -129.09818    329.44932     179.9868   -4607.5352 
31897000    94.932716   -5075.3713   -4892.2856   -5075.3713            0    2600.2668    19.994971    19.849305    20.738115    8230.6732    1826.8435    3957.7122    2016.2447    102.74784    55.549988   -463.56332   -4580.1601 
31898000    91.159152   -5060.6243   -4884.8162   -5060.6243            0    2905.1155     19.87336    19.933203    20.793251    8237.0328    2289.7478    4472.0661    1953.5326   -357.51769    569.29602   -694.39826   -4535.8285 
31899000    96.906756   -5059.3504   -4872.4576   -5059.3504            0    2553.7178    20.062977    19.977713    20.601893    8257.4939    1588.5784    2995.2538    3077.3213    97.342863    425.19133   -689.03309   -4564.9208 
31900000    95.505227   -5066.2641   -4882.0742   -5066.2641            0    2267.8095    19.889907    19.979063     20.77008      8253.65    3079.7645    2275.7296    1447.9343   -192.67674    646.83544   -74.155413   -4609.0957 
31901000    94.674237   -5047.9407   -4865.3534   -5047.9407            0    2448.1936    19.925428    19.858609    20.877747    8261.1425    2550.3219    3413.5138    1380.7449   -308.29214   -46.182767    212.24953   -4570.3944 
31902000    99.562635   -5064.7083   -4872.6934   -5064.7083            0    1962.3112    20.091085    19.815365    20.746574     8259.464    1341.4898    2420.2917    2125.1522   -37.930846   -173.55926    931.63435   -4636.3216 
31903000    95.269867    -5064.963   -4881.2271    -5064.963            0    2090.1021    19.945369    20.016445    20.733936    8277.7209    2027.2959    2047.5608    2195.4498   -258.28884    217.09408    808.82314   -4628.9056 
31904000    94.272741    -5061.546    -4879.733    -5061.546            0    3240.0406    19.939308    19.788236    20.767276    8194.0141    2641.9649    4590.8857    2487.2714   -151.33664    253.20985   -266.54559    -4492.544 
31905000    93.890018   -5064.1149   -4883.0401   -5064.1149            0    1763.6947    19.962108    19.964712    20.845988    8307.9126    1052.2094    2024.9774    2213.8973   -316.36715    319.18662    524.93288   -4669.3466 
31906000    90.908394   -5063.7999   -4888.4754   -5063.7999            0    2537.3783    19.835495    20.031482    20.669437    8212.6775    2503.0256     2478.101    2631.0084   -402.51684        450.3    35.545789   -4584.5648 
31907000    100.24175   -5067.6541   -4874.3295   -5067.6541            0    2407.2704    19.991836    19.867996    20.736311    8236.4155    2701.6766    1937.7225     2582.412   -182.71934     848.1443   -122.48059    -4585.169 
31908000    88.989182   -5063.6359   -4892.0128   -5063.6359            0    1388.6094    19.957569    19.846395    20.881345    8270.8044    928.29482    2326.6738    910.85946   -275.32181    307.66795    1319.3211    -4724.517 
31909000    95.217898   -5069.4642   -4885.8285   -5069.4642            0    2406.5063    19.973087    19.957229    20.719421    8258.9161    1298.1376    3127.2844    2794.0968   -162.58774    1196.5804   -160.47756     -4595.97 
31910000    94.811942   -5062.1359   -4879.2831   -5062.1359            0    2567.9665    19.947149    19.940241    20.713346    8238.7533    2416.1765    3035.9213    2251.8017    613.41296   -218.19724    370.51954   -4570.7323 
31911000    94.399075   -5069.0793   -4887.0228   -5069.0793            0     1467.543    19.887894    19.962976     20.86467    8283.7235    1365.4575    1642.3695    1394.8021    43.017194    28.547992   -423.19175   -4709.7295 
31912000    90.289956   -5053.4343   -4879.3025   -5053.4343            0    1562.1159     20.01511    19.958454    20.735638    8283.2789     1265.332    1271.0466     2149.969   -113.25626   -250.00515    398.31395    -4690.594 
31913000    93.151006   -5053.6701   -4874.0206   -5053.6701            0    2669.5095    20.067225    20.007365    20.588617     8266.171     2519.537    2339.8269    3149.1645   -21.952322    550.48368    774.83032   -4552.2015 
31914000    94.016544   -5066.5229   -4885.2041   -5066.5229            0    2499.4017    19.949488    19.952768    20.758957     8263.051    1681.0497    3575.8328    2241.3226   -249.66205    50.857053   -394.98427   -4584.0059 
31915000    94.363678   -5060.3393    -4878.351   -5060.3393            0    3013.4231    19.979994     19.88361    20.749752    8243.3455    3125.6774    2486.1495    3428.4425   -466.83658    244.69979   -385.58012    -4516.075 
31916000    96.897516   -5062.2333   -4875.3583   -5062.2333            0    1658.1847    19.929517    19.927909    20.833884    8274.2518    1042.2556    2632.0016    1300.2969    107.28573   -229.25015    665.88123   -4675.2627 
31917000    94.919828   -5062.5286   -4879.4677   -5062.5286            0    1728.3518    19.982068      19.7577    20.935261    8265.2347    1982.5487    2014.1864    1188.3203   -587.92637   -725.26752    354.02231   -4671.1323 
31918000    97.255339   -5052.1057   -4864.5406   -5052.1057            0    1792.5089    19.978643    19.933803    20.850784    8303.8317     2358.944    1207.0379    1811.5448   -7.1464195    478.14152    446.19548   -4647.4626 
31919000    98.158306   -5057.5805   -4868.2739   -5057.5805            0    2215.4273    19.959183    19.908496    20.807643    8268.0691    2393.8021    2449.9636    1802.5163   -283.88574    369.29813    916.58622   -4601.1348 
31920000    90.852525   -5054.5276   -4879.3108   -5054.5276            0    1279.4272     20.07409    19.902973    20.905079    8352.2914    1225.5884    1210.8318    1401.8614   -240.56212    16.979249    387.77759   -4723.4643 
31921000     95.65443   -5058.4397   -4873.9621   -5058.4397            0    3167.6376    19.985583     19.90311    20.719882    8241.8563    2884.7469    3431.8344    3186.3315   -102.08259       29.839    831.93515   -4493.2151 
31922000    96.034751   -5069.9849   -4884.7738   -5069.9849            0    1712.1686    19.914173    19.898783    20.933435    8295.2462    2712.6643    1330.1126    1093.7289   -36.447226    341.30008    945.84144   -4677.6396 
31923000    91.904058   -5066.4733   -4889.2286   -5066.4733            0    1558.6393    20.046488    19.916227     20.79478    8302.3245    1410.1589    1959.8022    1305.9568   -169.48976    29.860812    417.18938   -4700.5072 
31924000    91.850723   -5054.9615   -4877.8196   -5054.9615            0     2335.134    19.858181    19.968851    20.780219     8240.293     3349.982     2018.124    1637.2959    187.21756    358.68275    -67.01581   -4597.1921 
31925000    93.730644    -5062.851   -4882.0836    -5062.851            0    1562.7884    19.945046    19.984983     20.80483    8292.8347    911.91182    2700.7524    1075.7011   -146.92764   -252.37518   -515.40568   -4693.0761 
31926000    96.638581   -5076.7921   -4890.4165   -5076.7921            0    1330.9589    19.945357    19.882221    20.864779    8274.0949    1835.0544    1490.3469    667.47534   -142.18968   -1038.5031    332.08189   -4729.8107 
31927000    91.888153   -5056.3717   -4879.1576   -5056.3717            0    1902.6788    19.988858    19.919559    20.719284    8249.7815     2942.078    1297.7588    1468.1996   -63.651606   -305.53517    325.97876   -4650.2376 
31928000    98.532406   -5071.8926   -4881.8646   -5071.8926            0    2054.5568    19.934533    20.054596     20.67297    8264.6193    1809.3696    1508.6629     2845.638   -40.076801    118.26165    519.68358   -4634.2268 
31929000     97.08043   -5056.5633   -4869.3355   -5056.5633            0    2158.0417    19.985638    19.995585    20.655053    8254.2661    1979.5569    2270.2429    2224.3251    169.74164    50.804789   -462.87789   -4609.5504 
31930000     95.53231   -5056.5179   -4872.2758   -5056.5179            0    1848.5535    19.984637    19.971052     20.69563    8259.9205    2090.2927    1379.8323    2075.5356    265.56528    479.28912    420.58701   -4649.5945 
31931000    95.372769   -5065.9141   -4881.9796   -5065.9141            0    2674.6594    20.064765    20.010203    20.559523    8254.6486    2492.4506    2059.6165     3471.911   -165.99655    592.06311   -657.81307   -4559.9892 
31932000    95.434023   -5066.0258   -4881.9733   -5066.0258            0    1146.7246    20.122207    19.923319     20.65869    8282.0922    1081.3872    443.40933    1915.3773    35.115364   -129.44204   -330.78638   -4743.4652 
31933000    94.371067    -5073.596   -4891.5935    -5073.596            0    1336.3482    19.949871    20.010951    20.718714    8271.2397    1221.3864    1780.0832    1007.5752   -135.19761    534.35519   -452.07894   -4730.3931 
31934000    93.898502   -5069.0372   -4887.9461   -5069.0372            0    1604.7604    20.028552    20.017974    20.549056     8238.754    907.50389    1772.3812    2134.3962   -286.76486   -317.06265   -206.47093    -4695.128 
31935000    96.237238   -5053.5959   -4867.9942   -5053.5959            0    2369.0921    19.934172    19.924241    20.727426     8232.379    2298.6138    2580.8141    2227.8485   -150.68282    62.723987     101.8874   -4583.5591 
31936000    95.755959   -5053.9406   -4869.2672   -5053.9406            0    2149.7618    19.973426    19.926318    20.738266    8253.7643    1777.3522    1884.5827    2787.3505    308.70693    283.25875   -288.75272   -4610.4946 
31937000    93.716466   -5064.1136   -4883.3735   -5064.1136            0    2456.3222    19.966146    20.005274    20.577809    8219.3574    2306.5803    2808.6141    2253.7723   -404.10387    178.30672    443.14667    -4588.932 
31938000    93.636104    -5054.553   -4873.9679    -5054.553            0    2066.6902    20.085055    19.893182    20.671404    8259.3764    1823.3654    2041.8824    2334.8227   -44.073027    436.90029     1224.767   -4625.0257 
31939000    88.812902   -5062.8085   -4891.5253   -5062.8085            0     1132.888    19.874457    20.017436    20.842573    8291.9188    1244.6628     893.5872    1260.4139    589.60029    933.55209   -625.41058   -4754.5261 
31940000    97.715453   -5053.1556   -4864.7031   -5053.1556            0    2316.0508    19.990966    20.035253    20.668138    8278.0867    1610.4412    2944.3488    2393.3623   -109.90588    404.80773    316.23236   -4585.0923 
31941000    95.786029   -5063.6352   -4878.9038   -5063.6352            0    1676.6011    20.012713    19.982282    20.699508    8277.7266    1067.3024    2069.5953    1892.9055   -344.45451    861.82526   -729.42331   -4676.5009 
31942000    96.965399   -5059.0374   -4872.0314   -5059.0374            0    2391.4082    20.024768    19.865783    20.682953    8227.8378    1286.0942    2974.4743     2913.656   -129.97006    503.85918   -313.72009   -4585.0754 
31943000    97.204932   -5064.4941   -4877.0262   -5064.4941            0    2241.9239    20.084343    19.938001    20.585191    8243.1683    2655.4183    2061.6128    2008.7405    -51.53277    865.22718    66.712317   -4607.5063 
31944000    92.035302    -5045.041   -4867.5432    -5045.041            0    2248.4746    19.969204    19.949944    20.719391    8254.2838    3241.1259    1820.0239    1684.2739    -713.4111   -402.25061    1022.6154   -4596.8712 
31945000    94.949576   -5061.0662    -4877.948   -5061.0662            0    1200.5703    20.034917    19.934491     20.75825    8290.5516    1841.8595    866.87607    892.97518   -211.55176    216.83526   -180.29037    -4732.788 
31946000    94.935372   -5063.6936   -4880.6027   -5063.6936            0    3099.4998    19.952588    19.893719    20.739194    8232.0324    3201.7667     3759.038    2337.6946   -262.80869    352.91716   -26.101204     -4508.49 
31947000    95.050734    -5060.819   -4877.5057    -5060.819            0    1666.6266    20.021767    19.765905    20.948552    8290.3547    1394.2201    2351.0928    1254.5671   -416.08159    61.492786   -204.54615        -4676 
31948000    95.369248   -5060.2817   -4876.3541   -5060.2817            0    2560.5448    20.030675    19.869437    20.822194    8287.1969    2518.2278    2889.2254    2274.1811    250.23857    91.717454    644.50333    -4566.886 
31949000    93.384416   -5049.4424   -4869.3427   -5049.4424            0    1640.8399    20.013427    19.889189    20.786208    8273.9671    945.81051    2706.5797    1270.1295    181.03844   -621.38864   -180.29988    -4671.347 
31950000    93.561814   -5061.0658    -4880.624   -5061.0658            0    2542.7911      19.9183     19.90726    20.759363    8231.4773    3192.2945    2396.6745    2039.4043    -132.7144   -330.37216    94.419337   -4575.3679 
31951000    93.876932   -5064.5735   -4883.5239   -5064.5735            0    2587.9477    19.967629    19.895078    20.807626     8265.986    3472.0427    2084.0244     2207.776    -305.3024   -630.30543    338.85945   -4571.5444 
31952000    95.916346   -5064.9908    -4880.008   -5064.9908            0    1737.8662    19.947896    19.899467    20.880422    8288.5358    1968.7239     2083.909    1160.9659   -144.67467    266.02337    115.39062   -4669.9351 
31953000    92.595613   -5064.8282   -4886.2498   -5064.8282            0    2660.1657    19.913879    19.775325    20.893747    8228.0294    2345.3864    3382.5413    2252.5695   -668.86508    400.55409   -524.60972   -4567.0369 
31954000     94.49837   -5068.8067   -4886.5587   -5068.8067            0    1373.3198    19.957509    19.817054    20.790653    8222.6833    2277.4492    533.52678    1308.9834   -119.94412   -29.773143   -575.51897    -4721.871 
31955000    89.916885   -5062.8494   -4889.4372   -5062.8494            0    2181.4051    19.898104    19.813289    20.875689    8230.1755    2556.3469    1887.8024    2100.0661   -23.687228    91.549693   -759.33384    -4627.606 
31956000    97.355416   -5078.8904   -4891.1323   -5078.8904            0    1548.4011    19.969827    19.968084    20.780453    8286.3963    1904.5109    1577.3496    1163.3427   -229.99751    754.08342    72.571372   -4704.0102 
31957000    96.373655   -5066.0139   -4880.1492   -5066.0139            0    3002.9342    19.996191    19.915502    20.634849     8217.502    2439.1958    3466.2236    3103.3833   -185.63327   -752.82357    81.854304    -4520.266 
31958000    98.194506   -5065.8107   -4876.4343   -5065.8107            0    1265.1797    20.125152    19.989352    20.617494    8294.1858    468.03381    1608.1096    1719.3957    466.01248    -303.4624   -31.610103   -4723.3954 
31959000    89.450028   -5055.6552   -4883.1433   -5055.6552            0    1739.6644      19.9495    20.036933    20.733727    8287.8258    1694.1516    1206.2189    2318.6226    91.790046    1017.4281   -258.36342    -4672.871 
31960000    96.971525   -5053.6602   -4866.6425   -5053.6602            0    2317.9221    20.053882    19.926688    20.660006    8255.8923    668.58694     2699.154    3586.0253    263.83931    -94.10009    527.64069    -4587.556 
31961000    94.904013   -5058.8617   -4875.8313   -5058.8617            0    3575.2935    19.968696    19.898742     20.66922    8212.9546     2865.177    4248.7487    3611.9548   -57.877503    375.18725    492.74532   -4447.5915 
31962000    91.341774   -5056.9218   -4880.7615   -5056.9218            0    1513.8212    20.093786    20.028608    20.610891    8294.8647    1088.4997    1633.1352    1819.8286   -284.07524    116.18948   -224.79213   -4697.6314 
31963000    98.236803   -5056.9671   -4867.5092   -5056.9671            0    2561.9906    19.971722    19.935318    20.674789    8231.5149    3265.9599    1595.7444    2824.2676    152.71784     541.8631   -258.84568   -4559.9468 
31964000    97.281363   -5062.4739   -4874.8586   -5062.4739            0    2863.9716    20.045065     19.94258    20.584524    8228.6697    1904.6849    3074.8702    3612.3598   -129.76265    495.94461    278.14627   -4531.1628 
31965000    92.981266   -5074.2374   -4894.9152   -5074.2374            0    2301.3725    19.960917    20.000787    20.672195    8253.0442    2212.9396     2190.066     2501.112   -307.33379    219.64315   -898.48918    -4617.917 
31966000    93.483611   -5064.1105   -4883.8195   -5064.1105            0    1396.4245    19.995767    19.935348      20.7225    8260.4562    956.79277    1286.1726    1946.3081    209.40201   -290.57847   -310.02191   -4715.5918 
31967000    88.655259   -5065.7644   -4894.7853   -5065.7644            0     1116.401    20.035792    19.984146    20.716077    8294.6801    624.82587    1504.8122    1219.5649   -280.30072   -781.15423    -546.2726    -4759.735 
31968000    96.710976   -5059.4496   -4872.9343   -5059.4496            0     1805.124    19.947638     20.00579     20.75195    8281.4444    2374.2546    1314.6094     1726.508    16.354372   -667.90794    862.01909    -4654.918 
31969000    95.830438   -5056.6226   -4871.8056   -5056.6226            0    3008.8449    20.045836    19.892065    20.579858    8206.2816    2922.3724    2804.0419    3300.1205    203.57364   -454.95352    203.59858   -4511.7064 
31970000    94.125132   -5069.8633   -4888.3351   -5069.8633            0    1568.5624     20.01958    19.953849    20.660391    8253.1582    2362.7598    574.33609    1768.5915    178.69362    953.42011    629.86497   -4699.5368 
31971000    94.438506   -5066.4749   -4884.3423   -5066.4749            0    1737.8593     20.00632    20.007546    20.603885    8247.2689    686.66132    1391.8303    3135.0864    110.38131    459.05473     76.57681   -4675.3161 
31972000    94.884037   -5071.0404   -4888.0486   -5071.0404            0    2347.4924    19.998092    19.885303    20.802689    8272.5661     1997.441    3318.5541    1726.4822   -29.380352   -438.98755   -255.01884   -4604.8309 
31973000    93.367589   -5066.2753   -4886.2081   -5066.2753            0    1458.1507    19.811019    20.049764     20.82124    8270.3272    2340.5368    783.52099    1250.3944   -272.65953   -119.08589   -730.14332   -4710.3343 
31974000    91.824252   -5058.0814   -4880.9906   -5058.0814            0    2074.0907    19.937996    19.927976    20.801199    8264.8134    2676.7495    1417.5672    2127.9552   -333.50731    1069.7951   -71.851145   -4630.9925 
31975000    94.041115   -5070.1645   -4888.7983   -5070.1645            0    2406.5863    19.896308    19.985736    20.860718    8295.1051    2419.5132    2086.8726     2713.373   -176.81106    984.54723   -697.65042   -4597.6601 
31976000    89.537084   -5049.5381   -4876.8583   -5049.5381            0    2665.5638    19.805573    20.049443    20.793618    8256.9523    3798.2155    1901.3939    2297.0819   -207.85832    736.65332   -188.54934   -4555.8733 
31977000    100.59692   -5050.3688   -4856.3591   -5050.3688            0    503.45848    19.993488    19.960755      20.8574    8323.8779    270.30875    946.20454    293.86214   -109.67611    1005.6689   -356.67968   -4795.2417 
31978000    97.603684    -5058.459   -4870.2221    -5058.459            0    1687.8344    19.908587    19.995412    20.702839    8241.3945    2988.9171    869.78289    1204.8033   -140.33005    345.22458   -1202.2263   -4667.3574 
31979000    99.964553   -5066.8363   -4874.0462   -5066.8363            0    1365.5414    19.963261    19.997639    20.693247    8261.1187    1742.3699    727.00307    1627.2511   -268.55582    326.31383    468.97255   -4709.5259 
31980000    99.368787   -5058.7314   -4867.0903   -5058.7314            0    2018.2663     19.91568    20.004435    20.723699    8256.3615     2389.864    2573.6458    1091.2891   -190.69434   -10.207185   -418.62561   -4624.0698 
31981000    95.720367   -5056.7594   -4872.1546   -5056.7594            0    1722.1481    19.983305    19.932532    20.777779    8276.1607    999.65972    2614.2271    1552.5576    38.671193   -861.71551   -356.62567   -4664.2925 
31982000    97.244853   -5065.5972   -4878.0523   -5065.5972            0    2840.7939    20.051924    19.923145    20.649769    8249.5286    2736.1189    2118.7673    3667.4956    232.06633   -509.40661   -377.51824   -4536.2738 
31983000    92.967836   -5067.3545   -4888.0582   -5067.3545            0     1533.375     19.92272    19.966509    20.804853    8275.9037    1461.1546     1618.006    1520.9645   -225.43794   -17.444307    406.74645   -4702.9866 
31984000    100.30827   -5062.9938   -4869.5409   -5062.9938            0    3029.5128    19.827596    19.942377    20.752397    8205.6928    3726.6618     3015.031    2346.8455   -90.608755     985.8859    133.97817   -4506.9942 
31985000    94.748895   -5073.5972   -4890.8659   -5073.5972            0    2769.4865    19.954221     19.85118    20.750336    8219.5159    2923.5091     2972.997    2411.9536   -18.902475   -158.47809   -283.90399   -4558.8787 
31986000    91.862901   -5064.6496   -4887.4843   -5064.6496            0    2240.3372    19.901122    19.962692     20.78341    8256.8325      2676.65    2187.7342    1856.6273   -4.0457873   -138.77747    1490.2969   -4617.7086 
31987000    94.432382   -5061.9538    -4879.833   -5061.9538            0    2267.5359    19.981677    19.875492    20.786595    8255.3059    922.20617    3300.6152    2579.7864   -198.83245   -67.730861    829.69962   -4606.8327 
31988000    96.257948   -5058.9428   -4873.3013   -5058.9428            0    2065.3366    19.988646    19.887485    20.834027    8282.0237    1160.2666    2981.7162    2054.0269   -435.98091     -4.41726   -52.912775     -4623.84 
31989000    91.044133   -5054.6685   -4879.0823   -5054.6685            0    960.05661    19.954931    20.003022    20.768669    8289.9998    1203.0375    1528.8896    148.24274    253.77579   -154.84063   -94.903894   -4763.0103 
31990000     92.99293   -5055.5653   -4876.2206   -5055.5653            0    1487.0382    20.000101    19.798805    21.058184    8338.5796    1265.3455    1765.8468    1429.9224     90.85471   -1185.9734   -123.76072   -4695.3824 
31991000      89.8402   -5060.4387   -4887.1743   -5060.4387            0    1746.8923    19.866396     19.90447    20.912516    8269.4378    1621.6548    1671.4998    1947.5223    -118.5175   -412.05723    368.66018   -4676.4969 
31992000    99.155711   -5072.7553   -4881.5251   -5072.7553            0    2444.5815    19.988303    19.890281    20.826202    8279.9349    2883.7912    1070.1617    3379.7914   -422.14752     525.7399   -885.92779   -4586.3313 
31993000    94.180122   -5055.2057   -4873.5714   -5055.2057            0    1124.9318    20.039151    19.829739    20.984286    8338.5497    1045.4103    1773.9687    555.41631    388.21155    16.414667    668.58748   -4736.7693 
31994000    93.814798   -5053.8046   -4872.8749   -5053.8046            0    2158.2156    19.958251    19.907993    20.836223    8278.8297    1818.5156    2691.7907    1964.3405   -22.639024   -110.12831   -118.99423   -4612.2957 
31995000    100.41491   -5056.8002   -4863.1416   -5056.8002            0    1905.6321    19.948983    19.837862    20.974089    8300.3946     2468.803    2071.3121    1176.7813   -884.56191    821.69497    206.67259   -4632.4596 
31996000    100.15263   -5067.1223   -4873.9695   -5067.1223            0    2617.5042    19.929025    19.902147     20.84027    8265.8843    1834.5759    4031.9651    1985.9716   -116.31998    236.81431    141.46593   -4558.4308 
31997000    90.972734    -5056.827   -4881.3784    -5056.827            0    1306.2472    19.918247      19.8717    20.942002    8289.0418    2181.7916    1441.6113     295.3386   -341.39403    1087.8002    -249.8617   -4723.4699 
31998000     98.16806   -5061.9189   -4872.5935   -5061.9189            0    820.97384    20.038528    19.915388    20.844847    8318.6588    -213.0686    1694.6124    981.37776   -25.661727    435.53557    841.27814   -4772.9937 
31999000    94.187301   -5070.6101    -4888.962   -5070.6101            0    2094.2613    19.989375    19.874771     20.87581    8293.6307    1121.6926    3189.2544    1971.8368    131.45325   -166.67206   -308.51304   -4635.6525 
32000000    96.912185   -5048.7463    -4861.843   -5048.7463            0    1105.2615     19.97353    19.918134    20.833426    8288.2753    1429.4668    1303.4552    582.86243   -506.12481   -189.61303    410.59756   -4728.2434 
Loop time of 391.358 on 64 procs for 250000 steps with 972 atoms

Performance: 110.385 ns/day, 0.217 hours/ns, 638.802 timesteps/s
195.0% CPU use with 32 MPI tasks x 2 OpenMP threads

MPI task timing breakdown:
Section |  min time  |  avg time  |  max time  |%varavg| %total
---------------------------------------------------------------
Pair    | 25.618     | 35.457     | 47.387     |  89.6 |  9.06
Bond    | 1.091      | 1.3069     | 1.9798     |  17.7 |  0.33
Kspace  | 172        | 185.45     | 195.39     |  46.2 | 47.39
Neigh   | 0.47239    | 0.51161    | 0.5587     |   3.6 |  0.13
Comm    | 66.167     | 72.572     | 78.802     |  33.9 | 18.54
Output  | 0.60608    | 0.60641    | 0.60794    |   0.0 |  0.15
Modify  | 75.036     | 77.987     | 81.738     |  19.3 | 19.93
Other   |            | 17.47      |            |       |  4.46

Nlocal:        30.3750 ave          36 max          24 min
Histogram: 2 1 4 2 2 9 4 4 2 2
Nghost:        2619.88 ave        2648 max        2583 min
Histogram: 1 2 1 3 5 2 9 2 5 2
Neighs:        9507.75 ave       12468 max        6661 min
Histogram: 1 4 2 1 11 4 4 1 2 2

Total # of neighbors = 304248
Ave neighs/atom = 313.01235
Ave special neighs/atom = 2.0000000
Neighbor list builds = 1436
Dangerous builds = 0

unfix		3
unfix		2
unfix		1

write_data	data.final.${pid}
write_data	data.final.1
System init for write_data ...
PPPM initialization ...
  extracting TIP4P info from pair style
  using 12-bit tables for long-range coulomb (../kspace.cpp:340)
  G vector (1/distance) = 0.3725054
  grid = 24 24 25
  stencil order = 5
  estimated absolute RMS force accuracy = 0.0033954061
  estimated relative force accuracy = 1.0225165e-05
  using double precision FFTW3
  3d grid and FFT values/proc = 3458 576
Last active /omp style is kspace_style pppm/tip4p/omp
WARNING: Not all mixed pair coeffs generated from mixing. Use write_data with 'pair ij' option to store all pair coeffs. (../write_data.cpp:312)

write_restart   restart.lmp.${pid}
write_restart   restart.lmp.1
System init for write_restart ...
PPPM initialization ...
  extracting TIP4P info from pair style
  using 12-bit tables for long-range coulomb (../kspace.cpp:340)
  G vector (1/distance) = 0.3725054
  grid = 24 24 25
  stencil order = 5
  estimated absolute RMS force accuracy = 0.0033954061
  estimated relative force accuracy = 1.0225165e-05
  using double precision FFTW3
  3d grid and FFT values/proc = 3458 576
Last active /omp style is kspace_style pppm/tip4p/omp
Total wall time: 0:06:31
