LAMMPS (30 Jul 2021)
Processor partition = 0
  using 4 OpenMP thread(s) per MPI task
using multi-threaded neighbor list subroutines
variable        pid world 0 1
variable        phase world IceVI IceV

shell cd ${phase}
shell cd IceVI
include Restart.lmp
echo both
log log.lammps
#include		in.partitions
include		in.temp
variable        temperature equal 120.77
variable	tempDamp equal 100.0
include		in.pressure
variable        pressure equal 8271.5
variable        pressureDamp equal 1000.0 # This is 1 ps
include		in.seed
variable        seed equal 745823

units		real
atom_style	full
read_restart	restart.lmp.${pid}
read_restart	restart.lmp.0
Reading restart file ...
  restart file = 30 Jul 2021, LAMMPS = 30 Jul 2021
  restoring atom style full from restart
  orthogonal box = (0.034095685 -0.088011304 0.023825791) to (24.695905 24.818012 22.786174)
  2 by 4 by 2 MPI processor grid
  restoring pair style lj/cut/tip4p/long/omp from restart
  restoring bond style harmonic/omp from restart
  restoring angle style harmonic/omp from restart
  1920 atoms
  1280 bonds
  640 angles
Finding 1-2 1-3 1-4 neighbors ...
  special bond factors lj:    0        0        0       
  special bond factors coul:  0        0        0       
     2 = max # of 1-2 neighbors
     1 = max # of 1-3 neighbors
     1 = max # of 1-4 neighbors
     2 = max # of special neighbors
  special bonds CPU = 0.001 seconds
  read_restart CPU = 0.007 seconds
include 	in.setup
variable	out_freq equal 1000
variable	out_freq2 equal 10000
variable	out_freq3 equal 1000

timestep	2.0

neigh_modify    delay 7 every 1

include		in.tip4p
# This is TIP4P/Ice

# create groups ###
group ox type 2
640 atoms in group ox
group hy type 1
1280 atoms in group hy

# set charges - beside manually ###
set group ox charge -1.1794
Setting atom values ...
  640 settings made for charge
set group hy charge 0.5897
Setting atom values ...
  1280 settings made for charge

# ### TIP3P Potential Parameters ###
pair_style lj/cut/tip4p/long/omp 2 1 1 1 0.1577 8.5
pair_coeff 1 1*2 0.000 0.000
pair_coeff 2 2 0.21084 3.1668
bond_style  harmonic
bond_coeff  1 450 0.9572
angle_style harmonic
angle_coeff 1 55 104.52
kspace_style pppm/tip4p/omp 1.0e-5
pair_modify tail yes

thermo          ${out_freq}
thermo          1000
thermo_style    custom step temp pe etotal epair emol press lx ly lz vol pxx pyy pzz pxy pxz pyz enthalpy

restart 	${out_freq3} restart.lmp.${pid} restart2.lmp.${pid}
restart 	1000 restart.lmp.${pid} restart2.lmp.${pid}
restart 	1000 restart.lmp.0 restart2.lmp.${pid}
restart 	1000 restart.lmp.0 restart2.lmp.0


include         in.dump
dump            myDump all atom ${out_freq2} dump.water.${pid}
dump            myDump all atom 10000 dump.water.${pid}
dump            myDump all atom 10000 dump.water.0
dump            myDump2 all dcd ${out_freq2} dump.dcd
dump            myDump2 all dcd 10000 dump.dcd
dump_modify     myDump append yes
dump_modify     myDump2 append yes


variable natoms 	equal  "count(all)"                        # NUMBER ATOMS
variable H      	equal  "enthalpy/v_natoms"                 # ENTHALPY-per-atom
variable Vol      	equal  "vol/v_natoms"                 # volume-per-atom
fix AVG all 		ave/time ${out_freq} 1 ${out_freq} v_Vol v_H file vol_enthalpy.dat
fix AVG all 		ave/time 1000 1 ${out_freq} v_Vol v_H file vol_enthalpy.dat
fix AVG all 		ave/time 1000 1 1000 v_Vol v_H file vol_enthalpy.dat




fix 		1 all shake 1e-6 200 0 b 1 a 1
Finding SHAKE clusters ...
       0 = # of size 2 clusters
       0 = # of size 3 clusters
       0 = # of size 4 clusters
     640 = # of frozen angles
  find clusters CPU = 0.000 seconds
fix             2 all nph aniso ${pressure} ${pressure} ${pressureDamp}
fix             2 all nph aniso 8271.5 ${pressure} ${pressureDamp}
fix             2 all nph aniso 8271.5 8271.5 ${pressureDamp}
fix             2 all nph aniso 8271.5 8271.5 1000
fix             3 all temp/csvr ${temperature} ${temperature} ${tempDamp} ${seed}
fix             3 all temp/csvr 120.77 ${temperature} ${tempDamp} ${seed}
fix             3 all temp/csvr 120.77 120.77 ${tempDamp} ${seed}
fix             3 all temp/csvr 120.77 120.77 100 ${seed}
fix             3 all temp/csvr 120.77 120.77 100 745823


run             250000
PPPM initialization ...
  extracting TIP4P info from pair style
  using 12-bit tables for long-range coulomb (../kspace.cpp:340)
  G vector (1/distance) = 0.37501288
  grid = 30 30 30
  stencil order = 5
  estimated absolute RMS force accuracy = 0.0032082061
  estimated relative force accuracy = 9.6614175e-06
  using double precision FFTW3
  3d grid and FFT values/proc = 7920 1800
Last active /omp style is kspace_style pppm/tip4p/omp
Neighbor list info ...
  update every 1 steps, delay 7 steps, check yes
  max neighbors/atom: 2000, page size: 100000
  master list distance cutoff = 10.8154
  ghost atom cutoff = 10.8154
  binsize = 5.4077, bins = 5 5 5
  1 neighbor lists, perpetual/occasional/extra = 1 0 0
  (1) pair lj/cut/tip4p/long/omp, perpetual
      attributes: half, newton on, omp
      pair build: half/bin/newton/omp
      stencil: half/bin/3d
      bin: standard
Setting up Verlet run ...
  Unit style    : real
  Current step  : 28500000
  Time step     : 2
Per MPI rank memory allocation (min/avg/max) = 12.56 | 12.56 | 12.56 Mbytes
Step Temp PotEng TotEng E_pair E_mol Press Lx Ly Lz Volume Pxx Pyy Pzz Pxy Pxz Pyz Enthalpy 
28500000    125.61973   -9686.1251   -9207.2054   -9686.1251            0     7700.451     24.66181    24.906024    22.762348    13981.263    8707.3135    6927.3678    7466.6718   -711.24725    518.84421   -549.62699   -7637.0651 
28501000    120.52471   -9698.6744   -9239.1792   -9698.6744            0    8574.4164    24.678023    24.809898    22.775988    13944.809    8891.4081    7853.5097    8978.3313    57.732951   -375.32056     32.98196   -7495.3939 
28502000    118.73088   -9686.5897   -9233.9334   -9686.5897            0    8856.3975    24.592022    24.925052    22.715906    13923.883    10144.498    7374.6795    9050.0156    360.78721   -337.03986   -457.04477   -7435.5042 
28503000    122.41136   -9705.0714   -9238.3834   -9705.0714            0    8035.3844    24.635028    24.804091    22.855682    13965.953    8744.8328     7501.991    7859.3294     -351.438   -1216.7559    87.030194   -7601.7436 
28504000    121.17168   -9715.6086   -9253.6469   -9715.6086            0    8037.9674    24.730006     24.82013    22.742263    13959.246    8323.4027    7447.1072    8343.3923    103.23691   -107.31216    571.64841   -7617.2672 
28505000    124.58681   -9694.3917     -9219.41   -9694.3917            0    9066.6968    24.622448    24.773488    22.814333    13916.376    8914.5348    9715.2711    8570.2846   -555.31866   -278.35156   -13.494281   -7379.2688 
28506000    119.70657    -9668.439   -9212.0629    -9668.439            0    9445.1553    24.709047    24.754738    22.764695     13924.39    9103.2232     10165.99    9066.2528   -583.40451     33.39476    402.57296   -7294.0075 
28507000    121.25376   -9710.3611   -9248.0864   -9710.3611            0    8111.3774    24.703858    24.773449    22.815634    13963.163    8161.2599    8002.9347    8169.9376   -329.69693   -256.45973   -661.67041   -7596.2985 
28508000    119.37498   -9703.6288   -9248.5169   -9703.6288            0     7215.355    24.772816    24.738099     22.84267    13998.728    6764.4377    7534.2491     7347.378   -604.64922   -61.582835    375.41101   -7775.4511 
28509000     122.8986   -9684.5098   -9215.9643   -9684.5098            0    8335.3498    24.733163    24.769296    22.790724    13962.122    8237.6285    8718.1253    8050.2956    7.9458699    555.08545   -457.35598   -7518.6935 
28510000    122.89841   -9693.1934   -9224.6487   -9693.1934            0    8618.2092     24.80897    24.758413    22.700771    13943.511    7233.8252     9183.055    9437.7474   -562.27809    154.72203   -574.05285   -7472.1202 
28511000    118.93322   -9690.5535   -9237.1259   -9690.5535            0    8633.7892     24.67952    24.719397    22.839412    13933.477    8982.5056    8622.2456    8296.6166    459.10912     170.3351    74.242448   -7482.6926 
28512000    125.94813   -9697.8544   -9217.6827   -9697.8544            0    7985.0299    24.774127    24.774499    22.757176    13967.594    7769.2418     7983.342     8202.506   -47.419784    366.03099    325.35039   -7591.1079 
28513000    120.19505   -9679.0517   -9220.8133   -9679.0517            0    8037.2084    24.758487    24.678462    22.845828    13958.833    8411.4847    8809.3632    6890.7774   -70.509371   -172.93467    343.39036   -7584.6365 
28514000    119.96176    -9714.452    -9257.103    -9714.452            0    8638.5232    24.765911    24.692207    22.791018    13937.278     7976.464    9278.6491    8660.4565    133.12069   -495.08999   -443.90249    -7501.229 
28515000    117.08609   -9691.5374   -9245.1518   -9691.5374            0    6801.5915    24.835311     24.81817    22.749894    14022.283    6490.5591     6257.658    7656.5574   -271.85282    532.55466    845.26653   -7854.2221 
28516000    125.72637   -9718.6958   -9239.3696   -9718.6958            0     7667.459    24.697136    24.802214    22.823845    13980.601    7886.3676    7197.3171    7918.6921    -169.8339   -442.98662    252.76668   -7676.0304 
28517000    119.85082   -9691.9118   -9234.9858   -9691.9118            0    8049.5601     24.74099    24.755303    22.810465    13970.741    7281.4964    8720.3898    8146.7942   -598.33119   -139.77266    660.81142   -7594.8965 
28518000     121.8348   -9716.0572   -9251.5674   -9716.0572            0    8203.4488    24.744712    24.818398    22.706083    13944.353     7951.015    8426.5733    8232.7583    165.70604   -75.520039   -848.60424   -7583.2805 
28519000     119.9004   -9696.3612   -9239.2462   -9696.3612            0    8536.4164    24.667251    24.755506     22.81156    13929.886    9449.0889      8322.76    7837.4004    32.730281    578.95437    33.332635   -7505.0468 
28520000     120.9561   -9709.7617   -9248.6219   -9709.7617            0    7857.3816    24.731118    24.784541    22.783348     13965.04    7699.3742    7830.7154    8042.0552   -524.67595    -247.6421   -89.714767   -7648.3421 
28521000    120.14855   -9697.2793   -9239.2182   -9697.2793            0    8900.5758    24.670545    24.803916    22.755801    13924.868    9535.7634    8483.8222    8682.1417   -139.28434     -1189.98   -142.25016     -7431.69 
28522000     121.6686   -9683.5416   -9219.6854   -9683.5416            0    8671.0333    24.638479    24.819462    22.807522    13947.114    8956.3262    8397.8228     8658.951    13.635628   -195.24494     604.6111   -7455.9595 
28523000    117.21272   -9705.1523   -9258.2839   -9705.1523            0    8744.9549    24.701748    24.844182     22.72422    13945.734    9393.0519    7748.3814    9093.4313   -15.203307    131.58039     467.4703    -7479.698 
28524000    129.75288   -9698.9181    -9204.241   -9698.9181            0    7856.8605    24.676389    24.821119     22.79383    13961.121    8517.6264    7232.7405    7820.2144   -584.12976   -278.26091    651.08487   -7604.5164 
28525000    120.50059   -9684.6861   -9225.2829   -9684.6861            0    8865.8612    24.548918    24.853376    22.835764    13932.636     10016.74    7910.9225    8669.9215   -279.96716   -119.24537   -884.81247   -7423.8001 
28526000    125.19574   -9697.2222   -9219.9189   -9697.2222            0    8539.1672    24.723203     24.78246    22.748754    13938.202    8089.5376    8045.5457    9482.4183   -329.34418     416.8706   -358.22708    -7484.125 
28527000     118.6353   -9684.1119     -9231.82   -9684.1119            0    8236.3062    24.645274    24.869685    22.765898    13953.678    9147.1811    7198.5482    8363.1892    95.450475    506.89344   -590.54465    -7555.731 
28528000    116.86747   -9688.7807   -9243.2286   -9688.7807            0    8487.8909    24.654349    24.830946    22.801572    13958.913     8992.402    7808.3302    8662.9405   -141.95209   -576.46064    -261.5272    -7515.294 
28529000    117.41581   -9695.7899   -9248.1473   -9695.7899            0    7926.2599    24.663435    24.835216     22.80603    13969.189    8689.8397    7404.2296    7684.7104   -137.86674    173.73123    226.96314   -7633.3597 
28530000     120.4069   -9678.0256   -9218.9796   -9678.0256            0    8793.2682    24.654026    24.801716    22.783871    13931.475    9934.6802    7668.6807    8776.4437     -1011.49   -367.47569    -278.3418   -7432.3962 
28531000    120.48768   -9675.0202   -9215.6662   -9675.0202            0    7498.0416    24.641279    24.957022    22.762263    13998.176    8282.6453    6761.2462    7450.2332    91.275695   -955.82197    536.39041   -7684.9482 
28532000    127.30678   -9703.0459   -9217.6944   -9703.0459            0    7903.7594    24.708838     24.81677    22.766494    13960.267    7796.3296    7645.6727     8269.276   -384.17384   -493.82885   -95.768149   -7608.5192 
28533000    123.78844   -9693.5481   -9221.6101   -9693.5481            0    8941.4972    24.632749    24.754084    22.815949    13912.279    9626.3014    8692.2547    8505.9356   -288.44571   -181.10862    110.99686   -7407.4132 
28534000     118.6755   -9708.0106   -9255.5655   -9708.0106            0    7918.0275    24.765398     24.78883     22.74051    13960.518    7416.0902    8045.1025    8292.8899   -775.13028    615.66284   -202.15761   -7643.4563 
28535000    117.60578   -9711.1747   -9262.8079   -9711.1747            0    7677.5441    24.750891    24.763965    22.776903    13960.652    6835.5661    8403.3044    7793.7619   -414.01724   -131.16702   -760.77123   -7699.6462 
28536000    120.06899   -9694.8817    -9237.124   -9694.8817            0    8774.0628    24.696037    24.724873    22.811593    13928.904    9090.0551    8777.7497    8454.3836    133.87931   -258.47398   -388.18849   -7454.7715 
28537000    122.49572   -9700.6063   -9233.5967   -9700.6063            0    8839.8278    24.732384    24.712976    22.792819    13931.217    8730.8201    8981.7008    8806.9626   -1052.8812    420.19531    660.62178   -7437.5867 
28538000    125.46759    -9703.433   -9225.0933    -9703.433            0    8539.7331      24.7927    24.737771    22.725225    13937.747    8061.0399    8527.4742    9030.6852     349.5644   -408.62596   -250.74188   -7489.2411 
28539000    118.72506   -9693.9709   -9241.3368   -9693.9709            0    8607.1697    24.762609    24.688717    22.784086    13929.212    7995.0895     8980.164    8846.2557    753.09243    284.51158    35.051132   -7492.8483 
28540000    118.44354   -9694.4303   -9242.8695   -9694.4303            0    9127.8702    24.725343    24.730481    22.762298    13918.453    8727.7332    9341.4286    9314.4487   -687.90741   -917.17679    105.23416   -7390.0363 
28541000    114.86695   -9698.1195   -9260.1943   -9698.1195            0    8909.8243     24.74805    24.649944    22.825782    13924.595    8840.1071    9387.3357    8502.0301   -79.613469    458.79645     -30.5902   -7450.8234 
28542000    125.58823   -9718.3657   -9239.5661   -9718.3657            0    8030.3764    24.824551    24.763687    22.695878    13952.232    7283.0479    7995.2526    8812.8287   -880.11332   -1257.4908     785.0117   -7605.5531 
28543000    120.54802   -9687.0083   -9227.4243   -9687.0083            0    8134.4085     24.74321    24.699276    22.847757    13963.164    8258.1788    9231.7105    6913.3361   -634.16328   -768.48213    169.25022   -7570.9462 
28544000    117.17676   -9682.2707   -9235.5395   -9682.2707            0    8533.7588    24.774399    24.820875    22.703563    13960.927    8116.0665    8247.3207    9237.8894   -11.941608    612.78015    245.28142   -7498.0167 
28545000     116.2956   -9706.2323   -9262.8605   -9706.2323            0    8582.2767    24.713898    24.713928    22.799104     13925.18    8947.5822    8662.6085    8136.6394   -59.390779   -461.97404   -47.702592   -7519.9334 
28546000       124.91   -9689.0616   -9212.8477   -9689.0616            0    8762.9708    24.703728    24.720228    22.808201    13928.553     8628.201    8818.3364    8842.3749    259.55781   -74.543593    543.44164   -7432.7934 
28547000    119.54165   -9703.9376   -9248.1903   -9703.9376            0    7566.4923    24.758941    24.827532    22.757362    13989.028    6386.9885    7205.0603    9107.4281    -81.46376   -297.56964   -397.87062   -7704.5076 
28548000    120.20101   -9700.8483   -9242.5872   -9700.8483            0    8408.8765    24.752821    24.719436    22.802113    13952.061    7930.8672    8953.6682     8342.094   -15.599779   -605.81046   -448.31201   -7531.5785 
28549000    123.94156    -9699.431   -9226.9093    -9699.431            0    7404.8635     24.77276    24.774726    22.786695    13985.069    7506.5359     7278.407    7429.6477    615.76548    486.87414    70.665817    -7716.629 
28550000    124.63765   -9698.5168   -9223.3412   -9698.5168            0    8079.5152    24.727427    24.854445    22.735806    13973.119    8278.7493    7813.5656    8146.2308    100.71853   -512.61414    52.231783   -7576.8684 
28551000    118.49129   -9691.5161   -9239.7732   -9691.5161            0    7775.4929      24.6999    24.793395    22.851766    13994.293    8500.2155    6983.0914    7843.1718   -528.89046    296.03951    214.17601   -7652.8542 
28552000    121.97171   -9704.7456   -9239.7338   -9704.7456            0    7711.2184    24.727154    24.824162    22.788409    13988.229    7525.8091    7678.4226    7929.4236   -923.58515    263.98189    162.28454   -7666.6147 
28553000    122.82425   -9699.2466   -9230.9845   -9699.2466            0    9435.4836    24.765596    24.749906    22.683467    13903.744    9567.3463    8840.0562    9899.0482    20.488868   -128.94822    232.17195   -7317.7341 
28554000    122.30893   -9695.6087   -9229.3113   -9695.6087            0    8827.2803     24.67795    24.694041    22.882665    13944.658    8598.6905    8825.7662    9057.3841   -192.54876    372.39839   -9.3018373   -7434.1203 
28555000    124.23107   -9701.4849   -9227.8594   -9701.4849            0    7285.9922    24.784016    24.798925    22.765488    13992.055    6834.8062    7616.9111    7406.2592   -1163.5189    311.98678   -207.34823   -7741.0815 
28556000    121.16858   -9683.9978    -9222.048   -9683.9978            0    7584.0198     24.75302    24.761791    22.815482    13984.273    7634.1138    7631.4577    7486.4879   -489.90498    599.54092   -90.591368   -7675.3153 
28557000    124.62441    -9708.989   -9233.8639    -9708.989            0    9036.3694    24.685409    24.714055    22.802843     13911.48    8453.2507    9335.6016    9320.2558   -270.40114   -543.10759    612.37603   -7400.5231 
28558000    120.50643   -9702.4614    -9243.036   -9702.4614            0    8269.4742    24.719871    24.815544    22.742546     13951.12    8561.9198    8076.7566    8169.7463    -116.1585   -9.1740214    269.62721   -7560.5057 
28559000    119.36807   -9688.8641   -9233.7786   -9688.8641            0     8419.558    24.670833    24.791837    22.774478    13929.674    8468.4083    8298.8658       8491.4    73.431597    387.86715   -752.24071   -7523.3453 
28560000    118.80513   -9710.0014   -9257.0621   -9710.0014            0    8076.6162    24.688628    24.765414    22.809156    13946.068    9424.6894    7631.4549    7173.7044    400.40371   -519.91533    221.33186   -7614.3665 
28561000     117.9675    -9695.963   -9246.2171    -9695.963            0    8547.9193    24.814368    24.792362    22.648023    13933.218    8098.6671    8555.7162    8989.3745   -266.01386   -207.30876     170.8649   -7509.2654 
28562000    119.51747    -9694.229   -9238.5739    -9694.229            0    8191.1534    24.694691    24.735776    22.852526    13959.291    9052.0732    7738.6332    7782.7539   -854.32458   -511.43851    970.39589   -7571.0031 
28563000    124.16812   -9681.4876   -9208.1021   -9681.4876            0    9948.4996    24.686652    24.726807    22.761661    13894.221     10558.07    9445.7355    9841.6932   -513.25108   -420.58313   -965.38497   -7192.2083 
28564000    120.60278   -9700.3989   -9240.6061   -9700.3989            0    7912.5599    24.773254    24.837829    22.694432    13964.198    7357.8375    6595.3883     9784.454   -556.14885   -336.01963   -315.30204   -7629.1855 
28565000    115.83268   -9702.5659   -9260.9589   -9702.5659            0    8650.8135    24.715622     24.66378    22.866507    13938.981    8639.3845    9403.8851    7909.1709   -510.26027    380.16207   -203.27739   -7502.3719 
28566000    125.21706   -9679.7163   -9202.3318   -9679.7163            0    8919.6787    24.772856    24.779077    22.702481    13935.884    9031.5331    8467.9956    9259.5073   -736.26713    -308.3143    80.176657   -7389.4912 
28567000    121.45113    -9721.843   -9258.8159    -9721.843            0    7675.3756    24.705228    24.741706    22.849229    13966.579    7642.2018     7935.362    7448.5629    -336.2162    173.52212    483.31461   -7695.4323 
28568000    121.23236   -9709.3294   -9247.1364   -9709.3294            0    8727.4394    24.770872    24.723941    22.739243    13926.276    8919.6562    8436.2628    8826.3991     147.0564    685.54448   -501.01999   -7474.5896 
28569000    119.15313   -9708.1089   -9253.8428   -9708.1089            0    8107.3756    24.753112    24.793806    22.730282    13950.116    7822.6638    7881.3764    8618.0865   -402.86324    -1174.283   -396.99805   -7604.4123 
28570000    116.02016   -9688.0006   -9245.6789   -9688.0006            0    9142.0791    24.696854    24.702139    22.838035    13932.689    9205.2381     9218.607    9002.3922   -200.48898    352.73056    888.31288   -7388.0635 
28571000    122.96497   -9699.4255   -9230.6269   -9699.4255            0     8696.329    24.734257    24.742171    22.747174    13920.798    8737.8866    8816.5074    8534.5929   -334.66564   -113.88675   -263.61666   -7465.0933 
28572000    120.73189    -9682.626   -9222.3409    -9682.626            0    8145.9202     24.71083     24.72619    22.858035    13966.366    7953.2745    8644.8023    7839.6837    625.18442   -301.18826   -98.536415   -7563.1381 
28573000    117.54855   -9717.3151   -9269.1664   -9717.3151            0    8283.9865     24.72429    24.708355    22.805097    13931.555    7888.2594    9216.1336    7747.5664   -130.25266    12.925743   -419.65728   -7586.0473 
28574000    122.49342   -9698.2901   -9231.2893   -9698.2901            0    7770.2582    24.802094    24.704467    22.801931    13971.257    6540.1956    8596.7503    8173.8289    379.28175   -473.49557    86.450676    -7648.049 
28575000    124.72304     -9692.35   -9216.8489     -9692.35            0    8110.3139    24.759055    24.726832    22.807901    13963.293    8050.4946    8090.2225    8190.2246    472.55585    189.44895    488.25979   -7565.2621 
28576000    120.08075   -9700.5411   -9242.7385   -9700.5411            0    6678.2475    24.856306    24.712553    22.829237     14023.15    6360.1747    7494.8202    6179.7475   -824.76732    148.61261    31.141867   -7876.9483 
28577000    119.86402   -9709.4168   -9252.4405   -9709.4168            0    9043.3113    24.773459    24.733096    22.735081    13930.338     9251.385    8182.4821    9696.0668    -316.5164   -561.78366   -296.57635   -7415.2042 
28578000    123.28571   -9680.7388   -9210.7174   -9680.7388            0    8969.0235    24.751749    24.633447    22.833476    13922.048    8785.6563    10011.415    8109.9991    53.124785   -211.09299     159.7331   -7389.6578 
28579000    120.99053   -9701.9514   -9240.6803   -9701.9514            0    8669.6539    24.721386      24.7839    22.731895    13927.658    8463.5854    8360.3166    9185.0598   -230.51584     750.7449   -454.58606   -7479.6949 
28580000    119.76903   -9696.1294   -9239.5152   -9696.1294            0    7953.0243    24.742496    24.869805    22.703879    13970.629    7872.4553    6801.8383    9184.7793    38.785304   -88.749687    1145.9169    -7619.108 
28581000     125.2239   -9695.9892   -9218.5786   -9695.9892            0     8278.552    24.638852    24.752967    22.869492    13947.753    8685.5666    8565.2273    7584.8623    -461.3319   -132.31754   -215.53281    -7534.608 
28582000    119.92103   -9698.8828   -9241.6891   -9698.8828            0    8471.4735    24.716948    24.779902    22.766915     13944.36    8697.7979    7720.9726    8995.6498   -365.85756   -832.91253   -618.71461   -7518.8947 
28583000    115.55225    -9698.538   -9258.0002    -9698.538            0    8278.1429    24.730393    24.832931     22.71076    13947.317    8793.7106    7587.2778    8453.4404    174.31871    222.01118   -297.05392   -7574.1654 
28584000    125.98047   -9702.6322   -9222.3372   -9702.6322            0    7144.9435    24.727103    24.741416    22.891324    14004.535    7275.6518    7798.5073    6360.6714    -312.3767   -463.19265   -436.88598   -7763.0412 
28585000     122.6228    -9713.186    -9245.692    -9713.186            0    7759.8464    24.764439    24.824999    22.697747    13954.057    7509.4827    7567.4865    8202.5702   -516.11279   -319.65682    682.81044   -7666.5197 
28586000    121.62239    -9701.736    -9238.056    -9701.736            0    8136.3612    24.705776    24.747802    22.836995    13962.851    8334.8921     7743.362    8330.8297   -32.500751    354.82733    331.56704   -7581.2174 
28587000    121.72113   -9697.3849   -9233.3285   -9697.3849            0    8851.7068    24.647463    24.757754    22.813575    13921.204    9068.2578    8777.9493    8708.9132    205.43964   -265.44495   -227.08699   -7436.1976 
28588000    125.01218   -9696.0647   -9219.4612   -9696.0647            0    8418.7647    24.691811    24.818414    22.764216    13950.175    9753.1023    7448.2865    8054.9053   -217.75669   -186.92981    -143.6973   -7506.6719 
28589000    115.50137   -9704.5299   -9264.1859   -9704.5299            0    7350.7425    24.756001    24.728649    22.834828    13979.082    7871.0833    7831.3353    6349.8089   -541.62793   -395.61322   -246.98453   -7765.5859 
28590000    121.65352   -9695.0772   -9231.2785   -9695.0772            0    8069.6091    24.740035    24.725037    22.845477    13974.539    8397.3024    8151.5711    7659.9538    94.934359    -1036.265   -133.60179   -7586.6572 
28591000    118.63351   -9704.4341    -9252.149   -9704.4341            0    7900.6848    24.801625    24.831607    22.671581    13962.615    7540.2359    7999.9712    8161.8472    174.14665    66.508888    236.39532   -7643.3293 
28592000    117.90068   -9676.7172    -9227.226   -9676.7172            0    8674.8484    24.692685    24.713862    22.801525    13914.667     9594.865    8740.9707    7688.7095    108.89658    94.656689   -36.356452   -7466.8291 
28593000    122.10914   -9697.8556   -9232.3198   -9697.8556            0    8361.8223     24.70259    24.729934    22.808729    13933.702     8782.937    8630.4325    7672.0973    189.20655    343.84288    144.86414   -7533.1243 
28594000    118.31911   -9689.2324    -9238.146   -9689.2324            0    8420.4056    24.745705    24.748476    22.766858    13942.844    7603.0302    8404.9873    9253.1994   -46.347083   -426.91015   -262.29072   -7525.9232 
28595000    115.25032   -9695.8641   -9256.4773   -9695.8641            0    10008.045    24.666314     24.64936    22.828202    13879.749    9638.1029    11229.461    9156.5725    199.70818   -383.52959    283.34226   -7230.6298 
28596000    119.29361   -9688.3783   -9233.5767   -9688.3783            0    8478.0572    24.729668    24.819068    22.716981    13942.941    8357.9082    7854.7145    9221.5487   -465.10923    109.76469    80.362155    -7509.619 
28597000    122.37374   -9695.6166   -9229.0721   -9695.6166            0    8309.2048    24.709004    24.762303     22.80103    13950.852    7883.7621    8566.2988    8477.5534   -938.30058   -540.69227    114.23093   -7538.4908 
28598000    117.63645   -9713.9246   -9265.4408   -9713.9246            0    8776.3725    24.762625    24.694893    22.756167    13915.633    8688.8961    8963.5401    8676.6813    289.48896   -478.36516    404.77577   -7484.3179 
28599000    123.30514   -9700.5077   -9230.4123   -9700.5077            0    8128.8886    24.716953     24.74088    22.831431    13961.857     8295.615    8885.1346    7205.9163   -75.988627    534.50023   -153.71617   -7575.2131 
28600000    115.54728    -9698.436    -9257.917    -9698.436            0    7520.9632    24.697475    24.713465    22.917683    13988.041    8116.8345    8146.9243    6299.1308   -942.35933   -271.18642   -909.54984   -7723.6312 
28601000    120.74137    -9703.791   -9243.4699    -9703.791            0     8192.417    24.759232    24.750313    22.751678      13942.2     8552.235    7658.1686    8366.8475   -751.14446    -263.1253   -502.03521   -7577.6837 
28602000    123.23943   -9688.8895   -9219.0446   -9688.8895            0    8552.8974    24.699137    24.739143    22.825167    13946.987     8008.346    8803.9874    8846.3588   -17.004135   -943.99762   -119.66217   -7479.3639 
28603000     121.8643   -9700.7569   -9236.1547   -9700.7569            0    8050.7747    24.744644    24.683751    22.865132    13965.808    7612.1974    9269.9538    7270.1731    145.03275    703.47082   -700.63176   -7596.3971 
28604000    118.76928   -9692.9599   -9240.1572   -9692.9599            0    8513.8517    24.749492    24.734815    22.792051    13952.703    8358.0278    8799.8059    8383.7213    122.14786    407.45334    201.73378   -7507.7088 
28605000    121.70428   -9689.4893   -9225.4971   -9689.4893            0    8887.4577    24.727983    24.727769    22.768427    13922.161    8656.3358      9603.79    8402.2474   -175.12457   -516.78637    1366.5175   -7420.9838 
28606000    116.44788   -9698.1008   -9254.1484   -9698.1008            0    8111.1552    24.719503    24.740742    22.823357    13958.283    8626.1252    7903.5211    7803.8194   -171.74303   -288.65304     124.9587    -7602.983 
28607000    120.75288   -9699.6584   -9239.2933   -9699.6584            0     7919.054    24.736304    24.738554    22.827314    13968.955    8984.5978    8152.7863     6619.778    179.70362   -601.54048   -147.62059   -7626.0008 
28608000    121.02333   -9700.2962   -9238.9001   -9700.2962            0    8247.4607    24.762657    24.702752    22.812972    13954.827    7942.1692    9217.2456    7582.9673   -61.477832    475.66062   -375.53107    -7560.403 
28609000    120.21819    -9701.263   -9242.9364    -9701.263            0    8533.8006    24.766594    24.717757    22.765026    13936.172     7680.547    8909.8645    9010.9904    240.11447   -666.71322    271.77601   -7508.4861 
28610000    121.82836   -9718.1914   -9253.7261   -9718.1914            0    7990.7101    24.766629    24.660695    22.856405     13959.83    7292.3349    9390.4447    7289.3507   -510.95461   -182.26981      347.469   -7626.8991 
28611000    122.50848   -9698.0356   -9230.9774   -9698.0356            0    8842.9822    24.864757    24.661678    22.707365    13924.307    7385.1903    9990.2311    9153.5251   -981.44619    9.1002835    725.01971   -7435.2178 
28612000    121.38184   -9696.8668   -9234.1039   -9696.8668            0    7307.2241    24.733806    24.759141    22.851853    13994.196    7952.7495    8008.7445    5960.1782   -49.502579    351.89536    237.50167   -7742.7652 
28613000    124.95302   -9703.0882   -9226.7103   -9703.0882            0    9377.2001     24.62161    24.749443    22.795575    13890.966    10492.992    8976.4799    8662.1281   -141.15626    450.39016   -293.60164   -7327.0256 
28614000    125.44525   -9683.4595    -9205.205   -9683.4595            0    8698.9041    24.723754    24.789228    22.757615     13947.75    8586.1111     8174.619    9335.9821   -47.668778    -427.5722    179.62922   -7435.7293 
28615000     123.7079   -9689.8788   -9218.2479   -9689.8788            0    8384.8065    24.686579    24.782955    22.825927    13965.048    8944.8757    8143.2032    8066.3408   -158.90649    384.07332    353.28774   -7510.5487 
28616000    118.64781    -9702.863   -9250.5235    -9702.863            0    7823.4114    24.714026    24.753543    22.847722    13977.315     7355.934    8134.5046    7979.7954     -58.2065   -616.62083    497.19496   -7655.7617 
28617000    114.93641   -9698.2548   -9260.0648   -9698.2548            0    8391.5898    24.773127    24.763694    22.743794    13952.729    7966.6449    8293.6377    8914.4869    266.81903   -730.78844    193.21765   -7552.4917 
28618000    115.98823    -9703.053    -9260.853    -9703.053            0    8407.0869    24.683657    24.749708    22.818098     13939.88    8752.5889    8208.7217      8259.95    -311.4602    691.01029   -15.306743   -7551.7019 
28619000    121.47106   -9702.7744   -9239.6713   -9702.7744            0    8491.2047     24.74277    24.790457    22.740366     13948.59    8756.9978    8286.9996    8429.6167   -203.07005   -162.57514   -230.18691   -7512.3406 
28620000    120.37247   -9706.8459   -9247.9312   -9706.8459            0    7677.3377    24.668301    24.725094    22.927057     13983.81    7585.6507    7625.8249    7820.5373   -477.94487   -1280.7018   -386.51817   -7682.2186 
28621000    124.39172    -9721.418     -9247.18    -9721.418            0     7887.511    24.749926    24.799071    22.755149    13966.546    7839.2868    7700.0089    8123.2374    576.75413   -430.57482    370.04803   -7640.5907 
28622000    118.71013   -9674.4359   -9221.8588   -9674.4359            0    9299.3776    24.665844    24.725323    22.805114    13908.176     10272.12    8693.6553    8932.3577    235.71267   -111.94324    53.982516   -7335.6057 
28623000    121.71466     -9714.29   -9250.2582     -9714.29            0    7878.5244    24.645403    24.783149    22.838093    13949.295    9510.7565    7152.3265    6972.4903   -434.25711   -741.93577   -46.403676   -7647.4815 
28624000    121.85598    -9685.495   -9220.9244    -9685.495            0     7761.529    24.721288    24.832502    22.762181    13973.508    7511.7936    7533.2192    8239.5742   -224.03528    859.69618   -267.93372    -7639.208 
28625000    124.16562   -9687.3681   -9213.9921   -9687.3681            0    8860.9164    24.628423    24.765223    22.845699     13934.24    9990.8636    8032.1292    8559.7564   -222.30408   -53.723467    373.78692   -7413.3068 
28626000    119.92432   -9696.3626   -9239.1564   -9696.3626            0    8409.8801    24.688925    24.751977    22.837174     13955.79    9061.0102    8805.2304    7363.3996   -700.78598   -554.84659    997.94879   -7527.4861 
28627000    122.09119   -9695.8941   -9230.4268   -9695.8941            0    8403.5532    24.802738    24.811353    22.657512    13943.195    7396.4429    8281.4702    9532.7464   -123.75129   -74.171279    173.06518   -7521.5878 
28628000    118.38363   -9703.8142   -9252.4818   -9703.8142            0     7747.492    24.699748    24.746397    22.893726    13993.327    7859.6932    8026.2629    7356.5199    158.66357    -782.6339    1141.2171   -7671.3867 
28629000    122.04521   -9700.6079   -9235.3159   -9700.6079            0    7409.8878    24.760816    24.759127    22.818179    13988.825     7554.371    7673.9061    7001.3865   -337.75205    142.61433   -517.07303   -7723.6049 
28630000    120.00985   -9711.9053   -9254.3731   -9711.9053            0    8691.1694    24.682545    24.760722    22.811735    13941.566    9221.8754    8481.6451    8369.9877    532.03364    444.13447   -385.08856   -7487.2546 
28631000    119.52195   -9713.5966   -9257.9244   -9713.5966            0    7349.4776    24.769667    24.764381    22.779824    13973.269    6838.4203    7780.0918    7429.9208     28.55389   -348.25673   -145.27319   -7760.2053 
28632000    120.55964   -9702.5368   -9242.9085   -9702.5368            0    7813.9057    24.730607    24.736549    22.841858    13973.504    7528.2013    8268.8938    7644.6219    417.90584   -685.68736    45.828556   -7650.5187 
28633000    121.35997   -9704.2887   -9241.6091   -9704.2887            0    8523.9894     24.75193    24.772432    22.722746    13932.804    8511.7687    8724.4832    8335.7162   -213.73028    -550.0105   -543.99974   -7509.5716 
28634000    119.32681   -9713.4578   -9258.5295   -9713.4578            0    7828.3823    24.713466    24.795231    22.781267    13959.816    7401.7686    8035.7919    8047.5864   -383.95672   -121.52589   -787.20105   -7664.7523 
28635000    119.85518    -9715.833   -9258.8904    -9715.833            0    8554.3103     24.67864     24.71189    22.820408    13917.159    8198.7867    9838.9422    7625.2018   -122.81153   -1019.8518   -168.56278   -7522.6435 
28636000    120.31636    -9694.938   -9236.2372    -9694.938            0     8195.535    24.764199    24.791849    22.714953    13945.852    8202.1326    7969.2676    8415.2047   -1025.6751   -769.52825    20.311968   -7569.3806 
28637000    119.29953   -9708.4151   -9253.5909   -9708.4151            0    7253.7007    24.782634    24.763581    22.796082     13990.11    6390.7005    8358.6111    7011.7905   -552.04294   -49.752097    779.66044   -7773.6082 
28638000    122.36291   -9705.4137   -9238.9105   -9705.4137            0    7684.1903    24.653937    24.716581    22.956345    13988.702    8772.0034    8069.5058    6211.0618    76.446621    848.23663   -428.13678   -7671.2521 
28639000    121.09939   -9715.7382   -9254.0521   -9715.7382            0     8343.782     24.73339    24.744905    22.773817    13938.154    7732.8206     8510.392    8788.1334   -942.18853   -558.37565   -382.63677   -7557.9808 
28640000    126.19681     -9724.53   -9243.4102     -9724.53            0     7234.325    24.720929    24.834669    22.771692    13980.364    7135.7605    7170.1326    7397.0818    -202.4652   -797.45811   -463.43388    -7768.409 
28641000    119.01216   -9706.6497    -9252.921   -9706.6497            0    8983.6929    24.716642    24.732141    22.783601    13927.512    8548.2458    9478.0205    8924.8123   -178.79882   -1338.1662    249.18445   -7428.1671 
28642000    117.17891   -9704.6594   -9257.9199   -9704.6594            0    8238.9369    24.798747     24.77777    22.703804    13950.526    7755.7649     7924.179    9036.8669   -111.60724   -229.39616    149.62952   -7581.6743 
28643000    122.42104    -9703.408   -9236.6832    -9703.408            0    8185.1436    24.746714    24.624101    22.896188    13952.149    7341.3261    9609.8911    7604.2135   -834.96767   -235.94138    435.84525   -7571.1884 
28644000    117.31827   -9693.2949   -9246.0242   -9693.2949            0    8112.0613    24.726235    24.750644    22.830781    13972.215    8504.9441    7859.1415    7972.0984    112.32776   -221.37571   -7.6227049    -7593.026 
28645000    119.64004   -9666.1641   -9210.0417   -9666.1641            0    8616.8134    24.769489    24.752992    22.735024    13939.275    7732.3575    10090.983    8027.0997    210.37086   -114.73491   -512.42713   -7458.3295 
28646000    120.92608   -9703.9679   -9242.9425   -9703.9679            0    8630.5713    24.681892    24.707686    22.845222    13931.758      8876.91    8812.9849    8201.8191   -249.06973   -101.00318   -784.54928   -7489.3796 
28647000     117.4492   -9688.9347   -9241.1647   -9688.9347            0    8796.8568    24.739527    24.772776    22.717864    13923.024    9571.4541    8029.6404     8789.476   -385.80612   -81.170644     1129.983   -7454.9364 
28648000    117.28758   -9707.5756   -9260.4219   -9707.5756            0    7431.4676    24.724596    24.715261    22.882065    13982.654    7054.9188    8301.6008    6937.8832   -399.82388   -403.69475    118.83171   -7744.9772 
28649000    123.98269   -9707.1379   -9234.4593   -9707.1379            0    8662.0499    24.741349     24.76827    22.745865    13938.676    8776.8302    8315.4971    8893.8225   -78.191729   -317.35868    209.96069   -7473.6267 
28650000    123.78353   -9717.3988   -9245.4796   -9717.3988            0    8558.3899    24.767227    24.728808    22.722571    13916.757    8528.5966    8648.9276    8497.6453   -699.28889    72.703655   -627.59403   -7508.4549 
28651000    120.89873   -9694.5623   -9233.6412   -9694.5623            0    8102.6658    24.663225    24.746633    22.879498    13964.085    9239.0729    7681.9939    7386.9307   -470.18408   -258.56295    542.35622   -7583.5184 
28652000    120.73912   -9709.0266    -9248.714   -9709.0266            0    8508.4779    24.746098     24.75314    22.739969    13929.223    7773.8605    8950.2189    8801.3542   -381.94148   -262.38793    1394.7302   -7520.2727 
28653000    122.01406    -9698.953   -9233.7797    -9698.953            0    7478.1972    24.728557    24.807792    22.804386      13989.6    7320.9037    8007.8883    7105.7997   -926.81695    851.72159   -410.80988   -7708.0483 
28654000    122.31072    -9715.986   -9249.6817    -9715.986            0    8439.5606    24.623119    24.797449    22.807878    13926.274    9054.6397    8218.9377    8045.1045   -762.21326   -606.65984   -188.95753   -7535.6034 
28655000    122.40657   -9706.9128   -9240.2431   -9706.9128            0    8549.5234    24.656123    24.779744    22.811039    13936.915    9420.2586    8074.3442    8153.9673   -449.19964    1319.3714   -614.70411   -7502.5045 
28656000    112.19545   -9712.5406   -9284.8004   -9712.5406            0    8348.7629    24.738366    24.840149    22.685015    13940.048    8122.4933    7415.0685    9508.7268    398.50847   -408.02549   -762.41969   -7587.4861 
28657000     119.7363   -9699.7928   -9243.3034   -9699.7928            0    8619.5133    24.623459    24.799687    22.807127    13927.265    9562.8851    8074.8943    8220.7604   -514.05916   -663.42769    649.71579    -7492.552 
28658000    120.57546   -9694.7439   -9235.0553   -9694.7439            0    9175.8579    24.623069    24.862848    22.736321    13919.167    9688.1871    8439.5854    9399.8011    379.98723    14.439202      926.552   -7372.3857 
28659000    122.47738   -9693.3173   -9226.3777   -9693.3173            0    8515.6101    24.693451    24.795118    22.769054    13940.969     8843.003    7318.0397    9385.7875   -744.49809   -140.57087    588.77333   -7495.0287 
28660000    121.75302   -9709.6011   -9245.4231   -9709.6011            0    7942.7428    24.769135    24.783419    22.750256     13965.56    7118.1776    8130.5406    8579.5103   -186.71867    251.37091    436.31987   -7627.6979 
28661000    121.33898   -9732.5709   -9269.9713   -9732.5709            0    7523.6763    24.713831    24.715493    22.878145    13974.303    7545.8967      7933.07    7092.0623   -180.40131    372.94826    132.09466   -7736.6395 
28662000     121.2737   -9711.5306   -9249.1799   -9711.5306            0    7329.4115    24.816478     24.83875    22.709802    13998.556    6525.2842    6907.0346    8555.9157   -142.67421    430.97157    221.17199    -7752.847 
28663000     122.6889   -9704.0317   -9236.2857   -9704.0317            0    7905.7386    24.694931    24.786761    22.843038    13982.392    8141.9182    7031.3368    8543.9609   -990.78635   -38.467187    288.51126   -7624.1566 
28664000    118.41171   -9703.9894   -9252.5499   -9703.9894            0    7211.2728    24.665026    24.832322    22.850586    13995.752    7941.2448    7191.3066    6501.2669   -386.26293   -182.61736    436.45135   -7780.6304 
28665000    119.91293   -9697.9133   -9240.7506   -9697.9133            0    8424.3605    24.700401    24.803202    22.777358    13954.527    8615.2022    8289.6095    8368.2699   -802.50005   -519.29169   -153.53699   -7526.2882 
28666000    123.13198     -9694.59   -9225.1548     -9694.59            0    8100.0303     24.73825     24.79187    22.764657    13961.735    8597.1632    7445.8075      8257.12   -249.44607   -229.40369   -453.43367   -7575.8462 
28667000    116.49376   -9710.0084    -9265.881   -9710.0084            0    8560.6226    24.680225    24.705208    22.843823    13928.567    8714.3336    9185.5756    7781.9586   -127.79865   -518.96228    135.25918   -7526.9287 
28668000    124.40765   -9693.9022   -9219.6034   -9693.9022            0    8522.9222    24.769421      24.7553    22.758273    13954.791    7511.1915    9620.8783    8436.6967    -108.7622   -9.8292584   -268.48882   -7485.0497 
28669000    116.74562   -9682.8787   -9237.7912   -9682.8787            0    8022.1936    24.789732    24.716908    22.791954    13965.212    6899.6618    9238.7482     7928.171   -80.309573   -114.72298    384.37822   -7603.9247 
28670000    117.94133    -9702.027   -9252.3809    -9702.027            0    7583.0318    24.777295    24.759897    22.802203     13988.77    7312.3498    8367.5338    7069.2119   -296.96037   -234.66025    686.84914   -7705.3524 
28671000    118.76942   -9702.7779   -9249.9747   -9702.7779            0    7381.3903    24.742175    24.707546    22.876246     13984.67    7219.8672    7446.0383    7478.2653   -49.200845   -10.152613    259.46229   -7744.5248 
28672000    124.51617   -9716.7897   -9242.0772   -9716.7897            0     8735.951    24.730641    24.716928    22.784292    13927.251    8483.2431    9225.0751    8499.5349    127.59755    51.730184    228.27487   -7467.6774 
28673000    120.84483   -9704.4127   -9243.6971   -9704.4127            0    7901.0274    24.848336    24.735084    22.704753    13954.924    6963.1945    7948.8804    8791.0073   -444.34952   -33.612756   -389.06018   -7635.6938 
28674000    121.24442   -9712.7153   -9250.4763   -9712.7153            0    8238.6009    24.772984    24.663331    22.816032    13940.237     7545.784    9175.0239    7994.9949   -662.96359   -433.81589   -200.03144   -7575.5352 
28675000     121.4185   -9709.1093   -9246.2065   -9709.1093            0    7261.2684    24.770839    24.779958    22.771109     13977.37    7006.0014    7302.6935    7475.1104   -346.89246    43.309174    245.87585   -7766.0288 
28676000    119.44584   -9706.7978   -9251.4158   -9706.7978            0    8217.7579    24.765252    24.730782    22.774841    13948.771    7705.9578    8774.9584    8172.3575    17.230749   -208.02079   -95.648506   -7579.6894 
28677000    120.31114   -9696.0238   -9237.3428   -9696.0238            0    7897.3585    24.789186    24.673877    22.864629    13985.043    7020.3633    8946.5493     7725.163   -988.11908    104.41963   -943.27995   -7626.6172 
28678000    118.85197   -9691.5519    -9238.434   -9691.5519            0    9006.3047    24.830316    24.678933    22.728076     13927.44    7664.3076    9275.8635    10078.743    119.48245    432.12237    234.63404   -7409.0966 
28679000    121.40643   -9711.4312   -9248.5745   -9711.4312            0    8100.4746     24.80165    24.675431    22.794686    13950.151    7087.0887    9746.3625    7467.9728    112.91481   -13.822306   -591.21655   -7600.5439 
28680000    122.61468   -9720.3427   -9252.8796   -9720.3427            0    8329.7006     24.79294    24.681756    22.789893    13945.894    7146.9149    8845.4078    8996.7791   -629.93846    290.38224    336.75323   -7558.7304 
28681000     120.6458   -9702.7633   -9242.8064   -9702.7633            0     8344.347    24.797436    24.727404    22.756981    13954.039    7430.0105    8978.3573    8624.6733   -88.784822    220.48144    107.43858   -7544.6872 
28682000    119.20732   -9675.7568   -9221.2842   -9675.7568            0    8194.1425    24.788918      24.7218    22.774204     13956.64    8271.2554    7901.5274    8409.6447   -97.813239    15.651455    707.73212   -7553.4216 
28683000    120.17149    -9702.299   -9244.1505    -9702.299            0    7957.6796    24.814229    24.707756    22.783807    13968.841    7492.6022    8510.6167      7869.82   -829.90377   -291.07224   -490.78283   -7623.0022 
28684000    122.23237   -9702.5085   -9236.5029   -9702.5085            0    8086.6614    24.786549    24.688063    22.806864    13956.247    7648.8734    8543.4077    8067.7032    110.83091    18.149986   -265.08484   -7590.5637 
28685000    122.00826   -9677.7414   -9212.5903   -9677.7414            0    9107.0701    24.831642    24.730598    22.666464    13919.506     8098.551    9535.0192      9687.64    107.85508    265.63232    46.182136   -7363.8394 
28686000    122.58505    -9688.564   -9221.2139    -9688.564            0    7671.5041    24.711071    24.752687    22.844001    13972.885    8015.5802    7168.0845    7830.8477    656.75846   -497.45559    337.87826   -7657.9133 
28687000    118.80909   -9714.5273   -9261.5728   -9714.5273            0    8862.3128    24.731851    24.744171    22.718808     13903.21    8921.7052      8327.76    9337.4732   -407.02287   -214.92894   -482.07968   -7464.6144 
28688000    121.44422   -9686.3365   -9223.3357   -9686.3365            0    8800.5135    24.766743    24.775028    22.734807    13950.003    8535.5881    8485.3999    9380.5524    15.320611   -561.55246    502.07259   -7432.9021 
28689000    117.10988   -9717.9198   -9271.4435   -9717.9198            0    7457.6425    24.716418     24.72705    22.909707     14001.59    8068.7102    7726.1429    6578.0743    340.93377   -274.59422    363.25914   -7748.6016 
28690000    125.18054   -9697.1836   -9219.9383   -9697.1836            0    7676.1348     24.73627    24.784092    22.790532      13972.1     8334.187    7073.3912    7620.8261     182.7933    -268.7866   -731.41281   -7655.7819 
28691000    120.91631   -9698.3446   -9237.3565   -9698.3446            0    7609.1758    24.776437    24.785687     22.75974     13976.78    7495.0029    7877.4687    7455.0559    64.984008   -126.43064   -734.13755   -7686.3249 
28692000     122.7013   -9696.9871   -9229.1938   -9696.9871            0    8174.5993    24.740792    24.713549    22.853487    13973.371    8067.0108    8974.1921    7482.5949   -241.78293   -485.64821    624.46367   -7563.3144 
28693000    121.29762   -9705.1873   -9242.7455   -9705.1873            0    7765.5419    24.822187     24.76666    22.746376    13983.623    6376.6579    8644.1376    8275.8303   -345.83779    937.20871   -280.44157   -7659.0657 
28694000    118.37459   -9696.4537   -9245.1558   -9696.4537            0    8504.7423     24.72132    24.740096     22.79407    13941.032    7733.2896    9083.7039    8697.2335    586.67322    -107.4459   -440.34418   -7516.0086 
28695000    120.46883   -9682.4755   -9223.1933   -9682.4755            0    10264.209     24.73077    24.635835    22.761281     13867.61    10023.604    10889.074    9879.9509   -242.36288    276.41341    419.43619   -7147.3097 
28696000    122.40796   -9697.8821   -9231.2071   -9697.8821            0    8572.0739    24.763698    24.715737    22.770167     13936.55    8612.1986    8182.4504    8921.5727   -611.69397   -279.37497    233.63965   -7488.9306 
28697000    122.84641   -9712.0384   -9243.6919   -9712.0384            0    8083.7301    24.769916    24.766971    22.744413    13953.147    8076.7727    7889.1923    8285.2252   -65.328318    307.49733    891.92602   -7598.7148 
28698000    123.71942   -9707.2009   -9235.5261   -9707.2009            0    8012.9622    24.739418    24.765585     22.77979    13956.862    8543.3928    7278.8713    8216.6224   -10.441104   -342.46856    471.78446   -7604.5156 
28699000    125.63621   -9700.4049   -9221.4223   -9700.4049            0    8177.5086    24.694255    24.776292    22.824215    13964.587    8565.7667    7700.7787    8265.9804    171.63769   -114.40833    1174.8268   -7555.9976 
28700000    118.70261   -9683.8585     -9231.31   -9683.8585            0    9489.5622    24.677833     24.76285    22.752418    13903.854    9686.0793    9002.1442    9780.4632   -302.55073   -244.57848    245.73299   -7307.0787 
28701000    125.19455    -9692.014   -9214.7153    -9692.014            0    9538.4312    24.753137    24.640912    22.771698    13889.366    9021.0293    10000.387    9593.8772   -23.319685   -146.69486    648.74918   -7282.5901 
28702000    117.28899    -9697.691   -9250.5319    -9697.691            0    7949.2358    24.715187     24.79134    22.809351    13975.805    8193.7265    6920.3902    8733.5909    -438.3346   -75.090242   -268.04051   -7630.2966 
28703000    119.76607   -9719.9382   -9263.3353   -9719.9382            0    8226.0992    24.716956    24.770795    22.768555    13940.244    7837.0529    8577.0459    8264.1988   -536.55085    34.871119   -67.171046   -7590.9351 
28704000    120.90713    -9686.592   -9225.6389    -9686.592            0     8889.689    24.733088    24.742674    22.765217    13931.465    9062.7726    8764.5438    8841.7507   -84.150924    313.00635    205.15321   -7419.4663 
28705000    115.40505   -9686.8266     -9246.85   -9686.8266            0    9153.4779    24.697047    24.694381    22.796004    13902.788    8442.0397    10116.484    8901.9101    15.301288   -102.05041   -714.13206     -7390.91 
28706000     115.6421   -9715.1668   -9274.2863   -9715.1668            0    8682.2507    24.733995    24.770381    22.726338    13923.756    8235.9582    8669.2567    9141.5372   -2.0657584    -626.3888   -28.892917   -7511.2363 
28707000    122.26019    -9702.826   -9236.7144    -9702.826            0    8382.3044    24.737427    24.759013     22.74958    13933.533    8028.4658    8543.3765    8575.0709   -812.95358    147.02418    206.21053   -7533.3775 
28708000    120.26454   -9695.1925   -9236.6893   -9695.1925            0    9102.2008    24.657768    24.733227    22.840454    13929.621    9570.1097    8840.8962    8895.5965    88.371419   -118.48088    1166.6471   -7387.5842 
28709000    121.35366   -9685.1721   -9222.5166   -9685.1721            0    8644.2788    24.764052     24.80368    22.704143    13945.784    8184.4173    8680.8833    9067.5357   -138.60042    196.03538    362.49882   -7464.4004 
28710000    124.12921   -9704.9392   -9231.7021   -9704.9392            0    8190.8053    24.719787    24.813552     22.74798    13953.287    7283.0673    8156.9743    9132.3744   -562.12971    -445.4309    310.05474   -7564.9193 
28711000    124.98309    -9703.398   -9226.9054    -9703.398            0    8562.6355    24.652898    24.756641    22.867552    13956.591    9823.8099    7670.5023    8193.5942   -228.36584   -270.89659    146.70732   -7484.0446 
28712000    120.23376   -9704.9807   -9246.5948   -9704.9807            0     7930.179    24.753525    24.849592    22.719123    13974.873    8308.2308    7524.8584    7957.4479    19.083577    185.32943     505.0039   -7630.3514 
28713000    120.05547   -9704.6051   -9246.8989   -9704.6051            0    8378.6775    24.674573    24.772428    22.827107    13953.048    8805.9429    8036.9414    8293.1482    560.94812   -510.04143    132.66583   -7541.9143 
28714000    122.08047   -9697.1068   -9231.6803   -9697.1068            0    8215.5112    24.693689    24.814033     22.79161    13965.559    9108.8389    7607.6952    7929.9996    131.06443   -1210.8343     122.4113   -7558.3996 
28715000    120.04767   -9706.4667   -9248.7902   -9706.4667            0    8481.3399    24.646661    24.750241     22.85039    13938.984    8326.7191    8791.3658    8325.9349    584.88156    265.10088    16.760352   -7524.6544 
28716000    117.58636   -9702.2981   -9254.0052   -9702.2981            0      8195.33    24.743409    24.771617    22.772877    13958.276     7878.108    8326.0612    8381.8208    103.54399    446.87106    454.59678   -7585.7054 
28717000    125.43687   -9702.6724   -9224.4499   -9702.6724            0    9552.5052    24.625944    24.720996    22.818533    13891.418    9867.2086    9740.1626    9050.1443    349.57318    138.48509    903.61496    -7289.188 
28718000    117.71716   -9691.2761   -9242.4846   -9691.2761            0    7879.0991    24.698177    24.851614    22.776856    13980.197    8052.9422    7774.8331     7809.522     123.1171   -326.99405   -187.08643   -7636.0401 
28719000    117.40063   -9705.6388   -9258.0541   -9705.6388            0    7676.7519    24.702735    24.832659    22.770531    13968.231    8278.0799    6768.9447    7983.2312   -230.62303     390.8949    537.64763   -7694.2051 
28720000    121.80775   -9703.8876   -9239.5009   -9703.8876            0     8440.938    24.677486    24.741793    22.830935    13939.775    7873.4984    9814.7679    7634.5478    173.92329   -628.91052    369.83283   -7523.4808 
28721000    119.82758   -9700.2989   -9243.4615   -9700.2989            0    8235.6617    24.674617     24.82142    22.807766    13968.822    8887.9065    7752.1898    8066.8888   -320.63674   -405.46576   -518.91646   -7565.6847 
28722000     119.8651   -9712.5002   -9255.5198   -9712.5002            0    7837.0022    24.677315    24.841481    22.784598    13967.438    8335.5681    7438.2784      7737.16   -180.60547    171.58896   -85.765805   -7659.1166 
28723000    119.33945   -9702.4653   -9247.4889   -9702.4653            0    7237.1465    24.702617    24.799109    22.842339    13993.283    7784.2193    6825.7603    7101.4598   -137.45336   -349.35673   -25.120713   -7770.5489 
28724000    122.40335   -9675.5698   -9208.9124   -9675.5698            0    7786.2005    24.753995    24.784295    22.781173    13976.484     7384.239    8121.2249    7853.1376   -429.96303   -978.01654   -380.13265   -7621.8303 
28725000    119.96014   -9701.7543   -9244.4115   -9701.7543            0    9427.9325    24.657844    24.759429    22.774545    13904.182    9561.7334    8864.2919    9857.7721    -423.0968   -376.57446   -378.93427   -7332.6321 
28726000    120.65864   -9705.4035   -9245.3977   -9705.4035            0    7920.1337    24.692677    24.791343    22.802317    13958.771    8099.2111    7977.6716    7683.5184   -221.35928   -829.85106    -413.3146   -7633.0615 
28727000    123.17431   -9703.2269   -9233.6303   -9703.2269            0    7407.2099    24.775824    24.769497    22.789557    13985.602    7060.9506    7645.4261     7515.253   -256.57421   -261.86836   -313.20651   -7722.8138 
28728000    124.38475   -9698.0376   -9223.8262   -9698.0376            0    8806.3153     24.72098    24.672502     22.82996    13924.642    8756.9434    9038.0497    8623.9528   -434.04003   -428.95891    291.37251   -7435.4695 
28729000    116.12435   -9694.3929   -9251.6739   -9694.3929            0    8011.0874    24.825133     24.78906    22.693478    13965.378    6838.9358    8580.6414    8613.6849    609.59228   -613.69476   -619.27856     -7620.05 
28730000    118.94798    -9690.113    -9236.629    -9690.113            0    8337.2154    24.648292    24.742134    22.898735    13964.824    8453.2032    9121.0436    7437.3992   -128.99281   -177.21346    759.58229   -7538.6498 
28731000    121.05428   -9685.2831    -9223.769   -9685.2831            0     7636.893    24.731468    24.871303    22.743304    13989.493    7946.5543    6932.5377    8031.5871   -475.57075   -955.89054    296.37633   -7665.6717 
28732000    124.01416   -9699.3436   -9226.5451   -9699.3436            0    8631.3784    24.660135    24.810651    22.773572    13933.646    8860.0542    7987.1055    9046.9756   -672.65436   -217.45397    111.57103   -7472.5805 
28733000    122.90666   -9684.8822   -9216.3059   -9684.8822            0    9288.4383     24.64553    24.784568      22.7858    13918.223    9026.6994    9002.2302    9836.3852   -121.75865   -101.71115    -311.8316   -7330.9108 
28734000    120.52705   -9689.8414   -9230.3373   -9689.8414            0    8410.0291    24.704595    24.819194    22.751937    13950.307    8202.1845    8110.0384    8917.8644    512.22205   -547.25426    226.64408   -7519.3091 
28735000    120.92774   -9717.8392   -9256.8076   -9717.8392            0    7963.5292    24.665038    24.819219    22.807896     13962.24     8207.188    7828.4603    7854.9394   -369.66399   -1008.7637   -612.19229   -7635.2343 
28736000    122.68241   -9701.7196   -9233.9983   -9701.7196            0    7372.2096    24.679359     24.91062    22.762123    13993.656    8011.8861    6275.5665    7829.1762   -282.32428   -117.87303    631.68143   -7729.4548 
28737000    118.22081   -9700.9596   -9250.2479   -9700.9596            0    8453.2773    24.675086    24.777888    22.821705    13953.111    8941.8018    8124.7569    8293.2732   -333.42335   -8.8761608   -49.634201   -7530.0752 
28738000     124.5652   -9687.4967   -9212.5974   -9687.4967            0    7922.9707    24.690485    24.771947     22.85354    13977.942    8398.6012    8122.7197    7247.5912     714.4495   -344.80947    162.79067   -7597.4685 
28739000    120.36276   -9696.2368    -9237.359   -9696.2368            0     7581.002    24.732264    24.853509    22.747883     13982.75    7294.6525    7407.5578    8040.7958   -692.74662    14.096366   -691.96432   -7691.4103 
28740000    122.55113   -9692.5459   -9225.3251   -9692.5459            0    7061.4084    24.738225    24.761581    22.877807    14013.974    6859.2935    7066.4712    7258.4606   -429.42596   -66.791794   -360.99999   -7782.1185 
28741000     122.8477   -9703.1917   -9234.8402   -9703.1917            0    8288.5168     24.73747    24.792275    22.767333    13963.164    7907.5523    8136.1454    8821.8526    584.28248   -236.70156    110.35563   -7546.9797 
28742000    122.13174   -9690.6684   -9225.0465   -9690.6684            0    8530.7782     24.74786    24.765362    22.763191    13951.326     8505.308    8194.3731    8892.6536   -210.40278   -898.46192   -104.89471   -7489.3251 
28743000    117.01765   -9691.8606   -9245.7359   -9691.8606            0    7953.0093    24.715689    24.758947    22.819822    13964.235    8068.9191    8013.2176    7776.8911   -224.09437     82.02844    -633.1246   -7626.0735 
28744000    118.65989   -9707.6759   -9255.2902   -9707.6759            0    7586.7265    24.747974    24.788306    22.806233     13990.72    7892.1362    6996.4985    7871.5449    314.24963    255.26156   -335.58312   -7707.2923 
28745000    118.91295   -9694.1506   -9240.8002   -9694.1506            0    6873.7751    24.808212    24.791634    22.783121    14012.442    6661.0704    7254.3648    6705.8901   -551.43952   -254.06327   -144.84423   -7836.0955 
28746000    122.42911   -9716.1681   -9249.4125   -9716.1681            0    7872.9506    24.713986    24.716718    22.848269    13956.833    7841.5866    8270.3932    7506.8721   -523.11025   -727.33678   -309.93129   -7646.9041 
28747000    124.21842   -9680.0755   -9206.4982   -9680.0755            0    9755.3971    24.815499    24.687827    22.681495    13895.608    8762.5128    9719.6042    10784.074    -108.8859    -339.4563    94.766034   -7229.5359 
28748000    117.14968   -9708.2558   -9261.6278   -9708.2558            0    8186.9034    24.767874    24.734298    22.770384    13949.502    7676.9434     8108.208    8775.5587    346.49496   -236.53131   -575.58031    -7596.091 
28749000    115.96047   -9705.1976   -9263.1034   -9705.1976            0    9369.4934    24.633558    24.710212    22.855123    13911.924    9732.9482    9274.3868    9101.1451    679.35424    -793.3136    31.073107   -7362.1162 
28750000    122.11346   -9692.1829   -9226.6306   -9692.1829            0    8508.4088    24.722115    24.825208    22.718038    13942.778    7930.6635    8497.2611    9097.3018    761.28582    1379.8991   -690.15811   -7496.5213 
Loop time of 439.93 on 64 procs for 250000 steps with 1920 atoms

Performance: 98.197 ns/day, 0.244 hours/ns, 568.272 timesteps/s
390.1% CPU use with 16 MPI tasks x 4 OpenMP threads

MPI task timing breakdown:
Section |  min time  |  avg time  |  max time  |%varavg| %total
---------------------------------------------------------------
Pair    | 73.335     | 74.553     | 76.532     |   9.6 | 16.95
Bond    | 1.5393     | 1.7072     | 2.1615     |  11.5 |  0.39
Kspace  | 213.17     | 218.2      | 224.22     |  20.8 | 49.60
Neigh   | 0.29896    | 0.31339    | 0.33033    |   1.9 |  0.07
Comm    | 49.035     | 55.344     | 59.392     |  39.0 | 12.58
Output  | 0.55564    | 0.55591    | 0.55737    |   0.1 |  0.13
Modify  | 65.559     | 75.48      | 78.823     |  43.0 | 17.16
Other   |            | 13.78      |            |       |  3.13

Nlocal:        120.000 ave         123 max         118 min
Histogram: 2 0 5 0 4 0 2 0 2 1
Nghost:        4210.44 ave        4241 max        4183 min
Histogram: 1 1 4 1 0 3 2 3 0 1
Neighs:        43608.2 ave       44862 max       43002 min
Histogram: 7 0 0 1 3 4 0 0 0 1

Total # of neighbors = 697731
Ave neighs/atom = 363.40156
Ave special neighs/atom = 2.0000000
Neighbor list builds = 693
Dangerous builds = 0

unfix		3
unfix		2
unfix		1

write_data	data.final.${pid}
write_data	data.final.0
System init for write_data ...
PPPM initialization ...
  extracting TIP4P info from pair style
  using 12-bit tables for long-range coulomb (../kspace.cpp:340)
  G vector (1/distance) = 0.37507904
  grid = 30 30 30
  stencil order = 5
  estimated absolute RMS force accuracy = 0.003201097
  estimated relative force accuracy = 9.6400086e-06
  using double precision FFTW3
  3d grid and FFT values/proc = 7920 1800
Last active /omp style is kspace_style pppm/tip4p/omp
WARNING: Not all mixed pair coeffs generated from mixing. Use write_data with 'pair ij' option to store all pair coeffs. (../write_data.cpp:312)

write_restart   restart.lmp.${pid}
write_restart   restart.lmp.0
System init for write_restart ...
PPPM initialization ...
  extracting TIP4P info from pair style
  using 12-bit tables for long-range coulomb (../kspace.cpp:340)
  G vector (1/distance) = 0.37507904
  grid = 30 30 30
  stencil order = 5
  estimated absolute RMS force accuracy = 0.003201097
  estimated relative force accuracy = 9.6400086e-06
  using double precision FFTW3
  3d grid and FFT values/proc = 7920 1800
Last active /omp style is kspace_style pppm/tip4p/omp
Total wall time: 0:07:20
