#include		in.partitions
include		in.temp
variable        temperature equal 234.50
variable	tempDamp equal 100.0
include		in.pressure
variable        pressure equal 2414.1
variable        pressureDamp equal 1000.0 # This is 1 ps
include		in.seed
variable        seed equal 745823

units		real
atom_style	full
#include		in.box
read_restart	restart.lmp.${pid}
read_restart	restart.lmp.0
Reading restart file ...
  restart file = 30 Jul 2021, LAMMPS = 30 Jul 2021
  restoring atom style full from restart
  orthogonal box = (0.15656546 0.10594759 -0.010898979) to (18.051007 23.523230 22.224095)
  2 by 4 by 4 MPI processor grid
  restoring pair style lj/cut/tip4p/long/omp from restart
  restoring bond style harmonic/omp from restart
  restoring angle style harmonic/omp from restart
  864 atoms
  576 bonds
  288 angles
Finding 1-2 1-3 1-4 neighbors ...
  special bond factors lj:    0        0        0       
  special bond factors coul:  0        0        0       
     2 = max # of 1-2 neighbors
     1 = max # of 1-3 neighbors
     1 = max # of 1-4 neighbors
     2 = max # of special neighbors
  special bonds CPU = 0.002 seconds
  read_restart CPU = 0.007 seconds
include 	in.setup
variable	out_freq equal 1000
variable	out_freq2 equal 10000
variable	out_freq3 equal 1000

timestep	2.0

neigh_modify    delay 7 every 1

include		in.tip4p
# This is TIP4P/Ice

# create groups ###
group ox type 2
288 atoms in group ox
group hy type 1
576 atoms in group hy

# set charges - beside manually ###
set group ox charge -1.1794
Setting atom values ...
  288 settings made for charge
set group hy charge 0.5897
Setting atom values ...
  576 settings made for charge

# ### TIP3P Potential Parameters ###
pair_style lj/cut/tip4p/long/omp 2 1 1 1 0.1577 8.5
pair_coeff 1 1*2 0.000 0.000
pair_coeff 2 2 0.21084 3.1668
bond_style  harmonic
bond_coeff  1 450 0.9572
angle_style harmonic
angle_coeff 1 55 104.52
kspace_style pppm/tip4p/omp 1.0e-5
pair_modify tail yes

thermo          ${out_freq}
thermo          1000
thermo_style    custom step temp pe etotal epair emol press lx ly lz vol pxx pyy pzz pxy pxz pyz enthalpy

restart 	${out_freq3} restart.lmp.${pid} restart2.lmp.${pid}
restart 	1000 restart.lmp.${pid} restart2.lmp.${pid}
restart 	1000 restart.lmp.0 restart2.lmp.${pid}
restart 	1000 restart.lmp.0 restart2.lmp.0


include         in.dump
dump            myDump all atom ${out_freq2} dump.water.${pid}
dump            myDump all atom 10000 dump.water.${pid}
dump            myDump all atom 10000 dump.water.0
dump            myDump2 all dcd ${out_freq2} dump.dcd
dump            myDump2 all dcd 10000 dump.dcd
dump_modify     myDump append yes
dump_modify     myDump2 append yes


variable natoms 	equal  "count(all)"                        # NUMBER ATOMS
variable H      	equal  "enthalpy/v_natoms"                 # ENTHALPY-per-atom
variable Vol      	equal  "vol/v_natoms"                 # volume-per-atom
fix AVG all 		ave/time ${out_freq} 1 ${out_freq} v_Vol v_H file vol_enthalpy.dat
fix AVG all 		ave/time 1000 1 ${out_freq} v_Vol v_H file vol_enthalpy.dat
fix AVG all 		ave/time 1000 1 1000 v_Vol v_H file vol_enthalpy.dat


timer           timeout 23:50:00 every 1000
New timer settings: style=normal  mode=nosync  timeout=23:50:00

fix 		1 all shake 1e-6 200 0 b 1 a 1
       0 = # of size 2 clusters
       0 = # of size 3 clusters
       0 = # of size 4 clusters
     288 = # of frozen angles
  find clusters CPU = 0.001 seconds
fix             2 all nph aniso ${pressure} ${pressure} ${pressureDamp}
fix             2 all nph aniso 2414.1 ${pressure} ${pressureDamp}
fix             2 all nph aniso 2414.1 2414.1 ${pressureDamp}
fix             2 all nph aniso 2414.1 2414.1 1000
fix             3 all temp/csvr ${temperature} ${temperature} ${tempDamp} ${seed}
fix             3 all temp/csvr 234.5 ${temperature} ${tempDamp} ${seed}
fix             3 all temp/csvr 234.5 234.5 ${tempDamp} ${seed}
fix             3 all temp/csvr 234.5 234.5 100 ${seed}
fix             3 all temp/csvr 234.5 234.5 100 745823


run             250000
PPPM initialization ...
  extracting TIP4P info from pair style
  using 12-bit tables for long-range coulomb (../kspace.cpp:340)
  G vector (1/distance) = 0.37137834
  grid = 24 27 25
  stencil order = 5
  estimated absolute RMS force accuracy = 0.0032070375
  estimated relative force accuracy = 9.657898e-06
  using double precision FFTW3
  3d grid and FFT values/proc = 4410 672
Last active /omp style is kspace_style pppm/tip4p/omp
Neighbor list info ...
  update every 1 steps, delay 7 steps, check yes
  max neighbors/atom: 2000, page size: 100000
  master list distance cutoff = 10.8154
  ghost atom cutoff = 10.8154
  binsize = 5.4077, bins = 4 5 5
  1 neighbor lists, perpetual/occasional/extra = 1 0 0
  (1) pair lj/cut/tip4p/long/omp, perpetual
      attributes: half, newton on, omp
      pair build: half/bin/newton/omp
      stencil: half/bin/3d
      bin: standard
Per MPI rank memory allocation (min/avg/max) = 10.19 | 10.21 | 10.23 Mbytes
Step Temp PotEng TotEng E_pair E_mol Press Lx Ly Lz Volume Pxx Pyy Pzz Pxy Pxz Pyz Enthalpy 
 7000000    242.00131   -4258.3119     -3843.53   -4258.3119            0    1888.8046    17.894441    23.417283    22.234994    9317.3339    2642.3222    990.55642    2033.5352   -811.42094   -212.74463     489.7009   -3586.8721 
 7001000    240.02628   -4295.4174   -3884.0206   -4295.4174            0    1503.9741    18.171348    23.586157    21.742459    9318.6492    444.94443     719.5267    3347.4513    346.49638    74.056938    313.71731   -3679.6261 
 7002000    230.90184   -4288.0624   -3892.3046   -4288.0624            0    2769.2797    18.037629    23.386071    21.996159    9278.6239    4411.2495    2311.9096    1584.6799    676.65164    -846.1145   -575.05215   -3517.5678 
 7003000    227.18668   -4285.5752    -3896.185   -4285.5752            0    1634.3352    18.052454    23.251459    22.178637    9309.3919    2109.3313    2195.6838    597.99049   -458.50181    382.51017    91.171311   -3674.2947 
 7004000     217.2746   -4304.6257   -3932.2244   -4304.6257            0    1970.0005    18.155677    23.433196    21.811348    9279.5409    2103.7682    1992.4816    1813.7517   -667.87288   -294.13083   -214.89342   -3665.6192 
 7005000    229.81646   -4277.6817   -3883.7842   -4277.6817            0    3391.9092    17.991781    23.336091    22.105211    9281.0461    3231.7986    3088.9515    3854.9775    142.52401    117.36292    235.92359   -3424.6739 
 7006000    243.22291   -4289.7315   -3872.8557   -4289.7315            0    1888.4158    18.020292    23.386457    22.107542    9316.7986    1707.9798    2095.1679    1862.0997    403.48576   -427.30324   -685.87061   -3616.2654 
 7007000    230.15093   -4278.2925   -3883.8217   -4278.2925            0    2441.0368    18.143814    23.421759    21.810787     9268.713     1514.899    3656.8488    2151.3627   -130.86819    -803.2921    14.709387   -3553.8553 
 7008000     243.2225   -4288.6848   -3871.8097   -4288.6848            0    1807.4873    17.938636    23.309854    22.322542    9334.1036    2041.5185    1911.0882    1469.8553   -185.07617   -404.79539     589.8402   -3625.7595 
 7009000    236.07688   -4257.3974   -3852.7697   -4257.3974            0    2998.2637    18.120181     23.38118    21.862074    9262.3314    2066.4078    3972.9398    2955.4435   -206.76616   -421.51014   -904.11038   -3447.7594 
 7010000    225.62692   -4271.0788   -3884.3619   -4271.0788            0    2134.1249    18.066127    23.469765     21.92345    9295.7128    1826.6158    2798.7509    1777.0079    -697.5785    815.11172    282.32935    -3595.042 
 7011000    239.59485   -4294.0367   -3883.3793   -4294.0367            0    2800.5095    17.841007    23.275101    22.187986    9213.5885    2640.6201    3541.7329    2219.1754   -289.30634    -123.7997     736.3638   -3507.0728 
 7012000     249.8172   -4274.1997   -3846.0215   -4274.1997            0    1415.7163     18.10837     23.52942    21.978647    9364.6498    637.40751    1122.2785    2487.4628    600.63158    117.94085   -559.38613   -3652.6718 
 7013000    243.63105   -4280.7371   -3863.1619   -4280.7371            0    1561.5765     18.04657     23.31604    22.133622    9313.2648    1168.1153    1327.5496    2189.0646   -427.25093   -141.28334    714.01384   -3651.0616 
 7014000    229.81315   -4307.2519     -3913.36   -4307.2519            0    2216.2661      17.9886    23.428734    22.051069     9293.426    804.65868    3014.5813    2829.5582    796.77317   -484.63821   -307.62872   -3612.9782 
 7015000    232.08668   -4283.5178   -3885.7292   -4283.5178            0    2424.7082    18.014252    23.542056    21.778034    9235.9014    1473.2167    2341.4506    3459.4571   -354.11283   -503.17023    479.50504   -3559.1303 
 7016000    235.59158    -4286.301   -3882.5051    -4286.301            0     471.4676    17.942589    23.305713    22.371506    9354.9771    2116.8215    947.30697   -1649.7257   -596.47638    216.30863    290.75855   -3818.1815 
 7017000    244.17753     -4299.45   -3880.9381     -4299.45            0    2887.4898    18.050521     23.41512    21.836314      9229.23    2398.1994    3129.7542    3134.5157   -335.18216     67.79247    296.84938   -3492.2853 
 7018000    227.27913   -4303.7514   -3914.2027   -4303.7514            0    2794.2908    18.045685     23.34909    21.902288    9228.5359    3686.7873    3219.3519    1476.7331   -630.93838   -1002.3416   -623.65391   -3538.1227 
 7019000    227.16315   -4278.3679   -3889.0181   -4278.3679            0    3031.3922     17.91235    23.210443    22.169198    9216.9233    4296.6163    3960.2721    837.28812    1482.4131    673.67391    14.027677   -3481.5402 
 7020000    239.22949   -4313.9086   -3903.8775   -4313.9086            0    2343.6119    18.018057     23.37398    21.923633    9233.2188    1826.4213    4025.7918    1178.6225   -152.76355   -162.84258   -155.05335   -3588.2937 
 7021000    238.76837   -4312.1726   -3902.9317   -4312.1726            0    2309.3507    17.982579    23.385117    21.938468    9225.6675    3082.8067    1333.2762    2511.9692    75.426873    523.20889    523.96837   -3592.2158 
 7022000    239.25998   -4285.8889   -3875.8055   -4285.8889            0    2870.3018    17.896332    23.608933    21.946493    9272.6858    1920.1099    752.22187    5938.5735    263.78608    273.52168    490.33288   -3487.6471 
 7023000    227.13631   -4298.7283   -3909.4245   -4298.7283            0     3499.639    17.808385    23.463667    21.960299    9176.1115    5554.2971    1371.5095    3573.1103   -373.32135   -867.80559    363.57014   -3441.0882 
 7024000     236.1967   -4245.6628   -3840.8297   -4245.6628            0    1874.2165     18.09849    23.378219    21.997972    9307.5717    1346.0235    1588.4363    2688.1898    1105.8367    260.82642    54.117406    -3586.421 
 7025000    232.09902    -4279.154   -3881.3442    -4279.154            0    2408.6422    18.448658    22.921474    21.990456    9299.1134    1393.9977    3370.4844    2461.4443   -94.965286   -733.87347   -240.76115   -3554.6889 
 7026000    245.40358   -4280.7174   -3860.1041   -4280.7174            0    2274.2667    17.933836    23.494506     22.20425    9355.6858    2744.6496    2031.8242    2046.3262   -739.29191     -294.813     -153.551   -3549.7961 
 7027000    227.75625   -4254.4218   -3864.0553   -4254.4218            0    2636.3315    17.822688     23.72836    21.949164    9282.3705    4211.7998    2298.1294    1399.0654   -23.076965     375.4364   -285.71001    -3507.165 
 7028000    228.47216   -4296.9748   -3905.3813   -4296.9748            0    2338.0648    18.139197    23.386245    21.900929    9290.5426    2413.6007    1509.6979    3090.8957    301.73681    494.84462   -388.01871   -3588.5898 
 7029000     228.2771   -4307.5329   -3916.2738   -4307.5329            0    3907.0791      18.0847    22.961829    22.139683    9193.6758     3541.077    5540.2199    2639.9404    -160.5195   -288.57828   -311.79942   -3392.4114 
 7030000    236.18923   -4265.8395   -3861.0193   -4265.8395            0    2268.8755    18.013796    23.416612     21.90945    9241.8891    2316.6177    2559.3738    1930.6349   -102.24134   -1024.2136    837.20066   -3555.2124 
 7031000    246.51214   -4266.6954   -3844.1821   -4266.6954            0    3116.4848    17.791794    23.698179    21.985707    9269.9021    4240.1906    3243.2874    1865.9765   -721.46983   -113.51264    -36.92161   -3422.8582 
 7032000    233.74243   -4272.6292   -3872.0026   -4272.6292            0     3306.024    17.866958    23.524021    21.981624    9238.9357    4885.5729     1845.121    3187.3781    692.07835    -645.5705    79.763902   -3426.5476 
 7033000      233.228   -4283.2893   -3883.5445   -4283.2893            0    1829.5142     18.12859    23.499909     21.88248    9322.3788     1993.002    1875.5513    1619.9892    114.68509    97.078511    -437.3772   -3634.8086 
 7034000    228.33163   -4302.6059   -3911.2533   -4302.6059            0    2721.4467    17.879443    23.020527    22.444237    9237.9178    2684.6787    3806.0305     1673.631    565.62829    573.84939    586.59097   -3544.6049 
 7035000    226.92979   -4307.5601   -3918.6103   -4307.5601            0    3165.8346    18.169117    23.349336    21.780132    9239.9339     3056.853    2320.6491    4120.0018    581.76967    -156.2626    657.94958   -3491.9983 
 7036000    224.28998   -4293.1468   -3908.7214   -4293.1468            0    2028.2439    18.031268    23.262251    22.248191    9331.9568      2269.58    2066.9989    1748.1529   -991.21135   -873.41192    47.632813   -3632.6834 
 7037000    241.52791   -4298.6084   -3884.6378   -4298.6084            0    2490.1028    18.020571    23.425942    22.032382    9300.9452    3591.6006    2832.1118    1046.5959   -106.33102    165.00305   -82.350148   -3546.8684 
 7038000    230.65078   -4281.9207   -3886.5931   -4281.9207            0    1939.1114    17.914076    23.788899    21.904061    9334.5505     1549.765    493.78772    3773.7814   -104.24583   -113.21063   -68.809773   -3622.6125 
 7039000      237.168    -4295.456   -3888.9582    -4295.456            0    1633.9225     17.93976    23.507164     22.16518    9347.3418    1394.2103    1818.3288    1689.2285    1038.2358   -313.80754    186.10579   -3666.2196 
 7040000    241.70473   -4315.9867   -3901.7131   -4315.9867            0    1626.6553    18.253863    23.287344    21.874797    9298.6258   -154.11066    1585.6755     3448.401   -291.03397   -474.23952    493.38549   -3681.1209 
 7041000    224.05584   -4274.4909   -3890.4669   -4274.4909            0    3482.2266    17.965791     23.06124    22.268672    9226.2096     3009.923    3686.2367      3750.52    1018.0186   -698.16239   -257.16163   -3421.9166 
 7042000    233.73533   -4293.4861   -3892.8718   -4293.4861            0    3014.7027    17.892965    23.496495    21.973739    9238.2425    3530.9776    2288.0491    3225.0813   -442.41967    329.28741    564.46005      -3486.7 
 7043000    232.46914   -4280.1954   -3881.7513   -4280.1954            0    2222.6185    17.994649    23.660201     21.85607    9305.3746    2533.1164    842.91674    3291.8223    255.04069    114.75677   -312.17335   -3580.1212 
 7044000    235.66506   -4281.3965   -3877.4746   -4281.3965            0     2723.178     18.03832    22.934627    22.337959    9241.2618    3048.6871    3967.4076    1153.4392   -3.9353191   -583.40766    -250.4255   -3510.4601 
 7045000    225.37122   -4318.3105    -3932.032   -4318.3105            0    2865.8817    18.218887    23.188986    21.868289    9238.8605    1910.1184    3812.4938    2875.0329   -648.34463   -523.75632    395.13375   -3545.8851 
 7046000    234.34669   -4278.0738   -3876.4116   -4278.0738            0     2794.931    18.006058    23.307859    22.150113    9296.0184    2614.0242    3959.1383    1811.6305     1068.075   -1081.7279    958.36599   -3497.4947 
 7047000    221.07576   -4286.1449   -3907.2286   -4286.1449            0    2244.9888    17.862188    23.560901    22.065399    9286.2065    3940.3481    1862.0881     932.5303    382.13092   -1084.7271   -190.07466   -3603.1902 
 7048000    231.33229   -4273.8604   -3877.3647   -4273.8604            0    3044.7795    18.051853    23.437779    21.845745     9242.833    3063.1702    2550.6279    3520.5405   -368.72407   -26.881121   -103.32954   -3466.9369 
 7049000    235.74754   -4273.4909   -3869.4277   -4273.4909            0     2057.619    18.140061    23.105206    22.057215    9244.8374    1014.6263    2752.6694    2405.5613    1136.8795   -187.59178    425.30064   -3592.0062 
 7050000    230.90093   -4299.8442   -3904.0879   -4299.8442            0     3829.635    17.933276    23.380337    21.947895    9202.4456    3432.1442    3892.1583    4164.6026    -101.7535    -54.62593    630.79906   -3390.1194 
 7051000    232.98806   -4268.5951   -3869.2615   -4268.5951            0    2053.0525    17.787632    23.790496    21.897719     9266.602    3133.5395    1589.8375    1435.7804   -4.6653314    1513.7787    -285.6815    -3591.804 
 7052000    223.84628   -4280.0946   -3896.4297   -4280.0946            0    1499.4474    17.953042    23.270563    22.225934     9285.493    2390.5339    422.29733    1685.5111   -158.38442   -591.07117    62.826294   -3693.3754 
 7053000    231.03283   -4305.9936   -3910.0112   -4305.9936            0    2196.8603    18.184349    23.243293     21.99077    9294.7101    1852.3878    1672.0901     3066.103   -3.5269959   -95.091243     681.0903   -3612.2184 
 7054000    237.55294   -4274.0861   -3866.9285   -4274.0861            0    4473.0992    18.006108    23.264651    21.875362    9163.7164    3946.4432    3046.9851    6425.8693   -688.01802   -106.46109   -84.795499   -3269.1283 
 7055000    220.92472   -4266.2228   -3887.5654   -4266.2228            0     1799.226    17.976537    23.382744    22.174064    9320.6625    1941.7391    2208.4837    1247.4553    476.17466    846.70447    -673.7729   -3642.9925 
 7056000    237.16171   -4262.5641    -3856.077   -4262.5641            0    3016.6523     17.97667    23.758056    21.705213    9270.0953    2818.0837    2168.3032      4063.57   -691.24368    199.14312    -359.9183   -3448.2412 
 7057000    235.45805   -4288.1595   -3884.5925   -4288.1595            0    3371.5422    17.902119    23.436741    22.060481    9255.8568    3242.8497    4319.8063    2551.9707    1045.4337   -198.75371    458.48676   -3429.4775 
 7058000     237.0927   -4289.0783   -3882.7095   -4289.0783            0    4630.0619    18.032461    23.171649    21.866396    9136.6949    3487.4166    5260.9472    5141.8219   -659.37908    -702.3704   -251.98165   -3265.7569 
 7059000    238.79626   -4291.2083   -3881.9197   -4291.2083            0     1949.561    18.102948    23.350596    22.028064    9311.5846    1701.5715    1818.9625    2328.1491   -456.72982    114.31242   -360.70123   -3617.1695 
 7060000    232.48587   -4320.0221   -3921.5492   -4320.0221            0    2545.8239    17.894816     23.32086    22.172282    9252.9917    2649.0804    2128.6455    2859.7457     829.3659     107.7252    584.04721    -3578.002 
 7061000    235.50133   -4297.3144   -3893.6731   -4297.3144            0    1921.0551    17.980529    23.763592    21.826196    9325.9395    1037.8313    1196.7789    3528.5551    323.52893     339.7249   -444.25943   -3632.3919 
 7062000    237.63123   -4281.4921   -3874.2003   -4281.4921            0    1893.8638    17.932207    23.441312     22.22012     9340.327    3138.4111    1248.4445    1294.7356     10.67281   -537.11082    949.18239   -3616.2199 
 7063000    248.61613   -4271.4917   -3845.3722   -4271.4917            0    4149.6378    18.098392    23.070882    21.934551    9158.6809    4152.7443    3348.5214    4947.6477   -1432.6423    1324.5773   -397.27071   -3291.1052 
 7064000    239.79626   -4290.8465   -3879.8439   -4290.8465            0    3787.4941    18.057753    23.267613    21.865036    9186.8314    3947.3902    3266.4016    4148.6905   -635.97166   -170.85423    54.395994   -3372.3935 
 7065000      224.702   -4298.9436    -3913.812   -4298.9436            0    2264.7641    17.783086    23.647035    22.045513    9270.5187    2329.2418    2572.6223    1892.4284    159.02368     488.5879   -635.02852   -3607.6136 
 7066000     232.8781   -4259.8486   -3860.7035   -4259.8486            0    1368.4695    17.790146    23.636376    22.110884    9297.5069     1517.105    1061.4519    1526.8517   -178.15737   -645.94586   -919.40985   -3675.1464 
 7067000    220.11095   -4298.8044   -3921.5417   -4298.8044            0    2695.2194    18.056097    23.284988    21.885136    9201.2992    1076.7143     3897.685    3111.2591    -402.7972    550.46773    -56.83127   -3559.8662 
 7068000    227.65921   -4284.4978   -3894.2977   -4284.4978            0    2552.6291    18.161416    22.971756    22.194803     9259.663    3651.8644    2831.2933    1174.7296   -1368.5737    478.54657     286.7299   -3549.5839 
 7069000    228.02707   -4317.7275    -3926.897   -4317.7275            0    1449.5064    18.081821    23.368781    21.948408    9274.3023     2656.675    1178.7754    513.06881    1029.9028    696.86461    216.44483   -3730.8422 
 7070000    233.94836   -4282.4853   -3881.5059   -4282.4853            0    3945.1175    17.861991    23.475995    21.848844    9161.8323    4885.8953    3827.4495    3122.0077     812.9754   -67.220485    -318.5525   -3354.3753 
 7071000    238.04216   -4300.7281    -3892.732   -4300.7281            0    3014.0935    17.897739    23.384768    22.127768    9261.2337    2933.6236    3544.1824    2564.4745    503.42632   -146.81424   -221.58102   -3485.6317 
 7072000    249.75066   -4262.5569   -3834.4928   -4262.5569            0    2724.4131    18.107763    23.439843     21.78917    9248.2634    1045.6709    3096.4818    4031.0865   -790.02318    787.52887   -818.14882   -3467.0337 
 7073000    227.63479   -4308.4529   -3918.2947   -4308.4529            0    3328.3438    17.915282    23.072756    22.257033    9200.0543    4705.0373    2927.3774    2352.6168    1295.2636    716.27517   -189.97177   -3471.7196 
 7074000    233.42509   -4301.8909   -3901.8083   -4301.8909            0    2672.3589    18.049661     23.45903    21.835004    9245.5418    1894.8778    2302.8332    3819.3657   -942.05237    478.37557   -373.25421   -3541.4761 
 7075000    235.85571    -4302.103   -3897.8544    -4302.103            0    2121.7542    17.950419    23.317493     22.12652    9261.2488    3042.1749    1282.3676    2040.7202   -309.71507     341.1262    85.247727   -3611.2779 
 7076000    240.72328   -4312.2967   -3899.7052   -4312.2967            0    1778.0742    17.991563    23.291223    22.146922    9280.5683    1835.7995    1466.0569    2032.3661    318.78412   -246.50274    36.785304   -3659.0472 
 7077000    225.91159   -4291.5048   -3904.3001   -4291.5048            0    2373.0126     18.08157      23.6535    21.627509    9249.9216    1964.4176    1775.3396    3379.2805    -668.2731    111.40663    87.611596   -3584.1792 
 7078000     254.1502   -4286.1374   -3850.5327   -4286.1374            0    3200.8618    17.822098    23.356604     22.17425    9230.3348    3173.0354    2874.8941    3554.6559   -470.54913   -383.02666    1260.4183   -3419.6488 
 7079000    227.38382   -4281.1266   -3891.3985   -4281.1266            0    3519.4798    18.053049    23.217882    21.858055    9161.8817    1317.5837    4749.4277     4491.428    1028.5435   -601.81801    -452.4436   -3421.1374 
 7080000    252.57534   -4287.7895   -3854.8841   -4287.7895            0    1752.6613    18.243771     23.17731    21.929222    9272.5856    775.52929    3065.5539    1416.9007   -183.58335   -1081.5702   -63.393417   -3617.8697 
 7081000    237.69271   -4294.5699   -3887.1727   -4294.5699            0    2189.3386      17.9414    23.308759    22.105143    9244.1891    2579.9117    1551.9249    2436.1793    690.16639   -130.64856    180.75552   -3592.0126 
 7082000    238.06741   -4321.1574    -3913.118   -4321.1574            0     2649.188    18.068025    23.548055    21.708889    9236.4131    3908.5682    2245.3293    1793.6665   -1432.6678   -430.20174    558.24104   -3556.2628 
 7083000    225.31825   -4298.6084   -3912.4207   -4298.6084            0    3306.4472    17.885767    23.197871    22.238161    9226.8735    2809.8334    4996.9712    2112.5369    246.03374   -588.26984    341.18218   -3467.4903 
 7084000    237.73554   -4255.9201   -3848.4495   -4255.9201            0    3108.9868    18.009783    23.479937    21.894397    9258.4523    3835.4846     1916.498    3574.9779    330.55608    666.19882     540.5895   -3428.6584 
 7085000    230.83714   -4290.2739   -3894.6269   -4290.2739            0    1901.9209    17.801902    23.430241    22.224066    9269.7213     2592.329    1781.4774    1331.9564   -197.03525    382.76181   -583.67046   -3637.5074 
 7086000    239.25447   -4299.7898   -3889.7158   -4299.7898            0    2230.3671    18.046187    23.338207    21.971426      9253.61    1054.2877    3392.5871    2244.2266   -171.00398   -115.95978     125.2001   -3588.7179 
 7087000    227.05654   -4299.7669   -3910.5997   -4299.7669            0    2310.0971     18.23327    23.162986    22.028799    9303.5765    1218.2444    1732.1362    3979.9108   -330.57598   -1220.9757   -268.91143   -3597.1585 
 7088000    245.50036   -4287.7755   -3866.9963   -4287.7755            0    3264.3647    18.028151    23.306346    22.050939    9265.1502    4112.6249    2897.7711    2782.6982    98.641469   -147.35447   -99.419322   -3425.9065 
 7089000    231.91328   -4317.9575   -3920.4661   -4317.9575            0    4673.7758    17.906555    23.454533    21.862752    9182.1346     3803.833    4951.2571    5266.2373     -931.507   -1178.3557    515.61384   -3294.5913 
 7090000    227.02864   -4275.2072   -3886.0879   -4275.2072            0     2654.139    17.903495    23.501295    22.014613    9262.7655    3466.1198    1903.7467    2592.5505   -323.74215   -523.70607   -552.63962   -3527.5458 
 7091000    238.93394   -4327.9956    -3918.471   -4327.9956            0    2422.1522    18.137035     23.14972    22.006446    9239.7867    2122.2138    1991.4578     3152.785    301.35742    121.63633   -577.09674   -3592.0792 
 7092000    234.19348   -4276.6612   -3875.2616   -4276.6612            0    2387.6449    18.179187    23.245602     22.00545    9299.1982    1676.9168    2406.1297    3079.8882   -189.86159    709.73603    69.095443   -3551.4509 
 7093000    229.22441   -4303.1675   -3910.2847   -4303.1675            0    3826.9697    17.917671     23.28733    22.008035    9182.9563    4579.4836    4893.0069    2008.4188    -495.6121   -390.60921    595.90488   -3397.7616 
 7094000    244.68558   -4319.3923   -3900.0096   -4319.3923            0    2811.0541    17.924368    23.565273    21.898945    9249.9526    3355.8044    2828.3596    2248.9983   -896.72107    296.56249   -206.42001   -3520.7954 
 7095000    228.10786   -4301.8094   -3910.8404   -4301.8094            0    1985.6081    17.904524    23.632424    22.006209    9311.4278    2057.8254    2141.2513    1757.7476   -829.87272   -187.63988   -786.72163   -3641.1995 
 7096000    244.76309   -4292.3875   -3872.8719   -4292.3875            0    2873.1257    17.966562    23.417231    21.992525    9252.8519    4044.2116    3190.7009    1384.4646    214.75078   -87.813358    435.11737   -3485.1627 
 7097000    234.27111   -4290.8994   -3889.3667   -4290.8994            0    698.63658    18.233697    23.324154    22.099081      9398.42     679.0151    751.21314    665.68151   -43.230046    568.67576    616.83192   -3793.6072 
 7098000    232.24246   -4317.5558   -3919.5002   -4317.5558            0    1473.2584    18.206636    23.127411    22.110243    9310.0122    1090.4287    2068.3474     1260.999   -16.354139    351.16369    42.257858   -3719.4656 
 7099000    232.83367   -4284.7065   -3885.6375   -4284.7065            0    2185.4135    17.943899    23.483892    22.010845     9275.207    3107.5889    2034.4701    1414.1815    606.87974   -1132.1484    -756.6052    -3590.018 
 7100000    231.98438   -4306.5406   -3908.9273   -4306.5406            0    4125.8306    17.798791    23.474308    21.947208    9169.8576    3813.6162    5173.5897    3390.2859    79.688482    226.05984   -713.10422   -3357.1678 
 7101000    237.43788   -4324.1481   -3917.1877   -4324.1481            0    3946.6128    17.890678    23.302748    22.015165    9178.1652    2820.6824    3656.2075    5362.9486   -4.9385295    506.51795    293.43926   -3388.9173 
 7102000    240.54971   -4293.7461   -3881.4521   -4293.7461            0    2845.4558    18.186614    23.345999    21.865759    9283.8658    1731.6815    1863.7015    4940.9844    -300.0083    400.47435   -205.62845   -3496.1897 
 7103000    227.68298   -4264.6018   -3874.3609   -4264.6018            0     1921.136    18.046982     23.43784    21.981864    9297.9389    2021.5615    699.77919    3042.0675    83.341951    29.123766    39.992607   -3613.8531 
 7104000    234.37307   -4287.9369   -3886.2295   -4287.9369            0    2203.6903    17.994601    23.222943     22.12763    9246.8619    1314.6134    3241.5391    2054.9183   -1016.5826   -427.87952    532.40863   -3589.0486 
 7105000    241.17804   -4284.4675   -3871.0966   -4284.4675            0    2842.9551    18.074269    23.368554     21.91795    9257.4741    3385.6826    2511.8083    2631.3745     231.0857    76.852592   -177.73457   -3487.2671 
 7106000    229.51716   -4308.1418   -3914.7572   -4308.1418            0    3401.8644    18.203168     23.14532    21.817506    9192.1113    1602.8611    6044.5284    2558.2037   -1356.3382   -188.29656    115.16966   -3458.7117 
 7107000    230.07758   -4309.9894   -3915.6443   -4309.9894            0    1364.3389    18.099666    23.308954    22.049615    9302.3856    967.58175    2473.1723    652.26252   -593.18814   -264.81712    328.59895   -3730.5503 
 7108000    234.75784   -4287.6847   -3885.3178   -4287.6847            0    3108.4233    17.878438     23.39904    21.895659    9159.7925    2671.9034    3743.4926     2909.874    378.56494    323.54151   -90.432105   -3470.0754 
 7109000    240.96616   -4311.7898    -3898.782   -4311.7898            0    3669.4388    17.795464    23.418291    22.068625    9196.8644    3846.8185    3979.0122    3182.4857   -26.415173    289.42006   -726.86933   -3406.6118 
 7110000    229.06568   -4292.5852   -3899.9744   -4292.5852            0     1566.576    18.096315    23.599691      21.8327    9324.0355    3142.4823    2234.5349   -677.28937   -88.981245    3.3374602    744.69183   -3686.9491 
 7111000    250.77821    -4308.644   -3878.8187    -4308.644            0    2291.8898    17.892495    23.257214    22.232257       9251.5    2674.1798    2327.7588    1873.7309    738.66659    551.82837   -678.84515   -3569.5886 
 7112000    232.97835    -4289.372   -3890.0551    -4289.372            0    1973.7782    18.126108    23.344512    21.949872     9287.982    1012.1921    2967.9243    1941.2182    48.399049    -482.6602   -171.72537   -3622.6956 
 7113000     233.0103   -4297.4375   -3898.0658   -4297.4375            0    863.44008    18.233544    23.300378    21.997383    9345.5541    1449.0555    907.98517    233.27956    112.61199   -52.049783   -149.04745    -3780.383 
 7114000    234.27898   -4258.2663   -3856.7201   -4258.2663            0    1743.1394    17.924479    23.472291    22.217445     9347.514    1467.8663    1902.6087     1858.943    1351.1965   -727.36474    225.23045   -3619.0885 
 7115000    234.11864   -4264.4783    -3863.207   -4264.4783            0    3431.6633    17.946518    23.641485    21.756152    9230.7515    4771.8385    3190.6492    2332.5021   -1010.4916    97.167592     366.8752   -3401.2329 
 7116000    229.44684   -4290.7393   -3897.4752   -4290.7393            0    4391.2549    17.873908    23.153072    22.179097    9178.5061    5517.6044    5758.1056    1898.0547   -816.12657    188.37763    -910.4837   -3309.6658 
 7117000    232.46871   -4321.5438   -3923.1004   -4321.5438            0    4178.7066    18.015732    23.248147     21.97493    9203.8122     3545.208     4270.462    4720.4497    301.16384   -158.81178   -717.48495   -3362.2003 
 7118000    233.67819   -4309.0776   -3908.5612   -4309.0776            0    2560.1208    18.078194    23.321673    21.853269    9213.6385    929.02519    3912.1198    2839.2172    531.15095   -13.534052   -46.708274    -3564.554 
 7119000    251.22055   -4314.5451   -3883.9616   -4314.5451            0    1646.4215     17.98304    23.386472    22.085486    9288.2689    1260.1463    1961.6603    1717.4579   -570.27199     59.99226   -303.00937   -3660.9376 
 7120000    220.81475   -4285.0112   -3906.5423   -4285.0112            0    2229.6503    17.806135    23.645702    22.090847    9301.0986    3844.2806    1136.2785    1708.3917   -197.39494    317.28115    1.6067792    -3604.097 
 7121000    230.06925   -4300.0744   -3905.7436   -4300.0744            0    1968.7508    18.066524    23.571183    21.868226    9312.5695    1631.6661    2732.6954    1541.8911   -647.02292   -672.35753    71.193549   -3638.3591 
 7122000    238.68278    -4270.082   -3860.9879    -4270.082            0    2928.4527    17.997518    23.288259    21.982617    9213.5933    4277.7267    1284.5258    3223.1056    640.00681    759.18426     1001.693   -3467.4894 
 7123000    220.77039   -4302.2529     -3923.86   -4302.2529            0    735.75249    18.157402    23.309438    22.024388    9321.5766    680.64209    658.61314    868.00224   -416.18996    378.61781   -598.92962   -3823.8377 
 7124000    249.86057    -4305.871   -3877.6186    -4305.871            0    1225.8978    18.094557    23.379694    22.008772    9310.7057    901.03181    910.87421    1865.7873   -944.04546   -371.79137   -385.73196   -3711.1575 
 7125000    243.15865   -4270.6234   -3853.8578   -4270.6234            0    3490.9858    17.730508    23.447377    22.144628    9206.2726    4844.4626    2049.4763    3579.0185    119.49733    297.53043   -436.50544    -3385.144 
 7126000    229.04478    -4286.133   -3893.5581    -4286.133            0    1830.0668    17.987917    23.612329    21.887503    9296.4237    2312.9865    1052.2833    2124.9305    694.15661     91.31244   -115.53779   -3645.4398 
 7127000    245.17269    -4305.142   -3884.9244    -4305.142            0    2982.0212      18.0184    23.166608     22.22183    9275.9517    2378.8484    3041.6795    3525.5357   -954.72941   -196.51385     649.4028   -3481.5158 
 7128000    236.54509   -4294.6475   -3889.2173   -4294.6475            0     3371.447    18.153126    23.146693    21.960497    9227.4679    2110.9135    3549.1876      4454.24   -678.28982    546.51996    99.099293    -3435.511 
 7129000     244.7582   -4285.2436   -3865.7365   -4285.2436            0    2479.0459    18.118598    23.540001    21.818021    9305.6435    1783.5053    1674.1168    3979.5156    172.91102   -855.19138    -344.7033    -3529.297 
 7130000    222.71191    -4298.921   -3917.2004    -4298.921            0    4145.7742    17.734193    23.653558    21.981091    9220.5568     3164.571    4712.7064    4560.0454   -42.223543   -18.713047    460.24425   -3359.7084 
 7131000    224.93014   -4300.6221   -3915.0995   -4300.6221            0    1534.7778    17.852975    23.516061    22.095213      9276.27    1700.3793   -338.84041    3242.7943   -388.90197   -306.31584    461.64893   -3707.4673 
 7132000    230.26008      -4259.6   -3864.9421      -4259.6            0    2071.1093     18.24072    23.269599    21.926918    9306.9731    1684.0446    1720.6513    2808.6321    334.89317    170.34605   -126.07285   -3583.8249 
 7133000    220.97011   -4273.3918   -3894.6566   -4273.3918            0    3650.9867    18.021163    23.189623    22.006696    9196.6857    2610.3833     4174.382    4168.1947   -336.86485   -200.30336    800.70264   -3404.9709 
 7134000    229.03091   -4309.1003   -3916.5492   -4309.1003            0    3044.0276     17.91413    23.520293      22.0039    9271.2466    2752.8139    1801.1479    4578.1211   -1913.2029     -560.896    863.29903   -3504.9612 
 7135000    230.13199   -4317.3049   -3922.8666   -4317.3049            0    1982.3536    17.765921    23.755941    21.865273    9228.1549    1771.7876    218.89641    3956.3768    701.17903   -950.80458      491.386   -3656.0752 
 7136000    237.82212   -4300.3274   -3892.7084   -4300.3274            0    1402.6599    18.009643     23.44746    22.012091     9295.274    1095.4929    708.58257    2403.9043    390.48421    184.99212    421.99569    -3702.561 
 7137000    229.83728   -4308.3542    -3914.421   -4308.3542            0    2374.0987    18.098297    22.911997    22.191846    9202.2515    2682.2648    2161.1213      2278.91    853.08082   -408.63877   -1101.9737   -3595.8041 
 7138000    243.49332   -4310.3156   -3892.9764   -4310.3156            0    2464.9961    18.093954    23.414605    21.947886    9298.5028    247.93454    2639.7133    4507.3405    359.04339   -64.436518   -211.79352   -3558.7004 
 7139000    211.44911   -4296.6976   -3934.2811   -4296.6976            0    1992.7332    17.819501    23.488301    22.080301    9241.7056    2469.9359    2925.9054    582.35837   -807.56984    339.53563   -105.88906   -3665.6989 
 7140000    239.24566   -4306.6107   -3896.5519   -4306.6107            0    1974.4944    18.059835     23.55918    21.873591     9306.664    2620.1633    1612.9344    1690.3855   -412.79079   -250.08944   -351.37774   -3628.5574 
 7141000    231.81728   -4315.9932   -3918.6663   -4315.9932            0    1976.2333    18.258091     23.21227    21.914428    9287.5916    1356.9245    2244.2168    2327.5586    1.2267051    -104.4626    229.66848   -3650.9855 
 7142000    221.72595   -4283.9284   -3903.8977   -4283.9284            0    3336.5018    18.090998    23.068991    22.100044    9223.2561    3007.5852    3839.8525    3162.0676   -1900.0552   -620.68555     309.1167   -3455.0991 
 7143000     231.4926   -4308.1121   -3911.3417   -4308.1121            0    1565.5882    18.152486    23.605456    21.764043    9325.8426    1497.8835    1646.6993    1552.1817   -1044.9663   -414.30362   -123.22767   -3698.4094 
 7144000    223.24947   -4282.5944   -3899.9524   -4282.5944            0    3028.2551    17.830628     23.51973    22.029832    9238.6847    1260.3667    4733.0225     3091.376   -1185.4683   -448.11385    112.78945   -3491.9352 
 7145000    246.63855   -4295.6738   -3872.9438   -4295.6738            0    1121.3392    17.879741    23.670281    22.102402    9354.1454    2213.7319   -351.43947    1501.7253   -291.66519   -711.13904    331.24426     -3719.97 
 7146000    236.25057   -4314.7028   -3909.7774   -4314.7028            0    1834.2767    18.099099    23.302422    22.043936    9297.0926    3230.5132    1939.0149    333.30192    192.88706     886.2847   -41.579227   -3661.0705 
 7147000    225.51087   -4307.8843   -3921.3664   -4307.8843            0    2368.2045    18.377952    23.030903    21.869593    9256.5425    2022.2936    2032.4103    3049.9097   -772.37923    338.38805   -695.51286   -3601.6654 
 7148000     216.7691   -4295.0247   -3923.4899   -4295.0247            0    2336.5174    18.082095    23.350129    22.010589    9293.2941    2143.7037    692.14905    4173.6994    465.11649     386.6091    -524.7938   -3606.8143 
 7149000    238.82979   -4266.9223   -3857.5762   -4266.9223            0    3160.2337     17.91314     23.44002    21.994521    9235.1558    2776.5882    3176.2942    3527.8187   -918.34432   -467.47443   -1022.5612   -3431.9393 
 7150000    224.12729   -4281.3708   -3897.2243   -4281.3708            0    2995.5798    17.805328    23.584292    21.913391    9202.0038    3621.2147    2720.1159    2645.4089   -405.99847   -316.80679    284.45698   -3495.2122 
 7151000    236.05925   -4277.5741   -3872.9766   -4277.5741            0    1276.4958    18.047345    23.445052     22.01717    9315.9257    870.46038    608.37587    2350.6511      162.953    156.82889    286.67058   -3699.5478 
 7152000    215.16228   -4283.2855   -3914.5047   -4283.2855            0    3019.5748    18.123976    23.125678     22.03829    9236.8917    2438.9312    3726.3206    2893.4726   -840.91052    372.80792   -305.25719    -3507.736 
 7153000    225.57549    -4272.294   -3885.6653    -4272.294            0     1596.472    18.119527    23.562302    21.847565    9327.5506    1810.3059    2253.1077    726.00237    857.39698   -281.68873   -172.80533   -3668.4929 
 7154000    220.37528   -4289.9697    -3912.254   -4289.9697            0    1329.8427    17.941489    23.599189    22.033302    9329.0012    1707.3439    441.43833    1840.7458   -365.95669    540.11827    322.04317   -3731.3237 
 7155000    239.44249   -4304.8629   -3894.4667   -4304.8629            0    1974.9185     17.72668    23.556216    22.131496    9241.5265    2108.5565    2229.9381     1586.261   -198.49181   -453.40808    302.17622   -3628.2908 
 7156000      218.091   -4311.0763   -3937.2758   -4311.0763            0    3357.8934    18.031431    23.357605    21.895257     9221.648     3627.501    3364.0274    3082.1517    219.56992   -270.76697    369.56669   -3485.6785 
 7157000    231.58217     -4298.93    -3902.006     -4298.93            0    3336.6625    18.132947    22.990703    22.090663    9209.3586    3692.0298     3046.723    3271.2349   -44.536837   -3.1113268   -1021.4622   -3453.8621 
 7158000    223.00395   -4293.0991   -3910.8779   -4293.0991            0    2523.2503     18.09526    23.296926    22.049528    9295.2856    2354.8397    3611.9172     1602.994   -665.31648    16.532685    454.80663   -3568.8206 
 7159000    228.12102   -4292.1464   -3901.1548   -4292.1464            0    2487.8827    17.862537     23.65064     21.95967    9277.0914    3998.5109    887.26333    2577.8738    494.61783   -746.82255    30.261221   -3564.5521 
 7160000    249.47678   -4296.1753   -3868.5807   -4296.1753            0    3134.1733    17.810127    23.670576    21.970537    9262.2506     3240.771     2667.418    3494.3309    600.87867   -373.99517    5.9922146   -3445.2152 
 7161000    226.45174   -4313.5525   -3925.4219   -4313.5525            0     3467.472     18.08265    23.235287    21.914514    9207.5049    3360.3283    3314.1066    3727.9811   -627.06445     20.75196    234.43007   -3459.8028 
 7162000    231.78021   -4303.7928   -3906.5295   -4303.7928            0    468.66804    18.345118    23.095102    22.118524    9371.2283   -884.66498    1699.1613    591.50782    -832.4657    529.83335   -471.80616   -3842.4767 
 7163000    233.99414   -4292.9963   -3891.9384   -4292.9963            0    2501.5957    18.061261    23.382545    22.004134    9292.7474    3185.9561    1953.8222    2365.0089   -713.06574   -262.41616   -245.64922   -3552.9091 
 7164000    241.39159   -4314.6303   -3900.8934   -4314.6303            0     2291.024    17.818051    23.712981     21.99496     9293.291    2834.8778     750.4277    3287.7665    276.51194   -95.514103    245.01756   -3590.3838 
 7165000    225.47929   -4283.2396   -3896.7758   -4283.2396            0    2971.9994     17.87521    23.664284    21.946227    9283.3426    2443.0939    2735.6587    3737.2455   -729.38073   -473.87329     516.3088   -3494.4027 
 7166000    239.16479   -4289.5711   -3879.6509   -4289.5711            0    2713.9616     18.10755    23.290242    22.046182     9297.519    837.45446    1810.0771    5494.3533    167.49157    376.27238    292.31377   -3511.6518 
 7167000     226.9044   -4306.6779   -3917.7716   -4306.6779            0    3284.0201     18.19735    23.139154    22.003955    9265.2332    2338.3537    5734.8147    1778.8917    -688.5566    92.867519    356.51308   -3474.0219 
 7168000    239.93659   -4268.9983   -3857.7552   -4268.9983            0    2479.1269    18.113545    23.271259    22.068148    9302.2764    3915.6173    2394.8801    1126.8833    79.339631    348.68371   -316.97575   -3521.4265 
 7169000    242.50715   -4280.1929   -3864.5439   -4280.1929            0    3012.0899    17.928564     23.52484    21.967035    9264.9619    3398.5436    1795.9997    3841.7265   -399.44409    418.47061    709.43399   -3457.5505 
 7170000    240.13476   -4304.7702   -3893.1875   -4304.7702            0     1615.909    17.755781     23.82804    22.132972    9364.1388     3377.926    27.461255    1442.3396   -586.91796   -233.98387   -647.96962   -3672.5087 
 7171000    227.80058   -4285.4892   -3895.0468   -4285.4892            0     2691.569    18.078617    23.425533    21.866272    9260.3934    925.52442    2706.9981    4442.1846   -245.86858    126.68737    893.35197   -3531.5414 
 7172000    243.51925   -4319.1424   -3901.7587   -4319.1424            0    2492.0924    18.061868    23.258687    22.073163    9272.8329    2060.2143    2208.7933    3207.2695   -72.452118    438.51172   -277.02507   -3564.7412 
 7173000     229.2912   -4297.1315   -3904.1342   -4297.1315            0    1488.2042    18.193519    23.378235    21.866651    9300.5943    1740.2109    1662.0577    1062.3442   -600.06114   -4.4173855    178.12497   -3702.2747 
 7174000    228.33528    -4299.343   -3907.9841    -4299.343            0    2846.2443    17.963861    23.421923    22.051187    9277.9967    3382.1482    3862.9358    1293.6488    220.39548    -177.4423   -117.19241   -3522.8586 
 7175000     250.8974   -4314.1566   -3884.1271   -4314.1566            0    2083.6496    17.989078    23.493004    22.017636    9305.0376    1060.6711    2712.5207    2477.7569   -241.49676    209.80185    556.84553   -3601.3666 
 7176000    226.08984   -4292.2241   -3904.7138   -4292.2241            0    2177.9106    18.056209    23.747878    21.682127    9297.2233    2468.8144    2010.3305     2054.587   -835.08495   -260.35682   -249.60369   -3609.4099 
 7177000    240.21378   -4279.4357   -3867.7175   -4279.4357            0     2847.067    17.885312    23.426289    22.176908    9291.8251    3382.1962    3089.8953    2069.1093    888.29058   -513.12068   -442.35454   -3481.9065 
 7178000    237.02716   -4284.4705   -3878.2141   -4284.4705            0    2470.1742    18.144106    23.273613    22.008457    9293.7071    2053.1847    2568.6935    2788.6443   -1124.9108    256.42175    723.77691   -3543.4087 
 7179000    231.11026   -4294.2365   -3898.1215   -4294.2365            0    1200.0037     18.22911    23.357604    21.952154    9346.9708     512.5309     1907.834    1179.6462   -183.35064   -43.610354   -212.30943   -3734.5418 
 7180000    232.64516   -4298.1555   -3899.4097   -4298.1555            0    1010.4488    18.018237    23.375886    22.244839    9369.3539    1314.4239    1375.2813    341.64133   -1509.4536   -197.55369    72.029098   -3761.3395 
 7181000    245.01301   -4306.7966   -3886.8527   -4306.7966            0    4045.5776    18.175302    23.449163    21.691097    9244.6505    3459.8031    4057.0694    4619.8603   -759.01522    777.57589    584.69587   -3341.4128 
 7182000    249.22529   -4291.8582   -3864.6946   -4291.8582            0    2034.4479    18.035217    23.407139    22.070515    9317.1303    2024.6467    2361.6755    1717.0215    227.61242    324.32953    356.19471   -3588.2522 
 7183000    230.21598   -4301.0323   -3906.4499   -4301.0323            0    3782.3618    17.994666    23.359591    22.036093    9262.8285    2331.7992    5031.3568    3983.9294   -178.49422   -593.57103    675.85546    -3395.495 
 7184000    240.28743   -4325.0844   -3913.2399   -4325.0844            0    1262.2605    18.075389    23.666309    21.842157    9343.5889    1477.9773   -83.083506    2391.8878    859.49632   -775.39218   -82.702356   -3741.2359 
 7185000    239.68257   -4283.0256   -3872.2179   -4283.0256            0    3016.9923    17.896492    23.306569    22.190664    9255.8551    2998.9441    2753.3187    3298.7141    455.78064   -1179.8416   -23.690992   -3464.9627 
 7186000    242.47871   -4283.1952    -3867.595   -4283.1952            0    1967.5991     18.18527    23.379334    21.813637     9274.275    1356.1092    1492.7741     3053.914    1066.8507    796.41336   -6.7969281   -3601.4658 
 7187000    231.67838   -4304.2113   -3907.1225   -4304.2113            0    1313.8882    17.990577    23.291068    22.283011    9337.0217    1102.4632    2566.7468    272.45468    -64.59432    -854.9324   -336.25647   -3728.2092 
 7188000    234.64803   -4266.1695   -3863.9908   -4266.1695            0    3153.6927    18.003331    23.418645    21.989739    9271.1737    2539.0755     3676.372    3245.6306   -609.75794    1207.8392    -28.04056   -3437.5783 
 7189000    225.18651   -4300.9771   -3915.0151   -4300.9771            0    3001.1934    17.840432    23.430863    21.985288    9190.2183    2828.0937    1974.2688    4201.2178   -228.76454    906.63862   -173.55388   -3512.7655 
 7190000    247.48067   -4283.5276   -3859.3541   -4283.5276            0    2335.5077    17.859834    23.554348    22.114257    9302.9536    3978.6897    1724.1341    1303.6994    765.68176   -467.92823    1054.3106   -3542.4864 
 7191000    229.42026   -4279.8513   -3886.6328   -4279.8513            0    1729.9937    18.045106    23.360472    22.048418    9294.3386    960.24061     1963.883    2265.8573   -701.85575   -206.95311    -1010.798    -3652.135 
 7192000    230.70833   -4271.5226   -3876.0965   -4271.5226            0    1759.2751    17.974533     23.37219    22.190154    9322.1768    2154.9648    2508.2508    614.60957    1044.6138   -333.29883    265.30425   -3636.9153 
 7193000    232.74434   -4285.9931   -3887.0773   -4285.9931            0     2179.193    18.296284    23.360228    21.841939    9335.3619    1307.3353     2124.114    3106.1298    131.74739     1202.556    414.85453   -3590.3874 
 7194000    241.77997    -4282.352   -3867.9494    -4282.352            0      2735.69    18.001694    23.171586    22.217861    9267.6874    2902.4163    2962.2138    2342.4397   -115.87631   -604.81883    212.95496   -3498.1944 
 7195000    234.60675   -4299.2288   -3897.1209   -4299.2288            0    1398.9236    17.919162    23.548517    22.028899    9295.5276    2156.3369    711.68939    1328.7445    198.93112   -76.078358    718.85693   -3707.4747 
 7196000    237.63551   -4295.3683   -3888.0692   -4295.3683            0    2160.6338    17.985625    23.671185    21.736554    9254.1435    2323.9039    718.57457    3439.4229     760.4537   -77.354911    675.27618   -3596.4653 
 7197000    227.01644   -4274.2172   -3885.1188   -4274.2172            0     2248.815    17.989857    23.363055     22.08242    9281.1976     2251.513    1250.9959    3243.9359     335.5137    599.83803     527.5758   -3580.7265 
 7198000    241.78965   -4298.9378   -3884.5186   -4298.9378            0    294.07728    18.166598    23.206808    22.191797    9355.8124   -191.14033    555.98316    517.38902    1008.2672   -194.16424   -546.10735   -3844.3932 
 7199000    246.14625   -4288.0397   -3866.1535   -4288.0397            0    1527.9468    18.099648    23.419312    21.923316    9292.8839    293.13635    3006.2839    1284.4203   -251.10865    55.762058   -206.88967   -3659.0751 
 7200000    222.65123   -4277.5465   -3895.9299   -4277.5465            0    2188.5611    17.683769     23.53862    22.185087    9234.5763    2800.0713    2513.1791    1252.4327   -581.53073    178.64529    318.05635   -3601.1814 
 7201000    230.51471   -4285.7062   -3890.6119   -4285.7062            0    2834.6585    17.996558    23.539437    21.903256    9278.8515    2235.2049    2489.4986     3779.272   -366.59396   -208.33971     474.8544   -3507.0187 
 7202000    223.60994   -4265.4448    -3882.185   -4265.4448            0    1688.5464    18.099373    23.235177    22.101488    9294.6071    1670.1507    2773.5467    621.94184    81.827953   -1421.7903   -335.43357   -3653.2987 
 7203000    235.18833   -4317.8709   -3914.7662   -4317.8709            0     2672.323    18.055835    23.280831     21.99113    9244.0778    1584.1282    2686.3427    3746.4982    541.50114   -45.524624   -262.34001   -3554.4959 
 7204000     231.4372   -4310.9134    -3914.238   -4310.9134            0     1444.961    18.030295    23.440909     22.01904    9306.2699    2134.3714    2305.4257   -104.91407   -649.52154   -332.72345    823.94034   -3718.1244 
 7205000     227.8182   -4313.8258   -3923.3532   -4313.8258            0    2167.4064     17.97199    23.358239    22.086874    9271.9378    1811.2758    2002.1458    2688.7975   -609.53757    78.341394     302.2729   -3630.2728 
 7206000    219.35932   -4288.5588   -3912.5844   -4288.5588            0    2105.6248    18.219538    23.541956    21.568799    9251.3659   -446.35985    3179.9749    3583.2593   -71.723642    189.14183    139.10648     -3628.49 
 7207000    222.20889   -4273.1067   -3892.2483   -4273.1067            0    2762.0366    17.889021    23.377352    22.051816    9222.0242    2647.8105    2394.3402    3243.9592    1057.6583   -1163.8893   -407.59422   -3520.7716 
 7208000    239.67785   -4283.1357   -3872.3361   -4283.1357            0    2488.9812    18.039589    23.501104    21.914877    9290.8179    3155.8866    1580.7336    2730.3236   -71.781405    -663.7513    648.65708   -3535.0865 
 7209000    234.86395   -4301.2007   -3898.6519   -4301.2007            0    1748.9845    18.112973     23.37409    21.964052    9299.0141    1368.0499    1780.9827    2097.9209    312.09079    581.41796    979.94144   -3661.4606 
 7210000    240.59375   -4279.4786   -3867.1092   -4279.4786            0    3432.7514    17.982155     23.35818    22.044955     9259.551    3362.7596     4382.688    2552.8066   -1575.0193   -680.20058    815.92082   -3403.5468 
 7211000    229.01405   -4291.8536   -3899.3314   -4291.8536            0    2160.8707    18.106125    23.662196     21.66839    9283.4026    1501.5388    974.87248    4006.2007   -814.52375    196.50557    939.69702   -3606.7735 
 7212000    243.98462   -4307.6086   -3889.4273   -4307.6086            0    3349.3226    17.920559    23.296638    22.161467    9252.1635    4250.5065    3257.7736    2539.6878   -461.48064    385.39916    -344.7091   -3437.4921 
 7213000    239.92094   -4289.2677   -3878.0515   -4289.2677            0    2856.4164    18.111608    23.599087     21.72176    9284.2588    2891.7397    2350.5974     3326.912   -1578.3469    193.34537   -365.45625   -3491.2887 
 7214000    240.40168   -4315.5735   -3903.5333   -4315.5735            0    2180.4122     17.85918     23.63904    22.059775    9313.0607    2513.6163    1845.8712    2181.7489    1008.4217   -552.21614   -598.53532   -3607.3866 
 7215000    213.31209   -4316.3749   -3950.7653   -4316.3749            0    1400.8934     17.97859    23.462581    22.152438    9344.4326    1862.2508    686.84336    1653.5861     230.2966     1061.417    264.12811    -3759.853 
 7216000     229.5002   -4304.7009   -3911.3454   -4304.7009            0    2255.8107    18.270764    23.397481    21.799312    9318.9844     2077.624    3260.7213    1429.0866   -950.32084    114.59853    1010.4899   -3604.7631 
 7217000    229.81742   -4316.2046   -3922.3055   -4316.2046            0    2758.3724    18.064802    23.200177    22.095602    9260.4129    1698.3131    4158.3697    2418.4344    102.61926   -79.399526   -133.49941   -3549.7773 
 7218000    236.07463   -4291.2478    -3886.624   -4291.2478            0    3242.9767    17.971618    23.503734    21.922499    9260.0662     3785.778    3158.4701    2784.6819    1350.3728   -57.518709    -212.4612   -3448.6646 
 7219000    230.65256   -4273.6307   -3878.3001   -4273.6307            0    4025.6939    17.789427    23.660103    21.947633    9237.7514    4921.9421     3509.562    3645.5776    637.15115   -30.912925    752.28866    -3335.946 
 7220000     225.4643     -4303.13   -3916.6919     -4303.13            0    2070.4212    17.958899    23.500233    21.983778    9277.9966    2511.4972    1201.3809    2498.3854   -1402.1765   -647.08398   -382.42598    -3636.543 
 7221000     227.7432   -4284.5151   -3894.1711   -4284.5151            0    1866.0902    18.121839    23.306175    22.051544    9313.4859    2077.9585    2262.8116    1257.5007    1094.2085   -382.15983    1171.0892   -3640.7044 
 7222000     228.2732   -4303.4739   -3912.2214   -4303.4739            0    3195.1966    17.980745    23.323188    21.979062    9217.3214    2902.5534    2910.8921    3772.1445    768.73583    1340.9917    1410.9464   -3482.7066 
 7223000     227.8528   -4294.1702   -3903.6383   -4294.1702            0    2755.7106    17.768268     23.76437    21.980911    9281.4772    5022.4619    2350.2311    894.43875   -733.82209   -490.69401    545.71654    -3530.623 
 7224000    235.39562   -4295.9617   -3892.5017   -4295.9617            0    2503.6819    17.870335    23.642384    21.962263    9278.9973    1524.2459    3107.8306    2878.9692    420.79754   -535.05703    260.62458   -3553.6918 
 7225000    218.33144   -4284.9962   -3910.7836   -4284.9962            0    3160.6434    18.029857    23.360043     22.03685    9281.4417    2222.9363    3743.6792    3515.3148    150.99096    140.26758    -3.268237   -3482.9579 
 7226000    228.29255   -4286.8437   -3895.5581   -4286.8437            0    1627.6266    18.171313      23.1594    22.099531    9300.2937    1818.1696    1512.3329    1552.3774    1038.1458    -60.25932     990.9697   -3674.7946 
 7227000    247.40798   -4254.0334   -3829.9846   -4254.0334            0    2386.9148     18.24463    23.280897    21.892903      9299.04   -68.017802    4034.6193    3194.1429   -693.95022    442.85772   -1788.8731   -3506.2785 
 7228000    240.02897   -4281.2042   -3869.8027   -4281.2042            0     704.8488    18.035452    23.717564    21.822205    9334.6008    279.95965   -444.03655    2278.6233    241.23964    461.05853    423.19381   -3773.8477 
 7229000    236.71465     -4281.08   -3875.3592     -4281.08            0    3767.5079    17.800417    23.587633    22.003887    9238.7655    4695.3676    3006.9203    3600.2357   -863.92587   -34.607184    324.01636    -3367.733 
 7230000    236.13768   -4266.8652   -3862.1333   -4266.8652            0    1128.9626    18.087751    23.393404    22.088072    9346.2161    688.73672    899.90284    1798.2481    95.600701   -583.08758    25.316792   -3708.2501 
 7231000    234.67406     -4276.71   -3874.4866     -4276.71            0    2175.3734    18.295238     23.14097    21.977877     9304.764    2032.0466    2052.0503    2442.0232   -1140.3083   -185.54808    418.21482   -3579.2875 
 7232000    246.03806    -4310.075   -3888.3742    -4310.075            0    3874.6151    17.965951    23.197666    22.066318    9196.5376    4403.1531    3163.8908    4056.8015    607.71338    -468.5049   -841.80316   -3368.7028 
 7233000    227.43202   -4296.8289   -3907.0182   -4296.8289            0    3629.0645    17.769721    23.540948    21.936216    9176.2717    3751.9452    4724.7141    2410.5341    315.40475   -73.734382   -1327.6994   -3421.3531 
 7234000    242.35726   -4283.9013   -3868.5092   -4283.9013            0    2052.7401    17.912546    23.593766    22.006827    9300.6224    2552.9099    3042.9279    562.38244   -423.44691   -451.47811    119.47535   -3590.0755 
 7235000    221.69297   -4293.9886   -3914.0144   -4293.9886            0    1562.4323    18.177273     23.15071    22.042024    9275.6534    1485.6154    2696.8251    504.85632    717.92657    101.23094    275.93743    -3702.655 
 7236000     242.8208    -4313.753   -3897.5664    -4313.753            0    2749.5822    18.038589    23.204056    21.941481    9184.0108    4022.8775    2724.0137    1501.8554   -1113.5952   -493.69435    280.25041   -3529.2891 
 7237000    236.63967   -4298.7485   -3893.1562   -4298.7485            0    1225.3231    18.022769    23.239635    22.117307    9263.6697    1925.2281    1278.9356     471.8057   -517.34206    133.34121    396.73728   -3727.6136 
 7238000    238.98678   -4292.7649   -3883.1498   -4292.7649            0    1639.3708    18.039838    23.468913     22.06112    9340.1349    1069.1447    1465.1835    2383.7844   -1389.1485   -160.06692   -1209.8562   -3659.8408 
 7239000    235.25542   -4296.4515   -3893.2318   -4296.4515            0    1614.3626    18.000857    23.621772    21.939558    9328.9667    2082.6816    1155.7988    1604.6073   -723.77305    245.37123     81.54293   -3673.5923 
 7240000    228.18537   -4282.2637   -3891.1618   -4282.2637            0    2468.6391    17.906461    23.493675    22.033692    9269.3225    2559.3392    1692.4945    3154.0834   -337.65832     708.4631    706.41483   -3557.4424 
 7241000    230.30319   -4309.9707   -3915.2389   -4309.9707            0    3085.5076    18.176463    23.243645    21.921431    9261.5248    1737.6878    3555.6904    3963.1447     875.3002   -416.64752   -527.18643   -3498.4799 
 7242000    230.32378   -4286.7433   -3891.9762   -4286.7433            0    2457.1568    18.185163    23.155872    22.040718    9281.1988    3018.5691     2773.257    1579.6442   -432.31796    114.54859    169.05133   -3559.3834 
 7243000    235.57875   -4274.6091   -3870.8352   -4274.6091            0    1904.4019    17.952358    23.552025    22.170657    9374.0724    3523.6101    2405.6501    -216.0545    -728.3083     -284.719    -70.66124   -3610.4821 
 7244000    240.64548   -4298.2593   -3885.8012   -4298.2593            0    1603.6798      17.7523    23.803469    22.047102    9316.3628    1911.4231    1202.4998    1697.1166    464.48428   -137.42786   -381.26649   -3667.9099 
 7245000    239.43875   -4274.8976   -3864.5078   -4274.8976            0    2273.8087     18.02087    23.526012    21.936344    9300.1149    1259.0427    1608.7003     3953.683   -186.27303   -162.39769    279.40419   -3556.1051 
 7246000    236.52972   -4302.9606   -3897.5568   -4302.9606            0    1744.9686    18.048657    23.075955    22.294003    9285.2294     1349.776    3480.6065    404.52345    263.61788   -347.32906     115.2393   -3661.2609 
 7247000    228.60296   -4286.3255   -3894.5078   -4286.3255            0    2526.0404    18.194472    23.142482    21.862221    9205.4211    2038.6678    2340.5767    3198.8768      371.096    352.75168    600.77097   -3555.3828 
 7248000    251.25285   -4298.3955   -3867.7567   -4298.3955            0    1191.2926    18.036169    23.326104      22.1457    9316.9964    1883.4576    2237.7619   -547.34166    42.557376   -754.08836    424.47953   -3705.8852 
 7249000     230.8088   -4310.8481   -3915.2497   -4310.8481            0    2542.7889    17.794529    23.610437    21.952486    9223.0431    3250.7056    2718.8447    1658.8163   -253.71082    629.77382   -434.95622   -3573.2227 
 7250000    243.32569    -4278.999    -3861.947    -4278.999            0    1101.8222     17.92481      23.6287    22.071047    9347.9699    1275.6422    1758.9816    270.84297    628.49078    235.35315    859.85843    -3711.735 
Loop time of 400.072 on 64 procs for 250000 steps with 864 atoms

Performance: 107.980 ns/day, 0.222 hours/ns, 624.887 timesteps/s
191.4% CPU use with 32 MPI tasks x 2 OpenMP threads

MPI task timing breakdown:
Section |  min time  |  avg time  |  max time  |%varavg| %total
---------------------------------------------------------------
Pair    | 17.684     | 25.421     | 35.124     | 103.6 |  6.35
Bond    | 0.84343    | 1.1203     | 1.7425     |  16.4 |  0.28
Kspace  | 197.41     | 208.65     | 217.66     |  40.5 | 52.15
Neigh   | 1.6108     | 1.6703     | 1.7475     |   2.4 |  0.42
Comm    | 62.54      | 65.567     | 68.671     |  16.9 | 16.39
Output  | 0.71398    | 0.71421    | 0.71569    |   0.0 |  0.18
Modify  | 70.684     | 72.553     | 76.804     |  16.2 | 18.14
Other   |            | 24.37      |            |       |  6.09

Nlocal:        27.0000 ave          39 max          17 min
Histogram: 4 5 3 3 2 5 2 2 4 2
Nghost:        2122.00 ave        2216 max        2035 min
Histogram: 15 1 0 0 0 0 0 0 5 11
Neighs:        6506.47 ave        9314 max        4009 min
Histogram: 3 5 3 4 2 5 1 3 3 3

Total # of neighbors = 208207
Ave neighs/atom = 240.98032
Ave special neighs/atom = 2.0000000
Neighbor list builds = 5281
Dangerous builds = 0

unfix		3
unfix		2
unfix		1

write_data	data.final.${pid} nocoeff
write_data	data.final.0 nocoeff
System init for write_data ...
PPPM initialization ...
  extracting TIP4P info from pair style
  using 12-bit tables for long-range coulomb (../kspace.cpp:340)
  G vector (1/distance) = 0.37138419
  grid = 24 27 25
  stencil order = 5
  estimated absolute RMS force accuracy = 0.0032007414
  estimated relative force accuracy = 9.6389376e-06
  using double precision FFTW3
  3d grid and FFT values/proc = 4410 672
Last active /omp style is kspace_style pppm/tip4p/omp

write_restart   restart.lmp.${pid}
write_restart   restart.lmp.0
System init for write_restart ...
PPPM initialization ...
  extracting TIP4P info from pair style
  using 12-bit tables for long-range coulomb (../kspace.cpp:340)
  G vector (1/distance) = 0.37138419
  grid = 24 27 25
  stencil order = 5
  estimated absolute RMS force accuracy = 0.0032007414
  estimated relative force accuracy = 9.6389376e-06
  using double precision FFTW3
  3d grid and FFT values/proc = 4410 672
Last active /omp style is kspace_style pppm/tip4p/omp
Total wall time: 0:06:40
