LAMMPS (30 Jul 2021)
Processor partition = 1
  using 2 OpenMP thread(s) per MPI task
using multi-threaded neighbor list subroutines
variable        pid world 0 1
variable        phase world IceII IceVI

shell cd ${phase}
shell cd IceVI
include Restart.lmp
echo both
log log.lammps
#include		in.partitions
include		in.temp
variable        temperature equal 60.49
variable	tempDamp equal 100.0
include		in.pressure
variable        pressure equal 8583.9
variable        pressureDamp equal 1000.0 # This is 1 ps
include		in.seed
variable        seed equal 745823

units		real
atom_style	full
read_restart	restart.lmp.${pid}
read_restart	restart.lmp.1
Reading restart file ...
  restart file = 30 Jul 2021, LAMMPS = 30 Jul 2021
  restoring atom style full from restart
  orthogonal box = (0.035355225 0.012086728 0.067881196) to (24.694646 24.717914 22.742119)
  4 by 4 by 2 MPI processor grid
  restoring pair style lj/cut/tip4p/long/omp from restart
  restoring bond style harmonic/omp from restart
  restoring angle style harmonic/omp from restart
  1920 atoms
  1280 bonds
  640 angles
Finding 1-2 1-3 1-4 neighbors ...
  special bond factors lj:    0        0        0       
  special bond factors coul:  0        0        0       
     2 = max # of 1-2 neighbors
     1 = max # of 1-3 neighbors
     1 = max # of 1-4 neighbors
     2 = max # of special neighbors
  special bonds CPU = 0.003 seconds
  read_restart CPU = 0.009 seconds
include 	in.setup
variable	out_freq equal 1000
variable	out_freq2 equal 10000
variable	out_freq3 equal 1000

timestep	2.0

neigh_modify    delay 7 every 1

include		in.tip4p
# This is TIP4P/Ice

# create groups ###
group ox type 2
640 atoms in group ox
group hy type 1
1280 atoms in group hy

# set charges - beside manually ###
set group ox charge -1.1794
Setting atom values ...
  640 settings made for charge
set group hy charge 0.5897
Setting atom values ...
  1280 settings made for charge

# ### TIP3P Potential Parameters ###
pair_style lj/cut/tip4p/long/omp 2 1 1 1 0.1577 8.5
pair_coeff 1 1*2 0.000 0.000
pair_coeff 2 2 0.21084 3.1668
bond_style  harmonic
bond_coeff  1 450 0.9572
angle_style harmonic
angle_coeff 1 55 104.52
kspace_style pppm/tip4p/omp 1.0e-5
pair_modify tail yes

thermo          ${out_freq}
thermo          1000
thermo_style    custom step temp pe etotal epair emol press lx ly lz vol pxx pyy pzz pxy pxz pyz enthalpy

restart 	${out_freq3} restart.lmp.${pid} restart2.lmp.${pid}
restart 	1000 restart.lmp.${pid} restart2.lmp.${pid}
restart 	1000 restart.lmp.1 restart2.lmp.${pid}
restart 	1000 restart.lmp.1 restart2.lmp.1


include         in.dump
dump            myDump all atom ${out_freq2} dump.water.${pid}
dump            myDump all atom 10000 dump.water.${pid}
dump            myDump all atom 10000 dump.water.1
dump            myDump2 all dcd ${out_freq2} dump.dcd
dump            myDump2 all dcd 10000 dump.dcd
dump_modify     myDump append yes
dump_modify     myDump2 append yes


variable natoms 	equal  "count(all)"                        # NUMBER ATOMS
variable H      	equal  "enthalpy/v_natoms"                 # ENTHALPY-per-atom
variable Vol      	equal  "vol/v_natoms"                 # volume-per-atom
fix AVG all 		ave/time ${out_freq} 1 ${out_freq} v_Vol v_H file vol_enthalpy.dat
fix AVG all 		ave/time 1000 1 ${out_freq} v_Vol v_H file vol_enthalpy.dat
fix AVG all 		ave/time 1000 1 1000 v_Vol v_H file vol_enthalpy.dat




fix 		1 all shake 1e-6 200 0 b 1 a 1
Finding SHAKE clusters ...
       0 = # of size 2 clusters
       0 = # of size 3 clusters
       0 = # of size 4 clusters
     640 = # of frozen angles
  find clusters CPU = 0.001 seconds
fix             2 all nph aniso ${pressure} ${pressure} ${pressureDamp}
fix             2 all nph aniso 8583.9 ${pressure} ${pressureDamp}
fix             2 all nph aniso 8583.9 8583.9 ${pressureDamp}
fix             2 all nph aniso 8583.9 8583.9 1000
fix             3 all temp/csvr ${temperature} ${temperature} ${tempDamp} ${seed}
fix             3 all temp/csvr 60.49 ${temperature} ${tempDamp} ${seed}
fix             3 all temp/csvr 60.49 60.49 ${tempDamp} ${seed}
fix             3 all temp/csvr 60.49 60.49 100 ${seed}
fix             3 all temp/csvr 60.49 60.49 100 745823


run             250000
PPPM initialization ...
  extracting TIP4P info from pair style
  using 12-bit tables for long-range coulomb (../kspace.cpp:340)
  G vector (1/distance) = 0.37534919
  grid = 30 30 30
  stencil order = 5
  estimated absolute RMS force accuracy = 0.0031690781
  estimated relative force accuracy = 9.5435845e-06
  using double precision FFTW3
  3d grid and FFT values/proc = 5400 960
Last active /omp style is kspace_style pppm/tip4p/omp
Neighbor list info ...
  update every 1 steps, delay 7 steps, check yes
  max neighbors/atom: 2000, page size: 100000
  master list distance cutoff = 10.8154
  ghost atom cutoff = 10.8154
  binsize = 5.4077, bins = 5 5 5
  1 neighbor lists, perpetual/occasional/extra = 1 0 0
  (1) pair lj/cut/tip4p/long/omp, perpetual
      attributes: half, newton on, omp
      pair build: half/bin/newton/omp
      stencil: half/bin/3d
      bin: standard
Setting up Verlet run ...
  Unit style    : real
  Current step  : 4000000
  Time step     : 2
Per MPI rank memory allocation (min/avg/max) = 10.55 | 10.56 | 10.57 Mbytes
Step Temp PotEng TotEng E_pair E_mol Press Lx Ly Lz Volume Pxx Pyy Pzz Pxy Pxz Pyz Enthalpy 
 4000000    63.794587   -9919.0529   -9675.8388   -9919.0529            0     8253.172    24.659291    24.705828    22.674238    13813.785    8538.6291    7556.4569    8664.4299   -136.75701    15.904988   -127.91017   -8013.1558 
 4001000    59.766325   -9929.8082   -9701.9517   -9929.8082            0    8018.1439    24.655176    24.642135    22.741099    13816.495    7768.3289     8424.211    7861.8917    31.667498    -283.1735   -144.55626   -8086.3004 
 4002000    59.716132   -9931.2495   -9703.5843   -9931.2495            0    7770.7106    24.671346    24.708336    22.685838    13829.013    7544.6713    7735.9705      8031.49   -208.78418    -151.3723    427.25339   -8136.3721 
 4003000    61.327593   -9932.7409   -9698.9321   -9932.7409            0    8173.8893    24.603574    24.701518    22.720649    13808.375     8549.569    7694.5068    8277.5921    164.11177   -37.542986   -227.13849   -8052.8663 
 4004000    61.507614   -9941.8839   -9707.3888   -9941.8839            0    8252.3567    24.629575    24.724169    22.671877    13805.943    8209.9489     7982.004    8565.1172   -464.27254   -451.68249   -59.628163   -8045.8138 
 4005000    60.074144   -9923.5365   -9694.5065   -9923.5365            0    8481.8882    24.580932     24.66461    22.773328    13806.993    8741.2677    8498.8264    8205.5706     261.8222    319.18731    340.26823   -7986.5864 
 4006000    62.019812   -9921.5272   -9685.0794   -9921.5272            0    9076.0596    24.603426     24.70681    22.662394    13775.839    9832.4791    7718.3076    9677.3922   -436.12275   -128.04094   -226.46285   -7861.6402 
 4007000    59.551557   -9933.0931   -9706.0554   -9933.0931            0    8422.9959    24.584023    24.660495    22.762779     13800.03    9219.4098    8485.9149    7563.6631   -280.31834   -151.73885    280.10445   -8010.8492 
 4008000    60.823038   -9935.6072    -9703.722   -9935.6072            0     8805.034    24.695161    24.660294    22.630579    13781.795    7814.6344     9378.104    9222.3635   -248.68202    89.830655    298.03842   -7933.9688 
 4009000    61.394626   -9925.3719   -9691.3075   -9925.3719            0    8060.5353    24.675351    24.610897    22.753548    13817.832    7339.5695      8830.51    8011.5263    161.86353   -385.05166    816.29108   -8066.9573 
 4010000    59.434698   -9920.3802    -9693.788   -9920.3802            0    8803.0448    24.639018    24.708445    22.647504    13787.615    8253.5764    8810.4077    9345.1503    171.50878    266.11857    501.58041   -7923.6874 
 4011000    59.383839   -9925.1569   -9698.7586   -9925.1569            0    8980.0924    24.525065    24.739737    22.713444    13781.238    10156.996    7864.0985    8919.1823   -214.94937   -581.37829    928.12585   -7893.8928 
 4012000    62.595493   -9926.6576    -9688.015   -9926.6576            0    8647.6929    24.577712    24.747022     22.67359    13790.648    9310.0121    7517.4593    9115.6073   -294.01805    21.403392    489.02444   -7948.7698 
 4013000    61.232914    -9922.115   -9688.6672    -9922.115            0    9063.0036    24.606165    24.683056    22.688695      13780.1    9301.9371    9243.2992    8643.7746   -254.54342   -289.81832    324.46449   -7867.2878 
 4014000    59.563361   -9933.9015   -9706.8188   -9933.9015            0    8573.3892    24.641628    24.677249    22.669844    13785.251    8633.7174    8351.6825    8734.7677   -382.57841   -612.13799   -99.102301   -7983.1925 
 4015000    58.927305   -9919.8555   -9695.1977   -9919.8555            0    9117.7555    24.644759    24.671803    22.666933     13782.19    9280.3467     8821.672    9251.2479   -476.85904     1090.984    162.04981    -7862.537 
 4016000    60.567759   -9922.7893   -9691.8774   -9922.7893            0    9214.9616    24.604377    24.627824    22.730751     13773.75    8672.8667    9409.8686    9562.1494   -160.78015   -145.15398   -110.83521   -7840.8126 
 4017000     58.97904   -9920.7268   -9695.8718   -9920.7268            0    8675.4135    24.668726    24.620159    22.722705    13800.589    8136.4639    9005.6976     8884.079    41.086197   -188.21985   -99.157113   -7949.7936 
 4018000    58.503339   -9926.2486   -9703.2072   -9926.2486            0     9230.678    24.601362    24.639899    22.706348    13764.022    9163.2691    9375.8381    9152.9267   -115.42358    784.88268    145.72029   -7850.2949 
 4019000    59.790139   -9927.3778   -9699.4305   -9927.3778            0    8613.7838    24.616942    24.626801    22.753517    13794.013    8875.4523     8687.107    8278.7921    261.04068    131.04721    503.87295   -7966.5824 
 4020000    61.084893   -9933.2925    -9700.409   -9933.2925            0    9011.6696    24.673939    24.615057    22.685151    13777.836     8203.666    9731.4559    9099.8869   -161.82647    128.45748   -121.22999   -7889.6437 
 4021000    59.296523   -9928.1365   -9702.0711   -9928.1365            0    8417.5647    24.626882    24.600043    22.775638    13797.991    8549.3199    9305.4764    7397.8978    742.42372    202.86646   -117.72176   -8008.2085 
 4022000    61.057106   -9925.6923   -9692.9148   -9925.6923            0    8414.7761    24.681137    24.667906    22.674529    13804.978    8151.5897    8352.2603    8740.4783   -160.74656    301.15622   -78.335381   -7998.7557 
 4023000    58.143623    -9932.961    -9711.291    -9932.961            0    8254.0839    24.651426    24.670632    22.710919    13812.014    7934.0404    7907.3465    8920.8648     37.94994    338.76779    300.97522   -8048.6373 
 4024000    64.396659   -9930.4992   -9684.9898   -9930.4992            0    8120.1904    24.629085    24.728451    22.689638    13818.877     8327.975     7189.318    8843.2782   -140.53768    74.777499    143.02966   -8048.4941 
 4025000    59.964485   -9926.5758   -9697.9638   -9926.5758            0    8342.2052    24.642391    24.711172    22.676203    13808.501    8170.2823    8259.9367    8596.3966   -155.17863   -190.72745    169.39221    -8017.987 
 4026000    61.009168    -9927.019   -9694.4242    -9927.019            0    7872.7451    24.700768    24.641119    22.717232    13826.947     7523.092    8228.1945    7866.9487   -615.28423   -790.07112    609.20091   -8106.8707 
 4027000    60.774014   -9932.2144   -9700.5161   -9932.2144            0    7968.3104    24.634664    24.743544    22.674828    13821.416    8362.1176    7419.3585    8123.4553   -602.16823   -518.02205   -363.74032   -8094.3344 
 4028000    58.977059   -9924.1329   -9699.2855   -9924.1329            0    9260.4342    24.613511    24.632914    22.716551    13773.102     9147.263    9646.3717    8987.6679   -575.10312   -390.45604    530.37291   -7839.1739 
 4029000    60.340151   -9930.6245   -9700.5804   -9930.6245            0    9543.6088    24.644929    24.630364    22.669358    13760.608    9445.3525    9446.7952    9738.6788   -157.47628   -261.21893    -325.9246   -7785.3274 
 4030000    59.952002   -9916.3062   -9687.7418   -9916.3062            0    9201.9878    24.661742    24.607938    22.684468    13766.628    8799.5605    9902.6527    8903.7503   -503.05595    309.12401   -233.15263    -7840.239 
 4031000    62.580734   -9926.7627   -9688.1764   -9926.7627            0    8638.1481    24.595744    24.664218    22.752855    13802.673    8704.3594    8760.7503    8449.3344   -460.85396    -340.8058    850.28004    -7949.336 
 4032000    62.111659   -9927.6631   -9690.8651   -9927.6631            0    8628.0893    24.612902    24.761373    22.632103    13793.118    9019.9826    7291.6074    9572.6779    -359.8609   -539.09272    66.494913   -7955.2518 
 4033000    62.432686   -9932.2141   -9694.1922   -9932.2141            0    8595.5325    24.563234     24.65913      22.7733     13793.97    9171.3146    8804.0242    7811.2587   -663.33381    211.32424    -12.69416   -7965.0212 
 4034000    58.905755   -9932.5303   -9707.9547   -9932.5303            0    8636.9222    24.680761    24.678042    22.637063     13787.62    8287.1508    8284.7185    9338.8972    -313.9726    329.89134    153.82347    -7971.257 
 4035000    58.334397   -9932.0249   -9709.6275   -9932.0249            0    8649.6755    24.650221    24.647445    22.695329    13788.887     8937.326    8500.7891    8510.9116    -429.2156   -267.44219    122.66811   -7970.2057 
 4036000    59.480804   -9924.2703   -9697.5024   -9924.2703            0    8421.1646    24.655869    24.631761    22.709728    13792.015    9203.2717    8250.3454    7809.8766    243.42264   -113.92451   -415.38988   -8003.6492 
 4037000    60.461234   -9929.5773   -9699.0715   -9929.5773            0    8076.9648    24.642477    24.638335    22.753261    13814.634    7765.7088     8373.807    8091.3786    421.50315    -110.4593   -37.380642   -8071.7871 
 4038000    61.148086   -9923.0372   -9689.9128   -9923.0372            0     8991.295    24.630329    24.710656     22.64394    13781.817    9425.8288     8379.514    9168.5421   -146.42038   -102.19849     504.7472   -7882.7195 
 4039000    60.275799   -9931.7827   -9701.9838   -9931.7827            0     9219.695    24.626202    24.643861    22.677254    13762.478     8921.044    9509.6285    9228.4126   -474.96449   -141.81757    300.20597   -7851.4838 
 4040000    59.473529   -9927.3326   -9700.5924   -9927.3326            0    8946.0223    24.595646    24.656617    22.716724    13776.453    9612.4113    8493.3323    8732.3232   -335.63377    44.778262   -243.32405   -7903.1984 
 4041000    59.639086   -9935.4663   -9708.0949   -9935.4663            0    9107.5727    24.574407    24.674479    22.699729    13764.223    9421.0105    9167.1643    8734.5433   -366.62142   -201.38864    431.08665   -7879.8674 
 4042000    62.690561   -9940.8453   -9701.8403   -9940.8453            0    8226.0589     24.62185    24.671876    22.715696    13799.041     8171.691    8733.0822    7773.4035   -578.86964    106.70368   -56.475546   -8046.3883 
 4043000    60.862504   -9925.6948   -9693.6591   -9925.6948            0    8623.1758    24.614111    24.688258    22.706847    13798.486    8688.5695    8521.5161    8659.4418    228.01954   -723.46528    760.55469   -7958.3592 
 4044000    60.042065   -9926.2101   -9697.3024   -9926.2101            0    8692.4366    24.583613    24.698654    22.714283    13791.707    9333.5322    8460.4839    8283.2937    229.34081    2.2534843    -469.4223   -7948.9239 
 4045000    60.543443   -9937.9943   -9707.1751   -9937.9943            0    9625.9954    24.567293    24.692868    22.663729    13748.655    10535.142    8409.4007    9933.4441   -145.22617   -148.43086   -185.71357   -7777.0665 
 4046000    64.190599    -9931.061   -9686.3371    -9931.061            0    8699.4607    24.625992    24.687424    22.673124    13784.178    8831.5254    9160.9224    8105.9343    83.200763    170.47663    150.04222    -7937.501 
 4047000    59.952339   -9929.4394   -9700.8738   -9929.4394            0    9040.4196    24.617709    24.618637    22.721687    13770.579    8538.3257    9759.1232      8823.81   -173.14194    48.603602    231.28847   -7885.2884 
 4048000    60.404343   -9931.5828   -9701.2939   -9931.5828            0    8601.4138     24.67655    24.670903    22.655515    13792.514    8735.4524    8336.8933    8731.8957   -324.23343   -292.67224   -167.34321   -7971.1223 
 4049000    59.299048   -9921.6204   -9695.5454   -9921.6204            0     8122.134     24.61953    24.702586    22.713946    13813.851    8495.0623    7796.8985    8074.4411    363.37919   -852.91236    104.48734   -8059.2534 
 4050000    61.198014   -9925.8901   -9692.5754   -9925.8901            0    8042.7408    24.652255    24.657895     22.74132    13823.828    8234.6186    7888.6841    8004.9198    -474.3949   -152.69764     412.7307   -8071.1078 
 4051000    60.216286   -9930.0722   -9700.5003   -9930.0722            0    7965.5123    24.611777    24.728603     22.70476    13818.454    7779.4376    8151.6686    7965.4308   -292.25959   -255.91818    -601.6857   -8095.2267 
 4052000    61.102948   -9933.0229   -9700.0706   -9933.0229            0    8554.8849     24.61459    24.668885    22.730163    13802.084    8890.0417    8999.9747    7774.6383    -249.6075   -638.68477    1.5226529   -7978.0644 
 4053000    59.471402    -9925.586   -9698.8539    -9925.586            0    8536.8935    24.654352    24.657739    22.699853    13799.708    8281.9404    8749.1005    8579.6398   -549.23008   -360.13218   -395.31761    -7980.765 
 4054000    61.368009   -9931.0638   -9697.1009   -9931.0638            0    8160.2419    24.683288    24.673526    22.676293    13810.401    8007.9162    7973.3003    8499.5092   -48.750092    -441.4823    106.12616   -8053.5423 
 4055000    61.646598   -9930.6289   -9695.6039   -9930.6289            0    7962.5756    24.697333    24.633675    22.726902    13826.731    7459.5415    8215.5539    8212.6314    31.480179   -370.76182    491.31658    -8089.961 
 4056000    61.274475    -9927.405   -9693.7988    -9927.405            0    8423.0208    24.662197    24.693616    22.671966      13807.2    8604.2985    8325.9807    8338.7832   -358.97388   -411.72912    249.59884   -7997.7068 
 4057000    60.601906      -9928.5   -9697.4579      -9928.5            0    8656.0699    24.630725    24.591239    22.783977    13800.256    8741.2198     9002.285    8224.7049    242.19805    39.627968    89.713551   -7955.3149 
 4058000    58.981174    -9926.488   -9701.6249    -9926.488            0    8740.0007    24.726897    24.638486    22.634922    13789.948    8066.8265    8481.4834    9671.6923   -626.55392   -628.18806    168.61535   -7943.9037 
 4059000    58.397236   -9922.6069     -9699.97   -9922.6069            0    8454.7872    24.630636    24.687846    22.696901    13801.471    9381.8264     7614.428    8368.1072     43.20691    119.95083   -297.38281   -7998.1879 
 4060000    60.285888   -9939.8717   -9710.0345   -9939.8717            0    8248.7223    24.630625    24.664503    22.713573    13798.544    8525.7267    8031.8408    8188.5995    40.754617   -426.88606     -610.628   -8050.0813 
 4061000    58.475987   -9927.8801    -9704.943   -9927.8801            0    8310.3492    24.576787    24.680822     22.77192    13812.884    8427.5122     8430.326    8073.2093   -431.30364   -491.22308    366.71832   -8030.8501 
 4062000    60.988024   -9927.8828   -9695.3687   -9927.8828            0    9056.1929    24.635093    24.675819    22.651891    13769.883    9728.4414    8680.7738    8759.3635   -209.47554   -294.81295    91.740311   -7876.7075 
 4063000    62.194802   -9923.2573   -9686.1424   -9923.2573            0    9049.7629     24.64505     24.66999    22.664188    13779.671    9522.0892     8277.849    9349.3505   -952.34939    54.411471    388.43557   -7867.4807 
 4064000    59.935874   -9925.1059    -9696.603   -9925.1059            0    8805.2438    24.606774     24.69798    22.685259    13786.685    9289.8021     8084.214    9041.7154   -92.345647   -157.33255    966.45455   -7926.1796 
 4065000     58.74185   -9928.4846   -9704.5339   -9928.4846            0    9290.5301     24.55864    24.662534    22.731466    13767.956     9269.385    9707.6768    8894.5285   -108.42941   -19.749143    572.38737   -7839.0743 
 4066000    63.203323   -9923.7293   -9682.7694   -9923.7293            0    8741.0309    24.625224     24.66804    22.699607    13789.013     8799.636    8865.6694    8557.7874    100.42607    919.72608   -245.13482   -7924.9602 
 4067000    58.629472   -9927.6706   -9704.1483   -9927.6706            0    9135.7468    24.624301    24.573512    22.753037    13767.989    8852.3205    9730.5941    8824.3258   -386.22328   -393.80558    423.37646   -7869.7635 
 4068000    60.504885   -9936.6605   -9705.9882   -9936.6605            0    8584.6086     24.63712    24.700943    22.664414    13792.658    8344.5212    8347.4363    9061.8683   -227.07101   -477.31982   -321.18212    -7979.179 
 4069000    60.088746   -9938.5292   -9709.4435   -9938.5292            0    8307.2827    24.627892    24.676624    22.717569    13806.222    8560.2938    7814.3762    8547.1781   -397.91822    61.044739   -31.064852   -8036.7756 
 4070000    57.317186   -9922.2508   -9703.7315   -9922.2508            0    9004.7084    24.618419    24.658184    22.700913    13780.487    9351.8343    9046.7026    8615.5883    552.75999   -138.07928    49.959725   -7894.0168 
 4071000    61.194741   -9931.2129   -9697.9106   -9931.2129            0    8747.5928    24.626516    24.635934    22.729512    13789.932    8303.2323     9106.162    8833.3842    181.96187   -593.43917    217.89942   -7938.6647 
 4072000    60.190162   -9922.8444   -9693.3721   -9922.8444            0    8716.5977    24.659001    24.667522    22.673331    13791.653    8594.9411    8381.3547    9173.4974   -33.255338  -0.72049426   -63.356362   -7940.1408 
 4073000    56.041829   -9931.5423   -9717.8853   -9931.5423            0    8619.8975    24.686446    24.682272    22.646854    13799.127    8374.6109    8026.2506    9458.8312   -189.77342    -715.7453   -166.38069   -7983.1644 
 4074000    62.519291   -9931.1414   -9692.7893   -9931.1414            0    8937.8279    24.605036    24.630575    22.745984     13784.89    9389.9321    8865.8513    8557.7003   -509.99132   -204.84723    733.70635    -7895.942 
 4075000    61.245357   -9921.5241   -9688.0288   -9921.5241            0    8793.4649    24.631278    24.681527    22.673151     13783.86    9298.1063    8588.6684    8493.6202   -344.16538    353.86802    21.922855   -7920.3361 
 4076000     60.42698   -9929.6613   -9699.2861   -9929.6613            0    8305.1878    24.619975    24.636211    22.758549    13804.036    8599.8925    8352.5371    7963.1339    -338.4031    -544.2386    131.18388   -8027.3047 
 4077000    58.734165   -9934.6608   -9710.7394   -9934.6608            0    7887.9614    24.712699    24.704745    22.634179     13818.64    7170.0456    8146.1011    8347.7376   -478.36036   -402.71826   -159.16351    -8121.073 
 4078000    60.456567   -9922.2885   -9691.8005   -9922.2885            0    8340.8954    24.629444    24.696155     22.70746    13811.871    8444.1851    8089.4508    8489.0504   -287.50718   -293.96499   -209.22886   -8011.6775 
 4079000    61.393646   -9937.4199   -9703.3593   -9937.4199            0    8161.5964    24.582332     24.71048    22.731334    13807.949    9303.5967    7312.7104     7868.482    136.21083   -412.48599    -316.1939   -8059.8196 
 4080000    60.025339   -9930.2607   -9701.4167   -9930.2607            0    8264.5592    24.614981    24.756636    22.670292    13814.916    8641.8732    7329.8287    8821.9757    -102.8195    308.68691    309.62736   -8036.3032 
 4081000    61.662043   -9920.7971   -9685.7132   -9920.7971            0    9224.9191     24.55725    24.683417    22.714061    13768.283    9644.1421    9132.9141     8897.701   -251.25457   -295.88027    279.37958   -7833.3837 
 4082000    59.254553   -9924.1676   -9698.2623   -9924.1676            0    8791.1624     24.64621    24.681324    22.652547     13779.57    8865.7138    8735.6936    8772.0799   -93.954686    1004.9324    48.575735   -7931.5824 
 4083000    58.271374    -9929.882   -9707.7249    -9929.882            0    9283.9906     24.60915    24.664918    22.677697    13764.969    9370.6903    8744.9726    9736.3089   -332.00983   -214.92098    206.58563   -7843.9827 
 4084000    60.498409   -9920.4632   -9689.8157   -9920.4632            0    8676.6829    24.659714    24.660749    22.683809    13794.637    8855.2972    9030.1922    8144.5593      296.725   -161.82632   -538.39465   -7944.2351 
 4085000    59.754073   -9931.5146   -9703.7048   -9931.5146            0    8453.5969    24.719379    24.592288    22.695484    13796.723    7985.2908    8884.5572    8490.9428   -427.47446    555.84652   -113.64263   -8002.7477 
 4086000      60.9267   -9931.5181   -9699.2377   -9931.5181            0    8059.8665    24.695986    24.650154    22.719452     13830.69    7510.5612    8341.1925    8327.8458   -186.41514    57.368747    347.17255   -8073.5108 
 4087000    60.830168    -9930.209   -9698.2967    -9930.209            0    8816.6135    24.588003    24.722939    22.663865    13777.085    9435.3753     8540.926    8473.5393   -378.83398    15.370549   -50.283155   -7926.8217 
 4088000    61.340819    -9925.675   -9691.8158    -9925.675            0    8326.8425     24.58249    24.692564    22.763618    13817.623    8924.8456    8369.9341    7685.7478    358.83163      106.202   -186.66755   -8013.8249 
 4089000     57.37067   -9928.0864   -9709.3632   -9928.0864            0    8840.6306     24.64157    24.692126    22.632982      13771.1    8631.0507    8746.3544    9144.4865    107.79167   -269.99519    483.13514   -7933.8342 
 4090000    61.088592   -9927.6731   -9694.7756   -9927.6731            0    8953.0262    24.648042     24.67912    22.659597    13783.651    8941.7466    8836.4325    9080.8995    236.10205     190.0337    467.13639   -7895.0345 
 4091000    61.029053   -9942.0209   -9709.3503   -9942.0209            0     8493.689    24.609315    24.604336    22.774637    13789.948    9054.7816    9237.3797    7188.9056    296.19403   -430.36872   -89.235314   -8001.1654 
 4092000    60.815314   -9932.9314   -9701.0757   -9932.9314            0    8306.1054    24.657292    24.694031    22.678476    13808.651    8526.0437    8039.7341    8352.5382   -346.24843    25.271625   -457.02445   -8028.3506 
 4093000    60.370188   -9926.0071   -9695.8484   -9926.0071            0    8834.2739    24.599852    24.617608    22.768771    13788.529    9011.2448    9073.6615    8417.9154    26.191742     110.9679    476.09736   -7919.3506 
 4094000    60.173478   -9929.5302   -9700.1214   -9929.5302            0    8830.6353    24.649875    24.693655    22.653239    13788.925    8816.0862    8702.9527    8972.8668    116.77758    667.68366    388.07063   -7924.3043 
 4095000    58.756023   -9939.6523   -9715.6475   -9939.6523            0    8135.1365    24.571397    24.710445    22.759117    13818.657    8591.7937    7610.8993    8202.7165   -537.96792    459.54428     -159.052   -8076.1658 
 4096000    60.544663    -9928.246   -9697.4221    -9928.246            0    8666.4195    24.662225    24.661354    22.691825    13801.255    8271.8532    8650.3841     9077.021   -345.80707   -594.83737    597.81529   -7953.0699 
 4097000    61.461063   -9924.1597   -9689.8421   -9924.1597            0     8945.951    24.610672    24.685153    22.681944    13779.693     9280.128    8563.8879     8993.837   -279.30091    498.15259    219.99606   -7892.0397 
 4098000    59.860519   -9940.0227   -9711.8071   -9940.0227            0    8481.4744    24.640508    24.635622    22.730574    13798.236    8588.0376    8373.6493    8482.7364    98.349664   -195.50113   -60.247471   -8005.0535 
 4099000    59.817634   -9919.2813   -9691.2292   -9919.2813            0    8892.7212     24.64727    24.666834     22.66413    13779.113    8520.5114    9047.4564    9110.1958   -160.55262   -460.46611    98.613934   -7904.1992 
 4100000    59.869973   -9936.7185   -9708.4669   -9936.7185            0    8482.0855    24.616792    24.689743    22.704517    13799.403     9290.066    7815.5634    8340.6269     187.5641   -407.93298   -341.88617    -8001.446 
 4101000    58.922826   -9929.3461   -9704.7054   -9929.3461            0    8308.5994    24.547033    24.717419     22.75007    13803.362     8707.951    7899.5188    8318.3285   -104.10044    538.91871   -587.54811   -8032.1189 
 4102000    60.960413   -9925.8171   -9693.4082   -9925.8171            0    8644.5701     24.70563    24.662602    22.628857    13787.878    8296.7794    8836.6668    8800.2641   -224.47811   -696.54331    16.744605   -7955.1403 
 4103000    61.377505   -9930.0027   -9696.0036   -9930.0027            0    8724.0899     24.61434    24.686724    22.687417     13785.95     9560.034    7891.2421    8720.9937   -372.92093   -310.79596    400.94984    -7941.991 
 4104000    60.211283   -9926.8749   -9697.3221   -9926.8749            0    9143.4212    24.612103    24.660006    22.692685    13772.975    9167.0887    9195.0821     9068.093   -370.59924    -546.9951    352.15346   -7860.7313 
 4105000    60.826338   -9925.7298   -9693.8321   -9925.7298            0    8850.2488    24.635563    24.666583    22.683683    13784.311      8611.65    8719.7824    9219.3141   -227.43031   -660.49115    -200.5498   -7914.6662 
 4106000    60.246941   -9934.3163   -9704.6275   -9934.3163            0    8632.9367     24.63626    24.665496    22.692392    13789.385    8776.3873    8097.0623    9025.3606    -379.9401    196.34669    656.54884   -7968.5091 
 4107000    62.477062   -9936.7121    -9698.521   -9936.7121            0    8720.1756    24.636695    24.652387    22.699043    13786.339    8695.2742    8845.4514    8619.8012   -227.67103   -43.727669    97.463592   -7945.2459 
 4108000    61.659405   -9936.6819   -9701.6081   -9936.6819            0    8247.3934    24.630627    24.684691    22.707059    13805.878    8394.3184    8533.7136     7814.148   -186.21994    -329.1477   -86.140959   -8041.0402 
 4109000    59.358129   -9927.3303     -9701.03   -9927.3303            0    8375.9008    24.672687    24.728804    22.614853    13797.911    8470.4298    7636.4422    9020.8304    351.08297   -45.690399    795.25088   -8015.5612 
 4110000    60.535309   -9934.5047   -9703.7165   -9934.5047            0    8244.3998    24.676886    24.655574    22.677857    13797.725    8071.7053    8193.4101     8468.084   -216.00852    7.4075985    196.21091   -8044.7316 
 4111000    60.428484   -9927.7588   -9697.3778   -9927.7588            0    8153.2566    24.671837    24.659844    22.691088    13805.341    7857.4401    8423.2693    8179.0603   -214.52292    362.42871    431.08191   -8055.8277 
 4112000    62.334898   -9933.8515   -9696.2024   -9933.8515            0    8373.2916    24.653863    24.624803    22.729184    13798.809    9281.8817    7796.5782    8041.4148    71.104916   -50.345936    181.40255   -8011.1489 
 4113000    61.088715   -9931.8687   -9698.9706   -9931.8687            0    7973.0069    24.737093    24.641847    22.664413    13815.493    6878.1511    8544.5197      8496.35   -79.956621    27.867155    807.18847    -8092.531 
 4114000    62.422001   -9923.3001   -9685.3189   -9923.3001            0    8331.5758    24.674373    24.640185    22.710092    13807.307    7976.2906    8726.5959    8291.8409    179.21671   -114.78155   -41.403471   -8007.6278 
 4115000    61.855597   -9922.0623   -9686.2405   -9922.0623            0    8950.4803    24.676477    24.638979    22.668931    13782.783    8023.3229    9369.8648    9458.2533   -7.8878363     303.1581    454.72796   -7887.1246 
 4116000    58.257567   -9926.4364    -9704.332   -9926.4364            0    8814.5177     24.58081    24.619581    22.779829    13785.651    9385.5713    8769.3556    8288.6262    13.275049    418.28087    338.68449   -7932.1768 
 4117000    58.360929   -9935.0262   -9712.5277   -9935.0262            0    8512.8541    24.593769    24.685272    22.718796     13792.67    9288.2426    7898.5434    8351.7763   -450.30274   -166.71333    33.721066   -8000.1506 
 4118000    57.682246   -9932.3546   -9712.4436   -9932.3546            0    8471.0136     24.67065    24.681343    22.655229    13794.878    7883.4767    8650.4971    8879.0669   -76.153044    -392.1586    709.59233     -8008.21 
 4119000    60.101195   -9927.5685   -9698.4353   -9927.5685            0      8637.01    24.641589    24.608516    22.756586    13799.433    8272.9015    9267.1253    8371.0031    105.58567    -383.1952   -566.31831   -7960.2321 
 4120000    59.612342   -9930.7871   -9703.5177   -9930.7871            0    8253.7152    24.652993     24.68594     22.67519    13799.719    7340.1278    8695.7218     8725.296   -224.05054   -92.339596    90.473129   -8042.4183 
 4121000    61.317137   -9935.8627   -9702.0938   -9935.8627            0    8583.2872    24.566459     24.74087    22.690185    13790.994    9199.6685    8035.9602    8514.2328   -107.67364    41.060198    341.55141   -7975.7587 
 4122000     63.36863   -9934.8412   -9693.2511   -9934.8412            0    8334.0767    24.577003      24.7088      22.7244    13799.807    9072.3763    7441.1077    8488.7461    377.95249   -668.94312    506.80702    -8015.968 
 4123000    59.910083   -9936.5012   -9708.0966   -9936.5012            0    8314.4195    24.640396    24.671565    22.716486    13809.741    8554.0231    8249.6561    8139.5793    112.10909     50.40662    428.85461    -8033.565 
 4124000    61.387775   -9922.6151   -9688.5769   -9922.6151            0    8904.2325    24.701804    24.636837    22.656918    13788.418    7538.2298    9674.5163    9499.9515   -450.44603   -526.69793   -532.75959   -7898.0253 
 4125000    61.344479   -9924.6266   -9690.7535   -9924.6266            0    8507.5966    24.657231    24.643108    22.708837    13798.589    8454.0856    8662.8719    8405.8323   -477.31949   -54.440989    234.21161   -7978.6996 
 4126000    59.855797   -9928.4271   -9700.2295   -9928.4271            0    8424.9775    24.614258    24.667405    22.726698    13798.966    9126.2093    7851.3212    8297.4021    24.692372    338.48311    5.3428266   -8004.7552 
 4127000    60.318067   -9926.3657   -9696.4057   -9926.3657            0    8443.3256    24.611671    24.673864    22.727536    13801.638    9076.3688     8006.616    8246.9918   -382.22822   -434.18038    312.01535   -7996.9101 
 4128000    60.872902   -9938.3867   -9706.3115   -9938.3867            0    7864.4191    24.685398    24.727114    22.644731    13822.313     7722.545    7242.3609    8628.3512   -37.173948    227.74406   -356.42886   -8120.9684 
 4129000    60.772521   -9929.6523   -9697.9598   -9929.6523            0    8364.9976    24.732856     24.58395    22.711169    13809.101    7718.4849    8910.8353    8465.6728   -131.96999    -642.9279    565.76724   -8013.3197 
 4130000    58.721832   -9930.5908   -9706.7164   -9930.5908            0    8676.6024    24.650548    24.700663    22.645497      13788.5    8458.3763    8393.5833    9177.8475   -177.88745     239.9656    123.88243   -7961.9286 
 4131000    60.277752   -9939.5391   -9709.7328   -9939.5391            0    7984.5912    24.633144    24.750544    22.653366    13811.388    8250.8253    7539.9545    8162.9936   -252.78281   -329.81437    24.424352   -8101.4371 
 4132000    61.419097   -9934.2927   -9700.1351   -9934.2927            0    8342.4963    24.608566    24.637618    22.760348    13799.518    8305.7976    9039.5428    7682.1484   -462.82119    491.50862   -138.65007   -8021.1925 
 4133000    60.292919    -9930.718   -9700.8539    -9930.718            0    9180.0376     24.68638    24.612681    22.666264    13771.977    8426.1976     9201.875    9912.0403   -142.04014   -327.73083   -152.83462   -7857.0419 
 4134000    59.022699   -9931.3305   -9706.3091   -9931.3305            0    8802.5664    24.669589    24.606771    22.703066    13781.645    8371.9881     9561.207    8474.5041   -570.52954    261.47474   -508.51067   -7937.0711 
 4135000    59.935268   -9941.6714   -9713.1708   -9941.6714            0    8330.8193    24.610295    24.658523    22.743036    13801.692    8481.5024    8519.0792    7991.8763   -281.19816   -222.13529   -264.27061   -8036.3141 
 4136000    60.662438    -9930.732   -9699.4591    -9930.732            0    7689.4297    24.587264    24.741549     22.74311    13835.248    8669.7417    7408.8458    6989.7017    -107.6265    133.94826     330.4916   -8147.9406 
 4137000    61.154572   -9942.6193   -9709.4702   -9942.6193            0    7974.1249    24.670017    24.714428    22.681709    13829.159    7793.1809    7547.0583    8582.1356    -139.0809    296.99276    -19.85636    -8101.216 
 4138000    60.198087   -9932.4174   -9702.9148   -9932.4174            0    7761.3038    24.670484    24.651318    22.735435    13826.781    7093.1852    8160.5154    8030.2107    100.42627   -663.23529    359.63159   -8137.8524 
 4139000     58.87835    -9934.359   -9709.8879    -9934.359            0    8198.6326    24.635119    24.709268    22.690295     13811.94    8522.4185    7351.7632    8721.7161    89.683745   -45.533076    359.77405   -8058.4129 
 4140000     62.16402   -9936.5791   -9699.5815   -9936.5791            0    8506.9907    24.647957    24.628634    22.734491    13800.871    8092.0905    9375.7694    8053.1121   -2.9083011    496.13993    244.85449   -7987.3663 
 4141000    60.327513   -9935.9868   -9705.9908   -9935.9868            0    8815.5603    24.639095    24.684213    22.646942    13773.795    8728.0645    8516.0859    9202.5304   -170.77486     138.9896   -618.99646   -7935.1504 
 4142000    59.999284   -9935.3379   -9706.5933   -9935.3379            0    8785.1634    24.552375    24.675995    22.747457    13781.644    9982.7594    8460.1799    7912.5508   -55.456817     433.9459    316.87528   -7940.8533 
 4143000    60.183911   -9927.9363   -9698.4878   -9927.9363            0    8655.2379     24.65342    24.644122    22.705035    13794.714    8234.4235    8976.6488    8754.6414    49.363946    -130.8255   -174.68603   -7957.2118 
 4144000     59.71669   -9928.0461   -9700.3788   -9928.0461            0    8495.0126    24.671061    24.588776    22.747334    13799.242    7508.7107    9559.9725    8416.3545    296.27903    138.13161   -278.87284   -7990.7763 
 4145000    62.606106   -9928.8387   -9690.1556   -9928.8387            0    7999.8179    24.661897    24.668792    22.720902    13822.925    7829.5015    8013.1943    8156.7579    32.409718   -505.89606    400.76521   -8077.4469 
 4146000     59.26531   -9928.2556   -9702.3092   -9928.2556            0    8469.6792    24.609403    24.718414    22.680007    13796.371    8837.3951    7702.5527    8869.0899   -201.20206   -145.97067   -289.42771   -7998.1596 
 4147000    60.439502   -9934.5056   -9704.0826   -9934.5056            0    8286.3615    24.618566    24.672567    22.724266    13802.793     8544.348    8028.6424    8286.0941   -138.84348    77.573229    195.72918   -8036.0416 
 4148000    57.895485   -9928.7997   -9708.0758   -9928.7997            0    8642.4474    24.658996    24.615697    22.730838    13797.582    8391.4599    9258.4266    8277.4557    -780.6555    -1008.815    296.26644   -7969.0116 
 4149000    60.289737   -9926.0292   -9696.1772   -9926.0292            0    8928.2045    24.615953    24.670231    22.691966    13780.405    9098.0211    8838.9817    8847.6108   -1183.6052   -246.00345    276.41533   -7901.8486 
 4150000    59.832888   -9931.6139   -9703.5036   -9931.6139            0    9130.7995    24.607473    24.663037    22.689614    13770.214    9469.2289    9272.3751    8650.7944    139.64738    398.41081   -53.522439   -7869.8159 
 4151000    62.049521   -9934.0121    -9697.451   -9934.0121            0    9040.6041    24.660762    24.633419    22.672623    13773.139    8737.7944     8974.925     9409.093   -95.598673   -498.48811    404.03986    -7881.491 
 4152000    59.587635   -9932.5399   -9705.3647   -9932.5399            0    8357.9569    24.651758    24.662436    22.696692    13798.962    8366.8373    8604.8693    8102.1641    222.92597    62.738218    341.63851   -8023.3784 
 4153000    63.892934   -9931.1862   -9687.5972   -9931.1862            0    9675.6054    24.573495    24.630871    22.706029    13743.201    9776.8521    9491.1897    9758.7745    54.977584   -431.22556    20.255577   -7748.3109 
 4154000    58.036535   -9930.0399   -9708.7782   -9930.0399            0    8416.3659     24.65182      24.6553    22.697636    13795.579     8459.801    8829.1512    7960.1455   -270.93503   -588.24582    174.78686   -8015.4528 
 4155000    59.994085   -9930.8195   -9702.0947   -9930.8195            0    8235.4627    24.656612    24.685082    22.691485    13811.183    8162.2117    8408.2185    8135.9578   -340.50998   -506.52057    639.35363   -8043.2918 
 4156000     56.33844    -9937.329   -9722.5412    -9937.329            0    8652.2719    24.655607    24.612329    22.721055    13787.861    8416.3184    8750.1971    8790.3003   -201.01027   -7.5486525   -275.50024   -7982.7266 
 4157000    58.404208   -9926.6932   -9704.0297   -9926.6932            0    8124.4958      24.6464    24.718338    22.667654    13809.543     8179.763     7741.689    8452.0353   -57.562748    170.23758    499.81296   -8067.7723 
 4158000    62.315911   -9935.0409   -9697.4642   -9935.0409            0    8786.6302    24.639928    24.630057    22.705646    13779.666    8100.8403    9436.5483    8822.5019    284.90625   -220.78576    503.49428   -7931.6828 
 4159000    60.904325   -9927.4059   -9695.2108   -9927.4059            0     8399.382    24.598619    24.728473    22.697649    13806.669    8401.8189    8461.5601    8334.7668   -6.1775755   -220.75754    756.99544    -8003.944 
 4160000    59.709432   -9931.3229   -9703.6833   -9931.3229            0    8100.7291    24.600887    24.754087    22.687662    13816.162    8484.4246    7451.6389    8366.1238    309.33489    92.904047    100.99389   -8071.4305 
 4161000    58.207694   -9934.7888   -9712.8745   -9934.7888            0    7979.5284    24.643736    24.704656    22.685283    13811.141    7837.4222    7860.0686    8241.0945   -258.11355   -150.07709    261.97889   -8105.6273 
 4162000    60.853037   -9935.1203   -9703.1207   -9935.1203            0    8327.6729    24.684127    24.692771    22.646562    13803.521    8035.5748    8076.1056    8871.3382   -29.083337   -179.10003    310.12566   -8026.6753 
 4163000    60.154113   -9925.5489    -9696.214   -9925.5489            0    8614.7071    24.633053     24.65514     22.71311    13794.384    8480.9309    8766.2607    8596.9297   -1.8497871   0.28778308   -215.44545   -7963.1335 
 4164000     59.65631   -9934.1346   -9706.6975   -9934.1346            0    8509.1832    24.531615    24.714735    22.768802    13804.551    9537.3299    8056.3063    7933.9134   -43.735498    24.833391    722.08543   -7993.5844 
 4165000    61.517992   -9935.2778   -9700.7432   -9935.2778            0    8323.3886    24.653879    24.702392    22.656023     13797.74     7891.208     8624.369    8454.5889   -479.10225   -14.373914    478.12764   -8025.8619 
 4166000    60.010176   -9919.9698   -9691.1836   -9919.9698            0    8965.3536    24.550855    24.661727    22.769246    13786.015    9854.3246    8443.0882    8598.6481    310.73341    349.44057    397.99677   -7888.6554 
 4167000    56.401979    -9925.976   -9710.9459    -9925.976            0    8967.8845    24.636108    24.715259    22.633914    13781.514    8905.9684    8148.5159    9849.1692   -136.24679    245.07477    596.85979   -7908.4976 
 4168000     62.49097   -9925.3357   -9687.0916   -9925.3357            0    8754.7867    24.591497    24.658696    22.745539    13792.764    8810.8454    9240.2481    8213.2667   -248.80001    60.836464    482.62126   -7926.0372 
 4169000    59.680421   -9924.1624   -9696.6334   -9924.1624            0    8908.5754    24.606567    24.728068    22.653576    13784.087    9005.4611    7886.0631    9834.2021   -460.37802   -104.76139     40.25158   -7905.7713 
 4170000    61.114278   -9935.7617   -9702.7662   -9935.7617            0    8912.8649    24.581674    24.678543    22.726574    13786.846    9015.0143    9185.0693    8538.5109   -212.49905    245.66347    185.09727   -7910.6831 
 4171000    59.732134   -9928.6614   -9700.9352   -9928.6614            0    9007.0978    24.611999     24.68795    22.672051    13775.987    8446.5492    9371.1304    9203.6138   -376.26839   -102.44107    379.45129   -7891.3315 
 4172000    60.295583   -9931.5455   -9701.6713   -9931.5455            0    8956.6136    24.639837    24.648672    22.702217    13787.947    9147.7429    8995.0828    8727.0151   -495.80063   -160.47638    54.160974   -7900.6479 
 4173000    59.094245   -9923.4727   -9698.1785   -9923.4727            0    8983.6516    24.591139    24.653097    22.729507    13779.713    9514.3109    9080.6097    8356.0341   -252.04384    -674.5402    1036.8509   -7892.7971 
 4174000     60.16026   -9928.8201   -9699.4618   -9928.8201            0    9496.4599    24.648044    24.678247    22.607968    13751.761    8739.0791     9532.474    10217.826    -731.2964   -628.32788     174.1727   -7794.8962 
 4175000    60.020103   -9929.7674   -9700.9434   -9929.7674            0    8510.3727    24.584868    24.684769    22.733563    13796.358    8670.4103    8890.2242    7970.4835   -157.16574    133.70969    804.66086   -7988.6077 
 4176000    59.245619   -9923.9313     -9698.06   -9923.9313            0    9071.5066    24.630871    24.660981    22.669423    13769.893    9464.8109    8597.6422    9152.0669     62.47137    256.91107   -417.68417   -7876.3221 
 4177000    60.180943   -9925.7021   -9696.2649   -9925.7021            0    9101.9976    24.643732    24.669031    22.663978    13778.271    8826.2337    9120.0748    9359.6844    -35.86342   -409.86664    308.20045   -7867.2918 
 4178000    60.120582   -9936.7268   -9707.5198   -9936.7268            0    7723.5631    24.672719    24.686936    22.709853    13832.431     7594.561    7710.4249    7865.7033   -69.876814   -320.98791   -773.03457   -8149.4313 
 4179000    60.486076   -9936.6529   -9706.0523   -9936.6529            0    8504.5826    24.627181    24.681441    22.703959    13800.245    8632.0452    8134.8898    8746.8129    -50.97731    -498.3884    637.42048   -7994.3994 
 4180000    59.645781   -9938.5023   -9711.1054   -9938.5023            0    7824.3196    24.730633    24.616117    22.712883     13826.97    7113.6368    8183.4808    8175.8413   -301.65391    -234.2458    213.78365   -8133.3143 
 4181000    61.644598    -9935.945   -9700.9277    -9935.945            0    8386.8091    24.619995    24.664078    22.720473    13796.541    7959.7076    8717.8243    8482.8954   -290.82744   -16.796472    94.011613   -8013.4312 
 4182000    62.980042   -9933.6088   -9693.5001   -9933.6088            0    8519.8879    24.636875    24.687794    22.687495    13799.217    8293.1607    8773.2876    8493.2154   -248.19099   -983.48294   -190.11245   -7978.8946 
 4183000    59.778736    -9931.866   -9703.9622    -9931.866            0    8013.6395    24.611236    24.713378     22.72633    13822.763    8861.6654    7626.9639     7552.289   -180.92934      11.1406   -386.32412    -8088.486 
 4184000    59.057413   -9921.5496   -9696.3958   -9921.5496            0    9333.1967    24.585369    24.647311    22.728813    13772.825    9664.0215     9074.953    9260.6154   -224.90769   -476.52784   -76.431064   -7821.7064 
 4185000    62.155191   -9925.2902   -9688.3263   -9925.2902            0    8509.9692    24.642242    24.728052    22.644623    13798.606    8390.7874    7939.7467    9199.3735    13.096943   -165.68946    540.35971   -7975.7927 
 4186000    61.702049   -9922.7728   -9687.5364   -9922.7728            0    9338.8232    24.586446     24.59477    22.768557    13768.101    9838.8495    9231.3287    8946.2912   -328.24751    -603.6269   -34.883881   -7812.3602 
 4187000     57.90433    -9932.185   -9711.4273    -9932.185            0    8714.9997    24.618759    24.697653    22.657759    13776.497    9132.8788    8462.2851    8549.8351    175.46838    1.0247522    135.49109   -7960.4437 
 4188000    62.380822   -9932.4734   -9694.6493   -9932.4734            0    8324.1809    24.690659    24.652942    22.692857    13813.083      7654.08    8739.1727    8579.2898   -83.348211   -302.33791    38.973781    -8017.746 
 4189000    57.573727   -9929.8563    -9710.359   -9929.8563            0    8680.0775     24.63142     24.64881    22.705858    13785.526    8694.6558    8511.6515    8833.9252    43.835434   -194.25293    315.93456    -7965.249 
 4190000    63.119346   -9924.6204   -9683.9807   -9924.6204            0    9104.0486    24.730986    24.586433    22.641028    13766.803    8429.9573    9541.9476     9340.241   -294.30956    46.365011   -308.40863    -7856.118 
 4191000    60.938585   -9927.4498   -9695.1241   -9927.4498            0    9166.8908    24.637033    24.616271    22.709561     13772.71    8988.0856    9610.9453    8901.6415    41.620849   -452.47181   -156.84647   -7853.8546 
 4192000    62.320571   -9926.9861   -9689.3916   -9926.9861            0    9242.1453    24.597594     24.67253    22.689936    13770.179    9381.7447    9307.2719    9037.4192    287.47195   -74.258008   -54.445544   -7833.3476 
 4193000    61.504186   -9936.2005   -9701.7185   -9936.2005            0    8615.8982    24.640586    24.693961    22.668242    13793.028    8776.2045    8659.4583    8412.0318   -223.86554   -461.55305    436.56692   -7968.5688 
 4194000    60.295097   -9930.2576   -9700.3852   -9930.2576            0    8628.8458    24.616379    24.694017    22.673616    13782.776     8744.365    8611.2088    8530.9636   -418.93031    272.51945    163.43273   -7965.9212 
 4195000    59.648941   -9928.1483   -9700.7394   -9928.1483            0    8122.2388    24.660566    24.650777    22.732111    13818.898    8027.5133     8176.748    8162.4549   -202.10543    774.52679   -4.2200261   -8063.8284 
 4196000    62.176519   -9935.6639   -9698.6186   -9935.6639            0    8193.7519    24.680336    24.681473    22.674415    13812.053    7715.4314    8479.9796    8385.8446    55.660534   -383.90786    452.87264   -8048.1133 
 4197000    60.547665   -9927.4775   -9696.6422   -9927.4775            0    9189.9479    24.615558    24.664593    22.676226    13767.479    9328.0685    8955.1078    9286.6675   -367.61053   -196.27554   -306.51575   -7851.4426 
 4198000    61.753651   -9929.2095   -9693.7764   -9929.2095            0    9057.3102    24.651898    24.576695    22.733322     13773.26    8730.5935    9829.3526    8611.9844   -218.67469   -811.23071    66.146292   -7874.4447 
 4199000    61.941773    -9926.043   -9689.8927    -9926.043            0    8871.3922    24.646024    24.647734    22.678419    13776.428    8460.7482    8734.2646    9419.1638   -60.901879   -377.96355    98.611217   -7907.4962 
 4200000    60.912485    -9927.185   -9694.9588    -9927.185            0     9184.138    24.558766    24.701102    22.704181    13773.005    9988.8821    8663.7123    8899.8195   -450.47728   -775.69191    105.01927   -7850.1855 
 4201000    65.554864   -9941.6926   -9691.7675   -9941.6926            0    8309.7021     24.63417    24.655348    22.730124     13805.46    7955.4974    8806.6508     8166.958   -252.35725   -138.57801    312.57274   -8018.7048 
 4202000    59.776893   -9931.6109   -9703.7141   -9931.6109            0    8372.3761    24.640341    24.742852    22.637874    13801.685    8619.8643    8024.3053    8472.9587    296.75859    156.33133   -154.00161   -8018.4936 
 4203000    59.922758   -9940.1967   -9711.7438   -9940.1967            0    8459.3694    24.594217    24.674472    22.735759    13797.179    8480.2813    8638.6645    8259.1624    95.355916   -587.66694   -148.06772   -8009.5689 
 4204000    60.657455   -9925.3639     -9694.11   -9925.3639            0    8695.5628    24.673982     24.66739    22.658027    13790.644    8073.2624    8580.8795    9432.5466    -111.6333   -181.62696    473.41606   -7945.2376 
 4205000    60.195785   -9932.8502   -9703.3564   -9932.8502            0    9191.9466    24.653317    24.658012    22.641892    13764.047    8988.9298    9156.6856    9430.2244   -370.69288   -291.52584    42.539329   -7858.2155 
 4206000    57.760923    -9938.308    -9718.097    -9938.308            0    8854.5631    24.633843    24.612492    22.731904    13782.359    8368.1657    9242.8587    8952.6649    -394.2468    407.57341    158.89158   -7938.3159 
 4207000    59.022053   -9923.8617   -9698.8427   -9923.8617            0    8573.0474    24.650866    24.698093    22.656463     13793.92    8289.9334    8355.3585    9073.8503   -183.64418    57.567166     176.2663   -7974.2012 
 4208000    61.366693    -9933.287   -9699.3292    -9933.287            0    9036.9898    24.672465    24.673991    22.620225    13770.473     8476.386     9104.211    9530.3724    262.58693   -324.44796   -544.62048   -7884.4466 
 4209000    61.358744   -9922.7288   -9688.8013   -9922.7288            0     9043.303    24.632724    24.602897    22.730627    13775.587    9128.7182    9401.4812    8599.7097   -324.95549    -214.1757   -188.78707   -7871.9763 
 4210000    61.945658   -9929.7046   -9693.5395   -9929.7046            0    9481.0955    24.615202    24.656522    22.666661    13756.969    9170.4349    9881.9641    9390.8875    144.31488    531.52935   -116.56557   -7791.3351 
 4211000    61.654165   -9926.7443   -9691.6906   -9926.7443            0    9143.6564    24.643023    24.644674    22.677523    13772.496    9743.1536    8616.7631    9071.0525    64.537041   -560.89181    331.23883   -7855.1165 
 4212000    60.862671   -9930.0056   -9697.9694   -9930.0056            0    9655.7464    24.575199     24.62954     22.72653     13755.82    9951.7813    9491.9427    9523.5152    417.00172    180.82484   -349.46411   -7760.8864 
 4213000    59.194686   -9925.1625   -9699.4853   -9925.1625            0    9427.7649    24.614063     24.66339    22.674128    13764.698    9155.1353    9523.1063    9605.0532   -146.93652   -362.20355    301.24646   -7806.9181 
 4214000    60.624998   -9923.0346   -9691.9045   -9923.0346            0    9525.3863    24.616104     24.65411    22.674371    13760.807    9261.7691    9998.9403    9315.4497   -560.80658   -39.863422   -303.55617   -7780.2808 
 4215000    61.075404   -9934.4232   -9701.5759   -9934.4232            0    8576.5699    24.613807     24.66855    22.706912     13787.34     9069.114    8245.9603    8414.6355     8.713832    167.24002   -305.02729   -7977.0488 
 4216000    60.250585   -9934.3653   -9704.6626   -9934.3653            0    9187.9288    24.654711    24.708189    22.599174    13766.812    8813.9404    9123.9469    9625.8992    -204.7492    -699.6388    39.007344   -7859.9577 
 4217000    61.219586   -9928.2416   -9694.8446   -9928.2416            0    8694.8392    24.640841    24.630347    22.731837    13796.235    8669.4549    8659.0258    8756.0369   -329.13455   -135.90452   -4.8715715   -7945.4087 
 4218000    59.106882   -9921.6265   -9696.2841   -9921.6265            0    9015.7116    24.653998    24.683765    22.639497    13777.345    8698.9475    8899.0697    9449.1174   -149.27581     374.9987    86.223289   -7884.7712 
 4219000    58.972178   -9933.5581   -9708.7292   -9933.5581            0    8800.8628    24.632424     24.58685    22.773048    13792.125    8654.2924    9398.6377    8349.6584     251.7342   -707.28226    327.55819   -7938.4885 
 4220000    60.032431   -9929.6676   -9700.7966   -9929.6676            0    8553.4147    24.682491    24.664159    22.661592    13795.763    7837.7623    8727.8297     9094.652    100.48688   -167.19755    28.879528   -7979.8748 
 4221000    59.316901   -9927.8502   -9701.7071   -9927.8502            0    8417.1917    24.692802    24.577177    22.744945    13803.438    7829.4484    9138.3887     8283.738    -238.8473    397.88275   -442.51812   -8007.2508 
 4222000    59.419633   -9933.5042   -9706.9694   -9933.5042            0    8156.3494    24.599045    24.760529    22.666511     13805.84    8976.6597    7252.2088    8240.1796   -433.32554   -588.79465    408.37638   -8064.7373 
 4223000    61.607689   -9935.8958   -9701.0192   -9935.8958            0    8405.9462    24.587889    24.690726     22.72378    13795.444     9082.447    7947.0817      8188.31    139.48792   -331.46119    73.415669   -8009.8067 
 4224000    61.598428   -9917.4007   -9682.5594   -9917.4007            0    8770.6996    24.600584    24.698648    22.692057     13787.72    9510.7304     8114.336    8687.0324     405.1601   -127.07789    320.64391   -7918.9493 
 4225000    61.557818   -9939.3786   -9704.6921   -9939.3786            0    8539.6382    24.644689     24.67111    22.683405    13791.779    7669.1895    9068.9936    8880.7316   -524.91777   -779.96594    -51.74753   -7987.0383 
 4226000    61.021209    -9930.648   -9698.0073    -9930.648            0     8888.709    24.644886    24.616831    22.719717    13783.575    8925.9831    9024.5622    8715.5815   -497.90902   -37.336848   -579.45136   -7911.2052 
 4227000    62.257323   -9931.3035   -9693.9502   -9931.3035            0    8353.8803    24.726889    24.637499    22.649733    13798.415    7661.5724    8357.5434    9042.5252   -129.72894   -55.660098    304.22618    -8012.851 
 4228000    60.325245   -9922.1954   -9692.2081   -9922.1954            0    8970.4513    24.657239    24.607491    22.715013    13782.398    9077.0601    9408.4965    8425.7973   -276.49409   -553.03771    315.76564   -7889.1283 
 4229000    59.951683   -9932.7471    -9704.184   -9932.7471            0     8574.267    24.581625    24.699964    22.712943    13790.509     9291.195    7972.8077    8458.7982   -27.118038   -170.73986   -228.12298   -7979.7237 
 4230000    59.597375   -9925.8396   -9698.6273   -9925.8396            0    8352.2087     24.61538    24.708107    22.691025    13800.669    8940.1196    7662.0367    8454.4697    154.74083    148.22878   -392.05146   -8017.5899 
 4231000    61.955183   -9923.8258   -9687.6244   -9923.8258            0     9094.607    24.667291    24.629072    22.684762     13781.73    7980.4298    9754.4045    9548.9868   -300.42416    1.5468354    672.37771   -7859.6776 
 4232000    60.114313   -9927.0454   -9697.8622   -9927.0454            0     8545.195     24.66342     24.65972    22.697953    13804.737    8445.7543    8369.0146    8820.8159   -166.96883    262.76378    808.81018   -7977.4758 
 4233000    60.288388    -9923.105   -9693.2582    -9923.105            0    8022.3223    24.620344    24.695151    22.734045     13822.37    8448.1253      8113.62    7505.2216   -125.51156   -188.55145   -190.55371   -8076.0776 
 4234000    61.912399   -9935.0157   -9698.9774   -9935.0157            0    7928.0751    24.639261    24.663503    22.735731    13816.287    7926.0073    8031.2914    7826.9266   -83.751098    -815.3847    454.36545    -8101.499 
 4235000    59.244806   -9932.6825   -9706.8143   -9932.6825            0    8637.4677    24.616817      24.6637    22.715301    13791.409     8531.193    9030.8751     8350.335   -67.365917   -94.978983   -434.15173   -7969.5298 
 4236000    61.114774   -9929.3532   -9696.3558   -9929.3532            0    8839.7602    24.656056    24.668377    22.668933    13787.809     9011.602    8576.3587      8931.32   -424.22091   -1007.5597   -22.162583   -7918.8475 
 4237000    59.141113   -9930.2796   -9704.8067   -9930.2796            0    8772.6482    24.625246     24.62943    22.723019    13781.643     8546.718    9387.3827    8383.8438    -160.2436   -415.39761    207.46522   -7941.5823 
 4238000    61.336067   -9923.8639   -9690.0228   -9923.8639            0    8062.1061    24.675529    24.678672    22.694548    13820.056    8078.8133    7801.9526    8305.5525   -273.10942   -197.91763     922.6704   -8065.0946 
 4239000    61.469777   -9934.8922   -9700.5414   -9934.8922            0    8092.0429    24.628653    24.713802    22.695774    13814.184    8183.2043    8043.5309    8049.3934   -323.99416    136.87658   -588.37262   -8070.2723 
 4240000    61.111585    -9922.645   -9689.6597    -9922.645            0    8587.9465    24.600433    24.690055    22.715027     13796.79    8482.3865    8614.6061    8666.8468    50.316882   -285.62976    263.22739   -7961.6615 
 4241000    61.559256    -9928.967    -9694.275    -9928.967            0    8632.5016    24.559514    24.720111    22.715621     13790.97    9216.4098    8199.6201     8481.475   -49.429919    16.317599   -246.42804   -7958.0446 
 4242000    62.759454    -9932.497   -9693.2293    -9932.497            0    8525.3432    24.579188    24.669869     22.73824     13787.68    9028.7154    8345.4279    8201.8862    -112.3367   -204.58859    413.57078   -7978.9603 
 4243000    59.498301   -9925.8383   -9699.0036   -9925.8383            0     9246.177    24.654345    24.654389    22.640677     13761.86    8645.8933    9272.4416    9820.1962   -176.89312   -625.68393    262.58789   -7843.2718 
 4244000    59.679828    -9932.814   -9705.2873    -9932.814            0    8785.3692    24.659569    24.640158    22.687581     13785.33    8448.0989    9162.4498     8745.559     195.2814   -54.718328   -517.34956   -7939.0337 
 4245000    61.351539   -9930.9768   -9697.0767   -9930.9768            0    8393.9424    24.637303    24.621922     22.74012    13794.561    8508.8136    8702.1966    7970.8171   -158.70753    3.4655146    118.28644   -8008.3874 
 4246000    59.627989   -9931.2137   -9703.8846   -9931.2137            0     8555.452    24.631102     24.64523    22.722629    13793.526    8518.3242    8533.6128    8614.4192   -221.76126   -394.30835      319.586    -7982.832 
 4247000    59.895277   -9920.6175   -9692.2693   -9920.6175            0    7969.5898    24.643622    24.683927      22.7333    13828.697    8083.7996     8133.422    7691.5479   -31.357448   -483.18596     263.6692   -8084.9835 
 4248000    59.685227   -9938.5431   -9710.9958   -9938.5431            0    8194.8868    24.695338    24.677442    22.650586     13803.67    7949.2526    8497.8727    8137.5352     52.27194   -95.890643    395.70244   -8061.2638 
 4249000    57.832668   -9935.8724   -9715.3879   -9935.8724            0    8409.3595     24.62889    24.627639    22.763577     13807.28    8217.7801    8509.5417    8500.7566   -328.62126    111.75859   -282.64887   -8022.0371 
 4250000    58.410176   -9913.4645   -9690.7783   -9913.4645            0    8732.9663    24.632269    24.709342    22.653598    13788.048    8707.4399    8510.4299    8981.0292   -457.57739   -438.56358    44.337811   -7934.7138 
Loop time of 532.854 on 64 procs for 250000 steps with 1920 atoms

Performance: 81.073 ns/day, 0.296 hours/ns, 469.171 timesteps/s
195.7% CPU use with 32 MPI tasks x 2 OpenMP threads

MPI task timing breakdown:
Section |  min time  |  avg time  |  max time  |%varavg| %total
---------------------------------------------------------------
Pair    | 71.842     | 74.287     | 76.582     |  14.3 | 13.94
Bond    | 0.85037    | 1.0328     | 1.31       |  13.1 |  0.19
Kspace  | 248.79     | 253.41     | 260.59     |  19.0 | 47.56
Neigh   | 0.14497    | 0.15208    | 0.16493    |   1.6 |  0.03
Comm    | 76.841     | 83.586     | 88.463     |  28.5 | 15.69
Output  | 0.62465    | 0.62499    | 0.62675    |   0.0 |  0.12
Modify  | 92.696     | 97.283     | 100.93     |  23.2 | 18.26
Other   |            | 22.48      |            |       |  4.22

Nlocal:        60.0000 ave          62 max          58 min
Histogram: 2 0 9 0 0 11 0 7 0 3
Nghost:        3586.16 ave        3621 max        3554 min
Histogram: 1 3 5 3 4 6 3 4 2 1
Neighs:        22056.2 ave       22849 max       21274 min
Histogram: 2 4 2 5 4 4 2 4 2 3

Total # of neighbors = 705799
Ave neighs/atom = 367.60365
Ave special neighs/atom = 2.0000000
Neighbor list builds = 250
Dangerous builds = 0

unfix		3
unfix		2
unfix		1

write_data	data.final.${pid}
write_data	data.final.1
System init for write_data ...
PPPM initialization ...
  extracting TIP4P info from pair style
  using 12-bit tables for long-range coulomb (../kspace.cpp:340)
  G vector (1/distance) = 0.37539595
  grid = 30 30 30
  stencil order = 5
  estimated absolute RMS force accuracy = 0.0031639723
  estimated relative force accuracy = 9.5282087e-06
  using double precision FFTW3
  3d grid and FFT values/proc = 5400 960
Last active /omp style is kspace_style pppm/tip4p/omp
WARNING: Not all mixed pair coeffs generated from mixing. Use write_data with 'pair ij' option to store all pair coeffs. (../write_data.cpp:312)

write_restart   restart.lmp.${pid}
write_restart   restart.lmp.1
System init for write_restart ...
PPPM initialization ...
  extracting TIP4P info from pair style
  using 12-bit tables for long-range coulomb (../kspace.cpp:340)
  G vector (1/distance) = 0.37539595
  grid = 30 30 30
  stencil order = 5
  estimated absolute RMS force accuracy = 0.0031639723
  estimated relative force accuracy = 9.5282087e-06
  using double precision FFTW3
  3d grid and FFT values/proc = 5400 960
Last active /omp style is kspace_style pppm/tip4p/omp
Total wall time: 0:08:53
