#include		in.partitions
include		in.temp
variable        temperature equal 148.97
variable	tempDamp equal 100.0
include		in.pressure
variable        pressure equal 7213.3
variable        pressureDamp equal 1000.0 # This is 1 ps
include		in.seed
variable        seed equal 745823

units		real
atom_style	full

read_restart	restart.lmp.${pid}
read_restart	restart.lmp.1
Reading restart file ...
  restart file = 30 Jul 2021, LAMMPS = 30 Jul 2021
  restoring atom style full from restart
  orthogonal box = (0.14449481 0.037647013 0.10561298) to (19.855506 19.962354 20.594385)
  2 by 4 by 4 MPI processor grid
  restoring pair style lj/cut/tip4p/long/omp from restart
  restoring bond style harmonic/omp from restart
  restoring angle style harmonic/omp from restart
  972 atoms
  648 bonds
  324 angles
Finding 1-2 1-3 1-4 neighbors ...
  special bond factors lj:    0        0        0       
  special bond factors coul:  0        0        0       
     2 = max # of 1-2 neighbors
     1 = max # of 1-3 neighbors
     1 = max # of 1-4 neighbors
     2 = max # of special neighbors
  special bonds CPU = 0.002 seconds
  read_restart CPU = 0.007 seconds
include 	in.setup
variable	out_freq equal 1000
variable	out_freq2 equal 10000
variable	out_freq3 equal 1000

timestep	2.0

neigh_modify    delay 7 every 1

include		in.tip4p
# This is TIP4P/Ice

# create groups ###
group ox type 2
324 atoms in group ox
group hy type 1
648 atoms in group hy

# set charges - beside manually ###
set group ox charge -1.1794
Setting atom values ...
  324 settings made for charge
set group hy charge 0.5897
Setting atom values ...
  648 settings made for charge

# ### TIP3P Potential Parameters ###
pair_style lj/cut/tip4p/long/omp 2 1 1 1 0.1577 8.5
pair_coeff 1 1*2 0.000 0.000
pair_coeff 2 2 0.21084 3.1668
bond_style  harmonic
bond_coeff  1 450 0.9572
angle_style harmonic
angle_coeff 1 55 104.52
kspace_style pppm/tip4p/omp 1.0e-5
pair_modify tail yes

thermo          ${out_freq}
thermo          1000
thermo_style    custom step temp pe etotal epair emol press lx ly lz vol pxx pyy pzz pxy pxz pyz enthalpy

restart 	${out_freq3} restart.lmp.${pid} restart2.lmp.${pid}
restart 	1000 restart.lmp.${pid} restart2.lmp.${pid}
restart 	1000 restart.lmp.1 restart2.lmp.${pid}
restart 	1000 restart.lmp.1 restart2.lmp.1


include         in.dump
dump            myDump all atom ${out_freq2} dump.water.${pid}
dump            myDump all atom 10000 dump.water.${pid}
dump            myDump all atom 10000 dump.water.1
dump            myDump2 all dcd ${out_freq2} dump.dcd
dump            myDump2 all dcd 10000 dump.dcd
dump_modify     myDump append yes
dump_modify     myDump2 append yes


variable natoms 	equal  "count(all)"                        # NUMBER ATOMS
variable H      	equal  "enthalpy/v_natoms"                 # ENTHALPY-per-atom
variable Vol      	equal  "vol/v_natoms"                 # volume-per-atom
fix AVG all 		ave/time ${out_freq} 1 ${out_freq} v_Vol v_H file vol_enthalpy.dat
fix AVG all 		ave/time 1000 1 ${out_freq} v_Vol v_H file vol_enthalpy.dat
fix AVG all 		ave/time 1000 1 1000 v_Vol v_H file vol_enthalpy.dat


timer           timeout 02:55:00 every 1000
New timer settings: style=normal  mode=nosync  timeout=02:55:00

fix 		1 all shake 1e-6 200 0 b 1 a 1
       0 = # of size 2 clusters
       0 = # of size 3 clusters
       0 = # of size 4 clusters
     324 = # of frozen angles
  find clusters CPU = 0.001 seconds
fix             2 all nph aniso ${pressure} ${pressure} ${pressureDamp}
fix             2 all nph aniso 7213.3 ${pressure} ${pressureDamp}
fix             2 all nph aniso 7213.3 7213.3 ${pressureDamp}
fix             2 all nph aniso 7213.3 7213.3 1000
fix             3 all temp/csvr ${temperature} ${temperature} ${tempDamp} ${seed}
fix             3 all temp/csvr 148.97 ${temperature} ${tempDamp} ${seed}
fix             3 all temp/csvr 148.97 148.97 ${tempDamp} ${seed}
fix             3 all temp/csvr 148.97 148.97 100 ${seed}
fix             3 all temp/csvr 148.97 148.97 100 745823


run             250000
PPPM initialization ...
  extracting TIP4P info from pair style
  using 12-bit tables for long-range coulomb (../kspace.cpp:340)
  G vector (1/distance) = 0.37212818
  grid = 24 24 24
  stencil order = 5
  estimated absolute RMS force accuracy = 0.0035169745
  estimated relative force accuracy = 1.0591264e-05
  using double precision FFTW3
  3d grid and FFT values/proc = 3211 432
Last active /omp style is kspace_style pppm/tip4p/omp
Neighbor list info ...
  update every 1 steps, delay 7 steps, check yes
  max neighbors/atom: 2000, page size: 100000
  master list distance cutoff = 10.8154
  ghost atom cutoff = 10.8154
  binsize = 5.4077, bins = 4 4 4
  1 neighbor lists, perpetual/occasional/extra = 1 0 0
  (1) pair lj/cut/tip4p/long/omp, perpetual
      attributes: half, newton on, omp
      pair build: half/bin/newton/omp
      stencil: half/bin/3d
      bin: standard
Per MPI rank memory allocation (min/avg/max) = 10.18 | 10.19 | 10.19 Mbytes
Step Temp PotEng TotEng E_pair E_mol Press Lx Ly Lz Volume Pxx Pyy Pzz Pxy Pxz Pyz Enthalpy 
22750000    154.35884   -4931.6175   -4633.9235   -4931.6175            0    6754.0763    19.711011    19.924707    20.488772     8046.681     6472.528    7361.5449    6428.1559    90.865654    184.14435    120.06876   -3841.3152 
22751000    148.10668   -4942.3137   -4656.6775   -4942.3137            0    7603.6688    19.615009    20.083342    20.391203     8032.807     8549.878    7943.0532    6318.0753   -418.82174    690.77123    483.39041   -3765.9058 
22752000    150.83252   -4946.3777   -4655.4845   -4946.3777            0    6291.0591    19.756335    19.853246    20.546045    8058.7218     8160.655    4063.9269    6648.5954   -386.86273    420.39583    318.93451   -3916.1077 
22753000    150.07729   -4945.9426   -4656.5059   -4945.9426            0    8396.2234    19.621737    19.809953    20.605215    8009.3645    11578.908    6646.0463    6963.7162   -534.63943    520.10878   -1125.0768   -3675.7568 
22754000    144.77348   -4946.1711   -4666.9633   -4946.1711            0    8254.0702    19.577968     19.95568     20.38207     7963.105     10521.53    6476.9572    7763.7231   -162.76564   -845.64679   -7.8910155   -3708.3874 
22755000    154.86386    -4951.573   -4652.9051    -4951.573            0    6601.3409    19.697679    19.773861    20.509366    7988.3809    5877.2279    6325.6667    7601.1281    79.952744   -597.54586    -361.9184   -3883.8334 
22756000    154.89464   -4943.0688   -4644.3414   -4943.0688            0    7494.1018     19.62512    19.923455    20.561789    8039.6633    7965.0466    6784.4695    7732.7893    543.49645     1032.708   -228.62869   -3765.6561 
22757000    155.31907   -4944.8974   -4645.3515   -4944.8974            0    7697.5976     19.68877    19.889095    20.395333    7986.6454    7845.4086    7879.1253    7368.2589   -489.78134    627.08249    238.63319   -3748.7582 
22758000    146.64707   -4928.5987   -4645.7775   -4928.5987            0    7404.2057     19.72272    19.862119    20.446923    8009.7753    7987.8865     7047.223    7177.5076    92.919783    164.79834   -318.08796     -3780.86 
22759000    153.73474   -4934.1059   -4637.6155   -4934.1059            0    6575.2031    19.618238    20.101856    20.420749    8053.1877     7175.331    5592.8342    6957.4442     222.2849    327.60815   -858.10575   -3865.3745 
22760000    145.32278   -4920.0561   -4639.7889   -4920.0561            0    7427.1634     19.79508    19.766883    20.456626    8004.4125    7786.7809    7828.5063    6666.2031    148.27124     1739.204    471.73711   -3772.7705 
22761000    145.92646   -4943.3314   -4661.8999   -4943.3314            0    6213.1889    19.790362    19.781785    20.638155    8079.6047    5246.4432    6954.5173    6438.6063    -231.8615   -406.17103    761.61453   -3929.7828 
22762000    156.24323   -4927.1027   -4625.7745   -4927.1027            0    6196.8305    19.791562    19.681354    20.620746    8032.2906    5733.8858    6818.7713    6037.8346   -800.63117   -1412.4834    1106.9229   -3899.8609 
22763000    154.54616   -4931.9757   -4633.9205   -4931.9757            0    6916.2068     19.98355    19.665656    20.496751    8055.0105    5863.4491    8086.2713    6798.8999    162.37578    13.653686    135.64646   -3821.4455 
22764000    154.05714   -4958.2063   -4661.0941   -4958.2063            0    6927.0323    19.878701    19.739451    20.474842    8034.2181    6593.7327    7539.5198    6647.8443   -90.690946    1142.8804    376.29131    -3849.448 
22765000     150.1223    -4945.732   -4656.2085    -4945.732            0    7454.4794    19.924079    19.823354    20.256228    8000.4416    7966.2742    6415.2436    7981.9204   -837.38014   -408.48006    415.28099    -3786.433 
22766000    152.63324   -4944.9086   -4650.5425   -4944.9086            0    7709.4782    19.783223    19.891776    20.347576    8007.2477    10487.748    5314.8093    7325.8775    210.15446    48.840512    350.95555    -3750.249 
22767000    147.62312   -4933.9943   -4649.2907   -4933.9943            0    7022.2541    19.822608    19.812407    20.375431     8002.116    7504.5889    7010.4637    6551.7097   -375.69575   -72.151672   -977.39774    -3829.775 
22768000    149.38048   -4949.3816   -4661.2888   -4949.3816            0    8212.3096     19.57125    19.743892     20.60747     7962.987      9108.17    8992.7319     6536.027    57.155541   -269.93303   -62.906336   -3707.5768 
22769000    142.81688   -4931.9028   -4656.4684   -4931.9028            0    7027.6984    19.909914    19.679279     20.54518    8049.8631    6949.4998    6607.3539    7526.2415   -204.34123   -952.12846    136.25749   -3831.4237 
22770000    155.95421   -4958.7094   -4657.9386   -4958.7094            0      6126.62    20.091923    19.581451     20.47653    8056.0611    4847.7476    6933.4276    6598.6849   -365.26832     367.6558    476.66911   -3938.1257 
22771000    146.45529   -4953.6649   -4671.2136   -4953.6649            0    5935.4543    19.698624    19.844095    20.503466    8014.8327    7755.7768    3761.3131    6289.2731   -244.69359    555.56198   -526.17546   -3977.4295 
22772000    152.12633    -4944.118   -4650.7295    -4944.118            0    7421.5624    19.823055    19.724392    20.457187     7998.713     6296.269    8341.5442    7626.8739   -68.190354   -154.11881   -460.73252   -3784.9818 
22773000    139.16055   -4938.5314   -4670.1486   -4938.5314            0    7537.7025    19.850384    19.785528    20.474603    8041.4071    6897.0285    8502.7474    7213.3316    352.48621    566.56181    1366.9852   -3786.1595 
22774000    159.34366   -4936.2127    -4628.905   -4936.2127            0     7114.056    19.741135     19.86468      20.5662    8065.0628    7364.9969    7001.4565    6975.7145   -8.4397558   -310.75699    542.07167    -3792.145 
22775000    164.38499   -4950.6058   -4633.5756   -4950.6058            0    8458.8663    19.609829    20.006563    20.303631    7965.6275    8543.9042    7502.3706    9330.3241   -275.32243   -351.74489    229.97007   -3650.9048 
22776000    151.64387   -4930.1878   -4637.7299   -4930.1878            0    6322.9248    19.820505    19.862087    20.458985    8054.2233    7040.3437    5545.4814    6382.9494    96.970428   -233.73676    804.00146   -3895.0228 
22777000    153.05933   -4921.2203   -4626.0326   -4921.2203            0    9315.2647     19.70151     19.78345    20.390958    7947.6582    7951.5576    11091.734    8902.5027   -91.792914    1777.1702      268.466   -3546.3147 
22778000    151.96292   -4956.7501   -4663.6768   -4956.7501            0    7701.7519    19.892263      19.6484     20.48962    8008.3914    8204.4008    7651.2736    7249.5813    85.904572    227.64267    746.84684    -3764.157 
22779000    150.98425   -4941.6322   -4650.4464   -4941.6322            0    6900.9473    19.802343    19.881462    20.436079    8045.6743    7588.6086    5833.1072    7281.1262    244.26604    749.25366    824.36252   -3840.7037 
22780000    153.98494   -4941.3855   -4644.4126   -4941.3855            0    6132.8043    19.937615    19.569155    20.597326    8036.2997     5566.074    6738.2411    6094.0976   -133.61532   -752.11405    752.23566   -3925.6407 
22781000    149.30594   -4922.7071   -4634.7581   -4922.7071            0    8313.6593    19.758853    19.767447    20.533249    8019.9192    8824.4385     8395.678    7720.8612   -199.53717    847.73951    -64.51315   -3662.3734 
22782000    157.81205   -4944.5265   -4640.1727   -4944.5265            0    7663.4929     19.72721    19.892665    20.395752    8003.8388    7581.6279     7517.361    7891.4898     61.32642   -341.08574   -772.16262   -3745.6302 
22783000    148.05755   -4939.2278   -4653.6864   -4939.2278            0    6186.1125    19.798672    19.825472    20.572042     8074.897    7529.8769    5821.9669    5206.4938   -608.35615    585.47901    402.17429   -3925.1845 
22784000    144.56122   -4942.9251   -4664.1266   -4942.9251            0    7670.3791    19.968595    19.827032    20.244975    8015.3497    7691.7826    6716.2921    8603.0626    532.13417    505.69408   -1093.2205   -3767.4927 
22785000    143.86328   -4960.3061   -4682.8536   -4960.3061            0     7576.554    19.810633    19.770119    20.516228    8035.3565     8210.462    7033.3245    7485.8754    167.91901    1043.5099    1247.6718   -3794.9767 
22786000    143.98425   -4949.9272   -4672.2414   -4949.9272            0    6827.7354    19.779867    19.822572    20.556189    8059.8317     6906.297    6837.5736    6739.3356    120.50494    850.85783   -404.71934   -3869.6795 
22787000    150.30086   -4947.1222   -4657.2543   -4947.1222            0     7450.308    19.956417    19.637758    20.464884    8020.1735     6450.875    8654.9116    7245.1375   -249.10403    932.85775   -29.992691   -3785.8216 
22788000    151.13809   -4932.0747   -4640.5922   -4932.0747            0    7718.0234     19.72396    19.746315    20.591603    8019.9253    8830.0218    6965.9606    7358.0879    868.74507    1242.3257    748.54577   -3737.8738 
22789000    148.75834   -4952.4206   -4665.5276   -4952.4206            0    6132.2595    19.793564    19.839527     20.49684    8049.0056    5920.9287    6691.1586    5784.6912    377.86408    350.62331    1238.5157   -3945.6832 
22790000    145.81985   -4939.6189   -4658.3931   -4939.6189            0    7660.8085    19.752783    19.859305     20.51729    8048.4517    8107.6571    6535.4094    8339.3589   -31.284455     7.708456     15.90432   -3759.1796 
22791000    149.54538   -4938.6259    -4650.215   -4938.6259            0     6656.727    19.649804    19.964402    20.500946    8042.4507    6529.8504    6915.8405    6524.4899    -223.9961    1559.2224   -327.81664   -3869.4416 
22792000    149.09339   -4948.9401    -4661.401   -4948.9401            0    6885.0182     19.75413    19.843605    20.451579    8016.8789    6015.5594    8150.6971    6488.7982    -83.66729    1688.8064   -78.205709   -3856.4187 
22793000    150.13268   -4936.2855    -4646.742   -4936.2855            0    7139.6348    19.605377    19.988935    20.543227     8050.698    8043.6967    5609.3517     7765.856    301.98384   -237.67891    624.64195   -3808.4691 
22794000    146.63826   -4956.4568   -4673.6525   -4956.4568            0    7310.1467    19.720257    19.837036    20.573603    8048.2179    8704.8065    7890.0282    5335.6055   -109.56248   -203.52355   -231.79748   -3815.6241 
22795000    142.85527   -4948.2159   -4672.7075   -4948.2159            0    7072.9049    19.740206    19.899376    20.402818      8014.59    8030.4564    5660.9218    7527.3365    411.22026   -920.60484    787.68982   -3845.9941 
22796000    145.72465   -4949.5329   -4668.4907   -4949.5329            0    5943.0663    19.858372    19.948324    20.353554    8062.8823    4855.5269    6628.7422    6344.9297    76.564528   -351.82053   -633.79057   -3969.6523 
22797000    154.39829   -4957.3147   -4659.5446   -4957.3147            0    6851.5727    19.903828    19.707184    20.496273    8039.6306    8121.5625    5470.8252    6962.3304    224.91967    819.76188    333.08231   -3856.1993 
22798000    145.76305   -4949.8938   -4668.7775   -4949.8938            0    6809.2535    19.817561    19.882587    20.344849    8016.3668    6512.5037    6602.0176    7313.2392    52.059476   -129.19831   -130.94396   -3872.7043 
22799000     146.2251   -4936.3727   -4654.3653   -4936.3727            0    6446.0311    19.869387    19.790141    20.506151    8063.3869    5873.5333    7250.5803    6213.9797   -631.52039    554.35438   -959.98815   -3896.3364 
22800000    146.53785   -4945.8718   -4663.2613   -4945.8718            0    8280.2261    19.859913    19.775632    20.360769     7996.536    7822.8908    8124.7612    8893.0264   -182.50715   -552.52396   -1013.3671   -3697.6108 
22801000    159.21712   -4915.0783   -4608.0147   -4915.0783            0    8675.4427    19.814139    19.826748     20.28216    7967.8452    8607.1752    8543.3685    8875.7844   -103.36436    -283.5392   -267.27999   -3599.9036 
22802000    148.00388   -4954.0207   -4668.5828   -4954.0207            0    6466.6464    19.802284    19.762671    20.518427    8029.8047     7208.163    6400.8774    5790.8986   -134.60626   -1135.7823   -151.24301   -3911.2967 
22803000    137.53064   -4938.0931   -4672.8537   -4938.0931            0    7699.7161    19.648269     19.79519    20.614999    8018.0227    8412.1014    7322.0581    7364.9888   -102.57483   -133.03225    605.36827   -3772.4902 
22804000    152.36515   -4933.1426   -4639.2936   -4933.1426            0     7368.567    19.989415    19.733109    20.373591    8036.4305     7610.479    6867.3858    7627.8362    609.65367    1147.8427    252.32564   -3775.6747 
22805000     147.7025   -4937.3211   -4652.4644   -4937.3211            0    7038.1271    19.787009    19.811327    20.474275    8026.0572    5988.2535    7832.9964    7293.1314    131.22769   -1396.6648     357.3329   -3828.6389 
22806000    156.31407   -4930.9405   -4629.4756   -4930.9405            0    6872.4772    19.801372    19.865852    20.442754    8041.5892    7925.7959    5516.1484    7175.4872   -174.26153    50.538411   -785.68737    -3823.483 
22807000    139.78525   -4943.1117   -4673.5241   -4943.1117            0     6321.764    19.735552    19.844267    20.524926    8038.3322    6706.1523    7293.6446    4965.4953    462.09907    -432.2309   -1062.8053   -3932.4185 
22808000    147.43029   -4935.9355   -4651.6037   -4935.9355            0    7299.9263    19.737862    19.769345    20.528056    8010.1419    7332.0729    7760.4852    6807.2206    215.63136       67.305    51.425271   -3798.8285 
22809000    142.45058   -4934.7305   -4660.0025   -4934.7305            0    6008.0786    19.928117    20.017689    20.277245    8088.8942     5654.074     5779.177    6590.9849   -1061.3685    103.69295    217.82318   -3951.2402 
22810000    152.07623   -4954.4609   -4661.1692   -4954.4609            0    6156.1218    19.862394    19.780359    20.533487    8067.3049    7919.6367    4509.0125    6039.7162   -156.58561    244.27437   -1182.7788   -3936.8807 
22811000    151.39836   -4948.0909   -4656.1064   -4948.0909            0    6152.0488    19.634182    19.919138    20.615517    8062.6457    7273.5191    5272.3814    5910.2458   -142.43223    108.48623    130.51033   -3932.7152 
22812000    158.65517   -4940.1752   -4634.1953   -4940.1752            0    6333.8445    19.726867    19.932963    20.519617    8068.6192    7379.3371    5196.0989    6426.0974   -666.90814   -246.86354   -26.596626   -3888.8758 
22813000     150.0351   -4929.7596   -4640.4043   -4929.7596            0    7963.8281    19.759047    19.850424    20.507824    8043.6909    8206.6154    6958.0694    8726.7994   -6.4954066   -845.42277      553.224   -3706.1758 
22814000    148.51431   -4939.8541   -4653.4318   -4939.8541            0    7736.2114     19.62905    19.913614    20.619239     8059.758    7200.8021    8259.3104    7748.5217       689.83   -286.33933    865.97169   -3744.0919 
22815000    146.06519   -4945.7283   -4664.0293   -4945.7283            0    7554.3733    19.777075    19.854872    20.488719    8045.3315    6317.3132    8633.7193    7712.0874   -626.17075   -15.526017    914.90597   -3777.6527 
22816000    147.61636   -4914.8483   -4630.1578   -4914.8483            0    6788.5904    19.945295    19.896554    20.278423     8047.343    7411.6139    5750.7111    7203.4463   -268.17574    1160.2155    1387.2932   -3833.4335 
22817000    141.98044   -4935.2989   -4661.4777   -4935.2989            0       6267.3    19.866684    19.836891    20.381508    8032.2152    5845.3798    6517.7399    6438.7802   -32.606741    467.42292   -416.65747   -3927.3161 
22818000    151.98152    -4951.194   -4658.0848    -4951.194            0    6897.2033     19.81448    19.726146    20.578951    8043.5569    6021.7391    7936.2506    6733.6202    -745.0802    1296.4158    -90.17916   -3848.9944 
22819000    141.87665    -4952.353    -4678.732    -4952.353            0    6253.5504    19.784282    19.816325    20.552586    8057.6776     7273.133    5808.9223     5678.596    140.28634    1434.2682    621.72548   -3943.8588 
22820000    152.83204   -4943.5504    -4648.801   -4943.5504            0    7295.5688     19.72552    19.915395     20.51566    8059.4035    7068.0789     7278.279    7540.3485    129.84398    78.244447   -108.72359   -3791.2934 
22821000     147.7992   -4927.7361   -4642.6929   -4927.7361            0    8030.7357       19.729     19.77015     20.37447    7946.9659    7665.8399    7583.9578    8842.4093   -119.25715   -86.834108    627.53749   -3711.9439 
22822000     159.6629   -4932.8566   -4624.9333   -4932.8566            0    6591.6253    19.756478    19.809715    20.652212    8082.6601    6831.8016    7224.6168    5718.4575   -243.56702    864.41616    178.71288   -3847.9303 
22823000    144.48514   -4957.1379   -4678.4862   -4957.1379            0    6966.4807    19.815282    19.793975    20.471442    8029.3744    6332.3869    7591.1591    6975.8961    408.70913     136.0402    384.82807     -3862.71 
22824000    134.96098     -4924.42   -4664.1365     -4924.42            0    8092.9315    19.921984    19.692775    20.393753      8000.86    6832.6271    9081.2843    8364.8833   -414.02242   -152.40148   -35.478149   -3719.8181 
22825000    144.14114   -4935.4656   -4657.4773   -4935.4656            0    7859.7234    19.826117    19.888335    20.287018    7999.3428    6941.2647    8110.6875    8527.2181   -239.56908    1239.4391    -604.0801   -3740.5446 
22826000    148.09535   -4938.0312   -4652.4168   -4938.0312            0    8114.1745     19.79778    19.757844    20.445438    7997.4671    8792.7212    7108.8582    8440.9441    509.88644    299.62208   -15.056321   -3706.0213 
22827000    143.61603   -4953.2507   -4676.2751   -4953.2507            0    7027.1455    19.694661    19.613088    20.618215    7964.2624    7383.3555    7170.8916    6527.1895   -92.717566   -84.837761   -68.253597   -3860.0679 
22828000    156.42777    -4933.667   -4631.9828    -4933.667            0    7806.7587    19.831578    19.749773    20.461914    8014.3007    6776.2608    9284.7893    7359.2259    309.26494    630.18426    594.03493   -3719.5261 
22829000    149.35655   -4957.3227    -4669.276   -4957.3227            0    6788.9781    19.872064     19.78735    20.449186    8040.9366    5857.1276    8528.0707     5981.736   -798.26747    292.92913    1403.5436   -3873.1406 
22830000    148.15979   -4923.5996    -4637.861   -4923.5996            0    7880.5035    19.766999    19.648493    20.614761    8006.6027    8625.2443    7925.1396    7091.1266   -396.69721     555.5801   -402.30858   -3717.6697 
22831000    155.38374   -4953.3516    -4653.681   -4953.3516            0    6422.4829    19.901666    19.865148     20.44161    8081.5811      4986.49    6853.7349    7427.2239   -173.60262    1039.4114    99.298502    -3896.717 
22832000    151.42294   -4953.2179    -4661.186   -4953.2179            0    7375.8228    19.712878    19.822847    20.400172    7971.6807    7737.3061    7287.0135    7103.1488   -174.17591    790.22984    75.519551   -3803.6818 
22833000    153.73766   -4936.8866   -4640.3906   -4936.8866            0    9835.0152    19.705926    19.837014    20.350387    7955.1033    9199.3539    9550.9362    10754.756   -96.428532   -385.68992   -59.041753   -3499.3614 
22834000    155.71416   -4931.2671   -4630.9592   -4931.2671            0    7862.8382    19.711671    19.729884    20.563804    7997.4483    7667.9492    8888.0733    7032.4921   -485.59912   -228.59025   -701.95737   -3713.8804 
22835000    148.09863   -4955.4937    -4669.873   -4955.4937            0      7137.28    19.830747    19.733418    20.536896    8036.6709    7438.0878    6305.6796    7668.0726    348.46779    122.92379    702.70665   -3833.3367 
22836000    153.68873   -4956.9805   -4660.5789   -4956.9805            0    8164.3505    19.770464      19.9094    20.295131    7988.5309    7812.9995    7472.8605    9207.1915    211.15828    1207.0121   -86.877693   -3709.3951 
22837000    141.59892   -4940.2086   -4667.1232   -4940.2086            0    7839.6528    19.923617    19.754861    20.450092    8048.9165    7749.3556     7644.286    8125.3168   -89.409343    484.97139   -52.582991    -3746.864 
22838000    153.38881   -4949.6624   -4653.8391   -4949.6624            0    6624.2493    19.858882    19.745351    20.482861     8031.752     5161.078    8485.9918    6225.6781   -240.31512   -300.54961    62.926084   -3877.9086 
22839000    145.21209   -4959.8495   -4679.7958   -4959.8495            0    7781.7194    19.634106    19.844301    20.446868     7966.613    7291.7243    7848.0657    8205.3681    164.15989     942.2818     364.7021   -3775.6777 
22840000    151.65197   -4950.4281   -4657.9546   -4950.4281            0    7988.3875    19.641695    19.924851    20.447372    8002.2397    7866.4138    8545.9742    7552.7744    443.38842    336.05553   -2.3038721   -3725.6741 
22841000    148.02664   -4948.8354   -4663.3536   -4948.8354            0    6427.9784    19.861147    19.825607    20.369723    8020.7676     6266.977    6574.2604    6442.6979    846.23187    142.54602    481.62988    -3911.443 
22842000    148.26997   -4950.2192   -4664.2681   -4950.2192            0    7614.7316    19.912294    19.725904    20.537417    8066.8508    8471.5231    6743.1347    7629.5369    132.05277     728.8858   -699.95252   -3768.4197 
22843000    156.00449   -4941.1958    -4640.328   -4941.1958            0    7048.8751    19.602109    19.851881    20.592982    8013.5268    7079.7488    6116.7732    7950.1032   -1031.1413    873.60993    268.45881   -3816.5325 
22844000     150.2665   -4946.0461   -4656.2445   -4946.0461            0     7821.391    19.667859    19.850801    20.574557    8032.7751    6343.9521    10557.687    6562.5339     197.7317    1438.8999    49.292932   -3739.9702 
22845000    140.24266   -4943.9294   -4673.4596   -4943.9294            0    8060.7845    19.775062    19.840186    20.364556    7989.8485    8469.0203    7565.6755    8147.6576   -127.72789   -164.60009   -736.73114   -3734.1868 
22846000    161.03007   -4960.4061   -4649.8461   -4960.4061            0    6534.6285    19.866124    19.787974    20.465719    8045.2858    5844.5151    6443.2645     7316.106    39.640606    902.64649    728.85049   -3883.1235 
22847000    155.16532   -4953.6245   -4654.3751   -4953.6245            0    6434.7767    19.670578      19.8967    20.524336    8032.8062    5841.9622    6951.5492    6510.8185   -619.12269     418.4697    42.085042   -3900.5395 
22848000    150.28217   -4943.4835   -4653.6517   -4943.4835            0    7626.0799    19.746218    19.849636    20.337241    7971.2879    6860.0645    8322.7789    7695.3963    276.29581   -671.52969    95.365566   -3767.0966 
22849000     146.4151   -4941.9165   -4659.5427   -4941.9165            0     7099.269    19.713241    19.789998    20.582063    8029.5774    5575.8891    8712.7624    7009.1555   -80.736544    425.27996   -43.513786   -3828.1959 
22850000    146.91628   -4936.6252   -4653.2848   -4936.6252            0    6454.8458    19.585307    19.923761    20.520823    8007.4918    6640.3585    6186.9288    6537.2501   -546.77452    91.447787    976.97738   -3899.4811 
22851000    140.39812   -4948.3009   -4677.5313   -4948.3009            0    7704.8417      19.8511      19.8538    20.326013    8010.8837    6651.6258    7861.8258    8601.0734    220.68211    498.37726   -30.483566   -3777.3707 
22852000    148.68738   -4939.4038   -4652.6476   -4939.4038            0    6827.0228    19.834382    19.680636    20.492883    7999.4636    7321.4932    6120.9559    7038.6192    4.9189032     114.4419   -319.93922     -3856.18 
22853000    152.45046   -4930.6328   -4636.6193   -4930.6328            0    8139.2223    19.588813    19.695748     20.66115     7971.409     7546.533    9359.6562    7511.4777    456.40748   -285.06948   -65.984705   -3690.3954 
22854000     149.9805   -4932.8416   -4643.5916   -4932.8416            0    8235.3798    19.889811    19.808602    20.310099    8001.9625    8874.6081    7638.5154     8193.016   -15.201667    674.47698   -288.38089   -3682.5193 
22855000     161.8447   -4938.4964   -4626.3653   -4938.4964            0    6443.9038    19.649751    19.929081    20.401462    7989.2424    7111.3364    5356.7778    6863.5972   -164.26398   -534.88385   -293.87831   -3875.5544 
22856000    147.61438   -4954.4346   -4669.7479   -4954.4346            0    7055.2931    19.707646    19.815404    20.511587    8010.0817    6961.4062    7408.2273    6796.2458    32.628393    880.72385   -167.80471   -3845.5568 
22857000    149.76887   -4939.2818     -4650.44   -4939.2818            0     7240.209    19.910946    19.574803    20.606327    8031.3746    7592.1266    7871.5504    6256.9501   -114.52936     -224.327    768.45889   -3802.3989 
22858000    147.15274   -4921.1943   -4637.3979   -4921.1943            0    8108.4383    19.814714    19.798613    20.346143    7981.8704    6810.9581     8248.687    9265.6698    -341.9211    969.30379    120.96669   -3693.5157 
22859000    152.13544    -4957.441    -4664.035    -4957.441            0    5803.8913    20.075837    19.681778    20.478591    8091.6684    6941.6137    6214.7372    4255.3232   -60.078568    727.09009    40.471337   -3979.1254 
22860000    151.93781   -4931.1895   -4638.1647   -4931.1895            0    7589.0539    19.912278    19.607357    20.591512    8039.4854    7012.0202     8937.764    6817.3774   -479.24858    811.26787   -101.07852   -3748.3659 
22861000    155.72172   -4928.9139   -4628.5915   -4928.9139            0    8291.2392    19.744284    19.678589    20.444687    7943.5717    7754.0321    8938.8198    8180.8658    837.65918   -290.86367    27.989016    -3668.061 
22862000    148.14377   -4931.7044   -4645.9967   -4931.7044            0    7021.1283     19.90399    19.848651    20.318944    8027.3514     5686.529    6610.9224    8765.9335   -650.97341   -379.37747    561.94217   -3824.0284 
22863000    145.50768   -4951.8366   -4671.2128   -4951.8366            0     6259.005    19.847744    19.733551    20.510749    8033.3724    5086.3294     6664.182    7026.5036   -593.19951   -430.39704    585.22074   -3937.9172 
22864000    152.54041   -4941.9688   -4647.7818   -4941.9688            0    6400.6143    19.936399    19.721363    20.418666    8028.0675    4915.5617    7368.1745    6918.1068   -445.68552    1017.7223    581.94423   -3898.3907 
22865000    150.30515   -4947.4802   -4657.6041   -4947.4802            0    6154.7562    19.770516    19.810514    20.608197    8071.4903    6334.2221    6018.4378    6111.6087    651.36514   -630.74404    334.05721   -3933.1006 
22866000      147.955   -4956.4745   -4671.1309   -4956.4745            0    6817.4549     19.84581    19.758403     20.45745    8021.8061    7589.7874    6175.1318    6687.4456    541.90321    206.20308    681.99888   -3873.5581 
22867000    145.82545   -4949.2268   -4667.9902   -4949.2268            0    6486.0034    19.794605    19.860311    20.342404    7997.1484    6536.6752    6004.7155    6916.6194   -237.68154    1408.8026   -569.82575   -3911.5263 
22868000    147.44681   -4942.7645   -4658.4009   -4942.7645            0    8822.5422    19.685433    19.786323    20.398926    7945.4293    8591.6377    9871.0908    8004.8979   -297.35588   -523.20895    180.14229   -3636.0806 
22869000    144.67283   -4939.9315   -4660.9178   -4939.9315            0    7861.3767     19.50647    19.842474    20.638119    7988.1206    8739.2697    7233.0096    7611.8507   -1503.7377   -380.45342   -35.169445   -3745.0788 
22870000    157.58763   -4960.3465   -4656.4255   -4960.3465            0    7947.1166    19.743788    19.915409    20.430376    8033.3386    8388.1137    7293.0672    8160.1689    141.90961     828.6704    685.09103   -3725.3572 
22871000     146.9631   -4955.3433   -4671.9126   -4955.3433            0    7369.4921    19.831838    19.670838    20.468421    7984.9124    7519.7567    8017.1277    6571.5919   -26.726335   -69.094263    38.251081   -3813.7223 
22872000    149.78064     -4926.61   -4637.7454     -4926.61            0    7191.5446     19.75326    19.884862    20.480352     8044.495    8424.9059    5702.3464    7447.3814   -128.19302    446.69337   -905.11632   -3794.0283 
22873000    149.45708   -4940.7202   -4652.4796   -4940.7202            0     7004.236    19.868868     19.77993    20.386249    8011.8939    6070.7179    7791.4721     7150.518    276.78583    1030.5885   -438.53831   -3834.0679 
22874000    149.74493   -4942.1276   -4653.3319   -4942.1276            0    6960.8025    19.913563    19.825208    20.342133    8030.8816    6336.6951    7343.3469    7202.3654    -496.7156    158.79768   -113.67046   -3838.0676 
22875000    155.52869   -4936.8787   -4636.9285   -4936.8787            0    7253.3667    19.932868    19.866665     20.29827    8038.1068    5902.0048    7919.4808    7938.6146   -27.184984   -621.17302    130.07844   -3786.6341 
22876000    137.23523    -4937.581   -4672.9113    -4937.581            0     7890.788    19.909329    19.724216    20.405604    8013.1974    7746.9287    7506.9339    8418.5014    52.939434    571.07103    926.10178   -3750.7601 
22877000    150.38392   -4952.7451   -4662.7171   -4952.7451            0    7727.4466    19.882555    19.700172    20.542616    8046.3325    8734.2806    6872.9482    7575.1111   -437.69977   -1169.3209    423.47955   -3755.9205 
22878000    152.44925   -4964.5373   -4670.5261   -4964.5373            0    6833.7599    19.777908    19.788324    20.650925    8082.1863    8079.4122    6545.0976    5876.7699   -616.90175   -271.05288   -1202.3563   -3865.0281 
22879000    150.88749   -4926.6258   -4635.6266   -4926.6258            0    6717.0896    19.866234    19.856045    20.495608    8084.7965    7060.8923    6097.3214    6993.0551    703.59106    1101.6074   -50.647535   -3843.6249 
22880000    140.34309   -4948.9973   -4678.3338   -4948.9973            0    7656.4142    19.871321    19.848647     20.27603    7997.2482    8315.1885    5915.3274    8738.7267   -530.54181    346.70973    138.55073   -3785.3535 
22881000    142.29593   -4954.2897     -4679.86   -4954.2897            0    6111.3718    19.613506    19.838225    20.656951    8037.5605    7140.5468    5378.1307    5815.4381   -291.46055   -658.97588   -108.84554   -3963.4876 
22882000    152.86111   -4930.3046   -4635.4991   -4930.3046            0    7581.6942     19.75658    19.830673    20.483502    8025.1546    8993.9079    7261.4157     6489.759   -390.85886    628.31254    210.28573   -3748.1479 
22883000     157.7232   -4940.9195    -4636.737   -4940.9195            0    6431.0327    19.892723    19.795127    20.444673    8050.6823    6828.3489    6824.6128    5640.1363   -332.81087   -187.76762   -1009.4742   -3881.6634 
22884000    142.93408   -4936.4999   -4660.8395   -4936.4999            0    6885.7437    19.683897    19.806642    20.502669    7993.4144    5272.2392    7807.0515    7577.9403   -208.96454    162.52602    300.47435   -3858.1288 
22885000    151.63374   -4944.3182   -4651.8797   -4944.3182            0    9131.4638    19.672882    19.673029    20.571367    7961.6371    9392.7548    9876.3411    8125.2954      102.159   -5.6564073    1287.3669   -3591.6044 
22886000     152.3569   -4940.3073   -4646.4742   -4940.3073            0    8837.0598    19.878665    19.684015    20.382171    7975.3793    8079.6316    9591.0206    8840.5271    80.307786    1286.6616    689.13005   -3618.6117 
22887000     145.5114   -4947.6211   -4666.9901   -4947.6211            0    7949.6908    19.998325    19.725764    20.319929    8015.8514    7233.8923    7033.7548    9581.4253   -116.05782    949.83655    404.90973   -3737.6476 
22888000    146.47092   -4949.1691   -4666.6876   -4949.1691            0    6775.6399    19.846054    19.742726    20.567504    8058.6608    5644.1491    7867.2495     6815.521   -87.762438    392.19388     779.4885   -3870.3649 
22889000    140.21668    -4950.159   -4679.7393    -4950.159            0    8144.1155    19.838752    19.836968    20.367352    8015.3818     8542.844     8562.249    7327.2535    233.09523    486.69225   -784.92758   -3727.7238 
22890000    155.28964   -4947.0713   -4647.5821   -4947.0713            0    7804.7804    19.973656    19.900942    20.156854      8012.24    7624.0744    7366.9103    8423.3565    4.9345115    469.39773   -383.00858   -3735.5912 
22891000    150.56549   -4948.4882     -4658.11   -4948.4882            0    8350.9476    19.829739    19.699413    20.477037    7999.0313    8088.7079    8543.1399     8420.995    -17.88642   -154.00061    2.9934299   -3683.9079 
22892000    145.23879   -4942.9025   -4662.7973   -4942.9025            0    6230.7316    19.743065    19.889182    20.573813    8078.7891    6976.6086    5310.6489    6404.9372    -760.7419    295.91202    651.59655   -3928.6872 
22893000    144.35274   -4947.9489   -4669.5525   -4947.9489            0    5752.6682    19.856394    19.824413    20.574731    8099.0651    4205.5913    6790.6782    6261.7352    153.46729    507.67806    202.80892   -3990.0671 
22894000    149.16557   -4944.3362   -4656.6579   -4944.3362            0    7079.1228    19.822828    19.620517    20.682872    8044.2746    5560.8197    10331.401     5345.148   -102.28956   -852.34706    -610.4941   -3826.1529 
22895000    144.54836   -4931.0873   -4652.3136   -4931.0873            0    6274.8118    19.738268    19.797642    20.463835    7996.6764    4578.5678    6613.5565     7632.311    94.730693   -23.327973    665.35646   -3920.5242 
22896000    144.35544   -4942.9866    -4664.585   -4942.9866            0    8075.0913    20.074945    19.636809     20.31482    8008.2619    6885.8104    8678.0048    8661.4588    422.31939   -579.08688   -585.42875   -3721.4766 
22897000    144.44268   -4952.4755   -4673.9056   -4952.4755            0    8485.0649    19.677934    19.833474    20.473481    7990.4268    7741.0802    10246.215    7467.8995   -447.96569    759.06655    1191.3985   -3685.1226 
22898000    146.04888   -4950.4223   -4668.7548   -4950.4223            0    6876.0043    19.648971    19.911666    20.523727    8029.7798    6577.3686    6967.7416    7082.9028   -541.23487   -159.92283   -277.19351   -3863.5327 
22899000    156.50455   -4945.7715   -4643.9394   -4945.7715            0    7004.8136    19.714041     19.80144    20.476526    7993.3478    7306.6251    7405.6805    6302.1353   -189.80385    1611.7655   -308.71144   -3827.3548 
22900000    147.78731   -4949.2197   -4664.1994   -4949.2197            0    6465.5702    19.977923    19.829835    20.293403    8039.4128    3944.3522    9202.8685    6249.4899   -392.60151   -133.30209    255.16389   -3906.1333 
22901000    158.01308   -4939.2933   -4634.5518   -4939.2933            0    7072.0042    19.826585    19.760303    20.521427     8039.871    5486.7202    9254.1755    6475.1167   -586.83204    778.66583    52.141197   -3805.3362 
22902000    150.77713   -4939.1988   -4648.4125   -4939.1988            0    7013.4534    19.778731    19.888222    20.443049    8041.5553    7878.3603    4871.0269     8290.973   -488.35964    -631.6264    1707.4931   -3825.8898 
22903000    153.84238   -4952.6179   -4655.9199   -4952.6179            0    7618.6956    19.708642    19.848172    20.490219    8015.3743     7675.229    7323.4749    7857.3828    -754.6369   -487.17272   -1445.4312   -3765.3248 
22904000     153.1891   -4944.2943   -4648.8562   -4944.2943            0    8555.2755    19.659212    19.838672    20.398422    7955.6428    9103.9313     8633.212    7928.6831    36.372288    240.25354   -145.28818   -3656.2313 
22905000    146.08195   -4943.6784   -4661.9471   -4943.6784            0    5694.7851    19.868887    20.004884    20.321342    8077.2212    6217.5306    4308.3155    6558.5091     79.46912    1030.4866   -129.45958   -3991.1129 
22906000    145.82826   -4945.6085   -4664.3665   -4945.6085            0    7057.0403    19.774096    19.833617    20.458408    8023.6209    6102.6618    7807.8758    7260.5831   -248.54837   -170.26862    501.97479   -3838.5779 
22907000    153.03502   -4941.8757   -4646.7348   -4941.8757            0    8255.0016     19.60381       19.765    20.596841    7980.6434    8365.9759    8284.1779    8114.8511    359.92902     130.0646   -1034.2852   -3685.9393 
22908000    141.08416   -4945.9651   -4673.8724   -4945.9651            0    7133.3915    19.744145    19.793346    20.491739    8008.2266    7056.3119    7407.3913    6936.4712    260.47731    703.30669     1087.398    -3840.751 
22909000    148.51719   -4958.3733   -4671.9454   -4958.3733            0    6758.8686    19.753979    19.735014    20.612784    8035.7919    6858.6959    7123.9788    6293.9312    -208.8249    56.055179   -710.18002    -3879.848 
22910000    150.42559   -4943.1253   -4653.0169   -4943.1253            0    7257.3859    19.788526    19.812959    20.488206    8032.7955    7090.1115    7090.9378    7591.1082   -462.03606    551.88481      649.232   -3802.8136 
22911000    140.53874   -4940.4295   -4669.3888   -4940.4295            0    7356.2966    19.766072    19.684477       20.702    8054.8334    5801.8988    10134.321    6132.6697    711.65039    1846.5597    151.97914   -3805.2337 
22912000    149.01791   -4946.4823   -4659.0888   -4946.4823            0    5933.5933    19.863736     19.89293    20.465377     8086.851    6358.4801    5347.4642    6094.8355   -79.221934     894.9512   -567.54084   -3959.2901 
22913000    149.94686   -4929.0839   -4639.8987   -4929.0839            0    9539.0536    19.527868    20.009114    20.348917     7951.041    11796.631    8495.7624     8324.767   -140.25553   -1047.4703    708.70578   -3533.7713 
22914000    145.09162   -4943.6448   -4663.8234   -4943.6448            0    7208.7638     19.71488    19.760461    20.576694    8016.1681    7117.1952    6848.5078    7660.5882   -383.30424   -68.706752    542.11694   -3821.0642 
22915000    150.69539   -4947.6389   -4657.0102   -4947.6389            0    6533.2571    19.804428    19.700525    20.563616    8023.0515    5731.7449    7889.1626    5978.8638    287.92839    561.88608    1200.2824    -3892.567 
22916000    151.77518   -4940.0146   -4647.3034   -4940.0146            0    6813.2103    19.842387    19.710939    20.583823    8050.5819    8024.4755    5467.6568    6947.4985     31.34638    763.20402   -190.94609   -3847.3679 
22917000     141.8281   -4931.0174     -4657.49   -4931.0174            0    6989.5037    19.789498    19.907728    20.428714    8048.1767    7498.1502    5891.1697    7579.1912   -247.66722    2235.0036   -825.93928   -3837.1012 
22918000    159.72513   -4938.5222   -4630.4789   -4938.5222            0    7444.9318    19.839837    19.850303    20.301764    7995.3781    7194.3005    7522.0754    7618.4194   -485.40959    414.01692   -13.353556   -3762.3672 
22919000    153.09607   -4934.6828   -4639.4242   -4934.6828            0    7234.4946    19.753363     19.84915     20.50935    8041.4589    6217.0051    7695.7711    7790.7075   -384.38401    967.90544    198.48229   -3790.9885 
22920000    153.50473   -4950.0803   -4654.0335   -4950.0803            0    8087.5669    19.799219    19.652927    20.675776    8045.2048    9000.5405    7470.3469    7791.8131   -22.392583    1185.2741    467.78921   -3705.1107 
22921000    152.06356   -4940.2419   -4646.9745   -4940.2419            0    5986.3876    19.687494    19.849439    20.596638    8048.8715    5325.2791    7027.3945    5606.4893   -514.53646   -1302.9737   -173.95213   -3944.2652 
22922000    153.59055    -4951.753   -4655.5407    -4951.753            0    7939.9092    19.797331    19.854168    20.261302    7963.8982    9204.8015    5613.3127    9001.6133   -536.67943    106.53951    413.26752   -3733.3577 
22923000    144.05864   -4950.1914   -4672.3622   -4950.1914            0    7922.6725    19.746728    19.937091    20.383461    8024.8122    8807.2546    6201.8291    8758.9337   -521.36553    539.00862   -768.95861   -3745.1429 
22924000    149.60952   -4936.7138   -4648.1793   -4936.7138            0    8315.6949    19.774601    19.577253     20.62759    7985.6079    6786.3631    10649.043    7511.6783   -61.827455    1021.2443   -904.45694   -3679.7176 
22925000    146.99888   -4934.5691   -4651.0694   -4934.5691            0    9010.3491    19.706122    19.774491    20.367307    7936.7023    8026.0628    9685.8187    9319.1658    127.62729    356.81874    798.31371   -3608.1335 
22926000    152.23196   -4960.0346   -4666.4424   -4960.0346            0    7045.1617    19.883827    19.684385    20.388725    7980.1654    5363.7939    8099.9167    7671.7746     268.2394   -301.25816    687.87194   -3846.5087 
22927000    153.88576    -4944.785   -4648.0034    -4944.785            0    7193.2816    19.777195    19.615461    20.592493    7988.6273    5456.7985    9002.5254    7120.5209   -229.51214   -100.67749    1174.4592   -3809.9434 
22928000    146.30156    -4935.633   -4653.4782    -4935.633            0    6153.4239    19.777169    19.900993    20.445374    8046.9986    7952.8931     4501.449    6005.9297   -497.60861    1789.2219    572.18174   -3931.3294 
22929000    151.12795   -4928.7624   -4637.2995   -4928.7624            0    8630.4769    19.844596    19.767057    20.487783    8036.7275    7605.2561    11087.343    7198.8317    230.66595    -33.25784    535.69636   -3625.7435 
22930000    155.49286   -4939.1271    -4639.246   -4939.1271            0    6787.1534    19.903224     19.68753    20.442951    8010.4746    5600.5835    8094.4992    6666.3774   -175.29812    606.52252    377.34465   -3846.3398 
22931000    150.27351    -4955.098   -4665.2829    -4955.098            0    6874.3923    19.829568    19.917713    20.348792    8036.9518    7159.6591    6663.8537    6799.6641    -76.70194   -238.88512     -115.753   -3859.5305 
22932000    150.97449   -4951.8509   -4660.6838   -4951.8509            0    7196.6559    19.740365    19.898408    20.505663     8054.662    8873.2323     6253.722    6463.0133    -4.833332    355.67188    745.29463      -3815.3 
22933000    147.26629   -4955.9701   -4671.9547   -4955.9701            0    6840.1089    19.699378    19.684803    20.712809    8031.9794    6183.1691    9274.8221    5062.3356   -399.14719    1085.2571    397.84527   -3870.7168 
22934000    145.15079   -4950.5128   -4670.5773   -4950.5128            0    7625.4011    19.885618    19.781815    20.386709    8019.5937    7624.8862    7254.7606    7996.5566   -401.55079    881.94881    -400.7374   -3778.7291 
22935000    155.97944   -4941.7497   -4640.9302   -4941.7497            0    6999.4731    20.068163    19.815951    20.238567     8048.266    7118.7737    5998.9779    7880.6678    66.735077     529.0775    569.74085   -3819.3621 
22936000    146.53458   -4926.3521   -4643.7478   -4926.3521            0    6991.8404     19.87562    19.744892    20.523417      8054.25    5394.9739    8100.9265    7479.6208   -363.03182    296.01552    630.56445   -3822.4654 
22937000    141.46537   -4933.0395   -4660.2117   -4933.0395            0    8893.9322     19.56035    19.756567    20.680444     7991.862    10096.357    8086.3211    8499.1189    620.48899    846.45532    61.437183   -3623.5962 
22938000    158.74687   -4950.3244   -4644.1677   -4950.3244            0     7870.161    19.856913    19.870267    20.284032    8003.3115    8318.4895     6049.154    9242.8396    4.1292661   -532.69015     968.9169   -3725.5618 
22939000    141.18444    -4948.507   -4676.2209    -4948.507            0    7471.8449    19.791974    19.800767    20.483755    8027.5072    7514.0606    6836.5221    8064.9521    83.629331    463.83319    671.20241   -3801.4699 
22940000    161.89245   -4944.5555   -4632.3323   -4944.5555            0     6571.815    19.685754    19.902974    20.458874    8015.8902    6244.4223    6673.5524    6797.4702    662.66867    1320.5478   -128.77639   -3864.0639 
22941000    149.24337   -4939.4991   -4651.6707   -4939.4991            0    8232.2348    19.839804    19.807666    20.388636    8012.3305     7790.946    8526.3254    8379.4329   -72.236193    323.47661    1199.6966   -3689.7208 
22942000    148.64677   -4933.6572   -4646.9794   -4933.6572            0    8347.2267    19.573326    19.796106    20.672848    8010.2248    8895.7075    8270.9098    7875.0627   -245.63084    -209.5448    995.89677   -3671.8487 
22943000    149.49469   -4938.4971    -4650.184   -4938.4971            0     7428.475    19.773533    19.560942    20.785363    8039.5483    8491.1365    7085.0122    6709.2763   -391.29471   -566.00121   -487.44604    -3779.206 
22944000    150.20064   -4927.1497   -4637.4751   -4927.1497            0    6412.2285    19.810214    19.883345    20.356711    8018.3719    5724.7593    5694.9683    7816.9577   -350.47293   -128.25186    292.91726   -3887.6308 
22945000     149.0963   -4950.6843   -4663.1395   -4950.6843            0    5196.9255    19.912557    19.935283    20.451741    8118.5735    4027.3422     5891.896    5671.5385    -712.1906   -1108.1011    532.93513    -4047.818 
22946000    144.03778   -4945.4639   -4667.6749   -4945.4639            0    5993.2137     19.84495    19.957205    20.482496     8112.087    6003.8914    5951.9257    6023.8239   -255.96352    330.09883    913.60127    -3958.639 
22947000    149.95124   -4944.3305   -4655.1369   -4944.3305            0    6668.7832    19.837459    19.794488    20.417893    8017.5418    6954.8767    7262.5591    5788.9139   -357.73212    377.24471    752.57754    -3875.372 
22948000    146.56517   -4936.5064   -4653.8432   -4936.5064            0    7493.9908    19.702566    19.813627    20.574065    8031.6886    7039.7809     8808.489    6633.7024    -652.4672    987.50179   -511.01703   -3776.0425 
22949000    153.68141   -4936.6095    -4640.222   -4936.6095            0    7115.5191    19.756633    19.681428    20.551165     7991.089    6438.4263    7227.9332    7680.1977   -43.590042   -1489.1989    1353.0883   -3810.9663 
22950000    149.13755   -4940.6754   -4653.0511   -4940.6754            0    7222.0313    19.626236    19.820228    20.460776    7959.1695    7878.9099    7061.3675    6725.8164    128.94539    1426.1591   -215.06843   -3814.7442 
22951000    139.83743    -4937.976   -4668.2878    -4937.976            0    6636.0619     19.87733    19.897614    20.439836    8084.1891    7480.0708    4908.5434    7519.5714   -501.68583    120.62617     666.6575   -3885.8987 
22952000    151.59133   -4940.3801   -4648.0234   -4940.3801            0    7319.7656    19.722367     19.94057    20.302353    7984.4127    7029.9531     7096.528    7832.8157    40.309647   -1430.0814    464.37039   -3795.6772 
22953000    146.06689   -4951.9947   -4670.2924   -4951.9947            0    7376.2907    19.822634    19.739095    20.470767     8009.819    8449.3332     6444.468     7235.071   -219.36752   -403.02765   -330.12914   -3808.6311 
22954000    140.14146   -4940.4952   -4670.2206   -4940.4952            0    8016.3772    19.865682    19.786475    20.407741    8021.7078    6977.6032    8397.3183    8674.2101     16.04583    752.75946    411.07243   -3732.3976 
22955000    140.28863    -4944.459   -4673.9005    -4944.459            0    6434.8589    19.692552    19.700607    20.633472    8004.8634    6649.5652    6714.7399    5940.2715    235.83594   -786.51538    575.43398   -3922.6776 
22956000    142.46791   -4943.7131   -4668.9518   -4943.7131            0    6599.7933    19.908571    19.774191    20.351732     8011.986    7601.0364      5560.46    6637.8835   -352.94397    582.72097    394.02806   -3897.7884 
22957000    143.29818   -4932.4929   -4656.1303   -4932.4929            0    7835.2078     19.85619     19.63761    20.565627    8019.1163    8429.8617     9128.866    5946.8958    32.652367    1337.3802   -333.31955   -3739.7982 
22958000    152.63624   -4942.8538    -4648.482   -4942.8538            0    7416.4767    19.886876     19.76608    20.348139    7998.5599    6457.3779     7835.424    7956.6281    99.339082   -1505.5185   -84.876263   -3783.3441 
22959000    149.70245   -4943.9514   -4655.2376   -4943.9514            0    7356.5681    19.895352    19.686476    20.417297    7996.8297    6131.4396     8550.896    7387.3687   -188.35122   -391.14171   -909.18849   -3797.2738 
22960000    153.00956   -4935.1582   -4640.0664   -4935.1582            0    7478.8708    19.918091    19.634369    20.540057    8032.7881    6179.1757    8515.0812    7742.3555   -949.77472   -496.84355    100.95957   -3763.9168 
22961000    152.22174     -4948.57   -4654.9976     -4948.57            0    7119.2726    19.698967    19.767084    20.625199      8031.27    7111.5673    7138.2155    7108.0351    756.36486   -3.1308447    369.58007   -3821.1326 
22962000    154.90928   -4948.8563   -4650.1007   -4948.8563            0    8067.3335    19.865914    19.832413    20.338084    8012.9818     7158.628    9417.8999    7625.4726    346.03201    1355.4587   -167.39584   -3707.3431 
22963000    153.11582   -4934.9912   -4639.6944   -4934.9912            0    8272.8207    19.672016    19.995694    20.354665    8006.6213    8890.1797    7104.2729    8824.0094    56.716347    917.90876    349.25044   -3673.6907 
22964000    154.81328   -4947.9633   -4649.3929   -4947.9633            0    6998.7093    19.710818    19.824445    20.461567    7995.4805    6592.7533    7675.1738    6728.2008    526.33744    1232.9202    30.498129   -3833.3022 
22965000    143.10519   -4956.8114    -4680.821   -4956.8114            0    7885.7977    19.710158    19.698104    20.604836    7999.8839     8200.304     7844.634    7612.4552   -225.10099    336.90565     161.1525   -3760.7842 
22966000    147.08661   -4951.6993   -4668.0304   -4951.6993            0    6867.5418    19.831605    19.732904    20.558158    8045.1301    7366.8611    7359.3148    5876.4496   -63.947805    1047.6539    537.57432    -3862.262 
22967000    143.12215    -4948.138   -4672.1149    -4948.138            0    8484.8517    19.778879    19.702361    20.472082    7977.7785    7787.0609    8938.5731    8728.9211   -662.95941    1170.4076   -604.09014   -3684.9218 
22968000    151.10808     -4928.92   -4637.4954     -4928.92            0    8571.8409    19.901699    19.732923    20.303288    7973.4807    7838.9277    8389.7756    9486.8195   -341.96705   -849.31387   -55.676109   -3640.7185 
22969000    148.13438   -4935.5876    -4649.898   -4935.5876            0    7093.3354    19.991547    19.622186    20.494606    8039.5799    7203.2305    7726.2967    6350.4791    259.46285     387.9389    833.35516   -3818.2113 
22970000    146.96083   -4947.8907   -4664.4644   -4947.8907            0    8730.5384    19.776603    19.720802    20.458293    7978.9485    7554.9685    10603.865    8032.7818    -40.36159    132.33804   -755.65854   -3648.5372 
22971000    145.00983   -4937.2344   -4657.5708   -4937.2344            0     8988.234    19.856395    19.643861    20.505126    7998.1526     8246.613    10487.673    8230.4156   -654.19744   -961.36252    1204.8918   -3609.1395 
22972000    138.18854   -4932.4638   -4665.9556   -4932.4638            0    9068.3516    19.820453    19.710703     20.53842    8023.8484    8205.9901     10767.83    8231.2345    479.44158   -4.2917047     332.5937   -3604.7807 
22973000    141.52436   -4935.9871   -4663.0455   -4935.9871            0    7022.5982    19.935428    19.613065    20.457435    7998.7518     6565.232    7765.0308    6737.5318    345.46268    1379.9761     1443.007   -3843.8342 
22974000    145.43481   -4932.3414   -4651.8581   -4932.3414            0    7982.6897    19.673053    19.756641    20.506063    7970.1623    6484.5317    8501.4369    8962.1003   -61.889916    779.49651   -687.41309   -3723.9771 
22975000    143.48176   -4946.5084   -4669.7918   -4946.5084            0    7929.5165    19.699455    19.797421     20.58344    8027.5087    7934.6221     8215.784    7638.1434   -410.45678   -323.23884   -889.11724   -3741.4596 
22976000    145.91004    -4936.898   -4655.4983    -4936.898            0    8304.0613    19.792318     19.77062    20.452394    8003.1528    7807.5141    9520.0197    7584.6501    227.25559   -157.19331    1039.8522   -3686.2667 
22977000    163.21454   -4931.8195   -4617.0465   -4931.8195            0    7291.2156    19.951763    19.825413    20.286131    8024.2184    5338.6496    9152.0339    7382.9633   -157.31457    47.743719     400.3559   -3763.7921 
22978000    157.82073   -4950.8992   -4646.5286   -4950.8992            0    5840.7877     19.89892    19.813982    20.505945    8085.0194    6177.3196    5853.2208    5491.8227   -201.13379   -6.3148969    901.48867   -3957.8313 
22979000    161.98642   -4964.2936   -4651.8892   -4964.2936            0    7285.6457    19.884052    19.730011    20.570235    8069.9615    7442.4164    7145.8065    7268.7144   -324.50161    279.71892   -1325.2505   -3794.4262 
22980000     153.1479   -4932.5844   -4637.2258   -4932.5844            0    6146.9462    19.781095     19.80534    20.557346    8053.7787    6956.2291    6655.1149    4829.4945    316.01914   -1143.4062    218.04974   -3915.2295 
22981000    152.80548   -4936.1463   -4641.4481   -4936.1463            0    6515.5754    19.628834    20.017161    20.438089    8030.4022    7318.8754    5320.6041    6907.2468     389.2524   -342.96339    534.98918   -3878.3753 
22982000    155.16468   -4952.5418   -4653.2937   -4952.5418            0     6058.421     19.61824     19.98399    20.495313    8035.2018    7287.8208      4922.79    5964.6522   -162.45241   -715.76515   -519.80887   -3943.3365 
22983000    148.72817   -4954.2177   -4667.3829   -4954.2177            0    5503.6517    19.807618    19.877767    20.503758    8072.9694    4292.8655    6698.6561    5519.4334   -749.60591   -556.41811     410.3904   -4019.4051 
22984000    156.51784   -4946.7578      -4644.9   -4946.7578            0    7376.9487    19.723045    19.888559    20.435841    8016.2233    7824.6641     6754.751    7551.4309   -1479.1367   -463.90287    702.05303   -3782.4728 
22985000    143.27596   -4943.2158    -4666.896   -4943.2158            0    8303.6307    19.795624     19.75444    20.466471    8003.4436    10397.775    6210.8457    8302.2716    -332.2883   -1009.5902   -446.60666   -3697.6795 
22986000     142.8174   -4939.7944    -4664.359   -4939.7944            0    6850.6548    19.629725    19.850276    20.522523    7996.7132    7406.6895    5600.6801    7544.5948    16.371716   -294.79209   -75.571169   -3865.4092 
22987000    149.61644    -4950.021   -4661.4731    -4950.021            0    6383.7742    19.853839    19.847999    20.497904    8077.3829    7373.8816    6268.3249     5509.116   -674.07406    779.71966    329.73958   -3909.4623 
22988000    149.26069   -4930.9143   -4643.0525   -4930.9143            0    7899.1211    19.838954    19.923486    20.269555    8011.7672    8483.7214    7761.7372    7451.9047   -405.47212    10.072508    393.72087   -3720.0923 
22989000    148.13465   -4942.1226   -4656.4325   -4942.1226            0      7802.42    19.754043    19.777558    20.473862    7998.8664    7640.2802    7735.0432    8031.9364   -442.83419   -129.03606   -1090.3424   -3746.2391 
22990000    154.82536   -4946.5329   -4647.9391   -4946.5329            0    8561.6459    19.635354    19.741206    20.662953    8009.4885    9574.3377    8376.6419    7733.9582   -383.50157     236.5884     1032.394   -3647.8518 
22991000    139.83926   -4943.8554   -4674.1636   -4943.8554            0    6189.3204    19.700572    19.962824    20.542697    8079.0124    8508.1003    4067.4546    5992.4062   -425.19311     744.0828    424.23471   -3944.9125 
22992000    150.21922   -4945.3261   -4655.6157   -4945.3261            0    7273.8165    19.728542    19.793997    20.448332    7985.2108     7478.357    7247.5366     7095.556   -362.37022    1120.3631    -570.5291   -3808.5353 
22993000    148.29818   -4929.6439   -4643.6384   -4929.6439            0     8115.982    19.870535    19.793166    20.362019    8008.3984    7834.9081    8745.3893    7767.6488    779.96992   -529.04635    -241.9606   -3695.7382 
22994000    143.91938   -4926.4814   -4648.9208   -4926.4814            0    6781.5732    19.950748    19.850308    20.355089    8061.1952    6340.4579    7675.3271    6328.9347    548.33944       662.98   -84.344921   -3851.6501 
22995000    148.32905    -4923.474   -4637.4089    -4923.474            0    5089.0721    19.677793    19.952039    20.603132    8089.0387    5441.3778    5575.3186      4250.52   -237.79645   -501.32149    366.81968   -4037.0494 
22996000    157.04122   -4953.6582    -4650.791   -4953.6582            0    6989.9908    19.910673    19.740395    20.529077     8068.842     7626.714    6119.3809    7223.8775   -398.77975    288.65955   -187.40435   -3828.2384 
22997000    144.39211   -4938.4487   -4659.9764   -4938.4487            0    6421.6744    19.681032     19.87266    20.553839    8038.9036    7064.2342    6539.7431    5661.0458   -21.534403    699.37795    877.68524   -3907.1046 
22998000    149.54918   -4940.2201   -4651.8019   -4940.2201            0    5233.9974    19.789503    20.072798     20.40606    8105.9134     4499.566    4643.9703    6558.4558   -138.67313    39.574602     934.8918   -4033.0574 
22999000    144.37301   -4942.8532   -4664.4178   -4942.8532            0    7878.2398    19.615372    19.922098    20.434864    7985.5231    10227.952    6299.3895    7107.3781   -18.425338   -575.33094   -623.04772   -3746.9127 
23000000    154.22211   -4928.8348   -4631.4045   -4928.8348            0    6802.1312    19.702841    20.025495    20.394663    8046.9009    7765.0627    6202.3628    6438.9682    120.72487    1125.6776    673.43743    -3833.135 
Loop time of 346.609 on 64 procs for 250000 steps with 972 atoms

Performance: 124.636 ns/day, 0.193 hours/ns, 721.273 timesteps/s
196.0% CPU use with 32 MPI tasks x 2 OpenMP threads

MPI task timing breakdown:
Section |  min time  |  avg time  |  max time  |%varavg| %total
---------------------------------------------------------------
Pair    | 28.465     | 35.604     | 43.319     |  60.4 | 10.27
Bond    | 0.94588    | 1.1802     | 1.5984     |  12.3 |  0.34
Kspace  | 150.05     | 158.88     | 170.73     |  37.2 | 45.84
Neigh   | 0.95412    | 1.097      | 1.2595     |   8.9 |  0.32
Comm    | 57.935     | 65.602     | 71.919     |  41.7 | 18.93
Output  | 0.58808    | 0.58846    | 0.59014    |   0.0 |  0.17
Modify  | 68.467     | 71.845     | 74.163     |  18.3 | 20.73
Other   |            | 11.81      |            |       |  3.41

Nlocal:        30.3750 ave          36 max          23 min
Histogram: 1 1 2 6 4 4 4 2 3 5
Nghost:        2694.69 ave        2721 max        2663 min
Histogram: 1 2 4 4 2 5 3 3 4 4
Neighs:        9760.94 ave       12352 max        7591 min
Histogram: 3 5 3 4 5 2 3 3 0 4

Total # of neighbors = 312350
Ave neighs/atom = 321.34774
Ave special neighs/atom = 2.0000000
Neighbor list builds = 3303
Dangerous builds = 0

unfix		3
unfix		2
unfix		1

write_data	data.final.${pid}
write_data	data.final.1
System init for write_data ...
PPPM initialization ...
  extracting TIP4P info from pair style
  using 12-bit tables for long-range coulomb (../kspace.cpp:340)
  G vector (1/distance) = 0.37214791
  grid = 24 24 24
  stencil order = 5
  estimated absolute RMS force accuracy = 0.0035131887
  estimated relative force accuracy = 1.0579864e-05
  using double precision FFTW3
  3d grid and FFT values/proc = 3211 432
Last active /omp style is kspace_style pppm/tip4p/omp
WARNING: Not all mixed pair coeffs generated from mixing. Use write_data with 'pair ij' option to store all pair coeffs. (../write_data.cpp:312)

write_restart   restart.lmp.${pid}
write_restart   restart.lmp.1
System init for write_restart ...
PPPM initialization ...
  extracting TIP4P info from pair style
  using 12-bit tables for long-range coulomb (../kspace.cpp:340)
  G vector (1/distance) = 0.37214791
  grid = 24 24 24
  stencil order = 5
  estimated absolute RMS force accuracy = 0.0035131887
  estimated relative force accuracy = 1.0579864e-05
  using double precision FFTW3
  3d grid and FFT values/proc = 3211 432
Last active /omp style is kspace_style pppm/tip4p/omp
Total wall time: 0:05:46
