LAMMPS (30 Jul 2021)
Processor partition = 0
  using 2 OpenMP thread(s) per MPI task
using multi-threaded neighbor list subroutines
variable        pid world 0 1
variable        phase world IceII IceIh

shell cd ${phase}
shell cd IceII
include Restart.lmp
echo both
log log.lammps
#include		in.partitions
include		in.temp
variable        temperature equal 215.10
variable	tempDamp equal 100.0
include		in.pressure
variable        pressure equal 2125.0
variable        pressureDamp equal 1000.0 # This is 1 ps
include		in.seed
variable        seed equal 745823

units		real
atom_style	full
box tilt large
read_restart	restart.lmp.${pid}
read_restart	restart.lmp.0
Reading restart file ...
  restart file = 30 Jul 2021, LAMMPS = 30 Jul 2021
  restoring atom style full from restart
  triclinic box = (-10.721202 -9.3828035 0.017868386) to (12.701202 12.372802 21.842131) with tilt (-9.0526781 2.1432203 3.0846040)
  2 by 4 by 4 MPI processor grid
  restoring pair style lj/cut/tip4p/long/omp from restart
  restoring bond style harmonic/omp from restart
  restoring angle style harmonic/omp from restart
  1296 atoms
  864 bonds
  432 angles
Finding 1-2 1-3 1-4 neighbors ...
  special bond factors lj:    0        0        0       
  special bond factors coul:  0        0        0       
     2 = max # of 1-2 neighbors
     1 = max # of 1-3 neighbors
     1 = max # of 1-4 neighbors
     2 = max # of special neighbors
  special bonds CPU = 0.003 seconds
  read_restart CPU = 0.009 seconds
include 	in.setup
variable	out_freq equal 1000
variable	out_freq2 equal 10000
variable	out_freq3 equal 1000

timestep	2.0

neigh_modify    delay 7 every 1

include		in.tip4p
# This is TIP4P/Ice

# create groups ###
group ox type 2
432 atoms in group ox
group hy type 1
864 atoms in group hy

# set charges - beside manually ###
set group ox charge -1.1794
Setting atom values ...
  432 settings made for charge
set group hy charge 0.5897
Setting atom values ...
  864 settings made for charge

# ### TIP3P Potential Parameters ###
pair_style lj/cut/tip4p/long/omp 2 1 1 1 0.1577 8.5
pair_coeff 1 1*2 0.000 0.000
pair_coeff 2 2 0.21084 3.1668
bond_style  harmonic
bond_coeff  1 450 0.9572
angle_style harmonic
angle_coeff 1 55 104.52
kspace_style pppm/tip4p/omp 1.0e-5
pair_modify tail yes

thermo          ${out_freq}
thermo          1000
thermo_style    custom step temp pe etotal epair emol press lx ly lz vol pxx pyy pzz pxy pxz pyz enthalpy

restart 	${out_freq3} restart.lmp.${pid} restart2.lmp.${pid}
restart 	1000 restart.lmp.${pid} restart2.lmp.${pid}
restart 	1000 restart.lmp.0 restart2.lmp.${pid}
restart 	1000 restart.lmp.0 restart2.lmp.0


include         in.dump
dump            myDump all atom ${out_freq2} dump.water.${pid}
dump            myDump all atom 10000 dump.water.${pid}
dump            myDump all atom 10000 dump.water.0
dump            myDump2 all dcd ${out_freq2} dump.dcd
dump            myDump2 all dcd 10000 dump.dcd
dump_modify     myDump append yes
dump_modify     myDump2 append yes


variable natoms 	equal  "count(all)"                        # NUMBER ATOMS
variable H      	equal  "enthalpy/v_natoms"                 # ENTHALPY-per-atom
variable Vol      	equal  "vol/v_natoms"                 # volume-per-atom
fix AVG all 		ave/time ${out_freq} 1 ${out_freq} v_Vol v_H file vol_enthalpy.dat
fix AVG all 		ave/time 1000 1 ${out_freq} v_Vol v_H file vol_enthalpy.dat
fix AVG all 		ave/time 1000 1 1000 v_Vol v_H file vol_enthalpy.dat


timer           timeout 10:00:00 every 1000
New timer settings: style=normal  mode=nosync  timeout=10:00:00

fix 		1 all shake 1e-6 200 0 b 1 a 1
Finding SHAKE clusters ...
       0 = # of size 2 clusters
       0 = # of size 3 clusters
       0 = # of size 4 clusters
     432 = # of frozen angles
  find clusters CPU = 0.001 seconds
fix             2 all nph tri ${pressure} ${pressure} ${pressureDamp}
fix             2 all nph tri 2125 ${pressure} ${pressureDamp}
fix             2 all nph tri 2125 2125 ${pressureDamp}
fix             2 all nph tri 2125 2125 1000
fix             3 all temp/csvr ${temperature} ${temperature} ${tempDamp} ${seed}
fix             3 all temp/csvr 215.1 ${temperature} ${tempDamp} ${seed}
fix             3 all temp/csvr 215.1 215.1 ${tempDamp} ${seed}
fix             3 all temp/csvr 215.1 215.1 100 ${seed}
fix             3 all temp/csvr 215.1 215.1 100 745823


run             250000
PPPM initialization ...
  extracting TIP4P info from pair style
  using 12-bit tables for long-range coulomb (../kspace.cpp:340)
  G vector (1/distance) = 0.37671265
  grid = 30 40 36
  stencil order = 5
  estimated absolute RMS force accuracy = 0.0026900655
  estimated relative force accuracy = 8.1010524e-06
  using double precision FFTW3
  3d grid and FFT values/proc = 8208 2400
Last active /omp style is kspace_style pppm/tip4p/omp
Neighbor list info ...
  update every 1 steps, delay 7 steps, check yes
  max neighbors/atom: 2000, page size: 100000
  master list distance cutoff = 10.8154
  ghost atom cutoff = 10.8154
  binsize = 5.4077, bins = 7 5 5
  1 neighbor lists, perpetual/occasional/extra = 1 0 0
  (1) pair lj/cut/tip4p/long/omp, perpetual
      attributes: half, newton on, omp
      pair build: half/bin/newton/tri/omp
      stencil: half/bin/3d/tri
      bin: standard
Setting up Verlet run ...
  Unit style    : real
  Current step  : 5250000
  Time step     : 2
  Walltime left : 9:59:59.93
Per MPI rank memory allocation (min/avg/max) = 10.67 | 10.69 | 10.80 Mbytes
Step Temp PotEng TotEng E_pair E_mol Press Lx Ly Lz Volume Pxx Pyy Pzz Pxy Pxz Pyz Enthalpy 
 5250000    218.39666   -6382.5716   -5820.7595   -6382.5716            0     1203.932    23.422403    21.755605    21.824262    11120.958    2012.4519    456.92218    1142.4218   -881.43924   -1673.6751   -347.62778   -5625.4964 
 5251000    213.42324   -6411.9953   -5862.9771   -6411.9953            0    1094.0069    23.505902    21.456009    21.942669    11066.628    589.21008    1146.4549    1546.3557    120.29058   -36.211951    685.90287   -5686.4094 
 5252000    218.70449   -6419.7464   -5857.1424   -6419.7464            0    1610.7384    23.436254    21.619836    21.783881    11037.631     884.6513    1029.2083    2918.3556    -89.18792    318.16154    1425.8229   -5597.8578 
 5253000    218.74251   -6422.2894   -5859.5876   -6422.2894            0    2095.2284    23.594764    21.580913    21.624782    11011.265    244.01019    2128.7025    3912.9724   -148.11172    1649.8702   -600.42852   -5523.1191 
 5254000    210.22973   -6436.2321   -5895.4289   -6436.2321            0    3056.9183    23.450356    21.568795    21.669366    10960.277    1448.6846    3437.0364    4285.0339   -505.57059    431.39398    861.54996   -5406.7977 
 5255000    207.37196   -6406.0338   -5872.5821   -6406.0338            0    2022.0478    23.481487    21.452865    21.884212    11024.067    1237.6095    2239.1589    2589.3751    1249.7051   -349.14948    255.79026    -5547.488 
 5256000    223.38151   -6422.4702   -5847.8349   -6422.4702            0    1338.5503    23.273656    21.558466    22.093066     11085.07    2485.1496    1201.1183    329.38294   -5.3721441   -136.77891    -605.0753    -5631.439 
 5257000    214.64332   -6433.7095   -5881.5526   -6433.7095            0    2120.9376    23.334699    21.522433    22.005783    11051.733    2510.8595    1284.6197    2567.3335    1177.1314   -195.27405   -58.621926   -5539.7037 
 5258000    215.61409   -6413.8472   -5859.1931   -6413.8472            0    2059.6035    23.413218    21.479522    21.949267     11038.39    885.16195    2676.2569    2617.3917    1081.3972    391.47666    796.92378   -5527.6307 
 5259000     220.6011   -6393.9696   -5826.4867   -6393.9696            0    2334.8491    23.486806    21.528719    21.779841    11012.777    2837.9439    2094.4481    2072.1553    628.60677   -967.00259    856.51553   -5451.4865 
 5260000    219.23738   -6419.3084   -5855.3336   -6419.3084            0    1582.9014    23.520628    21.561596    21.693697    11001.791    805.93145    2291.6736    1651.0993   -318.11784     436.2726   -244.97443   -5601.3573 
 5261000    209.90302    -6407.924   -5867.9613    -6407.924            0    1524.9529    23.527264    21.546474    21.826694    11064.597    1480.4893    2046.0372    1048.3323    193.64728     1054.713    -186.8357   -5621.8861 
 5262000      219.691   -6390.1611   -5825.0194   -6390.1611            0     1230.411    23.460021    21.510281    21.986574    11095.121    599.78716    2402.2147    689.23119     684.3987    1218.4765    1036.8364   -5625.9254 
 5263000    216.80076   -6399.7373   -5842.0306   -6399.7373            0    1436.3591    23.550278    21.482705    21.878768    11068.987    1699.3722    2437.7812    171.92396   -35.163275   -298.63358   -696.21937   -5610.1594 
 5264000    213.78383   -6442.2149   -5892.2691   -6442.2149            0    1009.6359    23.362033    21.736676    21.770479    11055.331    3173.6283   -818.23763     673.5171   -344.51026   -109.60102   -626.42222   -5729.4848 
 5265000    214.45886   -6406.8439   -5855.1615   -6406.8439            0    128.60738    23.707807    21.351949    21.979528    11126.211    15.146869    1262.6804   -892.00515    151.93157    -812.0478   -581.41348   -5834.2931 
 5266000    215.42584   -6419.4549    -5865.285   -6419.4549            0    1425.0252    23.347838    21.650349    21.927247    11083.979    1660.6837    1117.5798    1496.8122    183.27411     192.9036    562.50175   -5634.9319 
 5267000    218.93456   -6420.5465   -5857.3507   -6420.5465            0    1936.4121    23.498893    21.522956    21.767249    11009.127    1597.7374     2288.901     1922.598   -299.11795    172.85277   -329.72782   -5546.4465 
 5268000    208.69226   -6428.4844   -5891.6363   -6428.4844            0    2099.2117    23.560518    21.459232    21.790136    11016.889    1196.9131    2933.4854    2167.2367    -707.5132    864.78351   -358.95032   -5554.3559 
 5269000    215.41264   -6424.2856   -5870.1497   -6424.2856            0    2903.6779    23.292257    21.608514    21.779064    10961.643    4270.8371    2178.4425    2261.7541   -883.05061    922.10028   -65.700921   -5405.9552 
 5270000    214.71046   -6430.0185   -5877.6889   -6430.0185            0    3036.6463    23.439759    21.390491    21.895252    10978.015    3115.7132     3497.727    2496.4988   -642.35774     291.0648      -599.42   -5391.5125 
 5271000    211.05698   -6441.5509   -5898.6197   -6441.5509            0    1713.3903    23.225707    21.642637      21.9582     11037.63    2997.4431    849.41889     1293.309   -974.33637    508.73418   -470.83233    -5622.811 
 5272000    209.48174    -6395.226    -5856.347    -6395.226            0    3152.1622    23.421851    21.440184    21.879809    10987.358    2843.7211    4115.3094    2497.4561    1029.3593   -864.66981   -684.00905   -5351.2466 
 5273000    224.23369   -6448.6413   -5871.8138   -6448.6413            0     2560.858    23.372607    21.396073    22.018809     11011.21    1093.1006    4901.7461    1687.7275    584.99097   -217.25973   -57.774107   -5460.5727 
 5274000    232.32421   -6400.9757   -5803.3359   -6400.9757            0    2149.7477    23.370856    21.555456    21.938181    11051.785    2306.0022    2600.4634    1542.7774    192.91717    815.56801   -938.47501   -5456.8418 
 5275000     222.2989    -6402.734   -5830.8837    -6402.734            0    1740.1911    23.685711    21.480945    21.766198    11074.456    1355.1087    2231.2182    1634.2464    97.651513    357.21914   -1395.5807   -5549.8261 
 5276000      222.803   -6407.8623   -5834.7152   -6407.8623            0    1443.2307    23.511313    21.656328    21.731474    11064.986    1457.0328    569.92885    2302.7305    588.45302     643.5023    756.41668   -5601.8189 
 5277000    210.74307   -6391.3425   -5849.2188   -6391.3425            0    1414.6545    23.501645    21.636213    21.758942    11064.131    443.71448    1760.8668    2039.3822   -136.33918    1405.2953    657.24481   -5620.9516 
 5278000    216.06441   -6447.4391   -5891.6266   -6447.4391            0    578.68929    23.606007     21.54968    21.847276     11113.75   -160.54839    1240.2563    656.35999   -881.11817   -157.93658   -187.06826   -5797.8311 
 5279000     208.5083   -6421.7541   -5885.3792   -6421.7541            0    1555.3576    23.294974    21.644727    21.912958    11048.806    1389.1719    1359.1096    1917.7912    707.53649    708.65342    2014.9647   -5634.7559 
 5280000    227.72037   -6415.8684   -5830.0716   -6415.8684            0    1984.5495    23.472805    21.385099    22.059265    11073.051    1605.0544    3189.8565    1158.7377    1430.5219   -910.43564   -293.72308   -5509.5885 
 5281000    215.10984   -6389.5062   -5836.1492   -6389.5062            0    1789.3065    23.388371    21.626131    21.926134    11090.238    842.12558    2725.5457    1800.2482   -876.06575    1332.9325   -1087.6233   -5546.7472 
 5282000    219.59601   -6418.8579   -5853.9605   -6418.8579            0    1329.4971    23.573305    21.448084    21.842952    11043.845    238.05535    2381.2095    1369.2263    151.80003    518.56319    100.83101   -5639.8275 
 5283000    211.53227    -6407.781   -5863.6271    -6407.781            0    2264.8031    23.459932    21.621196    21.746084    11030.305    1706.4897    1722.4406    3365.4789    616.96626    946.74695    776.94469    -5499.298 
 5284000    209.42867   -6411.5937   -5872.8513   -6411.5937            0    1851.1064    23.476662    21.626284    21.730804     11033.01    2052.6469    2423.7863    1076.8859   -435.65849    728.35473   -957.77735   -5574.9987 
 5285000    209.08864   -6431.4651   -5893.5973   -6431.4651            0    1498.5152    23.450901    21.428146    21.932322    11021.197    1399.2639    2189.9541    906.32761   -425.13834    974.36564   -179.92137   -5652.7367 
 5286000    211.37853     -6426.75   -5882.9916     -6426.75            0    1772.4112    23.179339    21.720162     21.91376    11032.679     1437.221    2492.1357     1387.877    947.67961    664.76148   -291.51929   -5597.8101 
 5287000    221.42157   -6431.2274   -5861.6339   -6431.2274            0    2183.8915    23.550457    21.272552    21.967564    11005.274    1307.4457    3689.2415    1554.9872   -66.875871    117.59891   -485.79602    -5511.118 
 5288000    216.33067   -6422.1116   -5865.6142   -6422.1116            0    2452.7556    23.234231    21.658047    21.899818    11020.165    2789.7691    2472.9701    2095.5275     922.7474   -718.90001    183.39253   -5471.4127 
 5289000    215.60222   -6423.6403   -5869.0168   -6423.6403            0    2905.1229     23.54597    21.395365     21.82067      10992.7    2425.4572    4276.3959    2013.5155     344.5677     271.9004     214.8933   -5403.2755 
 5290000    207.70642   -6417.3328   -5883.0207   -6417.3328            0    2502.5177    23.535929    21.495134    21.669705    10962.876    2332.9244    1813.1807    3361.4479   -653.37318   -614.15707   -97.814435   -5482.9124 
 5291000    212.12548   -6430.7996   -5885.1197   -6430.7996            0    1815.4406    23.415903    21.586101    21.822957    11030.589     1341.178    1336.6678    2768.4761    38.950946    774.66699   -24.854439   -5593.0701 
 5292000    225.11547   -6453.5742   -5874.4784   -6453.5742            0    1390.4696    23.464341    21.376483    21.988412     11029.06     1406.972    2100.1233     664.3135     240.7921    638.40742   -494.84047   -5650.8248 
 5293000    216.65644    -6411.127   -5853.7915    -6411.127            0    2676.5023    23.076186    21.643649    21.977027     10976.49    4103.9681    2463.8399     1461.699   -241.32361    210.07414    839.68047   -5425.3348 
 5294000    216.79516   -6413.6871   -5855.9947   -6413.6871            0    2921.8365    23.579337     21.36558    21.771483    10968.173    2858.8311    3128.5829    2778.0954   -847.30539    317.88998   -837.03584   -5388.6191 
 5295000    203.52485   -6446.5795   -5923.0242   -6446.5795            0    1851.1515    23.323302    21.741924    21.670727    10989.084    2742.4031    377.00676    2434.0448    368.17216    302.57046   -503.96229   -5626.3503 
 5296000    218.35252   -6420.7008   -5859.0023   -6420.7008            0    2304.8734     23.62922    21.429643    21.696701    10986.466    1554.9405    2751.1184    2608.5614    281.70845   -16.021503    903.39395   -5489.7009 
 5297000    207.71555   -6418.5037   -5884.1681   -6418.5037            0    2955.4127    23.245676    21.597424    21.879096    10984.328    3546.4721    3284.8265    2034.9395     -21.5139   -234.34245   -15.690482   -5410.7252 
 5298000    223.44324    -6423.156   -5848.3619    -6423.156            0    2762.2946    23.354961    21.543122    21.870447     11003.87    3012.1859    2583.0727     2691.625    365.66257   -100.79202    -21.16018   -5405.0685 
 5299000    220.64015   -6415.1296   -5847.5462   -6415.1296            0    1832.1195    23.485185    21.412507    21.966154    11046.267    1934.9688    3123.2101    438.17955   -1048.8594    140.13972   -587.20586   -5552.3946 
 5300000    220.98084   -6429.1748   -5860.7151   -6429.1748            0    2732.5149    23.273189    21.735411    21.738759    10996.601    3132.0237    1590.6219     3474.899   -1065.1851    511.92162   -103.24436   -5422.4903 
 5301000     219.5585   -6402.9266   -5838.1257   -6402.9266            0    2563.0376    23.596667    21.392118    21.777302    10992.805    2748.3741    2114.2666    2826.4719    167.30997    83.903383    1160.8084   -5427.2226 
 5302000    210.03399   -6430.2535   -5889.9539   -6430.2535            0     2735.497    23.465618    21.621792    21.675952      10997.7    2366.9468    2455.0325    3384.5117    381.55729    285.13925   -415.15635    -5451.207 
 5303000     213.6426   -6435.4953   -5885.9127   -6435.4953            0    2459.3464    23.518543     21.51548    21.765805    11013.775    1768.1725    2944.0181    2665.8486   -331.64342   -464.02069   -714.88099   -5490.8811 
 5304000    214.50694   -6402.9705   -5851.1645   -6402.9705            0    387.11296    23.391816    21.587085    22.021016    11119.756    1391.2702    568.13641   -798.06774    186.35283    -604.1785   -152.10196   -5788.3863 
 5305000    215.19037   -6411.3937   -5857.8295   -6411.3937            0    1201.0555    23.416113    21.544107     21.96809    11082.446    2312.9993    953.07191    337.09528   -346.28776   -729.09742   -491.44326   -5663.7076 
 5306000    221.70227   -6406.5285   -5836.2129   -6406.5285            0    413.41469    23.437446    21.539183    22.019184      11115.8    2033.6399   -106.23693   -687.15893   -465.16211    -1241.907   -259.75451   -5769.1932 
 5307000    215.16435   -6417.4802    -5863.983   -6417.4802            0    1385.1284     23.35125    21.718555    21.856157    11084.468    1082.1211    892.63862    2180.6256     795.3123    120.06913    985.46907   -5640.0692 
 5308000    219.18191   -6433.1569   -5869.3248   -6433.1569            0    624.63611    23.747171     21.39838    21.780132    11067.596   -1080.0801    1311.9343    1642.0542     203.7162    126.70047    981.78607   -5768.5026 
 5309000    223.56101   -6436.8104   -5861.7134   -6436.8104            0    1871.0605    23.328482    21.709561    21.735118    11007.775    2434.5848    466.99444    2711.6022   -375.32019    499.39187    259.84669   -5561.3387 
 5310000    216.48283   -6455.2994   -5898.4105   -6455.2994            0    2175.2891    23.555601    21.426906    21.792431    10999.155     1277.423    2275.9175    2972.5267   -416.46118   -255.96494   -836.77733   -5549.4694 
 5311000    211.73275   -6414.2136    -5869.544   -6414.2136            0     1370.583    23.307559    21.651316    21.907397    11055.334    371.97665    2084.0994    1655.6728    1826.8034   -213.93569    1393.5301   -5648.5639 
 5312000    218.17458   -6411.3849   -5850.1441   -6411.3849            0    1804.0083    23.537343    21.497037    21.902349    11082.219    1949.8978    2230.4472    1231.6798   -268.09575    -995.1951   -857.27979   -5558.5752 
 5313000    221.17107   -6391.7567   -5822.8076   -6391.7567            0    2152.5469    23.478841    21.537661    21.832443    11040.215    2786.5366    1657.0207    2014.0833   -435.43228    148.12952   -57.503809   -5476.2255 
 5314000    213.88471   -6424.0934    -5873.888   -6424.0934            0      1675.29    23.329384    21.591694    21.866046    11014.385     2151.528    1824.4741    1049.8677   -48.661399    337.36342   -267.37477   -5604.7803 
 5315000    208.77339   -6440.8686   -5903.8118   -6440.8686            0    2401.2131    23.630436    21.333435    21.813355    10996.513    1577.6154    2596.3742    3029.6496   -437.08792    1447.2383    66.214268   -5518.7223 
 5316000    224.16222   -6416.6106   -5839.9669   -6416.6106            0    1333.4952    23.312504    21.742288    21.829505     11064.66     1885.124    739.14865     1376.213   -993.92302    391.40176   -655.02379   -5624.7852 
 5317000    213.66693   -6453.7789   -5904.1337   -6453.7789            0    1418.5903    23.533331    21.377967    21.919261    11027.466    277.02538    2774.0811    1204.6643   -886.82394    806.36292    352.15259     -5675.99 
 5318000    213.67065   -6439.5921   -5889.9374   -6439.5921            0    1880.6311    23.233914    21.538533      22.0311      11024.9    2878.7075     2594.645    168.54083    451.44112    144.76727   -59.775752   -5587.5566 
 5319000    204.68506   -6439.0899   -5912.5501   -6439.0899            0    2364.2089    23.409877    21.469459    21.931828     11022.88    2336.1562    2213.9614     2542.509    1474.1577    -720.4124   -4.0901028    -5532.486 
 5320000    210.72581   -6415.5488   -5873.4695   -6415.5488            0    2763.5825    23.428841    21.589375    21.752095    11002.515    2244.8816    2143.7241    3902.1418    777.67597    -312.7889    1248.7469    -5430.024 
 5321000    222.01511   -6430.6013    -5859.481   -6430.6013            0     2505.245    23.489388    21.420299    21.893204    11015.559    2471.0843    2601.2991    2443.3515    584.07627   -678.52651    700.08341   -5457.0118 
 5322000    225.53802   -6395.8416   -5815.6588   -6395.8416            0    1990.8636    23.264108    21.555437    21.990597    11027.581    2718.8638    1839.4561    1414.2711    289.07589    -40.06216   -137.07775   -5495.4763 
 5323000    210.11121   -6429.9061   -5889.4078   -6429.9061            0    2561.8007    23.388793    21.563062    21.826403    11007.797    2499.3673    1837.6392    3348.3956   -61.340785    949.77955   -76.219206   -5478.1429 
 5324000    212.66538   -6419.4388   -5872.3701   -6419.4388            0    2152.7307    23.548949    21.519137    21.714456    11003.867    1871.0897    1805.2403    2781.8622    350.36633    83.610935   -632.02113   -5526.8996 
 5325000    218.76381   -6423.4896   -5860.7331   -6423.4896            0     3074.761    23.340258    21.630252    21.737279    10974.189    2818.5858     2074.413    4331.2841    810.51681   -88.843553     1830.521   -5368.6259 
 5326000    218.31685   -6431.0771   -5869.4703   -6431.0771            0    3565.5946    23.486138    21.401938    21.759915    10937.597    4500.3015    2784.1368    3412.3454   -616.15514    298.19795     848.8727   -5300.7094 
 5327000    217.35096   -6446.2416   -5887.1195   -6446.2416            0    2798.4132    23.342699    21.647528    21.699892     10965.21    2634.5043    2699.3853      3061.35    1068.4647   -734.06416   -639.20102   -5439.6075 
 5328000    225.03712   -6413.0877   -5834.1934   -6413.0877            0    1168.4855    23.572202    21.448213    21.939267     11092.09    892.61589    1608.3977    1004.4428   -299.15368   -355.14214    1005.9379   -5645.1713 
 5329000    213.31851   -6438.0457   -5889.2968   -6438.0457            0     2641.678    23.235296    21.595717    21.866737    10972.354     3829.106    1806.8021    2289.1259    728.60934    578.36929   -251.50971   -5466.5741 
 5330000    221.48523   -6406.6151   -5836.8578   -6406.6151            0    1905.7574    23.562808    21.486563    21.871154     11073.01    1846.5162    2334.7938     1535.962    1006.9387    -464.3165   -783.81522   -5529.0999 
 5331000    218.49036   -6450.0669   -5888.0138   -6450.0669            0    1659.3985    23.439125    21.599313    21.827456    11050.564    1746.1467    810.56849    2421.4802   -585.93621   -540.48138    320.21858   -5620.5832 
 5332000    206.71349   -6413.7909   -5882.0331   -6413.7909            0    2047.3545    23.416021     21.60567    21.838437    11048.476    1881.6578    1449.5432    2810.8624   -179.53766   -405.32669     708.4472   -5552.1414 
 5333000    211.17364   -6415.3778   -5872.1465   -6415.3778            0    741.97931    23.538293    21.527584    21.878443    11086.301    907.48844    510.58766    807.86182    -1064.724    57.050402   -744.21634   -5752.1815 
 5334000    223.60327      -6403.2   -5827.9942      -6403.2            0     592.3393    23.445415    21.687604    21.861016    11115.778    769.64541   -380.28928    1387.6618    600.37166     -898.974    471.45464   -5731.9687 
 5335000    212.93644   -6427.0826   -5879.3166   -6427.0826            0    250.23694    23.500983     21.43743    22.077522    11122.671    1672.3803   -378.38416   -543.28532    286.26392   -1562.5366    1008.7458    -5838.725 
 5336000    208.84526   -6417.1661   -5879.9244   -6417.1661            0    946.12713    23.277264    21.698947    21.898482    11060.751    1911.7913   -257.14191     1183.732    228.36123   -981.96149    401.89462   -5727.3049 
 5337000    213.03054   -6440.8229   -5892.8148   -6440.8229            0    2016.6134    23.504099    21.451039    21.803668    10993.133    2011.3467    2375.6361    1662.8576   -532.97808   -415.01153   -107.24038   -5569.5042 
 5338000    217.48928   -6415.4375   -5855.9596   -6415.4375            0    2731.0201     23.33803    21.628091    21.777451    10992.322    2977.2997    1409.9547    3805.8059   -890.75206    1205.2396     37.11401    -5418.145 
 5339000      208.087   -6445.3212     -5910.03   -6445.3212            0    1782.4409    23.369984    21.601212    21.773373    10991.634    1784.1615    1573.0196    1990.1416   -391.74783   -883.06304   -243.22315   -5624.3017 
 5340000    214.85115   -6436.6623   -5883.9709   -6436.6623            0    2575.2609    23.510465     21.34163    21.946506    11011.695    1564.6075     4464.369    1696.8063    484.32476   -29.645467    -138.3772   -5470.3987 
 5341000    208.12311   -6433.2183   -5897.8343   -6433.2183            0    1551.9484    23.393137    21.655196    21.706207    10995.995    1022.7949    286.21394    3346.8365    1129.4059   -583.92016    7.7483916   -5648.9556 
 5342000    212.39407   -6409.1284   -5862.7576   -6409.1284            0    1204.5458    23.528306    21.463363    21.841186    11029.724    398.23382    2366.3562    849.04745    987.38254   -414.50575   -67.945872   -5668.9977 
 5343000    213.85723   -6422.7631   -5872.6284   -6422.7631            0    517.08151     23.34603    21.617235    21.923179    11064.115    897.33031   -404.31665    1058.2309    113.27192    -595.0771     501.6986   -5789.1928 
 5344000    218.56344   -6426.9467   -5864.7056   -6426.9467            0    1134.3065    23.411842    21.529056    21.974876    11076.103    409.41493    1548.3102    1445.1943   -570.09278   -134.38344   -459.01889    -5681.477 
 5345000    205.41138   -6435.7142    -5907.306   -6435.7142            0     2384.464    23.344758    21.538838    21.869779     10996.54    3374.1401     1567.643    2211.6088    82.672027    714.05302    394.34643   -5524.9017 
 5346000    217.50479   -6397.5879   -5838.0701   -6397.5879            0    1969.5888    23.480004    21.513243    21.887336    11055.972    2057.0535     1263.928    2587.7848    605.39541    453.97347    1117.3808   -5520.4936 
 5347000    208.00728   -6408.7994   -5873.7133   -6408.7994            0    1275.1423    23.535321    21.632617    21.738643    11067.808     332.1759    776.33803     2716.913    1106.9263   -1509.9485   -648.91206   -5667.8893 
 5348000    205.77572   -6433.0811   -5903.7356   -6433.0811            0    1421.4574    23.441483    21.585049    21.863113     11062.42      717.441    1473.5386    2073.3924    46.194676    165.94845   -684.09097   -5674.4062 
 5349000    203.68953   -6388.2523   -5864.2734   -6388.2523            0    1605.0104    23.433771    21.476467    21.966957    11055.412    1401.8379    1308.4552    2104.7381    513.83566   -451.84704    150.03574   -5605.4946 
 5350000    204.45242   -6413.6528   -5887.7114   -6413.6528            0    1042.2455    23.402075    21.659963    21.857387    11079.249    2141.3627   -496.62512    1481.9988    38.641995   -1062.7623    1023.8704   -5719.3059 
 5351000    218.21687   -6456.2106    -5894.861   -6456.2106            0     1054.601     23.47156      21.5859    21.822604    11056.526    1222.1458    745.49851    1196.1587    451.27475   -519.17316   -1954.1266   -5724.8086 
 5352000    210.72444   -6414.5564   -5872.4807   -6414.5564            0    1569.8412    23.419855    21.489025    21.902975    11023.107    1591.2507    1143.6201    1974.6527    81.554209    5.6731208    366.93108   -5620.1119 
 5353000    219.73056   -6405.4425    -5840.199   -6405.4425            0    2325.1169    23.456265    21.482172    21.861672    11015.911    2278.4712      2500.34    2196.5396   -825.85048    831.92585    448.82787   -5466.6556 
 5354000    213.08594   -6407.5611   -5859.4105   -6407.5611            0    1807.5388     23.48731    21.616064    21.735835    11035.353    2429.9391    653.45027    2339.2269   -1091.5567   -1989.6036    203.01535   -5568.5065 
 5355000    215.13453    -6408.426   -5855.0055    -6408.426            0     1302.503     23.46269    21.547116    21.863384    11053.106    1005.9856    776.29098    2125.2325    965.24163    966.84471    735.62704   -5645.0443 
 5356000    212.54859   -6435.1467   -5888.3784   -6435.1467            0    2756.0303    23.465195    21.462188    21.854834     11006.41    2543.6474    3694.8132    2029.6303   -7.7760827    503.46789   -418.72514   -5445.9881 
 5357000    211.79636   -6423.6094   -5878.7762   -6423.6094            0    2482.5636    23.338808    21.605375    21.819114    11002.151    3585.9538    2531.9404    1329.7964   -643.66256    594.60891   -814.15344   -5480.4363 
 5358000    212.87121   -6421.7388   -5874.1406   -6421.7388            0    2775.4815    23.409565    21.485875    21.874753    11002.454    4125.1721    2091.0098    2110.2626   -157.16229   -23.332254    24.177146   -5428.7882 
 5359000    213.64819   -6431.5284   -5881.9315   -6431.5284            0    1608.6912    23.294914    21.533263     22.02834    11049.757    2771.5443    1476.1923     578.3371    -561.1104    96.285542    250.39086   -5622.6919 
 5360000     204.8084   -6404.7594   -5877.9023   -6404.7594            0    2018.3662    23.532929    21.447527    21.859318    11032.903     1828.199    1762.7941    2464.1053     173.3103    428.34302    231.02534   -5553.1399 
 5361000    207.99115   -6398.6624   -5863.6178   -6398.6624            0    1073.6047     23.52529    21.668665    21.710344      11067.1   -154.63294    1567.3051    1808.1421    750.31261    611.53937    53.983209   -5690.3355 
 5362000    224.05181   -6441.3675   -5865.0078   -6441.3675            0    1144.3632    23.554139    21.663507    21.681687    11063.412   -153.65693    183.71404    3403.0325    125.44879    115.62233    726.80625   -5680.3665 
 5363000    216.23795   -6425.8343   -5869.5753   -6425.8343            0    2093.7127    23.556851    21.533842    21.801317    11059.143    831.33969    2043.6533    3406.1452    428.88928    125.95372    782.66197   -5531.8882 
 5364000     211.9949   -6399.9064   -5854.5624   -6399.9064            0    2382.5882    23.296231    21.673343    21.833616     11023.95     2164.503    1039.6449    3943.6166   -1060.5178    738.88901   -653.90116   -5471.5065 
 5365000    211.13795   -6400.6648   -5857.5252   -6400.6648            0    1480.8705    23.463509    21.418216    22.004706    11058.388    701.57352    1472.6182    2268.4198     121.8344    753.25123     327.7352   -5618.6975 
 5366000    205.59212   -6437.0643   -5908.1911   -6437.0643            0     2069.616    23.429326     21.56974    21.785895    11009.818    3062.4848    1074.7699    2071.5934   -891.34033   -761.84072   -426.12519   -5575.8793 
 5367000    204.02705   -6456.7584   -5931.9112   -6456.7584            0    1443.9858    23.391465    21.572491    21.779813    10990.359    1865.0632    977.10686    1489.7872    59.473707    456.83273    765.27587   -5700.4647 
 5368000    206.96145   -6425.4793   -5893.0835   -6425.4793            0    2233.9588      23.5319    21.295838    21.920259    10984.933    2380.4418     2703.106    1618.3287   -214.32228   -545.92355    243.91787   -5535.1944 
 5369000    215.26729   -6435.4573   -5881.6953   -6435.4573            0    1794.4331    23.359773    21.563447    21.864602    11013.577    2574.9794    274.64187    2533.6781    210.62002     470.1075    635.07287   -5593.4704 
 5370000    209.59803   -6414.1083   -5874.9302   -6414.1083            0    2499.5545    23.392377    21.480832    21.925422    11017.255     2239.413    3100.1764    2159.0742   -1531.0972    131.93248   -165.89485   -5473.3133 
 5371000     211.4266   -6421.3537   -5877.4717   -6421.3537            0    2372.8609    23.354126     21.58084    21.886167    11030.664    3613.7483    1218.8161    2286.0183   -798.73987   -229.92506    -1028.216   -5495.7473 
 5372000    216.47582   -6392.6532   -5835.7824   -6392.6532            0     1803.731    23.410322    21.501275    21.904641     11025.74    2316.4077    1667.9752    1426.8103    411.86744    408.08134   -169.95688    -5545.744 
 5373000    211.26712   -6425.2002   -5881.7284   -6425.2002            0    1053.5294    23.424036    21.547688    21.930727    11069.179    472.53249     1761.923    926.13264    319.17792   -50.170064   -7.2646203   -5711.6544 
 5374000    215.55272   -6414.3263   -5859.8301   -6414.3263            0    455.24414    23.511479    21.644896    21.827779    11108.233     349.4045    202.89558    813.43233   -1023.9937   -436.55753   -572.92022   -5786.0795 
 5375000    215.57395   -6392.5754   -5838.0245   -6392.5754            0    2557.7568    23.327974    21.547747    21.868387    10992.479    4410.1314    1694.9494    1568.1896   -87.984033   -923.04076    111.17288   -5427.9802 
 5376000    215.27685   -6425.4947   -5871.7081   -6425.4947            0    2836.0864    23.372204    21.480981    21.840118    10965.004    4228.1283    1924.6051    2355.5259    8.7383473   -1136.5517   -143.65607   -5418.1801 
 5377000    222.49088   -6446.4067   -5874.0624   -6446.4067            0    3674.6807    23.375237    21.481939    21.791119    10942.311    3723.8255    3736.8272    3563.3893   -157.82743    987.18331   -405.14227   -5287.6481 
 5378000    224.17946   -6448.3836   -5871.6956   -6448.3836            0    3752.7155    23.257526    21.487716    21.867953    10928.534    3053.9141    4742.4809    3461.7516   -140.00264    298.52859   -1086.5402   -5273.5823 
 5379000    220.21006   -6396.0452   -5829.5682   -6396.0452            0    3079.4421    23.444777    21.447947    21.819396    10971.716    3087.8741    3428.0346    2722.4176   -1455.7734    364.10375    312.75805   -5336.8229 
 5380000    209.00039   -6458.4411   -5920.8003   -6458.4411            0    1880.8018    23.348495    21.586791    21.825454    11000.445    2824.6963    221.65919    2596.0499   -851.39628    229.22574    707.13462   -5619.0628 
 5381000    204.85034   -6430.0273   -5903.0623   -6430.0273            0    2431.1331    23.463674    21.504081    21.810228    11004.672     2143.348     2563.521    2586.5304    1109.2525   -435.48604   -519.28999   -5512.8852 
 5382000    219.74826    -6408.827    -5843.538    -6408.827            0    950.33393    23.610784    21.602163    21.753872    11095.432    318.27631    833.51282    1699.2127    27.942009   -220.19617   -248.99673   -5689.7592 
 5383000    206.68667   -6387.0867   -5855.3978   -6387.0867            0    520.18164    23.463189    21.585565    21.943576    11113.679    125.81751    1068.6349     366.0925    1233.4612   -1237.5078   -118.71085   -5771.0859 
 5384000    201.07138     -6422.04   -5904.7962     -6422.04            0    630.83861    23.389023      21.5905    22.036201    11127.857    1138.5699    475.19647    278.74952   -467.69534   -304.81826   -117.40048   -5802.4184 
 5385000    208.15767   -6447.7362   -5912.2633   -6447.7362            0    1751.8754    23.418394    21.444865    21.956367    11026.582    2751.7208    1146.1201    1357.7854    121.24447    152.62237   -109.05959   -5630.5418 
 5386000    219.99041   -6420.0426   -5854.1307   -6420.0426            0    2315.1269    23.328259    21.620382     21.83569    11013.177    2663.4259    1648.4647    2633.4901    418.67235    954.41893    673.89326   -5482.2846 
 5387000    211.00059   -6422.7445   -5879.9583   -6422.7445            0    3108.6097    23.509579    21.408865    21.814451    10979.506    1584.4262    5343.8195    2397.5834   -215.70191   -185.28035   -591.95119   -5382.1928 
 5388000    202.29645   -6419.7011   -5899.3058   -6419.7011            0    2239.2009    23.406228    21.677943    21.695878    11008.464    2751.6727    1601.6524    2364.2776    47.125308   -1584.2433   -487.95614   -5539.8085 
 5389000    216.14532   -6448.1214   -5892.1007   -6448.1214            0    2287.1221    23.448234    21.504159    21.798251    10991.431    1438.7113    2670.2536    2752.4013    953.38239    -433.7176    424.93674   -5525.4779 
 5390000    212.66656   -6419.6215   -5872.5497   -6419.6215            0    599.43029    23.384129    21.591235    21.991826    11103.502     49.86263    1409.4482    338.98002    463.82903   -23.565532   -331.74618    -5775.482 
 5391000     208.9284   -6426.8576    -5889.402   -6426.8576            0    860.36998    23.555779    21.550558    21.854586    11094.266    533.99894    718.38789    1328.7231   -480.54207   -1188.4633    -44.07387   -5750.1954 
 5392000    219.87159   -6434.6663     -5869.06   -6434.6663            0    2169.9095    23.270881     21.65666    21.851265    11012.372    2180.4628    1734.0127    2595.2531    662.19243     -130.257    859.07974   -5520.5635 
 5393000    216.59487   -6417.4537   -5860.2766   -6417.4537            0     770.7621    23.349069    21.455057    22.139924    11091.119    1845.5138    1313.0468   -846.27433    523.66598    176.03552   -1011.1891   -5735.6039 
 5394000    215.50463   -6430.6447   -5876.2721   -6430.6447            0    2295.2814    23.285987    21.521076    22.004094    11027.121    3198.6018    2583.5895    1103.6528   -839.14927    625.80122   -872.71036   -5507.1467 
 5395000    217.16867   -6397.3819   -5838.7288   -6397.3819            0    1790.6114    23.429122    21.536813    21.848944    11024.729    2734.0658    1274.2518    1363.5166    -757.6335   -1482.5322    303.31192   -5550.8265 
 5396000    216.80285     -6444.25   -5886.5379     -6444.25            0    2154.5396    23.451001    21.615787    21.686246    10993.015    2244.3568    1505.6108    2713.6513   -279.31716    407.74872   -244.69807   -5541.1181 
 5397000    211.26016   -6432.0876   -5888.6337   -6432.0876            0    1821.8407    23.597812    21.432879    21.743902    10997.393    1556.8766    1920.0235    1988.6219    283.76899    11.071485     402.6265   -5596.4365 
 5398000    217.62266   -6455.8058   -5895.9847   -6455.8058            0    2948.6972    23.343953     21.55071    21.760575    10947.283    3802.1204    1943.7065    3100.2646   -810.41159   -219.39661    78.306517   -5425.2108 
 5399000    216.76005   -6393.8894   -5836.2873   -6393.8894            0    3416.7618    23.303541    21.493975    21.913415    10976.117    4392.2675    2755.3913    3102.6268   -929.99403   -1332.1331   -341.93104   -5289.3478 
 5400000      213.461   -6438.1437   -5889.0283   -6438.1437            0    2790.4106    23.311412    21.469222    21.909585    10965.262     3465.815    2243.4767    2661.9399    346.61965   -473.46471    170.45391   -5442.7939 
 5401000    218.93917   -6411.6732   -5848.4656   -6411.6732            0    3016.8528    23.259916    21.569965    21.883376    10979.231    3791.0272    2594.6502    2664.8809   -172.43784    659.88609   -50.680196   -5365.4046 
 5402000    208.67145   -6439.2714   -5902.4768   -6439.2714            0    1503.5489    23.556154    21.475925    21.825725     11041.42    1151.2271     2074.128    1285.2916    850.32706   -825.19818    416.30056   -5660.3636 
 5403000    224.59869   -6426.4821   -5848.7156   -6426.4821            0    1112.8492    23.495613    21.687596    21.757328    11086.737    -139.3799    814.49449    2663.4329    625.33726    490.39923    497.35062   -5668.7805 
 5404000     215.6962   -6427.4225   -5872.5572   -6427.4225            0     705.7534    23.574772    21.594363    21.753186    11074.159    628.95381    306.44638      1181.86    585.54009   -519.13482    63.274928   -5758.5743 
 5405000    201.58981   -6416.7188   -5898.1413   -6416.7188            0    1982.5895     23.44653    21.567572    21.833126    11040.678    1805.2337    1767.6061    2374.9286    290.67406    311.39611    696.61675   -5578.9108 
 5406000    201.79848   -6437.3574   -5918.2431   -6437.3574            0    1371.6461    23.347111    21.527712    21.974183    11044.441    2477.5581    437.33116     1200.049   -683.92353   -505.97623   -611.99024   -5697.3095 
 5407000    201.69415   -6405.8923   -5887.0464   -6405.8923            0    1584.4305    23.413414    21.430728     22.00071    11039.219    641.91097    3020.2836    1091.0969   -204.29119    379.06217    159.95075   -5631.9599 
 5408000    211.14448   -6430.2802   -5887.1239   -6430.2802            0    769.63097    23.326996    21.637946    21.941405    11074.887    192.79021    1211.2677    904.83499    194.71528    691.39963    233.44373   -5762.8163 
 5409000    220.46905   -6431.8629   -5864.7197   -6431.8629            0    2206.3608    23.636242    21.488686    21.656468    10999.575    1045.7318     2976.861    2596.4895    424.78357   -198.23508   -636.96984   -5510.7808 
 5410000    217.99303   -6443.4655   -5882.6917   -6443.4655            0    2255.8128    23.403201    21.611464    21.698794     10974.76    2859.0458     915.4577    2992.9349    1601.4226   -80.428681    527.29249   -5521.6362 
 5411000    210.41372   -6438.5347   -5897.2582   -6438.5347            0    2729.0717    23.368411    21.425225    21.906836    10968.171    3509.8829    2204.2917    2473.0404   -270.07154    281.30354    795.30846   -5460.7172 
 5412000    216.75946   -6420.0626   -5862.4621   -6420.0626            0    2684.5962    23.406527    21.485363    21.928872     11027.98    3821.8483    2701.1672    1530.7731    552.85223   -459.05734     -1063.26   -5430.6937 
 5413000    220.23016   -6445.3103   -5878.7816   -6445.3103            0    1456.4408    23.341468    21.621603    21.888063    11046.467    2563.4389    579.16409    1226.7195   -761.11931   -272.55448   -297.04621    -5644.147 
 5414000    208.97159   -6430.0805   -5892.5139   -6430.0805            0    1575.4534    23.476434    21.518491    21.898393    11062.574     1524.978     1307.078    1894.3043    133.16714   -73.100176    358.46112    -5638.336 
 5415000    217.73406   -6425.6085   -5865.5009   -6425.6085            0    1560.3764    23.280188     21.68905    21.906672    11061.229    1698.1564     1876.987    1105.9858    692.33094    908.25987    94.126106   -5613.7861 
 5416000    226.00038   -6420.3469   -5838.9747   -6420.3469            0    1176.3414    23.612201    21.413063    21.904764    11075.258    385.35846     1926.605    1217.0607   -190.85654   -123.26115   -602.43767   -5648.9705 
 5417000    209.41372   -6417.1044   -5878.4004   -6417.1044            0    1400.9633    23.113229    21.894344    21.805238    11034.519    3459.0442   -494.66722    1238.5128   -1178.0401   -166.26592   -95.499065   -5652.9474 
 5418000    222.72651    -6425.134   -5852.1836    -6425.134            0    2153.5557    23.600654    21.409581    21.811746    11021.041    1665.4697    2126.6001    2668.5972   -505.47156   -192.14645    1078.1151   -5506.0413 
 5419000    230.19955   -6412.3926   -5820.2182   -6412.3926            0    1262.8726    23.401776    21.679971    21.783797    11052.006    1455.5138    813.54205     1519.562    592.35314   -198.21487   -1413.6803   -5616.6657 
 5420000    217.10151   -6430.5676   -5872.0872   -6430.5676            0    2639.6444    23.445847    21.443465    21.870832    10995.784    2179.9767    3511.2209    2227.7357    1270.3311    381.91242    604.01748   -5448.7879 
 5421000    215.92688   -6427.8525   -5872.3938   -6427.8525            0     2902.631     23.34463    21.485235    21.903237    10985.894    2793.3293     2861.882    3052.6816   -1104.8096    15.903904    528.96035   -5407.3401 
 5422000    222.70799   -6445.5369   -5872.6342   -6445.5369            0     1903.452    23.462686    21.575023    21.750636    11010.346    1911.5559    1043.4994    2755.3008   -535.93254   -245.34344   -173.00769   -5566.9881 
 5423000     210.1326   -6428.0198   -5887.4665   -6428.0198            0    2672.4116    23.418581    21.552422    21.718955    10962.146    2782.3539    2627.1187    2607.7621     1187.864    623.14331    198.05489   -5460.2236 
 5424000    212.02342   -6435.5081   -5890.0907   -6435.5081            0    3246.9851    23.410748    21.538897    21.744849     10964.66    3579.7352    2107.2621    4053.9581    6.0479526    -14.04451   -608.08122   -5370.8708 
 5425000    214.82571   -6421.6119   -5868.9858   -6421.6119            0    2148.0456    23.455421    21.511664      21.8109    11005.019    1916.9332    2634.7177     1892.486    -452.8599   -185.39109   -599.46089   -5524.2311 
 5426000    206.97218   -6430.2203    -5897.797   -6430.2203            0    2387.4827    23.361217    21.538004    21.840225    10988.996     2547.992     2927.547    1686.9091   -481.82166   -708.32336   -1044.1704   -5515.1713 
 5427000    227.69657   -6424.9167   -5839.1811   -6424.9167            0    1433.5546    23.493155    21.424895    21.934764    11040.608    1743.6454    1316.1891    1240.8291    412.82763   -745.00508   -27.148696    -5608.356 
 5428000    210.27543   -6399.1481   -5858.2274   -6399.1481            0    1923.5762    23.340286    21.788273    21.715739     11043.42    2106.3275    556.23587    3108.1652   -281.56485    760.32966    694.23265    -5548.422 
 5429000    210.75506   -6411.4138   -5869.2592   -6411.4138            0    1008.9218    23.598965     21.48945    21.903887    11108.091    344.63465    1429.1799    1252.9508   -696.43197   -194.59628   -264.49617   -5705.8138 
 5430000    223.91595   -6439.0969   -5863.0868   -6439.0969            0    1777.1792    23.242346    21.632021    21.962381    11042.222    2526.1226    407.00416    2398.4109   -165.62512      1061.89     1383.181   -5576.8908 
 5431000    215.74958   -6431.9812   -5876.9786   -6431.9812            0    2554.1359    23.399931    21.438693    21.914064    10993.496    2234.0324    2596.1482    2832.2272    -921.1556   -86.883799    592.60391   -5467.4769 
 5432000    211.45215   -6397.4696   -5853.5218   -6397.4696            0    3348.5191    23.386079    21.545343    21.830587    10999.584    3548.1242    3414.6616    3082.7715   -105.69427   -912.42091   -1011.5536   -5316.3602 
 5433000      217.722   -6451.8003   -5891.7237   -6451.8003            0    1646.9468    23.394956    21.650046    21.740454    11011.581    1696.4131    662.63889    2581.7885    145.31811    824.76697    633.96849   -5627.2362 
 5434000    208.69268   -6420.2105   -5883.3612   -6420.2105            0    2801.9677    23.607147    21.302182    21.850774    10988.399    2910.3035    3015.1214    2480.4781   -60.951707   -201.94999    490.31897   -5434.3332 
 5435000     220.5487   -6419.6343   -5852.2862   -6419.6343            0    2321.3651    23.237824    21.698478    21.837455        11011    3534.9602    2184.3429    1244.7923   -553.58046    398.43079   -1103.0357   -5479.5118 
 5436000    221.61926   -6418.6888   -5848.5868   -6418.6888            0    1619.2011    23.564171    21.363455     21.95622    11053.027    694.57845    3318.2001    844.82478   -89.286262    355.57825   -573.40937   -5587.5764 
 5437000     208.2743    -6437.599   -5901.8261    -6437.599            0    2029.0801    23.161906    21.669164    21.890776    10986.962    3793.3368    1270.9198    1022.9837   -343.98001    307.20755    469.41383   -5576.6993 
 5438000    228.96007   -6439.1371   -5850.1512   -6439.1371            0     2565.487    23.434032    21.497823    21.804257    10984.563    2492.8834    2543.5148    2660.0628    648.18889   -866.56462    -57.22207   -5439.1638 
 5439000    206.35667   -6442.7041   -5911.8641   -6442.7041            0    1754.3543     23.45451    21.545358    21.798009    11015.315    635.06782    2858.7489    1769.2462   -247.48255     1327.674   -1317.6569   -5630.0322 
 5440000    226.38268   -6400.6639   -5818.3083   -6400.6639            0     1920.593    23.381782    21.550271    21.902521    11036.324    2110.5206    2292.2256    1359.0329     1372.694   -69.585546    710.13276   -5509.1822 
 5441000    221.61391   -6417.8704   -5847.7821   -6417.8704            0    2043.4055    23.495916    21.474782    21.880148    11040.059    1597.1243    1597.2244    2935.8678    28.955815   -630.49555    181.46821   -5518.7776 
 5442000    213.34709   -6409.1116   -5860.2893   -6409.1116            0    1130.9466    23.391526    21.721758    21.828648    11091.247    1689.1519   -108.49687    1812.1848    582.99287    -1365.905    555.27842   -5677.3536 
 5443000    206.11356   -6422.1883   -5891.9737   -6422.1883            0    474.65895    23.545778    21.440557    21.986184    11099.386    -484.1445    1147.2228    760.89855   -109.96949    466.50318    669.07681   -5815.1392 
 5444000    220.38526   -6434.4519   -5867.5242   -6434.4519            0    473.58749    23.390824    21.595784    21.963082    11094.501    702.05541    14.723015    703.98404   -11.020161    439.10669    625.32875   -5790.8968 
 5445000    220.11457   -6420.2974   -5854.0661   -6420.2974            0    1794.2852    23.435812    21.529186    21.907907    11053.721     1404.027    2317.7848    1661.0438   -1156.1471   -970.18009   -874.63317   -5564.8144 
 5446000    220.73971   -6443.2098   -5875.3704   -6443.2098            0    1529.6401     23.45251    21.641641    21.743498     11035.93    468.24669    1251.1076    2869.5658   -1325.9601    1784.9049    1535.1972   -5629.1783 
 5447000    211.96887   -6404.0854   -5858.8084   -6404.0854            0    919.83807     23.49046    21.607067    21.827012    11078.517    435.47382    1771.2101    552.83026     89.33097   -301.85405   -0.4177213   -5710.1912 
 5448000    215.91247   -6404.1132   -5848.6915   -6404.1132            0    1372.2236    23.455709    21.534804    21.907697    11065.886    1234.7629    1048.5449    1833.3632   -704.07056   -39.735111    29.516775   -5627.2358 
 5449000     221.4395   -6420.0439   -5850.4043   -6420.0439            0    1782.4148    23.383827    21.545955    21.908973     11038.33    1500.6961    2408.9397    1437.6087    8.0605733   -222.13585   -870.92766   -5563.4663 
 5450000    217.19206   -6441.4298   -5882.7164   -6441.4298            0    2592.3263    23.504242    21.369363    21.861265    10980.272    2367.1671    3488.5217      1921.29    368.33268   -258.71436    397.53719   -5467.5916 
 5451000    214.69834   -6412.9436   -5860.6452   -6412.9436            0    3419.5597     23.34831    21.687607      21.6531    10964.458    2971.9926    2540.0485    4746.6382   -304.10564    42.569038   -125.62525   -5313.8392 
 5452000    213.96165   -6423.7154   -5873.3121   -6423.7154            0    2155.8922    23.453351    21.491212    21.800761    10988.476    2187.3109    1793.3904    2486.9753    164.62779   -283.43016   -213.65581   -5527.8182 
 5453000    201.98823   -6430.7931   -5911.1906   -6430.7931            0    3013.9875    23.213386    21.465175    21.987152    10955.745      3382.44    4411.2964     1248.226    2.2880598    219.66337    568.31615   -5429.6208 
 5454000    219.11232    -6443.676   -5880.0229    -6443.676            0    2668.4646    23.275702    21.488066    21.955205    10980.892    3037.2626    2157.1761    2810.9551    771.60055    -1318.945   -111.91896   -5452.6815 
 5455000    212.01346    -6433.251   -5887.8593    -6433.251            0    3106.2599    23.498583    21.369721    21.889736    10992.109    3414.1954    3833.9968    2070.5875   -98.463173    281.47632   -1525.2688    -5389.899 
 5456000    210.71522   -6451.8746   -5909.8226   -6451.8746            0    1681.5691    23.375581    21.602342    21.836907    11026.924    1200.7876    1548.7152    2295.2046   -283.68921    1170.1581    277.11451   -5639.3987 
 5457000    215.01867   -6450.2581   -5897.1357   -6450.2581            0    1877.9213    23.465634    21.448424    21.825082    10984.583    1659.3416    2577.3809    1397.0415    31.457768   -218.40947    131.10852   -5596.2948 
 5458000    210.75756   -6409.5215   -5867.3605   -6409.5215            0    2547.9917    23.370664    21.664794    21.719715     10997.14    2673.0855    2047.2456    2923.6441   -95.061055    146.01327   -105.58657   -5458.7085 
 5459000    222.63497    -6433.131   -5860.4162    -6433.131            0    1952.7087    23.559032    21.439014    21.828908    11025.398    1275.5217    2527.6385    2054.9659   -760.28167    681.35246    209.43454   -5546.4321 
 5460000    214.79483   -6425.9129   -5873.3663   -6425.9129            0    1966.4913    23.368123     21.63104    21.808404    11023.643     2677.348    1566.7024    1655.4236    1735.4719   -1002.0441    521.54164   -5557.2164 
 5461000    217.02767    -6416.379   -5858.0885    -6416.379            0    2282.1339    23.329573    21.569364    21.935732    11038.149    2675.2325     2522.555    1648.6142    159.73716   -1120.4744   -792.74203   -5490.7104 
 5462000    209.15301   -6433.7218   -5895.6884   -6433.7218            0    1826.2009     23.41847     21.48759    21.907209     11023.85    2402.7646    1077.9763    1997.8618   -94.256744    -654.8238    -7.974998   -5602.0873 
 5463000    212.19986   -6434.2318   -5888.3606   -6434.2318            0     1893.569     23.43487    21.556543    21.831455      11028.7    1565.8143    2718.8558    1396.0367    106.50931    583.53586    749.91579   -5583.7946 
 5464000    219.00734   -6437.1071   -5873.7241   -6437.1071            0     2768.264    23.620678    21.468363    21.689645     10998.76    2293.8562    2876.4195    3134.5162   -318.80407    1100.2066   -32.816279   -5429.6789 
 5465000    204.09271   -6432.7684   -5907.7523   -6432.7684            0    2570.4803    23.287618    21.641953    21.812786    10993.416     2516.056    1942.8552    3252.5297     422.7636   -249.10716   -574.76117   -5495.6331 
 5466000    210.39498   -6422.0962   -5880.8679   -6422.0962            0    2592.6132    23.462331    21.390875     21.90748    10994.922    1434.8716    3385.1045    2957.8635   -525.81944    505.82276    1089.9255   -5465.1433 
 5467000    214.46808   -6428.7605   -5877.0544   -6428.7605            0    2021.8487    23.515083    21.644471    21.661033    11024.849    1645.5545    278.24679    4141.7447   -668.26128    816.69913    953.06766   -5551.9692 
 5468000    217.30749   -6410.2193    -5851.209   -6410.2193            0    2402.9582    23.316505    21.583803    21.928194    11035.558    3108.7036    3194.4714    905.69966   -343.06958    59.398745   -1193.5954   -5464.4714 
 5469000    212.26957   -6423.0302   -5876.9797   -6423.0302            0    2215.3245    23.345356    21.422381    22.030649    11017.817    3885.3494    1528.5476    1232.0766   -611.91524   -560.80654    464.66043   -5521.0135 
 5470000    208.45836   -6443.7531   -5907.5067   -6443.7531            0    1493.5645    23.310988    21.632088    21.900203    11043.514    1748.9524     1639.496     1092.245    87.155574   -151.49469    156.01682   -5666.9557 
 5471000    212.04057   -6430.6162   -5885.1548   -6430.6162            0    985.94892    23.642359    21.534467    21.754155    11075.597    1328.8868    346.10784    1282.8522   -133.79507   -423.67456   -206.95402   -5725.8982 
 5472000    214.31501   -6439.6985   -5888.3861   -6439.6985            0    2871.7682    23.393136    21.541312    21.727726     10949.01    2974.5277    3204.5009    2436.2759    1156.9968   -833.90841    966.22961    -5429.822 
 5473000    210.45079   -6432.2825   -5890.9107   -6432.2825            0    2127.9229    23.474129     21.48957    21.823788    11008.986    2135.1462    1449.3629    2799.2594      390.048    824.50226    988.07264   -5549.2625 
 5474000    227.59032   -6424.9414   -5839.4792   -6424.9414            0    3364.5018    23.421851     21.44263    21.767317    10932.115    2840.7593    3436.3392    3816.4071   -524.24086    -7.295901   -1471.6509   -5303.0643 
 5475000    217.04046   -6445.6884    -5887.365   -6445.6884            0    2391.3387    23.328723    21.587345    21.840374    10998.926    2483.1037     1510.842    3180.0705    583.20365    810.40915    1208.5327    -5503.775 
 5476000    212.67042   -6418.0663   -5870.9846   -6418.0663            0     2006.175    23.391324    21.395643    22.037559     11029.19    940.78503    4545.5991    532.14082    185.14392    1131.3875    172.84598   -5548.2925 
 5477000    222.82115   -6401.2061   -5828.0123   -6401.2061            0    1831.9546    23.347089      21.6332    21.948213    11085.433    1865.6869    1510.3852    2119.7918    419.94119   -848.15863    716.97681   -5531.8408 
 5478000    229.70443   -6425.4753   -5834.5747   -6425.4753            0    1621.3645    23.475887    21.518117    21.895273    11060.548    1109.5141    1437.5702    2317.0091    207.37945    421.52594    120.68916   -5573.0377 
 5479000    214.85627   -6409.7575   -5857.0528   -6409.7575            0    1542.2604    23.336954      21.6402    21.867225    11043.307    2122.8225    1275.8687    1228.0899    644.29832    334.81996   -400.55439   -5608.6636 
 5480000     221.1645   -6407.1613   -5838.2291   -6407.1613            0    1330.8096    23.580289     21.44176    21.901402    11073.412    1206.0479    1890.7463    895.63452    1269.3611    492.88556    369.68366   -5623.3108 
 5481000    220.33401    -6414.343   -5847.5472    -6414.343            0    2201.6949    23.448576    21.625687    21.730439    11019.322    1691.7351    2071.9374    2841.4121    692.86957   -726.57682     334.2747   -5493.7227 
 5482000    218.59996   -6424.5207   -5862.1856   -6424.5207            0     2940.344    23.351267     21.53829     21.80949    10969.004    2559.4008    2982.5442     3279.087   -708.89133   -210.62978    192.95186   -5391.8139 
 5483000    210.51249   -6435.4862   -5893.9556   -6435.4862            0    3352.8772    23.448995    21.385105    21.873771    10968.804    2891.3737     3978.381    3188.8769   -245.58354   -348.42185    -363.3393      -5357.6 
 5484000    211.84088   -6415.8415   -5870.8938   -6415.8415            0    2231.8114    23.248117    21.641402    21.904347    11020.555    1459.4586     3221.677    2014.2988    289.38413    730.94766   -180.28933   -5512.1892 
 5485000    213.15989   -6430.3596   -5882.0188   -6430.3596            0    1810.0887    23.456393    21.369773    22.044889    11050.173    2616.0257    2961.9435     -147.703    1063.9063    236.50545   -328.22289   -5590.3131 
 5486000    212.92109   -6422.2985   -5874.5719   -6422.2985            0    1836.4681    23.382297    21.653581    21.759875    11017.252    1288.2238    2177.7667     2043.414   -168.91605   -197.05823   -1241.6435   -5579.4968 
 5487000      209.359   -6431.9498   -5893.3865   -6431.9498            0    1998.4877    23.515586    21.485504    21.749179    10988.647    1210.9247     2348.849    2435.6892    255.30347    467.88064    240.13027   -5573.1126 
 5488000    221.93531   -6415.3744   -5844.4594   -6415.3744            0    2596.8194     23.33566    21.462167    21.945261    10990.929     2167.085    3203.9761    2419.3971    708.63681     111.3774    850.12257   -5428.2115 
 5489000    218.54153   -6442.0044   -5879.8196   -6442.0044            0    2498.6421    23.204077    21.502634    22.091841    11022.697    1991.0666    3488.7078     2016.152   -40.397999    193.38002   -411.49771   -5478.1511 
 5490000    212.01151   -6407.6351   -5862.2484   -6407.6351            0     1653.829     23.49448    21.528354    21.883772    11068.757    1338.3537    2424.3465    1198.7869   -306.57793   -558.67821   -857.14128   -5595.2766 
 5491000    212.11906   -6429.1823   -5883.5189   -6429.1823            0    2238.8829    23.449633    21.663157    21.633234    10989.533    1205.1028    1999.6374    3511.9086   -292.06529    416.92036   -926.84842   -5524.6908 
 5492000    218.90933   -6444.6343   -5881.5033   -6444.6343            0    1413.6901    23.629157      21.5413     21.69536    11042.998   -289.68921    775.47668    3755.2829    -121.6072   -607.53973    1234.5971   -5653.8274 
 5493000    217.11896   -6419.8498   -5861.3245   -6419.8498            0    1860.1442     23.42487    21.572589    21.844709    11038.898    642.34976     2847.712    2090.3709    282.45253    373.35833   -243.23106    -5561.858 
 5494000     212.5083    -6419.595   -5872.9304    -6419.595            0    1712.2198    23.381459    21.549174    21.929397    11049.152    1234.6133    1806.3796    2095.6665    569.14135    27.184374   -580.76391   -5597.0224 
 5495000    221.84049    -6395.682   -5825.0109    -6395.682            0    1823.5913    23.327472    21.540297    22.111972    11110.838    2186.7571    3290.5815   -6.5645646    890.94045    250.11664   -928.02419   -5529.5158 
 5496000    219.07432   -6448.5211   -5884.9658   -6448.5211            0    1211.3407    23.425463    21.544043    21.968352     11086.97    1572.8444    846.33911    1214.8385    209.41938    165.91788    465.59993   -5689.1016 
 5497000    223.35161   -6444.8546   -5870.2962   -6444.8546            0    724.04557    23.600125    21.558727    21.756143    11069.278    35.938431     810.1349    1326.0634     -1218.88    1152.3341   -652.47335   -5753.4105 
 5498000    225.02275   -6438.9325   -5860.0752   -6438.9325            0    1445.6597    23.439887    21.708107    21.688729    11035.997    1459.5755    368.01966    2509.3838   -394.69247    1111.7068   -449.70584   -5627.3982 
 5499000    216.01269    -6436.903   -5881.2235    -6436.903            0    2190.6864    23.483575    21.476527    21.831998    11010.873    1092.8845    3578.8449    1900.3299   -381.46166    175.65356     869.0564   -5529.4381 
 5500000    225.72103   -6397.7587   -5817.1051   -6397.7587            0    1884.7273    23.386633    21.534493    21.945587    11052.221    1338.0385    3010.4473    1305.6961   -269.02393    1490.9845    951.32617   -5513.3148 
Loop time of 578.736 on 64 procs for 250000 steps with 1296 atoms

Performance: 74.645 ns/day, 0.322 hours/ns, 431.976 timesteps/s
197.0% CPU use with 32 MPI tasks x 2 OpenMP threads

MPI task timing breakdown:
Section |  min time  |  avg time  |  max time  |%varavg| %total
---------------------------------------------------------------
Pair    | 33.396     | 47.322     | 59.465     |  86.1 |  8.18
Bond    | 0.61369    | 0.96722    | 1.598      |  21.4 |  0.17
Kspace  | 289.94     | 302.41     | 320.33     |  36.0 | 52.25
Neigh   | 2.7652     | 2.9684     | 3.3131     |   7.5 |  0.51
Comm    | 70.525     | 79.557     | 85.205     |  35.1 | 13.75
Output  | 0.50385    | 0.50418    | 0.50575    |   0.0 |  0.09
Modify  | 97.329     | 107.11     | 141.88     | 124.1 | 18.51
Other   |            | 37.9       |            |       |  6.55

Nlocal:        40.5000 ave          50 max          28 min
Histogram: 1 1 2 2 3 11 4 3 2 3
Nghost:        3011.62 ave        3046 max        2979 min
Histogram: 2 4 4 2 4 5 5 1 4 1
Neighs:        12625.6 ave       15561 max        8718 min
Histogram: 1 1 2 2 4 8 7 2 2 3

Total # of neighbors = 404019
Ave neighs/atom = 311.74306
Ave special neighs/atom = 2.0000000
Neighbor list builds = 6949
Dangerous builds = 0

unfix		3
unfix		2
unfix		1

write_data	data.final.${pid}
write_data	data.final.0
System init for write_data ...
PPPM initialization ...
  extracting TIP4P info from pair style
  using 12-bit tables for long-range coulomb (../kspace.cpp:340)
  G vector (1/distance) = 0.36858372
  grid = 30 40 32
  stencil order = 5
  estimated absolute RMS force accuracy = 0.0041894626
  estimated relative force accuracy = 1.2616442e-05
  using double precision FFTW3
  3d grid and FFT values/proc = 7752 1200
Last active /omp style is kspace_style pppm/tip4p/omp
WARNING: Not all mixed pair coeffs generated from mixing. Use write_data with 'pair ij' option to store all pair coeffs. (../write_data.cpp:312)

write_restart   restart.lmp.${pid}
write_restart   restart.lmp.0
System init for write_restart ...
PPPM initialization ...
  extracting TIP4P info from pair style
  using 12-bit tables for long-range coulomb (../kspace.cpp:340)
  G vector (1/distance) = 0.36858372
  grid = 30 40 32
  stencil order = 5
  estimated absolute RMS force accuracy = 0.0041894626
  estimated relative force accuracy = 1.2616442e-05
  using double precision FFTW3
  3d grid and FFT values/proc = 7752 1200
Last active /omp style is kspace_style pppm/tip4p/omp
Total wall time: 0:09:38
