LAMMPS (30 Jul 2021)
  using 1 OpenMP thread(s) per MPI task
package omp 0
using multi-threaded neighbor list subroutines
echo both

include		in.partitions
variable        pid world 0
include		in.temp
variable	temperature equal 260
variable	melttemp equal 450.0
variable	tempDamp equal 100.0
include		in.pressure
variable        pressure equal 2000
variable        pressureDamp equal 1000.0 # This is 1 ps
include		in.seed
variable        seed world 745823

units		real
atom_style	full



include 	in.box

read_data       ice.data
Reading data file ...
  orthogonal box = (0.0000000 0.0000000 0.0000000) to (18.207572 23.629178 22.213196)
  2 by 7 by 3 MPI processor grid
  reading atoms ...
  864 atoms
  reading velocities ...
  864 velocities
  scanning bonds ...
  2 = max bonds/atom
  scanning angles ...
  1 = max angles/atom
  reading bonds ...
  576 bonds
  reading angles ...
  288 angles
Finding 1-2 1-3 1-4 neighbors ...
  special bond factors lj:    0        0        0       
  special bond factors coul:  0        0        0       
     2 = max # of 1-2 neighbors
     1 = max # of 1-3 neighbors
     1 = max # of 1-4 neighbors
     2 = max # of special neighbors
  special bonds CPU = 0.500 seconds
  read_data CPU = 0.925 seconds
include 	in.setup
variable	out_freq equal 500
variable	out_freq2 equal 500

timestep	1.0

neigh_modify    delay 5 every 1

include		in.tip4p
# This is TIP4P/Ice

# create groups ###
group ox type 2
288 atoms in group ox
group hy type 1
576 atoms in group hy

# set charges - beside manually ###
set group ox charge -1.1794
Setting atom values ...
  288 settings made for charge
set group hy charge 0.5897
Setting atom values ...
  576 settings made for charge

# ### TIP3P Potential Parameters ###
pair_style lj/cut/tip4p/long 2 1 1 1 0.1577 8.5
pair_coeff 1 1*2 0.000 0.000
pair_coeff 2 2 0.21084 3.1668
bond_style  harmonic
bond_coeff  1 450 0.9572
angle_style harmonic
angle_coeff 1 55 104.52
kspace_style pppm/tip4p 1.0e-5
pair_modify tail yes

thermo          ${out_freq}
thermo          500
thermo_style 	custom step temp pe etotal epair emol press lx ly lz xy xz yz vol pxx pyy pzz pxy pxz pyz cella cellb cellc cellalpha cellbeta cellgamma

restart 	${out_freq} restart.lmp.${pid} restart2.lmp.${pid}
restart 	500 restart.lmp.${pid} restart2.lmp.${pid}
restart 	500 restart.lmp.0 restart2.lmp.${pid}
restart 	500 restart.lmp.0 restart2.lmp.0

include         in.dump
dump            myDump all atom ${out_freq2} dump.water.${pid}
dump            myDump all atom 500 dump.water.${pid}
dump            myDump all atom 500 dump.water.0
dump_modify     myDump append yes


timer           timeout 23:50:00 every 1000
New timer settings: style=normal  mode=nosync  timeout=23:50:00


fix 		0 all shake 1e-6 200 0 b 1 a 1
       0 = # of size 2 clusters
       0 = # of size 3 clusters
       0 = # of size 4 clusters
     288 = # of frozen angles
  find clusters CPU = 0.002 seconds
fix             1 all nph aniso ${pressure} ${pressure} ${pressureDamp}
fix             1 all nph aniso 2000 ${pressure} ${pressureDamp}
fix             1 all nph aniso 2000 2000 ${pressureDamp}
fix             1 all nph aniso 2000 2000 1000
fix             2 all temp/csvr ${temperature} ${temperature} ${tempDamp} ${seed}
fix             2 all temp/csvr 260 ${temperature} ${tempDamp} ${seed}
fix             2 all temp/csvr 260 260 ${tempDamp} ${seed}
fix             2 all temp/csvr 260 260 100 ${seed}
fix             2 all temp/csvr 260 260 100 745823
velocity        all create ${temperature} ${seed}
velocity        all create 260 ${seed}
velocity        all create 260 745823

run             500000
PPPM initialization ...
  extracting TIP4P info from pair style
  using 12-bit tables for long-range coulomb (../kspace.cpp:340)
  G vector (1/distance) = 0.37089722
  grid = 24 27 25
  stencil order = 5
  estimated absolute RMS force accuracy = 0.0032495733
  estimated relative force accuracy = 9.7859934e-06
  using double precision FFTW3
  3d grid and FFT values/proc = 4032 480
Last active /omp style is kspace_style pppm/tip4p/omp
Neighbor list info ...
  update every 1 steps, delay 5 steps, check yes
  max neighbors/atom: 2000, page size: 100000
  master list distance cutoff = 10.8154
  ghost atom cutoff = 10.8154
  binsize = 5.4077, bins = 4 5 5
  1 neighbor lists, perpetual/occasional/extra = 1 0 0
  (1) pair lj/cut/tip4p/long/omp, perpetual
      attributes: half, newton on, omp
      pair build: half/bin/newton/omp
      stencil: half/bin/3d
      bin: standard
Per MPI rank memory allocation (min/avg/max) = 9.274 | 9.285 | 9.299 Mbytes
Step Temp PotEng TotEng E_pair E_mol Press Lx Ly Lz Xy Xz Yz Volume Pxx Pyy Pzz Pxy Pxz Pyz Cella Cellb Cellc CellAlpha CellBeta CellGamma 
       0          260   -5396.4194   -4950.7883   -5396.4194            0   -7002.7783    18.207572    23.629178    22.213196            0            0            0    9556.7825   -3811.7002    -8590.396   -8606.2386   -2773.3923   -6376.2053    2587.5389    18.207572    23.629178    22.213196           90           90           90 
     500    255.46322   -4277.2719   -3839.4167   -4277.2719            0    1464.7954    18.071266    23.419334    22.066514            0            0            0    9338.9243    891.22696    909.73639    2593.4228    291.73487    736.39575    1307.3804    18.071266    23.419334    22.066514           90           90           90 
    1000     251.8541   -4222.4822   -3790.8129   -4222.4822            0    1918.7101     18.03697    23.366459    21.862158            0            0            0    9214.0276    1185.0481    1301.6669    3269.4155    718.07383    -104.8613   -205.14825     18.03697    23.366459    21.862158           90           90           90 
    1500    249.23763    -4239.386   -3812.2013    -4239.386            0    2189.5922    18.065259    23.366173    21.967275            0            0            0    9272.7373    1140.0968    2688.3566    2740.3233   -336.46181    -335.7991    8.8370022    18.065259    23.366173    21.967275           90           90           90 
    2000    262.09125   -4235.7267   -3786.5112   -4235.7267            0    2153.9497    17.950878     23.53309    22.176184            0            0            0     9368.099    2778.7429    3054.9529    628.15342    436.49042   -111.20982   -160.93939    17.950878     23.53309    22.176184           90           90           90 
    2500    265.30907   -4225.3431   -3770.6125   -4225.3431            0    2024.2281    18.121765    23.461615    22.015085            0            0            0    9360.0629    1842.1091    1971.0347    2259.5405    969.56998    -60.26732    182.15181    18.121765    23.461615    22.015085           90           90           90 
    3000     255.8232   -4221.2213   -3782.7491   -4221.2213            0    2266.6952    18.136049    23.199239    21.981057            0            0            0    9248.3657    1576.7073    2367.0095    2856.3688   -155.77889    488.25457    274.16064    18.136049    23.199239    21.981057           90           90           90 
    3500    242.83259   -4239.3621   -3823.1553   -4239.3621            0    3077.8573    17.868738    23.484304     22.15028            0            0            0    9295.0299    3520.8097    3948.5229    1764.2394    -228.2067   -391.85137   -84.203571    17.868738    23.484304     22.15028           90           90           90 
    4000    248.77183   -4269.7624    -3843.376   -4269.7624            0    1498.3551    18.024048    23.741513    21.882838            0            0            0    9364.0638    2086.8821    119.38434    2288.7988     626.5871   -569.17719      850.722    18.024048    23.741513    21.882838           90           90           90 
    4500    261.79528   -4265.6702    -3816.962   -4265.6702            0    1997.2644    18.221412    23.047764    22.180092            0            0            0    9314.8135    2437.2342    2421.2336    1133.3256    689.28861   -1220.6643    265.86155    18.221412    23.047764    22.180092           90           90           90 
    5000    253.39491   -4209.8067   -3775.4965   -4209.8067            0    3200.3154    18.110601    23.108724    22.078781            0            0            0     9240.254    3030.4772    3686.3135    2884.1554   -480.45806    333.06549    678.34407    18.110601    23.108724    22.078781           90           90           90 
    5500    245.93911   -4251.9618   -3830.4306   -4251.9618            0    1370.3921    17.924472    23.777052    21.813014            0            0            0    9296.5123    1384.1936    853.23816    1873.7445    422.69927    1112.5686     -399.042    17.924472    23.777052    21.813014           90           90           90 
    6000    260.24514    -4233.753   -3787.7018    -4233.753            0    1800.1158    18.011465    23.441665    22.180185            0            0            0    9364.8892    2737.2125    3844.3133   -1181.1785     -474.928   -178.98641   -576.20784    18.011465    23.441665    22.180185           90           90           90 
    6500    253.68989   -4253.8124   -3818.9966   -4253.8124            0     1074.754    18.170053    23.360355     22.16859            0            0            0    9409.6552    926.91549   -246.47613    2543.8227   -19.914269    683.41754    146.56911    18.170053    23.360355     22.16859           90           90           90 
    7000    260.77954   -4218.7937   -3771.8265   -4218.7937            0    1150.6574    18.081844    23.609699    22.006065            0            0            0    9394.5408   -242.78146    1043.0237      2651.73    -344.4834    8.5401909    676.61411    18.081844    23.609699    22.006065           90           90           90 
    7500    263.20159   -4247.6036   -3796.4851   -4247.6036            0    3597.7587    17.811148    23.402862    22.141597            0            0            0    9229.3222    5596.0081     2939.813    2257.4551    465.26973   -716.06427    320.44914    17.811148    23.402862    22.141597           90           90           90 
    8000    260.24883   -4234.6095   -3788.5519   -4234.6095            0     2332.109    18.211925    23.242663    22.033199            0            0            0    9326.5127    2704.3891    1565.4129    2726.5251    725.51881   -419.00553    499.30056    18.211925    23.242663    22.033199           90           90           90 
    8500    272.76039    -4270.458    -3802.956    -4270.458            0    1511.6536    18.070802    23.522654    22.063375            0            0            0    9378.5498    1675.7911    1866.7566    992.41308    36.502451   -303.69071   -292.79329    18.070802    23.522654    22.063375           90           90           90 
    9000    262.79708   -4217.6854   -3767.2602   -4217.6854            0    1388.6413    17.842283    23.798382    22.099934            0            0            0     9384.018    2690.1297    1001.3355    474.45858    122.70415   -108.36212     278.7141    17.842283    23.798382    22.099934           90           90           90 
    9500    256.46378   -4212.0797   -3772.5096   -4212.0797            0    2593.0334    18.260305    23.214708    21.935376            0            0            0     9298.574   -513.68028    3252.9641    5039.8164   -150.08117   -132.39945     700.9213    18.260305    23.214708    21.935376           90           90           90 
   10000     262.9049   -4218.4931   -3767.8831   -4218.4931            0    2031.8495    18.258404    23.156773    22.100055            0            0            0    9344.0295    1351.8813    2591.5568    2152.1103    228.62309   -97.264997    74.711393    18.258404    23.156773    22.100055           90           90           90 
   10500    278.59931   -4209.3076    -3731.798   -4209.3076            0    1484.6404    17.756802    23.858095     22.12289            0            0            0    9372.2178    2357.2458   -39.126131    2135.8015   -57.964907   -52.344236   -209.62152    17.756802    23.858095     22.12289           90           90           90 
   11000    265.59647   -4240.6589   -3785.4357   -4240.6589            0    3500.1002    18.026544     23.47889    21.995136            0            0            0    9309.2926    5628.6752    1650.4777    3221.1475    285.89562   -552.54248   -341.82873    18.026544     23.47889    21.995136           90           90           90 
   11500    263.86531   -4271.3399   -3819.0838   -4271.3399            0    1598.5384    18.139877    23.305271    22.062748            0            0            0    9327.1317    1374.6526    2528.3869    892.57569    -523.2114    10.469246    506.21437    18.139877    23.305271    22.062748           90           90           90 
   12000    276.20556   -4229.2548   -3755.8479   -4229.2548            0    1895.6929    17.951201    23.508853    22.091315            0            0            0    9322.8028    1326.7055    2234.1973    2126.1761    620.13898     115.4799     324.7722    17.951201    23.508853    22.091315           90           90           90 
   12500    275.90206   -4241.7673   -3768.8806   -4241.7673            0    2157.4386    17.999368    23.639872    21.947715            0            0            0    9338.8131    1706.8107    3250.4188    1515.0862   -377.80331   -566.74102    212.01629    17.999368    23.639872    21.947715           90           90           90 
   13000    274.29036   -4228.0544   -3757.9301   -4228.0544            0     1824.943    18.234894    23.151208    22.093471            0            0            0    9326.9756    2101.8734    1383.0745    1989.8812   -1270.4366   -621.02606   -214.58893    18.234894    23.151208    22.093471           90           90           90 
   13500    246.01915   -4235.0172   -3813.3488   -4235.0172            0    561.18105    18.027636       23.401    22.236662            0            0            0    9380.8633    1366.3408    347.06337   -29.861029    -784.0039    65.256138    688.59436    18.027636       23.401    22.236662           90           90           90 
   14000    259.96961   -4246.9711    -3801.392   -4246.9711            0    1742.7215    17.913762     23.78007    21.908914            0            0            0    9332.9894    1936.1209    2522.9481    769.09534    74.420667   -988.77043    452.16773    17.913762     23.78007    21.908914           90           90           90 
   14500    251.96828   -4260.2208   -3828.3558   -4260.2208            0    3035.4763    18.164913     23.25897     22.06094            0            0            0    9320.6848    3267.0521     3668.928     2170.449   -450.08137    113.51985   -367.01962    18.164913     23.25897     22.06094           90           90           90 
   15000    265.02963   -4244.0809   -3789.8292   -4244.0809            0    1396.1284    18.106315     23.26951    22.150441            0            0            0    9332.5366    137.67558    1947.3835     2103.326     1039.892      15.9963    726.97461    18.106315     23.26951    22.150441           90           90           90 
   15500    259.86708   -4235.8621   -3790.4589   -4235.8621            0    1940.8559    17.918017    23.797905    21.906562            0            0            0    9341.2049     2265.501    602.47188    2954.5947   -808.03631   -630.30315   -4.8776861    17.918017    23.797905    21.906562           90           90           90 
   16000    257.08015   -4227.9077   -3787.2811   -4227.9077            0    1189.2374     18.13523    23.519681     22.06714            0            0            0    9412.4035    442.29974    2281.2294    844.18315   -1277.7666    233.11672    83.883978     18.13523    23.519681     22.06714           90           90           90 
   16500    284.35335    -4250.383   -3763.0111    -4250.383            0    2597.2824    18.211247    23.128871    22.170096            0            0            0    9338.1682    2441.2644    3026.9437    2323.6389    754.22039    263.99727   -171.72483    18.211247    23.128871    22.170096           90           90           90 
   17000    275.41859   -4259.5369   -3787.4788   -4259.5369            0    2756.3562    17.915095     23.54955    22.068391            0            0            0    9310.4868    4634.9849     2497.755    1136.3289   -1113.8251   -431.65008    246.30604    17.915095     23.54955    22.068391           90           90           90 
   17500    266.89605    -4237.506   -3780.0553    -4237.506            0    1883.2361    17.979642    23.827819    21.828894            0            0            0      9351.84    2367.7318    1138.3368    2143.6396   -302.48784   -958.02454   -289.17106    17.979642    23.827819    21.828894           90           90           90 
   18000    254.47434   -4259.3997   -3823.2394   -4259.3997            0    1795.8919    18.223463    22.996839    22.249457            0            0            0    9324.3475    2418.1089    2113.1587    856.40813    80.643543   -860.99661   -751.78158    18.223463    22.996839    22.249457           90           90           90 
   18500    263.44143   -4270.7207   -3819.1911   -4270.7207            0    2490.7314    18.054183    23.322423    22.088482            0            0            0     9300.737    2620.3155    2050.9866    2800.8922    1050.0931   -165.95275    516.44479    18.054183    23.322423    22.088482           90           90           90 
   19000    261.55827   -4237.0678   -3788.7659   -4237.0678            0    2034.9676    17.990665    23.736464    21.813085            0            0            0    9314.9456    2365.8297    1066.2721    2672.8011   -458.27263   -5.2243449     613.4125    17.990665    23.736464    21.813085           90           90           90 
   19500    269.52394   -4245.4191   -3783.4643   -4245.4191            0    1529.2434    18.088982    23.353514    22.235162            0            0            0    9393.0503    2018.1684    1605.0407    964.52115    151.90691   -771.64038    369.39728    18.088982    23.353514    22.235162           90           90           90 
   20000    262.16668   -4271.6108   -3822.2661   -4271.6108            0    1244.5086    18.104424    23.403432    22.136327            0            0            0    9379.2871     1668.335    1510.1628      555.028   -1041.5529    -20.86983    -758.8023    18.104424    23.403432    22.136327           90           90           90 
   20500    258.71299   -4242.3945   -3798.9693   -4242.3945            0    1610.0103    18.099666    23.634188    21.903834            0            0            0    9369.8228    1920.9698    1359.7566    1549.3047    39.290949    -95.68147     311.3496    18.099666    23.634188    21.903834           90           90           90 
   21000    260.36402   -4246.1906   -3799.9356   -4246.1906            0    2113.1982    17.987481    23.307302    22.328769            0            0            0    9361.1054    3215.5591    1981.6834    1142.3523    153.73649    326.39925    56.560698    17.987481    23.307302    22.328769           90           90           90 
   21500    249.95228    -4261.991   -3833.5813    -4261.991            0    3490.3885    18.192394    23.390774    21.893358            0            0            0    9316.3721    3433.6807    2553.5864    4483.8983   -863.98846    378.50633    448.44199    18.192394    23.390774    21.893358           90           90           90 
   22000    256.17374   -4224.6716   -3785.5986   -4224.6716            0    1944.3821    17.998054     23.73365    21.928221            0            0            0    9366.8479    1232.5274     1614.226     2986.393      150.888    11.569549    429.28718    17.998054     23.73365    21.928221           90           90           90 
   22500    272.15382   -4264.5097   -3798.0473   -4264.5097            0    1408.3838     17.74087    23.520921    22.338116            0            0            0    9321.2849      1504.52    1368.0715      1352.56   -94.701305    461.39468    417.50607     17.74087    23.520921    22.338116           90           90           90 
   23000    254.32321   -4259.2266   -3823.3253   -4259.2266            0    2287.1602    18.300049    23.247392    21.918069            0            0            0    9324.5694    2090.2642    2557.4219    2213.7946     196.7846   -1065.2697   -130.01906    18.300049    23.247392    21.918069           90           90           90 
   23500     252.1193   -4209.7184   -3777.5946   -4209.7184            0    1484.8161    18.218354    23.449923    22.022997            0            0            0    9408.6424    1401.0786    2585.2801    468.08967     351.0822    562.61481    930.44711    18.218354    23.449923    22.022997           90           90           90 
   24000    278.25226   -4213.8237   -3736.9088   -4213.8237            0    1426.4169    17.785472    23.575516    22.351319            0            0            0    9371.9459    2535.3522    869.33059    874.56804   -611.63832   -902.03795    -1002.032    17.785472    23.575516    22.351319           90           90           90 
   24500    264.99323   -4251.3241   -3797.1348   -4251.3241            0    930.58179    18.200842     23.44405    22.007396            0            0            0    9390.5876    840.48859    1144.1834    807.07336    291.52512   -470.23943    960.48646    18.200842     23.44405    22.007396           90           90           90 
   25000    265.30076   -4230.8458   -3776.1294   -4230.8458            0    2397.1455    18.186518     23.37618    21.974794            0            0            0    9342.1728    3406.5709    2046.0088    1738.8569   -289.89287   -625.46591   -164.59396    18.186518     23.37618    21.974794           90           90           90 
   25500    250.23577   -4214.3573   -3785.4618   -4214.3573            0     1705.958    17.894887    23.584507    22.224089            0            0            0    9379.5009    2453.0588    199.24807    2465.5672   -1036.8481   -583.46855    750.78002    17.894887    23.584507    22.224089           90           90           90 
   26000    277.08539     -4233.66   -3758.7452     -4233.66            0    1333.3878    18.079922    23.593494    21.976784            0            0            0    9374.6043    2090.8122    497.04578    1412.3053    331.23764    137.07231    258.59633    18.079922    23.593494    21.976784           90           90           90 
   26500    245.26317   -4251.8038   -3831.4311   -4251.8038            0    1659.0413    18.267867    23.338717    21.910876            0            0            0    9341.6708    1287.4091    2720.3633    969.35151   -706.90785   -135.10957    534.18076    18.267867    23.338717    21.910876           90           90           90 
   27000    274.83967   -4228.6047   -3757.5389   -4228.6047            0    2457.9132    17.862238    23.159835     22.32184            0            0            0    9234.2438    3860.6864    2037.5102    1475.5429   -299.45425    625.71102   -495.62274    17.862238    23.159835     22.32184           90           90           90 
   27500     255.6965   -4217.5828   -3779.3278   -4217.5828            0    2622.7486    17.904902    23.662038    21.794578            0            0            0    9233.6319    1565.7436    2066.3918    4236.1102    -400.9364   -26.454949    723.07816    17.904902    23.662038    21.794578           90           90           90 
   28000    265.68608   -4263.9595   -3808.5827   -4263.9595            0    1207.4948    18.187246    23.423339    21.926363            0            0            0     9340.763    1611.8615    214.42939    1796.1937   -440.59771    426.92132   -106.35809    18.187246    23.423339    21.926363           90           90           90 
   28500    257.13839   -4234.5671   -3793.8407   -4234.5671            0    1602.8668    18.043278    23.281068    22.179415            0            0            0    9316.8357    1034.5683    2511.5878    1262.4442   -405.08744    831.42571    380.20039    18.043278    23.281068    22.179415           90           90           90 
   29000    260.76201   -4267.2702    -3820.333   -4267.2702            0    926.13037    17.991265    23.531725    22.106947            0            0            0    9359.3186    1261.5749    61.397508    1455.4187    95.030377   -86.696645    273.54646    17.991265    23.531725    22.106947           90           90           90 
   29500    258.13589   -4228.3691   -3785.9331   -4228.3691            0    3385.1433     18.01804    23.437055    21.853943            0            0            0    9228.6969    2717.7936    2927.6764    4509.9599    144.98432    493.92556    127.96109     18.01804    23.437055    21.853943           90           90           90 
   30000    277.23667   -4220.1507   -3744.9765   -4220.1507            0    4295.6826    17.961015    23.212449    22.065883            0            0            0    9199.6892    3727.6395    5258.9652     3900.443   -360.37883   -500.73483    413.52594    17.961015    23.212449    22.065883           90           90           90 
   30500    254.73691   -4219.8649   -3783.2546   -4219.8649            0    2629.8844    18.021654    23.360001    22.026736            0            0            0    9272.9443    2086.8473    3273.3006    2529.5051    138.44159    656.70539     652.9987    18.021654    23.360001    22.026736           90           90           90 
   31000    269.11509   -4228.9632   -3767.7091   -4228.9632            0    1536.2589    18.033235    23.566939     22.11549            0            0            0    9398.8213     2090.667    1407.7491    1110.3604   -363.81415    636.16576   -605.30879    18.033235    23.566939     22.11549           90           90           90 
   31500    261.75644   -4231.7874   -3783.1459   -4231.7874            0    1813.2579    18.019045    23.421891    22.083038            0            0            0    9319.9279    2376.2559    1120.7625    1942.7553   -608.49862    30.393751      601.917    18.019045    23.421891    22.083038           90           90           90 
   32000    253.46926   -4224.1194   -3789.6817   -4224.1194            0    1528.3321    18.163685    23.396049     22.07554            0            0            0    9381.1871    1229.2268    3010.3973    345.37212    655.16873    561.83829    362.54808    18.163685    23.396049     22.07554           90           90           90 
   32500    274.73426   -4244.2075   -3773.3224   -4244.2075            0    2735.8202    17.962942     23.63543    21.912166            0            0            0    9303.0698    1734.8675    2194.8107    4277.7825   -236.16102    181.59592    187.55233    17.962942     23.63543    21.912166           90           90           90 
   33000    265.12444    -4232.017   -3777.6028    -4232.017            0    5183.1626    17.843322    23.233525    22.088624            0            0            0    9157.1321    4907.7986    4820.1266    5821.5625    347.14589   -935.61049   -209.72925    17.843322    23.233525    22.088624           90           90           90 
   33500    249.87805   -4224.5211   -3796.2387   -4224.5211            0    3441.3725    18.093144    23.232709    21.930661            0            0            0    9218.6135    4254.9302    2885.6573    3183.5299    232.00474   -346.43403    1046.0424    18.093144    23.232709    21.930661           90           90           90 
   34000    254.87496   -4261.1217   -3824.2747   -4261.1217            0    3118.1725    18.014439    23.460019    21.926036            0            0            0     9266.361    1757.5588    2536.9994    5059.9593    619.39674   -34.086601    328.60298    18.014439    23.460019    21.926036           90           90           90 
   34500    252.42575   -4272.4347   -3839.7856   -4272.4347            0    1340.7594    17.965302     23.55165    22.162447            0            0            0    9377.2087    285.06934    1561.3452    2175.8636   -1507.6827    31.972259    484.68791    17.965302     23.55165    22.162447           90           90           90 
   35000    246.84836   -4262.0287    -3838.939   -4262.0287            0     2724.903    18.044658    23.331812    22.100804            0            0            0    9304.7606    3357.3472    3149.7611    1667.6007    502.87231    874.55787     99.16385    18.044658    23.331812    22.100804           90           90           90 
   35500    268.01506   -4269.3658   -3809.9972   -4269.3658            0    3903.5971    18.068021    23.302795    21.798923            0            0            0    9178.1181    4852.7221    3571.5209    3286.5484     252.2462   -379.36884   -247.15593    18.068021    23.302795    21.798923           90           90           90 
   36000    248.79467   -4233.1259   -3806.7003   -4233.1259            0    2961.2396     17.86922    23.524581    22.001272            0            0            0    9248.5848    2372.7285    2095.7098    4415.2806   -55.319284   -385.78892   -593.83295     17.86922    23.524581    22.001272           90           90           90 
   36500    275.43622   -4254.2849   -3782.1967   -4254.2849            0    1562.2704    18.011193    23.376766    22.268708            0            0            0    9376.0934    2672.1796    1812.8946    201.73711    364.29331    -110.3512    140.33405    18.011193    23.376766    22.268708           90           90           90 
   37000    267.75084   -4246.2306   -3787.3148   -4246.2306            0     1731.203    18.157172    23.409233    21.948955            0            0            0    9329.3037     821.3673    3021.2678     1350.974   -1064.2886   -110.03557   -147.28607    18.157172    23.409233    21.948955           90           90           90 
   37500    256.74656   -4244.5883   -3804.5335   -4244.5883            0     2240.332    17.995186    23.433056    22.035568            0            0            0    9292.0066    1913.5213    969.41791    3838.0568    413.35638    139.14975   -437.19281    17.995186    23.433056    22.035568           90           90           90 
   38000    258.51827   -4223.2116   -3780.1202   -4223.2116            0    1434.8832    17.955125    23.495172     22.07569            0            0            0    9312.8228    1376.2883    1573.3256    1355.0357   -602.25671    599.17587    894.87479    17.955125    23.495172     22.07569           90           90           90 
   38500    265.01941   -4249.0885   -3794.8543   -4249.0885            0    900.73554    18.126684    23.539649    21.980846            0            0            0    9379.1342    571.22314    565.30714    1565.6764   -183.27815   -707.17639    283.46648    18.126684    23.539649    21.980846           90           90           90 
   39000    267.15599   -4251.1325   -3793.2362   -4251.1325            0    689.39049    18.275133    23.387553    22.032043            0            0            0    9416.7296    259.49596   -458.58917    2267.2647   -1151.8242    142.92372   -74.743387    18.275133    23.387553    22.032043           90           90           90 
   39500    258.10468   -4227.9166    -3785.534   -4227.9166            0     947.1852    17.903381    23.414313    22.285963            0            0            0    9342.1724     1015.027    1718.8648    107.66382   -359.43815    995.91088   -430.05688    17.903381    23.414313    22.285963           90           90           90 
   40000    252.62051   -4234.6823   -3801.6994   -4234.6823            0    2900.9336    17.900131    23.667647    21.879516            0            0            0    9269.3442    3427.5313    2397.1917    2878.0778    -1066.066    -91.52813   -200.13403    17.900131    23.667647    21.879516           90           90           90 
   40500    246.13513   -4244.5071   -3822.6399   -4244.5071            0       2437.7    18.127898    23.225186    22.021347            0            0            0    9271.5109    2359.8674    3716.5235    1236.7091   -891.67966    231.76848   -400.99059    18.127898    23.225186    22.021347           90           90           90 
   41000    266.76334   -4252.6007   -3795.3775   -4252.6007            0    1926.3557    18.025342     23.33615    22.148944            0            0            0    9316.7779     2307.872    1449.0752    2022.1198   -413.96778    154.43927    477.02461    18.025342     23.33615    22.148944           90           90           90 
   41500    259.40702   -4231.0537   -3786.4389   -4231.0537            0    2712.8531    17.879936     23.71061    21.805131            0            0            0    9244.1585    1557.0527    3693.0801    2888.4266   -5.3180432    393.66121   -323.12177    17.879936     23.71061    21.805131           90           90           90 
   42000    264.56258   -4251.1715   -3797.7203   -4251.1715            0    2503.8799    18.073216    23.328111    21.877259            0            0            0    9223.7585     2099.145    2490.9405    2921.5543   -243.68395    564.49141    131.92216    18.073216    23.328111    21.877259           90           90           90 
   42500    259.39872   -4233.1303   -3788.5298   -4233.1303            0    2539.6456    18.147047    22.863605    22.291152            0            0            0    9248.7534    1959.9571    4278.0597    1380.9201    409.45284     331.2543    38.637841    18.147047    22.863605    22.291152           90           90           90 
   43000    255.53687   -4215.5071   -3777.5257   -4215.5071            0    2796.3915    18.036058    23.618007    21.841868            0            0            0    9304.1056    2959.7199    2148.1204    3281.3342   -681.63479   -36.352139   -501.43038    18.036058    23.618007    21.841868           90           90           90 
   43500    240.24425   -4223.9517   -3812.1813   -4223.9517            0    1825.9801    17.941925    23.541929    22.116109            0            0            0    9341.5688    2222.9188    1566.0724    1688.9492    422.37671   -338.32035    235.66074    17.941925    23.541929    22.116109           90           90           90 
   44000    265.60924   -4251.6734   -3796.4283   -4251.6734            0     2320.262    18.130812    23.197158    22.088685            0            0            0     9290.132     2170.485    2726.2423    2064.0587    247.35941    312.57951   -660.21897    18.130812    23.197158    22.088685           90           90           90 
   44500    257.17232   -4220.6614   -3779.8769   -4220.6614            0    1723.0669    18.184379    23.389982    21.896573            0            0            0    9313.3197    904.79803    2737.7246    1526.6782   -207.22341    370.20641    398.89377    18.184379    23.389982    21.896573           90           90           90 
   45000    235.68269   -4234.9474   -3830.9953   -4234.9474            0    1359.9577    17.759513    23.749246    22.096827            0            0            0    9319.8904    2149.9123    523.73619    1406.2245    203.42902   -503.61744   -243.34003    17.759513    23.749246    22.096827           90           90           90 
   45500    253.91899   -4256.9594    -3821.751   -4256.9594            0    1771.7971    17.981654    23.331431    22.269588            0            0            0     9342.932    3784.9834    1196.2181    334.18964   -691.92449   -1103.5524    235.82353    17.981654    23.331431    22.269588           90           90           90 
   46000    266.99913   -4242.6392   -3785.0118   -4242.6392            0    2434.0111    18.281737    23.293076    21.775893            0            0            0    9273.0002    1426.9105     3131.911    2743.2118    114.79126    377.42492      296.461    18.281737    23.293076    21.775893           90           90           90 
   46500    268.23086   -4264.9146   -3805.1761   -4264.9146            0    2181.7482    17.897452    23.493701    22.074729            0            0            0    9281.9241    4364.4347     1120.421    1060.3888   -966.13368   -418.15098   -356.79212    17.897452    23.493701    22.074729           90           90           90 
   47000    258.32174   -4241.3369   -3798.5823   -4241.3369            0    1320.5756    17.904799    23.541712    22.138583            0            0            0    9331.6257    2488.7049    832.31296    640.70887    960.96913    597.88508    1173.1029    17.904799    23.541712    22.138583           90           90           90 
   47500    263.41479    -4227.529    -3776.045    -4227.529            0    1750.3604    18.092948    23.362873    22.040358            0            0            0    9316.5308    1485.3932    4531.4357    -765.7476   -415.28312    194.22179   -512.54938    18.092948    23.362873    22.040358           90           90           90 
   48000     268.8616   -4247.4238   -3786.6042   -4247.4238            0    2953.4188    18.154064    23.379307    21.965128            0            0            0    9322.6473    1651.1132    3020.6752    4188.4681   -12.491433   -602.70841    359.65148    18.154064    23.379307    21.965128           90           90           90 
   48500    261.66098   -4231.6578   -3783.1799   -4231.6578            0    2133.6801    17.993642    23.432067    22.073897            0            0            0    9306.9782    868.35624    2852.2714    2680.4126    955.32164   -83.432011   -61.135893    17.993642    23.432067    22.073897           90           90           90 
   49000    274.22647   -4238.6086   -3768.5938   -4238.6086            0    2054.5506    17.972726    23.468125    22.084031            0            0            0    9314.7393    1537.1989      1348.55     3277.903    659.29768    539.50258   -302.49304    17.972726    23.468125    22.084031           90           90           90 
   49500    272.78183    -4167.198   -3699.6593    -4167.198            0    1605.8646    18.263507     23.51375    21.765308            0            0            0    9346.9707    216.59969      150.144    4450.8502   -199.53345   -238.87933   -176.04645    18.263507     23.51375    21.765308           90           90           90 
   50000    260.70399   -4244.0935   -3797.2558   -4244.0935            0    1730.2579    18.203451     23.35405     22.10307            0            0            0    9396.5527    1314.0189    370.03535    3506.7196   -792.19318   -260.00053    792.54348    18.203451     23.35405     22.10307           90           90           90 
   50500    267.33617   -4241.7644   -3783.5594   -4241.7644            0    1428.7889    17.917552    23.462172    22.313414            0            0            0    9380.2182    400.18475    2303.4318    1582.7503   -119.35808    930.65874    65.207078    17.917552    23.462172    22.313414           90           90           90 
   51000    260.53809   -4215.9262   -3769.3728   -4215.9262            0     1753.869    18.051054    23.654791    21.887018            0            0            0    9345.6238     1820.629    1719.0305    1721.9474    1105.3436     261.6802    -828.6949    18.051054    23.654791    21.887018           90           90           90 
   51500    267.66262   -4247.6397   -3788.8751   -4247.6397            0    1558.5285    18.231991    23.197923    22.109967            0            0            0    9351.2851    297.21354    1340.5135    3037.8584   -377.61761     542.0265    253.04625    18.231991    23.197923    22.109967           90           90           90 
   52000    258.32587   -4255.6275   -3812.8658   -4255.6275            0    1715.6347    18.020578    23.317397    22.265343            0            0            0    9355.7406    878.74032    2771.9254    1496.2384   -95.344839    160.19029    751.82413    18.020578    23.317397    22.265343           90           90           90 
   52500    277.42572   -4250.1583   -3774.6601   -4250.1583            0    2360.9733    17.902048    23.863212    21.792813            0            0            0    9309.8976    2808.3808    2305.5716    1968.9674    133.68857     538.6098    55.897422    17.902048    23.863212    21.792813           90           90           90 
   53000    253.37745   -4244.1074   -3809.8271   -4244.1074            0    2004.2312    18.123372     23.36794    22.040762            0            0            0     9334.392    2193.1469     1448.867    2370.6797    847.15459    109.63533    180.87511    18.123372     23.36794    22.040762           90           90           90 
   53500    257.22335   -4242.9069   -3802.0348   -4242.9069            0    2462.4389    18.096146    23.196147    22.206072            0            0            0    9321.2397    2839.1609     3895.779    652.37674   -688.05276   -571.30049    469.84446    18.096146    23.196147    22.206072           90           90           90 
   54000    273.45102    -4244.244   -3775.5584    -4244.244            0    2261.8972    17.983911    23.599012    21.988363            0            0            0    9331.9174    2475.9457    1926.5911    2383.1547    2069.7928    53.888064   -77.141488    17.983911    23.599012    21.988363           90           90           90 
   54500    259.39538   -4286.7174   -3842.1226   -4286.7174            0    1563.9583    17.962933    23.526255    22.052063            0            0            0    9319.2136    1582.2358    1067.9603    2041.6788   -1194.6097   -593.35325    317.42812    17.962933    23.526255    22.052063           90           90           90 
   55000    256.63823   -4235.2228   -3795.3537   -4235.2228            0    3061.1353     18.08301     23.24263    22.116023            0            0            0    9295.2917    2255.4711    2188.4719     4739.463   -63.435559   -603.85196    506.44193     18.08301     23.24263    22.116023           90           90           90 
   55500    244.83725   -4237.2707   -3817.6281   -4237.2707            0     3462.206    18.017749     23.46102    21.820727            0            0            0    9223.9436    4168.2716    2494.3539    3723.9923    1558.3176   -196.69231    622.47924    18.017749     23.46102    21.820727           90           90           90 
   56000     276.2832     -4222.59   -3749.0501     -4222.59            0     3488.904    17.796138    23.505685    22.090318            0            0            0    9240.6098    2626.1623    4468.8132    3371.7365   -214.67409   -288.06304   -1122.7109    17.796138    23.505685    22.090318           90           90           90 
   56500    255.31292   -4223.2376     -3785.64   -4223.2376            0    1113.7824    18.112252    23.394953    22.184257            0            0            0    9400.2529     1820.147   -70.805589    1592.0057   -240.70464   -339.01727     327.3216    18.112252    23.394953    22.184257           90           90           90 
   57000    260.18309   -4250.6279    -3804.683   -4250.6279            0    508.64226    18.274044    23.505068    22.061615            0            0            0    9476.1839   -801.57879    1780.0255    547.48007   -987.28569   -1.1656443     150.1156    18.274044    23.505068    22.061615           90           90           90 
   57500    262.32562   -4238.0446   -3788.4275   -4238.0446            0    190.08787    18.043069    23.599752    22.161368            0            0            0    9436.5754     1816.436   -989.49008   -256.68234    16.967331    180.25884    643.12294    18.043069    23.599752    22.161368           90           90           90 
   58000    260.44705   -4226.8528   -3780.4555   -4226.8528            0    2273.6937    18.015266     23.41503    22.049869            0            0            0    9301.2518    2208.1525    1879.2592    2733.6695   -428.47857    404.20879    534.91718    18.015266     23.41503    22.049869           90           90           90 
   58500    255.98241   -4225.3715   -3786.6264   -4225.3715            0     1568.295    18.188757    23.402158    22.004233            0            0            0    9366.2374    1743.2896    942.03841    2019.5569    561.06632   -101.16988    529.04955    18.188757    23.402158    22.004233           90           90           90 
   59000    265.07899   -4239.0651   -3784.7288   -4239.0651            0    89.170519     18.02027    23.409538    22.307104            0            0            0    9410.1669   -530.73183   -203.26588    1001.5093    201.57054     319.2284    415.48623     18.02027    23.409538    22.307104           90           90           90 
   59500    264.59119   -4242.0461   -3788.5458   -4242.0461            0    1006.9069    17.944569    23.824697    22.017551            0            0            0    9413.0294    815.42068    21.673371    2183.6267    851.78739    1396.0433     390.8513    17.944569    23.824697    22.017551           90           90           90 
   60000    245.25237   -4240.1984   -3819.8442   -4240.1984            0    836.57069    18.225343    23.399075    21.987098            0            0            0    9376.5336    316.63444    282.40205    1910.6756   -153.23717   -720.21054   -216.66384    18.225343    23.399075    21.987098           90           90           90 
   60500    260.65378   -4264.7613   -3818.0097   -4264.7613            0    2097.8364    18.112043    23.184275     22.26624            0            0            0    9349.9193    2455.6287    3284.8791    553.00119    -283.5379   -78.203942    437.29501    18.112043    23.184275     22.26624           90           90           90 
   61000     257.4922   -4237.2238   -3795.8909   -4237.2238            0    2526.6376    17.864266    23.721418    21.961507            0            0            0    9306.5337    1180.9894    1997.5036    4401.4199    22.009163   -1357.4338    586.44791    17.864266    23.721418    21.961507           90           90           90 
   61500    272.29056    -4254.427   -3787.7303    -4254.427            0    1157.3092    18.083262    23.633314    21.801443            0            0            0    9317.2263    1759.8135    1295.3954     416.7185    272.66809    26.610351    202.22727    18.083262    23.633314    21.801443           90           90           90 
   62000    253.91525   -4205.9231    -3770.721   -4205.9231            0    1286.4138    18.260239     22.99986    22.356493            0            0            0    9389.3457    1332.0045    2060.3523    466.88464   -183.14517   -901.66561    -606.8998    18.260239     22.99986    22.356493           90           90           90 
   62500     263.0875   -4251.2525   -3800.3295   -4251.2525            0    886.24976    18.059382    23.447205    22.133961            0            0            0    9372.4491    1714.9213    154.47954    789.34843    571.21462   -505.40495    638.59885    18.059382    23.447205    22.133961           90           90           90 
   63000    278.97846   -4227.0173   -3748.8578   -4227.0173            0    1805.4793    17.991953     23.59899    21.941099            0            0            0    9316.0133     1177.659    2252.3825    1986.3963   -975.12127    433.80749    511.28791    17.991953     23.59899    21.941099           90           90           90 
   63500    261.60878    -4272.548   -3824.1595    -4272.548            0    2192.0765    18.045512    23.279607    22.147835            0            0            0    9304.1375    633.50654    3762.8466    2179.8765    38.494417    624.48552    785.30497    18.045512    23.279607    22.147835           90           90           90 
   64000    265.64126   -4231.1877   -3775.8877   -4231.1877            0    3385.0671    18.081751    23.315345    22.024623            0            0            0    9285.1903    3783.8649    2808.4614    3562.8751    298.50089   -1294.4594   -312.26698    18.081751    23.315345    22.024623           90           90           90 
   64500    251.80538   -4248.5729   -3816.9871   -4248.5729            0    3150.6176    17.994721    23.548434    21.913193            0            0            0    9285.6607    3186.4055     4560.608    1704.8394    1.1499681   -3.4323486    457.65635    17.994721    23.548434    21.913193           90           90           90 
   65000    262.77575   -4272.9029   -3822.5143   -4272.9029            0    1877.5253    17.878638     23.50264    22.104423            0            0            0    9288.1724    3348.2315    1000.8949    1283.4493    529.87666    406.25225    643.11095    17.878638     23.50264    22.104423           90           90           90 
   65500    270.04467   -4266.0386   -3803.1913   -4266.0386            0    1904.5746    18.190565    23.096425    22.076206            0            0            0    9275.0312    2065.8829    1798.3934    1849.4474    522.17254   -796.75014    151.55926    18.190565    23.096425    22.076206           90           90           90 
   66000    265.59277   -4209.1982   -3753.9813   -4209.1982            0    2739.1787    18.128731    23.350407    21.834224            0            0            0    9242.7161    1173.7159     4238.767    2805.0532    836.02384   -312.12419    763.02356    18.128731    23.350407    21.834224           90           90           90 
   66500    262.67919   -4220.1405   -3769.9174   -4220.1405            0     1993.622    17.860307    23.734611    22.039139            0            0            0    9342.5548    2491.2549    1208.0827    2281.5283      348.723    175.34826   -1075.7507    17.860307    23.734611    22.039139           90           90           90 
   67000    250.73742   -4251.7702   -3822.0149   -4251.7702            0    774.37082     18.02917    23.328466    22.186773            0            0            0    9331.5985    698.26943    955.69415    669.14887   -1332.4752   -755.44622    463.06173     18.02917    23.328466    22.186773           90           90           90 
   67500    257.51607   -4256.3058    -3814.932   -4256.3058            0    2001.1627    18.194868    23.346271    21.885771            0            0            0    9296.6886    1079.1271    841.16754    4083.1936    602.31552    526.24367    317.10414    18.194868    23.346271    21.885771           90           90           90 
   68000    257.54893   -4235.2248   -3793.7947   -4235.2248            0    1976.5296    17.851302    23.551566    21.997176            0            0            0    9248.1872     2108.539    1266.5975    2554.4524     460.7181   -193.93055   -544.04214    17.851302    23.551566    21.997176           90           90           90 
   68500    266.16816   -4238.5831     -3782.38   -4238.5831            0    2593.0408    17.913059    23.432826    22.147177            0            0            0     9296.357    2330.7459    3165.3668    2283.0096    -1657.213   -216.28131   -346.82175    17.913059    23.432826    22.147177           90           90           90 
   69000    253.48122   -4273.8944   -3839.4362   -4273.8944            0    1808.4011    18.225317    23.308035    21.970715            0            0            0    9333.0791     2159.985    1930.0025    1335.2158    583.44655    413.19192    -1021.244    18.225317    23.308035    21.970715           90           90           90 
   69500    250.29478   -4237.8595   -3808.8629   -4237.8595            0    2832.2211    17.929824    23.448221    22.091046            0            0            0    9287.5721    3443.3715     1452.755    3600.5368    502.38482    -445.4089   -437.47662    17.929824    23.448221    22.091046           90           90           90 
   70000    251.38912    -4221.103   -3790.2307    -4221.103            0    1579.9441    17.873285    23.637775    22.042967            0            0            0    9312.8165    1804.7768    734.68325    2200.3721    255.64229   -535.76419   -207.34631    17.873285    23.637775    22.042967           90           90           90 
   70500    254.69871   -4230.8643   -3794.3194   -4230.8643            0    2086.6982    18.242929    23.138829     21.95539            0            0            0    9267.8092    1709.8761    3074.0655    1476.1531     75.74729   -590.61509   -662.25767    18.242929    23.138829     21.95539           90           90           90 
   71000    243.24451   -4217.6423   -3800.7295   -4217.6423            0    783.41968    18.039736    23.317622    22.225042            0            0            0    9348.8246    786.29618    85.708456    1478.2544   -132.05032   -338.22373    12.794073    18.039736    23.317622    22.225042           90           90           90 
   71500    259.85623   -4259.6893   -3814.3046   -4259.6893            0    744.25035    17.770588    23.814519    22.137237            0            0            0    9368.4344    2182.2467    1.9639137    48.540411    189.30168    280.70327    374.09689    17.770588    23.814519    22.137237           90           90           90 
   72000    278.02999    -4205.527   -3728.9931    -4205.527            0    1787.2705    18.193029    23.540765    21.894937            0            0            0    9377.1158    2518.8757    967.76163    1875.1743     1227.061    683.76032    423.33529    18.193029    23.540765    21.894937           90           90           90 
   72500    271.48547   -4251.2776   -3785.9608   -4251.2776            0    2331.3782    18.109332    23.238985    22.100095            0            0            0    9300.6589    2552.4727    1595.9276    2845.7344    27.980156   -590.42655   -491.84947    18.109332    23.238985    22.100095           90           90           90 
   73000    245.06768   -4234.6187   -3814.5811   -4234.6187            0    2393.5288    17.878264    23.452611    22.005362            0            0            0    9226.6716    3027.4183    1779.3975    2373.7707    163.05277   -893.63936   -68.221954    17.878264    23.452611    22.005362           90           90           90 
   73500     272.9584   -4238.4211   -3770.5797   -4238.4211            0    3073.6275    17.956185    23.482557     21.90907            0            0            0    9238.1158    3877.2894      1585.71    3757.8832   -241.90831    922.62227    50.508571    17.956185    23.482557     21.90907           90           90           90 
   74000      262.694   -4250.9633   -3800.7148   -4250.9633            0    2594.5697     18.08514    23.158347    22.036215            0            0            0    9229.2504     668.1191    4655.8059     2459.784    375.59462    498.47088   -2.5456326     18.08514    23.158347    22.036215           90           90           90 
   74500    264.47624   -4244.1894   -3790.8862   -4244.1894            0    1631.4527    17.969989    23.556109    22.065092            0            0            0    9340.2198    588.17598     802.4423    3503.7398   -525.83744   -143.99622    506.69781    17.969989    23.556109    22.065092           90           90           90 
   75000    264.33515   -4239.6729   -3786.6115   -4239.6729            0    1229.9593    18.016756    23.638387     22.02963            0            0            0    9382.1342     1218.895    200.85379     2270.129    280.30007   -1348.3777   -282.63826    18.016756    23.638387     22.02963           90           90           90 
   75500    258.56955   -4258.5032   -3815.3238   -4258.5032            0    2078.3247    18.375062    22.816327     22.10557            0            0            0    9267.7916    574.21892    3261.8432    2398.9121    409.90719   -50.972033   -286.08466    18.375062    22.816327     22.10557           90           90           90 
   76000    260.46341   -4243.1269   -3796.7016   -4243.1269            0    2517.0338    17.972628     23.49043    22.054612            0            0            0    9311.1208    3244.5828    2361.4201    1945.0986   -540.46635   -317.55576    539.65667    17.972628     23.49043    22.054612           90           90           90 
   76500    245.97763   -4283.0618   -3861.4646   -4283.0618            0    1434.7511    17.853072    23.822203    21.924193            0            0            0    9324.3485       1677.1   -381.28712    3008.4405   -72.953756    241.01587    8.6684563    17.853072    23.822203    21.924193           90           90           90 
   77000    245.68627   -4257.5308   -3836.4329   -4257.5308            0    1300.6543    18.201932    23.265267    22.083641            0            0            0    9351.8212    283.72532    1224.4233    2393.8143   -480.94989    274.34323   -185.17488    18.201932    23.265267    22.083641           90           90           90 
   77500    257.13142    -4237.879   -3797.1645    -4237.879            0    741.27594    18.194998    23.345474    22.140252            0            0            0    9404.5336   -291.73336     1479.322    1036.2392    728.78007    -108.2436    677.69867    18.194998    23.345474    22.140252           90           90           90 
   78000    268.85961   -4201.0439   -3740.2278   -4201.0439            0    3160.8638    17.852007     23.63621    21.994735            0            0            0     9280.762    5261.8049    1455.0314    2765.7553   -263.56258    440.29035   -564.37572    17.852007     23.63621    21.994735           90           90           90 
   78500    260.70714   -4265.0476   -3818.2045   -4265.0476            0    2626.7582    17.958797    23.322579    21.960901            0            0            0    9198.2238    2746.5418    3627.7372    1505.9957   -33.827927    606.88403     75.82671    17.958797    23.322579    21.960901           90           90           90 
   79000    251.50688   -4240.3663   -3809.2921   -4240.3663            0    3430.1164    18.251656    23.172624    21.851984            0            0            0    9242.0509    3188.1301    3767.9577    3334.2613    38.004337    1062.1542   -300.33906    18.251656    23.172624    21.851984           90           90           90 
   79500    259.74262   -4217.2649    -3772.075   -4217.2649            0    3551.1656    17.892619    23.462682    22.047245            0            0            0    9255.6286    3900.1542    4523.7016     2229.641    138.79589    32.012316   -712.14925    17.892619    23.462682    22.047245           90           90           90 
   80000    262.41635   -4209.7885   -3760.0158   -4209.7885            0      814.272    17.908251    23.657435    22.079721            0            0            0    9354.3669     1143.079    2196.0192   -896.28226   -233.49449     47.90518     -248.668    17.908251    23.657435    22.079721           90           90           90 
   80500    274.09429   -4246.1802    -3776.392   -4246.1802            0    2198.1752    18.259751    23.266896    21.948008            0            0            0    9324.5614    828.32789     1683.383    4082.8148   -120.81098    384.20209    457.73112    18.259751    23.266896    21.948008           90           90           90 
   81000    256.96467   -4232.7627    -3792.334   -4232.7627            0    1675.5018    18.052462    23.369716    22.091521            0            0            0     9319.991    3189.1157    198.41046    1638.9794    718.40429    1.4231002    730.53943    18.052462    23.369716    22.091521           90           90           90 
   81500    245.49465   -4240.0416   -3819.2722   -4240.0416            0    555.06509    17.837035    23.710172    22.222853            0            0            0    9398.4707    1476.4279   -176.08845    364.85582   -190.53617     19.54767    145.13202    17.837035    23.710172    22.222853           90           90           90 
   82000    255.49472   -4261.6245   -3823.7153   -4261.6245            0   -509.65742    18.352269     23.51149    22.010553            0            0            0    9497.3156   -995.93688   -246.71136   -286.32404   -80.136496   -238.40825   -115.09366    18.352269     23.51149    22.010553           90           90           90 
   82500    274.91069   -4207.5003   -3736.3127   -4207.5003            0    1887.0486    18.263513    23.277016    22.061042            0            0            0    9378.5918    2107.4804    2029.9467    1523.7187    458.88385   -465.36277    895.30904    18.263513    23.277016    22.061042           90           90           90 
   83000    263.37009   -4253.6033    -3802.196   -4253.6033            0    1696.2391    17.929363     23.58934    22.092854            0            0            0    9343.9918    1928.2371    620.47903     2540.001    44.841734    31.079997    195.69955    17.929363     23.58934    22.092854           90           90           90 
   83500    251.94705   -4221.9678   -3790.1392   -4221.9678            0    2112.1772     18.02071    23.479381    22.009522            0            0            0    9312.5613    3748.1341    1574.2877    1014.1099   -63.079998   -118.21401   -770.75499     18.02071    23.479381    22.009522           90           90           90 
   84000    259.42369   -4196.8523    -3752.209   -4196.8523            0    2149.7737    18.173885    23.307381    22.004554            0            0            0    9320.8138    1181.2756    4095.4534     1172.592    1018.7059   -345.40733    -20.79537    18.173885    23.307381    22.004554           90           90           90 
   84500    268.41902    -4266.911     -3806.85    -4266.911            0    -114.2108    18.081208    23.645814    22.181846            0            0            0     9483.735    410.46914   -1464.6535    711.55198     24.24073      255.464    700.94012    18.081208    23.645814    22.181846           90           90           90 
   85000    247.92706   -4229.1903   -3804.2518   -4229.1903            0    390.12332    18.024433     23.73277    22.175331            0            0            0    9485.9354    1076.4273    262.69932   -168.75663    -164.8782   -10.070242    546.11391    18.024433     23.73277    22.175331           90           90           90 
   85500    269.05027   -4218.5163   -3757.3733   -4218.5163            0     2331.517    18.196206    23.397732    22.019888            0            0            0    9374.9663    1554.0287    3170.4666    2270.0557    336.10987   -842.65313    510.43005    18.196206    23.397732    22.019888           90           90           90 
   86000    255.03151    -4230.775   -3793.6597    -4230.775            0    2095.2225    18.083883    23.338287    22.117464            0            0            0    9334.6062    4093.0465    818.34996    1374.2709    1207.2366   -68.057121   -521.99055    18.083883    23.338287    22.117464           90           90           90 
   86500    254.63023   -4252.9234   -3816.4959   -4252.9234            0    2432.7899    18.017288    23.521183    21.948014            0            0            0    9301.3031    2539.6954    2513.5945    2245.0799   -1359.3473     506.2281    491.10456    18.017288    23.521183    21.948014           90           90           90 
   87000    260.13424   -4263.4093   -3817.5481   -4263.4093            0    1854.0615    17.956462    23.470385    22.082748            0            0            0     9306.665     1952.766    2295.9369    1313.4818    297.30975    263.84332   -545.78631    17.956462    23.470385    22.082748           90           90           90 
   87500     268.2199   -4247.6823   -3787.9626   -4247.6823            0    1045.9014     18.26189    23.337336    22.083433            0            0            0    9411.6024    936.75542    1691.5423    509.40661   -318.32222    662.47868    14.716286     18.26189    23.337336    22.083433           90           90           90 
   88000    256.94418   -4211.1986   -3770.8051   -4211.1986            0   -162.93453    18.233619     23.69801    22.108118            0            0            0    9552.9286    -801.6529   -113.23992    426.08924   -438.74801   -1143.8257   -664.24592    18.233619     23.69801    22.108118           90           90           90 
   88500     267.6597   -4264.8938   -3806.1342   -4264.8938            0    902.03387    17.806224    23.803857     22.25642            0            0            0    9433.5352    1189.5782    1057.4866    459.03687   -1865.9656    851.33778    218.21527    17.806224    23.803857     22.25642           90           90           90 
   89000    249.09348   -4262.6445   -3835.7068   -4262.6445            0    3352.0877    18.064499    23.331354      21.9775            0            0            0    9262.8397      2433.74    4623.0777    2999.4453    454.80865   -885.46503    282.96496    18.064499    23.331354      21.9775           90           90           90 
   89500    258.76774   -4276.6444   -3833.1253   -4276.6444            0    3995.3494    18.074058    23.309598    21.924102            0            0            0    9236.6031    4095.7339    3198.9555    4691.3588   -131.28554   -647.75131    77.499405    18.074058    23.309598    21.924102           90           90           90 
   90000    251.29696   -4238.6609   -3807.9465   -4238.6609            0    2984.4766    17.860164    23.483583    22.124227            0            0            0    9279.3572    4962.9805    3534.7285    455.72088    1169.9111    600.07456    666.91946    17.860164    23.483583    22.124227           90           90           90 
   90500    269.65936   -4255.6012   -3793.4143   -4255.6012            0    2405.0623    18.059871    23.530116     21.98499            0            0            0    9342.5408    1317.0466    3122.2644     2775.876    19.181653   -64.693318    593.79859    18.059871    23.530116     21.98499           90           90           90 
   91000    254.52175   -4248.0982   -3811.8566   -4248.0982            0    2319.2103    18.153378    23.312461    22.018136            0            0            0    9318.0736    3370.5995    2246.1521    1340.8794   -170.72479   -208.91938    1047.4178    18.153378    23.312461    22.018136           90           90           90 
   91500    257.69939   -4296.2469   -3854.5589   -4296.2469            0    3321.7724    18.024049    23.353532    22.016149            0            0            0    9267.1523    3074.0595    4158.4201    2732.8376    556.84619   -332.91657    343.82696    18.024049    23.353532    22.016149           90           90           90 
   92000    269.77476    -4249.328   -3786.9433    -4249.328            0    2891.1947    17.824022    23.676394    21.966682            0            0            0    9270.1279    1901.2367     3123.532    3648.8155   -305.39133    635.15754   -8.7672888    17.824022    23.676394    21.966682           90           90           90 
   92500    255.20199   -4253.2477   -3815.8402   -4253.2477            0    2016.1174    18.105436     23.35382    22.075214            0            0            0    9334.0868    1934.0406    2743.4456     1370.866    557.52198    204.84026    805.86855    18.105436     23.35382    22.075214           90           90           90 
   93000    257.91967   -4260.2531   -3818.1876   -4260.2531            0    1445.5018    18.258526    23.134086    22.146834            0            0            0    9354.6965    1027.1189    1134.9998    2174.3868   -245.00639   -351.03368   -51.658459    18.258526    23.134086    22.146834           90           90           90 
   93500    251.60535   -4249.4557   -3818.2128   -4249.4557            0    2527.2696    17.883887    23.816346    21.929439            0            0            0    9340.3801    3197.0876    1262.2429    3122.4785   -1076.2281     652.3656    192.68076    17.883887    23.816346    21.929439           90           90           90 
   94000    258.04026   -4259.4697   -3817.1976   -4259.4697            0    1658.7368    17.980914     23.47361    22.127557            0            0            0    9339.5323    563.44073    2902.7713    1509.9985   -342.09846   -397.42903    516.31724    17.980914     23.47361    22.127557           90           90           90 
   94500    254.92986   -4238.9041    -3801.963   -4238.9041            0    1933.0401    18.207106    23.174237    22.065344            0            0            0    9310.1584    2482.8894    2039.4521    1276.7787    328.97319   -437.12496   -269.83128    18.207106    23.174237    22.065344           90           90           90 
   95000    259.30827   -4281.3383   -3836.8928   -4281.3383            0    2026.1002     18.01685    23.585045    21.876466            0            0            0    9295.9278    2039.0974    872.78851    3166.4146   -241.29351    905.74226   -161.37068     18.01685    23.585045    21.876466           90           90           90 
   95500    255.86765   -4236.5648   -3798.0164   -4236.5648            0    2273.9896     17.81332    23.511468    22.165396            0            0            0    9283.2512    4172.3725    1343.3246    1306.2716    296.49452   -378.87202    128.96875     17.81332    23.511468    22.165396           90           90           90 
   96000    275.28213   -4246.1415   -3774.3174   -4246.1415            0    2016.1427    18.313687    23.069071    22.054041            0            0            0    9317.3857    539.26291    3835.6468    1673.5183     641.6275   -237.41837    16.331299    18.313687    23.069071    22.054041           90           90           90 
   96500    275.32665   -4230.7369   -3758.8364   -4230.7369            0     132.1835    18.511213    23.274577     21.89776            0            0            0    9434.4454   -691.67537    911.07169    177.15417    531.90157   -81.131863   -199.55963    18.511213    23.274577     21.89776           90           90           90 
   97000    264.81683   -4244.5398   -3790.6528   -4244.5398            0    1478.5375    17.787577    23.787598    22.111948            0            0            0    9356.0898    2057.9438    1269.2955    1108.3733    416.08274   -185.35857   -308.33358    17.787577    23.787598    22.111948           90           90           90 
   97500    264.55452   -4242.4741   -3789.0367   -4242.4741            0    1566.2468    18.021454    23.350073     22.17386            0            0            0    9330.8106    436.01384    2958.1122    1304.6144   -880.68055   -396.44639   -197.80615    18.021454    23.350073     22.17386           90           90           90 
   98000    255.17826   -4265.4339   -3828.0671   -4265.4339            0    1692.0108    18.241936    23.319773    21.901897            0            0            0    9317.0186    2401.2796    514.66415    2160.0886   -62.515053   -70.053355    971.64666    18.241936    23.319773    21.901897           90           90           90 
   98500    259.11558   -4246.3866   -3802.2714   -4246.3866            0    1431.9303     17.96367    23.487684    22.134171            0            0            0    9338.9602    633.25655    1673.4787    1989.0558   -369.33665    102.92182    49.718045     17.96367    23.487684    22.134171           90           90           90 
   99000    267.99242   -4259.2579   -3799.9281   -4259.2579            0    1809.1791    17.920111     23.52587    22.075957            0            0            0     9306.919     1799.865    1453.4666    2174.2056    418.27422    349.02437   -817.78036    17.920111     23.52587    22.075957           90           90           90 
   99500    274.13608   -4216.0966   -3746.2368   -4216.0966            0    2882.6757    18.158531    23.353626     21.79192            0            0            0     9241.246    3808.1913     2433.244    2406.5918    1784.1426    110.58994   -451.08853    18.158531    23.353626     21.79192           90           90           90 
  100000    255.37905   -4238.0319    -3800.321   -4238.0319            0    2509.0789    18.115239    23.163775    22.223605            0            0            0    9325.4097     2178.167    3489.7078    1859.3619   -373.67575    183.03961   -851.33459    18.115239    23.163775    22.223605           90           90           90 
  100500    252.42817   -4218.8387   -3786.1855   -4218.8387            0    1283.3289    17.836238    23.647842    22.148327            0            0            0    9341.9104    1371.3778    1181.1535    1297.4554    -479.6831   -228.10641    311.48408    17.836238    23.647842    22.148327           90           90           90 
  101000    254.98576   -4259.9959    -3822.959   -4259.9959            0    1770.8635     18.13097    23.530265    21.902711            0            0            0    9344.2776    1826.7455    2667.0549    818.78999    577.41524   -374.98959    396.53151     18.13097    23.530265    21.902711           90           90           90 
  101500    263.20562   -4253.7598   -3802.6344   -4253.7598            0    2298.2127     18.14671    23.244509    22.103891            0            0            0    9323.6724    2753.9209     3038.011    1102.7062   -457.07759   -116.25084   -210.14448     18.14671    23.244509    22.103891           90           90           90 
  102000    268.31631   -4246.8731   -3786.9881   -4246.8731            0    2528.2274    17.935145    23.343606    22.149668            0            0            0     9273.423    1802.0434    3100.5891    2682.0498   -185.78175    626.22098   -324.48928    17.935145    23.343606    22.149668           90           90           90 
  102500    250.19787    -4248.562   -3819.7314    -4248.562            0    1710.0697    18.016692    23.645641    21.892239            0            0            0    9326.4489    1361.4655    2271.9854    1496.7583   -452.27136    731.40455   -507.20301    18.016692    23.645641    21.892239           90           90           90 
  103000    246.57116   -4211.3043   -3788.6898   -4211.3043            0    1993.2097    18.075148    23.283949     22.20142            0            0            0    9343.7079    559.53987    3011.6267    2408.4624     531.7878   -964.44393    252.98313    18.075148    23.283949     22.20142           90           90           90 
  103500     258.2782   -4252.8087   -3810.1287   -4252.8087            0    367.90764     18.19611     23.39287    22.101195            0            0            0    9407.5774   -79.149206    290.52086    892.35127     309.7505   -222.96781    58.480911     18.19611     23.39287    22.101195           90           90           90 
  104000    256.58893   -4232.6176   -3792.8329   -4232.6176            0    1777.0331    18.033914    23.503626    22.056727            0            0            0    9349.0161    1535.6279    2433.0829    1362.3885    266.37711    353.51589   -586.13954    18.033914    23.503626    22.056727           90           90           90 
  104500    266.18301   -4256.6764   -3800.4478   -4256.6764            0    1419.7272        18.02    23.549498     22.01156            0            0            0    9340.8688    1448.5569    1605.4954    1205.1294   -1128.3167   -148.26924   -405.01339        18.02    23.549498     22.01156           90           90           90 
  105000    259.14205   -4216.9095   -3772.7489   -4216.9095            0    355.10787    18.189276    23.376853    22.059919            0            0            0    9380.0542   -346.96381    1258.8091    153.47832   -353.11941    15.279972    352.71155    18.189276    23.376853    22.059919           90           90           90 
  105500    265.39808   -4215.7761   -3760.8929   -4215.7761            0    1137.7396    18.109455    23.589563     22.08351            0            0            0     9433.946    230.96652    1778.2832     1403.969    1138.2885    613.83976   -622.25789    18.109455    23.589563     22.08351           90           90           90 
  106000    252.99228   -4251.5059   -3817.8858   -4251.5059            0    1951.3023    17.829818    23.629626    22.107687            0            0            0    9314.2319    2254.6094    958.41044     2640.887   -285.42502   -465.03372   -824.52734    17.829818    23.629626    22.107687           90           90           90 
  106500    261.58403   -4246.1213   -3797.7752   -4246.1213            0    2183.3832    18.215076    23.283667    21.853755            0            0            0    9268.4784     795.9187    1600.8794    4153.3514    826.97757   -61.621127   -287.58239    18.215076    23.283667    21.853755           90           90           90 
  107000    246.71411   -4241.2512   -3818.3917   -4241.2512            0    2468.5169    18.121866    23.188729    22.149867            0            0            0    9307.8846    2258.6198    3732.9237    1414.0071   -1035.4625   -504.46792   -7.2753726    18.121866    23.188729    22.149867           90           90           90 
  107500    256.64986   -4226.2579   -3786.3688   -4226.2579            0    2798.7385    17.742177     23.78768    22.017538            0            0            0    9292.3968     4411.004    2497.0878    1488.1236    250.89583    646.27639    1368.4887    17.742177     23.78768    22.017538           90           90           90 
  108000    263.95285   -4229.2325   -3776.8263   -4229.2325            0    1860.5176     18.08386    23.401358    22.025077            0            0            0    9320.7239    1127.8289     1668.035    2785.6888    917.76513   -205.82078   -319.34768     18.08386    23.401358    22.025077           90           90           90 
  108500    271.79554   -4229.9464   -3764.0982   -4229.9464            0    2822.1362    18.262316    23.180749    22.035478            0            0            0    9328.3706    1942.2545    2980.4124    3543.7417   -294.08929    124.73223    1060.4836    18.262316    23.180749    22.035478           90           90           90 
  109000    260.53713   -4249.5935   -3803.0418   -4249.5935            0    1145.7664    17.941329    23.682885    22.126721            0            0            0    9401.6977    1987.4951    1164.9855    284.81858   -154.21674   -1037.0925   -40.997065    17.941329    23.682885    22.126721           90           90           90 
  109500    258.97702   -4234.6795   -3790.8017   -4234.6795            0    1405.8031     18.02046    23.589364    22.110171            0            0            0    9398.8387    2253.8893    600.31628    1363.2038   -514.20233   -360.07868    192.29364     18.02046    23.589364    22.110171           90           90           90 
  110000    263.66333   -4251.3681   -3799.4582   -4251.3681            0    2241.5256    18.122046    23.348279    22.111164            0            0            0    9355.6445    1958.0981    2030.5921    2735.8866   -613.88159    456.17988     37.28913    18.122046    23.348279    22.111164           90           90           90 
  110500    258.99939   -4249.2873   -3805.3712   -4249.2873            0    1454.2109    18.077902     23.47794    21.997116            0            0            0    9336.2774    1465.3223   -770.39027    3667.7007   -119.59289   -580.73451    341.92903    18.077902     23.47794    21.997116           90           90           90 
  111000    258.50776    -4232.521   -3789.4475    -4232.521            0    1450.8786    18.027955    23.571156    22.093393            0            0            0    9388.3605    1536.4367    2482.2476    333.95137     743.6131   -729.31538    1150.3896    18.027955    23.571156    22.093393           90           90           90 
  111500    267.46999   -4242.6016   -3784.1672   -4242.6016            0    2273.2731    18.063782    23.286374    22.252246            0            0            0    9360.1848    4094.8357    3653.8286   -928.84489    243.62178   -273.94468    947.43015    18.063782    23.286374    22.252246           90           90           90 
  112000    253.10345    -4235.627   -3801.8164    -4235.627            0    1160.2047    18.194573    23.483962    21.885004            0            0            0     9351.039   -382.05773     1151.342    2711.3298    233.68235   -103.60059    145.76086    18.194573    23.483962    21.885004           90           90           90 
  112500    248.36649   -4256.1245   -3830.4328   -4256.1245            0      1878.86    18.018237    23.565165    21.980653            0            0            0    9333.0453    2193.9126     893.7079    2548.9596    525.75232    39.958403    541.48681    18.018237    23.565165    21.980653           90           90           90 
  113000     249.9939   -4240.6908   -3812.2098   -4240.6908            0    2761.5377    17.891917    23.261007    22.403245            0            0            0    9323.8724     3562.695    3621.8624    1100.0557   -829.17508    208.96224    171.37495    17.891917    23.261007    22.403245           90           90           90 
  113500    260.65117   -4248.2852   -3801.5381   -4248.2852            0    3019.2633    18.190011    23.508608    21.728055            0            0            0    9291.3907    2701.2538    2005.8203    4350.7158   -501.94714   -504.46224    426.83538    18.190011    23.508608    21.728055           90           90           90 
  114000    271.88255   -4243.5933    -3777.596   -4243.5933            0    2973.5594    18.058246    23.363861    21.967165            0            0            0    9268.1745    2946.1693    3337.6871    2636.8219   -306.34969   -432.18769    -1249.523    18.058246    23.363861    21.967165           90           90           90 
  114500    260.04895   -4232.3914   -3786.6764   -4232.3914            0    949.04711    18.001675    23.393085    22.221954            0            0            0    9357.9922    2043.4507    47.558611    756.13201   -117.08003    1.0452366   -889.83578    18.001675    23.393085    22.221954           90           90           90 
  115000    257.56098   -4219.7638   -3778.3131   -4219.7638            0    2014.5526    18.026796    23.515845    21.951256            0            0            0     9305.474    1875.1634    1725.3297    2443.1646    414.87815   -439.12196    590.64556    18.026796    23.515845    21.951256           90           90           90 
  115500     269.6188   -4244.7112   -3782.5938   -4244.7112            0    2703.5513    17.996049    23.500063    21.831752            0            0            0    9232.8287    3217.4958    1661.7382    3231.4199    206.18624    524.21216    109.65461    17.996049    23.500063    21.831752           90           90           90 
  116000    254.49768   -4250.6094   -3814.4091   -4250.6094            0    2987.9646    17.969461    23.090806    22.188713            0            0            0    9206.7482    4975.0297    2532.0318    1456.8322    43.754929    244.18285    838.52966    17.969461    23.090806    22.188713           90           90           90 
  116500     261.9172   -4240.2188   -3791.3017   -4240.2188            0    1805.2455    17.984914    23.612465    21.994418            0            0            0    9340.3289    1656.5591    2524.6735    1234.5038    1135.7319   -335.36255   -359.20564    17.984914    23.612465    21.994418           90           90           90 
  117000    249.81213   -4267.5299   -3839.3605   -4267.5299            0     1255.638    18.056644    23.730138     21.93508            0            0            0    9398.8891    520.94608    923.43049    2322.5374   -545.62971    132.43706   -5.5391181    18.056644    23.730138     21.93508           90           90           90 
  117500    251.66422   -4255.1716   -3823.8278   -4255.1716            0    1998.4528    18.092466     23.11256    22.307472            0            0            0    9328.1643    2568.2641    1533.2035    1893.8909    81.281801    206.07254    335.44434    18.092466     23.11256    22.307472           90           90           90 
  118000    248.18432   -4244.5101   -3819.1306   -4244.5101            0    1762.8034     18.08027    23.358934    22.019181            0            0            0    9299.4895    2696.7171      1736.91    854.78308    922.95097   -58.807732     372.8637     18.08027    23.358934    22.019181           90           90           90 
  118500    266.12731   -4250.4203   -3794.2872   -4250.4203            0     2278.081    17.964802    23.607588    21.925586            0            0            0    9298.7646    2764.8045    2168.5721    1900.8665    882.50151    411.64706   -144.73157    17.964802    23.607588    21.925586           90           90           90 
  119000    255.30476   -4239.8069   -3802.2233   -4239.8069            0    1892.5673    17.965026    23.407338     22.17546            0            0            0    9325.0788     3234.735    2173.6637    269.30333    54.946076    527.07807    195.94671    17.965026    23.407338     22.17546           90           90           90 
  119500    264.06473   -4237.5536   -3784.9557   -4237.5536            0    1440.8379     18.17271    23.477716    21.953405            0            0            0    9366.5021    1207.9065    1684.7838    1429.8233   -345.33951   -51.457343    252.50209     18.17271    23.477716    21.953405           90           90           90 
  120000     259.0565   -4247.5573   -3803.5433   -4247.5573            0    2022.7003    18.031901    23.478367    22.043398            0            0            0    9332.2842    2471.4132    917.09317    2679.5946    408.55918   -188.81647   -470.42653    18.031901    23.478367    22.043398           90           90           90 
  120500    251.57566   -4206.4499   -3775.2578   -4206.4499            0    1202.2838    17.837496    23.458065     22.37718            0            0            0    9363.3539     1898.408     1647.033    61.410484   -480.13907   -1069.0939   -575.83713    17.837496    23.458065     22.37718           90           90           90 
  121000    265.41694   -4258.3912   -3803.4757   -4258.3912            0    2332.2463    18.224061    23.451754    21.714137            0            0            0    9280.3224    3235.2259    1238.2281     2523.285   -1498.0449    358.35999    262.02761    18.224061    23.451754    21.714137           90           90           90 
  121500    254.12925   -4238.9152   -3803.3464   -4238.9152            0    2805.9956    18.101784    23.324681    21.993907            0            0            0    9286.2308    3580.0954    3071.3244     1766.567    12.290333    481.33429    742.55248    18.101784    23.324681    21.993907           90           90           90 
  122000    271.58251   -4229.2878   -3763.8046   -4229.2878            0    1221.6075    17.869823     23.43535    22.321668            0            0            0    9347.9921    2617.3927    973.40101    74.028709   -336.02372    130.42772   -142.12714    17.869823     23.43535    22.321668           90           90           90 
  122500    275.41402   -4233.2058   -3761.1556   -4233.2058            0    1088.0558    18.172438    23.576057     21.83302            0            0            0    9354.0171   -428.03999   -40.317455    3732.5249   -602.66814   -879.55542    919.69855    18.172438    23.576057     21.83302           90           90           90 
  123000    238.18742    -4223.809   -3815.5639    -4223.809            0    1224.8419    18.160914    23.324583    22.068712            0            0            0    9348.2126    437.58563    1774.3907    1462.5494    340.16132   -429.43923    -5.538794    18.160914    23.324583    22.068712           90           90           90 
  123500      256.772   -4239.9373   -3799.8389   -4239.9373            0   -109.99793    17.858218    23.497011    22.257064            0            0            0    9339.3922    1616.7673   -588.01338   -1358.7478   -545.33275   -232.19589    65.164069    17.858218    23.497011    22.257064           90           90           90 
  124000    266.16657   -4225.9595   -3769.7592   -4225.9595            0    2658.2976    18.071538    23.580102    21.777241            0            0            0    9279.9075     1387.729    2787.8152    3799.3485    857.37699   -1601.2762   -161.84292    18.071538    23.580102    21.777241           90           90           90 
  124500    261.30504   -4236.2333   -3788.3654   -4236.2333            0     1716.485    18.190281    23.228848    22.025449            0            0            0    9306.6168    1928.5956    1796.5062    1424.3532   -143.23675    195.71842   -9.1890341    18.190281    23.228848    22.025449           90           90           90 
  125000    272.70146   -4204.9626   -3737.5616   -4204.9626            0   -314.42871    18.147215     23.22986    22.474219            0            0            0    9474.1701    -1062.205    1179.9634   -1061.0446   -1184.0911   -437.37318    1025.2631    18.147215     23.22986    22.474219           90           90           90 
  125500    260.35942   -4234.1929   -3787.9458   -4234.1929            0    440.72432    17.974248    23.851831    22.010836            0            0            0    9436.4578    276.87193   -487.70047    1533.0015    95.366683    102.37915   -646.52994    17.974248    23.851831    22.010836           90           90           90 
  126000    242.21143   -4204.8796   -3789.7375   -4204.8796            0    2611.8121    18.063865    23.495559    21.942455            0            0            0    9312.8305     2187.136    3336.9888    2311.3115    707.10116    260.97678    364.43073    18.063865    23.495559    21.942455           90           90           90 
  126500     244.4224   -4266.0568   -3847.1252   -4266.0568            0    3246.9508    18.059509    23.234469    22.055101            0            0            0    9254.3888    3243.3529    4311.9304    2185.5691   -8.1556201   -323.16198   -266.97429    18.059509    23.234469    22.055101           90           90           90 
  127000    259.21982   -4228.0955   -3783.8016   -4228.0955            0    3630.0169    17.964559    23.438699    21.950804            0            0            0    9242.7351     3030.148    3974.6904    3885.2122   -1133.3406   -1390.2336   -379.87529    17.964559    23.438699    21.950804           90           90           90 
  127500     272.1702   -4253.0775   -3786.5871   -4253.0775            0    2151.8266    18.014578    23.464385    22.045394            0            0            0    9318.6098    2346.3498    1081.1741    3027.9558   -579.01548   -128.53222    533.41059    18.014578    23.464385    22.045394           90           90           90 
  128000    269.30298   -4258.3601   -3796.7841   -4258.3601            0    392.25682    18.190187    23.392167    22.119924            0            0            0    9412.2024    906.24262   -388.09737    658.62522     -123.325   -164.63336     454.4483    18.190187    23.392167    22.119924           90           90           90 
  128500    266.72589   -4266.5829   -3809.4238   -4266.5829            0    1830.6272    18.201227    23.383353    21.895684            0            0            0    9318.9283    1716.9947    2468.1786    1306.7083    229.87518   -440.42024    63.931599    18.201227    23.383353    21.895684           90           90           90 
  129000    260.46721   -4214.9943   -3768.5624   -4214.9943            0    2129.5372    17.723531    23.605801    22.340258            0            0            0    9346.6761    2261.6447    1946.4186    2180.5483   -826.50951    903.27244    1164.2049    17.723531    23.605801    22.340258           90           90           90 
  129500    270.77414   -4248.8209   -3784.7233   -4248.8209            0    2050.1794     18.08305    23.393229      22.0457            0            0            0    9325.7928    2290.6134    2011.5026    1848.4222    619.60111    458.56065   -525.00342     18.08305    23.393229      22.0457           90           90           90 
  130000    244.79833   -4246.6657   -3827.0898   -4246.6657            0    3190.7565    18.263389    23.265191    21.776743            0            0            0    9252.9648    1568.4948    3580.4028    4423.3719    -1.239125    423.70384    587.47271    18.263389    23.265191    21.776743           90           90           90 
  130500    268.20702   -4244.2895   -3784.5918   -4244.2895            0    2466.7287     17.87544     23.33759    22.301575            0            0            0    9303.5412    1424.5214    3615.5992    2360.0654   -581.85287    747.66374     181.3365     17.87544     23.33759    22.301575           90           90           90 
  131000    255.87094   -4267.9465   -3829.3925   -4267.9465            0     1613.157    17.991112    23.541286    22.044607            0            0            0    9336.6384    2877.1019    1157.8537    804.51538   -675.36894    631.57001     27.92564    17.991112    23.541286    22.044607           90           90           90 
  131500    262.21848   -4252.4367   -3803.0032   -4252.4367            0    1639.1362    18.148987    23.454458    21.889479            0            0            0     9317.796    1173.2541    1370.3567    2373.7978   -482.72977    88.393084   -410.30949    18.148987    23.454458    21.889479           90           90           90 
  132000    261.13268   -4211.5495    -3763.977   -4211.5495            0     4304.878     17.91155    23.280942    22.186449            0            0            0    9251.6999    4436.4591     4229.758    4248.4169   -371.31493   -582.36129    617.60153     17.91155    23.280942    22.186449           90           90           90 
  132500    274.10637   -4228.6939   -3758.8849   -4228.6939            0    2476.8906    18.033981    23.470235    21.991114            0            0            0    9307.9978    2579.0187    2273.6755    2577.9775    123.86131    1200.4531    879.69835    18.033981    23.470235    21.991114           90           90           90 
  133000    267.08633    -4246.165   -3788.3882    -4246.165            0     1666.475    18.095611    23.449898    21.994041            0            0            0    9332.9563    1334.0992     2457.082    1208.2437    463.88557    104.11868    -255.8384    18.095611    23.449898    21.994041           90           90           90 
  133500    257.64313   -4217.7118   -3776.1202   -4217.7118            0    1645.2194    18.068166    23.561945    22.113384            0            0            0    9414.1351    1211.7912    873.75099    2850.1162   -893.28803    79.004686    693.94523    18.068166    23.561945    22.113384           90           90           90 
  134000    257.58519   -4276.5236   -3835.0314   -4276.5236            0    1848.5038    18.037456    23.431544    22.016761            0            0            0    9305.2839    3560.9927    637.83305    1346.6856      994.709    169.38136   -162.57583    18.037456    23.431544    22.016761           90           90           90 
  134500    258.70978   -4242.5949   -3799.1752   -4242.5949            0    2325.0144    18.026756    23.399714    22.100858            0            0            0    9322.6043    4244.0501    2774.8237   -43.830588   -699.67058   -178.38037   -152.64432    18.026756    23.399714    22.100858           90           90           90 
  135000    245.17422   -4257.1132    -3836.893   -4257.1132            0    1338.4461     18.07917    23.548296    22.022787            0            0            0    9375.8414    1941.1614     1647.226    426.95075   -297.73101    221.40278    -188.0933     18.07917    23.548296    22.022787           90           90           90 
  135500    248.72612   -4232.1087   -3805.8006   -4232.1087            0    752.21162    18.104467    23.373124    22.160962            0            0            0    9377.5871    901.38466    925.00505    430.24515    308.36549    54.030247   -6.1471213    18.104467    23.373124    22.160962           90           90           90 
  136000    257.81697   -4235.7487   -3793.8593   -4235.7487            0    2147.0361    18.132739     23.25111    22.034186            0            0            0     9289.752    1597.4125     2149.249    2694.4467   -36.116999    139.91254    364.85364    18.132739     23.25111    22.034186           90           90           90 
  136500    255.05691   -4212.3297   -3775.1709   -4212.3297            0    3947.9907    17.919455    23.506432    21.846449            0            0            0    9202.2149    5735.9233    2416.5468    3691.5021   -1314.9645    382.87076    355.80737    17.919455    23.506432    21.846449           90           90           90 
  137000    244.96198   -4228.1351   -3808.2787   -4228.1351            0    2208.0575    17.929559    23.513205     22.01898            0            0            0    9282.7919    1928.8958      2218.05    2477.2268    211.85448    96.187222    730.28861    17.929559    23.513205     22.01898           90           90           90 
  137500    268.63325   -4198.6296   -3738.2014   -4198.6296            0    1328.3537    18.294722    23.254375    22.228404            0            0            0    9456.6812    383.09361    2130.2118    1471.7558   -59.504297    841.03286    -165.2662    18.294722    23.254375    22.228404           90           90           90 
  138000    265.27628   -4247.6199   -3792.9455   -4247.6199            0     1236.134     18.15644    23.509492    22.122901            0            0            0     9443.131    1422.3721    202.79834    2083.2315    1711.5517   -411.47166    249.81628     18.15644    23.509492    22.122901           90           90           90 
  138500    275.41302   -4264.0277   -3791.9792   -4264.0277            0    1349.3754    17.976916    23.548746    22.040543            0            0            0    9330.5078    1637.7693    1070.4074    1339.9495    1972.5977     -645.498   -770.14988    17.976916    23.548746    22.040543           90           90           90 
  139000    248.93875   -4280.0139   -3853.3414   -4280.0139            0     2858.776    18.107392    23.313148    22.012162            0            0            0    9292.2208     2210.411    2494.6459    3871.2711   -1020.0901   -560.28123   -517.22781    18.107392    23.313148    22.012162           90           90           90 
  139500    273.26029   -4251.9416   -3783.5828   -4251.9416            0    2693.4883    18.054364    23.369438    22.016108            0            0            0    9289.0435    2942.2431    821.70949    4316.5123     1007.152   -412.27007   -80.485688    18.054364    23.369438    22.016108           90           90           90 
  140000    272.43465    -4258.647   -3791.7034    -4258.647            0     2816.855     17.92528    23.531519    21.981316            0            0            0    9271.9182    2182.5901    4168.9962    2098.9786    295.53287   -490.67841   -334.00021     17.92528    23.531519    21.981316           90           90           90 
  140500    251.49849   -4206.6201   -3775.5603   -4206.6201            0    1689.8679     18.10758    23.412827     22.12385            0            0            0    9379.3982    969.73542    1309.3021    2790.5661    1845.2014   -44.099542   -185.44857     18.10758    23.412827     22.12385           90           90           90 
  141000    253.74551   -4254.5965   -3819.6853   -4254.5965            0    1409.2312    18.210533    23.290473    22.077894            0            0            0    9363.9396     1436.622    1285.8766    1505.1948    136.40551    422.83731    378.78818    18.210533    23.290473    22.077894           90           90           90 
  141500    253.53633   -4244.3753   -3809.8227   -4244.3753            0    1136.2215    17.972452    23.695261    21.947101            0            0            0    9346.4349    2794.8473    894.10448   -280.28733   -113.63033    -142.3943   -175.01218    17.972452    23.695261    21.947101           90           90           90 
  142000      255.569   -4242.4227   -3804.3861   -4242.4227            0    1989.8133    17.912042    23.538851    22.068704            0            0            0    9304.8033    3853.6765    670.66242    1445.1011    265.46144   -283.94698   -10.467132    17.912042    23.538851    22.068704           90           90           90 
  142500    260.83901   -4212.6028   -3765.5337   -4212.6028            0    2815.8707    18.271148    23.027931    22.041971            0            0            0    9274.0875    2452.2962    4105.9374    1889.3785   -874.70773    24.564365   -288.32551    18.271148    23.027931    22.041971           90           90           90 
  143000     256.2665   -4235.4708   -3796.2388   -4235.4708            0    2486.3916    18.000986    23.568011    22.010822            0            0            0     9338.035    2578.9299    3994.2074    886.03745   -858.25159    1389.3592    487.31295    18.000986    23.568011    22.010822           90           90           90 
  143500    249.12658   -4228.0317   -3801.0373   -4228.0317            0    1185.8971    17.955276    23.736746    22.044339            0            0            0    9395.2938    2598.9717    2019.6224   -1060.9028    906.72745   -350.78985   -303.15924    17.955276    23.736746    22.044339           90           90           90 
  144000    255.82569   -4233.6895    -3795.213   -4233.6895            0    2211.8972    18.169951    23.159497    22.165739            0            0            0    9327.4966    1738.1382    2753.0995    2144.4539   -344.02808   -1155.7534   -1030.2552    18.169951    23.159497    22.165739           90           90           90 
  144500    268.21427   -4259.5901     -3799.88   -4259.5901            0    2260.9322    18.032659    23.431633     22.04316            0            0            0    9313.9984    2343.1647    2329.4296    2110.2022    -262.2042    829.31454     354.2925    18.032659    23.431633     22.04316           90           90           90 
  145000    265.09109   -4225.2609   -3770.9038   -4225.2609            0    1943.0038    17.811332    23.925696    21.913093            0            0            0     9338.232    2749.2326   -172.80674    3252.5856    822.74622    859.62012    399.14817    17.811332    23.925696    21.913093           90           90           90 
  145500    261.67692   -4218.0391   -3769.5338   -4218.0391            0    1532.2258    18.245523    23.191702    22.274116            0            0            0    9425.1747    1401.4206    1736.3116    1458.9452   -352.87453    218.50086   -238.27434    18.245523    23.191702    22.274116           90           90           90 
  146000    246.95163    -4239.884   -3816.6174    -4239.884            0    1638.4131    18.206658    23.270018    22.177517            0            0            0    9395.9327    2405.6616    1246.7167    1262.8609   -255.14447    233.49399   -454.38534    18.206658    23.270018    22.177517           90           90           90 
  146500    256.38246   -4238.0739   -3798.6431   -4238.0739            0    1861.1634    17.967663    23.691262         21.9            0            0            0    9322.3178    2042.4168    1588.4583    1952.6151  -0.96164535     73.50798   -120.59374    17.967663    23.691262         21.9           90           90           90 
  147000    254.62675   -4257.5012   -3821.0796   -4257.5012            0    3647.8778    17.915318    23.543426    22.010242            0            0            0    9283.6548     3363.594    3000.2114    4579.8282    637.52948    13.045669    270.92618    17.915318    23.543426    22.010242           90           90           90 
  147500    267.87078    -4258.453   -3799.3317    -4258.453            0    2588.3458     18.17719    23.198946    22.069416            0            0            0    9306.4885    1852.0424    3794.5591     2118.436    236.51655   -80.073773    753.58907     18.17719    23.198946    22.069416           90           90           90 
  148000    254.36182   -4260.1155   -3824.1481   -4260.1155            0     1384.559    18.105787     23.50456    22.059475            0            0            0    9387.8185    1840.0615    640.33038    1673.2852   -53.262579    365.60558    325.90029    18.105787     23.50456    22.059475           90           90           90 
  148500    257.59358   -4240.6137   -3799.1071   -4240.6137            0    1547.8422    17.878418    23.705293    22.067883            0            0            0    9352.6592    1169.4612    2222.3967    1251.6685   -905.98469    125.17019    305.29677    17.878418    23.705293    22.067883           90           90           90 
  149000    277.16248   -4231.1046   -3756.0576   -4231.1046            0    939.85583    18.290981    23.125269    22.165721            0            0            0    9375.7422   -131.11451    2350.3939    600.28808    517.14801    203.15555   -741.85229    18.290981    23.125269    22.165721           90           90           90 
  149500    260.29863   -4212.6012   -3766.4583   -4212.6012            0    2353.7956    18.309544    23.358545       21.906            0            0            0    9368.8524    1878.9474    1948.4718    3233.9675    595.03188    184.74117    158.75216    18.309544    23.358545       21.906           90           90           90 
  150000    249.56752   -4233.3433   -3805.5931   -4233.3433            0    3377.8027    17.744619    23.788473    22.003777            0            0            0    9288.1768    2572.9942    3941.7032    3618.7109    372.58819    280.13962    296.24782    17.744619    23.788473    22.003777           90           90           90 
  150500    251.39739   -4241.8449   -3810.9584   -4241.8449            0    2090.7937    18.031858    23.419226    22.092125            0            0            0    9329.3313    1542.3185    1026.3019    3703.7608   -794.81768    30.758877   -919.08658    18.031858    23.419226    22.092125           90           90           90 
  151000     260.4844   -4218.6281   -3772.1668   -4218.6281            0    2517.8926    18.231611    23.209927    22.058011            0            0            0    9333.9433    1262.4411    5172.5939    1118.6429    270.53954   -162.83155    1187.2045    18.231611    23.209927    22.058011           90           90           90 
  151500    253.76994   -4235.8821   -3800.9291   -4235.8821            0    1651.1275    17.987814    23.691804    22.016813            0            0            0    9382.7682    1229.6594    991.69766    2732.0255    285.53347   -425.40945    464.91827    17.987814    23.691804    22.016813           90           90           90 
  152000    253.67672   -4246.8641   -3812.0709   -4246.8641            0    286.90523    17.985677    23.538289    22.208909            0            0            0    9402.1875    275.54526   -372.69264    957.86306   -77.513233   -865.49062    468.68884    17.985677    23.538289    22.208909           90           90           90 
  152500    248.72009   -4249.5518   -3823.2541   -4249.5518            0    1749.1147    18.269461    23.307491    21.957689            0            0            0    9349.9196    2730.3774    1139.2796     1377.687    378.17065    72.946303    152.22343    18.269461    23.307491    21.957689           90           90           90 
  153000    255.02431   -4233.3513   -3796.2483   -4233.3513            0    1405.5907    18.107138    23.408198    22.055292            0            0            0    9348.2566    1386.7058     1341.729    1488.3373   -1159.8386    476.39406   -444.00246    18.107138    23.408198    22.055292           90           90           90 
  153500    263.89341   -4241.7255   -3789.4212   -4241.7255            0    2319.0847    17.726066    23.635124    22.177248            0            0            0      9291.33    2839.2854    1721.5688       2396.4    163.12318    563.94125    152.02909    17.726066    23.635124    22.177248           90           90           90 
  154000    257.08224   -4259.0841    -3818.454   -4259.0841            0    2626.0287    18.284464    23.407281     21.81281            0            0            0    9335.6554    1505.4266     2773.272    3599.3876    471.96087   -159.02456    388.93641    18.284464    23.407281     21.81281           90           90           90 
  154500    253.78705   -4253.2563   -3818.2739   -4253.2563            0    2124.4957    18.229563    23.219943    22.011591            0            0            0    9317.2737    1960.3749    2813.0633     1600.049    304.64996   -952.25932   -1094.9721    18.229563    23.219943    22.011591           90           90           90 
  155000    248.35855   -4231.0738   -3805.3957   -4231.0738            0    1870.6851    17.827189    23.485878    22.287346            0            0            0    9331.4261    1236.6939    3019.7591    1355.6022   -350.13557    296.70569   -307.10603    17.827189    23.485878    22.287346           90           90           90 
  155500    265.49783   -4262.0975   -3807.0433   -4262.0975            0    1319.1299    18.085981    23.611215    21.899503            0            0            0    9351.7882    2146.2023    1244.1985     566.9889     726.9166   -521.97083   -301.99903    18.085981    23.611215    21.899503           90           90           90 
  156000    250.50208   -4266.0386   -3836.6866   -4266.0386            0   -450.12273    18.124464    23.369249    22.200237            0            0            0    9403.0239   -325.25296   -794.94749   -230.16774   -371.72877   -448.96762    110.28328    18.124464    23.369249    22.200237           90           90           90 
  156500     258.1942   -4256.0494   -3813.5134   -4256.0494            0    1153.4831    18.078684    23.315266    22.168909            0            0            0    9344.4023    266.66359    1207.9805    1985.8053  -0.10038516    3.9728696   -165.57042    18.078684    23.315266    22.168909           90           90           90 
  157000     256.4963   -4255.7222   -3816.0963   -4255.7222            0    2429.4422    17.978726     23.60313    21.829814            0            0            0    9263.5733    2571.5456    987.62291     3729.158    141.32042   -96.382702   -480.71461    17.978726     23.60313    21.829814           90           90           90 
  157500    249.55187   -4262.7846   -3835.0613   -4262.7846            0    3194.1368    17.987685    23.341869    22.058888            0            0            0    9261.7814    2649.4314    5097.0042    1835.9747    50.041842   -484.95801    468.77385    17.987685    23.341869    22.058888           90           90           90 
  158000    261.21657   -4259.6963     -3811.98   -4259.6963            0     2481.688    18.100492    23.214519    22.202418            0            0            0    9329.3276    2981.7466    3601.0458    862.27158    919.65187   -15.038145   -170.09973    18.100492    23.214519    22.202418           90           90           90 
  158500    262.23233    -4257.034   -3807.5768    -4257.034            0    2222.9844    18.076205    23.720712    21.799744            0            0            0    9347.3037    2132.4729     613.6798    3922.8006   -352.52135    160.67624     162.8108    18.076205    23.720712    21.799744           90           90           90 
  159000    258.19052   -4260.5249   -3817.9951   -4260.5249            0     2264.427    17.891093     23.58019     22.19659            0            0            0    9364.1948    2626.4966    1784.5586    2382.2258    287.99214   -1445.4201    360.71474    17.891093     23.58019     22.19659           90           90           90 
  159500    261.28729   -4228.7978   -3780.9603   -4228.7978            0    2108.9927    18.091843    23.123141    22.248555            0            0            0    9307.4659    3758.3803    2827.4742    -258.8763   -1332.7082    225.51043    910.91353    18.091843    23.123141    22.248555           90           90           90 
  160000     266.8216   -4225.3838   -3768.0607   -4225.3838            0    2216.6004    18.170447     23.47516    21.898392            0            0            0    9340.8499    2502.8128    1449.3706    2697.6178   -125.38624   -894.27145    167.57774    18.170447     23.47516    21.898392           90           90           90 
  160500    255.47819   -4229.4577   -3791.5768   -4229.4577            0    1472.7438    17.937265    23.709169     22.10253            0            0            0    9399.7123    770.76827    393.13467    3254.3283    209.18655   -57.497718    862.20599    17.937265    23.709169     22.10253           90           90           90 
  161000    254.17268   -4262.3245   -3826.6812   -4262.3245            0    2081.5395    18.032985    23.364456    22.234867            0            0            0    9368.2361    1654.7666    3304.3995    1285.4525   -189.03672   -671.11288     752.4898    18.032985    23.364456    22.234867           90           90           90 
  161500    263.88238   -4267.2318   -3814.9464   -4267.2318            0    2372.3234    18.268877    23.387148    21.836848            0            0            0     9329.945    1240.9556    3640.2816    2235.7331    587.60603   -76.956289   -245.63053    18.268877    23.387148    21.836848           90           90           90 
  162000    252.48491   -4241.3473   -3808.5968   -4241.3473            0    1884.2666    17.879681    23.507109    22.187609            0            0            0    9325.4434    3388.4451     1386.987    877.36769   -85.229708    731.55883    582.80227    17.879681    23.507109    22.187609           90           90           90 
  162500    262.60603   -4265.1822   -3815.0845   -4265.1822            0    651.69689    17.971912    23.643044    22.150341            0            0            0    9411.9169    2104.4667     516.9395   -666.31551   -1858.2209    926.64584   -42.316743    17.971912    23.643044    22.150341           90           90           90 
  163000    254.28032   -4218.2131   -3782.3854   -4218.2131            0    1405.5973    18.399839    23.352732    21.834839            0            0            0    9382.1357    304.29673    4096.8378    -184.3426   -1370.3379   -981.57768    210.34034    18.399839    23.352732    21.834839           90           90           90 
  163500    240.91818   -4255.9069   -3842.9814   -4255.9069            0    1825.8125     17.92041     23.30469    22.331328            0            0            0    9326.2235    1356.9162    1934.8214    2185.6999   -415.91337    -490.8878    675.77359     17.92041     23.30469    22.331328           90           90           90 
  164000     254.4392   -4231.6521    -3795.552   -4231.6521            0     616.6963    17.959134     23.63321    22.106062            0            0            0    9382.5196   -111.10651    144.22597    1816.9694   -15.710858    189.04367   -66.135985    17.959134     23.63321    22.106062           90           90           90 
  164500    253.86584   -4232.5114    -3797.394   -4232.5114            0    1784.0612    18.187313     23.55741    21.887521            0            0            0    9377.6209    1590.4207    1030.3483    2731.4144    210.54382    1015.3607    202.54492    18.187313     23.55741    21.887521           90           90           90 
  165000    258.49123   -4246.8293   -3803.7841   -4246.8293            0    2476.3085     18.09301    23.252544    22.160937            0            0            0    9323.2943    1154.5144    3118.9136    3155.4974   -613.09491    527.23742    1223.1921     18.09301    23.252544    22.160937           90           90           90 
  165500    259.14067   -4247.9137   -3803.7554   -4247.9137            0    2692.9444    17.950688    23.488576    22.028935            0            0            0     9288.194    3524.8604    2199.0206    2354.9521    263.95691    169.89681     408.7472    17.950688    23.488576    22.028935           90           90           90 
  166000    260.72058   -4226.8395   -3779.9734   -4226.8395            0    1802.5948    18.111251    23.573026    21.901344            0            0            0    9350.4942    996.45388    2491.7301    1919.6005   -502.51697   -933.47802    395.79486    18.111251    23.573026    21.901344           90           90           90 
  166500    249.60464   -4252.5045   -3824.6907   -4252.5045            0     1799.294    18.157074    23.166711     22.16255            0            0            0    9322.4478    2472.8845     965.6527     1959.345    553.83695    -367.2933    827.62728    18.157074    23.166711     22.16255           90           90           90 
  167000    259.51112    -4275.194   -3830.4008    -4275.194            0    1434.1275    17.972837    23.488405     22.12028            0            0            0    9338.1489    582.84605    1775.3705    1944.1661    -359.5919   -307.98237   -12.890908    17.972837    23.488405     22.12028           90           90           90 
  167500    250.00989   -4243.5345    -3815.026   -4243.5345            0    3086.8851    17.782651    23.885019     21.76784            0            0            0    9245.6493    2297.3055    2429.8574    4533.4924    1401.9563   -112.68067    559.42866    17.782651    23.885019     21.76784           90           90           90 
  168000    273.82192   -4242.8291   -3773.5077   -4242.8291            0    2998.7682    18.257041    23.074456    22.118221            0            0            0    9317.7718    2880.5114    3419.9449    2695.8483    751.12058    262.83681    296.58154    18.257041    23.074456    22.118221           90           90           90 
  168500    253.58817   -4221.5847   -3786.9432   -4221.5847            0    2438.9314    18.228497    23.211365    22.084174            0            0            0    9343.9971    1833.6507    2924.4714    2558.6721    450.03817    -846.9497    742.53439    18.228497    23.211365    22.084174           90           90           90 
  169000    249.57713   -4195.6945   -3767.9279   -4195.6945            0    3012.5591    17.899655    23.706145    21.892358            0            0            0    9289.6241    3318.6699    3003.4425    2715.5649   -46.586792    344.46895   -211.44847    17.899655    23.706145    21.892358           90           90           90 
  169500    256.89885   -4246.2197   -3805.9038   -4246.2197            0     1794.145    18.020471    23.457727    22.074056            0            0            0    9331.1292    2311.5378     2096.177    974.72019     925.4957    253.62155   -214.90292    18.020471    23.457727    22.074056           90           90           90 
  170000    266.35725   -4221.4463   -3764.9191   -4221.4463            0    2036.7698    18.203657    23.145975    22.156676            0            0            0    9335.5244    2059.7662    2282.8097    1767.7333   -566.66506   -30.585144    210.39275    18.203657    23.145975    22.156676           90           90           90 
  170500    245.14498    -4264.835   -3844.6649    -4264.835            0    2154.7875    18.073484    23.646256     21.85892            0            0            0    9341.8516    1571.2225    893.19604    3999.9441   -107.16148   -507.37971   -633.25437    18.073484    23.646256     21.85892           90           90           90 
  171000    259.67352   -4250.3482   -3805.2766   -4250.3482            0     1004.177    17.764454    23.713434    22.255301            0            0            0    9375.1838    963.30117    21.789779      2027.44   -753.65397   -6.1000196   -467.74312    17.764454    23.713434    22.255301           90           90           90 
  171500    252.16041   -4242.4099   -3810.2156   -4242.4099            0    1780.8087    18.231866    23.180606    22.140118            0            0            0    9356.9831    2078.1202    1980.4236    1283.8824   -54.144014   0.89964099     215.3393    18.231866    23.180606    22.140118           90           90           90 
  172000    250.92749   -4227.6565   -3797.5753   -4227.6565            0      1386.06    18.331122     23.25554     21.86354            0            0            0    9320.4304   -222.64451    1469.3267    2911.4978    204.04492   -555.80706   -175.16375    18.331122     23.25554     21.86354           90           90           90 
  172500    275.31936    -4248.081    -3776.193    -4248.081            0    2508.8779    17.852535    23.609203    22.134482            0            0            0    9329.3327    4109.0273    907.52198    2510.0844    -1216.071    282.43139   -264.95109    17.852535    23.609203    22.134482           90           90           90 
  173000    255.23266   -4255.0456   -3817.5856   -4255.0456            0    1484.0582    18.018254    23.536094    22.065496            0            0            0    9357.5206    1553.1729    2290.1922    608.80958    100.93054    47.581525    677.23685    18.018254    23.536094    22.065496           90           90           90 
  173500    246.74127   -4209.5407   -3786.6346   -4209.5407            0     2074.134     18.30025    23.265664    21.940518            0            0            0    9341.5587    1205.1315    4075.2311    942.03949    403.64737   -326.86348    147.27958     18.30025    23.265664    21.940518           90           90           90 
  174000     254.7811   -4245.2051    -3808.519   -4245.2051            0    860.50224    17.987038     23.34524    22.188324            0            0            0    9317.1371    694.20299    887.52073    999.78302    1415.4936   -760.48646    736.21426    17.987038     23.34524    22.188324           90           90           90 
  174500    267.17285   -4238.1905   -3780.2654   -4238.1905            0    1543.4346    17.852194    23.787708    22.044357            0            0            0    9361.4183    1787.5745    1375.3747    1467.3545   -1329.1383    72.939089    263.18423    17.852194    23.787708    22.044357           90           90           90 
  175000    272.41779   -4257.6814   -3790.7666   -4257.6814            0    2045.8124    18.156274    23.376128    21.987522            0            0            0    9332.0186    2061.9673    1121.4476    2954.0222   -165.08035   -11.065068   -194.21385    18.156274    23.376128    21.987522           90           90           90 
  175500    254.30594   -4290.7497    -3854.878   -4290.7497            0    1096.4542    18.168648    23.272873    22.152212            0            0            0    9366.7669    1687.0974    1475.6642    126.60105    1947.3239    1042.5813   -87.725096    18.168648    23.272873    22.152212           90           90           90 
  176000    250.99149   -4256.6192   -3826.4283   -4256.6192            0    2679.5301    17.946123    23.521339    21.977911            0            0            0    9277.2461    2713.8787    2461.2301    2863.4817   -213.49725    81.985456   -605.46031    17.946123    23.521339    21.977911           90           90           90 
  176500    262.69228   -4255.5573   -3805.3118   -4255.5573            0    2592.1091    18.002121    23.399597    22.038321            0            0            0    9283.4751    1836.8583    2387.5193    3551.9496    804.76154   -298.08512   -512.12253    18.002121    23.399597    22.038321           90           90           90 
  177000    250.48692   -4206.9542   -3777.6282   -4206.9542            0    2811.3974    17.994108    23.331264    22.087976            0            0            0    9273.0909    2480.7483    3555.8375    2397.6063    574.87508   -558.98469   -21.821825    17.994108    23.331264    22.087976           90           90           90 
  177500    254.53796   -4239.3346   -3803.0653   -4239.3346            0    2892.3412    18.103787    23.413944    21.931013            0            0            0     9296.141    3286.0352     2040.006    3350.9823   -570.03749   -302.91782   -337.20977    18.103787    23.413944    21.931013           90           90           90 
  178000    263.91664   -4241.5409   -3789.1968   -4241.5409            0    1652.7195    17.855561    23.647023    22.188226            0            0            0    9368.5537    1428.9121    1107.6044    2421.6419    613.64753    648.02282    968.82689    17.855561    23.647023    22.188226           90           90           90 
  178500    248.15419   -4255.2411   -3829.9134   -4255.2411            0    2052.1356    17.936891    23.392981    22.158862            0            0            0    9297.7997    2431.0054     2027.591    1697.8104    -410.3326   -555.08408    866.44515    17.936891    23.392981    22.158862           90           90           90 
  179000    249.69126   -4221.6381   -3793.6759   -4221.6381            0    1641.2463    18.399158    23.223188    21.835034            0            0            0    9329.8284    1556.9552    1361.9664    2004.8173    1011.0791   -238.52098     326.6274    18.399158    23.223188    21.835034           90           90           90 
  179500    254.65984    -4243.995   -3807.5168    -4243.995            0    1879.7963    17.934453    23.519647    22.097355            0            0            0    9320.9299    1291.0504    3033.9812    1314.3573     99.11445   -111.57485     51.31839    17.934453    23.519647    22.097355           90           90           90 
  180000    258.52993   -4249.7166   -3806.6051   -4249.7166            0    1222.6186    17.845879    23.694133    22.055762            0            0            0    9326.1167    1508.9679    1804.1447    354.74328    434.26571    594.80757   -329.39366    17.845879    23.694133    22.055762           90           90           90 
  180500    262.57854   -4245.0995   -3795.0488   -4245.0995            0    2145.9792    18.296799    23.257977    21.922467            0            0            0    9329.0297     2121.938    2609.6801    1706.3196   -61.572488   -272.83345    43.873676    18.296799    23.257977    21.922467           90           90           90 
  181000    273.63391   -4264.0465   -3795.0473   -4264.0465            0    1687.6837    18.037257    23.355685    22.143433            0            0            0    9328.4195    3452.1178    691.88451    919.04889   -164.49005   -443.15261   -192.59964    18.037257    23.355685    22.143433           90           90           90 
  181500    249.20093   -4227.8256   -3800.7037   -4227.8256            0    2519.4723    17.853603     23.61426    22.064432            0            0            0    9302.3567    3080.5215     1830.044    2647.8515   -977.27163    314.26831   -539.51205    17.853603     23.61426    22.064432           90           90           90 
  182000    274.83142   -4240.8216   -3769.7699   -4240.8216            0    1586.0799    18.121817    23.448885    21.979765            0            0            0    9340.0023    2051.4189    1489.6923    1217.1284   -29.252072   -838.80615     98.61036    18.121817    23.448885    21.979765           90           90           90 
  182500    255.54168     -4231.47   -3793.4803     -4231.47            0    1490.8757    18.176852    23.257574    22.098444            0            0            0    9342.1056    457.73642    1552.2739    2462.6169    988.87239   -122.93555   -224.06482    18.176852    23.257574    22.098444           90           90           90 
  183000    249.97398   -4244.1679    -3815.721   -4244.1679            0    2561.2145    17.927741    23.514064    22.147907            0            0            0    9336.5398    4043.9946    3111.0714    528.57738    -530.3346    829.16709    190.90065    17.927741    23.514064    22.147907           90           90           90 
  183500    251.95416   -4223.3645   -3791.5237   -4223.3645            0    2879.4487    18.043371     23.57468    21.811796            0            0            0    9278.0116    1685.0607    3541.2133    3412.0721   -76.252493    258.82288    292.44775    18.043371     23.57468    21.811796           90           90           90 
  184000    241.62685   -4228.3902   -3814.2501   -4228.3902            0    1163.9071    18.281431    23.020658    22.213857            0            0            0    9348.7145    1364.1845    1501.6028      625.934    859.76255   -218.02587     403.0324    18.281431    23.020658    22.213857           90           90           90 
  184500    272.59003   -4237.5303   -3770.3204   -4237.5303            0    1704.4906    17.972692    23.505923    22.265455            0            0            0    9406.3688    1939.8326    1981.3549    1192.2843    92.268515   -455.30655    156.51599    17.972692    23.505923    22.265455           90           90           90 
  185000    275.32511   -4254.6175   -3782.7197   -4254.6175            0     942.5155    17.966779    23.886662    21.886388            0            0            0    9392.9016    1063.3472    169.56075    1594.6385    -965.3511    -362.5872   -334.29367    17.966779    23.886662    21.886388           90           90           90 
  185500    262.29491   -4236.8486   -3787.2841   -4236.8486            0    2116.1845    18.127857    23.310517    22.137676            0            0            0    9354.7115    1894.1855    1501.8451    2952.5229   -287.49489   -616.56325   -907.43831    18.127857    23.310517    22.137676           90           90           90 
  186000    265.30616   -4215.5407   -3760.8151   -4215.5407            0    1905.4478     18.05321    23.313263    22.100073            0            0            0    9301.4618    768.64976    1742.6951    3204.9984    1022.6929    396.60612    -214.4894     18.05321    23.313263    22.100073           90           90           90 
  186500     252.7049   -4252.6987   -3819.5711   -4252.6987            0    2954.3213    18.006858    23.452545     21.93583            0            0            0     9263.647     3387.614    2676.0559    2799.2939    92.097374   -378.15432    471.37378    18.006858    23.452545     21.93583           90           90           90 
  187000    241.19925   -4219.6091   -3806.2018   -4219.6091            0    2705.1083    17.953545    23.488498    22.075086            0            0            0    9309.1038    3576.1003    652.20487    3887.0197   -241.46046   -424.65586   -91.605423    17.953545    23.488498    22.075086           90           90           90 
  187500    258.31604   -4240.2742   -3797.5294   -4240.2742            0    763.03061    18.137378    23.483514    22.149065            0            0            0    9433.9376    793.44605    1380.3123    115.33351   -681.01122    93.733908    -20.46384    18.137378    23.483514    22.149065           90           90           90 
  188000    265.95805   -4232.6468   -3776.8038   -4232.6468            0    1438.7644    18.135881    23.643495    21.969845            0            0            0    9420.5732    1589.4965    1610.4293    1116.3673   -413.60425    864.34693    17.947158    18.135881    23.643495    21.969845           90           90           90 
  188500    250.59232   -4220.9548   -3791.4482   -4220.9548            0    1554.3661     18.01308    23.466036    22.123769            0            0            0    9351.6194    1783.3307    789.33017    2090.4375   -46.288547    241.61653    395.58591     18.01308    23.466036    22.123769           90           90           90 
  189000    249.28521   -4251.8235   -3824.5572   -4251.8235            0    1879.5173    18.163845    23.146982    22.136858            0            0            0    9307.1807    85.819099    3805.8223    1746.9105    1561.4341   -107.29174     125.1187    18.163845    23.146982    22.136858           90           90           90 
  189500    266.64317   -4267.7016   -3810.6844   -4267.7016            0    1486.6312    18.285339    23.489368    21.749213            0            0            0    9341.5275   -311.89816    780.38691    3991.4048   -350.23736   -132.04813     568.6073    18.285339    23.489368    21.749213           90           90           90 
  190000    272.28026   -4223.6359   -3756.9569   -4223.6359            0    975.62497    17.819975    23.796024    22.220564            0            0            0    9422.5091    899.30132    122.04861     1905.525   -398.70583   -238.97745    355.86597    17.819975    23.796024    22.220564           90           90           90 
  190500    263.72036   -4222.8457    -3770.838   -4222.8457            0    1768.8692    18.059545    23.371836    22.291198            0            0            0    9408.7746    1170.4762    3528.4882    607.64323    624.70692    414.00768    1266.6531    18.059545    23.371836    22.291198           90           90           90 
  191000    268.98869   -4242.7032   -3781.6658   -4242.7032            0    2092.9768    18.260013    23.376181    21.891183            0            0            0    9344.2376    1537.0372    1790.7387    2951.1544   -497.41353   -147.02052   -83.319189    18.260013    23.376181    21.891183           90           90           90 
  191500     259.5986   -4250.3175   -3805.3744   -4250.3175            0    1512.0821    17.946361    23.575484     22.07053            0            0            0    9337.9121    3419.7771    498.21031    618.25896   -223.71592    62.717887   -638.15897    17.946361    23.575484     22.07053           90           90           90 
  192000    248.95531   -4217.8013   -3791.1004   -4217.8013            0    1065.5165    18.062757     23.44336    22.257055            0            0            0    9424.7881    1502.3336    1289.8334    404.38233   -1394.3327    40.766065   -575.98022    18.062757     23.44336    22.257055           90           90           90 
  192500    267.54109   -4213.9613   -3755.4051   -4213.9613            0     188.3275    18.247498    23.627504    22.004924            0            0            0    9487.2656   -347.17646    230.16023    681.99875   -111.71116    211.90562    -600.1544    18.247498    23.627504    22.004924           90           90           90 
  193000    256.84178   -4219.2561   -3779.0381   -4219.2561            0    1699.4741     18.05637    23.501116    22.162206            0            0            0    9404.4181    2294.2214    2656.2698    147.93114    777.97465    410.28595    404.13008     18.05637    23.501116    22.162206           90           90           90 
  193500    265.00305   -4252.3256   -3798.1195   -4252.3256            0    2471.8137    17.972062    23.345266    22.101711            0            0            0    9273.0508    2626.4715     1894.686    2894.2837    377.24931    -320.2641   -711.07066    17.972062    23.345266    22.101711           90           90           90 
  194000    268.74107   -4248.3231   -3787.7101   -4248.3231            0    4134.0751    18.074238    23.408511    21.790398            0            0            0    9219.3215    4958.8274    3106.4875    4336.9105   -214.18399   -886.65692    -293.8143    18.074238    23.408511    21.790398           90           90           90 
  194500    256.84626   -4223.4384   -3783.2127   -4223.4384            0    4359.0664    17.947232    23.422767    21.966125            0            0            0     9233.984    3751.8473    4201.0888    5124.2631    864.65426   -84.694703   -399.24822    17.947232    23.422767    21.966125           90           90           90 
  195000    257.65799   -4240.6406   -3799.0236   -4240.6406            0    2976.9133     17.94028    23.413442    22.106891            0            0            0    9285.8603    3565.0625    3111.4391    2254.2382    156.37816   -556.08288   -716.51491     17.94028    23.413442    22.106891           90           90           90 
  195500    265.24085   -4228.3173   -3773.7036   -4228.3173            0    1411.9899    18.133084    23.476939     21.96383            0            0            0    9350.2067    1472.0743    1815.3829    948.51246   -126.57016   -29.589508   -419.45485    18.133084    23.476939     21.96383           90           90           90 
  196000    262.79007   -4237.0775   -3786.6643   -4237.0775            0    2771.0154    18.049931    23.383946    22.092045            0            0            0      9324.58    1285.5911    3298.6753    3728.7799    531.46892   -192.16689    322.74769    18.049931    23.383946    22.092045           90           90           90 
  196500    272.52442    -4241.513   -3774.4155    -4241.513            0    2972.1632    17.891152    23.352199    22.229743            0            0            0    9287.5361    3770.6492    3161.9298    1983.9105   -485.61923   -349.75002    536.46322    17.891152    23.352199    22.229743           90           90           90 
  197000    256.61196    -4233.399   -3793.5749    -4233.399            0    2952.0372    18.134112    23.481933    21.776661            0            0            0    9273.0252    2772.9939    1396.5817    4686.5361    608.70783   -87.014386    274.53327    18.134112    23.481933    21.776661           90           90           90 
  197500    260.70039   -4242.5995   -3795.7679   -4242.5995            0    1913.5954    18.133555    23.387667    22.023873            0            0            0    9340.3588    384.70276    4304.1805    1051.9028   -95.927987    351.27711    54.212895    18.133555    23.387667    22.023873           90           90           90 
  198000    260.62092   -4228.0206   -3781.3253   -4228.0206            0    1188.9041    17.791461    23.434609    22.455066            0            0            0    9362.3238    3405.0377    794.57078   -632.89616   -201.26896   -51.660739    312.60557    17.791461    23.434609    22.455066           90           90           90 
  198500    264.00096   -4244.6284   -3792.1398   -4244.6284            0      2995.45    18.117453    23.661581    21.807994            0            0            0    9348.8163     3515.106         2740     2731.244   -188.33055   -494.41394   -1026.1276    18.117453    23.661581    21.807994           90           90           90 
  199000    271.74843   -4233.1826    -3767.415   -4233.1826            0    2891.5159    18.222423    23.289999    21.920907            0            0            0    9303.2373    2023.9285    4622.7733    2027.8458    -287.2821   -869.83137    485.51935    18.222423    23.289999    21.920907           90           90           90 
  199500    258.28846   -4216.9275   -3774.2299   -4216.9275            0    2943.1356    17.870376    23.296814    22.252599            0            0            0    9264.2645    2881.3459    2677.8003    3270.2605    -818.8447   -17.962337    3.4381847    17.870376    23.296814    22.252599           90           90           90 
  200000    260.17652   -4230.7011   -3784.7675   -4230.7011            0    2404.5289    17.999925    23.495686    21.976437            0            0            0    9294.2879    1865.9572    2722.2913    2625.3381   -341.81102   -338.23096    694.96695    17.999925    23.495686    21.976437           90           90           90 
  200500    251.04128   -4255.1605   -3824.8843   -4255.1605            0    1793.3393     18.06641    23.533462    21.918544            0            0            0    9319.0012    1551.4106    903.03326     2925.574   -144.87536   -660.02923    749.48542     18.06641    23.533462    21.918544           90           90           90 
  201000    268.12451   -4261.9626   -3802.4063   -4261.9626            0    1014.9802    18.053427    23.409487    22.175633            0            0            0    9371.8982    538.49147    2310.1251    196.32386    180.92986   -436.85123   -1021.0381    18.053427    23.409487    22.175633           90           90           90 
  201500    262.14257   -4235.3557   -3786.0523   -4235.3557            0    3573.4482    18.118574    23.372781    21.899379            0            0            0    9273.9813     2919.497    3283.4262    4517.4213   -519.87006   -994.07486    1050.0899    18.118574    23.372781    21.899379           90           90           90 
  202000    260.47452   -4214.4677   -3768.0233   -4214.4677            0    2835.1958    17.944847    23.460853    21.925593            0            0            0    9230.7057    3722.6072    2461.4553    2321.5251   -414.98077   -177.17479   -668.47953    17.944847    23.460853    21.925593           90           90           90 
  202500    261.91677   -4242.6634   -3793.7471   -4242.6634            0    2021.3796    17.959955    23.314677    22.211511            0            0            0    9300.6381    2463.0471    2510.9395    1090.1522    1479.7488    180.62166    570.84634    17.959955    23.314677    22.211511           90           90           90 
  203000    242.03337   -4249.7958   -3834.9588   -4249.7958            0       2329.2    18.120454    23.551096    21.883763            0            0            0     9339.039    2820.0226     1186.433    2981.1445   -1445.8312    171.90112   -582.03211    18.120454    23.551096    21.883763           90           90           90 
  203500    253.97476   -4223.5757   -3788.2717   -4223.5757            0    856.38942    18.057135    23.539356    22.126157            0            0            0    9404.7966     620.3034    455.23626    1493.6286    618.16258   -236.27163   -85.058732    18.057135    23.539356    22.126157           90           90           90 
  204000    260.08407   -4253.9562    -3808.181   -4253.9562            0    1882.2905    17.953035    23.489802    22.088555            0            0            0    9315.0356    2142.7584     2558.738    945.37518    69.767411    763.31097    96.265464    17.953035    23.489802    22.088555           90           90           90 
  204500    256.52075   -4258.4117   -3818.7439   -4258.4117            0    2664.4909    18.138634     23.40635    21.953246            0            0            0    9320.4526    3052.7529    1364.2085    3576.5113    1634.1966   -643.38698    794.94189    18.138634     23.40635    21.953246           90           90           90 
  205000    251.14975   -4258.8583   -3828.3962   -4258.8583            0    1301.8513    18.080338    23.426229    22.196626            0            0            0    9401.4726    1805.1613   -299.54664    2399.9394   -558.00681   -121.26803     574.8136    18.080338    23.426229    22.196626           90           90           90 
  205500    271.31678   -4232.6547    -3767.627   -4232.6547            0    1999.4658    17.908782     23.57316    22.028047            0            0            0    9299.5055     2274.799    2516.4273    1207.1711   -1232.4037   -767.13056    649.57385    17.908782     23.57316    22.028047           90           90           90 
  206000    262.75051   -4262.7588   -3812.4134   -4262.7588            0    3578.6182    18.101057    23.390867    21.761888            0            0            0    9213.9708    2895.5384    4036.0626    3804.2538    50.530959    104.08776    663.55649    18.101057    23.390867    21.761888           90           90           90 
  206500    260.62195   -4234.5333   -3787.8362   -4234.5333            0    2751.2172    18.061922    23.164659    22.176411            0            0            0    9278.5718    2337.9804    2593.0531    3322.6182    324.81383   -908.83128   -870.06907    18.061922    23.164659    22.176411           90           90           90 
  207000     252.8232     -4228.02   -3794.6897     -4228.02            0    1542.8258     17.96173    23.603935    22.071754            0            0            0    9357.7068    547.67067    1808.9876     2271.819   -1322.2992   -495.82752   -276.69228     17.96173    23.603935    22.071754           90           90           90 
  207500    267.11642   -4262.0763   -3804.2479   -4262.0763            0      280.747    18.058918    23.692613    21.948524            0            0            0    9390.9604   -61.610224   -35.360305    939.21153    138.97924   -735.31115    692.52099    18.058918    23.692613    21.948524           90           90           90 
  208000    272.15196   -4247.1363   -3780.6771   -4247.1363            0    3802.9953    18.154678    23.167984    22.099182            0            0            0     9295.077    3544.0194    4979.4075    2885.5589   -1320.5927   -514.27229    214.38833    18.154678    23.167984    22.099182           90           90           90 
  208500    245.41658   -4232.3341   -3811.6985   -4232.3341            0    3493.1443    17.930304    23.315725      22.0687            0            0            0    9225.9974    3399.2221     2043.986    5036.2246   -142.49748    954.29696   -412.93842    17.930304    23.315725      22.0687           90           90           90 
  209000    258.34323   -4254.3876   -3811.5961   -4254.3876            0    3394.7561    17.997925     23.56248    21.835914            0            0            0    9260.0814    3674.3417    3506.9714    3002.9552    1189.2334    395.65645     183.3975    17.997925     23.56248    21.835914           90           90           90 
  209500    264.89048   -4250.7479   -3796.7347   -4250.7479            0    1802.3274    18.042711    23.411247    22.107068            0            0            0     9338.078    2563.6176    2181.8838    661.48078   -332.99794    391.39214    143.08409    18.042711    23.411247    22.107068           90           90           90 
  210000    269.40659   -4237.6814   -3775.9277   -4237.6814            0    1924.1545     18.13081    23.377112    22.133599            0            0            0    9381.2369    2621.9432    1338.9303    1811.5899   -293.08249   -545.96813    1407.2733     18.13081    23.377112    22.133599           90           90           90 
  210500    274.01277   -4240.8062   -3771.1577   -4240.8062            0    1615.4395    18.124737    23.557667    21.880079            0            0            0    9342.2796    729.23821    1758.3974    2358.6827    124.69651    174.43815   -567.84786    18.124737    23.557667    21.880079           90           90           90 
  211000    256.58311   -4254.4528   -3814.6781   -4254.4528            0    2296.0369    17.869518    23.490301    22.156982            0            0            0    9300.6228    2653.5575    677.73811    3556.8151    168.11368     44.42263   -81.236997    17.869518    23.490301    22.156982           90           90           90 
  211500     255.2224   -4237.4096   -3799.9671   -4237.4096            0    2264.0335    18.028666    23.384702    21.994551            0            0            0    9272.7926    2017.1784    2477.5323    2297.3896   -923.04574      925.242    610.32121    18.028666    23.384702    21.994551           90           90           90 
  212000    261.34601   -4249.1359   -3801.1978   -4249.1359            0    2778.9758    18.239753    23.274889    21.874536            0            0            0     9286.358     1782.713    2938.3144    3615.9001    470.48661   -566.19678   -686.01879    18.239753    23.274889    21.874536           90           90           90 
  212500    267.95282   -4216.5897   -3757.3277   -4216.5897            0    1939.1628    17.842239    23.519264    22.143596            0            0            0    9292.2574    3057.3787     1229.259    1530.8508    -782.0994    245.14506    -300.8608    17.842239    23.519264    22.143596           90           90           90 
  213000    271.83719   -4241.1909   -3775.2713   -4241.1909            0    1671.6445    17.905904    23.654834    22.045097            0            0            0    9337.4472     2507.881    846.43594    1660.6166    472.45294    280.51556    326.98763    17.905904    23.654834    22.045097           90           90           90 
  213500    250.84704   -4237.9172    -3807.974   -4237.9172            0    1299.0176    18.369433    23.318646    21.903011            0            0            0    9382.1619    872.02509    1971.7759    1053.2518    203.96944    488.61662    864.97262    18.369433    23.318646    21.903011           90           90           90 
  214000    251.04041   -4230.6441   -3800.3695   -4230.6441            0    1915.3671    18.053816    23.315841    22.286213            0            0            0    9381.1563    2734.1649    3011.3916   0.54474233   -4.9288749    329.21255     -815.583    18.053816    23.315841    22.286213           90           90           90 
  214500    262.33938    -4259.619   -3809.9782    -4259.619            0    1833.4589    17.846238    23.721702    22.114079            0            0            0    9361.8439    3780.4366    1425.8103    294.12989   -674.16771    290.36074    394.90522    17.846238    23.721702    22.114079           90           90           90 
  215000    247.05763   -4289.1517   -3865.7034   -4289.1517            0    2137.3694    18.157198    23.456226    21.821958            0            0            0    9293.9575    1490.4362    2568.4768    2353.1951    515.22847    77.220255   -755.11722    18.157198    23.456226    21.821958           90           90           90 
  215500    251.37042   -4221.6739   -3790.8336   -4221.6739            0    2258.9172    18.124874    23.270834    22.139764            0            0            0    9338.1302    1055.0758      2804.14    2917.5356   -211.37033    885.26256   -953.60379    18.124874    23.270834    22.139764           90           90           90 
  216000    260.09195   -4256.3712   -3810.5825   -4256.3712            0    2085.5036    18.004364    23.625388    21.995475            0            0            0    9355.9971     1258.686    2182.6208     2815.204   -425.51435   -104.79707    889.65766    18.004364    23.625388    21.995475           90           90           90 
  216500    260.77195   -4244.8071   -3797.8529   -4244.8071            0    1011.8969    18.124393     23.56019    21.929591            0            0            0    9364.2457    1105.0543    232.78396    1697.8523   -544.27358   -732.25118   -1141.8196    18.124393     23.56019    21.929591           90           90           90 
  217000    254.17176   -4252.9799   -3817.3382   -4252.9799            0    891.90457    18.226145    23.058773    22.402861            0            0            0    9415.3076    553.83466    2110.2249     11.65415   -34.930736   -947.92491   -284.66546    18.226145    23.058773    22.402861           90           90           90 
  217500    265.15263   -4228.9311   -3774.4686   -4228.9311            0    885.60022    17.997238    23.720909    22.068591            0            0            0    9421.3208     1662.974   -767.40234     1761.229    621.09406    488.71582    -286.2765    17.997238    23.720909    22.068591           90           90           90 
  218000    253.10519   -4216.5782   -3782.7646   -4216.5782            0    3031.0985    17.951802    23.791609     21.73431            0            0            0    9282.7728     3760.574    1799.1822    3533.5392   -1312.3116   -42.622064   -130.82314    17.951802    23.791609     21.73431           90           90           90 
  218500    271.36235   -4249.7003   -3784.5946   -4249.7003            0    2949.7277    18.078797    23.170167    22.101787            0            0            0    9258.1901    3284.1208    4171.1377    1393.9245    397.12209   -724.84347    208.10541    18.078797    23.170167    22.101787           90           90           90 
  219000    259.30888   -4217.9986   -3773.5521   -4217.9986            0    1702.4831    18.080609     23.40914    22.071856            0            0            0    9341.9461     1836.185    2379.4188    891.84549   -100.30498   -1484.9987   -299.14855    18.080609     23.40914    22.071856           90           90           90 
  219500    269.66389   -4228.1867    -3765.992   -4228.1867            0    972.79856    18.018589    23.660786    21.986034            0            0            0    9373.3937    963.14032    1238.6159    716.63944   -112.74335    230.59129   -360.74129    18.018589    23.660786    21.986034           90           90           90 
  220000    252.54742   -4260.3121   -3827.4544   -4260.3121            0    977.05492    18.122165    23.315544    22.126812            0            0            0    9349.2003    391.14749    1189.8302    1350.1871   -918.45124    115.91939   -1542.5194    18.122165    23.315544    22.126812           90           90           90 
  220500    255.60522   -4268.0512   -3829.9526   -4268.0512            0    2331.7717     18.10312     23.34569    21.952285            0            0            0    9277.6902    2628.8516    2053.0312    2313.4324   -275.14214    1073.3243      35.7841     18.10312     23.34569    21.952285           90           90           90 
  221000    258.62144   -4244.8441   -3801.5759   -4244.8441            0    1969.5115    17.841332    23.692051    22.016916            0            0            0    9306.5008    2806.9406   -105.39281    3206.9868    756.23123   -674.42187   -305.25847    17.841332    23.692051    22.016916           90           90           90 
  221500    238.18788   -4268.5693   -3860.3234   -4268.5693            0     1370.486    18.149287    23.303159    22.050344            0            0            0    9325.8778    1263.0625    2740.2213    108.17425   -337.05805    -344.4999   -232.19454    18.149287    23.303159    22.050344           90           90           90 
  222000    257.05624   -4256.6298   -3816.0442   -4256.6298            0    2147.4335    18.214386    23.203063    22.063734            0            0            0    9324.7862    3026.3908    2398.7693    1017.1403   -259.36882    411.24218    1703.2812    18.214386    23.203063    22.063734           90           90           90 
  222500    255.05766   -4223.1174   -3785.9573   -4223.1174            0    3835.4256    17.778724    23.707102    22.054573            0            0            0    9295.6059    3058.8355    3421.9937    5025.4476   -120.75157    146.83889    29.969898    17.778724    23.707102    22.054573           90           90           90 
  223000    252.54561   -4243.6898   -3810.8353   -4243.6898            0    3336.8499    17.863976    23.492653    21.966815            0            0            0    9218.8611    4692.3389    3412.7814    1905.4294    94.030621   -407.15506   -603.97175    17.863976    23.492653    21.966815           90           90           90 
  223500    261.34282   -4227.6037    -3779.671   -4227.6037            0    1818.0593     18.18501    23.245414    22.041306            0            0            0    9317.2587    1125.4681    2073.8928    2254.8171   -209.96593   -126.89949   -231.59078     18.18501    23.245414    22.041306           90           90           90 
  224000    259.15056   -4218.9137   -3774.7385   -4218.9137            0    2565.7362    17.948811    23.442939    22.059985            0            0            0    9282.2433    3169.4412    2049.7304     2478.037   -451.63356    -490.1418    148.12443    17.948811    23.442939    22.059985           90           90           90 
  224500    260.78005   -4251.9722   -3805.0041   -4251.9722            0    3203.2223    17.927785     23.50979    21.957097            0            0            0    9254.4437    2607.4481    4877.6028    2124.6159    247.15483   -384.18793   -256.43644    17.927785     23.50979    21.957097           90           90           90 
  225000    259.35327   -4254.9826     -3810.46   -4254.9826            0    2695.4017    18.089745    23.313669    22.042106            0            0            0    9296.0011    2696.2547    3286.1125    2103.8378   -251.35889   -118.80393   -1077.4769    18.089745    23.313669    22.042106           90           90           90 
  225500    280.30552   -4231.3407   -3750.9066   -4231.3407            0    1137.1591    18.117799    23.511471    22.133279            0            0            0    9428.2482    2592.8858   -221.17752    1039.7689   -535.84379     441.9037    620.35433    18.117799    23.511471    22.133279           90           90           90 
  226000    252.52328   -4224.8686   -3792.0523   -4224.8686            0     504.3497    18.088259    23.591535    22.175344            0            0            0    9462.8798    1719.0665   -321.65635    115.63898    -535.1001    827.13323    729.20784    18.088259    23.591535    22.175344           90           90           90 
  226500    261.17959   -4241.4617   -3793.8088   -4241.4617            0    3132.8463    18.038396    23.409392    22.039153            0            0            0    9306.4266     2316.269    4269.4188     2812.851    299.69883   -480.36373   -246.16518    18.038396    23.409392    22.039153           90           90           90 
  227000    282.46204    -4215.326   -3731.1957    -4215.326            0    2622.7878    18.045814    23.392524     22.06728            0            0            0    9315.4183    2564.8364    3152.1664    2151.3607    -119.6084   -382.90476    330.48653    18.045814    23.392524     22.06728           90           90           90 
  227500    268.62966   -4258.8693   -3798.4472   -4258.8693            0     1309.841    18.101449    23.507027    22.065609            0            0            0    9389.1647    1064.7611    421.14048    2443.6213    71.723559   -1280.4324    703.89914    18.101449    23.507027    22.065609           90           90           90 
  228000     274.1111   -4241.2826   -3771.4655   -4241.2826            0    1940.4076    18.060411    23.407207    22.178113            0            0            0    9375.6592    985.69808    3262.0694    1573.4551    452.89474    1073.3084      369.921    18.060411    23.407207    22.178113           90           90           90 
  228500    283.08556   -4255.8526   -3770.6536   -4255.8526            0    2560.7035    18.011884    23.449886    21.999488            0            0            0    9292.0694    2931.4292    2618.1717    2132.5097   -739.96109    592.03907   -82.831441    18.011884    23.449886    21.999488           90           90           90 
  229000    262.22285   -4228.1435   -3778.7025   -4228.1435            0    3207.2446    17.930392    23.578639     21.86676            0            0            0    9244.7028    3595.0938    1588.3019    4438.3382   -156.46542   -410.44927    925.46827    17.930392    23.578639     21.86676           90           90           90 
  229500    256.34858   -4238.1594   -3798.7867   -4238.1594            0    3383.7607     17.96137     23.17374    22.205433            0            0            0    9242.6146    4994.1802    2862.4528    2294.6492   -1550.9257   -300.13382   -395.86928     17.96137     23.17374    22.205433           90           90           90 
  230000    263.32814   -4213.2012   -3761.8658   -4213.2012            0    2491.3653    18.146686    23.375626     21.91701            0            0            0    9296.9797    2974.9817    1700.5318    2798.5825   -998.75364    53.894943    16.524152    18.146686    23.375626     21.91701           90           90           90 
  230500    274.83827   -4249.2726   -3778.2092   -4249.2726            0    3123.5782    17.961158    23.562514    21.913268            0            0            0     9273.915    3019.5674    3370.1032     2981.064    1307.2146    101.48683    154.73939    17.961158    23.562514    21.913268           90           90           90 
  231000    271.20511   -4241.4873    -3776.651   -4241.4873            0    2099.4096    17.930891    23.255219    22.269781            0            0            0    9286.2044     2091.575    2438.4148    1768.2389   -800.27211    358.28816    -359.5633    17.930891    23.255219    22.269781           90           90           90 
  231500    265.64115   -4230.8162   -3775.5164   -4230.8162            0    2474.8802    18.149839    23.433818    21.769407            0            0            0    9258.9646    1570.9732    3370.6396    2483.0278   -33.623848   -743.29332    586.10788    18.149839    23.433818    21.769407           90           90           90 
  232000    256.98027   -4234.3521   -3793.8967   -4234.3521            0    3506.5774    17.967703    23.384364    21.994711            0            0            0    9241.3707    3089.7045     4316.072    3113.9558    43.202127   -420.48167    42.637482    17.967703    23.384364    21.994711           90           90           90 
  232500     264.8324   -4254.0691   -3800.1554   -4254.0691            0     2791.076     17.73378    23.234263    22.385708            0            0            0    9223.6122    3963.8354    2808.3839    1601.0087   -580.52041   -1070.3761   -299.84017     17.73378    23.234263    22.385708           90           90           90 
  233000    266.63183   -4251.7873   -3794.7895   -4251.7873            0     1372.921    18.218892    23.590647    21.791781            0            0            0    9366.0083    170.14735    979.54711    2969.0685     651.5155    283.54977   -148.12938    18.218892    23.590647    21.791781           90           90           90 
  233500    267.45446    -4265.422   -3807.0143    -4265.422            0    2675.8012    18.050695    23.421686    22.029422            0            0            0    9313.5484    2833.8948    2705.7073    2487.8013   -1021.6197   -267.11709   -6.2959027    18.050695    23.421686    22.029422           90           90           90 
  234000    260.73433   -4217.3137    -3770.424   -4217.3137            0    2341.2934    17.920445     23.25647    22.254452            0            0            0    9274.9054    1750.3126     3955.212    1318.3557    978.88159   -247.14417   -282.47739    17.920445     23.25647    22.254452           90           90           90 
  234500    267.43305   -4241.9537   -3783.5826   -4241.9537            0    2898.4416    18.088687    23.428143      21.8713            0            0            0    9268.7147    2854.9223    4028.2862    1812.1164    750.36114    502.94712    220.95082    18.088687    23.428143      21.8713           90           90           90 
  235000    248.00028   -4244.9018   -3819.8378   -4244.9018            0    668.84198    18.154916    23.616618    21.912011            0            0            0    9394.9439   -389.75993    2612.5567   -216.27081    156.36609    194.16954   -517.77259    18.154916    23.616618    21.912011           90           90           90 
  235500    254.55811   -4273.5511   -3837.2472   -4273.5511            0    1029.4693    18.030081    23.240912    22.422542            0            0            0    9395.8419    1818.4281    1293.3975   -23.417653   -1392.3345    730.25426     -695.413    18.030081    23.240912    22.422542           90           90           90 
  236000    260.40397   -4241.3008   -3794.9773   -4241.3008            0    1237.1643    18.093178    23.700059     21.88204            0            0            0    9383.2238     1944.206   -72.380061    1839.6668    174.05906   -564.98754     109.2125    18.093178    23.700059     21.88204           90           90           90 
  236500    247.62113   -4241.0534   -3816.6393   -4241.0534            0     2307.961    18.016571    23.549881    21.873088            0            0            0    9280.4905    2948.7062    1678.5724    2296.6044   -973.13988    -134.4434    473.64997    18.016571    23.549881    21.873088           90           90           90 
  237000    267.48227   -4252.0651   -3793.6096   -4252.0651            0    2483.3193    18.075244    23.163992    22.224874            0            0            0     9305.439    2609.2845    2760.2564    2080.4171   -248.46117    172.70501   -18.918035    18.075244    23.163992    22.224874           90           90           90 
  237500     254.7852   -4267.3708   -3830.6777   -4267.3708            0    1673.1116     18.09426    23.426889    21.952578            0            0            0    9305.5272    1237.2138    1678.1296    2103.9914    52.718722   -808.32719   -50.482565     18.09426    23.426889    21.952578           90           90           90 
  238000    257.73878    -4232.096   -3790.3406    -4232.096            0    1930.7375    17.989758    23.632576    21.993666            0            0            0    9350.4824    2776.7916    870.55355    2144.8674   -463.89464    297.19994    155.83747    17.989758    23.632576    21.993666           90           90           90 
  238500    268.03515   -4258.7742   -3799.3711   -4258.7742            0    2183.8476    17.961505    23.282633    22.265153            0            0            0    9311.0893    2869.1494    1575.9609    2106.4326   -308.30238    118.63628     217.1522    17.961505    23.282633    22.265153           90           90           90 
  239000    255.16899   -4247.7989    -3810.448   -4247.7989            0    1468.5031    18.399987    23.301289    21.790758            0            0            0     9342.644    822.79011    108.51301    3474.2063    335.89591    65.848904     -170.605    18.399987    23.301289    21.790758           90           90           90 
  239500    261.19762   -4223.4419   -3775.7581   -4223.4419            0    141.37119    18.019123    23.663568    22.168923            0            0            0    9452.7566   -7.4821587    294.78039    136.81533    1340.0063   -492.07568   -819.27131    18.019123    23.663568    22.168923           90           90           90 
  240000    272.02739   -4250.8247   -3784.5791   -4250.8247            0    1000.5915      17.8851    23.530712    22.203414            0            0            0     9344.288    1183.0095    99.940593    1718.8244      359.063   -344.44086   -309.63649      17.8851    23.530712    22.203414           90           90           90 
  240500    272.50596   -4248.1029    -3781.037   -4248.1029            0    2958.5293    18.136233     23.34403    21.952659            0            0            0    9294.1576    1786.8806    4473.6957    2615.0115   -40.905423   -241.24952    -140.5671    18.136233     23.34403    21.952659           90           90           90 
  241000    252.40568   -4248.6772   -3816.0625   -4248.6772            0    2605.7897    18.062833    23.351534    21.934612            0            0            0    9251.9062    2661.1848      2786.56    2369.6244    755.72098   -710.02998    41.342558    18.062833    23.351534    21.934612           90           90           90 
  241500    263.96412   -4205.9569   -3753.5314   -4205.9569            0    3729.1079    17.860643    23.341412    22.088461            0            0            0    9208.5165    4846.4228    3435.4352    2905.4657    367.25295    98.310966    472.34714    17.860643    23.341412    22.088461           90           90           90 
  242000    267.43034   -4226.5319   -3768.1654   -4226.5319            0    2560.7992    17.944201     23.46559    21.979669            0            0            0    9255.0073    2693.4986    2411.9175    2576.9813    140.59501     620.2406      821.271    17.944201     23.46559    21.979669           90           90           90 
  242500    275.20484   -4235.1881   -3763.4965   -4235.1881            0    2074.0574    18.264492    23.288899    21.862824            0            0            0     9299.569    1080.7451    1960.0622    3181.3649   -142.15664    452.12827   -306.47891    18.264492    23.288899    21.862824           90           90           90 
  243000    269.06596   -4220.5843   -3759.4144   -4220.5843            0    1445.0009    18.014245    23.380516    22.198747            0            0            0    9349.7202    1599.2859    2454.2536    281.46341    386.79204   -1098.5872   -673.41359    18.014245    23.380516    22.198747           90           90           90 
  243500    260.31292   -4229.3619   -3783.1945   -4229.3619            0    3154.3306    17.920986     23.63042    21.903334            0            0            0    9275.6331    2592.7118    1245.0459    5625.2341   -900.31925     474.8194   -760.93952    17.920986     23.63042    21.903334           90           90           90 
  244000    267.67229   -4249.7546   -3790.9734   -4249.7546            0    3879.0412    18.176267    23.166245    21.971842            0            0            0    9251.8124    4338.5318    4754.1038    2544.4881   -692.83454   -365.60131   -88.327123    18.176267    23.166245    21.971842           90           90           90 
  244500    268.05111   -4231.4794    -3772.049   -4231.4794            0    1813.8286    18.124564    23.067346    22.249517            0            0            0    9302.2023    2047.9831    2794.1406     599.3622    469.17984   -220.90589   -116.72616    18.124564    23.067346    22.249517           90           90           90 
  245000     266.3062   -4216.0206   -3759.5809   -4216.0206            0    2707.4234    17.824293    23.841054    21.952766            0            0            0    9328.8268     3321.147    530.64589    4270.4773    176.77051    1383.2771   -315.63739    17.824293    23.841054    21.952766           90           90           90 
  245500     261.2341    -4235.262   -3787.5157    -4235.262            0    1391.8074     18.06487    23.557153    21.960323            0            0            0    9345.3677    1555.2172    1445.2142    1174.9909   -204.05883    220.19859    999.76146     18.06487    23.557153    21.960323           90           90           90 
  246000    258.01701   -4228.2886   -3786.0562   -4228.2886            0    2146.4489    18.140082    23.136709    22.155737            0            0            0    9298.8027     1761.487    3080.8215    1597.0381   -731.94491    910.45669   -482.05006    18.140082    23.136709    22.155737           90           90           90 
  246500    267.23244   -4267.5741   -3809.5468   -4267.5741            0    1577.8407    18.090708    23.482317    21.992347            0            0            0    9342.6075    812.25958    935.35954    2985.9029    462.61882   -186.80465    455.83217    18.090708    23.482317    21.992347           90           90           90 
  247000      259.124   -4246.5097     -3802.38   -4246.5097            0    2327.0288    17.890012    23.786102    22.016617            0            0            0    9368.8116    2932.7178   -81.081054    4129.4495   -1551.3478    632.50466   -657.42998    17.890012    23.786102    22.016617           90           90           90 
  247500    260.60643   -4227.7413   -3781.0708   -4227.7413            0    1504.2941    18.184257    23.141669    22.212563            0            0            0    9347.3591   -448.55438    3174.6475    1786.7892    576.97041   -237.01217   -73.902083    18.184257    23.141669    22.212563           90           90           90 
  248000    261.91181   -4220.6466   -3771.7387   -4220.6466            0    1189.4231    18.256639    23.383575    21.933006            0            0            0    9363.3204    60.218412    2200.8204    1307.2305   -820.33332    -730.8841    -149.8166    18.256639    23.383575    21.933006           90           90           90 
  248500    254.21682   -4277.3169    -3841.598   -4277.3169            0    2209.4959    17.775868    23.739729    21.993159            0            0            0    9280.9876    4136.9177    1141.4566    1350.1135   -453.26526    544.06022   -824.96096    17.775868    23.739729    21.993159           90           90           90 
  249000    237.18971   -4223.7157   -3817.1807   -4223.7157            0    1397.9064    17.952805    23.417678    22.164125            0            0            0    9318.0866    2089.4188    274.79237     1829.508    134.90473    188.79132    352.06589    17.952805    23.417678    22.164125           90           90           90 
  249500    264.85086   -4247.8721   -3793.9268   -4247.8721            0    1506.3705    18.226765      23.3265    21.994372            0            0            0    9351.2732    546.25649    2004.2652    1968.5898    677.79962   -334.65144   -756.73396    18.226765      23.3265    21.994372           90           90           90 
  250000    265.20126   -4219.7653   -3765.2194   -4219.7653            0     1552.624    17.982555    23.487009    22.062663            0            0            0    9318.3075    1491.0791    1512.9629    1653.8302    68.271838    232.21705    206.02397    17.982555    23.487009    22.062663           90           90           90 
  250500    256.73802   -4218.2365   -3778.1964   -4218.2365            0     2109.592    17.922484    23.531791     22.17242            0            0            0    9351.1774    3423.0125    1428.7426    1477.0209    558.08958   -706.49779    119.68614    17.922484    23.531791     22.17242           90           90           90 
  251000    268.59673   -4204.6164   -3744.2508   -4204.6164            0     1401.753    18.213056    23.495238    21.955219            0            0            0    9395.0788    3040.6143    1322.3895   -157.74465   -347.98298    574.00216    106.67394    18.213056    23.495238    21.955219           90           90           90 
  251500     262.0528   -4242.5411   -3793.3915   -4242.5411            0   -144.00965    18.202624     23.43432    22.156516            0            0            0    9451.2191   -318.85747    246.41539   -359.58688    609.42757   -208.66366    190.07929    18.202624     23.43432    22.156516           90           90           90 
  252000     258.7026   -4249.3305   -3805.9231   -4249.3305            0    157.38915    17.833755    23.602726     22.29956            0            0            0    9386.4474     1620.633    677.99139   -1826.4569    305.59964   -558.81322   -122.87445    17.833755    23.602726     22.29956           90           90           90 
  252500    268.59071   -4238.4047   -3778.0494   -4238.4047            0    2983.6503    18.111465    23.547305    21.826642            0            0            0    9308.5435    3842.7049    1879.8918    3228.3542    -892.8111    124.16416    134.31075    18.111465    23.547305    21.826642           90           90           90 
  253000     268.0656   -4244.5102    -3785.055   -4244.5102            0    2477.1251    18.209633     23.25573    21.971111            0            0            0    9304.2889    122.23314    4525.2679    2783.8743    696.04259   -1032.5891   -295.62407    18.209633     23.25573    21.971111           90           90           90 
  253500    274.43745   -4236.0041   -3765.6277   -4236.0041            0     1742.429    17.886177    23.430895    22.277835            0            0            0    9336.3987     1701.915    2547.4793    977.89278   -1295.2145    531.86496    373.24919    17.886177    23.430895    22.277835           90           90           90 
  254000    273.77243    -4224.538   -3755.3015    -4224.538            0    2740.6067    17.986973    23.527962    21.902101            0            0            0    9268.8994    2272.1802    2606.0452    3343.5947   -414.52663    -703.8656    880.08709    17.986973    23.527962    21.902101           90           90           90 
  254500     260.7921    -4221.047   -3774.0583    -4221.047            0    2892.8631    18.098253    23.444891    21.999495            0            0            0    9334.6406    2944.3594    2158.8045    3575.4254     97.94514    30.423518    298.27934    18.098253    23.444891    21.999495           90           90           90 
  255000    258.32784   -4267.0246   -3824.2595   -4267.0246            0    2257.8271    18.069769    23.288386    22.111737            0            0            0    9304.9672    2250.7163    917.50265    3605.2622   -234.71192   -1270.2523    766.25372    18.069769    23.288386    22.111737           90           90           90 
  255500    252.92232   -4245.1009   -3811.6007   -4245.1009            0    2496.3597    17.966366    23.524734    22.020349            0            0            0    9306.9878    2120.4651    1810.2835    3558.3306    715.86913    238.62926   -272.11004    17.966366    23.524734    22.020349           90           90           90 
  256000    257.46724   -4206.0455   -3764.7555   -4206.0455            0    793.03414    18.054056    23.603186    22.051488            0            0            0    9396.8718    1076.5075    547.31435    755.28053    305.09756   -385.00331    159.10107    18.054056    23.603186    22.051488           90           90           90 
  256500    261.96625   -4215.2468   -3766.2456   -4215.2468            0   -174.67842    18.346079    23.346859     22.14648            0            0            0    9485.8541    29.171558   -1216.9047    663.69788   -469.39181      142.878   -238.47714    18.346079    23.346859     22.14648           90           90           90 
  257000    265.73857   -4264.3803   -3808.9135   -4264.3803            0    851.66078    18.071149    23.542524    22.091366            0            0            0    9398.5608    183.50172    29.317608     2342.163    255.55737   -328.61741    947.62704    18.071149    23.542524    22.091366           90           90           90 
  257500    257.00866   -4240.1686   -3799.6645   -4240.1686            0    1451.7044    17.956597    23.655263    22.019336            0            0            0      9353.11   -357.58392    1871.6317    2841.0654   -486.60237    -108.8362    314.05242    17.956597    23.655263    22.019336           90           90           90 
  258000    258.00809   -4220.4502   -3778.2332   -4220.4502            0    4122.9345    18.058003    23.195541    22.032956            0            0            0    9228.8371    6320.0168    4645.4044    1403.3821    141.76344    50.833474    260.98158    18.058003    23.195541    22.032956           90           90           90 
  258500    272.57547   -4227.0755   -3759.8905   -4227.0755            0    3365.7348    18.101647    23.405134    21.884145            0            0            0    9271.6879     4422.845    2862.3114    2812.0481    245.09413    36.373024    838.76512    18.101647    23.405134    21.884145           90           90           90 
  259000     244.3512   -4257.5851   -3838.7755   -4257.5851            0    2896.9925    17.903678    23.355678    22.113308            0            0            0    9246.7359    2994.1632    3568.9399    2127.8745   -55.893421    133.73901   -300.08734    17.903678    23.355678    22.113308           90           90           90 
  259500    255.93633   -4248.6523   -3809.9862   -4248.6523            0    2840.7697    17.997741    23.514447    21.989303            0            0            0    9306.0254    1930.5542    4590.4147    2001.3403    129.77578   -32.237317   -124.57015    17.997741    23.514447    21.989303           90           90           90 
  260000    250.43473   -4245.3815   -3816.1449   -4245.3815            0    2313.4898    18.120931    23.375368    22.000775            0            0            0    9319.1638    2339.2876    2048.5684    2552.6135   -105.36569     531.0897    711.51167    18.120931    23.375368    22.000775           90           90           90 
  260500    241.19903   -4189.6251   -3776.2182   -4189.6251            0    2896.8329    18.010791    23.367925    22.073371            0            0            0    9290.1259     2487.964    1780.9716     4421.563    -875.2956   -1126.7328    221.36493    18.010791    23.367925    22.073371           90           90           90 
  261000    257.15139   -4259.5719   -3818.8232   -4259.5719            0    1846.2622    17.949891    23.589669    22.077903            0            0            0    9348.4905    3646.9456    2092.4234   -200.58234   -1355.6441   -248.40044    815.47715    17.949891    23.589669    22.077903           90           90           90 
  261500    262.70189   -4260.4842   -3810.2222   -4260.4842            0     1330.891    18.263952    23.378725    22.060039            0            0            0    9419.3701   -363.44562    2207.7582    2148.3603    1447.3636   -867.64004    3.3902241    18.263952    23.378725    22.060039           90           90           90 
  262000    251.30362   -4237.9111   -3807.1853   -4237.9111            0     621.1612    18.330216    23.367977    22.168708            0            0            0    9495.7459    800.22121   -271.64281    1334.9052   -685.12446    1188.0891    146.06304    18.330216    23.367977    22.168708           90           90           90 
  262500    265.88351   -4248.0805   -3792.3653   -4248.0805            0    701.37726    17.871432    23.824491     22.13022            0            0            0    9422.5559     993.7604    742.96202    367.40935   -344.06772   -53.494215   -574.84756    17.871432    23.824491     22.13022           90           90           90 
  263000    269.82326    -4238.736   -3776.2682    -4238.736            0    3303.0618    17.994767    23.416147    22.015046            0            0            0    9276.4381    3587.9498    3308.0343    3013.2012    75.945473    98.798504    705.47064    17.994767    23.416147    22.015046           90           90           90 
  263500    280.19668   -4218.7604   -3738.5129   -4218.7604            0    3267.5791    18.122297    23.160204    22.025077            0            0            0    9244.2792    2751.1069    3591.5497    3460.0806    368.17922   -442.68074   -516.39732    18.122297    23.160204    22.025077           90           90           90 
  264000    264.41784    -4236.871   -3783.6678    -4236.871            0     2112.809    18.078304     23.48139    21.937916            0            0            0    9312.7266    1715.1408    1127.7348    3495.5515   -980.22817     270.0502     215.8701    18.078304     23.48139    21.937916           90           90           90 
  264500    255.00659    -4261.915   -3824.8425    -4261.915            0    1542.4289    17.877992    23.511948    22.109491            0            0            0    9293.6451    1301.5104     1198.557    2127.2191   -72.515597    374.23554    224.60354    17.877992    23.511948    22.109491           90           90           90 
  265000    265.36817   -4228.2627   -3773.4307   -4228.2627            0    1179.8756    18.165596    23.281143    22.239985            0            0            0    9405.6419    1575.9384    3031.9665   -1068.2782   -711.25163   -652.80192   -59.514933    18.165596    23.281143    22.239985           90           90           90 
  265500    254.04368   -4264.1292    -3828.707   -4264.1292            0    2705.6358    18.105453    23.403844    21.891971            0            0            0    9276.4425    2233.2341    2955.9708    2927.7026     41.76555     618.2585    129.49191    18.105453    23.403844    21.891971           90           90           90 
  266000    257.16442   -4258.6209   -3817.8498   -4258.6209            0    3105.8779    17.729006    23.578919    22.141376            0            0            0    9255.7774    3832.6292    2130.0103    3354.9942   -203.22203    212.45735   -918.35283    17.729006    23.578919    22.141376           90           90           90 
  266500    273.01382   -4231.2877   -3763.3513   -4231.2877            0    2581.8674    18.059672    23.103452      22.1401            0            0            0    9237.7522    1887.2194    1592.1892    4266.1936   -698.49305   -437.22663   -251.51476    18.059672    23.103452      22.1401           90           90           90 
  267000    256.91215   -4255.1074   -3814.7687   -4255.1074            0    1545.5775    18.517499    23.127392    21.770316            0            0            0    9323.3876     911.4484    4789.8986   -1064.6147   -36.097803   -1397.8637    229.15146    18.517499    23.127392    21.770316           90           90           90 
  267500    261.25028   -4233.7073   -3785.9333   -4233.7073            0    2002.3894    17.990371    23.633216    22.038605            0            0            0    9370.1603    3242.0837    686.55104    2078.5335    1043.2269   -373.65333    589.83756    17.990371    23.633216    22.038605           90           90           90 
  268000    267.18448   -4238.6958   -3780.7507   -4238.6958            0    1919.2599    17.946186    23.497063    22.100641            0            0            0    9319.4573    1579.1111    2615.0286      1563.64   -1555.9789     -37.2109   -729.52995    17.946186    23.497063    22.100641           90           90           90 
  268500    250.48696   -4250.6238   -3821.2977   -4250.6238            0    2617.0753    18.217918    23.219045    21.928848            0            0            0     9275.961    587.32658    3956.9826    3306.9168   -263.96558   -1267.5921    808.23906    18.217918    23.219045    21.928848           90           90           90 
  269000    259.92073   -4250.3595   -3804.8642   -4250.3595            0    2606.8091    18.032261    23.410251    21.971292            0            0            0     9274.956    2556.0592    2023.9744    3240.3937    832.36402    344.25118    166.02783    18.032261    23.410251    21.971292           90           90           90 
  269500     263.1142   -4226.8934   -3775.9247   -4226.8934            0    2403.2677    17.815311    23.756257    22.043336            0            0            0    9329.2931     2215.985    2073.9567    2919.8615     925.5183   -815.25782    536.68942    17.815311    23.756257    22.043336           90           90           90 
  270000     262.1384   -4222.9495   -3773.6532   -4222.9495            0    1477.8027    18.272037    23.241433    22.001396            0            0            0    9343.2958    848.50587    1112.6353    2472.2668     1665.485    353.63289   -637.58549    18.272037    23.241433    22.001396           90           90           90 
  270500    258.36021   -4233.5492   -3790.7286   -4233.5492            0    2562.2769    18.213739     23.14342     22.03791            0            0            0     9289.601    3273.1118    1501.9067    2911.8121   -342.09502   -1052.7788   -932.06592    18.213739     23.14342     22.03791           90           90           90 
  271000    264.49636   -4255.5182   -3802.1805   -4255.5182            0    3058.2065    17.693079    23.662369    22.020371            0            0            0    9219.0525     4710.564    2939.6505    1524.4049    496.21712   -116.67416    396.05813    17.693079    23.662369    22.020371           90           90           90 
  271500    254.93468   -4238.2101   -3801.2607   -4238.2101            0    2743.5182    18.006342    23.454716    21.988364            0            0            0     9286.426    2773.4266    3071.8272    2385.3006    -356.2102    -391.0108   -728.22286    18.006342    23.454716    21.988364           90           90           90 
  272000    280.51238   -4239.7583   -3758.9697   -4239.7583            0    577.93925    18.240599    23.348867    22.087139            0            0            0    9406.8529    156.39693    1094.3961    483.02471   -348.40921   -149.81642   -87.648205    18.240599    23.348867    22.087139           90           90           90 
  272500    259.40562   -4208.5786   -3763.9662   -4208.5786            0    1355.8523    18.015898    23.596512    22.105688            0            0            0    9397.4008    1928.1898    1226.4222    912.94498    80.606878    295.85759   -20.082858    18.015898    23.596512    22.105688           90           90           90 
  273000    251.46729   -4222.2142   -3791.2078   -4222.2142            0    1771.0038    18.027758    23.494385    22.031253            0            0            0    9331.3612    1835.7346    1914.1948    1563.0818     91.49362    126.92308    248.29823    18.027758    23.494385    22.031253           90           90           90 
  273500    266.63324   -4251.7612   -3794.7609   -4251.7612            0    2532.5743    18.078085      23.2165    22.125446            0            0            0    9286.2681    1690.6888    3572.7416    2334.2924   -687.14587   -634.60355    166.32887    18.078085      23.2165    22.125446           90           90           90 
  274000    268.87743    -4208.014   -3747.1672    -4208.014            0    2832.4759    18.097522    23.511288    21.747946            0            0            0    9253.6654    104.59346    3689.7914    4703.0428   -42.643674    142.09689   -93.272883    18.097522    23.511288    21.747946           90           90           90 
  274500    269.26668   -4217.5842   -3756.0703   -4217.5842            0    3471.7961     17.88058    23.522019    21.937482            0            0            0    9226.6269    3503.1042    3134.0489    3778.2352   -255.70503   -430.84016   -213.68878     17.88058    23.522019    21.937482           90           90           90 
  275000    245.89948    -4216.055   -3794.5917    -4216.055            0    1574.7327    18.003758    23.292423    22.400495            0            0            0    9393.6729     2054.389    1585.4787    1084.3304   -154.18958    90.795526   -338.33248    18.003758    23.292423    22.400495           90           90           90 
  275500    253.86328   -4257.2308   -3822.1178   -4257.2308            0    1080.3322    18.293291    23.502311    21.900465            0            0            0     9415.768   -723.38358    1815.9018    2148.4782   -142.70503   -419.00776    88.328479    18.293291    23.502311    21.900465           90           90           90 
  276000    267.34488   -4221.1362   -3762.9162   -4221.1362            0    764.56275    18.030365    23.637353    22.110486            0            0            0    9423.2702    1071.9679    183.01847    1038.7018   -766.66612   -325.54453   -329.68341    18.030365    23.637353    22.110486           90           90           90 
  276500     262.7722   -4231.4229   -3781.0404   -4231.4229            0    1138.5881    17.983824    23.397062    22.240707            0            0            0    9358.1917    1653.1807    605.08311    1157.5003    539.75481   -504.44964    1087.2462    17.983824    23.397062    22.240707           90           90           90 
  277000    273.98965   -4248.2291   -3778.6202   -4248.2291            0    2174.8745    18.219213    23.378655    21.918888            0            0            0    9336.1463    1499.1668    3030.5644    1994.8922    131.26522   -16.745739   -319.08795    18.219213    23.378655    21.918888           90           90           90 
  277500    253.10157   -4202.5853   -3768.7779   -4202.5853            0     1217.352    17.971151    23.627808    22.075204            0            0            0    9373.5487    1084.5942    1337.2075    1230.2543    940.88925   -761.10488   -26.490624    17.971151    23.627808    22.075204           90           90           90 
  278000    258.97919    -4222.607   -3778.7256    -4222.607            0    1859.8198    17.973441    23.397913    22.226416            0            0            0    9347.1198    1305.4634    2563.8748    1710.1212    1157.1543   -527.90027    231.91301    17.973441    23.397913    22.226416           90           90           90 
  278500    261.68461   -4238.8911   -3790.3726   -4238.8911            0    1929.6574    18.283249    23.351884    21.898541            0            0            0    9349.5453    404.56542    2334.2393    3050.1676   -181.32974    629.07752   -430.34621    18.283249    23.351884    21.898541           90           90           90 
  279000    258.93817    -4252.308   -3808.4968    -4252.308            0    2225.5912    18.006207    23.527897    22.034739            0            0            0    9334.9773    1291.5829    2648.3465    2736.8441   -704.41774    798.62664    713.63183    18.006207    23.527897    22.034739           90           90           90 
  279500     254.0697   -4230.2533   -3794.7866   -4230.2533            0    1934.4685    17.812125    23.506819    22.374857            0            0            0    9368.4956    2419.1861    2329.4705    1054.7489   -684.32989    -62.51755   -131.35061    17.812125    23.506819    22.374857           90           90           90 
  280000    261.88853   -4247.3665   -3798.4985   -4247.3665            0    2967.5041    18.317046    23.363485    21.827216            0            0            0    9340.9577    1553.8367     2662.223    4686.4525   -310.27365    112.69681     191.9879    18.317046    23.363485    21.827216           90           90           90 
  280500    261.10564   -4235.9038   -3788.3776   -4235.9038            0    2808.6426    18.148119    23.412969    21.939943            0            0            0     9322.311    3090.4381    2302.8147    3032.6749     575.3021   -370.57778   -362.16167    18.148119    23.412969    21.939943           90           90           90 
  281000    272.24489   -4232.4697   -3765.8513   -4232.4697            0    2523.0651    17.804998    23.558549    22.255253            0            0            0    9335.1866    4097.7928    2525.0868    946.31574    26.332596    259.83144   -61.404551    17.804998    23.558549    22.255253           90           90           90 
  281500    273.92206   -4239.6324   -3770.1394   -4239.6324            0    1581.1357    18.171013    23.582089    21.864124            0            0            0    9369.0055    82.597702    1410.9174    3249.8921   -1570.4189    170.93834   -618.38522    18.171013    23.582089    21.864124           90           90           90 
  282000    267.02306   -4247.1405   -3789.4721   -4247.1405            0     1297.515    18.207628    23.410693    22.057134            0            0            0    9401.9235    235.62329    1404.6633    2252.2584    928.34276   -939.20987    414.70642    18.207628    23.410693    22.057134           90           90           90 
  282500    261.85825    -4240.967    -3792.151    -4240.967            0    1928.6408    17.883089    23.480796    22.293659            0            0            0    9361.3116    2404.5872    2953.7212    427.61396   -638.78748    221.55886   -194.57237    17.883089    23.480796    22.293659           90           90           90 
  283000    244.71787   -4247.0086   -3827.5705   -4247.0086            0    2622.5611    18.098649    23.586586    21.826203            0            0            0    9317.2858    2104.5949    2206.9315    3556.1568   -169.02393    881.64265    450.31106    18.098649    23.586586    21.826203           90           90           90 
  283500    270.76136   -4281.4617    -3817.386   -4281.4617            0    2512.5589    18.201984    23.203839    22.026173            0            0            0    9302.8842    1112.7428    2942.5832    3482.3507   -796.18817    1193.7397   -186.04844    18.201984    23.203839    22.026173           90           90           90 
  284000    257.82349   -4258.3714   -3816.4707   -4258.3714            0    3293.6903    17.924165    23.279454     22.28783            0            0            0    9299.9263    5005.1172    2982.0042    1893.9494   -212.53708   -172.36471    -1180.188    17.924165    23.279454     22.28783           90           90           90 
  284500    279.43436    -4196.091     -3717.15    -4196.091            0    2127.5961    17.978271    23.897414    21.695386            0            0            0    9321.0795    2088.3491    975.74196    3318.6974   -1902.8175   -99.871435     324.4438    17.978271    23.897414    21.695386           90           90           90 
  285000    272.64651   -4262.5732   -3795.2665   -4262.5732            0     1889.795    18.126566    23.426682    22.053521            0            0            0     9364.924    858.70928    1978.4993    2832.1765   -654.97382    795.05475   -282.12848    18.126566    23.426682    22.053521           90           90           90 
  285500     259.7578   -4227.7148   -3782.4988   -4227.7148            0    2342.5223    18.091516    23.232322    22.249788            0            0            0    9351.7626    1908.8026    2412.8912    2705.8731   -325.52835    835.93426   -109.43838    18.091516    23.232322    22.249788           90           90           90 
  286000    245.90095   -4243.3829   -3821.9171   -4243.3829            0    2446.7693    17.990445    23.557793    21.920609            0            0            0    9290.2867    1538.5039    3181.4504    2620.3536    50.267372   -18.583629   -239.22406    17.990445    23.557793    21.920609           90           90           90 
  286500     274.2762   -4245.9107   -3775.8107   -4245.9107            0    1588.3686    18.065106    23.610857    21.990435            0            0            0    9379.6387    2458.7633    855.89286    1450.4497    352.46846    778.19797    16.559939    18.065106    23.610857    21.990435           90           90           90 
  287000    264.70624   -4263.0635   -3809.3661   -4263.0635            0    2880.4398    18.056729    23.169771    22.234214            0            0            0    9302.1346    2668.0048    3574.7636    2398.5509    847.78284   -993.90934   -100.55476    18.056729    23.169771    22.234214           90           90           90 
  287500    260.58986   -4227.1667   -3780.5246   -4227.1667            0    1593.6997    18.241978    23.527276    21.818411            0            0            0     9364.114    2256.5797    233.53103    2290.9884   -153.28697   -694.17383   -587.80894    18.241978    23.527276    21.818411           90           90           90 
  288000    232.03395    -4263.225   -3865.5268    -4263.225            0    640.73507    17.934498    23.821875    21.926179            0            0            0    9367.5951    305.64941    136.33368    1480.2221   -408.75995   -279.79101    83.957642    17.934498    23.821875    21.926179           90           90           90 
  288500    256.83886   -4293.9928   -3853.7798   -4293.9928            0     1985.588    17.925197    23.244568    22.350485            0            0            0    9312.6309    2066.3268    2776.0613    1114.3759   -115.12667   -1112.3861   -800.27888    17.925197    23.244568    22.350485           90           90           90 
  289000    268.04698   -4226.9952   -3767.5719   -4226.9952            0    2176.5896    18.196664    23.353998    21.902712            0            0            0    9307.8829    1501.4214    1162.8293    3865.5182   -587.55382   -252.86597    145.22753    18.196664    23.353998    21.902712           90           90           90 
  289500    258.62597   -4261.9827   -3818.7066   -4261.9827            0     1768.505    17.991143    23.523501    21.997472            0            0            0    9309.6535    2599.8953    1440.6798    1264.9399   -506.43739    42.239744    448.92269    17.991143    23.523501    21.997472           90           90           90 
  290000    253.35097   -4209.1705   -3774.9356   -4209.1705            0    2107.8085    17.857164    23.497533    22.197003            0            0            0    9313.8469    1897.1258     2191.723    2234.5768    527.01644    403.23415    663.49541    17.857164    23.497533    22.197003           90           90           90 
  290500    246.08016   -4233.0082   -3811.2353   -4233.0082            0    2698.8433    18.159327    23.272776    21.850385            0            0            0     9234.365    3291.6331    2009.0195    2795.8773   -1443.6315   -462.37394    228.10866    18.159327    23.272776    21.850385           90           90           90 
  291000    254.41397   -4184.6205   -3748.5637   -4184.6205            0    2657.6342    18.008441    23.383203    22.077178            0            0            0    9296.5896    3218.5116    2746.5605    2007.8304   -292.29345      749.939    -793.4029    18.008441    23.383203    22.077178           90           90           90 
  291500    261.06788   -4218.4369   -3770.9755   -4218.4369            0    3474.7881    17.769004    23.493325    22.085229            0            0            0    9219.5449    5912.8953    2464.6775    2046.7916    341.27692   -911.00614     360.5632    17.769004    23.493325    22.085229           90           90           90 
  292000    270.31272   -4280.9146   -3817.6079   -4280.9146            0    2163.2574    18.236717    23.302237     21.87737            0            0            0    9296.9261    959.59587     2294.612    3235.5644    315.98885   -827.13324    94.077494    18.236717    23.302237     21.87737           90           90           90 
  292500    256.04283   -4248.2896   -3809.4409   -4248.2896            0    2146.0665    18.078275    23.308085    22.100014            0            0            0    9312.2824    1301.2749    2942.2207     2194.704   -305.11318   -498.63846    792.46894    18.078275    23.308085    22.100014           90           90           90 
  293000    244.75934   -4279.2208   -3859.7117   -4279.2208            0    1920.3689    17.718721    23.600246    22.196879            0            0            0    9281.9836    1731.1963    1392.4423    2637.4679    454.45689    300.04912    216.81752    17.718721    23.600246    22.196879           90           90           90 
  293500    268.06006   -4239.0174   -3779.5716   -4239.0174            0    2199.4406    18.216434    23.533445    21.691524            0            0            0    9299.0578    2423.1561    2524.5973    1650.5683    901.57414   -643.76505   -191.13842    18.216434    23.533445    21.691524           90           90           90 
  294000     251.5527   -4240.7063   -3809.5536   -4240.7063            0    1037.8446    18.154561    23.233823    22.117742            0            0            0    9329.2602   -177.58823    1501.4767    1789.6454    69.734041   -481.19755    69.699358    18.154561    23.233823    22.117742           90           90           90 
  294500    276.57254   -4256.4212   -3782.3853   -4256.4212            0    1258.7092    17.923959    23.467353    22.121716            0            0            0    9305.0105    789.51367    1494.8157    1491.7982    139.92698   -411.13456    1202.6142    17.923959    23.467353    22.121716           90           90           90 
  295000    257.18656   -4225.4106   -3784.6017   -4225.4106            0    1586.4213    18.026595    23.620124    21.894119            0            0            0     9322.306    1464.5699    1259.5355    2035.1585    424.06241    4.7461796    131.15325    18.026595    23.620124    21.894119           90           90           90 
  295500    264.90747    -4242.802   -3788.7597    -4242.802            0    438.21335    18.147909     23.32377    22.193737            0            0            0    9394.1134    834.07818    147.89061    332.67125   -1156.0752    615.65407    94.472056    18.147909     23.32377    22.193737           90           90           90 
  296000    263.57544   -4250.2661   -3798.5068   -4250.2661            0    598.28839    18.111064    23.446458    22.133095            0            0            0    9398.6043    1064.5125    162.55925    567.79337   -199.16433    704.30561    318.10319    18.111064    23.446458    22.133095           90           90           90 
  296500    250.16802   -4237.5631   -3808.7837   -4237.5631            0    1848.5172    18.003292    23.661617    21.866112            0            0            0    9314.6798    1932.3019    1422.2715    2190.9782   -140.84727    36.184258    273.97544    18.003292    23.661617    21.866112           90           90           90 
  297000    255.88239   -4233.7348   -3795.1611   -4233.7348            0    1880.3324    18.016938    23.378426    22.170412            0            0            0    9338.3473    2222.4308     770.4724    2648.0938    230.76649    43.925154    848.49848    18.016938    23.378426    22.170412           90           90           90 
  297500    266.30908   -4221.3616    -3764.917   -4221.3616            0    2265.1049    18.149569    23.087274    22.303517            0            0            0    9345.7104    2104.3605    2818.8132    1872.1409   -424.45336    -296.5794   -594.69172    18.149569    23.087274    22.303517           90           90           90 
  298000    261.14365   -4236.4428   -3788.8515   -4236.4428            0    2547.9692    18.208578    23.783895    21.641286            0            0            0    9372.2116    1738.6156    1656.9327    4248.3594    1448.9491    239.54582    1322.3096    18.208578    23.783895    21.641286           90           90           90 
  298500    256.14215   -4244.4404   -3805.4215   -4244.4404            0    1357.8563    17.922984    23.659472    22.234219            0            0            0    9428.3837      1590.17   -46.872293    2530.2712     998.8826   -502.72366   -339.42158    17.922984    23.659472    22.234219           90           90           90 
  299000     253.5462   -4233.2876    -3798.718   -4233.2876            0    2144.8523    18.073318    23.333493     22.22606            0            0            0    9373.0328    2412.9282     3205.065    816.56373    294.88168    217.72131    520.72317    18.073318    23.333493     22.22606           90           90           90 
  299500    263.24742   -4250.9754   -3799.7783   -4250.9754            0    1654.6281    18.127197    23.497577    21.942712            0            0            0     9346.393    1108.3117    1462.4778    2393.0949   -1570.3837   -190.08185    597.94587    18.127197    23.497577    21.942712           90           90           90 
  300000    257.84104   -4250.6506   -3808.7199   -4250.6506            0    3075.9807     17.93814    23.497704    22.122035            0            0            0    9324.5505    3573.3341    2649.1802    3005.4278   -677.38759    504.44435   -24.603953     17.93814    23.497704    22.122035           90           90           90 
  300500    250.71454   -4243.7291   -3814.0129   -4243.7291            0    2849.4407    18.028434    23.298157    22.129391            0            0            0    9294.9922    3850.1848    1746.8282     2951.309    -69.73646   -28.755725    511.32286    18.028434    23.298157    22.129391           90           90           90 
  301000    247.54976   -4239.9733   -3815.6814   -4239.9733            0    2398.0315    18.155683    23.356982    21.880062            0            0            0    9278.5018    2399.0006    1783.9431    3011.1507   -313.54229   -377.92434    -277.0835    18.155683    23.356982    21.880062           90           90           90 
  301500    261.13331   -4239.7951   -3792.2216   -4239.7951            0    2264.7101    17.847404    23.522317    22.105417            0            0            0    9280.1258     1676.156    2683.9095    2434.0648    -156.3849   -1028.4669    1170.4744    17.847404    23.522317    22.105417           90           90           90 
  302000    252.66817   -4225.6504   -3792.5858   -4225.6504            0    2720.1264    17.905146    23.430684    22.088595            0            0            0     9266.824    2795.5088    3796.2981    1568.5724    56.095135    478.67296    921.21229    17.905146    23.430684    22.088595           90           90           90 
  302500    247.98967   -4246.9913   -3821.9455   -4246.9913            0    2358.7608    18.323781    23.273821    21.852021            0            0            0    9319.1091    2325.9048    2228.9438    2521.4336   -1631.9876     243.3343     851.7759    18.323781    23.273821    21.852021           90           90           90 
  303000    262.64728     -4236.55   -3786.3816     -4236.55            0    1114.4021    18.003247    23.535746    22.255044            0            0            0     9429.904    335.19264    1225.5797    1782.4338    -390.4499   -67.004373   -122.42331    18.003247    23.535746    22.255044           90           90           90 
  303500     271.3881   -4256.8127   -3791.6628   -4256.8127            0  -0.84510302    17.887095    23.691556     22.22107            0            0            0    9416.6917    1644.3524   -1001.7292   -645.15854   -984.31936   -151.42326    93.870916    17.887095    23.691556     22.22107           90           90           90 
  304000    242.68516   -4238.0573   -3822.1033   -4238.0573            0    1924.3864    18.262208    23.395935    21.870649            0            0            0    9344.4846    1872.0994    2006.6457    1894.4141    71.022873   -335.26379    463.34408    18.262208    23.395935    21.870649           90           90           90 
  304500    256.98396   -4208.1084   -3767.6467   -4208.1084            0     1899.849    18.107826    23.322792    22.125388            0            0            0    9344.1055    1819.1661    2746.7012    1133.6799   -525.73077   -310.38143   -587.54364    18.107826    23.322792    22.125388           90           90           90 
  305000    265.95494   -4253.4089   -3797.5712   -4253.4089            0     2308.746    17.862717    23.616432    22.124679            0            0            0    9333.3761     3956.317    1298.2491    1671.6721   -554.56377    330.89062   -820.59325    17.862717    23.616432    22.124679           90           90           90 
  305500    266.13824   -4247.1478    -3790.996   -4247.1478            0    1607.5087     18.18026    23.604132    21.857816            0            0            0    9379.8282    766.37405    1821.7193    2234.4328   -1290.1686   -648.75291   -23.701986     18.18026    23.604132    21.857816           90           90           90 
  306000    264.31068   -4254.3523   -3801.3328   -4254.3523            0    1670.7586    18.177458     23.06976    22.258784            0            0            0    9334.2122    1325.1179    2380.3824    1306.7755    -149.3623    481.24499   -304.41553    18.177458     23.06976    22.258784           90           90           90 
  306500    263.16558   -4236.6717   -3785.6149   -4236.6717            0    3026.6628    17.851969    23.493677     22.08707            0            0            0    9263.5027    2865.5946    3274.5621    2939.8316   -579.00603   -1215.8734    226.10447    17.851969    23.493677     22.08707           90           90           90 
  307000    279.62645   -4260.9426   -3781.6724   -4260.9426            0    3918.7719    17.926859    23.593803    21.799563            0            0            0    9220.4039    4846.7336    4350.5612     2559.021   -346.80664    537.43825   -722.64247    17.926859    23.593803    21.799563           90           90           90 
  307500    253.25997   -4240.8006   -3806.7217   -4240.8006            0    2588.2345    18.060423    23.260876    22.145247            0            0            0    9303.2463    2489.8342    3437.5607    1837.3086     492.9164    355.85598   -243.90035    18.060423    23.260876    22.145247           90           90           90 
  308000    265.56817   -4249.5482   -3794.3734   -4249.5482            0    2393.2158     18.00261    23.369965    22.102738            0            0            0    9299.0721     2368.618    1009.5132     3801.516   -44.709233    342.30584    138.14934     18.00261    23.369965    22.102738           90           90           90 
  308500    273.82562   -4250.3682   -3781.0405   -4250.3682            0    2145.7366    18.154173    23.587552     21.85842            0            0            0    9360.0486    1616.6288   -86.270819    4906.8519    574.91313   -67.607106    -205.1181    18.154173    23.587552     21.85842           90           90           90 
  309000    257.77245   -4224.2765   -3782.4634   -4224.2765            0   -175.79897     18.13759    23.324426    22.335862            0            0            0    9449.1614   -330.30465    882.40059   -1079.4928    92.855015    475.32244   -503.06288     18.13759    23.324426    22.335862           90           90           90 
  309500    257.11144   -4219.2472    -3778.567   -4219.2472            0     1174.842    18.047553    23.527897    22.191263            0            0            0    9422.8756    317.36236    1598.4399    1608.7237    182.17839   -1172.9719    790.94021    18.047553    23.527897    22.191263           90           90           90 
  310000    264.71208   -4231.7751   -3778.0677   -4231.7751            0    1528.2409    18.164497    23.606299    21.830901            0            0            0    9361.0151    1743.8651    244.33143    2596.5261   -48.739674    306.27267    522.70494    18.164497    23.606299    21.830901           90           90           90 
  310500      263.238   -4186.2522   -3735.0713   -4186.2522            0    2053.7332    18.110005    23.315341    22.175088            0            0            0    9363.2299    1735.6863    2237.4013     2188.112    344.50368   -227.47988    221.90158    18.110005    23.315341    22.175088           90           90           90 
  311000    264.78522   -4247.0886   -3793.2557   -4247.0886            0    1232.2516    18.008381    23.438853    22.155105            0            0            0    9351.5766    535.55871    2638.7505    522.44543   -157.04797   -108.95745   -834.68906    18.008381    23.438853    22.155105           90           90           90 
  311500    254.47891   -4241.2908   -3805.1227   -4241.2908            0    719.04153    18.226192    23.834123    21.695134            0            0            0    9424.4813    -412.7155    1212.3802    1357.4598   -947.18811   -214.97023    513.99664    18.226192    23.834123    21.695134           90           90           90 
  312000    258.46734   -4225.2361   -3782.2319   -4225.2361            0    1337.4364    18.067028    23.369908    22.347341            0            0            0    9435.6017    2123.5972    1316.0449    572.66705    137.77841    169.03385   -864.58048    18.067028    23.369908    22.347341           90           90           90 
  312500    245.41318   -4234.9178    -3814.288   -4234.9178            0     1475.829    18.107209    23.473661    22.112375            0            0            0    9398.6989    1641.9215    1236.8962    1548.6692   -515.43907   -574.23248   -110.20586    18.107209    23.473661    22.112375           90           90           90 
  313000     269.8353   -4257.9205   -3795.4321   -4257.9205            0    2813.1062    18.081558    23.463613    21.898994            0            0            0    9290.8378    1411.8323    4011.1696    3016.3167   -570.17563   -616.90943   -281.96673    18.081558    23.463613    21.898994           90           90           90 
  313500    250.28748   -4234.0991    -3805.115   -4234.0991            0    2558.8027    17.962718    23.344353    22.130803            0            0            0    9280.0663    2717.2413    2721.6077     2237.559   -4.1776244    156.13788    191.02696    17.962718    23.344353    22.130803           90           90           90 
  314000    267.75385   -4223.5516   -3764.6307   -4223.5516            0    2954.7486    18.084121    23.342061    22.002457            0            0            0    9287.6914    2763.1437    4015.2633    2085.8389   -432.67166   -22.518039    65.216071    18.084121    23.342061    22.002457           90           90           90 
  314500    262.60742   -4225.0771    -3774.977   -4225.0771            0    2256.1915    18.032685    23.647551    21.803112            0            0            0    9297.4752    3116.9402    339.81483    3311.8195    -296.0138     413.7335    456.35796    18.032685    23.647551    21.803112           90           90           90 
  315000    263.78863   -4242.6806   -3790.5559   -4242.6806            0     2744.588    17.813496    23.321331    22.333578            0            0            0    9278.1371    3598.9489    4196.5177    438.29735    976.27101    66.604899    412.19909    17.813496    23.321331    22.333578           90           90           90 
  315500    263.22838    -4205.627   -3754.4626    -4205.627            0    2040.5183    18.156025    23.321841    21.899616            0            0            0    9272.9966    467.71691    2879.9196    2773.9184   -1001.7861    86.137376    124.68498    18.156025    23.321841    21.899616           90           90           90 
  316000    271.91619   -4223.7436   -3757.6886   -4223.7436            0    2341.2203    18.059982    23.369305    22.002111            0            0            0     9285.974     2251.615     1560.172    3211.8738    323.77232    340.93866     929.4984    18.059982    23.369305    22.002111           90           90           90 
  316500    266.65042   -4226.3877    -3769.358   -4226.3877            0    2783.8545    17.800133    23.613377     22.11202            0            0            0    9294.1516    3263.5832    1857.0339    3230.9464   -10.443415    497.16628   -743.78017    17.800133    23.613377     22.11202           90           90           90 
  317000    253.86437   -4248.3197   -3813.2049   -4248.3197            0    2959.5928    18.128383    23.343905    21.916706            0            0            0    9274.8705    3984.1091    2167.8368    2726.8324   -45.933788   -956.06771     482.8707    18.128383    23.343905    21.916706           90           90           90 
  317500    248.74248   -4245.1456   -3818.8095   -4245.1456            0    1968.5989    18.144707    23.238105    22.011695            0            0            0    9281.2007    1009.7782    3006.3668    1889.6517     488.8474    230.15749     14.18229    18.144707    23.238105    22.011695           90           90           90 
  318000     251.0098   -4223.8721   -3793.6499   -4223.8721            0    2806.3465    17.774214    23.524777    22.105563            0            0            0    9243.0969     3078.794     2199.068    3141.1775   -1604.1256    158.22474   -113.43057    17.774214    23.524777    22.105563           90           90           90 
  318500     269.2864   -4258.9255   -3797.3778   -4258.9255            0    2094.2602    18.069804    23.557076    21.896103            0            0            0    9320.5528    89.336577    2548.3621     3645.082    99.241581   -150.90982   -1043.7544    18.069804    23.557076    21.896103           90           90           90 
  319000    272.76804   -4236.0181    -3768.503   -4236.0181            0    2588.1385    18.261242    23.173802    22.005304            0            0            0    9312.2574     2209.494    2357.6251    3197.2963    236.81508   -280.17669    707.23512    18.261242    23.173802    22.005304           90           90           90 
  319500    267.21756   -4260.3895   -3802.3877   -4260.3895            0    1265.6325    17.893822    23.418189     22.22139            0            0            0    9311.6717    2222.4446    410.96082    1163.4922   -867.42883   -662.63387   -564.16886    17.893822    23.418189     22.22139           90           90           90 
  320000    263.10668   -4249.9597   -3799.0039   -4249.9597            0    3760.5947    17.843649    23.749683     21.81692            0            0            0    9245.5963    3359.4429    3196.3846    4725.9565      153.798   -176.80655   -109.12011    17.843649    23.749683     21.81692           90           90           90 
  320500    258.84005   -4249.3433   -3805.7003   -4249.3433            0    2859.4084    18.210956    23.239623    21.922873            0            0            0    9278.1055    3066.9874    1961.3282    3549.9095    -266.5673   -787.05641    199.72101    18.210956    23.239623    21.922873           90           90           90 
  321000    242.74634   -4243.0255   -3826.9666   -4243.0255            0    1847.9967    18.079507    23.218087    22.097403            0            0            0    9275.8617    1029.4926    774.59073    3739.9068   -353.69166   -976.75538    547.04432    18.079507    23.218087    22.097403           90           90           90 
  321500    249.54311    -4234.251   -3806.5427    -4234.251            0    2477.8466    17.958774    23.622854    21.971333            0            0            0    9321.0632    3340.2246    821.36022     3271.955   -393.87949    314.70109    1010.0119    17.958774    23.622854    21.971333           90           90           90 
  322000    252.09682   -4223.1467   -3791.0614   -4223.1467            0    1396.6846    18.033334    23.485006    22.156226            0            0            0    9383.4491    1707.3311    2330.7738    151.94886   -327.73847   -187.57228    747.48746    18.033334    23.485006    22.156226           90           90           90 
  322500     257.0209   -4247.8046   -3807.2796   -4247.8046            0    1613.5594    18.143066    23.378177    22.068039            0            0            0    9360.1985    2066.3036    501.70118    2272.6733   -480.59039   -417.16601    908.57023    18.143066    23.378177    22.068039           90           90           90 
  323000    263.79359   -4220.2532     -3768.12   -4220.2532            0    2362.6371    18.035965    23.401143    22.120231            0            0            0    9336.1135    1940.0273    2453.8091     2694.075    823.06388    67.039494   -872.55866    18.035965    23.401143    22.120231           90           90           90 
  323500    266.96253   -4251.7533   -3794.1887   -4251.7533            0    2333.6374    17.846719    23.611083     22.04764            0            0            0    9290.4421    3269.2269    1454.1565    2277.5288    900.57491    522.12248   -186.67533    17.846719    23.611083     22.04764           90           90           90 
  324000    260.99637   -4268.8509   -3821.5121   -4268.8509            0    2493.1776    18.232904    23.334856    21.831694            0            0            0      9288.56    3613.4915    2102.8415    1763.1999    280.05728   -733.83378   -907.22153    18.232904    23.334856    21.831694           90           90           90 
  324500    250.82388    -4208.213   -3778.3094    -4208.213            0     1549.267    18.111543    23.230519    22.161724            0            0            0    9324.3357    1421.1217    1930.8456    1295.8337   -67.187226   -222.09083    883.95434    18.111543    23.230519    22.161724           90           90           90 
  325000    272.20958    -4252.537   -3785.9791    -4252.537            0    2163.7331    17.848052    23.602895    22.094981            0            0            0    9307.8571    2619.8981    2152.5977    1718.7035   -69.809837   -191.25467    186.97284    17.848052    23.602895    22.094981           90           90           90 
  325500    249.97174    -4213.687    -3785.244    -4213.687            0    2392.1676    18.074635    23.523749    21.766398            0            0            0    9254.7064    1880.6731    3360.6947    1935.1349    1248.0754    111.98342    231.05349    18.074635    23.523749    21.766398           90           90           90 
  326000    255.67911   -4248.0412    -3809.816   -4248.0412            0     1260.445    18.254264    23.065498    22.231336            0            0            0    9360.3637    1902.2864    647.83157    1231.2172   -11.790177    174.59133    233.95975    18.254264    23.065498    22.231336           90           90           90 
  326500    253.90669   -4232.5687   -3797.3813   -4232.5687            0    737.84413    17.959672    23.384034    22.235435            0            0            0    9338.2065    914.97438    1052.2511    246.30689    670.17439    791.74728    92.878389    17.959672    23.384034    22.235435           90           90           90 
  327000    271.10002   -4223.4611   -3758.8049   -4223.4611            0    2006.1472    17.912342    23.712929    21.870711            0            0            0    9289.6741    2038.6703    826.36653    3153.4049    -702.3325   -266.41758      532.835    17.912342    23.712929    21.870711           90           90           90 
  327500    250.23557   -4244.0027   -3815.1075   -4244.0027            0    1805.3941    18.075109    23.307911    22.022374            0            0            0    9277.8724    1668.7842    2398.0727    1349.3253    804.11761   -935.09204    331.34796    18.075109    23.307911    22.022374           90           90           90 
  328000     270.0919   -4245.9332    -3783.005   -4245.9332            0    2971.2833    18.055035    23.183879    22.058208            0            0            0    9233.2514    3344.1567    2458.7577    3110.9356   -383.41271   -200.64664   -144.85537    18.055035    23.183879    22.058208           90           90           90 
  328500    264.01028   -4222.5611   -3770.0565   -4222.5611            0    2250.4098    17.901378    23.636233    21.887334            0            0            0    9260.9936    2191.8224    1344.0664    3215.3407   -759.50635   -284.28944    238.90252    17.901378    23.636233    21.887334           90           90           90 
  329000    258.71578     -4228.07     -3784.64     -4228.07            0    2790.6446     18.00309    23.465291    21.967998            0            0            0     9280.331    3908.0032     2543.268    1920.6625    151.89583    651.67011    -926.7395     18.00309    23.465291    21.967998           90           90           90 
  329500    246.55145   -4238.5311   -3815.9504   -4238.5311            0    2313.9838    18.189093    23.065405    22.086588            0            0            0    9266.1802    387.21847     3724.046    2830.6869   -783.93353      183.712    307.84153    18.189093    23.065405    22.086588           90           90           90 
  330000    259.94155    -4237.044   -3791.5131    -4237.044            0    3861.8655    17.888101    23.569841     21.85138            0            0            0     9212.972      4852.72    2834.8981    3897.9783   -587.02934    98.340523   -733.29671    17.888101    23.569841     21.85138           90           90           90 
  330500    268.66644   -4247.3525   -3786.8674   -4247.3525            0    3776.7435    17.873257    23.651132    21.882842            0            0            0    9250.3755    5360.9733     2557.811    3411.4461   -457.37971    341.97484   -722.73081    17.873257    23.651132    21.882842           90           90           90 
  331000    260.51299   -4266.3405   -3819.8301   -4266.3405            0    1777.9467    18.138355    23.152114    22.126049            0            0            0    9291.6409    1991.6508    1302.1641    2040.0251   -250.67816   -86.594833    309.81508    18.138355    23.152114    22.126049           90           90           90 
  331500    261.60507   -4236.4778   -3788.0956   -4236.4778            0    2171.6485    18.130259    23.412526    22.035449            0            0            0     9353.501    2986.6988    1545.4927    1982.7539   -235.93953    169.50242   -245.97911    18.130259    23.412526    22.035449           90           90           90 
  332000    273.72946   -4242.8581   -3773.6952   -4242.8581            0    896.74599     17.95864    23.824503    21.940224            0            0            0     9387.249    1616.7169    670.97917    402.54192   -475.32758     124.5132   -468.42218     17.95864    23.824503    21.940224           90           90           90 
  332500    272.03264   -4210.7593   -3744.5047   -4210.7593            0    1241.6614    18.073646    23.361344       22.194            0            0            0     9370.854     740.9819    3223.2053   -239.20293   -96.977709   -48.189523    355.57116    18.073646    23.361344       22.194           90           90           90 
  333000    270.00062   -4261.2535   -3798.4817   -4261.2535            0    1847.4311    18.133985     23.35992    22.008232            0            0            0    9322.8725    901.30457    2217.1532    2423.8355   -454.34798   -605.54953    216.87199    18.133985     23.35992    22.008232           90           90           90 
  333500    271.71192   -4215.7088   -3750.0039   -4215.7088            0    1477.2126    17.962787    23.560046    22.193195            0            0            0    9392.2509    1464.0738    152.25113    2815.3127    144.06479    457.40043    326.19352    17.962787    23.560046    22.193195           90           90           90 
  334000    267.13239   -4243.3829   -3785.5271   -4243.3829            0    2070.1041    18.153544    23.532557    21.949526            0            0            0    9376.8226    856.73671    2276.4926    3077.0832   -1122.5255   -265.65045   -229.48341    18.153544    23.532557    21.949526           90           90           90 
  334500    262.84788   -4239.3516   -3788.8393   -4239.3516            0    1704.5131    18.206278    23.195358    22.091897            0            0            0    9329.4331    1229.5067    1807.4544    2076.5781    460.51529   -395.35942    435.28829    18.206278    23.195358    22.091897           90           90           90 
  335000    250.55533   -4257.2876   -3827.8443   -4257.2876            0    1540.4791    17.850706     23.46892     22.27582            0            0            0    9332.1605    2505.8733    1624.5657    490.99834    1141.9488    -159.5474    30.654748    17.850706     23.46892     22.27582           90           90           90 
  335500    260.19857   -4201.2871   -3755.3157   -4201.2871            0    3130.7104    17.860792    23.836677    21.778565            0            0            0    9272.0484    4120.1026    2915.1619    2356.8666   -444.90623     412.6471   -1057.5842    17.860792    23.836677    21.778565           90           90           90 
  336000    263.75792   -4193.4049   -3741.3328   -4193.4049            0    1551.7633    18.254744    23.269723     22.12042            0            0            0    9396.3746    305.08658    2598.2827    1751.9205   -1350.6886    -212.6156    49.428369    18.254744    23.269723     22.12042           90           90           90 
  336500    262.33941   -4234.3145   -3784.6737   -4234.3145            0    458.36135    18.143422    23.282801    22.296178            0            0            0    9418.5674   -173.02578    696.36849    851.74134    90.597085    9.0766535    552.69807    18.143422    23.282801    22.296178           90           90           90 
  337000    261.93537   -4236.1559   -3787.2076   -4236.1559            0    1576.2721    17.948481    23.755548    21.931898            0            0            0     9351.235    1982.8995    1144.8079    1601.1089     562.1389    105.83477    297.57527    17.948481    23.755548    21.931898           90           90           90 
  337500     257.9172   -4229.7358   -3787.6746   -4229.7358            0    1832.2297      18.1082    23.426798    22.083022            0            0            0    9367.9968    2580.3499    2325.9638     590.3753   -895.86895   -884.18868    -35.81439      18.1082    23.426798    22.083022           90           90           90 
  338000    240.11992   -4240.2687   -3828.7114   -4240.2687            0    814.84523    18.198904    23.281632    22.197466            0            0            0    9405.0706    1113.3012       954.96    376.27445   -120.97783   -970.97879   -565.87219    18.198904    23.281632    22.197466           90           90           90 
  338500    268.85008   -4260.1738    -3799.374   -4260.1738            0    2345.7524    17.921384    23.692769    21.947035            0            0            0    9318.8689      2264.26    2089.3922     2683.605   -234.32932    -576.2573   -1017.4893    17.921384    23.692769    21.947035           90           90           90 
  339000    259.53998   -4229.7973   -3784.9546   -4229.7973            0    2082.4254    17.919697     23.62994    21.998583            0            0            0    9315.1104    1871.4437    594.83668    3780.9957    213.38436    561.86186    434.47792    17.919697     23.62994    21.998583           90           90           90 
  339500    257.64237   -4251.6498   -3810.0596   -4251.6498            0      1760.62    18.250533    22.987457     22.15561            0            0            0    9295.0171    1212.1825    3070.8006    998.87693    85.297528   -460.43191   -185.58142    18.250533    22.987457     22.15561           90           90           90 
  340000    263.57679   -4232.6332   -3780.8716   -4232.6332            0    2117.5436    18.131511    23.498437     21.93939            0            0            0     9347.544    682.34893    1617.9634    4052.3186    -588.9658    102.31704   -171.61504    18.131511    23.498437     21.93939           90           90           90 
  340500    278.84913   -4230.3641   -3752.4262   -4230.3641            0    1238.3368    17.969802    23.723805       22.115            0            0            0    9427.8914    1478.4944    1737.5497    498.96622   -469.61753   -401.05547    933.68939    17.969802    23.723805       22.115           90           90           90 
  341000    259.53136   -4222.0235   -3777.1956   -4222.0235            0    1297.7482    18.105691    23.417634    22.140128            0            0            0    9387.2469    1173.5152    1635.4352    1084.2943   -339.15361    1341.3358   -96.863587    18.105691    23.417634    22.140128           90           90           90 
  341500     262.7181   -4265.9565   -3815.6667   -4265.9565            0    2935.4278    18.146841    23.268049    22.018639            0            0            0    9297.1848    2205.0313    3401.5807    3199.6715   -637.62489   -86.418211    213.25797    18.146841    23.268049    22.018639           90           90           90 
  342000    249.17929    -4234.104   -3807.0192    -4234.104            0    1343.3538     18.00727    23.607201    22.044244            0            0            0    9371.0357    52.093872    1492.7211    2485.2464   -744.70152   -98.150579   -120.59271     18.00727    23.607201    22.044244           90           90           90 
  342500    261.19661   -4267.9633   -3820.2812   -4267.9633            0    1104.0147    17.863284     23.59488    22.294065            0            0            0    9396.5479    2703.0528   -91.966384    700.95777   -150.09271   -23.975817  -0.51834325    17.863284     23.59488    22.294065           90           90           90 
  343000    253.45189   -4235.8916   -3801.4838   -4235.8916            0    2890.4805    18.339312    23.154012    21.864314            0            0            0    9284.2143    2702.6509    3930.9885    2037.8022   -590.92224   -276.85153   -31.594038    18.339312    23.154012    21.864314           90           90           90 
  343500    261.80009   -4269.3153   -3820.5989   -4269.3153            0    3195.3326    18.058914    23.453573    21.943924            0            0            0    9294.2626    1590.9633    3410.5286     4584.506   -288.31403     1.279751   -383.80876    18.058914    23.453573    21.943924           90           90           90 
  344000     248.0021   -4238.8368   -3813.7697   -4238.8368            0    1941.1454    17.813911    23.675697    22.171398            0            0            0    9350.9368    2429.1743    821.27849    2572.9834   -1088.4208   -407.18029    148.19695    17.813911    23.675697    22.171398           90           90           90 
  344500    267.89725   -4274.4892   -3815.3225   -4274.4892            0    1918.9094     18.23434    23.375939    22.022122            0            0            0    9386.8151    1740.8122    1005.5446    3010.3713   -491.36273    322.61775   -808.30134     18.23434    23.375939    22.022122           90           90           90 
  345000    272.16816   -4262.7173   -3796.2304   -4262.7173            0    1479.4958    18.203689    23.436399    22.023106            0            0            0    9395.6941   -666.98018    1610.0568    3495.4109   -371.49291    299.92213    1088.7017    18.203689    23.436399    22.023106           90           90           90 
  345500    263.90997   -4255.4868   -3803.1542   -4255.4868            0    2346.1961    17.814785    23.584996    22.221469            0            0            0    9336.6091     3819.273    1744.3515    1474.9638    776.69015     234.7749   -592.10952    17.814785    23.584996    22.221469           90           90           90 
  346000    251.02362   -4233.5809    -3803.335   -4233.5809            0    2013.2158     18.05293    23.507817    21.963423            0            0            0    9320.9468    331.13076    3830.1988    1878.3179    18.251381    507.74386    145.46722     18.05293    23.507817    21.963423           90           90           90 
  346500    251.29552   -4261.9428   -3831.2308   -4261.9428            0    1880.5711    18.225598     23.39278    21.961465            0            0            0    9363.2138    2283.2726    1537.5919    1820.8489    126.46207   -565.15324   -41.960748    18.225598     23.39278    21.961465           90           90           90 
  347000    254.46198   -4232.1629   -3796.0238   -4232.1629            0    3050.5391    17.921591    23.362543    22.203829            0            0            0    9296.6091    1976.3793    3699.2374    3476.0005    289.44937    420.48604    490.74439    17.921591    23.362543    22.203829           90           90           90 
  347500    270.85123   -4263.3546   -3799.1249   -4263.3546            0     2944.764    17.871964    23.580671    21.973764            0            0            0     9260.467    4385.1985    3018.0382    1431.0553   -150.50654    1069.1752   -254.57247    17.871964    23.580671    21.973764           90           90           90 
  348000    249.90164   -4252.1737   -3823.8509   -4252.1737            0    2122.9814    18.180512    23.334674    21.893893            0            0            0    9288.1848    1822.6257    2240.5517    2305.7668      67.0712    112.73737    302.18726    18.180512    23.334674    21.893893           90           90           90 
  348500    256.90668    -4264.901   -3824.5717    -4264.901            0    2659.5819    17.957872    23.218124    22.236623            0            0            0    9271.5177    3021.4784    2581.7879    2375.4793    42.902006   -639.03935   -1530.1691    17.957872    23.218124    22.236623           90           90           90 
  349000    242.74671   -4272.6678   -3856.6082   -4272.6678            0    1854.6531    17.880707    23.747476    21.996943            0            0            0    9340.3785    2996.0148    -232.0329    2799.9775    587.47334    142.78212   -258.62222    17.880707    23.747476    21.996943           90           90           90 
  349500    269.76835     -4215.37   -3752.9963     -4215.37            0    1552.6486    18.292844    23.522759    21.929041            0            0            0    9436.0262    1093.2061    2845.1547    719.58505   -500.35477    593.47743    334.86507    18.292844    23.522759    21.929041           90           90           90 
  350000    270.22536   -4239.8114   -3776.6544   -4239.8114            0    2415.2159     18.19282    23.158182    22.189295            0            0            0    9348.6301    1638.1786    3839.1159    1768.3533   -404.20134    88.734986   -85.956401     18.19282    23.158182    22.189295           90           90           90 
  350500    266.40839   -4223.9987   -3767.3839   -4223.9987            0    1588.2371    17.994309    23.555155    22.092653            0            0            0    9364.1642    1392.9959    1643.7824     1727.933   -1171.8833   -353.31732    407.24365    17.994309    23.555155    22.092653           90           90           90 
  351000    255.82424    -4225.287    -3786.813    -4225.287            0    2973.8589    17.961761    23.558526    21.968431            0            0            0    9295.9989     3926.832    1442.9454    3551.7993   -929.14399   -58.967028   -1077.5632    17.961761    23.558526    21.968431           90           90           90 
  351500    270.21297   -4244.6179   -3781.4821   -4244.6179            0    3116.8086    18.189974    23.117502    22.139478            0            0            0    9309.8003    1731.9365    4971.3796    2647.1099   -216.14767     -343.482    417.85264    18.189974    23.117502    22.139478           90           90           90 
  352000    263.81066   -4241.8568   -3789.6944   -4241.8568            0    1988.0465    18.104967    23.432647    21.958067            0            0            0    9315.6509    1820.3116     2014.347    2129.4811   -137.46832    -102.0069    516.34199    18.104967    23.432647    21.958067           90           90           90 
  352500    264.52553    -4261.247   -3807.8593    -4261.247            0    2827.2216    17.643478    23.854613    22.065144            0            0            0     9286.741    4487.9985    1372.2515    2621.4148   -835.48837    551.25359    -56.74903    17.643478    23.854613    22.065144           90           90           90 
  353000    250.34316   -4257.9826    -3828.903   -4257.9826            0    1926.9404    18.146197    23.172996    22.208935            0            0            0     9338.896    1218.6579    2124.3419    2437.8215     171.1509    400.91495    223.00138    18.146197    23.172996    22.208935           90           90           90 
  353500    252.19751   -4279.7078   -3847.4499   -4279.7078            0    2177.5628    18.233933    23.323189    21.950243            0            0            0    9334.8558    1198.6126    1486.9305    3847.1452   -535.49706   -333.82281    255.35056    18.233933    23.323189    21.950243           90           90           90 
  354000    257.70889   -4235.2991   -3793.5949   -4235.2991            0     1962.635    17.941404    23.677538    22.105474            0            0            0    9390.5883    1536.1503    1332.9389    3018.8158    1122.6516   -833.81245    -570.2891    17.941404    23.677538    22.105474           90           90           90 
  354500    271.68765   -4243.3379   -3777.6746   -4243.3379            0    1764.4124    18.059172    23.464326    22.070701            0            0            0    9352.3774    1533.7378    1927.9647    1831.5348    -365.3464   -1098.4433    293.13247    18.059172    23.464326    22.070701           90           90           90 
  355000    261.22108   -4223.6508   -3775.9268   -4223.6508            0    3432.3582    18.219838    23.208535    21.883078            0            0            0    9253.3851     2767.305    3629.4192    3900.3505    337.75035   -361.38269    312.37699    18.219838    23.208535    21.883078           90           90           90 
  355500    256.85723    -4242.979   -3802.7345    -4242.979            0    3244.9983    17.877705    23.430292    22.007129            0            0            0     9218.343    3948.1018    2166.9291    3619.9642   -1097.8752    12.481119    36.289613    17.877705    23.430292    22.007129           90           90           90 
  356000     262.2713   -4242.5411    -3793.017   -4242.5411            0    2282.0835    17.944179     23.53691    21.999928            0            0            0    9291.6814    2160.6401    2840.3134    1845.2969   -362.00272    207.37555     430.4295    17.944179     23.53691    21.999928           90           90           90 
  356500    262.00339   -4252.7819   -3803.7171   -4252.7819            0    2237.0067    18.127925     23.32351    21.981479            0            0            0    9293.9196    2881.3668    3164.8452    664.80812    383.79639   -659.15992   -73.907609    18.127925     23.32351    21.981479           90           90           90 
  357000    260.04504   -4225.5518   -3779.8435   -4225.5518            0    1586.8911    18.063155    23.376219    22.192825            0            0            0    9370.8821    2013.6344    1922.4596    824.57934    83.681283   -877.41187    394.94388    18.063155    23.376219    22.192825           90           90           90 
  357500    272.49952   -4218.0234   -3750.9686   -4218.0234            0    312.12295     17.97526    23.820331    22.164604            0            0            0    9490.3661    317.38491    -257.7685    876.75244    37.156218    3.8938958   -740.31393     17.97526    23.820331    22.164604           90           90           90 
  358000    253.01104   -4241.0815   -3807.4293   -4241.0815            0    610.23602    18.270996    23.459528    21.940352            0            0            0    9404.2703    1563.1941    934.86059   -667.34662    -106.2186    110.25414   -895.85492    18.270996    23.459528    21.940352           90           90           90 
  358500    249.62126   -4210.8489   -3783.0066   -4210.8489            0    2790.1141    18.222066     23.10244    22.026078            0            0            0    9272.4101    1820.6781    4734.8225    1814.8417   -1162.0182    222.64197    463.33323    18.222066     23.10244    22.026078           90           90           90 
  359000    254.75731   -4231.2879   -3794.6426   -4231.2879            0    2788.2285     17.85303    23.461176     22.09778            0            0            0    9255.7235    2221.8307    3352.2144    2790.6404    905.41189    418.58988    683.41111     17.85303    23.461176     22.09778           90           90           90 
  359500    256.07283   -4214.5711    -3775.671   -4214.5711            0    1332.8002     18.01771    23.599868    22.032505            0            0            0    9368.5645    975.54287    1110.5135    1912.3441    31.607672   -493.63081   -372.19659     18.01771    23.599868    22.032505           90           90           90 
  360000    259.40793   -4241.4958   -3796.8794   -4241.4958            0    1069.5632    18.189802      23.3708    22.155522            0            0            0    9418.5391    1423.3949    1562.1261     223.1686    8.7164408     226.0654    603.98558    18.189802      23.3708    22.155522           90           90           90 
  360500    262.81662   -4248.3232   -3797.8645   -4248.3232            0    951.27644    18.153686    23.526307    22.002624            0            0            0    9397.0834    1828.4604    333.31291    692.05598   -406.71543   -1.5422324    257.53124    18.153686    23.526307    22.002624           90           90           90 
  361000    271.84099   -4263.2573   -3797.3311   -4263.2573            0    1750.1934    17.840811    23.590194    22.247904            0            0            0    9363.4354    3698.8293    2203.5638   -651.81288    124.03129   -255.83223   -124.40958    17.840811    23.590194    22.247904           90           90           90 
  361500    267.97916   -4252.2868   -3792.9797   -4252.2868            0    2430.4002    18.109668    23.431068     22.01436            0            0            0    9341.3282      2687.33    1667.9793    2935.8913     799.4512   -283.68759   -93.178249    18.109668    23.431068     22.01436           90           90           90 
  362000    257.97246   -4245.4663   -3803.3103   -4245.4663            0    2398.9149    18.221858    23.387763    21.793746            0            0            0    9287.8077    2005.0385     3417.529    1774.1771   -133.91982    -472.1617   -537.96353    18.221858    23.387763    21.793746           90           90           90 
  362500     261.3737   -4225.7547   -3777.7691   -4225.7547            0    1276.5575     17.90256    23.474077    22.236216            0            0            0     9344.683    2124.8826    895.73067    809.05923   -1060.2513    88.995473   -401.81744     17.90256    23.474077    22.236216           90           90           90 
  363000    268.02765   -4227.9048   -3768.5146   -4227.9048            0    3528.3078    18.024388     23.47968     21.98867            0            0            0    9305.7558    4446.4695    3458.8324    2679.6217    88.363981   -751.64788    437.79083    18.024388     23.47968     21.98867           90           90           90 
  363500    267.10074   -4210.6263   -3752.8248   -4210.6263            0    3060.3907    18.146216     23.37106     21.85178            0            0            0    9267.2593    3561.6565    2591.9463    3027.5694    397.97446    713.91018    296.36744    18.146216     23.37106     21.85178           90           90           90 
  364000      260.225   -4223.1308   -3777.1141   -4223.1308            0    3376.0029    17.798952    23.203118    22.443484            0            0            0    9268.9616    5307.3238    3740.3094    1080.3756   -228.15351    233.17273   -121.42964    17.798952    23.203118    22.443484           90           90           90 
  364500     259.9874    -4250.647   -3805.0375    -4250.647            0    2650.7985    17.936695    23.642937    21.948261            0            0            0    9307.7339    2423.4064    3190.1428    2338.8461    1208.1988   -1206.4589    191.85079    17.936695    23.642937    21.948261           90           90           90 
  365000    253.74986   -4235.8337   -3800.9151   -4235.8337            0     2035.286    18.234059    23.502902    21.821113            0            0            0    9351.5096     2956.484     797.3142    2352.0598   -529.35335   -77.316992    -75.44167    18.234059    23.502902    21.821113           90           90           90 
  365500    256.69063   -4240.3617   -3800.4028   -4240.3617            0    1462.3336    18.004805    23.317823    22.282873            0            0            0    9355.0822   -183.68671    3235.0388    1335.6487    351.97458   -28.280832   -16.245999    18.004805    23.317823    22.282873           90           90           90 
  366000    266.03546   -4219.3316   -3763.3559   -4219.3316            0    2065.4829    18.030862    23.509127    21.992809            0            0            0    9322.5275    2309.7787    2291.3246    1595.3453    232.46925   -536.71296    812.20229    18.030862    23.509127    21.992809           90           90           90 
  366500    262.67654   -4254.5897   -3804.3711   -4254.5897            0    2049.6335    18.179781    23.508134    21.794028            0            0            0     9314.173    2989.2955    1816.1202    1343.4849   -1474.1734    143.89685    330.60929    18.179781    23.508134    21.794028           90           90           90 
  367000    267.46533   -4260.7455   -3802.3191   -4260.7455            0    2551.4087    17.901705    23.348305    22.226921            0            0            0    9290.2857    3016.6622    2850.1356    1787.4284    870.74995    446.15181    316.40108    17.901705    23.348305    22.226921           90           90           90 
  367500    276.05722   -4250.1412   -3776.9886   -4250.1412            0    3036.1642    18.087298    23.417864      21.8854            0            0            0    9269.9089    2996.8435    1914.1172    4197.5321    494.23368    384.58521    520.67252    18.087298    23.417864      21.8854           90           90           90 
  368000    267.83814   -4236.7486   -3777.6832   -4236.7486            0    2275.4415    18.013633      23.6074    21.977758            0            0            0    9346.1524    2405.7438    3265.5908    1154.9899   -88.770053    134.20353   -273.71656    18.013633      23.6074    21.977758           90           90           90 
  368500    259.42556   -4241.2749   -3796.6284   -4241.2749            0    1291.7316    17.907958     23.40509    22.406202            0            0            0    9391.2767    1410.0776    1657.0734    808.04375   -2.1166488    439.52013    273.25801    17.907958     23.40509    22.406202           90           90           90 
  369000    266.09111   -4246.9696   -3790.8985   -4246.9696            0    1932.4077    18.319348    23.436951    21.815741            0            0            0    9366.5807    942.18462    3545.3463    1309.6921    461.37461   -465.60782   -288.07749    18.319348    23.436951    21.815741           90           90           90 
  369500    263.52986   -4242.7831   -3791.1019   -4242.7831            0    2685.2084    18.122315    23.356352    21.856875            0            0            0    9251.3851    1648.9524    1725.1313    4681.5414    -811.5615   -482.68587    97.314394    18.122315    23.356352    21.856875           90           90           90 
  370000    257.79979   -4215.2924   -3773.4323   -4215.2924            0    2719.4557    17.846336    23.431862    22.159389            0            0            0    9266.4556    4303.4967    2992.3848    862.48555     -436.544   -680.09161   -18.532107    17.846336    23.431862    22.159389           90           90           90 
  370500    252.83898   -4252.4225   -3819.0652   -4252.4225            0    1566.8955    18.066177     23.48523    21.926099            0            0            0    9302.9875    1362.9337    1424.0635    1913.6893    122.82828   -153.27074    194.74555    18.066177     23.48523    21.926099           90           90           90 
  371000     251.5054     -4236.61   -3805.5384     -4236.61            0    686.43462    18.151528    23.413292    22.007943            0            0            0    9353.0904    623.84792    1436.2136   -0.7576421   -1118.1209    240.44386   -332.11525    18.151528    23.413292    22.007943           90           90           90 
  371500    261.57429   -4262.4758   -3814.1464   -4262.4758            0    612.90033    17.991554    23.554903    22.242341            0            0            0    9426.0661     -32.9776    1037.3351    834.34347    977.39743   -331.66377   -943.26572    17.991554    23.554903    22.242341           90           90           90 
  372000    258.71785   -4240.8172   -3797.3837   -4240.8172            0    1659.0533    18.027202    23.615361     21.99029            0            0            0    9361.6815      2863.87     380.7241    1732.5658   -733.95809   -844.83385   -140.19462    18.027202    23.615361     21.99029           90           90           90 
  372500    246.66021   -4252.9914   -3830.2242   -4252.9914            0    817.36442    18.245623    23.399661    21.968937            0            0            0    9379.4489    102.89114    2427.6346   -78.432473   -495.60124   -727.39003   -174.44848    18.245623    23.399661    21.968937           90           90           90 
  373000     252.2675   -4287.2481   -3854.8703   -4287.2481            0    2249.9872    17.984381    23.240735    22.335598            0            0            0    9335.6151    3764.6313    2517.7473    467.58304   -423.15938     -310.493     -118.396    17.984381    23.240735    22.335598           90           90           90 
  373500    244.35649   -4219.3553   -3800.5367   -4219.3553            0    1287.6685    17.902454    23.887534    21.790768            0            0            0    9318.7231    1806.4355    1715.1697     341.4002   -319.08605   -648.54659    374.53915    17.902454    23.887534    21.790768           90           90           90 
  374000    277.33494   -4239.8542   -3764.5116   -4239.8542            0     1231.234    18.137874    23.584908    21.901034            0            0            0    9368.8262    2170.4219    241.51851    1281.7615    123.91878   -174.64993    311.69629    18.137874    23.584908    21.901034           90           90           90 
  374500    270.31022   -4200.9124     -3737.61   -4200.9124            0    1408.0899    18.140506    23.247958    22.304354            0            0            0    9406.4092    190.19986    890.72783    3143.3421    385.85145   -350.05047    250.69584    18.140506    23.247958    22.304354           90           90           90 
  375000    277.04093   -4230.2662   -3755.4275   -4230.2662            0    3649.2983    17.967835    23.619527    21.938311            0            0            0    9310.4388    4078.8901    1702.6578    5166.3468   -367.77838   -103.15748    328.67694    17.967835    23.619527    21.938311           90           90           90 
  375500    254.70092   -4234.8626   -3798.3139   -4234.8626            0    3080.8784    18.048555    23.394758    21.924099            0            0            0     9257.266    3389.3086    3480.8325     2372.494   -93.345282   -36.738578    682.49856    18.048555    23.394758    21.924099           90           90           90 
  376000    265.27971    -4225.845   -3771.1646    -4225.845            0    2803.8215    18.108646    23.148702    22.109057            0            0            0    9267.9322    3570.0361    3999.1566    842.27165    1210.6413    566.99643    480.38311    18.108646    23.148702    22.109057           90           90           90 
  376500    261.59316   -4209.3447    -3760.983   -4209.3447            0    2447.4054     17.91866    23.539734    22.115898            0            0            0    9328.4962    2871.1186    2549.5681    1921.5294     -1755.48    276.68159    55.954341     17.91866    23.539734    22.115898           90           90           90 
  377000    244.10379   -4253.4949   -3835.1094   -4253.4949            0    656.80972    18.080982    23.763305    21.937516            0            0            0    9425.7583    1913.4644   -28.714255     85.67901    1341.9755    18.280493   -102.18743    18.080982    23.763305    21.937516           90           90           90 
  377500     249.9469   -4253.0935    -3824.693   -4253.0935            0    1337.1442    18.174475    23.168299    22.229426            0            0            0    9360.1813    1023.7233    2128.7736    858.93575   -756.96622    438.47871   -405.85802    18.174475    23.168299    22.229426           90           90           90 
  378000    248.55092   -4229.6673   -3803.6596   -4229.6673            0    1751.7897    18.063441    23.372904    22.127527            0            0            0     9342.133    1077.0248    1759.0516    2419.2926   -418.68163    381.53904    189.05181    18.063441    23.372904    22.127527           90           90           90 
  378500    248.96088   -4241.8088   -3815.0984   -4241.8088            0     2628.798    17.987735    23.569115    21.920915            0            0            0    9293.4818    3142.9627    2112.2316    2631.1996   -260.87851   -227.66242   -1.1536543    17.987735    23.569115    21.920915           90           90           90 
  379000    256.61756   -4239.2133   -3799.3796   -4239.2133            0    2754.8364    18.012647    23.309992     22.16668            0            0            0    9307.2269    2982.3967    3272.0996    2010.0129     944.9002   -294.69847    238.65499    18.012647    23.309992     22.16668           90           90           90 
  379500    256.58616   -4257.8925   -3818.1126   -4257.8925            0    361.90354    18.134157    23.523861    22.093663            0            0            0    9424.8336    360.62348    33.861936    691.22519    179.71207    539.58853    561.96334    18.134157    23.523861    22.093663           90           90           90 
  380000    249.16564   -4250.6682   -3823.6069   -4250.6682            0    1625.1286    17.963212    23.909516    21.814516            0            0            0    9369.1541    1095.4181    1883.6522    1896.3154   -309.40694   -441.47536   -338.31614    17.963212    23.909516    21.814516           90           90           90 
  380500    269.61679   -4239.2707   -3777.1567   -4239.2707            0    1330.0027    17.988622    23.229546    22.473598            0            0            0    9390.9866    960.41073    3308.0605   -278.46305   -363.82172   -383.97496    -455.5454    17.988622    23.229546    22.473598           90           90           90 
  381000    265.58959   -4249.9553   -3794.7439   -4249.9553            0    1298.9974     18.26776    23.161039    22.049836            0            0            0    9329.2926     269.9708    2185.2685    1441.7528   -455.40757    475.63476   -60.566881     18.26776    23.161039    22.049836           90           90           90 
  381500    265.86939   -4199.4792   -3743.7882   -4199.4792            0    2898.6223    18.102009    23.630974    21.783416            0            0            0    9318.2507    2346.3438    3317.6854    3031.8379   -77.273878    923.35557    102.62073    18.102009    23.630974    21.783416           90           90           90 
  382000    257.80353   -4245.9102   -3804.0438   -4245.9102            0    1951.9151      17.8603    23.551897    22.236642            0            0            0    9353.7084    4849.0101    2009.4749   -1002.7398    63.228759   -157.19597    376.00409      17.8603    23.551897    22.236642           90           90           90 
  382500    267.92871   -4233.4752   -3774.2545   -4233.4752            0    1679.4815    18.159922    23.276983    22.120367            0            0            0      9350.46    468.50035    2129.3864    2440.5579    23.947383   -476.00325    360.23726    18.159922    23.276983    22.120367           90           90           90 
  383000      262.137   -4221.8596   -3772.5657   -4221.8596            0    2383.4209    18.144663    23.358643    21.909274            0            0            0    9285.9108    2478.9622    935.80287    3735.4976    151.96437    27.148753    55.109297    18.144663    23.358643    21.909274           90           90           90 
  383500    264.52758   -4191.9354   -3738.5441   -4191.9354            0    2507.5503    17.932254     23.50194    21.998302            0            0            0    9271.0249    3045.3375    2023.4103    2453.9031   -189.36155   -310.14256    814.93922    17.932254     23.50194    21.998302           90           90           90 
  384000    249.93419   -4245.0429   -3816.6643   -4245.0429            0    2305.4476    17.944825    23.414139    22.149643            0            0            0     9306.452    3948.6229     1648.688     1319.032   -485.17232    432.50895    586.25023    17.944825    23.414139    22.149643           90           90           90 
  384500    258.47499   -4243.8239   -3800.8066   -4243.8239            0    95.396344    18.273469    23.557025    21.975777            0            0            0    9459.8811   -610.28882   -1023.0062     1919.484    1526.7955   -353.07157   -196.92849    18.273469    23.557025    21.975777           90           90           90 
  385000    272.71545   -4280.5834   -3813.1585   -4280.5834            0    77.694175    18.124038    23.435708    22.143414            0            0            0    9405.4076    437.99542   -58.988113   -145.92478    777.64362    674.45671    613.98895    18.124038    23.435708    22.143414           90           90           90 
  385500    257.53663   -4232.2872   -3790.8782   -4232.2872            0    1090.5004    18.062348    23.454277    22.117265            0            0            0    9369.7426    1875.7371    1256.3552    139.40898   -917.89557   -429.56393   -76.963885    18.062348    23.454277    22.117265           90           90           90 
  386000    255.83088   -4226.3456   -3787.8602   -4226.3456            0    1851.6079    18.069771    23.504691    22.071675            0            0            0    9374.3782    2195.2117    1686.0017    1673.6104     184.0129    748.89015    235.82236    18.069771    23.504691    22.071675           90           90           90 
  386500    256.37649   -4229.2958   -3789.8753   -4229.2958            0    2036.1206    18.094171    23.426902    21.947982            0            0            0    9303.5383    2069.0107    2296.0784    1743.2726   -327.43212   -635.55056    124.41702    18.094171    23.426902    21.947982           90           90           90 
  387000     244.0467   -4217.6185   -3799.3309   -4217.6185            0    2898.9978    18.010241    23.295747    22.134741            0            0            0    9286.8968     2047.139    3996.6217    2653.2327    736.01999    435.66872    639.37961    18.010241    23.295747    22.134741           90           90           90 
  387500    258.98925   -4227.3982   -3783.4995   -4227.3982            0    1396.6004    17.961202    23.655321    22.055325            0            0            0    9370.8224    1319.6684    1677.9774    1192.1555   -1201.6184   -14.286372   -1054.5332    17.961202    23.655321    22.055325           90           90           90 
  388000    252.38527   -4256.9404   -3824.3607   -4256.9404            0    1807.7702    18.176438    23.605211    21.906104            0            0            0    9399.0038     1448.526    1314.1374    2660.6472   -55.678299    43.780124    1215.9831    18.176438    23.605211    21.906104           90           90           90 
  388500    248.23638   -4280.6501   -3855.1815   -4280.6501            0    664.29031    18.176924    23.274194    22.294669            0            0            0    9431.8322   -168.98527    1549.0957    612.76046    165.54513    561.45921    680.89931    18.176924    23.274194    22.294669           90           90           90 
  389000    264.55109   -4254.4588   -3801.0273   -4254.4588            0    2759.5187     17.94975    23.436372     22.04934            0            0            0     9275.651    4231.9724    1331.0367    2715.5469   -33.243536   -238.17086   -436.89293     17.94975    23.436372     22.04934           90           90           90 
  389500    254.29303   -4246.2365   -3810.3869   -4246.2365            0     2144.294    18.111529    23.582438    21.868155            0            0            0    9340.1955    1153.4337    347.75545    4931.6929   -234.53913   -176.76327   -894.18137    18.111529    23.582438    21.868155           90           90           90 
  390000    243.83912     -4266.38   -3848.4481     -4266.38            0     2198.265    18.041464    23.310305    22.183617            0            0            0     9329.365     1284.091     2909.672    2401.0319     411.7688   -247.63313    1258.6263    18.041464    23.310305    22.183617           90           90           90 
  390500     256.9059   -4216.4465   -3776.1186   -4216.4465            0     2485.706    18.045833    23.488599    22.012118            0            0            0     9330.306    3830.0752    2353.8763    1273.1665   -516.73305    752.03033    250.46461    18.045833    23.488599    22.012118           90           90           90 
  391000    244.23289   -4214.8753   -3796.2685   -4214.8753            0    2910.1013    18.073728    23.568573    21.804574            0            0            0    9288.1377    1993.3552    3365.6057    3371.3431   -67.097281    304.86098   -1085.7632    18.073728    23.568573    21.804574           90           90           90 
  391500    255.71772   -4209.9922   -3771.7007   -4209.9922            0    2389.2052    18.039132    23.182962    22.271779            0            0            0    9314.0696    1525.2115    2537.3837    3105.0206   -779.34745   -446.24437    613.72019    18.039132    23.182962    22.271779           90           90           90 
  392000    250.01735   -4297.1954   -3868.6742   -4297.1954            0    1333.4007      18.0677    23.376489     22.14487            0            0            0     9353.094    3244.1187    583.56932      172.514    436.30379    1037.0194    91.147582      18.0677    23.376489     22.14487           90           90           90 
  392500    259.50687   -4270.5372   -3825.7513   -4270.5372            0    1492.0295    18.059199    23.745061    21.820263            0            0            0     9356.895    1183.4833   -113.39987     3406.005    134.54441     245.5269    202.53549    18.059199    23.745061    21.820263           90           90           90 
  393000    277.48137   -4253.7644   -3778.1708   -4253.7644            0    2033.1988    18.016906    23.344633    22.159067            0            0            0    9320.0606    3347.1279    1359.1255     1393.343   -481.39627   -451.31307    109.17808    18.016906    23.344633    22.159067           90           90           90 
  393500    274.53681   -4228.4515   -3757.9048   -4228.4515            0    2697.1516    18.139664    23.324757    21.924421            0            0            0    9276.2941    2860.4167    4900.6592    330.37895   -625.44083    334.54168   -230.50484    18.139664    23.324757    21.924421           90           90           90 
  394000    256.91502   -4263.0738   -3822.7302   -4263.0738            0    3225.1193    17.967169    23.618811    21.895635            0            0            0     9291.701    3980.7105    2354.4071    3340.2402    673.19216   -410.58854   -209.88284    17.967169    23.618811    21.895635           90           90           90 
  394500    262.60001   -4250.4596   -3800.3722   -4250.4596            0    1013.3487    18.019209    23.420145    22.324619            0            0            0    9421.2682   -490.39457      2116.41    1414.0305   -1018.4592    277.43936    325.23755    18.019209    23.420145    22.324619           90           90           90 
  395000    270.59897   -4260.9881   -3797.1907   -4260.9881            0    1023.6587     18.24051    23.410471    22.013808            0            0            0    9400.3125     2558.808    700.26218   -188.09415    572.30392   -183.08289    65.993079     18.24051    23.410471    22.013808           90           90           90 
  395500     253.9167   -4266.0447   -3830.8401   -4266.0447            0    2262.3832    18.020283    23.549099     21.91506            0            0            0    9299.9064    3563.8087    1202.3156    2021.0252    800.23082    476.81679    22.105853    18.020283    23.549099     21.91506           90           90           90 
  396000    253.75301   -4250.7271   -3815.8032   -4250.7271            0    3505.8703    17.809412    23.291751    22.232782            0            0            0    9222.4332    3157.5787      4403.63    2956.4022    877.46881   -48.178118    708.05173    17.809412    23.291751    22.232782           90           90           90 
  396500    256.71907   -4260.2101   -3820.2024   -4260.2101            0    3246.6945    18.063143    23.391643    21.869536            0            0            0      9240.46    3846.3021    2619.6924     3274.089   -395.42999   -218.07538    586.05516    18.063143    23.391643    21.869536           90           90           90 
  397000    253.53671   -4260.4821   -3825.9289   -4260.4821            0    2397.4827    18.223491      23.3978    21.749104            0            0            0    9273.5915    2186.9201    2703.0851    2302.4428   -1310.9175    606.43112    983.52641    18.223491      23.3978    21.749104           90           90           90 
  397500    275.87489   -4264.5778   -3791.7377   -4264.5778            0     1258.661    17.779388    23.353613    22.445014            0            0            0    9319.4604    2993.2025    1394.6968   -611.91624    1184.6891   -527.49215   -115.00534    17.779388    23.353613    22.445014           90           90           90 
  398000    258.09415    -4245.807   -3803.4424    -4245.807            0    1775.2131    18.070252    23.548714    22.054273            0            0            0    9384.7807    1604.0939    2034.2271    1687.3183     1278.643    380.04987    86.535054    18.070252    23.548714    22.054273           90           90           90 
  398500    256.91913   -4207.2234   -3766.8728   -4207.2234            0     1086.992    18.191409    23.521826    21.952242            0            0            0     9393.258    1009.8279     660.8815    1590.2665    76.596132    883.30735    480.41886    18.191409    23.521826    21.952242           90           90           90 
  399000    241.16071   -4269.5598   -3856.2186   -4269.5598            0    1913.1071    18.034341    23.387582    22.174422            0            0            0    9352.7193    1083.1417    2457.7075    2198.4722    -755.8238   -317.75744   -551.24658    18.034341    23.387582    22.174422           90           90           90 
  399500    253.12658   -4256.6635   -3822.8132   -4256.6635            0    2074.2972     17.96053    23.345428    22.083527            0            0            0    9259.5403    1333.3795    3110.9392     1778.573     871.3448    84.351078    409.82602     17.96053    23.345428    22.083527           90           90           90 
  400000    261.36282   -4245.4981   -3797.5312   -4245.4981            0    1776.6806    18.099504    23.555457     21.76864            0            0            0    9280.8876    1473.3576    2346.8104    1509.8737    213.88297    -217.3916   -179.72396    18.099504    23.555457     21.76864           90           90           90 
  400500     263.4941   -4237.3518   -3785.7319   -4237.3518            0    3019.5943    18.018858    23.197705     22.22922            0            0            0    9291.7283    2871.3417    2929.6574    3257.7839   -71.346163     622.0572    440.28979    18.018858    23.197705     22.22922           90           90           90 
  401000    258.91684   -4249.2423   -3805.4677   -4249.2423            0    2550.9735    18.006143    23.421265    22.027587            0            0            0      9289.62    3218.9225    2792.9435    1641.0547   -886.22207    -836.6263    37.972718    18.006143    23.421265    22.027587           90           90           90 
  401500    268.50735   -4251.9804    -3791.768   -4251.9804            0    1537.8651    18.025396     23.69531    21.813906            0            0            0    9317.0973    2223.7811     476.1873    1913.6268   -611.67914   -221.17934    546.70377    18.025396     23.69531    21.813906           90           90           90 
  402000    266.20153   -4240.6802   -3784.4199   -4240.6802            0    2378.8213     17.92927    23.312121    22.227795            0            0            0    9290.5362    1800.5294    2604.9932    2730.9415     709.8081    126.78137    372.59027     17.92927    23.312121    22.227795           90           90           90 
  402500    256.02383   -4227.9377   -3789.1216   -4227.9377            0    1243.5334    18.189482    23.200177    22.143015            0            0            0    9344.3345    1241.4651    1844.3808    644.75448    290.27932    42.003306    152.04246    18.189482    23.200177    22.143015           90           90           90 
  403000    267.61499   -4249.2676   -3790.5847   -4249.2676            0    2550.2553    18.108122     23.71697    21.753776            0            0            0      9342.59    2211.4498    2116.3318    3322.9843    131.16994    -644.0323    845.03858    18.108122     23.71697    21.753776           90           90           90 
  403500    256.22459   -4238.6018   -3799.4416   -4238.6018            0    1403.5994    17.906185    23.493914    22.268817            0            0            0    9368.1878    3261.2037    1877.2688   -927.67429    95.197055    917.46204    1182.2126    17.906185    23.493914    22.268817           90           90           90 
  404000    250.87186   -4262.4869   -3832.5011   -4262.4869            0    965.72292    18.201567    23.300999    22.126948            0            0            0    9384.3638     693.6659    318.55157    1884.9513    64.088488    1220.7294    157.06256    18.201567    23.300999    22.126948           90           90           90 
  404500    256.01488   -4252.0288   -3813.2281   -4252.0288            0    2556.7938    18.077147    23.520363    21.917882            0            0            0     9319.068    904.79072    2959.6788    3805.9119    36.556974   -487.41753   -905.72696    18.077147    23.520363    21.917882           90           90           90 
  405000    259.11905    -4240.451   -3796.3298    -4240.451            0    2127.0133    17.910934     23.52841    22.138125            0            0            0    9329.3558    2786.1251    1604.1728    1990.7422    208.43333   -201.74952    122.12492    17.910934     23.52841    22.138125           90           90           90 
  405500    266.28423   -4223.9433   -3767.5412   -4223.9433            0    2361.1438    18.187332    23.291164    22.055366            0            0            0    9342.7443    3125.6335    2786.4305    1171.3674   -1334.2298   -417.51705    402.50313    18.187332    23.291164    22.055366           90           90           90 
  406000    265.44832   -4223.2345   -3768.2652   -4223.2345            0     2182.535    18.332397    23.411401    21.669841            0            0            0    9300.4162    1167.9122    2248.8794    3130.8133    -757.5687    269.90139   -363.19433    18.332397    23.411401    21.669841           90           90           90 
  406500    255.30975   -4212.3954   -3774.8032   -4212.3954            0    1746.8078    17.758462    23.625507    22.333249            0            0            0    9369.9742     1501.147    2043.1804     1696.096   -207.17616    321.70197   -332.66079    17.758462    23.625507    22.333249           90           90           90 
  407000    251.91384   -4240.8281   -3809.0564   -4240.8281            0    1613.9984    17.976201    23.554644    22.163724            0            0            0    9384.6311    2749.5055     997.8171    1094.6724    492.39447    187.24482    -572.6243    17.976201    23.554644    22.163724           90           90           90 
  407500    269.91332   -4237.6427   -3775.0205   -4237.6427            0    2003.5096    18.275582    23.356305    21.908523            0            0            0    9351.6543    632.97849    3572.4672    1805.0831    515.41375     56.29931    369.61577    18.275582    23.356305    21.908523           90           90           90 
  408000    255.87463   -4238.6068   -3800.0464   -4238.6068            0    2441.7299     17.98972    23.419689    22.189381            0            0            0    9348.6889    2288.3333    3219.7859    1817.0703   -1476.0983   -491.46918   -521.19135     17.98972    23.419689    22.189381           90           90           90 
  408500    247.49083   -4224.6827   -3800.4919   -4224.6827            0    1615.8524    17.941148      23.5977    22.234063            0            0            0    9413.2316    3048.6415    594.45297    1204.4628   -250.02218   -207.67041    452.76286    17.941148      23.5977    22.234063           90           90           90 
  409000    269.87242   -4234.9998   -3772.4477   -4234.9998            0    1777.9913    18.315537    23.424859    21.801418            0            0            0    9353.6559    1166.2105    1595.6863    2572.0772   -581.39093   -966.85277   -824.30421    18.315537    23.424859    21.801418           90           90           90 
  409500    259.05966   -4227.2955   -3783.2761   -4227.2955            0    1620.1471    18.007108    23.263962    22.242844            0            0            0    9317.8982    1765.1367    2303.7433    791.56118   -1068.8409   -857.93428    331.11458    18.007108    23.263962    22.242844           90           90           90 
  410000    251.84972   -4233.0814   -3801.4196   -4233.0814            0    2317.6265    17.836157     23.62808    22.148769            0            0            0    9334.2473    3903.4485    577.02692    2472.4042   -410.88133    -310.8656     666.8661    17.836157     23.62808    22.148769           90           90           90 
  410500    255.22049   -4253.9051   -3816.4659   -4253.9051            0    1253.4278    18.230618    23.633091    21.921182            0            0            0    9444.6503    1031.2359     740.5517    1988.4958    436.99518   -532.86987   -819.66889    18.230618    23.633091    21.921182           90           90           90 
  411000     262.0026   -4219.6268   -3770.5633   -4219.6268            0    1974.9597    18.102545    23.318992    22.230684            0            0            0    9384.3077    1765.6006    1344.9082    2814.3702   -89.441261    323.17842    55.551677    18.102545    23.318992    22.230684           90           90           90 
  411500    256.91014   -4226.3902    -3786.055   -4226.3902            0    1967.7952      18.0267    23.455478    22.098823            0            0            0    9343.9318    2881.2718    2115.2857    906.82819    73.090554   -200.90469    441.74759      18.0267    23.455478    22.098823           90           90           90 
  412000    255.13912   -4217.0294   -3779.7297   -4217.0294            0    3397.9658    17.987765    23.597554    21.934004            0            0            0    9310.2664    4687.1297    2354.1078    3152.6599   -1639.9514    -461.5564    1229.6183    17.987765    23.597554    21.934004           90           90           90 
  412500    267.17719   -4228.6164   -3770.6839   -4228.6164            0    2134.7802    18.048131    23.269841    22.103762            0            0            0    9283.0747    1286.9432    2559.9279    2557.4696    93.278055   -113.14381   -409.43333    18.048131    23.269841    22.103762           90           90           90 
  413000    245.81124   -4260.8286   -3839.5165   -4260.8286            0    2010.9051    18.086332    23.319633    22.127828            0            0            0    9332.7793    1005.2512    4537.4679    489.99631    290.00029    836.37046    160.69551    18.086332    23.319633    22.127828           90           90           90 
  413500    255.42802   -4254.3718   -3816.5769   -4254.3718            0    1359.8142    17.993548    23.736211     21.94141            0            0            0    9371.1464    2687.1114    305.13401    1087.1972   -237.10583    816.29427   -211.46458    17.993548    23.736211     21.94141           90           90           90 
  414000    252.00945   -4252.4603   -3820.5247   -4252.4603            0       2399.1    17.987256    23.431355    22.164573            0            0            0    9341.6089    2787.1917    1979.8498    2430.2586   -697.04216   -341.57087   -61.425567    17.987256    23.431355    22.164573           90           90           90 
  414500    249.13966   -4252.4058    -3825.389   -4252.4058            0    2738.3485    18.190269    23.171273    22.067837            0            0            0    9301.4097    1870.6289    3751.4058    2593.0108    617.13838    181.86977    293.08889    18.190269    23.171273    22.067837           90           90           90 
  415000    262.82489   -4254.8457   -3804.3728   -4254.8457            0    3009.1686    18.054366    23.516802    21.843133            0            0            0    9274.1783    2239.2743     2901.264    3886.9675   -267.25246    719.08619   -518.73021    18.054366    23.516802    21.843133           90           90           90 
  415500    265.79954   -4241.3204   -3785.7491   -4241.3204            0    3305.4726     17.79625    23.452942    22.124549            0            0            0    9234.2209    3255.2594    3351.6829    3309.4754    304.98257   -1027.2139    369.18123     17.79625    23.452942    22.124549           90           90           90 
  416000    258.46961   -4227.5593   -3784.5512   -4227.5593            0    1120.1213    18.114177    23.432969    22.021666            0            0            0    9347.5129    6.5648476    537.67313    2816.1258   -510.71494   -592.26874   -326.93974    18.114177    23.432969    22.021666           90           90           90 
  416500    256.83612   -4227.4614    -3787.253   -4227.4614            0    1372.9365    18.200352    23.375513    22.021769            0            0            0    9368.9981     807.6077    2171.1559    1140.0459    409.43407     527.4523   -468.40437    18.200352    23.375513    22.021769           90           90           90 
  417000    257.93331   -4251.8143   -3809.7254   -4251.8143            0    1159.4158    17.998943    23.620835    22.071676            0            0            0    9383.7745    1538.0873   -405.81738    2345.9775    343.13452    207.29518    406.38695    17.998943    23.620835    22.071676           90           90           90 
  417500    263.48433   -4215.0666   -3763.4635   -4215.0666            0    1468.3217    18.115085    23.453913    22.055235            0            0            0    9370.5995    1414.1126    1744.6488    1246.2036   -424.87248     178.7426    469.07309    18.115085    23.453913    22.055235           90           90           90 
  418000    253.11235     -4245.47   -3811.6441     -4245.47            0    2424.1241    18.119429    23.291321    22.064477            0            0            0    9311.7705     3328.554     3552.466    391.35233   -411.13542    60.401583   -285.54213    18.119429    23.291321    22.064477           90           90           90 
  418500    272.80578   -4236.1874   -3768.6076   -4236.1874            0     3166.786    17.880146    23.549682     22.07554            0            0            0    9295.3868    3522.5559    2831.9865    3145.8156    105.47452    790.01491     1778.171    17.880146    23.549682     22.07554           90           90           90 
  419000    253.10074    -4224.446     -3790.64    -4224.446            0     2588.673    17.962906    23.691855    21.946084            0            0            0    9339.6952    3312.2585    910.56178    3543.1986    1068.5843    166.86224    174.08972    17.962906    23.691855    21.946084           90           90           90 
  419500    275.47542   -4251.2962   -3779.1408   -4251.2962            0    2318.1236    18.366058    23.122383    22.006973            0            0            0     9345.636    1098.7475    2006.7551    3848.8683    602.22818    195.04256    92.862434    18.366058    23.122383    22.006973           90           90           90 
  420000    263.21948   -4255.9104   -3804.7612   -4255.9104            0    3100.8965    17.961077    23.339614    22.211808            0            0            0    9311.2922    3370.6383    4141.3295    1790.7216   -503.56028   -676.17922   -87.533143    17.961077    23.339614    22.211808           90           90           90 
  420500    272.98508   -4244.6759   -3776.7888   -4244.6759            0    3715.3462    17.815478    23.661486    22.001672            0            0            0    9274.5997     4364.808    3380.1791    3401.0517    189.06655    97.743984    594.01429    17.815478    23.661486    22.001672           90           90           90 
  421000    266.39085   -4195.4829   -3738.8981   -4195.4829            0    2161.8889    18.194611    23.491496    21.927273            0            0            0    9372.1249    1231.5077    1197.2733    4056.8856    632.98406   -224.99988   -103.52271    18.194611    23.491496    21.927273           90           90           90 
  421500    271.63287   -4248.8965   -3783.3271   -4248.8965            0    1509.1257    18.157532    23.303153    22.204884            0            0            0    9395.5026     2297.623     1091.026     1138.728   -736.95544    851.92257   -732.70581    18.157532    23.303153    22.204884           90           90           90 
  422000    265.78398   -4231.3486   -3775.8039   -4231.3486            0    2000.0423    17.960361    23.494291    22.073161            0            0            0    9314.1225    2510.0948    2210.9596    1279.0725    201.11543    676.65374    286.48984    17.960361    23.494291    22.073161           90           90           90 
  422500    250.32276   -4241.2901   -3812.2455   -4241.2901            0     4021.724      17.9457     23.45377    21.860103            0            0            0    9200.7935    3306.6241    4552.4998    4206.0483   -1355.6008   -67.223503     1234.972      17.9457     23.45377    21.860103           90           90           90 
  423000    267.64881   -4227.1462   -3768.4053   -4227.1462            0    3110.5611    18.051527    23.340161    22.007748            0            0            0    9272.4264    2439.5497    2753.7745    4138.3593    1176.1815    121.01287    247.79585    18.051527    23.340161    22.007748           90           90           90 
  423500    261.79426   -4243.7912   -3795.0848   -4243.7912            0    1690.5083    18.044407    23.394139    22.078501            0            0            0    9320.0719    1372.8878    972.84328    2725.7937    245.50181   -87.198439    1532.1064    18.044407    23.394139    22.078501           90           90           90 
  424000    249.38054   -4253.4198   -3825.9901   -4253.4198            0    1849.5427      18.0818    23.502558    21.995207            0            0            0    9347.2712    1380.5215    3366.3518    801.75486   -599.34381   -1025.2792   -774.47184      18.0818    23.502558    21.995207           90           90           90 
  424500    270.93817    -4237.245   -3772.8662    -4237.245            0    1542.5194    18.048919    23.354958    22.025195            0            0            0    9284.3189     908.4105    2760.1019    959.04581    219.20966   -189.93565    604.14764    18.048919    23.354958    22.025195           90           90           90 
  425000    260.92325   -4201.3715   -3754.1579   -4201.3715            0    2622.6911    18.014411    23.383239    21.995447            0            0            0    9265.2583    2925.3352    3692.6261    1250.1119    464.23287   -1061.4406    260.93598    18.014411    23.383239    21.995447           90           90           90 
  425500    251.57327   -4234.5048   -3803.3169   -4234.5048            0    1601.5566    18.107719    23.499741    21.966019            0            0            0     9347.128    2209.5813    626.26692    1968.8215    371.11483     386.2883   -1560.0009    18.107719    23.499741    21.966019           90           90           90 
  426000    265.34036   -4250.4965   -3795.7122   -4250.4965            0    1736.5057    18.003122    23.445254    22.197808            0            0            0    9369.4228    1469.1329    517.12642    3223.2578   -1230.9364   -646.21206    784.21236    18.003122    23.445254    22.197808           90           90           90 
  426500    269.86838   -4260.5484   -3798.0033   -4260.5484            0    633.64315    18.038303    23.410985    22.192446            0            0            0    9371.7466    1331.1791    372.35497    197.39541    83.356896    338.49065     126.3068    18.038303    23.410985    22.192446           90           90           90 
  427000    255.78108   -4247.7225   -3809.3225   -4247.7225            0    2687.9817    18.187025    23.372171    21.770388            0            0            0    9253.9448     4512.395    1933.3628    1618.1874     1035.022     990.1749   -20.024609    18.187025    23.372171    21.770388           90           90           90 
  427500     264.0461   -4223.8737   -3771.3077   -4223.8737            0    1827.5305    17.951365    23.363551     22.18846            0            0            0    9306.0094    1654.6739    2610.4863    1217.4313   -974.99358   -351.61523    -915.6857    17.951365    23.363551     22.18846           90           90           90 
  428000    260.88351   -4225.3456   -3778.2002   -4225.3456            0    2069.3757    17.975967    23.631925     22.03933            0            0            0    9362.4557    3488.2644    2511.4926    208.37001   -781.49996   -1028.0928   -60.991877    17.975967    23.631925     22.03933           90           90           90 
  428500    270.23918   -4230.7632   -3767.5825   -4230.7632            0    462.70475    18.205391    23.582176    21.998663            0            0            0    9444.5262    1139.3095    597.56133   -348.75653    80.795507    294.81076   -56.705757    18.205391    23.582176    21.998663           90           90           90 
  429000    266.30297   -4251.4775   -3795.0434   -4251.4775            0    338.26989    18.211245    23.279375     22.27836            0            0            0    9444.8308    820.37286    1337.2825   -1142.8457   -1036.3069   -860.92578   -19.502655    18.211245    23.279375     22.27836           90           90           90 
  429500    260.93249   -4230.4038   -3783.1744   -4230.4038            0    2456.3173    18.067405    23.611696     21.86171            0            0            0     9326.251    2054.3267    2482.0166    2832.6085      202.092   -157.62123   -311.10353    18.067405    23.611696     21.86171           90           90           90 
  430000     251.3496   -4250.4729   -3819.6683   -4250.4729            0     2794.134    17.884892     23.66988    21.914762            0            0            0    9277.2471    3156.9742    1328.4896     3896.938    4.3937571     263.6249     751.8885    17.884892     23.66988    21.914762           90           90           90 
  430500    254.18271   -4235.5074   -3799.8469   -4235.5074            0    3618.6605    17.966516    23.054575    22.347673            0            0            0    9256.6382    4909.1564    4458.8902    1487.9351    1815.3057   -750.85312     1136.027    17.966516    23.054575    22.347673           90           90           90 
  431000    263.78088   -4214.0707   -3761.9593   -4214.0707            0    2653.6673    18.165934    23.431986    21.931434            0            0            0    9335.4197     2083.574     1887.653    3989.7748    819.41516     13.05196    174.95749    18.165934    23.431986    21.931434           90           90           90 
  431500     253.7273   -4229.3431   -3794.4632   -4229.3431            0    1373.0948    18.017116    23.636574    22.023976            0            0            0    9379.1942    1930.1407    1453.3927    735.75106   -357.35416   -367.19945   -517.25023    18.017116    23.636574    22.023976           90           90           90 
  432000    258.06246   -4236.4169   -3794.1067   -4236.4169            0    2628.1937      18.0009    23.296131    22.118082            0            0            0    9275.2467     2656.283    1972.5998    3255.6982   -945.71741    244.59124   -658.43481      18.0009    23.296131    22.118082           90           90           90 
  432500    271.96379    -4260.239   -3794.1024    -4260.239            0     2978.862    18.024844    23.305837    22.030941            0            0            0    9254.8471    2733.1466    2730.6839    3472.7556   -1080.5639    83.397365   -143.77123    18.024844    23.305837    22.030941           90           90           90 
  433000    271.33134   -4263.9744   -3798.9218   -4263.9744            0    1094.6828    18.118816    23.583367    21.890375            0            0            0    9353.8162    1590.7744     1059.373    633.90102   -411.58624   -176.27736   -219.21373    18.118816    23.583367    21.890375           90           90           90 
  433500     265.7601   -4256.3869   -3800.8832   -4256.3869            0    1673.7188    17.944897    23.490762    22.190976            0            0            0    9354.3689    2835.2636    1922.8022    263.09061    291.09901     411.1409    1213.3129    17.944897    23.490762    22.190976           90           90           90 
  434000     256.3491   -4226.0085   -3786.6349   -4226.0085            0      244.925      18.0888    23.518958    22.194272            0            0            0     9442.103    725.17088    996.65855   -987.05442   -1064.8425    80.156011   -967.44193      18.0888    23.518958    22.194272           90           90           90 
  434500    255.67062   -4207.5586   -3769.3479   -4207.5586            0     407.4901    18.389168    23.440837    21.893462            0            0            0    9437.3404   -790.44357    2042.2528   -29.338986    1104.3004     649.8042   -787.89403    18.389168    23.440837    21.893462           90           90           90 
  435000    263.25749   -4264.3883   -3813.1739   -4264.3883            0    1750.4948    17.969503    23.461348    22.110688            0            0            0    9321.6176    2812.1514     429.3196    2010.0134   -288.77858    819.16526   -223.60759    17.969503    23.461348    22.110688           90           90           90 
  435500    252.72945   -4280.0002   -3846.8306   -4280.0002            0    2619.9897    17.894257    23.486161     21.99665            0            0            0    9244.4747    2199.8548    2309.2511    3350.8632    647.11784    120.55303   -983.58327    17.894257    23.486161     21.99665           90           90           90 
  436000    252.44087   -4249.3962   -3816.7212   -4249.3962            0    2556.7399    18.172648    23.253902    21.821679            0            0            0    9221.5135    1293.7974    3494.1539    2882.2684   -386.31178   -521.40082    143.82156    18.172648    23.253902    21.821679           90           90           90 
  436500    248.39868   -4221.4543   -3795.7075   -4221.4543            0    3274.4325    17.987584    23.352181    22.003579            0            0            0    9242.5882     4365.096    2472.8829    2985.3187    223.76036    25.480267    94.634381    17.987584    23.352181    22.003579           90           90           90 
  437000    264.53324    -4242.168   -3788.7671    -4242.168            0    2298.1958    17.950815    23.576503    22.089529            0            0            0    9348.6741     1639.665    1641.4106    3613.5118   -1529.9766    410.73081    671.99835    17.950815    23.576503    22.089529           90           90           90 
  437500    269.24973   -4251.1092   -3789.6244   -4251.1092            0    1439.6862    18.072094    23.515265    22.101256            0            0            0    9392.3724    2771.9086    2144.4319   -597.28199    381.88024   -735.41527   -100.27215    18.072094    23.515265    22.101256           90           90           90 
  438000    255.69193    -4247.794   -3809.5468    -4247.794            0    1805.0763    18.146646    23.328102    21.978373            0            0            0    9304.0342    2067.9329    1649.1939    1698.1021    42.761716   -428.58615     391.9406    18.146646    23.328102    21.978373           90           90           90 
  438500    265.46052   -4222.6451   -3767.6548   -4222.6451            0    3398.8801    17.872989    23.333187    22.113509            0            0            0    9222.0804    4201.5694    3034.8062    2960.2647    1119.6211   -265.34693    339.28305    17.872989    23.333187    22.113509           90           90           90 
  439000    271.52685    -4219.281   -3753.8932    -4219.281            0    2488.0458     18.00427     23.49638    21.897875            0            0            0    9263.5713    1374.4193    2143.9109    3945.8071   -1128.0655     662.8597    340.60665     18.00427     23.49638    21.897875           90           90           90 
  439500    273.98326   -4252.9026   -3783.3047   -4252.9026            0    871.07074     18.07824    23.426654    22.091912            0            0            0    9356.2048   -84.794151    1267.4601    1430.5462   -628.50279      680.348   -60.317457     18.07824    23.426654    22.091912           90           90           90 
  440000    254.92631   -4244.2107   -3807.2757   -4244.2107            0    1614.3121    18.075934    23.440483    22.144226            0            0            0    9382.6996    2545.7581    1999.4432    297.73503    763.18675   -2.0695884    430.67494    18.075934    23.440483    22.144226           90           90           90 
  440500    248.11055   -4268.4252   -3843.1723   -4268.4252            0    1436.6334    18.039618    23.554468     21.99292            0            0            0    9345.0911    2567.8352    1197.8339    544.23099    534.15268   -17.594823    41.218562    18.039618    23.554468     21.99292           90           90           90 
  441000    252.46578   -4267.1674   -3834.4497   -4267.1674            0    2558.8967    17.905067    23.328365    22.025865            0            0            0    9200.1147    2515.9702    2477.7362    2682.9837   -1232.0247   -122.81379    990.04834    17.905067    23.328365    22.025865           90           90           90 
  441500    245.15391   -4260.3028   -3840.1174   -4260.3028            0     4294.737    17.949328    23.141458    22.112645            0            0            0    9185.0092    4099.9857    5042.1142    3742.1111     175.2667   -1162.3073   -441.54421    17.949328    23.141458    22.112645           90           90           90 
  442000    260.83439    -4236.707   -3789.6457    -4236.707            0    2418.7751    18.166905    23.524046    21.813936            0            0            0    9322.3847    3216.0142    2921.0167    1119.2943    752.80592    471.58722    165.94084    18.166905    23.524046    21.813936           90           90           90 
  442500    254.67438   -4249.2656   -3812.7625   -4249.2656            0    1841.8639    18.084313    23.574709    22.112498            0            0            0    9427.2747    734.99403    2283.9957    2506.6021   -360.21442   -331.80747   -317.99144    18.084313    23.574709    22.112498           90           90           90 
  443000    261.24979   -4242.9142    -3795.141   -4242.9142            0    1394.3015    18.057664    23.397057    22.243798            0            0            0      9397.92    2112.6969    2375.5831   -305.37539   -526.46407    580.36474    261.53962    18.057664    23.397057    22.243798           90           90           90 
  443500    262.97431   -4235.1382   -3784.4092   -4235.1382            0    1069.3424    18.128528    23.556663    21.921103            0            0            0    9361.3552    1614.2004   -183.20328    1777.0302   -1137.2296   -467.61277    153.75708    18.128528    23.556663    21.921103           90           90           90 
  444000    253.49947   -4262.7839   -3828.2945   -4262.7839            0    2822.3653    18.024774    23.440682    21.985407            0            0            0    9289.1203    2216.5526    3137.0466    3113.4968    1115.4176    161.21704    1044.7332    18.024774    23.440682    21.985407           90           90           90 
  444500     232.2311   -4241.7951    -3843.759   -4241.7951            0    2022.1125    17.937286    23.354649    22.258231            0            0            0    9324.3961    2368.7642    1550.8735    2146.6997   -309.56855   -134.07285   -176.14202    17.937286    23.354649    22.258231           90           90           90 
  445000    257.59688   -4268.2538   -3826.7416   -4268.2538            0    822.62694    18.280951    23.559219    21.838045            0            0            0    9405.3172   -23.373795    516.49309    1974.7615    437.22725    425.06081    723.31484    18.280951    23.559219    21.838045           90           90           90 
  445500     255.1028   -4215.9342   -3778.6967   -4215.9342            0     1534.062    18.113092    23.544169    22.065275            0            0            0    9409.9065    866.72209     880.8074    2854.6567   -761.29364   -3.0801912    220.75316    18.113092    23.544169    22.065275           90           90           90 
  446000     273.1467   -4245.0051    -3776.841   -4245.0051            0    1925.0766    17.915238    23.300665    22.262555            0            0            0    9293.2132    2358.0699    2642.6805    774.47939    883.51597    144.87306   -201.09065    17.915238    23.300665    22.262555           90           90           90 
  446500     262.3959   -4233.1859   -3783.4483   -4233.1859            0    3686.6934    18.054851    23.448938    21.850389            0            0            0     9250.735    2151.5505    4902.0258    4006.5039   -831.66611    220.34219   -15.977765    18.054851    23.448938    21.850389           90           90           90 
  447000    271.95955   -4243.8026   -3777.6732   -4243.8026            0    1719.5871    18.082044    23.515464    21.950664            0            0            0    9333.5906    1930.9882    2583.9658    643.80723    1012.4402    73.727212     157.9059    18.082044    23.515464    21.950664           90           90           90 
  447500    268.91052   -4227.8203   -3766.9169   -4227.8203            0    2420.0987    18.009631      23.4211    22.187651            0            0            0    9358.8704    2881.7119    1764.6475    2613.9367    62.044126    -6.563125    917.02157    18.009631      23.4211    22.187651           90           90           90 
  448000    255.27457   -4233.0048   -3795.4729   -4233.0048            0    1380.7153    18.125504    23.464909    22.098304            0            0            0    9398.7025    953.50934   -340.03634     3528.673   -452.80535    466.74559    558.72833    18.125504    23.464909    22.098304           90           90           90 
  448500    235.16768   -4226.6366   -3823.5672   -4226.6366            0     2648.262    18.108485    23.475776    21.984958            0            0            0    9346.0418    484.98678    5189.9727    2269.8266   -97.344476   -400.96992    1102.1486    18.108485    23.475776    21.984958           90           90           90 
  449000    254.98112   -4245.7473   -3808.7184   -4245.7473            0    1818.9025    18.002902     23.42887    22.161393            0            0            0    9347.4019    1846.2259    1829.4966    1780.9851    610.63002    559.69078    650.33005    18.002902     23.42887    22.161393           90           90           90 
  449500    263.19062   -4232.7577    -3781.658   -4232.7577            0    3445.5513    18.090397    23.373113    21.919401            0            0            0    9268.1562     4393.384    3540.9515    2402.3183   -487.62808   -346.69819    122.51065    18.090397    23.373113    21.919401           90           90           90 
  450000    252.85369   -4241.9429   -3808.5603   -4241.9429            0    4288.4684    18.029589    23.384015     21.89429            0            0            0    9230.7239    5145.9715    3991.0706     3728.363   -500.95658    805.82981    476.31905    18.029589    23.384015     21.89429           90           90           90 
  450500    264.35476   -4256.4108   -3803.3158   -4256.4108            0    3087.4545     17.87497    23.353663    22.208854            0            0            0    9270.9975    3109.4478    2943.3507    3209.5649    653.66472    -151.3855   -259.88511     17.87497    23.353663    22.208854           90           90           90 
  451000    255.71155   -4256.7931   -3818.5122   -4256.7931            0    1383.2874    18.159248    23.502036    21.960636            0            0            0     9372.345     1815.945    216.46428    2117.4529      347.047   -487.27278    78.347039    18.159248    23.502036    21.960636           90           90           90 
  451500    268.79342   -4252.7321   -3792.0294   -4252.7321            0    1335.5565    18.134329    23.511594    21.907945            0            0            0    9340.8244    614.85752    1577.3577    1814.4542   -870.75283    462.24428    71.164877    18.134329    23.511594    21.907945           90           90           90 
  452000    264.24038   -4244.4264   -3791.5274   -4244.4264            0    1001.4464    17.871644    23.248663    22.399321            0            0            0    9306.7349     1079.717     1198.011    726.61127   -212.78927    769.17835   -230.97477    17.871644    23.248663    22.399321           90           90           90 
  452500    255.44263   -4229.4514   -3791.6315   -4229.4514            0    1631.6068    18.101985    23.596595    21.829579            0            0            0    9324.4004     699.5796    1314.2924    2880.9485    452.41705   -536.65689   -624.47649    18.101985    23.596595    21.829579           90           90           90 
  453000    252.66658   -4253.1544   -3820.0925   -4253.1544            0     1986.801    18.149514    23.470308    21.932055            0            0            0    9342.4999    853.60386    2110.9186    2995.8807   -152.21949   -328.35002   -738.62556    18.149514    23.470308    21.932055           90           90           90 
  453500    262.67607   -4230.9056   -3780.6878   -4230.9056            0     1962.138    17.969038    23.379127    22.274719            0            0            0    9357.6186    2711.3958    611.93794    2563.0804   -959.94424   -275.93503    -141.1615    17.969038    23.379127    22.274719           90           90           90 
  454000    279.90999   -4216.5903   -3736.8342   -4216.5903            0    2792.0119     18.09889    23.538683    21.916616            0            0            0    9337.0048    3348.3779    2654.1382    2373.5196   -197.42132    455.36122     279.3635     18.09889    23.538683    21.916616           90           90           90 
  454500    269.57958   -4251.5383   -3789.4881   -4251.5383            0     3474.339    18.014384     23.43861    21.988118            0            0            0    9284.0897    3454.3987    2725.3844    4243.2338   -246.31075      -287.94   -236.98902    18.014384     23.43861    21.988118           90           90           90 
  455000    259.25422   -4243.5885   -3799.2356   -4243.5885            0    3338.4712    17.998165    23.220756    22.133198            0            0            0    9250.1497    3209.4844    2443.1125    4362.8168    616.83561    1001.2928   -528.13072    17.998165    23.220756    22.133198           90           90           90 
  455500    248.31616   -4264.2612   -3838.6558   -4264.2612            0    1735.1972     18.05349    23.531216    21.962624            0            0            0    9330.1747    1269.0367    753.15303     3183.402   -920.46198   -831.86249   -395.21674     18.05349    23.531216    21.962624           90           90           90 
  456000    256.47098   -4249.4435    -3809.861   -4249.4435            0    1256.1357    18.084972    23.580932    21.942517            0            0            0     9357.617    951.05821    1179.6501    1637.6989   -229.21841   -495.40095   -462.19177    18.084972    23.580932    21.942517           90           90           90 
  456500    256.74039   -4248.3477   -3808.3034   -4248.3477            0    2466.8348    18.099286    23.254715    22.152908            0            0            0    9324.0202     3064.139    2140.4815    2195.8838   -229.32589   -100.06938   -817.89573    18.099286    23.254715    22.152908           90           90           90 
  457000    254.42083   -4256.5655   -3820.4969   -4256.5655            0    1582.2981    18.116431    23.369537    22.107038            0            0            0    9359.5141    2368.3079    2830.9834   -452.39684   -432.62636    147.37801    17.831088    18.116431    23.369537    22.107038           90           90           90 
  457500    262.69804    -4248.756   -3798.5005    -4248.756            0    1813.6733    17.935496    23.888385     21.84591            0            0            0     9359.881     2133.896    1053.2325    2253.8913    -573.3702    206.50526    219.39489    17.935496    23.888385     21.84591           90           90           90 
  458000    260.91976   -4252.5123   -3805.3048   -4252.5123            0     3093.214    18.036353    23.189595     22.24375            0            0            0    9303.5753    2358.5716    4227.2084    2693.8621    -532.5198    310.86841   -565.17587    18.036353    23.189595     22.24375           90           90           90 
  458500      255.087   -4232.9723    -3795.762   -4232.9723            0    2884.5072    18.176768    23.162822    21.995387            0            0            0    9260.6129    637.74904     3647.338    4368.4345   -176.47852    34.511783   -206.16415    18.176768    23.162822    21.995387           90           90           90 
  459000    259.31682   -4238.8728   -3794.4127   -4238.8728            0     2736.334     17.93626    23.594864    21.875172            0            0            0    9257.6517    2429.3356    2513.9652    3265.7013   -116.16306   -283.81446   -366.23949     17.93626    23.594864    21.875172           90           90           90 
  459500    247.68256   -4276.1996   -3851.6801   -4276.1996            0    2906.3077    17.876448    23.409205    22.089703            0            0            0    9243.9541    5035.2235    2974.9524    708.74721    390.17795    31.334787    363.81736    17.876448    23.409205    22.089703           90           90           90 
  460000    272.53754   -4216.1664   -3749.0464   -4216.1664            0    2339.0745    18.157472    23.302417    22.019096            0            0            0     9316.565    3283.7554     1232.934     2500.534   -938.32414    685.14345    1173.4078    18.157472    23.302417    22.019096           90           90           90 
  460500    266.93663   -4236.6769   -3779.1567   -4236.6769            0    2493.6188    17.967138    23.529941    22.008881            0            0            0    9304.5997    1899.0042    1954.0027    3627.8495   -252.09244   -306.54446   -464.26482    17.967138    23.529941    22.008881           90           90           90 
  461000    252.27396   -4219.9649    -3787.576   -4219.9649            0    2802.7667    17.988996    23.432002    22.061114            0            0            0    9299.1609    2745.3206    4784.8503    878.12935    781.21314    350.96363    765.11267    17.988996    23.432002    22.061114           90           90           90 
  461500    266.93685    -4244.028   -3786.5074    -4244.028            0    1842.1888    18.329892    23.326909    21.836136            0            0            0    9336.6895    1590.7223    525.04352    3410.8007   -83.756071    275.57749   -148.59028    18.329892    23.326909    21.836136           90           90           90 
  462000    272.58351   -4233.4744   -3766.2756   -4233.4744            0    1733.8945    18.076715    23.389076     22.25378            0            0            0    9408.8459    1788.5655    1451.3042    1961.8139    -31.83019     184.5175    137.00504    18.076715    23.389076     22.25378           90           90           90 
  462500    271.41298   -4211.6313   -3746.4387   -4211.6313            0    813.36966    17.814205    23.723952    22.293444            0            0            0    9421.7297    1634.7168   -589.31087    1394.7031    149.24759    267.17164    541.40261    17.814205    23.723952    22.293444           90           90           90 
  463000    250.04909   -4234.3265   -3805.7509   -4234.3265            0     2162.505    18.259426    23.485117    21.824195            0            0            0     9358.755    -288.8737     2835.316    3941.0727   -927.04289    388.16497    289.04264    18.259426    23.485117    21.824195           90           90           90 
  463500    261.32795    -4218.367   -3770.4598    -4218.367            0    2086.8641    18.076196    23.363994    22.089484            0            0            0     9329.099    1762.4575    2371.6433    2126.4917    788.02885    374.84088      922.572    18.076196    23.363994    22.089484           90           90           90 
  464000    260.36818   -4224.1063   -3777.8442   -4224.1063            0    2001.3064    18.004228    23.482206     22.13477            0            0            0    9358.1155    2348.6977    2677.0956    978.12592    572.35518   -11.039843    133.88017    18.004228    23.482206     22.13477           90           90           90 
  464500    247.71159   -4275.0341    -3850.465   -4275.0341            0    2931.2751    18.068477    23.520206    21.832414            0            0            0    9278.2147    3944.3574    1977.0123    2872.4557    267.66425   -338.00728   -544.96441    18.068477    23.520206    21.832414           90           90           90 
  465000     246.4516   -4232.4371   -3810.0274   -4232.4371            0    2990.9709    18.022715    23.199769    22.215216            0            0            0    9288.6886    2822.1082    6631.0385   -480.23406   -32.732469   -285.13969   -409.78162    18.022715    23.199769    22.215216           90           90           90 
  465500     262.7859   -4252.3254   -3801.9193   -4252.3254            0    2355.0284    17.977109     23.42757     22.00365            0            0            0    9267.0569    2707.8297      1725.59    2631.6656   -250.85509    907.92356   -365.93216    17.977109     23.42757     22.00365           90           90           90 
  466000     262.5791   -4246.3578   -3796.3062   -4246.3578            0     1615.533    18.128044    23.791114    21.782289            0            0            0     9394.404    1642.4536   -122.69439    3326.8399    771.55309   -298.05891    955.98977    18.128044    23.791114    21.782289           90           90           90 
  466500    245.75381   -4242.1022   -3820.8886   -4242.1022            0    465.44406    18.084733     23.40447     22.35526            0            0            0    9462.1679   -38.690534    1749.6993   -314.67659    1190.1883    589.66157   -767.11152    18.084733     23.40447     22.35526           90           90           90 
  467000    255.52746   -4222.8062   -3784.8409   -4222.8062            0     1167.871    18.210341    23.344612    22.171719            0            0            0    9425.4938   -16.821319    1266.6759    2253.7583    403.44198   -151.51787    156.41294    18.210341    23.344612    22.171719           90           90           90 
  467500     256.8962   -4239.0245   -3798.7133   -4239.0245            0     2112.927    17.994006    23.628966     21.71398            0            0            0    9232.3448    1231.8304    1765.5439    3341.4066    626.21042    156.55174    432.20494    17.994006    23.628966     21.71398           90           90           90 
  468000    256.59725   -4254.4499   -3814.6509   -4254.4499            0    1597.8098    17.914085    23.545876     22.12585            0            0            0    9332.7456    2538.1956    986.76624    1268.4677    272.09598    106.28847    688.96312    17.914085    23.545876     22.12585           90           90           90 
  468500    261.59233   -4260.0354    -3811.675   -4260.0354            0    1937.6177    18.186284    23.230005    22.116153            0            0            0    9343.3554     1000.986    2511.4519    2300.4153   -763.49357   -388.07501   -837.44584    18.186284    23.230005    22.116153           90           90           90 
  469000    263.21425   -4235.6096   -3784.4694   -4235.6096            0    1688.0163    18.135022    23.546578    21.962257            0            0            0    9378.2726    1731.5603    1603.1056     1729.383    761.33378    291.76372    60.342421    18.135022    23.546578    21.962257           90           90           90 
  469500    262.57711   -4247.4449   -3797.3967   -4247.4449            0    2493.0212    17.878063    23.501813    22.146706            0            0            0    9305.3126    3362.7652    1637.4053    2478.8929   -566.03529    275.91649    807.37378    17.878063    23.501813    22.146706           90           90           90 
  470000     263.9691   -4237.4958   -3785.0618   -4237.4958            0    3243.1543    18.072748    23.237004    22.027632            0            0            0    9250.6476      2935.86    3643.3547    3150.2481   -733.15828   -306.86396   -212.45607    18.072748    23.237004    22.027632           90           90           90 
  470500    253.48398   -4242.2555   -3807.7926   -4242.2555            0     1120.101    18.285095    23.361149    21.837468            0            0            0    9328.1105    1254.0769    965.07406    1141.1521   -1595.7165    671.49262   -821.64619    18.285095    23.361149    21.837468           90           90           90 
  471000     274.6198   -4212.2236   -3741.5347   -4212.2236            0    2309.3154    17.836025    23.623953    22.296253            0            0            0    9394.6914    2463.6143    3351.9491    1112.3827    745.74195   -759.94149   -818.64496    17.836025    23.623953    22.296253           90           90           90 
  471500    275.42717    -4232.454   -3760.3812    -4232.454            0    1142.9845    18.018156    23.611315     22.08442            0            0            0     9395.427   -726.43378    401.21973    3754.1675   -302.76597   -565.61098    112.59756    18.018156    23.611315     22.08442           90           90           90 
  472000    267.75661   -4208.6915   -3749.7658   -4208.6915            0    963.30943    18.297714    23.349386    22.041813            0            0            0    9417.1525     712.9857    1319.8697    857.07288   -544.08407   -565.31357    354.94509    18.297714    23.349386    22.041813           90           90           90 
  472500    265.65606   -4223.8993   -3768.5739   -4223.8993            0    2081.6409    17.943272    23.502029    22.134469            0            0            0    9334.1783    3473.8686    1950.4965    820.55764    1770.1312    430.01148    -37.92755    17.943272    23.502029    22.134469           90           90           90 
  473000    275.77746   -4256.4241   -3783.7509   -4256.4241            0    2752.3285    17.925598    23.541836    21.974675            0            0            0    9273.3457    2613.2296    2269.8528    3373.9032    108.68544    81.136181    4.5526698    17.925598    23.541836    21.974675           90           90           90 
  473500    259.47488   -4243.5383   -3798.8072   -4243.5383            0    1379.9701    18.167361    23.404147    22.019605            0            0            0    9362.5508    1523.7911     278.5459    2337.5734    1952.8735   -849.14011   -342.36308    18.167361    23.404147    22.019605           90           90           90 
  474000    255.26274   -4251.6129   -3814.1013   -4251.6129            0    1979.1099    18.072087    23.342693    22.000942            0            0            0    9281.1232    212.72723    2129.0905     3595.512   -575.62136   -1125.4757    1429.9617    18.072087    23.342693    22.000942           90           90           90 
  474500    266.31408   -4237.4318   -3780.9786   -4237.4318            0    1122.0299    17.961621    23.627268    22.115615            0            0            0     9385.514    1473.5908    1543.7828     348.7161   -657.79782    596.48101   -247.89378    17.961621    23.627268    22.115615           90           90           90 
  475000     259.5232   -4230.2377   -3785.4238   -4230.2377            0    1352.9229    18.101978    23.643365    21.928647            0            0            0    9385.2787    1071.1524    1057.9326    1929.6839   -78.098801   -935.24461    869.15942    18.101978    23.643365    21.928647           90           90           90 
  475500    238.45749    -4254.832    -3846.124    -4254.832            0    2248.5039    18.358072    23.090634    22.080622            0            0            0     9359.965    3023.5075     2249.943    1472.0611      227.941    260.57075   -295.00981    18.358072    23.090634    22.080622           90           90           90 
  476000     261.9518   -4226.2344    -3777.258   -4226.2344            0    2751.8365    17.972009    23.416743    22.238053            0            0            0    9358.7937    3605.2122    3333.8916    1316.4056    334.55449    121.45833   -868.77168    17.972009    23.416743    22.238053           90           90           90 
  476500    248.40055   -4256.4863   -3830.7363   -4256.4863            0    2093.3133    17.821522    23.771823    21.896365            0            0            0    9276.3965     4646.284    1093.0973    540.55857    212.93117    121.85558    348.87441    17.821522    23.771823    21.896365           90           90           90 
  477000    267.28069    -4229.841    -3771.731    -4229.841            0    1595.7124    18.218021    23.285388    22.080199            0            0            0    9366.7224    2022.8117    1200.2691    1564.0563    1169.8877    154.99851    331.67998    18.218021    23.285388    22.080199           90           90           90 
  477500    255.67166   -4209.5341   -3771.3216   -4209.5341            0    2930.2668    18.098484     23.21499    22.141395            0            0            0    9302.8425    2044.4549    1734.3938    5011.9517    1548.2971   -443.55388   -132.77883    18.098484     23.21499    22.141395           90           90           90 
  478000    252.95564    -4237.228   -3803.6707    -4237.228            0    2327.8536    17.912775     23.63847    21.885601            0            0            0    9267.0329    2440.3462    2601.2778    1941.9367   -485.33599   -12.964313    188.52015    17.912775     23.63847    21.885601           90           90           90 
  478500    273.73935   -4256.9313   -3787.7514   -4256.9313            0    1970.3002    18.103476    23.466073    21.944442            0            0            0     9322.383      1804.03     2218.852    1888.0186    495.56728    -739.9531   -776.01247    18.103476    23.466073    21.944442           90           90           90 
  479000    262.77096   -4245.1397   -3794.7592   -4245.1397            0    1738.2955    18.192257    23.240376    22.164534            0            0            0    9371.0523    2651.1074    1805.1405    758.63846    199.39949    287.68661    -167.4855    18.192257    23.240376    22.164534           90           90           90 
  479500    236.86192   -4274.4576   -3868.4844   -4274.4576            0    1612.8333    17.936906    23.599779    22.079618            0            0            0    9346.4573    1695.9798    2172.3629    970.15729   -110.12359    179.52988    265.93885    17.936906    23.599779    22.079618           90           90           90 
  480000    259.52058   -4247.9268   -3803.1174   -4247.9268            0    909.89787    18.014449    23.644401      21.9957            0            0            0    9368.8671    1113.9276    1971.7672   -356.00118   -188.97182    277.81721   -124.15048    18.014449    23.644401      21.9957           90           90           90 
  480500    252.56708    -4206.862   -3773.9706    -4206.862            0    2505.0036    18.202229    23.265991    22.113333            0            0            0    9364.8399    2262.0591    2813.9612    2438.9905   -583.17724   -579.90616    571.38055    18.202229    23.265991    22.113333           90           90           90 
  481000     255.7576   -4267.3274   -3828.9676   -4267.3274            0    2270.4354    18.068938    23.332215    22.133481            0            0            0    9331.2177    832.01731    1962.0478     4017.241   -1272.0474    717.74027     300.4251    18.068938    23.332215    22.133481           90           90           90 
  481500    255.31276   -4264.2835   -3826.6862   -4264.2835            0    3689.7506    17.776118    23.683017    21.909564            0            0            0    9223.7534    5078.3084     2623.967    3366.9765    822.51142    425.98834   -391.72603    17.776118    23.683017    21.909564           90           90           90 
  482000    247.78622   -4263.7779   -3839.0808   -4263.7779            0    3432.7368    18.102055    23.269837    21.945917            0            0            0    9244.3195    2462.9804    2962.5956    4872.6345   -184.85859    25.126803    137.89273    18.102055    23.269837    21.945917           90           90           90 
  482500     267.0021   -4237.2648   -3779.6323   -4237.2648            0    2423.2875    18.122392    23.209483     22.16469            0            0            0    9322.7203    2903.1595    2768.6023    1598.1008   -705.30361   -361.09222   -181.39357    18.122392    23.209483     22.16469           90           90           90 
  483000    251.03152   -4256.6603   -3826.4008   -4256.6603            0    1812.5971    17.945513    23.725602    22.034241            0            0            0    9381.4771    3512.2417   -352.97119    2278.5209   -1146.3183   -151.16383   -757.62758    17.945513    23.725602    22.034241           90           90           90 
  483500    266.04289   -4240.6633   -3784.6748   -4240.6633            0    1479.2407    18.073236    23.568834    22.068759            0            0            0    9400.5216   -168.44212    3363.7965    1242.3677    457.56555    427.72534    297.36704    18.073236    23.568834    22.068759           90           90           90 
  484000    243.95965   -4223.0866   -3804.9481   -4223.0866            0    2484.7105     18.17955    23.229745    22.141236            0            0            0    9350.3839    2742.4369       2136.2    2575.4946    20.559155    -395.4088    611.47043     18.17955    23.229745    22.141236           90           90           90 
  484500    256.16513   -4224.7576   -3785.6993   -4224.7576            0    419.41505    18.035583    23.557037    22.095135            0            0            0    9387.4471    1173.7471   -139.54883    224.04685   -175.48098   -229.99695   -4.7891133    18.035583    23.557037    22.095135           90           90           90 
  485000    266.22955   -4241.8437   -3785.5354   -4241.8437            0    2588.3963    17.859499    23.779523    21.934498            0            0            0    9315.3705    1834.3878    3117.4517    2813.3495   -795.47229   -493.00691     506.2041    17.859499    23.779523    21.934498           90           90           90 
  485500    260.57435   -4214.6346   -3768.0191   -4214.6346            0    1973.2569    18.321736    22.932854    22.268635            0            0            0    9356.6059    2032.7671    2905.5909     981.4128    639.43677   -424.15826    377.75241    18.321736    22.932854    22.268635           90           90           90 
  486000     257.0072   -4246.3906   -3805.8891   -4246.3906            0    696.27559    18.251315    23.255546    22.160822            0            0            0    9406.0344    710.41931    1429.2025   -50.795045    168.48976    -172.6393    2.9481156    18.251315    23.255546    22.160822           90           90           90 
  486500    256.61513    -4257.519   -3817.6894    -4257.519            0    969.04406    17.928743    23.851207    22.011191            0            0            0    9412.4731    1123.4887    877.35384    906.28967    616.28826    122.71731    598.46456    17.928743    23.851207    22.011191           90           90           90 
  487000    263.62404   -4221.3241   -3769.4815   -4221.3241            0    1973.6194     18.01274    23.411267    22.081969            0            0            0    9311.9898    2368.1041    1749.0154    1803.7387   -657.10599   -372.71199    63.054305     18.01274    23.411267    22.081969           90           90           90 
  487500    266.44644   -4256.2847   -3799.6046   -4256.2847            0    2717.9098    18.178269      23.0258    22.063544            0            0            0    9235.1197    421.02952    4377.7541    3354.9458    669.53041   -509.15386    813.44101    18.178269      23.0258    22.063544           90           90           90 
  488000    262.00009   -4225.6054   -3776.5462   -4225.6054            0    2434.3709    17.941675    23.629749    21.999727            0            0            0    9326.9442    4742.6672    829.70008    1730.7455    630.93313   -23.755593   -262.16397    17.941675    23.629749    21.999727           90           90           90 
  488500    268.97715   -4238.6769   -3777.6593   -4238.6769            0    2526.6311    17.903111    23.638623    22.043849            0            0            0    9329.0648       875.12    4617.0777    2087.6955   -1005.7574    739.07958    200.56662    17.903111    23.638623    22.043849           90           90           90 
  489000    253.09276   -4266.0093    -3832.217   -4266.0093            0    1383.0158    18.211019    23.203024    22.125987            0            0            0    9349.3517    152.58102    762.96276    3233.5035    1095.2621    353.94179   -48.382001    18.211019    23.203024    22.125987           90           90           90 
  489500     264.3017   -4238.7478   -3785.7438   -4238.7478            0    1259.6072    18.167007    23.411771    21.974392            0            0            0    9346.1883    122.02668    2405.5347    1251.2603    11.212072    439.57262     366.7862    18.167007    23.411771    21.974392           90           90           90 
  490000    260.29167   -4231.2289   -3785.0978   -4231.2289            0    2026.8541     17.75815    23.741884    21.975039            0            0            0    9264.9388    2525.8636    1616.6285      1938.07    395.97034    33.199405    530.85922     17.75815    23.741884    21.975039           90           90           90 
  490500    258.32916   -4247.0708   -3804.3034   -4247.0708            0    2395.6732    17.945184    23.365201     22.12176            0            0            0    9275.4956    2736.8833    2342.0485    2108.0877     126.0669    935.14738    276.06596    17.945184    23.365201     22.12176           90           90           90 
  491000     265.2506   -4229.7782   -3775.1478   -4229.7782            0    2380.9125    18.355199    22.838113    21.996705            0            0            0    9220.9772    982.49047    4254.0055    1906.2415   -876.89907   -902.52677    794.13692    18.355199    22.838113    21.996705           90           90           90 
  491500     260.5184   -4237.3939   -3790.8743   -4237.3939            0     2321.762    17.870976    23.640877    22.035575            0            0            0    9309.7121    2812.4523    2117.4168    2035.4168    545.33559   -50.839194   -469.25772    17.870976    23.640877    22.035575           90           90           90 
  492000    277.53642   -4241.9076   -3766.2197   -4241.9076            0    3004.5936    17.859395    23.542105    22.021042            0            0            0    9258.6976    3658.0475    1513.4965    3842.2369   -295.49892   -155.83362    1047.6012    17.859395    23.542105    22.021042           90           90           90 
  492500    251.31712      -4245.5    -3814.751      -4245.5            0    2521.0066    18.145255    23.353332    21.863669            0            0            0    9264.7767    2342.3739    2298.3989     2922.247    349.02351   -404.04877    -176.4867    18.145255    23.353332    21.863669           90           90           90 
  493000    258.42619   -4257.1484   -3814.2147   -4257.1484            0    2446.9214    17.998492    23.247092    22.192923            0            0            0    9285.7983    4226.7304    2682.7704    431.26343    1166.6883    157.71418    689.83113    17.998492    23.247092    22.192923           90           90           90 
  493500    254.83841   -4241.9602   -3805.1759   -4241.9602            0    2091.2089    18.031184    23.530572    21.929415            0            0            0    9304.3011    2176.7171    273.28279    3823.6269    61.832649   -252.10351   -181.53264    18.031184    23.530572    21.929415           90           90           90 
  494000    267.98703   -4254.8629   -3795.5423   -4254.8629            0    2227.7813    18.095117      23.4836    21.926212            0            0            0    9317.2912    2329.3039    991.91025    3362.1296    289.20932   -276.89498   -303.64334    18.095117      23.4836    21.926212           90           90           90 
  494500    261.34167   -4213.1167    -3765.186   -4213.1167            0    2311.8855    18.152921    23.058347    22.313454            0            0            0     9339.884    4432.6546    2804.3024   -301.30063   -161.18856     418.4683    149.95202    18.152921    23.058347    22.313454           90           90           90 
  495000    260.42751   -4242.2629   -3795.8991   -4242.2629            0    2126.7559    18.044717     23.59684    21.899813            0            0            0    9324.9033    1435.8411     2091.928    2852.4987    156.78571   -674.94173    235.79295    18.044717     23.59684    21.899813           90           90           90 
  495500    246.69278   -4263.3238   -3840.5008   -4263.3238            0    2965.8903    17.794041    23.785496    21.932918            0            0            0    9282.8899    3573.7182    1408.1617    3915.7911   -879.09294    867.85428    157.89885    17.794041    23.785496    21.932918           90           90           90 
  496000    261.78895   -4222.1513    -3773.454   -4222.1513            0    2862.0028    18.041374    23.077509    22.226667            0            0            0     9254.072    2898.9539    3035.3063    2651.7481    327.41832    1003.3085   -1054.6294    18.041374    23.077509    22.226667           90           90           90 
  496500    268.32034   -4233.2435   -3773.3516   -4233.2435            0    2280.8947    18.205185    23.277665    21.962335            0            0            0    9307.0711    2583.8684    2684.7498     1574.066   -137.09772   -393.46863    488.78972    18.205185    23.277665    21.962335           90           90           90 
  497000    250.89719   -4231.3228   -3801.2936   -4231.3228            0    1605.3374    17.964915    23.630039    21.949433            0            0            0    9317.7896    2000.7309    1118.0899    1697.1913    -468.0115   -544.29343    394.66674    17.964915    23.630039    21.949433           90           90           90 
  497500    250.07444   -4241.1739   -3812.5549   -4241.1739            0    560.35448    18.029694    23.432303    22.269513            0            0            0    9408.3626    2308.8537    893.38691   -1521.1771   -204.46361   -650.99911    337.40627    18.029694    23.432303    22.269513           90           90           90 
  498000     250.5889   -4227.8355   -3798.3347   -4227.8355            0    1148.0521    18.303431     23.20374    22.020246            0            0            0    9352.1759    -213.3923    2548.0273    1109.5212   -449.81408   -313.50938    277.83222    18.303431     23.20374    22.020246           90           90           90 
  498500      257.018   -4217.2189   -3776.6989   -4217.2189            0    1862.4933    17.994737    23.638211    21.912684            0            0            0    9320.8533    1704.4483    3061.9865      821.045   -340.88948    593.85316   -772.01217    17.994737    23.638211    21.912684           90           90           90 
  499000    256.50341   -4243.9478   -3804.3097   -4243.9478            0    1809.5827    17.906058    23.447712    22.241366            0            0            0    9338.1731    3922.4081     713.0986     793.2415    16.255233    963.92664   -71.163174    17.906058    23.447712    22.241366           90           90           90 
  499500    259.66252   -4231.7613   -3786.7086   -4231.7613            0    1998.7432      18.2135    23.252033    22.029213            0            0            0    9329.3916    1087.3057    2864.3274    2044.5966    8.8727457    582.69421   -362.01144      18.2135    23.252033    22.029213           90           90           90 
  500000    255.09594    -4249.073   -3811.8473    -4249.073            0    2863.2822     18.08447     23.34849    21.943199            0            0            0    9265.4077    3756.3567    1877.9702    2955.5196    386.27488   -1485.3722   -303.11906     18.08447     23.34849    21.943199           90           90           90 
Loop time of 582.004 on 42 procs for 500000 steps with 864 atoms

Performance: 74.226 ns/day, 0.323 hours/ns, 859.101 timesteps/s
99.2% CPU use with 42 MPI tasks x 1 OpenMP threads

MPI task timing breakdown:
Section |  min time  |  avg time  |  max time  |%varavg| %total
---------------------------------------------------------------
Pair    | 42.252     | 55.005     | 73.773     | 102.5 |  9.45
Bond    | 0.51036    | 0.52187    | 0.54415    |   1.2 |  0.09
Kspace  | 246.69     | 269.82     | 283.06     |  50.8 | 46.36
Neigh   | 1.227      | 1.3459     | 1.4661     |   6.5 |  0.23
Comm    | 109.87     | 114.12     | 118.42     |  21.7 | 19.61
Output  | 2.544      | 2.5454     | 2.5563     |   0.1 |  0.44
Modify  | 116.07     | 125.36     | 134.01     |  47.9 | 21.54
Other   |            | 13.29      |            |       |  2.28

Nlocal:        20.5714 ave          24 max          15 min
Histogram: 1 0 1 5 7 7 5 6 8 2
Nghost:        2071.74 ave        2164 max        1980 min
Histogram: 8 4 5 1 1 5 4 4 3 7
Neighs:        5002.69 ave        6486 max        3680 min
Histogram: 1 4 4 7 9 5 4 4 2 2

Total # of neighbors = 210113
Ave neighs/atom = 243.18634
Ave special neighs/atom = 2.0000000
Neighbor list builds = 6658
Dangerous builds = 0


write_restart   restart.equil
System init for write_restart ...
PPPM initialization ...
  extracting TIP4P info from pair style
  using 12-bit tables for long-range coulomb (../kspace.cpp:340)
  G vector (1/distance) = 0.3718201
  grid = 24 27 25
  stencil order = 5
  estimated absolute RMS force accuracy = 0.0031402621
  estimated relative force accuracy = 9.4568061e-06
  using double precision FFTW3
  3d grid and FFT values/proc = 4032 480
Last active /omp style is kspace_style pppm/tip4p/omp
write_data   	water.equil.data nocoeff
System init for write_data ...
PPPM initialization ...
  extracting TIP4P info from pair style
  using 12-bit tables for long-range coulomb (../kspace.cpp:340)
  G vector (1/distance) = 0.3718201
  grid = 24 27 25
  stencil order = 5
  estimated absolute RMS force accuracy = 0.0031402621
  estimated relative force accuracy = 9.4568061e-06
  using double precision FFTW3
  3d grid and FFT values/proc = 4032 480
Last active /omp style is kspace_style pppm/tip4p/omp
Total wall time: 0:09:44
