#include		in.partitions
include		in.temp
variable        temperature equal 258.04
variable	tempDamp equal 100.0
include		in.pressure
variable        pressure equal 9375.0
variable        pressureDamp equal 1000.0 # This is 1 ps
include		in.seed
variable        seed equal 745823

units		real
atom_style	full

read_restart	restart.lmp.${pid}
read_restart	restart.lmp.0
Reading restart file ...
  restart file = 30 Jul 2021, LAMMPS = 30 Jul 2021
  restoring atom style full from restart
  orthogonal box = (0.045457372 -0.010981657 0.22943318) to (19.954544 20.010983 20.470565)
  2 by 4 by 4 MPI processor grid
  restoring pair style lj/cut/tip4p/long/omp from restart
  restoring bond style harmonic/omp from restart
  restoring angle style harmonic/omp from restart
  972 atoms
  648 bonds
  324 angles
Finding 1-2 1-3 1-4 neighbors ...
  special bond factors lj:    0        0        0       
  special bond factors coul:  0        0        0       
     2 = max # of 1-2 neighbors
     1 = max # of 1-3 neighbors
     1 = max # of 1-4 neighbors
     2 = max # of special neighbors
  special bonds CPU = 0.002 seconds
  read_restart CPU = 0.007 seconds
include 	in.setup
variable	out_freq equal 1000
variable	out_freq2 equal 10000
variable	out_freq3 equal 1000

timestep	2.0

neigh_modify    delay 7 every 1

include		in.tip4p
# This is TIP4P/Ice

# create groups ###
group ox type 2
324 atoms in group ox
group hy type 1
648 atoms in group hy

# set charges - beside manually ###
set group ox charge -1.1794
Setting atom values ...
  324 settings made for charge
set group hy charge 0.5897
Setting atom values ...
  648 settings made for charge

# ### TIP3P Potential Parameters ###
pair_style lj/cut/tip4p/long/omp 2 1 1 1 0.1577 8.5
pair_coeff 1 1*2 0.000 0.000
pair_coeff 2 2 0.21084 3.1668
bond_style  harmonic
bond_coeff  1 450 0.9572
angle_style harmonic
angle_coeff 1 55 104.52
kspace_style pppm/tip4p/omp 1.0e-5
pair_modify tail yes

thermo          ${out_freq}
thermo          1000
thermo_style    custom step temp pe etotal epair emol press lx ly lz vol pxx pyy pzz pxy pxz pyz enthalpy

restart 	${out_freq3} restart.lmp.${pid} restart2.lmp.${pid}
restart 	1000 restart.lmp.${pid} restart2.lmp.${pid}
restart 	1000 restart.lmp.0 restart2.lmp.${pid}
restart 	1000 restart.lmp.0 restart2.lmp.0


include         in.dump
dump            myDump all atom ${out_freq2} dump.water.${pid}
dump            myDump all atom 10000 dump.water.${pid}
dump            myDump all atom 10000 dump.water.0
dump            myDump2 all dcd ${out_freq2} dump.dcd
dump            myDump2 all dcd 10000 dump.dcd
dump_modify     myDump append yes
dump_modify     myDump2 append yes


variable natoms 	equal  "count(all)"                        # NUMBER ATOMS
variable H      	equal  "enthalpy/v_natoms"                 # ENTHALPY-per-atom
variable Vol      	equal  "vol/v_natoms"                 # volume-per-atom
fix AVG all 		ave/time ${out_freq} 1 ${out_freq} v_Vol v_H file vol_enthalpy.dat
fix AVG all 		ave/time 1000 1 ${out_freq} v_Vol v_H file vol_enthalpy.dat
fix AVG all 		ave/time 1000 1 1000 v_Vol v_H file vol_enthalpy.dat


timer           timeout 02:55:00 every 1000
New timer settings: style=normal  mode=nosync  timeout=02:55:00

fix 		1 all shake 1e-6 200 0 b 1 a 1
       0 = # of size 2 clusters
       0 = # of size 3 clusters
       0 = # of size 4 clusters
     324 = # of frozen angles
  find clusters CPU = 0.001 seconds
fix             2 all nph aniso ${pressure} ${pressure} ${pressureDamp}
fix             2 all nph aniso 9375 ${pressure} ${pressureDamp}
fix             2 all nph aniso 9375 9375 ${pressureDamp}
fix             2 all nph aniso 9375 9375 1000
fix             3 all temp/csvr ${temperature} ${temperature} ${tempDamp} ${seed}
fix             3 all temp/csvr 258.04 ${temperature} ${tempDamp} ${seed}
fix             3 all temp/csvr 258.04 258.04 ${tempDamp} ${seed}
fix             3 all temp/csvr 258.04 258.04 100 ${seed}
fix             3 all temp/csvr 258.04 258.04 100 745823


run             250000
PPPM initialization ...
  extracting TIP4P info from pair style
  using 12-bit tables for long-range coulomb (../kspace.cpp:340)
  G vector (1/distance) = 0.37211646
  grid = 24 24 24
  stencil order = 5
  estimated absolute RMS force accuracy = 0.0035144245
  estimated relative force accuracy = 1.0583585e-05
  using double precision FFTW3
  3d grid and FFT values/proc = 3211 432
Last active /omp style is kspace_style pppm/tip4p/omp
Neighbor list info ...
  update every 1 steps, delay 7 steps, check yes
  max neighbors/atom: 2000, page size: 100000
  master list distance cutoff = 10.8154
  ghost atom cutoff = 10.8154
  binsize = 5.4077, bins = 4 4 4
  1 neighbor lists, perpetual/occasional/extra = 1 0 0
  (1) pair lj/cut/tip4p/long/omp, perpetual
      attributes: half, newton on, omp
      pair build: half/bin/newton/omp
      stencil: half/bin/3d
      bin: standard
Per MPI rank memory allocation (min/avg/max) = 10.18 | 10.19 | 10.19 Mbytes
Step Temp PotEng TotEng E_pair E_mol Press Lx Ly Lz Volume Pxx Pyy Pzz Pxy Pxz Pyz Enthalpy 
29750000    267.14816   -4685.0098   -4169.7921   -4685.0098            0    9671.9452    19.909086    20.021964    20.241132    8068.4999    11539.187    8033.9819    9442.6671   -132.97094    506.58893     338.1583   -3031.6866 
29751000    261.13123   -4717.9176   -4214.3041   -4717.9176            0    9729.2538    19.804979    19.597151    20.657877    8017.7592    11441.202    9598.3935    8148.1662    335.86637   -220.52833    131.29241   -3076.6547 
29752000    267.37313   -4716.9698   -4201.3182   -4716.9698            0    10037.906    19.804701    19.781822    20.573019    8059.9551     9619.144    10374.377    10120.197   -218.57655   -407.54893    443.13996   -3021.4007 
29753000    254.62271   -4681.5063   -4190.4449   -4681.5063            0    13540.656    19.618098    19.763153     20.33461    7884.0427    13185.026    14351.959    13084.982    199.65353    361.20388    6.9408765   -2633.5312 
29754000    252.43404   -4723.2124   -4236.3721   -4723.2124            0    9505.4769    19.919012    19.683933    20.429376    8010.0415    8556.4056    11101.534    8858.4912   -1.9575712   -201.29389   -905.30115   -3125.9591 
29755000    250.85205   -4698.7687   -4214.9794   -4698.7687            0    7986.4103    19.882115    19.810509    20.645846    8131.8792    7421.2499    8642.5521    7895.4289   -220.52176    1318.4935    978.71206   -3267.8302 
29756000    263.15944   -4705.0907   -4197.5656   -4705.0907            0    9071.7367    19.776209    19.830191    20.551317    8059.5277    7723.9104    9072.9763    10418.324   -374.45261     130.7144    270.27609   -3131.2741 
29757000    252.33109   -4693.7094   -4207.0676   -4693.7094            0    9300.5923    19.722898     20.01256    20.476135    8082.0468    10856.774    7612.8921    9432.1109   -963.40625    79.533242   -1354.3338   -3110.8221 
29758000    266.96634   -4719.6075   -4204.7404   -4719.6075            0    11006.951    20.078999    19.679854    20.324857    8031.4028    7755.4551     13354.23    11911.167    245.57173   -712.25459    -767.3166   -2915.4988 
29759000    260.63971   -4691.2272   -4188.5616   -4691.2272            0     8783.016    19.777628    20.022924    20.487062    8112.9979     7932.517    10795.979    7620.5525    13.228028    1180.4875    1266.7493   -3149.3573 
29760000    265.60386   -4693.7904   -4181.5511   -4693.7904            0    10190.602    19.833134    19.719244    20.430982    7990.4426    8533.0375    11536.811    10501.957   -91.092462    1499.1205    1237.7301   -2994.0157 
29761000    259.62718   -4716.6206   -4215.9077   -4716.6206            0    10224.777    19.697739    19.817169     20.53885    8017.4104     10894.64    9733.2723     10046.42   -353.64867    489.25177    380.12946   -3020.3684 
29762000    267.08785   -4691.2892   -4176.1878   -4691.2892            0    7495.3677    20.001258    19.843832    20.547679    8155.4067    7308.9053    7776.1589    7401.0389   -436.27342   -397.69813   -1072.0211   -3284.7019 
29763000    270.83673   -4694.5105    -4172.179   -4694.5105            0    7369.8929    20.023209     19.75073    20.448269    8086.7381    6858.4208    7559.8633    7691.3946    26.193709    285.75706    272.37098   -3302.9976 
29764000     258.2264   -4703.3666   -4205.3553   -4703.3666            0    9257.7031    19.714491    19.821327    20.467624    7998.0797    9294.1592    9821.4475    8657.5026   -104.02415    107.45945    -973.9231   -3125.5017 
29765000    258.71324   -4704.8581   -4205.9079   -4704.8581            0    9680.2711    19.983729    19.646277    20.453021    8029.9759    8314.2624    11518.772     9207.779     143.1646    1152.4292    1143.1205   -3072.2614 
29766000    257.92398   -4691.7648   -4194.3367   -4691.7648            0    10240.013     19.71272    19.760115    20.576146     8014.936    10705.195    9115.0937    10899.749    153.34396   -1844.3633   -1676.0827   -2997.3856 
29767000    264.69162   -4717.9772   -4207.4971   -4717.9772            0    8228.7346    19.907982    19.627496    20.576748    8040.2376    7747.7634    9059.9148    7878.5257    494.48334    1825.4642   -681.91318   -3242.6071 
29768000    248.96008   -4700.9723   -4220.8318   -4700.9723            0    9395.9505     19.99333     19.69979    20.269936    7983.6062    8442.1845    9101.4667      10644.2   -163.75962    714.99203    164.68989   -3126.8359 
29769000    247.99856   -4688.4284   -4210.1423   -4688.4284            0    9504.9038    19.862241    19.507482    20.750746    8040.1316    6987.9704    10832.254    10694.487   -98.511111    -264.7541   -511.51737   -3095.6251 
29770000    254.68217   -4716.9154   -4225.7394   -4716.9154            0    7303.7139    19.912322    19.879735     20.51791    8122.0491    7791.5451    7610.9525    6508.6442   -509.86146    316.21824    874.37807   -3360.6017 
29771000    250.00696   -4722.1959   -4240.0365   -4722.1959            0    7982.7509    19.806939    20.021802    20.371382    8078.6913    9875.4298    6928.8936    7143.9292    268.75564   -339.59965  -0.13830896   -3299.5133 
29772000    250.38457   -4687.1988   -4204.3111   -4687.1988            0    9471.6123    19.769056    19.817238    20.522228    8039.9541    10952.597    9261.5225    8200.7174   -1119.3784    183.32325    1191.7076   -3093.7221 
29773000     257.2052   -4728.4782   -4232.4364   -4728.4782            0    9227.1544    19.699423    19.785598     20.63831    8044.0883    9484.6355    9421.2246     8775.603    255.68679    1661.2338    56.952455   -3149.9548 
29774000    257.83695   -4654.6232    -4157.363   -4654.6232            0     10374.48    20.087633    19.839344    20.239644    8066.0137    11559.158    9455.6786    10108.602   -400.22511   -398.50244   -684.18648   -2936.9659 
29775000    262.73561   -4682.2936   -4175.5859   -4682.2936            0     8370.931    19.849944    19.815835    20.474699    8053.5839    7662.7982    8854.5796    8595.4152    177.92398   -1122.5314    1993.3101   -3192.3928 
29776000    269.04571   -4703.0874   -4184.2102   -4703.0874            0    9416.1321     19.88081    19.828697    20.498839    8080.8583     10556.06    8522.8035    9169.5327    531.16443   -412.21387    1228.8261   -3074.5093 
29777000    278.12179   -4691.8507   -4155.4695   -4691.8507            0    12805.292    19.754094     19.73774    20.428125    7964.9498    12492.953    12523.623    13399.301    14.247358    405.67074   -1369.9133   -2667.9988 
29778000     249.6855   -4710.4442   -4228.9047   -4710.4442            0    8445.9664    19.779386    19.959127    20.471008    8081.5299    9091.6628    7536.8332    8709.4034    652.63664    52.100961    129.09962   -3233.4561 
29779000    270.71557   -4719.9468   -4197.8491   -4719.9468            0    8333.5589    19.969587    19.574358    20.637887    8067.1819    8495.4269    8803.7902    7701.4597   -122.20748    533.09975    24.164996   -3217.3928 
29780000    266.61283   -4696.4467   -4182.2615   -4696.4467            0    8069.5767    19.879512    19.857914    20.376521    8043.9508    7584.7093    7877.1134    8746.9075    713.13264   -484.61143   -101.27668    -3235.597 
29781000    261.01942   -4686.0104   -4182.6125   -4686.0104            0    9363.2791    19.876559    19.693459     20.61649     8070.082     8733.858    11283.513    8072.4667   -70.955894    308.88379     -393.468    -3080.612 
29782000    254.56515   -4693.8249   -4202.8746   -4693.8249            0    8371.2177    19.950606    19.965627    20.462114    8150.5991    9348.9623    7618.0211    8146.6698    683.89222    1677.1801   -80.106106   -3207.8036 
29783000    263.50411   -4700.3497   -4192.1598   -4700.3497            0    11096.941    19.737873     19.82218    20.420388    7989.4289    10828.459    9812.3889    12649.976   -276.24642   -273.37011    193.21367   -2899.1706 
29784000    254.33258   -4708.8664   -4218.3646   -4708.8664            0    10085.232    19.709715    19.663171    20.543748    7961.8423    12868.216    8701.1773    8686.3032    626.83181    379.76964    340.43304   -3047.3149 
29785000    245.74702   -4721.4502   -4247.5064   -4721.4502            0    10049.817    20.044318    19.648987    20.339991    8010.9165    11250.609    9544.6194     9354.221    -200.8921    705.04443   -1151.9956   -3073.3763 
29786000    260.01823    -4737.862   -4236.3949    -4737.862            0    10124.803    19.774302    19.865057    20.416384    8019.9158    12379.359    7594.2632    10400.785   -125.52683   -320.53068   -101.76551   -3052.1753 
29787000    255.84191   -4698.5788   -4205.1662   -4698.5788            0    10325.071    19.965809    19.765869    20.227051    7982.4352    8772.2772    11865.473    10337.462   -360.28801   -131.19971   -1968.2614   -3003.1666 
29788000    260.87168   -4688.8955   -4185.7825   -4688.8955            0    9026.5301    19.793128    19.747173    20.629963    8063.3928    9468.1305    8320.1005    9291.3593   -87.296315    764.95122   -1312.4918   -3124.2959 
29789000    257.14353   -4717.8341   -4221.9111   -4717.8341            0    9802.2439    19.916918    19.556806    20.439181    7961.2921    9311.4992    10841.674    9253.5587    384.77502   -1543.7818   -398.89748   -3083.7992 
29790000    253.35514    -4692.938   -4204.3213    -4692.938            0    9445.8026     19.89418    19.849409    20.336408    8030.5981    10086.156    7726.4335    10524.819    668.06543    1180.8831   -416.28297   -3098.0475 
29791000    258.71273   -4696.2438   -4197.2945   -4696.2438            0    9226.6053    20.010813     19.70548    20.330415    8016.7437    8088.3121    10347.543     9243.961   -266.81512    428.91909     1293.106   -3118.5569 
29792000      259.368   -4711.2155   -4211.0025   -4711.2155            0    10637.678    19.893552    19.820526    20.270541    7992.6881    11559.109    10087.459    10266.465   -619.24246    854.60985   -879.54396   -2971.0199 
29793000    259.33934   -4689.4796   -4189.3219   -4689.4796            0    8432.3165    19.957949    19.771513    20.432473    8062.6302    6782.5426    10268.765    8245.6414  -0.29521813   -603.24228   -429.69317   -3197.8064 
29794000    253.67864   -4735.1291   -4245.8885   -4735.1291            0    9622.9654    19.684187    19.970915     20.61641    8104.5421    9475.5251    9831.0822     9562.289    233.15902    51.134138    1437.4271   -3108.4883 
29795000    254.50395   -4726.6162   -4235.7839   -4726.6162            0    10254.735     19.97713    19.822928      20.1744    7989.1674    11280.204    8115.8635    11368.139   -151.91389   -457.11595    -2063.926   -3040.9656 
29796000     251.9487   -4722.1434   -4236.2391   -4722.1434            0    7765.5414    19.808205     19.86704    20.595621    8105.0031    8898.0878    8058.8014    6339.7349    501.16954    491.07653   -714.48358   -3318.3276 
29797000    258.97806   -4711.3455   -4211.8845   -4711.3455            0    9349.0237    19.940844    19.606075    20.608665    8057.1985    11506.323    8829.9995    7710.7489   -557.77491    736.74845     161.4388   -3113.3183 
29798000     251.9117   -4733.8939    -4248.061   -4733.8939            0    5369.6084    19.943398    20.162704    20.262271     8147.719    5213.4129    3011.5467    7883.8657    308.20747    1122.5136   -736.63341   -3610.0112 
29799000    259.34865    -4687.792   -4187.6163    -4687.792            0    10645.637    19.914608    19.658187    20.461707    8010.4532    11717.856    9647.4025    10571.652   -202.03196   -1201.1333    1552.9491   -2943.9479 
29800000    254.58348   -4717.5075   -4226.5218   -4717.5075            0    7584.8741    19.872295    19.657669     20.52791    8019.0844     6666.188    9604.7118    6483.7226   -762.30937    184.31632    -706.0173   -3339.4699 
29801000    275.79273   -4660.0342   -4128.1447   -4660.0342            0    10312.866    19.870404    19.813321    20.288811    7987.6786    12192.224    6970.4196    11775.954    100.79881   -18.430774    642.27895   -2926.7773 
29802000    254.41353   -4722.0849    -4231.427   -4722.0849            0    8958.3085    19.918857    19.521659    20.744428    8066.4533    8301.6777    10051.206    8522.0414   -198.86746    1758.7276    266.38314   -3177.5631 
29803000    246.21265   -4704.2292   -4229.3874   -4704.2292            0    10572.804    19.775991    19.600741    20.641985    8001.3308    12139.418    10745.972    8833.0205   -439.29736   -547.15364    1806.9169   -2995.6342 
29804000    266.36817   -4704.2742   -4190.5608   -4704.2742            0    8847.5182     20.00932    19.723002    20.484053    8083.9058    9241.6345    8632.9638    8667.9563   -459.96063    402.94806   -27.636522   -3147.4784 
29805000    259.32233   -4700.6266   -4200.5016   -4700.6266            0    9774.0365    19.927054    19.858153    20.388062    8067.8518    9137.6942    10018.284    10166.131   -615.33185    255.14068    1978.9402   -3050.4754 
29806000    279.86659   -4700.1406   -4160.3943   -4700.1406            0    10572.162    19.798494    19.624521    20.711155    8047.0282    13203.092    9513.6951    8999.6986   -172.47608    1308.3227    1211.3293   -2919.6702 
29807000    251.78211   -4728.8254   -4243.2424   -4728.8254            0    8894.4751    19.741052    19.922254    20.508903    8065.8695    11231.234    7708.2269    7743.9646   -223.26422    378.50713   -238.83212   -3196.9637 
29808000    260.67162   -4700.8186   -4198.0914   -4700.8186            0    11232.069    19.843248    19.932352    20.313515    8034.4542    11920.538     10821.92    10953.749     -208.787    -846.0971    896.85692   -2881.9819 
29809000    250.98858   -4703.8514   -4219.7989   -4703.8514            0    8003.0305    19.848713     19.83298    20.619546    8117.0729    7520.3698    8761.5153    7727.2066   -675.24102   -515.52068   -1182.6523   -3272.4067 
29810000    257.28397   -4703.9937   -4207.7999   -4703.9937            0     9589.784    20.001151    19.776413    20.432989    8082.2893    8421.7559     10032.32    10315.276   -265.45319    3021.8281   -890.46341   -3077.4338 
29811000    261.04754   -4707.6645   -4204.2123   -4707.6645            0    8298.3485    19.956897    20.089407    20.199763    8098.5338    8656.5065    6286.4667    9952.0723    143.46472     921.4076   -50.414657   -3224.1043 
29812000    281.65516   -4694.4075   -4151.2119   -4694.4075            0    8714.7027    19.972299    19.828127    20.292091    8035.9373    9096.6108    8203.9742    8843.5231   -963.02848   -180.42543   -53.805404   -3129.8844 
29813000    266.23484   -4697.2707   -4183.8144   -4697.2707            0    7375.2335    19.711038    19.951353    20.575429    8091.5317    7485.2505    8478.6126    6161.8376   -18.026318   -209.48676    632.67874   -3313.4875 
29814000    270.02216   -4727.1961   -4206.4356   -4727.1961            0    9295.7684     19.87978    19.640763    20.571198    8032.1077    8147.2895    10922.966    8817.0498   -933.46963    832.15859   -348.95449   -3117.5288 
29815000    255.25454   -4714.4507   -4222.1709   -4714.4507            0    10940.163    19.809863    19.913428    20.364164    8033.3019    10767.115    10497.272    11556.102    342.85062    794.25333    989.97962   -2940.4491 
29816000    261.05444   -4659.5419   -4156.0765   -4659.5419            0    8417.5899    19.911487    19.824895    20.554387    8113.7033    7836.2504    10224.261    7192.2583   -700.09523   -1030.8901   -851.98106   -3160.0227 
29817000    256.23063    -4719.698   -4225.5357    -4719.698            0    9514.4802    19.658353    19.931357    20.507883    8035.3505    9920.2243    9102.7188    9520.4974   -13.882212    1171.4833    233.13418    -3110.559 
29818000    259.92124   -4705.9639   -4204.6839   -4705.9639            0    10048.514    19.785457    19.820813    20.483851    8033.0259    9671.4939    10554.714    9919.3342   -922.24306    1115.9044   -193.96821   -3027.4659 
29819000    238.45177   -4697.8135   -4237.9393   -4697.8135            0    10831.638    19.929251     19.77019    20.290244    7994.4593    8741.6958    11368.412    12384.805   -869.55911    4.2875926    1611.4427   -2975.0679 
29820000     259.5208   -4703.1332   -4202.6255   -4703.1332            0    8293.4361    20.050987    19.678993    20.512473    8093.8779     8548.848    7687.0135    8644.4468    551.14327    1155.4579    418.58472   -3223.6608 
29821000    261.74726   -4686.8793   -4182.0777   -4686.8793            0    11908.685    19.596496    19.701856    20.572048    7942.6072    13416.553    11189.109    11120.393    288.08203    1155.7121   -1919.6013   -2802.6378 
29822000    268.63977   -4643.9917   -4125.8974   -4643.9917            0    10771.769    19.943437    19.441965    20.580635    7979.9274    8343.8631    11867.254    12104.189    315.36484    1126.7703   -78.542001   -2872.2891 
29823000    243.48196   -4704.6662   -4235.0907   -4704.6662            0    9273.2021    19.703001    19.624119    20.668126    7991.4143    8834.6692    10378.452    8606.4849   -293.61609    1103.9462   -1754.6145   -3154.3307 
29824000    250.47046   -4724.7722   -4241.7189   -4724.7722            0    9103.2625    19.901605    19.764903    20.483395    8057.2111    8471.9597    10454.907    8382.9205   -256.38656    780.98377   -168.10396   -3172.0295 
29825000     262.5974   -4731.2685   -4224.8274   -4731.2685            0      9672.06    19.887426    19.939602    20.298598    8049.3556     10083.84    8639.8078    10292.532   -370.81033   -695.24762     534.0565   -3089.4088 
29826000    262.67274   -4717.2066   -4210.6201   -4717.2066            0    9781.8889    19.880948    19.803455    20.366894    8018.6796    10900.331    8824.3191    9621.0164    464.78777    449.64712   -89.063317   -3066.6848 
29827000    245.14039     -4722.22   -4249.4461     -4722.22            0    10702.394    19.764483    19.855206    20.506066    8047.1518    10059.901    13183.956    8863.3258    395.11221    469.05757   -543.82047    -2993.419 
29828000    270.74914   -4691.5448   -4169.3824   -4691.5448            0    9287.1766    19.982192     19.92321    20.201367    8042.3539    8350.2814      9828.33    9682.9184     136.9981    581.73684      50.2516   -3080.0942 
29829000     260.3285    -4735.095   -4233.0296    -4735.095            0    9679.5312    19.888067    19.847994    20.355836    8035.2268    9640.4758    9974.2081    9423.9098   -110.64429    1283.7993    996.88352   -3098.7285 
29830000    258.98873   -4674.6317   -4175.1501   -4674.6317            0    10262.653    19.997715    19.905981    20.130193    8013.3093    8782.1653    10732.933    11272.862   -157.37925    422.18539    413.27583   -2975.7959 
29831000     257.5625   -4688.3377   -4191.6068   -4688.3377            0     9739.918    19.873264    19.835835    20.421108     8050.058     8334.083    11573.647    9312.0245     662.6442    743.76385    2243.9428   -3048.1225 
29832000    246.62907   -4710.8558   -4235.2109   -4710.8558            0    9583.0759    19.790123    19.866822    20.381612    8013.3744     9405.275    10098.673    9245.2802   -432.65943   -1199.2825    450.96407    -3115.267 
29833000    254.61347   -4682.9397   -4191.8962   -4682.9397            0    9494.0648    19.880661    19.706037    20.515521     8037.346     10724.97    8483.6979    9273.5267   -150.71105   -1139.7662    353.36148   -3079.0357 
29834000    261.24528   -4672.8057   -4168.9722   -4672.8057            0    10655.917    20.060584     19.68248    20.360548    8039.1999    9324.6188    11824.449    10818.684   -263.60503   -1144.5651    65.401267   -2919.6353 
29835000    259.11667    -4726.753   -4227.0247    -4726.753            0    10329.059    19.654512    19.884236    20.438287    7987.5879    12684.903    9022.7551    9279.5202   -578.09824     262.0677   -320.52701   -3023.7846 
29836000     256.1463   -4725.1732   -4231.1735   -4725.1732            0    9222.9408    19.999195    19.845096    20.414423    8102.1977    10790.604    8686.7016    8191.5169    -53.30955   -1381.3527   -1126.2869   -3141.3701 
29837000    253.76013   -4709.2906   -4219.8929   -4709.2906            0    10019.528    19.849473    19.648106    20.620223    8041.9811    12065.633     9251.074    8741.8757   -428.78359   -210.28168   -4.5797134   -3044.7621 
29838000    246.08355   -4679.4073   -4204.8145   -4679.4073            0    8725.8245       19.745    19.651887    20.755055    8053.5115    8245.5811     10863.08    7068.8123   -205.64156    799.97085   -807.99478   -3179.9471 
29839000    246.24631   -4737.3163   -4262.4096   -4737.3163            0    8316.3901    19.931076    19.911905    20.330066    8068.3056    6848.9201    9128.1711     8972.079   -198.84663   -742.94111   -975.03368   -3283.8369 
29840000    258.27851   -4717.9847   -4219.8729   -4717.9847            0    9717.9477     19.83809     19.96349    20.267174     8026.561    9266.9319    8859.4558    11027.455    46.612386   -1938.4113   -536.80782   -3082.2981 
29841000    256.00992   -4707.7106   -4213.9739   -4707.7106            0    11990.283    19.637601     19.77525     20.53579    7974.8376    11013.529     12462.77    12494.549   -318.35249    890.48172    409.62602   -2819.4462 
29842000    260.85136   -4705.9344   -4202.8606   -4705.9344            0    10778.173    20.127149    19.449726     20.38791    7981.2049    10431.379    10807.852    11095.287    439.49546   -687.13451   -484.08203   -2948.3062 
29843000     260.5334   -4689.8815   -4187.4209   -4689.8815            0    10666.498    19.800848    19.778743    20.550452    8048.2944    10700.303    11894.779    9404.4136   -81.170709   -203.81604   -95.522688   -2935.4287 
29844000    261.28958   -4716.7583   -4212.8393   -4716.7583            0    9357.1295     20.12531    19.645355     20.37803    8056.8384     8116.356    9905.5799    10049.453   -1237.5322    480.85889   -345.69148   -3113.3698 
29845000    241.64053   -4707.4992   -4241.4751   -4707.4992            0    8972.1633    19.814556    19.703777    20.536424     8017.863    8395.3331     10231.74    8289.4168    399.69371    734.62898   -67.248519   -3192.3394 
29846000    265.14955   -4704.7835   -4193.4203   -4704.7835            0    10945.149    19.801162    19.661573    20.490275    7977.3149    10569.218    11214.042    11052.188     191.1953   -1195.2716    512.58755   -2920.0511 
29847000    262.28591   -4702.2549   -4196.4145   -4702.2549            0    10372.249    19.788116    19.958775    20.255293    7999.7578     7756.476    12655.244    10705.026   -309.04775    844.24274     1093.968   -2986.3023 
29848000    259.00517    -4712.532   -4213.0188    -4712.532            0    7747.1559    19.865282    19.992181    20.384087    8095.5465    5841.8954    8376.5114    9023.0608    28.579753     645.9004     -404.309   -3298.3489 
29849000    257.37635   -4701.3605   -4204.9886   -4701.3605            0    10640.979    19.722616    19.715717    20.574821    8000.4269    9700.1145    11356.818    10866.003   -350.78235     577.2934   -481.81309   -2963.4203 
29850000    254.02433   -4693.6861   -4203.7788   -4693.6861            0    11060.293    19.512186    19.776517    20.782803    8019.7317    10752.437    11542.927    10885.516   -465.94161   -780.53691   -900.27631   -2910.1718 
29851000    238.19761   -4714.5225   -4255.1384   -4714.5225            0    10086.502    19.846437    19.665805    20.574711    8030.2306    9456.3104        10071    10732.197    586.74829    63.356334    851.50692   -3073.8811 
29852000    252.50618   -4688.1497   -4201.1703   -4688.1497            0     9486.288    20.015751     19.57137    20.544658    8048.0749    9154.9177    11083.628     8220.318   -419.23256   -483.14616   -345.51372    -3087.737 
29853000    258.84957    -4690.302   -4191.0888    -4690.302            0    8207.9322      19.8623    19.768917    20.555364    8071.1905    6922.5836     8244.977     9456.236    336.01828    211.49654    68.971648   -3224.9328 
29854000    266.74245    -4701.084   -4186.6487    -4701.084            0     10272.48    20.159207    19.654129    20.218607    8010.8477    8056.4654    11118.635    11642.339   -627.97373    25.781955    -797.1424   -2986.5149 
29855000    262.26444   -4665.3516   -4159.5525   -4665.3516            0     10162.25    19.849919    19.812134    20.435779    8036.7638    9738.8378    9862.7752    10885.138    592.61316    1449.1999    327.40081   -2968.4559 
29856000    242.32932   -4693.7355    -4226.383   -4693.7355            0      9425.36     20.08483     19.78429    20.202137    8027.6038    9587.2383    8356.5779    10332.264   -828.88338    228.53478   -996.83007   -3122.9149 
29857000    267.95723   -4712.3546   -4195.5765   -4712.3546            0    9913.6935    19.738197    19.737905    20.473506    7976.2866    10138.409    9536.6301    10066.041    312.80261    255.80873    -147.5657   -3042.3566 
29858000     251.4424   -4657.7674   -4172.8396   -4657.7674            0    9180.3939    19.752383    19.636777    20.605185    7992.1978    10732.977     8471.074    8337.1303    156.08934    521.93606     1373.448   -3102.7912 
29859000    266.24334   -4717.8089   -4204.3363   -4717.8089            0    9981.4794     19.77561    19.704623     20.70958    8069.9215    11965.351      9748.92    8230.1677    -46.32631    92.057148    539.75731   -3029.6007 
29860000    256.17538   -4675.6839   -4181.6282   -4675.6839            0    8961.6188    19.928174    19.973363    20.329255    8091.7074     6561.824    10773.895    9549.1375   -47.044838   -741.89812   -441.94132   -3124.0742 
29861000     255.9139   -4660.0752   -4166.5237   -4660.0752            0    9706.3278    19.858674     19.66239    20.540763    8020.5308    9969.3569    9986.3109    9163.3156   -241.62401    108.38374   -32.763147   -3031.1627 
29862000    258.56321   -4687.1508   -4188.4899   -4687.1508            0    8791.6175    19.830299    19.847659    20.394306     8026.893    10667.172    6734.3325    8973.3482    942.51309    1098.4091    239.42085   -3159.3079 
29863000    258.72927    -4733.383   -4234.4019    -4733.383            0     8857.176    19.990647    19.690993    20.470008     8057.726    7453.0506    9720.8624    9397.6149    490.67133   -1651.0154   -93.272588   -3193.5626 
29864000    244.89196   -4666.8997    -4194.605   -4666.8997            0    8650.9869    19.931382    19.935862    20.334427    8079.8699     9037.026    8093.9262    8822.0086   -354.41108     452.5684    152.15843    -3175.202 
29865000    253.13037    -4695.991   -4207.8078    -4695.991            0    9905.8163    19.984262    19.511089    20.715601    8077.3174    7639.5233     12535.39    9542.5357    38.591773   -389.44035   -284.69906   -3040.9086 
29866000    246.80626    -4700.756   -4224.7693    -4700.756            0    9594.9918    19.557862    20.019002    20.390864    7983.6125    9363.9426    9988.6238    9432.4089     1092.493   -172.71386    965.76482   -3107.5976 
29867000    248.50412   -4722.8495   -4243.5884   -4722.8495            0     8746.083    19.995417    19.711083    20.461021    8064.3294    7356.2804    9303.9704    9577.9982   -1356.7581   -445.32501    1542.4972   -3214.9618 
29868000    259.62648    -4721.515   -4220.8035    -4721.515            0    10046.264    19.611573    19.991846    20.398729    7997.7611    10821.652    10050.123    9267.0179    197.70472    96.617689    1188.9639   -3049.0159 
29869000    262.79068   -4741.1187   -4234.3048   -4741.1187            0    10612.202    19.868098    19.646717    20.527997    8012.9578    10571.321    10807.208    10458.078   -273.13816   -1282.6924   -1333.3926   -2994.1547 
29870000    257.94272   -4702.3385   -4204.8743   -4702.3385            0    9826.2476    19.810735     19.76566    20.585527    8060.7214    9307.4682    9743.1199    10428.155   -349.64088     1132.872    24.331762   -3049.7266 
29871000    245.86704   -4717.2367   -4243.0614   -4717.2367            0    8506.6381    20.090771    19.863811    20.267843    8088.4762    8812.2013    7368.6811    9339.0317    397.44827   -811.55705    17.796785   -3239.6003 
29872000    269.97043   -4703.8816    -4183.221   -4703.8816            0    9048.4142    19.962805    19.936976    20.220994    8047.9146    9681.5045    6741.2622    10722.476     151.8911    1208.8439   -1.7446965   -3121.2033 
29873000    262.43235   -4710.5912   -4204.4684   -4710.5912            0    7516.7359    19.882978    19.913654    20.386956    8072.0671    6451.6491    9209.5923    6888.9663   -126.03651    -255.2573   -645.34065    -3319.577 
29874000    262.76924   -4720.3775    -4213.605   -4720.3775            0    7230.0074    19.959405    19.924318    20.489103    8148.0558    5226.1729    7975.4912    8488.3581   -439.18465    -666.8135    754.36587   -3354.4557 
29875000    272.75128   -4705.1184   -4179.0946   -4705.1184            0     9182.866    19.699621    19.832604    20.611287    8052.7223    8963.2691    9484.7187    9100.6101   -142.04717   -306.26346    1371.4608   -3100.6524 
29876000      244.815   -4714.4628   -4242.3165   -4714.4628            0    8565.7881    20.112976    19.848537    20.150661    8044.4091    7996.0348    8107.0725    9594.2569   -308.01438   -764.84351   -49.345565   -3237.3829 
29877000    260.83759    -4713.756   -4210.7088    -4713.756            0    9586.0237    19.506566    19.892574    20.622751    8002.3656      10318.9    10275.478    8163.6934   -68.820476    552.00397    1992.3194   -3091.9595 
29878000    250.31116   -4696.8226   -4214.0765   -4696.8226            0    11022.234    19.830771    19.643254    20.601317    8025.0548    10684.372    11973.939    10408.391    551.09507    290.71256   -345.75146   -2924.0652 
29879000    276.58615   -4699.0672   -4165.6476   -4699.0672            0    9369.7422    19.743614    20.002787    20.283838    8010.6413    10152.563    9059.1334    8897.5305    882.55291    248.68584    986.61607   -3071.0088 
29880000    237.65987   -4716.0796   -4257.7326   -4716.0796            0    9174.3631    19.910497    19.759097    20.612922    8109.4008    8450.1422     9574.212    9498.7352    440.13035   -143.32643    272.33036   -3172.7055 
29881000    240.86657   -4715.0702   -4250.5388   -4715.0702            0    8700.3861    19.805935    19.835059    20.520638    8061.5718    10080.227    7623.8005    8397.1309   -379.06392    831.56123   -715.71092   -3227.6365 
29882000    257.77144   -4675.2049   -4178.0711   -4675.2049            0    8582.2578    19.963304    19.776089    20.425531    8063.9194    8798.7873    7973.6773    8974.3089     279.3706    305.50585   -69.722736   -3168.7633 
29883000    261.75575   -4680.8439   -4176.0259   -4680.8439            0     10621.07     19.79005    19.788706    20.535252    8042.0043    10205.129    11502.803    10155.278    547.54183    154.93249   -284.53284   -2930.3402 
29884000    248.11322    -4714.678   -4236.1708    -4714.678            0    9800.6401    19.925577    19.861757    20.413002    8078.5878    9435.2114    8959.7632    11006.946   0.53093226    826.26769    1495.1333   -3081.4798 
29885000    260.52512    -4723.584   -4221.1394    -4723.584            0    9802.2576    20.017997    19.879422    20.260502    8062.5899    9322.9202    10348.871    9734.9822   -508.48354   -667.30967   -360.15972   -3068.5448 
29886000    264.25313   -4716.4842   -4206.8498   -4716.4842            0    8559.6573    19.930154    19.798333    20.438445    8064.6799    7930.5701    8863.4266    8884.9753    644.34507   -1038.8831    819.95703    -3200.105 
29887000    256.82011   -4723.4943   -4228.1951   -4723.4943            0    8100.5465    19.799786    19.830958    20.470968    8037.8997    9275.0498    7596.2596    7430.3301   -326.02102     1267.163   -1618.1721   -3278.6124 
29888000    253.73732   -4728.2469   -4238.8932   -4728.2469            0    7822.1484    19.978649    19.882801    20.511337    8147.7492    5936.4534    8665.0561    8864.9356    270.51319    378.67611    -1210.538   -3309.4141 
29889000    248.25187   -4729.9841   -4251.2095   -4729.9841            0    9414.8505    19.847849    19.823561    20.444276    8043.9033    9601.6276    9359.7324    9283.1914    285.37102   -1189.3985    690.80649   -3146.7338 
29890000    255.18471   -4689.3093   -4197.1641   -4689.3093            0    8399.6238    19.888637    19.746256     20.56864    8077.8421    7864.8665    8682.2198     8651.785    513.84245    -600.0009   -707.96586   -3207.6293 
29891000    248.47118   -4698.7512   -4219.5536   -4698.7512            0    9439.9672    19.868699    19.914172    20.427878    8082.6717      10783.4     8089.268    9447.2331    454.69238   -768.17763   -1063.2052   -3106.7941 
29892000     257.9442   -4714.3074   -4216.8403   -4714.3074            0    8170.0286    19.932472    19.914957    20.348192    8077.3029    9269.1214    7469.0758    7771.8887    313.66396    162.08525   -991.64934   -3254.4176 
29893000    258.27571   -4711.0094   -4212.9029   -4711.0094            0    11050.209    19.749775    19.656547    20.521678    7966.7696     10893.07    11365.248     10892.31    -157.1417   -38.955755    1339.5143   -2929.0104 
29894000    259.61159   -4703.5052   -4202.8224   -4703.5052            0    10907.831    19.588214    20.039467     20.43901    8023.0751    11677.602    10890.507    10155.384   -918.08521   -407.11591   -439.05386   -2926.5154 
29895000    258.82407   -4709.2046   -4210.0407   -4709.2046            0    7925.2215    19.921226    19.898432     20.35161    8067.4016    5862.7569    8185.4197    9727.4878    311.19592    1317.4905    1119.6855   -3277.6005 
29896000    253.25144   -4723.5932   -4235.1765   -4723.5932            0    8077.3654    19.668697    19.839368      20.6563    8060.3882    7415.8987    8997.6635    7818.5341   -645.42364     1302.428   -309.49438   -3285.6621 
29897000    259.08673   -4746.9317   -4247.2611   -4746.9317            0    7328.3807    19.762999    19.877897     20.58022    8084.8748    7648.0965    5494.0068    8843.0389   -458.46938    863.82703     533.0302   -3383.1746 
29898000    253.44222    -4718.051   -4229.2664    -4718.051            0    10482.246    19.905377    19.948755    20.321823    8069.5418    9885.8271    10478.736    11082.176   -882.83227   0.97744542    374.05927   -2995.6528 
29899000    262.09761   -4697.9187   -4192.4414   -4697.9187            0    9643.7035    20.033862    19.901519    20.247871    8072.9129    9402.9557    8260.1893    11267.966    1074.5941    771.14915   -1489.3388   -3057.0385 
29900000    251.64046   -4688.0351   -4202.7253   -4688.0351            0    10161.804     19.72364    19.874383    20.395879    7995.0859    11147.936    8735.2205    10602.254   -292.01735     774.6467   -1080.9553   -3017.8577 
29901000    266.59808   -4689.6143   -4175.4575   -4689.6143            0    9716.1087    20.079323     19.57341     20.45226    8038.1641     9113.033    12265.148    7770.1447    495.62564    -262.9712    88.255872   -3036.4538 
29902000    264.00102   -4703.6344   -4194.4863   -4703.6344            0    8880.1713    19.830333     19.91403    20.480233    8087.6819    9875.8199    7769.9541    8994.7398    -459.4779   -512.86967    164.56546   -3147.0652 
29903000    252.26143   -4709.5744    -4223.067   -4709.5744            0    8103.6284    19.982622     19.84544    20.421894    8098.5868    6952.9322    8840.0135    8517.9395    214.71687    451.92287   -1021.2973   -3265.9509 
29904000    264.64854   -4732.1729    -4221.776   -4732.1729            0    7157.3708    20.058903    19.932523    20.345043    8134.4474    3381.3191    9367.5072     8723.286   -521.24296   -169.03644   -531.78354   -3372.6787 
29905000    269.06673   -4730.3832   -4211.4654   -4730.3832            0    9100.5874    19.935632    19.797802    20.346371    8030.3402    10275.673    7940.5799    9085.5093   -250.24564    582.38451    893.21707   -3145.6567 
29906000    249.86885   -4710.1087   -4228.2156   -4710.1087            0    9317.3217    19.708037    19.850639    20.587845    8054.3172    10644.272    7754.8415    9552.8516   -623.72535    910.92302   -1875.3881   -3133.7661 
29907000    266.02625   -4711.9222   -4198.8682   -4711.9222            0    11509.568    20.026363    19.480042    20.500258    7997.4456    11412.558    12906.105     10210.04   -750.39393   -1487.1262   -620.19938    -2856.455 
29908000     244.0879   -4714.8098   -4244.0658   -4714.8098            0    8624.0737    19.789412    20.000609    20.391099    8070.8028    8478.2939    9182.3092     8211.618   -257.37306    1513.9549   -33.153335   -3228.9745 
29909000     251.3684   -4736.5491    -4251.764   -4736.5491            0    7166.6848    19.912064    19.795841    20.666035     8146.056    6629.7223    8677.1914    6193.1408   -584.03821    8.8414155    245.27431   -3400.3484 
29910000    260.73081   -4700.1506   -4197.3093   -4700.1506            0    9772.5588    19.918734    19.538481    20.540418    7993.9569    8843.8706     10714.22    9759.5855    269.42975   -202.16683    1452.1813   -3057.9886 
29911000    257.11943   -4734.3269   -4238.4505   -4734.3269            0    7390.8038    19.873337    19.904343    20.481746    8101.8764    6690.0733    9890.8098    5591.5284      229.562    445.24395    1592.7282   -3365.1711 
29912000    253.43449    -4692.018   -4203.2483    -4692.018            0    8131.0959    19.874157    19.822965    20.505126     8078.296    8461.5785    7357.1522    8574.5571     82.04259    1666.2419    -146.4794   -3245.2941 
29913000    252.76762   -4690.9753   -4203.4917   -4690.9753            0    7970.5643    19.908838    19.978392    20.260106    8058.3878    7440.3598     6295.953     10175.38     118.9008    178.77363     1515.424   -3266.7645 
29914000    253.37371   -4712.8181   -4224.1656   -4712.8181            0    10227.872    19.824898      19.7985    20.462328    8031.5301    7545.0038    13233.548    9905.0651    229.15463   -632.99252   -53.832951   -3026.1583 
29915000    257.07862   -4718.5741   -4222.7764   -4718.5741            0    9462.3206    19.779769     19.86764    20.537287    8070.6881    8924.1816    9364.5289    10098.251    963.64626    251.29829    463.44852   -3109.0356 
29916000    249.27897   -4678.2056   -4197.4501   -4678.2056            0    9589.8833    20.062805    19.526032    20.580963    8062.5299    8571.5046    11069.389    9128.7566    460.17632    424.89928   -93.609898   -3069.8358 
29917000    269.50829   -4733.8253   -4214.0559   -4733.8253            0    8063.2458    19.862006    19.866989    20.549584    8108.8302    7678.0364    7979.4647    8532.2362   -193.42734    -448.0046    46.099999   -3260.5048 
29918000    264.49692   -4685.9887   -4175.8841   -4685.9887            0    9548.3023    20.012477    19.816262    20.297341    8049.3669    8747.5077    9715.2377    10182.161    971.29077    599.64983   -411.77388   -3054.9921 
29919000    282.25529   -4713.3562   -4169.0032   -4713.3562            0    11528.276    19.666364    19.970639    20.390748    8008.4635    12081.923    11317.414    11185.492   -259.45553    842.72274   -947.18369   -2822.5555 
29920000    252.09742   -4690.8022   -4204.6111   -4690.8022            0    8848.9348     19.67847    19.884265    20.656339    8082.6585    10047.303    9994.4509    6505.0501    194.42372    532.66762   -2080.7308   -3161.5227 
29921000    269.94386     -4710.59   -4189.9805     -4710.59            0    9934.8477    19.913636    19.846188    20.413872    8067.7615    10184.538    9818.8954    9801.1096    74.316604   -351.04719   -1130.9147   -3021.0461 
29922000    250.96009    -4727.223   -4243.2253    -4727.223            0    8013.2543     20.08681    20.010203    20.278167    8150.6295    7633.7143    7679.8485    8726.2001   -505.40175    1991.0292   -847.06751   -3290.7013 
29923000    251.58274     -4725.08   -4239.8815     -4725.08            0    9759.1719    19.854453    19.789663    20.433493    8028.5832    9484.3478    9267.0095    10526.158   -440.73928    499.21935    439.47739   -3097.1932 
29924000    255.61062   -4690.1922   -4197.2257   -4690.1922            0    10392.692    19.760027    19.648095    20.674248    8026.7127    11633.236    10651.832    8893.0088    561.34421   -727.09381    1035.1704   -2980.6429 
29925000    255.87373   -4719.9368   -4226.4627   -4719.9368            0    8971.3689    19.882346    19.798716    20.469162    8057.5817    8127.4826    9826.5971    8960.0268    1029.4507   -1138.9699    73.644195   -3172.2232 
29926000    246.94383   -4701.8251   -4225.5732   -4701.8251            0    11190.083     19.65819     19.92028    20.277652    7940.6604    11532.512    11339.681    10698.055    202.32297    272.18629   -152.54344   -2929.6902 
29927000    254.28465   -4703.8468   -4213.4375   -4703.8468            0    7550.7724     19.82624    20.165631    20.335237    8130.2036     7685.108    7241.9875    7725.2217   -121.73351   -96.254017   -826.38553   -3318.1372 
29928000    252.82288   -4704.4373   -4216.8471   -4704.4373            0    8600.6844    20.001517    19.798146    20.497489    8116.8614    7295.6946    10197.102    8309.2565      899.933    -626.9286     343.6288   -3198.7317 
29929000    272.44731   -4701.2426    -4175.805   -4701.2426            0    11860.464     19.63378    19.879209    20.515195    8007.1633    14400.988    11207.177    9973.2262    746.44598    926.99714    734.74883   -2790.7844 
29930000    261.84446   -4697.5712   -4192.5821   -4697.5712            0    10127.971    20.055225    19.853793    20.202784    8044.1886    9038.1088    10675.768    10670.037    732.01461    305.18279    231.07713   -3004.4066 
29931000    254.49623   -4705.1273   -4214.3099   -4705.1273            0    10153.293    19.709745    20.056825     20.28612    8019.4057    10889.371    9290.8715    10279.636    520.31463    443.51076   -624.43709   -3026.8335 
29932000    268.87439   -4711.5282   -4192.9813   -4711.5282            0    10185.173    19.722821    19.566366    20.574351    7939.7231    11259.057    8699.9429    10596.519    608.24442   -144.63975   -146.63614   -3013.6124 
29933000    232.59097   -4673.3832    -4224.812   -4673.3832            0    9859.0524    19.828308    19.564005    20.548728    7971.2856      8775.66    11492.949    9308.5477   -29.923694   -677.03063   -324.14636   -3078.6673 
29934000     256.8422   -4721.3532   -4226.0114   -4721.3532            0    8845.5608     19.91055    19.661692    20.483111    8018.6277     9217.393     8462.091    8857.1985    254.48181   -872.87268   -601.36049   -3191.5809 
29935000    260.15588   -4683.7726   -4182.0401   -4683.7726            0    8678.5114    19.773666    19.590735    20.749336    8037.8914    8711.8285    8693.2077    8630.4979    345.49511   -929.82652    -1067.963   -3164.7068 
29936000    268.79189   -4687.1975   -4168.8097   -4687.1975            0    11245.518    19.843688    19.626514    20.471584    7972.9125    9981.4234    12234.581    11520.549   -193.08489   -558.32275    -1421.275   -2861.2174 
29937000    258.60383   -4712.8375   -4214.0983   -4712.8375            0    9587.5893    19.834441    19.633797    20.452817    7964.8462    9565.9614    9233.4366      9963.37    208.82665    -1203.422   -1003.2537   -3100.4124 
29938000    265.60903   -4708.6567   -4196.4074   -4708.6567            0    8759.5434    19.764818    19.646569    20.678017    8029.4982    10931.112    8034.4447    7313.0738   -21.552341     759.9888   -956.62745   -3170.6473 
29939000    240.09036   -4703.7683   -4240.7338   -4703.7683            0    9744.0501    19.935351    19.843915    20.338998    8046.0142    10896.512    8669.6298    9666.0081    542.03855   -2393.8323    336.08864   -3097.3391 
29940000    268.94948   -4690.1054   -4171.4137   -4690.1054            0    11056.416    19.544057    19.916374    20.640173    8034.1206    12147.545    11439.929     9581.774    38.909117   -252.34432     343.0531     -2875.94 
29941000    256.00299   -4703.6241   -4209.9009   -4703.6241            0    9706.1619    20.021558    19.901839    20.409533    8132.5015    10129.349    8281.8793    10707.257     263.4754   -125.98262    1243.8923   -3058.7094 
29942000    262.91672   -4701.0638   -4194.0068   -4701.0638            0    11972.907    19.769876    19.884741    20.376524    8010.3962    12653.782    12532.053    10732.887   -356.35721     589.2548    690.88549   -2795.2909 
29943000     260.4115   -4703.1076   -4200.8821   -4703.1076            0     9867.636    19.868272    19.493873     20.70617    8019.6978    10406.838     10647.18    8548.8894    598.08748    762.75647    932.47249   -3046.7726 
29944000     267.1355   -4696.3741   -4181.1808   -4696.3741            0    8757.7122     19.75911    19.881967    20.394314    8011.9056    9424.4651    7364.8197    9483.8519    580.60719    959.64992   -497.28881   -3157.8822 
29945000    257.16764   -4700.5834   -4204.6139   -4700.5834            0    10416.764    19.887838    19.730103    20.447706    8023.4564    8327.8259    13429.243    9493.2219   -405.49628    1143.0923   -767.55871    -2985.708 
29946000    255.62122   -4712.6831    -4219.696   -4712.6831            0    7937.8175    19.586512    20.065247     20.66256    8120.5557    8967.7497    7200.8083    7644.8945    150.04932   -262.59868    672.85512   -3279.6205 
29947000    251.59294   -4688.4317   -4203.2136   -4688.4317            0    8444.0793    19.897423    19.521553    20.752644    8060.9201    5597.7475    11649.709     8084.782   -247.42292    96.920279   -3084.8162   -3210.5255 
29948000    251.31479   -4687.2121   -4202.5304   -4687.2121            0    8387.2945    20.035976    19.722562    20.434132    8074.7673    7554.0661    8346.8032    9261.0141   -214.62379    92.992379    764.57715   -3214.8242 
29949000    270.40453   -4690.3333   -4168.8354   -4690.3333            0    9882.0962    19.708589    19.608713    20.705267     8001.759    8081.2618    12134.339    9430.6878   -453.35757    1028.2966   -638.53736     -3015.62 
29950000    250.83767    -4698.803   -4215.0415    -4698.803            0    9750.1535    19.773308    19.978499    20.352442    8040.0493    10116.481    8730.6827    10403.297   -508.60826   -706.97631   -1034.4663   -3071.7787 
29951000    251.24208   -4701.7946   -4217.2531   -4701.7946            0    9230.7825    20.087023     19.93475    20.149322    8068.3884    9104.8668    8381.5737    10205.907   -296.15467    601.33635   -165.34542   -3131.0746 
29952000    248.01879   -4682.4278   -4204.1027   -4682.4278            0    8737.8645    19.735752    19.650581    20.754889      8049.14    8523.0353     10109.72    7580.8387    258.79858   -608.31928   -186.93422   -3178.3783 
29953000    241.58361   -4699.5545   -4233.6402   -4699.5545            0    10477.708    19.892023    19.669508    20.477992     8012.348    8852.2098    12264.511    10316.404    870.64453    1106.8768   -4.6063074   -3009.3003 
29954000    243.66419   -4698.0187   -4228.0918   -4698.0187            0    10134.593    19.907537    19.825063      20.3704    8039.5487    10029.542    9210.1959    11164.042    983.43878    970.49368    1596.2152   -3039.8252 
29955000    250.27361   -4708.7438   -4226.0701   -4708.7438            0    9620.0937    19.742237    19.814027    20.451507    8000.0816      9601.13    8017.6569    11241.494    18.997742    365.34411   -1270.3284   -3103.6651 
29956000    261.79227   -4745.9874    -4241.099   -4745.9874            0    8299.0471    19.880002    19.638367    20.618931    8049.8529    8510.7297    6224.8062    10161.605    852.29055   -756.89091   -1286.9284   -3266.8004 
29957000    253.95235   -4706.1452   -4216.3767   -4706.1452            0    10018.962    19.578996    19.927121    20.651124    8057.0986    12240.765    9620.1894    8195.9327    243.17472    805.24205   -799.43982   -3039.1034 
29958000    253.29581   -4691.1287   -4202.6265   -4691.1287            0    9040.3296    20.046244    19.716767    20.514477    8108.2881    8293.8548    8840.1854    9986.9485   -339.64009    -1718.334     355.9808   -3133.5979 
29959000    258.39904   -4708.4347   -4210.0904   -4708.4347            0    10401.508    19.832068    19.909328    20.371031    8043.3618    10453.073    9741.6186    11009.834   -886.87946    573.60321   -694.37464   -2989.9499 
29960000    271.00445   -4686.6725   -4164.0176   -4686.6725            0    10002.648     19.94453    19.799978    20.269442    8004.4281    9620.4677    10679.776    9707.7003   -737.03037   -689.04723    643.35288   -2996.3448 
29961000    256.05348   -4680.5547    -4186.734   -4680.5547            0     10590.96    19.892376     19.74305    20.370417    8000.1997    12119.141    8091.1904     11562.55   -368.78336   -1989.5658     647.5889   -2951.0368 
29962000    244.44251   -4676.9236   -4205.4957   -4676.9236            0    8113.5645    19.538485    19.888864    20.708967    8047.4688    9475.3487    7880.3941    6984.9506    451.00078   -134.19933   -1158.6118   -3253.2547 
29963000    270.82853   -4709.9416    -4187.626   -4709.9416            0    8202.1306    19.811666    19.924936    20.481923    8085.1607     9217.399    7054.2359    8334.7569    773.84601    291.85323    986.04531   -3220.4818 
29964000    268.34225    -4710.921   -4193.4004    -4710.921            0    9251.2664    19.851761     19.89113    20.293326     8013.306    9499.7493    8273.5787    9980.4712   -142.41646    667.71501   -93.053816   -3112.2433 
29965000    246.54738   -4730.0869   -4254.5995   -4730.0869            0    9783.8171    19.914829    19.857912    20.381538    8060.2238    9403.6969    9719.5869    10228.167    762.19597   -25.229438    -690.3614   -3104.5109 
29966000    264.59588   -4732.6632   -4222.3678   -4732.6632            0    9006.4984    19.822129    19.744732    20.549552    8042.7379    9750.2162    6921.3486     10347.93   -482.97897    66.160775    737.98516   -3165.9498 
29967000    250.08165   -4719.9378   -4237.6343   -4719.9378            0    10289.366    19.706664    19.802261    20.421163    7969.0835    11467.122    9906.4102    9494.5651    829.53199    952.53778   -516.00118   -3041.7949 
29968000    264.74019   -4707.9327    -4197.359   -4707.9327            0    8677.1542    19.805587    19.892829    20.606694    8118.8139    10132.817    8921.7208    6976.9251   -468.40982    120.20135    1249.4947   -3169.9442 
29969000    266.04191   -4717.2857   -4204.2015   -4717.2857            0    7275.8025    20.035593    19.674778    20.525433    8091.0403     6423.241    7449.9221    7954.2444    671.74231    33.484519    591.80391   -3345.6603 
29970000    247.28343   -4708.4606   -4231.5537   -4708.4606            0    9980.6499    19.901328    19.656194    20.545205    8036.9632    8977.2903    11913.821    9050.8385   -312.44162   -598.07711    545.41708   -3061.7131 
29971000    251.82898   -4706.2422   -4220.5688   -4706.2422            0    10037.825    19.695268     19.98992     20.44354    8048.7612    10594.737    8756.1876    10762.552   -197.38395    1175.8218    298.18625   -3042.2995 
29972000    243.81587   -4717.3516   -4247.1322   -4717.3516            0    7038.4619    19.922355     19.86382    20.630031    8164.0064    6933.8224    6489.9214    7691.6417    102.93765     1843.062    405.07314   -3409.1072 
29973000    254.35309   -4716.5779   -4226.0365   -4716.5779            0    9858.1383    19.645383     19.82536    20.663549     8047.973    9342.8094    11081.682    9149.9237    280.93172    479.30825    240.72489   -3068.9727 
29974000    257.45444   -4702.2421   -4205.7196   -4702.2421            0    9893.0031    20.010002    19.888197    20.203846    8040.3803    10323.864    8576.2621    10778.883   -298.81076   -724.08815   -1112.6691   -3045.6591 
29975000    250.45875   -4717.7472   -4234.7164   -4717.7472            0    9860.7688    19.773408    19.953684    20.314765    8015.2382    11382.088    9203.8555    8996.3626   -206.50796   -627.20705   -1018.3379   -3082.0514 
29976000    258.61116   -4703.8035   -4205.0501   -4703.8035            0    9716.0883    19.774779     19.71221    20.568015    8017.5066    9647.4328    10736.244     8764.588   -420.10088    1174.0937   -228.19392    -3068.976 
29977000    268.25268   -4655.0038    -4137.656   -4655.0038            0    9705.6127    19.907134    19.779727    20.318339    8000.5019     10097.25      8772.18    10247.408   -471.53367    781.55763   -782.26828   -3005.2137 
29978000    269.18766   -4687.8598   -4168.7087   -4687.8598            0    10603.912    19.889705    19.604694    20.416509    7961.0415    10726.589    9970.9455    11114.201    940.22297   -704.37793   -236.74239   -2937.5561 
29979000    261.28148   -4687.5936   -4183.6903   -4687.5936            0    9566.4425    19.970128    19.540118    20.612772    8043.4881    9231.2035    10522.744      8945.38   -123.98196   -1221.7502   -1157.0791   -3061.4889 
29980000    260.66003   -4673.6792   -4170.9744   -4673.6792            0     11036.23    19.837718    19.628637    20.583237    8014.8521    10469.074    13293.366     9346.251     336.4672     1064.644   -326.44857   -2880.9671 
29981000    278.70994   -4716.2985   -4178.7829   -4716.2985            0    11256.719    20.046995    19.601544    20.346813    7995.3219    9097.4038    13012.046    11660.707    206.55342    295.88204   -1043.7886   -2866.2093 
29982000    257.74271   -4697.3479   -4200.2694   -4697.3479            0    8680.7965    19.851957    19.909088    20.326692    8033.8073    10897.736    7665.3459    7479.3072    804.88333   -449.49515     343.1157   -3183.1852 
29983000     262.4281   -4722.3171   -4216.2025   -4722.3171            0    10004.416    19.794056    19.516233    20.603517    7959.2502    10680.466    11216.336    8116.4452   -257.20275   -542.80659    -1172.058   -3054.9149 
29984000    271.81247   -4709.0211   -4184.8079   -4709.0211            0     9172.369    19.930432    19.704769    20.469347    8038.8155    8938.2512      9493.93    9084.9257    138.78935    897.03059    85.581732   -3109.4588 
29985000     247.1558    -4710.816   -4234.1552    -4710.816            0    8622.4694    19.845242    19.776841     20.45986    8030.0079    8685.9172    9713.7571    7467.7339    73.600691    880.53465   -2394.1717   -3224.3828 
29986000    256.69297   -4717.9433   -4222.8893   -4717.9433            0    10092.097    19.710701    19.815369    20.514275     8012.359    11118.855    10261.579    8895.8579    154.62239    1563.6787    619.96501   -3043.6072 
29987000    267.93015   -4731.3717   -4214.6459   -4731.3717            0    7668.3533    20.097174    19.755907    20.499543    8139.0958    7661.5246     8123.512    7220.0232   -725.19235   -388.90098   -1763.1634   -3304.4096 
29988000    261.65111   -4693.0234   -4188.4073   -4693.0234            0    10845.258     19.81919    19.909635    20.303904    8011.7753    9448.0209    11414.857    11672.897    133.52733    1998.5144    816.25719   -2921.2091 
29989000    254.04807   -4711.1974   -4221.2443   -4711.1974            0    9091.8091    19.959391    19.786093    20.438081    8071.3739      8599.52    10249.593    8426.3147   -1048.3291   -251.61154    2097.9713   -3151.0229 
29990000    260.00546   -4696.0892   -4194.6468   -4696.0892            0    10366.605    19.894248    19.671367    20.541156    8038.7208    10373.598    11388.773    9337.4453    467.76217    2365.8523   -39.746582   -2979.3023 
29991000    246.30557   -4711.6496   -4236.6286   -4711.6496            0    8854.9001    19.851287     19.86598    20.457432     8067.701    8883.8593    10034.614    7646.2269   -313.67163   -1098.9135    281.81217   -3194.7686 
29992000    258.24973   -4718.1167   -4220.0604   -4718.1167            0    8056.9604    19.979294    19.970526    20.292975    8096.8362    7189.3409    8513.3043    8468.2361    136.68552   -1001.7451    259.93517   -3268.6619 
29993000    265.83195   -4706.7836   -4194.1043   -4706.7836            0     9403.276     20.00465    19.898523    20.268108    8067.9835    8474.6965     9690.024    10045.107    -73.06454    158.31313   -924.56967   -3087.6842 
29994000     255.4761   -4696.5105   -4203.8033   -4696.5105            0    8458.3054    19.871097    19.842728    20.542807    8099.9625    8779.9216    8243.5448      8351.45   -500.45392   -351.74704   -150.82772   -3204.6267 
29995000    273.81699   -4692.7554   -4164.6763   -4692.7554            0    11181.771    19.794961    19.736644    20.553739    8030.0599    10862.445    11657.336    11025.533   -17.672985   -697.57435   -731.39205   -2855.1769 
29996000    262.20659   -4693.0439   -4187.3564   -4693.0439            0    10731.376    19.948786     19.77076     20.39103    8042.2764    11313.177    9291.4366    11589.513    112.46187      285.365   -3104.4165    -2928.691 
29997000    255.60458   -4702.6099    -4209.655   -4702.6099            0    10364.413    19.993741    19.607843    20.544541    8054.1613    9443.3444    10838.879    10811.016   -375.50447   -899.80273   -951.52776   -2992.2336 
29998000    263.78808    -4686.235   -4177.4975    -4686.235            0    8305.3302      19.9861     19.70059    20.439479    8047.7986    7457.4538     7995.043    9463.4939    191.04305     450.3333    420.52975   -3202.7101 
29999000    245.10349   -4699.2987    -4226.596   -4699.2987            0    9621.4277    19.834894    19.677386    20.574903    8030.3614    8220.6876    11802.452    8841.1435   -565.61546    1845.5147   -605.56629   -3099.7865 
30000000    277.35109   -4694.2295   -4159.3346   -4694.2295            0    9987.2109    19.816378    19.552303    20.740155     8035.894    10259.584    11461.384    8240.6652   -363.20953   -1279.4863    180.81192   -2988.8807 
Loop time of 445.939 on 64 procs for 250000 steps with 972 atoms

Performance: 96.874 ns/day, 0.248 hours/ns, 560.615 timesteps/s
184.3% CPU use with 32 MPI tasks x 2 OpenMP threads

MPI task timing breakdown:
Section |  min time  |  avg time  |  max time  |%varavg| %total
---------------------------------------------------------------
Pair    | 29.465     | 35.975     | 44.154     |  66.7 |  8.07
Bond    | 0.84705    | 1.1476     | 1.7605     |  17.0 |  0.26
Kspace  | 168.02     | 181.95     | 192.52     |  45.2 | 40.80
Neigh   | 2.2006     | 2.6725     | 3.143      |  19.2 |  0.60
Comm    | 87.575     | 101.66     | 112.49     |  58.4 | 22.80
Output  | 0.61134    | 0.61166    | 0.61321    |   0.0 |  0.14
Modify  | 100.53     | 106.75     | 113.8      |  36.6 | 23.94
Other   |            | 15.17      |            |       |  3.40

Nlocal:        30.3750 ave          34 max          25 min
Histogram: 2 0 1 3 5 4 5 6 5 1
Nghost:        2730.75 ave        2764 max        2692 min
Histogram: 1 0 5 2 4 8 5 4 2 1
Neighs:        9759.97 ave       12146 max        7936 min
Histogram: 3 6 2 5 3 2 6 2 2 1

Total # of neighbors = 312319
Ave neighs/atom = 321.31584
Ave special neighs/atom = 2.0000000
Neighbor list builds = 7586
Dangerous builds = 0

unfix		3
unfix		2
unfix		1

write_data	data.final.${pid}
write_data	data.final.0
System init for write_data ...
PPPM initialization ...
  extracting TIP4P info from pair style
  using 12-bit tables for long-range coulomb (../kspace.cpp:340)
  G vector (1/distance) = 0.37335541
  grid = 24 24 25
  stencil order = 5
  estimated absolute RMS force accuracy = 0.0032935808
  estimated relative force accuracy = 9.9185206e-06
  using double precision FFTW3
  3d grid and FFT values/proc = 3458 576
Last active /omp style is kspace_style pppm/tip4p/omp
WARNING: Not all mixed pair coeffs generated from mixing. Use write_data with 'pair ij' option to store all pair coeffs. (../write_data.cpp:312)

write_restart   restart.lmp.${pid}
write_restart   restart.lmp.0
System init for write_restart ...
PPPM initialization ...
  extracting TIP4P info from pair style
  using 12-bit tables for long-range coulomb (../kspace.cpp:340)
  G vector (1/distance) = 0.37335541
  grid = 24 24 25
  stencil order = 5
  estimated absolute RMS force accuracy = 0.0032935808
  estimated relative force accuracy = 9.9185206e-06
  using double precision FFTW3
  3d grid and FFT values/proc = 3458 576
Last active /omp style is kspace_style pppm/tip4p/omp
Total wall time: 0:07:26
