LAMMPS (30 Jul 2021)
Processor partition = 0
  using 1 OpenMP thread(s) per MPI task
using multi-threaded neighbor list subroutines
variable        pid world 0 1
variable        phase world IceII IceIII

shell cd ${phase}
shell cd IceII
include Restart.lmp
echo both
log log.lammps
#include		in.partitions
include		in.temp
variable        temperature equal 113.23
variable	tempDamp equal 100.0
include		in.pressure
variable        pressure equal 3668.8
variable        pressureDamp equal 1000.0 # This is 1 ps
include		in.seed
variable        seed equal 745823

units		real
atom_style	full
box tilt large
read_restart	restart.lmp.${pid}
read_restart	restart.lmp.0
Reading restart file ...
  restart file = 30 Jul 2021, LAMMPS = 30 Jul 2021
  restoring atom style full from restart
  triclinic box = (-10.563950 -9.2313098 0.12717078) to (12.543950 12.221308 21.732828) with tilt (-9.2199964 1.7965926 2.7106819)
  4 by 4 by 4 MPI processor grid
  restoring pair style lj/cut/tip4p/long/omp from restart
  restoring bond style harmonic/omp from restart
  restoring angle style harmonic/omp from restart
  1296 atoms
  864 bonds
  432 angles
Finding 1-2 1-3 1-4 neighbors ...
  special bond factors lj:    0        0        0       
  special bond factors coul:  0        0        0       
     2 = max # of 1-2 neighbors
     1 = max # of 1-3 neighbors
     1 = max # of 1-4 neighbors
     2 = max # of special neighbors
  special bonds CPU = 0.005 seconds
  read_restart CPU = 0.018 seconds
include 	in.setup
variable	out_freq equal 1000
variable	out_freq2 equal 10000
variable	out_freq3 equal 1000

timestep	2.0

neigh_modify    delay 7 every 1

include		in.tip4p
# This is TIP4P/Ice

# create groups ###
group ox type 2
432 atoms in group ox
group hy type 1
864 atoms in group hy

# set charges - beside manually ###
set group ox charge -1.1794
Setting atom values ...
  432 settings made for charge
set group hy charge 0.5897
Setting atom values ...
  864 settings made for charge

# ### TIP3P Potential Parameters ###
pair_style lj/cut/tip4p/long/omp 2 1 1 1 0.1577 8.5
pair_coeff 1 1*2 0.000 0.000
pair_coeff 2 2 0.21084 3.1668
bond_style  harmonic
bond_coeff  1 450 0.9572
angle_style harmonic
angle_coeff 1 55 104.52
kspace_style pppm/tip4p/omp 1.0e-5
pair_modify tail yes

thermo          ${out_freq}
thermo          1000
thermo_style    custom step temp pe etotal epair emol press lx ly lz vol pxx pyy pzz pxy pxz pyz enthalpy

restart 	${out_freq3} restart.lmp.${pid} restart2.lmp.${pid}
restart 	1000 restart.lmp.${pid} restart2.lmp.${pid}
restart 	1000 restart.lmp.0 restart2.lmp.${pid}
restart 	1000 restart.lmp.0 restart2.lmp.0


include         in.dump
dump            myDump all atom ${out_freq2} dump.water.${pid}
dump            myDump all atom 10000 dump.water.${pid}
dump            myDump all atom 10000 dump.water.0
dump            myDump2 all dcd ${out_freq2} dump.dcd
dump            myDump2 all dcd 10000 dump.dcd
dump_modify     myDump append yes
dump_modify     myDump2 append yes


variable natoms 	equal  "count(all)"                        # NUMBER ATOMS
variable H      	equal  "enthalpy/v_natoms"                 # ENTHALPY-per-atom
variable Vol      	equal  "vol/v_natoms"                 # volume-per-atom
fix AVG all 		ave/time ${out_freq} 1 ${out_freq} v_Vol v_H file vol_enthalpy.dat
fix AVG all 		ave/time 1000 1 ${out_freq} v_Vol v_H file vol_enthalpy.dat
fix AVG all 		ave/time 1000 1 1000 v_Vol v_H file vol_enthalpy.dat


timer           timeout 10:00:00 every 1000
New timer settings: style=normal  mode=nosync  timeout=10:00:00

fix 		1 all shake 1e-6 200 0 b 1 a 1
Finding SHAKE clusters ...
       0 = # of size 2 clusters
       0 = # of size 3 clusters
       0 = # of size 4 clusters
     432 = # of frozen angles
  find clusters CPU = 0.001 seconds
fix             2 all nph tri ${pressure} ${pressure} ${pressureDamp}
fix             2 all nph tri 3668.8 ${pressure} ${pressureDamp}
fix             2 all nph tri 3668.8 3668.8 ${pressureDamp}
fix             2 all nph tri 3668.8 3668.8 1000
fix             3 all temp/csvr ${temperature} ${temperature} ${tempDamp} ${seed}
fix             3 all temp/csvr 113.23 ${temperature} ${tempDamp} ${seed}
fix             3 all temp/csvr 113.23 113.23 ${tempDamp} ${seed}
fix             3 all temp/csvr 113.23 113.23 100 ${seed}
fix             3 all temp/csvr 113.23 113.23 100 745823


run             250000
PPPM initialization ...
  extracting TIP4P info from pair style
  using 12-bit tables for long-range coulomb (../kspace.cpp:340)
  G vector (1/distance) = 0.36929422
  grid = 27 40 32
  stencil order = 5
  estimated absolute RMS force accuracy = 0.0040975971
  estimated relative force accuracy = 1.2339792e-05
  using double precision FFTW3
  3d grid and FFT values/proc = 4845 560
Last active /omp style is kspace_style pppm/tip4p/omp
Neighbor list info ...
  update every 1 steps, delay 7 steps, check yes
  max neighbors/atom: 2000, page size: 100000
  master list distance cutoff = 10.8154
  ghost atom cutoff = 10.8154
  binsize = 5.4077, bins = 7 5 4
  1 neighbor lists, perpetual/occasional/extra = 1 0 0
  (1) pair lj/cut/tip4p/long/omp, perpetual
      attributes: half, newton on, omp
      pair build: half/bin/newton/tri/omp
      stencil: half/bin/3d/tri
      bin: standard
Setting up Verlet run ...
  Unit style    : real
  Current step  : 6750000
  Time step     : 2
  Walltime left : 9:59:59.90
Per MPI rank memory allocation (min/avg/max) = 9.410 | 9.421 | 9.431 Mbytes
Step Temp PotEng TotEng E_pair E_mol Press Lx Ly Lz Volume Pxx Pyy Pzz Pxy Pxz Pyz Enthalpy 
 6750000    114.07726    -6704.815   -6411.3582    -6704.815            0    3897.3535    23.107901    21.452618    21.605657    10710.464    3387.9012    3698.6766    4605.4828    606.77479    126.77894    489.48035   -5802.5872 
 6751000    114.47523   -6723.6749   -6429.1943   -6723.6749            0    4731.2313    23.100868    21.343845    21.629966      10664.9    5006.9793    5124.5012    4062.2135    364.61676    575.60778     144.3379   -5693.3146 
 6752000    115.40561   -6732.0103   -6435.1364   -6732.0103            0    3196.6905    23.317198    21.357591    21.574585    10744.126    2886.7926    2668.5113    4034.7675    256.07043   -213.18681    186.35835   -5934.2404 
 6753000    113.69811   -6725.5789   -6433.0975   -6725.5789            0    4147.7647     23.24319    21.253524    21.623643    10682.073    3584.1837    4643.1377    4215.9727    6.8766754   -422.15172   -495.78231   -5786.9293 
 6754000    110.88877    -6735.953   -6450.6984    -6735.953            0    2893.5568    23.326852    21.342072    21.559995      10733.5    2460.0892    2629.5262    3591.0549   -1159.4121    440.82501   -357.97425   -5997.7494 
 6755000    110.96428    -6718.376   -6432.9271    -6718.376            0     4277.845    23.030295    21.391837    21.680064    10680.907    4347.1586    3800.6385    4685.7379    512.41826    200.91065     138.2296   -5766.5669 
 6756000    117.52061   -6727.2874   -6424.9728   -6727.2874            0    2453.2271    23.232638    21.438965    21.617337    10767.244    1997.3876     2438.447    2923.8467   -487.47623    -94.98309    323.59577   -6039.7445 
 6757000    110.04539   -6722.3575   -6439.2724   -6722.3575            0    4011.0398    23.133408    21.335223    21.654841    10687.885    4155.4735    3810.2445    4067.4015    270.52298     344.6157    41.270214   -5814.0642 
 6758000    110.39872   -6711.3088   -6427.3149   -6711.3088            0    4094.5827    23.252216     21.20319    21.708051    10702.529    5048.1078    4614.0731    2621.5671   -437.39774   -510.28085   -552.13226   -5788.2103 
 6759000    116.61944   -6715.8928   -6415.8964   -6715.8928            0    3235.1889    23.371023    21.275545    21.587635    10734.047    1826.1081    4267.0144    3612.4443    439.40968    974.45462    75.087354   -5909.4436 
 6760000    115.48451    -6725.391   -6428.3142    -6725.391            0    4043.7865    23.152522    21.323214    21.650372    10688.489    4875.5513    4413.0919    2842.7163    290.66929   -826.58317   -588.49939   -5797.9661 
 6761000    115.23196   -6726.7497   -6430.3225   -6726.7497            0    3915.8145    23.096391    21.472357    21.540956    10682.891    4144.5312    3676.9083     3926.004    627.38096   -695.63092    586.78019   -5820.2425 
 6762000    116.38781   -6713.0074   -6413.6069   -6713.0074            0    2986.3003    23.117172    21.411236    21.719054     10750.22    3702.1959    2581.6072    2675.0978    680.72875   -112.78332    402.04916   -5945.4119 
 6763000    112.90429   -6712.0788   -6421.6394   -6712.0788            0    3011.9038    23.238067    21.357463    21.634798    10737.483    3134.4137    3531.2695    2370.0283   -228.14475   -81.404435   -322.23528   -5949.9898 
 6764000    113.50013   -6740.6086   -6448.6365   -6740.6086            0    3393.3693    23.326144    21.257018    21.634132     10727.16    2702.2906    3947.7203     3530.097   -295.88605   -34.168305   -708.25801   -5917.7621 
 6765000    114.54262   -6722.5011   -6427.8472   -6722.5011            0    5067.6674    23.243756    21.279339    21.556126    10661.913    5522.0956    4412.9421    5267.9646   -943.14313   -33.886274   -162.93564     -5639.86 
 6766000    115.43365    -6724.923    -6427.977    -6724.923            0    4617.5947    23.124439    21.410074     21.54097    10664.847    4563.7923    4891.8387     4397.153    405.66284    84.510415   -65.114743   -5709.7755 
 6767000    115.45715   -6727.1908   -6430.1843   -6727.1908            0    3903.5901    23.089113    21.382886    21.654995    10691.328    4980.9852      3628.57    3101.2151    738.66685     128.6208   -408.18389   -5821.5285 
 6768000    112.90781   -6737.8655   -6447.4171   -6737.8655            0    3810.6499    23.176968    21.366684    21.621015     10707.05    4141.8412     3416.844    3873.2643    -518.0198    206.32068    122.84732    -5852.379 
 6769000    113.71717   -6729.7533   -6437.2228   -6729.7533            0      4046.36    23.280112    21.326743    21.563021    10705.802    3180.5629    3938.0836    5020.4336    1075.4012   -590.68089    611.71297   -5805.4519 
 6770000    114.39166   -6733.1601   -6438.8945   -6733.1601            0     3128.851    23.239572    21.295731    21.687862    10733.402    3276.8379    3576.9164    2532.7987    743.22324    -416.2669   -637.96493   -5949.1177 
 6771000    109.38492   -6728.7246   -6447.3386   -6728.7246            0     3256.153    23.442664    21.286327    21.479266     10718.33    1612.2042    4163.6817    3992.5731    423.91801     369.3441   -64.435824   -5938.3502 
 6772000    113.12521   -6721.2483   -6430.2406   -6721.2483            0    4213.4858    23.237404    21.293697    21.606982    10691.356     4612.979    4000.4312    4027.0472   -629.41944    143.67973   -88.938837   -5773.2635 
 6773000    115.79656   -6740.8891   -6443.0095   -6740.8891            0    2081.4943     23.19564    21.390389    21.696442    10764.988    3234.2378    1010.5249    1999.7201   -41.630862   -531.82456    387.32748   -6116.2226 
 6774000    122.72819   -6717.4028    -6401.692   -6717.4028            0    4201.4434    23.139242    21.386615    21.583929    10681.241     4442.437    3257.3302    4904.5629    1.3379369   -711.05025     579.7939   -5747.2124 
 6775000     115.8547   -6710.7845   -6412.7554   -6710.7845            0    4684.0801     23.18308    21.376756    21.569967    10689.623    4424.1229    5404.8199    4223.2974    9.5802487   -370.91877   -157.52818   -5682.5204 
 6776000    118.91725   -6719.8621   -6413.9548   -6719.8621            0    5063.8035    23.073347    21.412219     21.57827    10660.778    5543.1673    4598.8423    5049.4008   -437.48858     519.4012   -1060.4652   -5626.6523 
 6777000     112.7506   -6713.2349   -6423.1909   -6713.2349            0    3439.4183     23.30571    21.361392    21.544388     10725.71    2970.3074    4006.3302    3341.6173   -559.94179   -383.62353   -75.025089   -5885.1851 
 6778000    110.45348   -6731.5565   -6447.4216   -6731.5565            0    4051.2768    23.221878    21.228485    21.668635    10681.885    3774.4488    4829.8213    3549.5603    246.87115    538.67286    53.408159   -5816.2961 
 6779000    112.94778   -6733.8312   -6443.2799   -6733.8312            0    3366.9074    23.248389    21.270398     21.65447    10708.189    2818.9669    3282.1221    3999.6332    683.32945    81.510939    174.59631   -5917.4768 
 6780000    117.99239   -6713.7456   -6410.2173   -6713.7456            0    4995.6659     23.21214    21.303438    21.518157    10640.694    5082.1537    4961.9165    4942.9276   -383.31106   -232.87719   -168.90631   -5634.9719 
 6781000    118.28616   -6723.9398   -6419.6558   -6723.9398            0    3633.3029    23.121691    21.417533    21.658318    10725.407    4110.5664    3409.5223    3379.8199   -236.10772    583.37565    360.48949    -5851.338 
 6782000    114.69483   -6718.3655   -6423.3201   -6718.3655            0    4048.3614    23.132703    21.454943    21.551278    10696.133    4491.3334    3982.5812    3671.1697    985.49298   -121.62624   -222.28431   -5791.8076 
 6783000    117.63801   -6734.6235   -6432.0068   -6734.6235            0    2652.1943    23.196225    21.387701    21.653941    10742.821    2058.9416    3085.7986    2811.8427   -356.92307    318.97322   -82.215775   -6016.4795 
 6784000    109.56295   -6718.8514   -6437.0074   -6718.8514            0    4515.7849    23.234258    21.196531    21.672527    10673.409     4066.142    5213.8139    4267.3988   -10.949031    -414.3332   -270.63161   -5734.0771 
 6785000    109.41397   -6725.4495   -6443.9887   -6725.4495            0    3758.2422    23.362137    21.229454    21.569465    10697.709    2644.2796    4229.7682    4400.6788   -115.26497    809.49489    321.50734   -5857.6462 
 6786000    109.61841   -6722.1451   -6440.1585   -6722.1451            0    3975.2628     23.16282    21.341891    21.627395    10691.251    3505.8055    4719.5496    3700.4333    567.72782   -1094.3059   -820.86959   -5820.3318 
 6787000    111.48146   -6718.6011   -6431.8218   -6718.6011            0    3247.4856     23.06821    21.490418     21.66201    10738.844    4015.0458    2099.6124    3627.7985     -866.991    617.98436    276.04401   -5923.2168 
 6788000    110.05311   -6711.4787   -6428.3737   -6711.4787            0    4430.8084    23.171857    21.484165      21.4412     10674.03    4948.5287     3328.369    5015.5276    274.64521   -698.22752    430.95313   -5738.6308 
 6789000    115.52314    -6730.472   -6433.2958    -6730.472            0     3366.141    23.163122    21.348056    21.730788    10745.605    3685.3547    3417.4407    2995.6276   -154.66724    -114.0448    238.20961   -5905.7756 
 6790000    110.88524   -6725.9239   -6440.6783   -6725.9239            0    3934.9212     23.27588    21.349612    21.516209    10692.071    3951.9945    3543.2161     4309.553    561.56361   -120.60899   -353.32631   -5827.0947 
 6791000    111.75388   -6731.9849   -6444.5048   -6731.9849            0     3203.469    23.243993    21.246553    21.743991    10738.373    3156.4994    3245.1408    3208.7668    426.06956    108.08441   -123.10878   -5942.8154 
 6792000    110.15977    -6715.812   -6432.4327    -6715.812            0    4494.6406    23.227754    21.260252    21.598401    10665.893    3762.5707      4389.44    5331.9111    97.331654    139.32231    304.26975   -5733.2863 
 6793000    117.82528   -6733.6509   -6430.5525   -6733.6509            0    3590.9593     23.19957    21.427895    21.555034    10715.394    3682.7108      3216.75     3873.417    22.092966   -53.362064   -2.4991033   -5869.3824 
 6794000    113.47019   -6719.9443   -6428.0492   -6719.9443            0    4081.7673     23.08326    21.433613    21.613688    10693.538    4835.5257    4301.7929    3107.9833   -1084.3955     971.0574   -851.81107   -5791.4801 
 6795000    108.93441   -6743.2308   -6463.0037   -6743.2308            0    3797.5847    23.222552    21.375051    21.547949    10696.041    4161.1888    3186.0944    4045.4709    -547.9726   -31.307192   -264.90393   -5870.6155 
 6796000    116.30526   -6723.7786   -6424.5904   -6723.7786            0    4439.6387    23.244787    21.211324    21.636066    10667.721    4088.8728    4822.5387    4407.5048   -584.70495    837.36849    966.23306   -5733.8813 
 6797000    114.70545   -6740.8852   -6445.8124   -6740.8852            0    2827.5409    23.357266    21.204615    21.701718    10748.466    1737.9394    3329.0326    3415.6507    539.90865   -319.86211    1216.6275   -6002.5803 
 6798000    117.14745   -6722.5388   -6421.1842   -6722.5388            0    4676.7928      23.1502    21.305719    21.613282    10660.355    4930.1911    4821.1224    4279.0648    147.30208     416.2445    450.09195   -5694.0816 
 6799000    114.82362   -6720.1879   -6424.8111   -6720.1879            0     3250.053    23.168076    21.428463    21.592998    10719.979    3183.6525    3087.6007    3478.9058    319.94639   -104.03858   -531.22954   -5916.6982 
 6800000    116.63885   -6733.4891   -6433.4428   -6733.4891            0    3226.0456     23.12664    21.426025     21.65873     10732.16    4864.8268    3080.2928    1733.0171   -357.28848    38.357412   -696.78241     -5928.51 
 6801000    114.69907   -6718.1778   -6423.1214   -6718.1778            0     4244.469    23.336028    21.246593    21.586786    10702.968    2555.5212    4934.5568    5243.3291     13.45241    177.21566   -199.03391   -5760.5946 
 6802000    111.48853    -6728.444   -6441.6465    -6728.444            0    4482.4149    23.243253    21.239237    21.611903    10669.126    4886.4482    4942.1771    3618.6194    83.769096   -412.26633   -739.92558   -5744.1906 
 6803000    112.52616   -6732.9991   -6443.5324   -6732.9991            0    3415.0043    23.267926    21.280261    21.660731    10725.257    2778.7977    4158.0753      3308.14   -557.96511    476.12315    899.95227   -5909.3681 
 6804000    114.49615   -6718.2878   -6423.7534   -6718.2878            0    3893.7026    23.066737    21.436119    21.620293    10690.399    4553.8196    3120.1838    4007.1044    275.42391    119.48796    222.47339   -5816.6921 
 6805000    114.08411   -6721.4546   -6427.9801   -6721.4546            0    3973.7853    23.119345    21.440594    21.544912    10679.652    3535.6234    3962.0184    4423.7139   -138.55865    764.07778   -108.62047   -5809.0561 
 6806000    119.83867   -6726.3359   -6418.0582   -6726.3359            0    2616.5151     23.24855    21.372312    21.671103    10767.835     2805.566    2988.0547    2055.9246    673.21409   -1244.9662   -6.2277488   -6007.1663 
 6807000    116.21499    -6729.525    -6430.569    -6729.525            0    4859.1589    23.318852    21.176702    21.584366    10658.714    4485.1733    4534.2153     5558.088   -818.08903   -55.765562    224.91545   -5675.2302 
 6808000    112.24489    -6722.885   -6434.1419    -6722.885            0    4194.6085    23.241567    21.267574    21.631464    10692.254    3653.4098    4353.1919    4577.2237    64.814904   -112.95257    167.30358   -5780.0533 
 6809000    114.82736   -6725.6985   -6430.3121   -6725.6985            0    4939.9162    23.091689    21.421983    21.538745    10654.566    5352.6418     3925.091    5542.0159   -111.13255    46.368375   -490.37529   -5662.7187 
 6810000    108.67693   -6729.3533   -6449.7885   -6729.3533            0    4026.2565    23.135668    21.453203    21.563954    10702.927    4544.8381    3305.3887    4228.5426   -108.91004    615.95818    -196.6418   -5821.3253 
 6811000    112.38711   -6721.7475   -6432.6385   -6721.7475            0    4457.0505     23.20413    21.336001     21.58274    10685.255     4199.897    4523.8959    4647.3586    326.82206   -131.18903    26.936285   -5738.0808 
 6812000    118.10176   -6728.0023   -6424.1927   -6728.0023            0    2646.4667    23.352319    21.175216    21.722665    10741.649    2685.0185    3317.8165    1936.5652    -330.0296   -516.77486    88.581913    -6009.608 
 6813000    116.60905   -6710.3181   -6410.3484   -6710.3181            0    4092.9299    23.301875      21.1444    21.691219    10687.353    4260.1228    4661.1424    3357.5246    722.44159   -150.52283     -14.0402   -5772.4076 
 6814000    112.50247   -6728.4349   -6439.0291   -6728.4349            0    3576.0503    23.216451    21.311491    21.614601    10694.412    3533.4224    3212.6806    3982.0479   -373.48426     890.7824     663.2218   -5881.2832 
 6815000    110.02801   -6741.1203   -6458.0799   -6741.1203            0    2208.2854    23.026024    21.530791    21.701982    10759.159    2933.0605    1436.7674    2255.0282   -24.263215   -421.93364    345.43268    -6111.575 
 6816000    116.17438   -6713.6466   -6414.7951   -6713.6466            0    4890.6725    23.105822    21.418934    21.552472    10666.363    5190.2906    4568.4824    4913.2446    745.43026    339.98758   -323.41997   -5654.0121 
 6817000    111.17123   -6736.9593   -6450.9781   -6736.9593            0    3830.7737    23.122082    21.383374    21.636935    10697.909    4487.7108    3010.5582    3994.0522    -787.1665     503.5033   -662.00818   -5853.3083 
 6818000    112.52726    -6733.204   -6443.7345    -6733.204            0    3688.4165    23.348159     21.31659     21.50856    10704.877    3526.7881    3134.9205    4403.5411    -422.9851   -73.748757   -278.32425   -5867.9002 
 6819000    110.86147   -6742.0645   -6456.8801   -6742.0645            0    3189.9523    23.347457    21.210488    21.655955    10724.266    2630.9091    3560.1263    3378.8215   -876.05951    31.173283   -379.28978   -5957.9639 
 6820000    115.21518   -6737.0496   -6440.6655   -6737.0496            0    3366.6184    23.226354    21.314255    21.649019    10717.399    3181.7813    3334.7821     3583.292   -448.54943    274.71879    431.08476   -5914.4554 
 6821000    110.78401   -6715.5097   -6430.5246   -6715.5097            0     3604.665    23.119251    21.412218    21.631725    10708.449    3634.4991     4171.431    3008.0651    131.17914    997.28559    116.55368   -5867.5777 
 6822000    116.81582   -6710.4768   -6409.9752   -6710.4768            0     3320.922    23.055455    21.506513    21.661507    10740.695    3826.5689    2946.2944    3189.9026   -7.2205649    1409.4964   -902.49324   -5889.7793 
 6823000    108.16651   -6723.6954   -6445.4436   -6723.6954            0    4083.7024    23.147257    21.363822    21.603039    10683.002    5067.5333    3215.1562    3968.4177   -36.833051   -163.56474    444.67502   -5809.2002 
 6824000    113.99931   -6725.1024   -6431.8462   -6725.1024            0     4834.231    23.296305    21.235281     21.57866     10675.04    3900.9087    5341.3292    5260.4551   -112.51819   -916.84473    583.72616   -5679.2313 
 6825000    115.26059   -6733.5521   -6437.0512   -6733.5521            0    4133.0913    23.297111    21.213979     21.63769    10693.875    4040.6704    4088.9802    4269.6231   -432.65907    198.86353     315.2456   -5792.4576 
 6826000    111.56888   -6721.2922    -6434.288   -6721.2922            0      3792.14    23.246874    21.337271    21.559813    10694.203    3958.3217    2814.5711     4603.527   -224.02178   -619.70518    391.63176   -5842.8508 
 6827000    112.18004   -6733.2242   -6444.6479   -6733.2242            0    3583.2186    23.064058    21.421155    21.692204    10717.223    4536.3547    2959.6483    3253.6529    416.79045     -172.443      297.108   -5884.5919 
 6828000    117.22116   -6714.8728   -6413.3285   -6714.8728            0    3736.6195    23.121819    21.485944    21.556136    10708.961    3614.9992    3309.3715    4285.4878     264.0444    282.96111    219.08441   -5829.7462 
 6829000    109.06377   -6727.5881   -6447.0282   -6727.5881            0    4024.6952    23.215334    21.322903    21.621958    10703.265    3833.9252    3721.7061    4518.4542    525.19584   -284.79658   -112.91232   -5818.7888 
 6830000    116.35134   -6716.8127    -6417.506   -6716.8127            0    3841.4671    23.312797    21.246451    21.652222    10724.653    3550.1048    4122.7496    3851.5469     931.5631   -7.6790228    210.75597   -5816.6696 
 6831000    111.81738   -6728.8348   -6441.1914   -6728.8348            0    3223.4968    23.429684    21.176463     21.63438    10734.067     1051.725    4732.4085    3886.3571    658.45385    35.527314   -38.895894   -5936.5679 
 6832000    114.80106   -6736.8254   -6441.5066   -6736.8254            0     3575.286     23.17396    21.299907    21.715119    10718.652    3618.8925    3610.3033    3496.6622   -257.46379    -140.3804    -80.08777    -5882.616 
 6833000    107.57128    -6710.933   -6434.2124    -6710.933            0    3947.3753    23.194513    21.456588    21.483678    10691.892    3795.5091    4031.0688    4015.5481   -11.121191    538.46347   -610.53348   -5818.6971 
 6834000    118.42577   -6714.6922   -6410.0491   -6714.6922            0    4189.6579    23.105396    21.403109    21.628332    10695.801    4264.9738    3340.2504    4963.7495   -146.46971    126.79608   -26.214664   -5756.5158 
 6835000    113.81557   -6733.7629   -6440.9793   -6733.7629            0    3395.4395    23.210011    21.388193    21.571252    10708.405    4132.7246    2847.3479     3206.246    448.01204   -185.06895   -223.47331   -5910.7097 
 6836000    112.94583   -6732.0715   -6441.5252   -6732.0715            0    3616.2176    23.241884    21.234751    21.665553    10692.722    3220.9205    4594.1931    3033.5392   -461.21186   -51.337576   -145.06736   -5877.6036 
 6837000    108.83721   -6732.2661    -6452.289   -6732.2661            0    2961.2612    23.326503    21.286143    21.644574    10747.208    2628.2803    2430.4421    3825.0611   -129.70935    77.431362    264.28469   -5988.1498 
 6838000    112.36673   -6717.7316   -6428.6751   -6717.7316            0    4268.5137    23.220967    21.340495    21.609114     10708.33    4341.9748    3822.6974     4640.869   -368.66782    621.51796    229.40896   -5762.0612 
 6839000    111.58476   -6745.7264   -6458.6814   -6745.7264            0     3691.247     23.10808    21.446799    21.592676    10701.208    4046.0981     3181.562     3846.081   -1283.8265    23.540846   -723.11813   -5882.6027 
 6840000    111.01237   -6726.1997   -6440.6271   -6726.1997            0    3618.1516    23.201191    21.384659    21.559181    10696.579    3645.6585    3699.5464    3509.2499     642.9811   -483.76775   -73.150621   -5876.2004 
 6841000    110.77865   -6734.8518   -6449.8805   -6734.8518            0    3384.5684    23.164651    21.255094     21.78253    10724.995    4061.7205    3780.1442    2311.8405    234.87011   -58.563597   -259.20426   -5920.4898 
 6842000    115.53721   -6726.6059   -6429.3934   -6726.6059            0    4387.3026    23.360809    21.271153    21.468712    10668.046    3323.6293    5166.5047    4671.7739    1278.5869    -423.1529   -40.668142   -5746.8059 
 6843000    113.22071   -6730.8091   -6439.5557   -6730.8091            0    3292.8886    23.254766    21.309484    21.686899     10746.88    3611.7706    2556.9088    3709.9865   -828.41999   -113.32417    636.86461    -5923.454 
 6844000    111.50007   -6717.2187   -6430.3916   -6717.2187            0    4601.6292     23.23231    21.271547    21.608016    10678.405    3965.7671     4858.601    4980.5197    919.71361    17.432304   -585.41796   -5713.7634 
 6845000     108.7453   -6731.3581   -6451.6175   -6731.3581            0    3679.1054    23.195176    21.412752    21.552104    10704.338    4104.5376    2820.3765    4112.4019   -103.10812    267.99984    536.44284   -5877.2657 
 6846000    117.20581   -6725.2474   -6423.7426   -6725.2474            0    3789.1556    23.055943     21.36551    21.736833    10707.606    4976.4032    3565.0774    2825.9861   -93.449763   -117.12537   -735.99601   -5832.0301 
 6847000    109.20989   -6714.1596   -6433.2238   -6714.1596            0    4040.1684     23.31427    21.293176    21.514263     10680.43    3888.9601    4248.8029    3982.7423    101.42369      30.3624    37.083468   -5803.9146 
 6848000    114.09283   -6748.1724   -6454.6755   -6748.1724            0    3144.6216    23.377601    21.165695    21.661364    10718.112    2366.0589    3536.7246    3531.0812   -378.63471   -721.70723    161.58885   -5963.1313 
 6849000    110.75926   -6717.5995    -6432.678   -6717.5995            0    2906.8762     23.23674    21.373591    21.629186    10742.191    2409.4326    3490.0593    2821.1366    458.83362    -869.7448   -706.73773   -5977.2757 
 6850000    113.56443   -6737.9325   -6445.7949   -6737.9325            0    4298.7199    23.215205    21.396241    21.472272    10665.667    4124.8925    3986.3878    4784.8792   -130.25186   -310.95227   -415.12663   -5777.1385 
 6851000    104.91546   -6719.7891   -6449.9004   -6719.7891            0     3485.904    23.141175    21.333831     21.73098    10728.366     4040.157    3735.5983    2681.9567     504.5319    136.38608   -463.94166   -5904.4882 
 6852000    113.09161   -6727.9175   -6436.9963   -6727.9175            0    3962.3333      23.2185    21.349638    21.558293    10686.587    3511.9886    4072.4743     4302.537   -491.16354    631.11789    281.70945   -5819.4551 
 6853000    115.38086   -6715.3171   -6418.5068   -6715.3171            0    3980.3358    23.223815    21.322724    21.588666    10690.599    3989.6255    3628.8454    4322.5365   -404.24731   -648.70517    52.860153    -5797.927 
 6854000    112.09581   -6721.9972   -6433.6376   -6721.9972            0    3324.5773    23.214971    21.317762    21.679276    10728.884    2853.2538    3522.1259    3598.3522    -891.4226    736.83203   -568.94278   -5913.4417 
 6855000    113.09904    -6716.818   -6425.8776    -6716.818            0    4066.8676    23.296899    21.359808     21.50434    10700.931    4046.0561    3848.4104    4306.1363   -1351.2479    -485.4968   -1427.4028   -5791.1937 
 6856000    115.60527   -6740.2052   -6442.8177   -6740.2052            0    4471.2119    23.146726    21.267012    21.694007    10679.129    4693.1115    5337.2773     3383.247   -867.83617    43.036315    307.59576   -5746.4526 
 6857000     113.1101   -6728.9958    -6438.027   -6728.9958            0    3575.8356     23.25007    21.336939    21.591428    10711.191     4065.384     3153.683    3508.4398    379.29779    328.71189   -32.183172   -5879.4395 
 6858000    111.63734   -6725.1602     -6437.98   -6725.1602            0    3578.6001    23.160461    21.375442    21.657597    10721.921    3409.3685    3396.6366    3929.7951    170.03758    738.16379    715.54089   -5878.4007 
 6859000    112.55154   -6731.2834   -6441.7515   -6731.2834            0    3219.1493    23.169455    21.441412    21.560616    10711.008    2545.5377    3954.3843     3157.526   -447.50294   -11.509702    684.30434   -5938.8911 
 6860000    111.85757   -6730.6828    -6442.936   -6730.6828            0    3762.3352    23.189732     21.36374    21.596224    10699.189    3451.8702    3470.4894     4364.646    1045.1007     189.2071    208.86001   -5855.8737 
 6861000    114.17139   -6727.7907   -6434.0918   -6727.7907            0    2809.3061    23.265684    21.338536    21.658619    10752.543    2577.2177     2847.054    3003.6467   -105.02757    921.74807      332.256    -5993.551 
 6862000    113.84865   -6723.6478   -6430.7791   -6723.6478            0    3941.0979    23.253433    21.303155    21.593196    10696.654    4598.9259    3598.3878      3625.98   -202.17154   -1056.7959    410.61894   -5815.9689 
 6863000    113.76462    -6723.712   -6431.0594    -6723.712            0    3580.9698    23.237473    21.304587    21.634483     10710.47    3681.5609    3602.0419    3459.3067   -593.08086   -692.87856   -597.54897   -5871.7076 
 6864000     115.5178   -6722.4548   -6425.2923   -6722.4548            0    4329.5464     23.25851    21.355748    21.491804    10675.041    4020.3056    3690.4718    5277.8616    347.89526   -627.96584    122.73264   -5751.2489 
 6865000    108.84723   -6712.6714   -6432.6685   -6712.6714            0    2579.5371     23.15882    21.419976    21.721122     10775.01    2724.9828    3321.0979    1692.5306   -88.699072    114.22848    530.41052   -6027.3137 
 6866000    108.41035   -6729.9354   -6451.0563   -6729.9354            0    4308.1903    23.176618    21.305324    21.590009     10660.83    5006.3628    3993.0579    3925.1504   -533.92181     273.7932    82.081536   -5781.2306 
 6867000    108.84817   -6743.5475   -6463.5422   -6743.5475            0    4179.1681    23.138189    21.321244    21.657898    10684.598    4367.0731    4600.1186    3570.3124   -25.251899    381.87113    284.48663   -5812.3279 
 6868000    111.35229   -6733.3008   -6446.8538   -6733.3008            0    3783.1041    23.295183    21.225378    21.611491    10685.781    3097.9478    4498.8269    3752.5376   -765.45229   -489.33299   -327.37648   -5857.2905 
 6869000    109.71104   -6723.5249   -6441.2999   -6723.5249            0     3164.092    23.322618     21.26365    21.656135    10739.797    2366.3552    4077.3654    3048.5555    -190.7689    226.00321    -808.9213   -5945.7116 
 6870000    113.26685   -6725.8512   -6434.4792   -6725.8512            0    3872.8908     23.30017    21.281135    21.576324    10698.708    2697.6038      4934.41    3986.6586    221.94199    406.38037   -1012.8606   -5830.1933 
 6871000    112.04788   -6727.9125   -6439.6762   -6727.9125            0    3315.8392    23.158681    21.444715    21.608081    10731.249    3834.0803    2951.1359    3162.3013    214.51328   -429.61849    210.08317   -5920.7332 
 6872000     116.4728   -6716.1278   -6416.5087   -6716.1278            0    3894.1363    23.089576      21.4252     21.63183     10701.24    4064.0717    3195.2776    4423.0596    104.32477    840.62054    594.50938    -5808.764 
 6873000    110.61944   -6724.1817   -6439.6199   -6724.1817            0    3679.1822    23.177301    21.310099     21.65124    10693.777    4473.3502    3327.5153    3236.6811     414.9156   -12.312436   -227.34103   -5865.8229 
 6874000    113.31128   -6721.1453   -6429.6589   -6721.1453            0    3859.1207    23.288778    21.220125    21.691998    10719.985    3303.9489    4902.4331    3370.9802   -316.45888    840.59174   -304.68824    -5826.324 
 6875000    116.24419   -6723.5142   -6424.4831   -6723.5142            0    3359.3809    23.294371    21.310664    21.618771    10731.958    2767.5181     4081.954    3228.6706    173.79604    37.954017   -259.61811    -5898.691 
 6876000    117.11555   -6740.1779   -6438.9053   -6740.1779            0    2808.1224    23.314607    21.301757    21.623736    10739.258    2900.3087     1993.547    3530.5116   -827.47985     730.0087    338.59902   -5999.0942 
 6877000    115.25473   -6733.2907   -6436.8049   -6733.2907            0    4220.3555    23.169746    21.292563    21.632351    10672.175    4080.0291    4223.0039    4358.0335    406.78481   -480.06419    329.11472   -5779.9373 
 6878000    112.73368   -6726.3441   -6436.3435   -6726.3441            0    3651.5223    23.157857    21.415468    21.584486    10704.531    3804.9843     3005.653    4143.9297   -902.52071    651.99718    681.21343   -5866.2876 
 6879000    118.30464   -6724.2403   -6419.9088   -6724.2403            0    2740.5015    23.276575     21.38783     21.60761    10757.034    2338.5301    2007.6856    3875.2889    272.74629   -22.898815    297.42753   -5989.9781 
 6880000    107.54352   -6735.9648   -6459.3157   -6735.9648            0    3362.6901    23.271817    21.354764    21.541393      10705.3    2543.0654    3562.1574    3982.8474   -226.51864    943.38459   -359.99586   -5934.3129 
 6881000    107.14131   -6730.6983   -6455.0838   -6730.6983            0    3294.3975    23.259478    21.344762    21.624424    10735.835    2643.9869    3882.2396    3356.9658   -145.10381    440.76118   -515.84777   -5939.2762 
 6882000    118.24568   -6724.3196   -6420.1398   -6724.3196            0    4175.2745    23.210503    21.256503     21.65634    10684.678    5543.8698    3910.0412    3071.9124   -6.0103852   -529.55637    369.60532   -5769.5274 
 6883000    111.58684   -6714.0521   -6427.0018   -6714.0521            0    3143.6802     23.25909    21.283083    21.700193    10742.142    2661.8539    4084.4577     2684.729    359.98512   -192.79752    1060.6444    -5934.503 
 6884000    106.97294   -6726.1711   -6450.9898   -6726.1711            0    3943.5953     23.18523    21.316821    21.610705    10680.775    3528.9182    4460.0045    3841.8633   -115.47033    35.566732    172.93142   -5836.7032 
 6885000    114.14282   -6747.0639   -6453.4385   -6747.0639            0    2872.5953    23.165916    21.418562    21.655609    10745.093     3403.301    2670.0035    2544.4815    79.231298   -228.71924   -30.532345   -6003.2851 
 6886000     119.0619   -6727.6403   -6421.3608   -6727.6403            0    3939.3707    23.230883    21.388538    21.515433    10690.473    4125.1214     2761.442    4931.5487    647.09144   -810.75703    -159.4349   -5807.1752 
 6887000    109.64568   -6724.8663   -6442.8094   -6724.8663            0    3208.1335    23.191023    21.334748    21.682044    10727.725    2706.0055     4174.764    2743.6308   -53.386106    509.66775   -596.40661   -5940.8877 
 6888000    112.92612   -6738.6288   -6448.1333   -6738.6288            0    3248.3557    23.249646    21.396213    21.529356    10709.873    2647.2669    3682.9262     3414.874   -456.27245   -7.6665939    -147.0498   -5940.7644 
 6889000    112.82611   -6733.3081   -6443.0698   -6733.3081            0    4091.9932    23.226662    21.237661    21.675299    10691.991    4354.1301    4177.3275     3744.522   -383.45618    1144.1072   -251.58604   -5804.9983 
 6890000    113.46889   -6729.4355   -6437.5437   -6729.4355            0    3017.1754    23.228548    21.251556    21.759533    10741.436    2891.9447      2990.04    3169.5416    916.98881   -279.42962     895.7975   -5964.8946 
 6891000     116.1903    -6743.115   -6444.2226    -6743.115            0    3728.6926    23.243678    21.326585    21.557686    10686.323    3808.4038     3692.243    3685.4312    164.08784   -323.46282    515.18677   -5863.1093 
 6892000    115.34961   -6732.2994   -6435.5696   -6732.2994            0    3793.2338    23.180186    21.365481    21.641027    10717.845    4265.9825    3876.3553    3237.3635    369.35151   -503.55184   -940.13295   -5842.6538 
 6893000    114.11074   -6729.9326   -6436.3896   -6729.9326            0    2833.3699    23.286532    21.440118    21.490019    10729.235    1982.8826    2474.7851    4042.4421    666.91262    421.46126   -242.70001   -5993.0384 
 6894000    112.83513   -6730.7579   -6440.4964   -6730.7579            0    3763.0218    23.167647     21.33152    21.643801     10696.39    4663.2404    3566.6788    3059.1462   -131.99384   -26.435862   -740.71235   -5853.4805 
 6895000    113.99712   -6708.7217    -6415.471   -6708.7217            0    4520.6562    23.200392    21.235355    21.672246    10677.234    4495.2378    4724.8917     4341.839    705.21651    353.35869   -59.782821   -5711.5302 
 6896000    115.61144   -6739.8353   -6442.4319   -6739.8353            0    2722.3378    23.363191    21.309157    21.581914    10744.554    2631.3147    2391.0174    3144.6812    281.57987   -1207.8946   -78.451547   -6015.8462 
 6897000    113.34163   -6740.0833   -6448.5189   -6740.0833            0    3526.9507    23.146814    21.321443    21.679247    10699.218    3415.1562    4060.5157    3105.1802   -374.15243   -395.24513   -148.73382   -5898.1837 
 6898000    110.21692   -6731.9392   -6448.4129   -6731.9392            0    3500.6246    23.266668    21.366604    21.538741    10707.547    3239.1901    3295.8411    3966.8425   -521.20919    35.224609    248.39032   -5901.7602 
 6899000    115.72009   -6716.8406   -6419.1577   -6716.8406            0    4412.7795    23.219472    21.287739    21.620388    10686.743     3970.544    3986.9596    5280.8351    629.03695    620.59113   -718.33302   -5731.4031 
 6900000    110.22089   -6724.7741   -6441.2376   -6724.7741            0    3995.9177    23.191023    21.350873    21.604284    10697.331     3981.014    3757.1934    4249.5456   -534.34912    510.00129   -100.64183    -5817.836 
 6901000    116.91009   -6720.6759   -6419.9318   -6720.6759            0    4319.0067    23.293431    21.325323    21.510848    10685.298    4206.4767    4288.0763    4462.4671   -446.26298   -114.60008    62.384479   -5746.8833 
 6902000    109.70105   -6733.1322    -6450.933   -6733.1322            0    3156.2045     23.27266    21.296038    21.668086    10739.038    3428.5903    3268.5466    2771.4766    54.984892    439.11269   -529.66345    -5956.615 
 6903000    114.48774   -6716.2844   -6421.7717   -6716.2844            0    3240.5978    23.257896     21.38039    21.575333    10728.612    2839.7067    3142.3867    3739.7002   -140.92729    -133.3753    323.38755   -5914.7289 
 6904000    115.16403   -6732.1586   -6435.9062   -6732.1586            0    3971.2639    23.044987    21.405369    21.708014    10708.269    4617.8096    4591.6213    2704.3607    58.091157   -594.42185    111.61407   -5815.7174 
 6905000    104.32141   -6713.2067   -6444.8462   -6713.2067            0     3956.912     23.24408     21.34153     21.56172    10695.998    4244.3797     3711.184    3915.1722    235.78283   -180.93464   -1017.1974   -5827.6069 
 6906000    109.37922    -6740.924   -6459.5526    -6740.924            0    3793.3618     23.23848    21.291026    21.585909    10680.084     3463.758    4116.1594     3800.168    125.58156   -288.44749   -559.46881   -5868.7059 
 6907000    108.09477   -6719.1948   -6441.1276   -6719.1948            0     3411.953    23.228469    21.307377     21.67555    10728.048    2956.6297    3381.5174    3897.7119   -1215.4709   -664.63314    332.94716   -5907.3017 
 6908000    117.36806   -6746.6671   -6444.7449   -6746.6671            0    3513.5278    23.249448    21.320688    21.573595    10693.906    3139.2997     3528.885    3872.3986    729.66337   -214.53287    223.11043   -5896.7763 
 6909000    114.89565   -6731.0275   -6435.4654   -6731.0275            0    3605.8973    23.215913     21.29439    21.662971    10709.495    3853.0374    3478.3614    3486.2931    57.918972    950.80161    -423.5751   -5872.2711 
 6910000    113.99127    -6735.876   -6442.6404    -6735.876            0    3511.9892    23.153706     21.43419    21.581409    10710.442    3824.7485    2810.6452    3900.5738    297.57299   -441.75282    304.60956   -5894.0648 
 6911000     108.7545   -6733.5219   -6453.7576   -6733.5219            0     3563.503    23.213038    21.378104     21.57363     10705.93    2815.7548    4453.0938    3421.6604     272.0616   -225.08251   -417.82969     -5897.37 
 6912000    115.92322   -6734.2152   -6436.0097   -6734.2152            0    3524.5285    23.210604     21.27095    21.708655    10717.815    3863.1514    4238.2547    2472.1795   -44.657587    746.13919   -1372.1656   -5885.0965 
 6913000    115.16896   -6730.8569   -6434.5917   -6730.8569            0    4480.5931    23.270144    21.286203      21.5327    10665.857    3763.1152    4569.3494    5109.3148    453.61025   -327.35199   -191.67788   -5737.6329 
 6914000    111.27195   -6733.7428   -6447.5025   -6733.7428            0    3110.0639    23.257395     21.30373    21.658532    10731.137    2612.0298    3848.6166    2869.5454   -200.69835    517.91853   -53.688338   -5960.7693 
 6915000       110.64   -6718.0082   -6433.3935   -6718.0082            0    4309.1594    23.224622    21.263651      21.6087    10671.246    5082.9802    4439.4244    3405.0735   -47.173689    160.39246   -403.59636   -5762.7626 
 6916000    114.36382    -6718.759    -6424.565    -6718.759            0    3120.3914    23.225089    21.390182    21.618456    10739.808     3031.372    3459.2121      2870.59   -3.5307416     572.2416   -305.99545    -5935.821 
 6917000    113.47156    -6731.266   -6439.3674    -6731.266            0    3596.5178    23.176988     21.34253    21.665943    10717.179    3642.5662    3519.7844    3627.2029    178.06243    206.52718    680.52839    -5877.235 
 6918000    116.56863   -6720.4796   -6420.6139   -6720.4796            0    3451.4293    23.273153    21.339028    21.559421    10706.979    2703.0524    4400.4325    3250.8031   -13.121841    408.43548   -84.146299   -5881.6721 
 6919000    119.95535    -6719.522   -6410.9442    -6719.522            0    4172.5526    23.172556    21.311414    21.648606    10690.946    3581.7557    4437.1234    4498.7786    264.92592    328.56903    242.05927   -5760.3744 
 6920000    114.25217    -6730.115   -6436.2083    -6730.115            0    4520.9302    23.034704    21.383911    21.677807    10677.882    5289.1638    4624.1211    3649.5057    562.24506   -610.60337   -66.294145   -5732.1821 
 6921000    108.15766   -6715.2098   -6436.9808   -6715.2098            0    3740.8618    23.204613    21.354468    21.613389    10709.913    3684.8902    3934.5999    3603.0954   -23.224474    691.82876    409.48604    -5852.684 
 6922000    114.22147   -6728.0979   -6434.2701   -6728.0979            0    2996.6896    23.272196    21.333523    21.654656    10751.059    2950.5719    3299.9359    2739.5611    412.93646   -217.40291   -431.45104   -5964.4097 
 6923000    108.60018   -6723.2217   -6443.8544   -6723.2217            0    3587.1514     23.25385    21.313284    21.605266    10707.913    3709.0203    4016.5162    3035.9178   -377.12727   -85.658063   -733.47899   -5883.6708 
 6924000    109.28899   -6727.9038   -6446.7645   -6727.9038            0    4586.5292    23.196265     21.33334    21.578737     10678.32    4352.2182    4061.4483    5345.9211    454.19142    493.70947    73.480947   -5732.4935 
 6925000    114.82524   -6730.8584   -6435.4774   -6730.8584            0    3755.9977    23.217359    21.326206    21.634447    10712.041    3249.6704    3825.1931    4193.1297   -220.71911    13.403405   -613.41796      -5848.7 
 6926000     114.7493   -6742.8381   -6447.6525   -6742.8381            0    3297.7393    23.320959    21.313459    21.525645    10699.328    2525.3252    3284.5307    4083.3619     323.7024    128.66284    318.82157   -5933.0775 
 6927000    115.47085   -6713.8458   -6416.8041   -6713.8458            0    2920.7418    23.231554    21.324024     21.71732    10758.548    2939.1903    3019.7035    2803.3316    378.57874   -794.45509   -49.614665   -5958.5327 
 6928000    117.50227   -6729.3417   -6427.0743   -6729.3417            0    3767.7654    23.206938    21.349021    21.572968    10688.228    3377.6723    4087.8269    3837.7971    -614.0541    376.82633   -113.86671   -5839.7669 
 6929000    111.40028   -6722.8214   -6436.2509   -6722.8214            0    2661.1479    23.229304    21.428344    21.566522    10735.071    2201.5261    2591.5918     3190.326    969.26922   -13.600707     218.7792   -6019.6216 
 6930000    113.37834   -6727.8257   -6436.1668   -6727.8257            0    2776.5777    23.170149    21.394328    21.675898    10744.955    3428.7323    2239.9993    2661.0015   -335.54462    235.99866    705.34924   -6001.0656 
 6931000    112.25608   -6727.4379    -6438.666   -6727.4379            0    4024.6229    23.184585    21.366876    21.597659    10699.095    3224.0121     4521.655    4328.2015   -777.36262    50.438804   -483.17141   -5810.6827 
 6932000    113.48865   -6718.5498   -6426.6072   -6718.5498            0    3717.5897    23.317344    21.318802    21.533342    10704.178    3079.6791    3729.9541    4343.1358   -728.31087    954.10401    19.923749   -5846.2562 
 6933000    112.80662   -6736.4304   -6446.2422   -6736.4304            0    3848.5634    23.216494    21.270828     21.66923    10701.003    4183.3869    4406.7894    2955.5138   -317.38904   -830.81926   -258.36559   -5845.6233 
 6934000    108.18024   -6725.0567   -6446.7696   -6725.0567            0    3632.7888    23.192055    21.370904    21.598784    10705.117    3659.6553      3337.92    3900.7912    34.249902    508.45863   -130.99172   -5879.6071 
 6935000    111.83061   -6713.4249   -6425.7474   -6713.4249            0    3677.8781    23.131352    21.339771     21.70535    10714.147    4387.8536    3117.0621    3528.7188    464.16122    580.86119    669.85956   -5851.0612 
 6936000    114.54289   -6717.8054   -6423.1507   -6717.8054            0     4062.692    23.117544    21.379402    21.637793    10694.247    4298.6035    4601.4566    3288.0161   -956.93855    847.16927   -643.84649   -5789.5145 
 6937000    109.77207   -6732.6134   -6450.2314   -6732.6134            0    3994.6843    23.223341    21.396265    21.522989    10694.617    3802.9102    3849.5287    4331.6142     1.826605    205.85453   -527.28011   -5827.1804 
 6938000     120.7511   -6733.4766   -6422.8518   -6733.4766            0    3017.7493    23.208458    21.301561     21.70619    10731.028    3633.7807    3087.9342    2331.5332    230.49348    -1462.133   -211.84723   -5950.5709 
 6939000    110.11644   -6737.1778   -6453.9099   -6737.1778            0    4166.3527    23.246026     21.30622    21.542078    10669.467    3597.7312    4286.2774    4615.0493   -595.74983    432.08158    746.91419    -5805.612 
 6940000    120.37226   -6725.1363    -6415.486   -6725.1363            0    2420.5825     23.16377    21.400012    21.714078    10763.776    2459.9791    3113.9489    1687.8195    460.70973    125.46661   -147.59355   -6035.5063 
 6941000    116.19964   -6719.2515    -6420.335   -6719.2515            0    4997.5317    23.158227     21.32476     21.56526    10649.866    5266.1865    5311.1659    4415.2427    941.03581   -669.58114    106.30803   -5644.1315 
 6942000    114.39915   -6724.4731   -6430.1883   -6724.4731            0    4577.7665    23.163963    21.374405    21.568963    10679.137    3989.4107    4329.3336    5414.5551    413.50852     740.7943    926.77194   -5717.2274 
 6943000    112.91017   -6731.5717   -6441.1172   -6731.5717            0    3158.9937    23.174032    21.334701    21.709126    10733.232    3637.4411    2996.7392    2842.8007   -14.965177   -482.28458   -662.41821   -5946.6298 
 6944000    110.54682   -6717.5724   -6433.1974   -6717.5724            0    3523.6444    23.361737    21.323736    21.512318    10716.566    2226.2057    3109.0983    5235.6293   -537.02915    755.96963     162.8696   -5882.4866 
 6945000    112.67964   -6717.7619   -6427.9004   -6717.7619            0    3603.9423    23.226684    21.302706    21.681365    10727.749    3724.2755    3752.9207    3334.6307   -419.73967   -684.89728   -248.01547   -5864.0521 
 6946000    113.69466   -6733.3476    -6440.875   -6733.3476            0    4246.2198    23.199347    21.332858    21.585268     10682.73    3645.7953    4302.1022     4790.762    88.763105      747.817    84.467762   -5779.3281 
 6947000     112.7824   -6727.1709   -6437.0451   -6727.1709            0    3084.8975    23.123563    21.506047    21.590847    10737.052    3720.8895    2216.6233    3317.1797      184.305   -80.344051    606.33056   -5953.9844 
 6948000    113.89199   -6720.0709   -6427.0907   -6720.0709            0     3973.796    23.081121    21.380188    21.703998    10710.461    4846.0539    3746.3314    3329.0028     -177.942    372.75051    642.26596   -5806.3794 
 6949000    116.35947   -6727.2116    -6427.884   -6727.2116            0    3296.2337    23.275383    21.430043    21.498943    10723.511    2731.9386    3250.5635    3906.1988    533.12193   -286.39148   -647.39166   -5912.3814 
 6950000    110.76417   -6733.1454   -6448.2113   -6733.1454            0     3788.103    23.216615    21.212776    21.761961    10717.523    3468.6929    4870.8958    3024.7202   -973.65249    66.409341    50.532303   -5856.1154 
 6951000    113.13041   -6723.3359   -6432.3148   -6723.3359            0    3616.7956      23.3394    21.289009    21.557755     10711.46    3823.2326    3033.7699    3993.3843   -1079.2334    629.48415   -137.84307   -5867.3147 
 6952000    115.65864    -6737.688   -6440.1632    -6737.688            0    3345.6353    23.236835    21.251699    21.712208    10721.971    4017.4899    3217.2704    2802.1456   -777.59254    215.17742   -714.69237   -5917.0098 
 6953000    107.82484   -6735.9337   -6458.5609   -6735.9337            0    3539.1797    23.214883    21.403927    21.526884    10696.486    3795.0193    3069.9355    3752.5844   -465.82506    -255.8801    432.17385   -5906.4584 
 6954000     111.2729   -6726.9946   -6440.7518   -6726.9946            0    3995.7006    23.135689    21.375556    21.607327    10685.649    3933.0179    4317.6207    3736.4633    309.32246    22.026254    -321.8814   -5818.0649 
 6955000    113.27482   -6737.8307   -6446.4381   -6737.8307            0    3616.8114    23.187256    21.389192    21.614411    10719.811    3728.5924    3343.1836    3778.6583   -765.61488    661.52446    149.88228    -5880.995 
 6956000    110.27563   -6733.6413   -6449.9639   -6733.6413            0    4088.6903    23.305415    21.359253    21.459992    10682.489    2873.2802    4795.3845    4597.4062    298.70779   -472.09402    -857.2582    -5812.974 
 6957000    114.15094   -6741.1659   -6447.5196   -6741.1659            0    3867.3782     23.18776    21.313567     21.65465    10702.029    3417.0948    3866.6131    4318.4266   -820.02771    174.75849    -199.2263   -5843.9065 
 6958000    116.73928   -6736.9901   -6436.6854   -6736.9901            0     2948.718    23.284247    21.354492     21.60014    10740.093    2917.8239    3099.2536    2829.0767    293.96885    615.14784    174.04484   -5974.8182 
 6959000    115.24347   -6722.4375   -6425.9807   -6722.4375            0    4167.4528    23.179014    21.332719    21.613194    10687.106    4102.2767    3933.1355    4466.9461    347.58875    582.61454      462.023   -5776.4395 
 6960000     113.6123   -6727.8888   -6435.6281   -6727.8888            0    3778.9547    23.079819    21.373867    21.693974    10701.745    4729.6074    3777.8079    2829.4488   -54.032573    97.164221   -364.25325   -5845.8316 
 6961000    112.49933   -6712.0419   -6422.6442   -6712.0419            0    4825.2338    23.175824    21.381209    21.499087    10653.381    5342.7721    3926.9832    5205.9461   -366.18754    1021.1234     50.01753   -5672.9542 
 6962000    109.27059   -6723.3768   -6442.2849   -6723.3768            0    3580.0146    23.228999     21.27901    21.663065    10707.839     3820.969    3955.8222    2963.2525   -194.82119   -81.048021   -219.38425   -5883.2196 
 6963000    110.42935    -6724.194   -6440.1212    -6724.194            0    3107.0929    23.237869    21.319261    21.661109    10731.221    2514.9465    3833.4487    2972.8836    9.9660034   -592.40613    289.98709   -5953.8492 
 6964000    113.92476   -6728.1039   -6435.0394   -6728.1039            0     3266.809    23.336559    21.333415    21.543744     10725.52     2785.176    2983.1043    4032.1468    28.815917    -213.0816    254.90451   -5924.0428 
 6965000    112.29466   -6741.7377   -6452.8666   -6741.7377            0    3994.4955    23.125979    21.256412    21.727307    10680.608    4520.7104    4280.0207    3182.7553    586.62458   -143.36962   -111.93451   -5830.6611 
 6966000    112.08499   -6726.3219   -6437.9901   -6726.3219            0     3430.745    23.236363     21.35146    21.591625    10712.259    3138.7282    3405.9897     3747.517   -699.61344     338.2877    174.86521   -5902.0141 
 6967000    118.60328   -6744.1179   -6439.0182   -6744.1179            0    3350.3777    23.228987    21.369079    21.564923    10704.441    3441.5734    4091.1785    2518.3811    271.04702   -598.24697   -108.29195   -5915.9797 
 6968000    115.22635   -6724.5205   -6428.1077   -6724.5205            0    4026.2191      23.1357    21.323475    21.720637    10715.518    4336.3744    3731.9124    4010.3705    241.49336   -167.31919    159.69709   -5798.9109 
 6969000    109.16634   -6718.3061   -6437.4823   -6718.3061            0    3807.7476    23.361415    21.393346    21.410715    10700.622     2324.282    3875.3976    5223.5631    54.786172    649.36261    460.30985   -5843.2543 
 6970000     112.9184   -6746.8397   -6456.3639   -6746.8397            0     3558.939    23.141363    21.297775     21.71812    10703.983     3991.628    4556.3527    2128.8363   -230.81387   -171.49303   -307.75707   -5900.7901 
 6971000    107.24937   -6718.5586   -6442.6661   -6718.5586            0    4102.7487     23.22992    21.262096      21.6439    10690.286    4284.2859    4270.7204    3753.2398    219.12765   -571.97842    382.31568   -5803.0194 
 6972000     109.3667     -6725.87   -6444.5308     -6725.87            0    4459.4503    23.209786     21.33828    21.521984    10658.911    4077.8123    4250.2699    5050.2688    375.33796    218.69928    206.32416   -5751.3124 
 6973000    113.17802   -6737.8998   -6446.7563   -6737.8998            0    3388.5042    23.038436    21.401525    21.773912    10735.794    4903.8363    3145.1841    2116.4923   -279.49287   -901.65448   -337.79688   -5916.2163 
 6974000    113.89058   -6718.0569   -6425.0803   -6718.0569            0    3259.9825    23.254958    21.425841    21.556014    10740.436    2830.9393    3018.4783    3930.5301   -181.19502    578.11861    335.00429   -5914.4424 
 6975000    114.40219   -6738.4552   -6444.1626   -6738.4552            0    3786.5894    23.208422    21.350228    21.590776     10698.34    4807.9932    2985.5882    3566.1869   -757.17605   -125.55141   -135.47325   -5853.3625 
 6976000    114.50541   -6733.1596   -6438.6014   -6733.1596            0    4148.0273    23.189473    21.244355    21.697089    10688.971    4028.5532    4278.3766     4137.152    454.98172   -535.27617    320.79695    -5791.975 
 6977000    120.47104   -6718.2588   -6408.3544   -6718.2588            0    3608.4585    23.405441    21.150649    21.607126    10696.397    2469.1787    4243.8021    4112.3946   -370.39852    441.30901    741.81858   -5845.4494 
 6978000    117.42637   -6713.6671   -6411.5949   -6713.6671            0    4585.6955     23.21952    21.245366    21.637357    10673.864    4877.9828    5318.2474    3560.8565    118.09948     23.50834    -185.3199   -5697.7518 
 6979000    112.71213   -6718.4082   -6428.4631   -6718.4082            0    4158.1618     23.16275    21.444563    21.508953    10683.821    4188.3681    3240.6443    5045.4731    541.87834   -19.362434   -130.00538   -5780.5693 
 6980000    114.49736   -6718.1115    -6423.574   -6718.1115            0    3496.7677    23.097133    21.515801    21.586238    10727.353    4585.2444    3324.0922    2580.9664    216.27077   -1076.0398   -757.68205   -5876.5137 
 6981000    117.43488   -6722.5001    -6420.406   -6722.5001            0    3949.3175    23.140796    21.361842    21.676917    10715.551    3800.6548    4421.6281    3625.6697    407.70694   -187.64819    -323.7393   -5803.2251 
 6982000    112.99788   -6719.7144   -6429.0342   -6719.7144            0    4402.8858    23.287709    21.297564    21.508604    10667.654    3873.9963    4173.9978    5160.6634    109.73291    769.82511     729.6982   -5744.0474 
 6983000    110.69539   -6730.8487   -6446.0915   -6730.8487            0    2908.4805     23.27326    21.181543    21.791746    10742.536     3430.929    4171.6838    1122.8288    -91.49815   -852.90441   -542.77745   -5990.4231 
 6984000      113.129   -6728.9209   -6437.9034   -6728.9209            0    2882.4929    23.274448    21.314567    21.626195    10728.426    1954.4228    3354.9123    3338.1436    230.59321    866.64304    507.50423   -5986.8997 
 6985000     112.4669   -6730.5007   -6441.1864   -6730.5007            0    3021.7458    23.192481    21.393538    21.663591    10748.807    2685.0082     2565.673    3814.5562   -164.38468    440.20688    1494.3888   -5967.4966 
 6986000    112.75535   -6731.8539   -6441.7976   -6731.8539            0    3329.1044    23.149125    21.399524    21.607087    10703.725    4191.7254    3044.0594    2751.5283    1032.0157    325.95462    -226.0248    -5922.115 
 6987000    112.02406   -6736.7058   -6448.5307   -6736.7058            0    3013.4195    23.243265    21.395756      21.5488    10716.374    2967.3131    2437.0334    3635.9121   -55.451213   -137.30691    916.91981   -5977.5715 
 6988000    115.58692   -6722.9019   -6425.5616   -6722.9019            0    3749.1834    23.202052    21.306401    21.694936     10724.94    4154.1389    4395.2139    2698.1975    88.105783    -1014.537   -55.005246   -5839.1434 
 6989000    116.17051   -6740.0726    -6441.231   -6740.0726            0    3670.0145    23.328459    21.292026    21.557713    10707.935    3483.0162    3423.0396    4103.9875   -761.30552    437.77064   -705.95972    -5868.106 
 6990000    113.56521   -6722.5208   -6430.3812   -6722.5208            0    3934.8509    23.286925    21.276326    21.584572    10694.296    2803.0298    4591.9823    4409.5406    337.56511    1035.3485    18.205066   -5816.6808 
 6991000    115.70963   -6741.3981   -6443.7422   -6741.3981            0    2517.2475    23.157974    21.375082    21.722695    10752.812    3108.0276    2157.8366    2285.8782   -149.42118    313.90102    861.00989   -6048.9906 
 6992000    112.24805    -6731.058   -6442.3067    -6731.058            0    3356.9986    23.240099    21.439343    21.450673    10687.851    2560.1217     3449.949     4060.925    207.98128    189.16613    769.29644   -5919.0469 
 6993000    111.82428   -6716.1759   -6428.5148   -6716.1759            0    3140.5922    23.158222     21.39867    21.670559    10738.957    3835.0551    2119.3367    3467.3848    122.78629    361.87218    123.43979   -5936.6456 
 6994000    112.94714   -6728.7016    -6438.152   -6728.7016            0    3224.8912    23.271754    21.337477    21.555333    10703.527    2633.8594    3680.3166    3360.4976   -214.08109    -375.3714   -213.86643   -5934.7465 
 6995000    118.36882   -6719.8961   -6415.3995   -6719.8961            0      3995.71     23.26986    21.320539    21.596653     10714.66     3018.784    4390.2176    4578.1283   -328.37515   -108.00348   -501.05451   -5791.0206 
 6996000    110.09186   -6725.8459   -6442.6413   -6725.8459            0     3929.829    23.202363    21.250594    21.681697    10690.464    3491.9859    4220.7534    4076.7477   -450.68598    479.76101    245.20283   -5829.9439 
 6997000    113.57588   -6723.9762   -6431.8092   -6723.9762            0    3855.7818     23.33716    21.321598    21.483092    10689.676    3931.4015    3391.3068    4244.6369    102.41652   -1100.6801     349.4529   -5830.7007 
 6998000    117.39162   -6732.7797   -6430.7969   -6732.7797            0    3527.2935    23.103403    21.389667    21.695014    10721.114    3943.8427    3441.9865    3196.0513   -461.86078    235.81423   -1.9835795   -5879.2818 
 6999000    112.02731   -6725.5035   -6437.3201   -6725.5035            0    3951.5617    23.187613    21.438269    21.499107    10687.255    4028.0657    3727.5089    4099.1106    186.91298   -39.736707   -285.89539   -5821.4192 
 7000000    116.79025   -6709.2894   -6408.8536   -6709.2894            0    3900.0246    23.170806    21.385578    21.608716    10707.574      4131.92    4121.3292    3446.8246    651.70782   -320.91838   -1154.8882   -5799.8297 
Loop time of 513.763 on 64 procs for 250000 steps with 1296 atoms

Performance: 84.086 ns/day, 0.285 hours/ns, 486.606 timesteps/s
99.1% CPU use with 64 MPI tasks x 1 OpenMP threads

MPI task timing breakdown:
Section |  min time  |  avg time  |  max time  |%varavg| %total
---------------------------------------------------------------
Pair    | 29.832     | 41.07      | 52.515     | 111.7 |  7.99
Bond    | 0.28034    | 0.28899    | 0.29821    |   0.7 |  0.06
Kspace  | 253.32     | 265.57     | 277.45     |  44.3 | 51.69
Neigh   | 1.6535     | 1.6705     | 1.6854     |   0.6 |  0.33
Comm    | 89.706     | 90.894     | 92.838     |   7.4 | 17.69
Output  | 0.63784    | 0.63982    | 0.64103    |   0.1 |  0.12
Modify  | 102.07     | 103.27     | 105.01     |   6.0 | 20.10
Other   |            | 10.36      |            |       |  2.02

Nlocal:        20.2500 ave          28 max          14 min
Histogram: 7 5 14 4 2 8 8 13 0 3
Nghost:        2618.27 ave        2650 max        2588 min
Histogram: 6 2 7 9 9 11 5 7 3 5
Neighs:        6520.39 ave        9032 max        4439 min
Histogram: 6 6 13 5 3 7 8 13 0 3

Total # of neighbors = 417305
Ave neighs/atom = 321.99460
Ave special neighs/atom = 2.0000000
Neighbor list builds = 2965
Dangerous builds = 0

unfix		3
unfix		2
unfix		1

write_data	data.final.${pid}
write_data	data.final.0
System init for write_data ...
PPPM initialization ...
  extracting TIP4P info from pair style
  using 12-bit tables for long-range coulomb (../kspace.cpp:340)
  G vector (1/distance) = 0.36735605
  grid = 27 40 32
  stencil order = 5
  estimated absolute RMS force accuracy = 0.0045423646
  estimated relative force accuracy = 1.3679196e-05
  using double precision FFTW3
  3d grid and FFT values/proc = 4845 560
Last active /omp style is kspace_style pppm/tip4p/omp
WARNING: Not all mixed pair coeffs generated from mixing. Use write_data with 'pair ij' option to store all pair coeffs. (../write_data.cpp:312)

write_restart   restart.lmp.${pid}
write_restart   restart.lmp.0
System init for write_restart ...
PPPM initialization ...
  extracting TIP4P info from pair style
  using 12-bit tables for long-range coulomb (../kspace.cpp:340)
  G vector (1/distance) = 0.36735605
  grid = 27 40 32
  stencil order = 5
  estimated absolute RMS force accuracy = 0.0045423646
  estimated relative force accuracy = 1.3679196e-05
  using double precision FFTW3
  3d grid and FFT values/proc = 4845 560
Last active /omp style is kspace_style pppm/tip4p/omp
Total wall time: 0:08:33
