#include		in.partitions
include		in.temp
variable        temperature equal 20.49
variable	tempDamp equal 100.0
include		in.pressure
variable        pressure equal 9032.7
variable        pressureDamp equal 1000.0 # This is 1 ps
include		in.seed
variable        seed equal 745823

units		real
atom_style	full
box tilt large
read_restart	restart.lmp.${pid}
read_restart	restart.lmp.0
Reading restart file ...
  restart file = 30 Jul 2021, LAMMPS = 30 Jul 2021
  restoring atom style full from restart
  triclinic box = (-10.493876 -9.0487857 0.26384469) to (12.473876 12.038784 21.596154) with tilt (-9.1106778 1.6995700 2.6509560)
  4 by 2 by 4 MPI processor grid
  restoring pair style lj/cut/tip4p/long/omp from restart
  restoring bond style harmonic/omp from restart
  restoring angle style harmonic/omp from restart
  1296 atoms
  864 bonds
  432 angles
Finding 1-2 1-3 1-4 neighbors ...
  special bond factors lj:    0        0        0       
  special bond factors coul:  0        0        0       
     2 = max # of 1-2 neighbors
     1 = max # of 1-3 neighbors
     1 = max # of 1-4 neighbors
     2 = max # of special neighbors
  special bonds CPU = 0.002 seconds
  read_restart CPU = 0.008 seconds
include 	in.setup
variable	out_freq equal 1000
variable	out_freq2 equal 10000
variable	out_freq3 equal 1000

timestep	2.0

neigh_modify    delay 7 every 1

include		in.tip4p
# This is TIP4P/Ice

# create groups ###
group ox type 2
432 atoms in group ox
group hy type 1
864 atoms in group hy

# set charges - beside manually ###
set group ox charge -1.1794
Setting atom values ...
  432 settings made for charge
set group hy charge 0.5897
Setting atom values ...
  864 settings made for charge

# ### TIP3P Potential Parameters ###
pair_style lj/cut/tip4p/long/omp 2 1 1 1 0.1577 8.5
pair_coeff 1 1*2 0.000 0.000
pair_coeff 2 2 0.21084 3.1668
bond_style  harmonic
bond_coeff  1 450 0.9572
angle_style harmonic
angle_coeff 1 55 104.52
kspace_style pppm/tip4p/omp 1.0e-5
pair_modify tail yes

thermo          ${out_freq}
thermo          1000
thermo_style    custom step temp pe etotal epair emol press lx ly lz vol pxx pyy pzz pxy pxz pyz enthalpy

restart 	${out_freq3} restart.lmp.${pid} restart2.lmp.${pid}
restart 	1000 restart.lmp.${pid} restart2.lmp.${pid}
restart 	1000 restart.lmp.0 restart2.lmp.${pid}
restart 	1000 restart.lmp.0 restart2.lmp.0


include         in.dump
dump            myDump all atom ${out_freq2} dump.water.${pid}
dump            myDump all atom 10000 dump.water.${pid}
dump            myDump all atom 10000 dump.water.0
dump            myDump2 all dcd ${out_freq2} dump.dcd
dump            myDump2 all dcd 10000 dump.dcd
dump_modify     myDump append yes
dump_modify     myDump2 append yes


variable natoms 	equal  "count(all)"                        # NUMBER ATOMS
variable H      	equal  "enthalpy/v_natoms"                 # ENTHALPY-per-atom
variable Vol      	equal  "vol/v_natoms"                 # volume-per-atom
fix AVG all 		ave/time ${out_freq} 1 ${out_freq} v_Vol v_H file vol_enthalpy.dat
fix AVG all 		ave/time 1000 1 ${out_freq} v_Vol v_H file vol_enthalpy.dat
fix AVG all 		ave/time 1000 1 1000 v_Vol v_H file vol_enthalpy.dat


timer           timeout 10:00:00 every 1000
New timer settings: style=normal  mode=nosync  timeout=10:00:00

fix 		1 all shake 1e-6 200 0 b 1 a 1
       0 = # of size 2 clusters
       0 = # of size 3 clusters
       0 = # of size 4 clusters
     432 = # of frozen angles
  find clusters CPU = 0.000 seconds
fix             2 all nph tri ${pressure} ${pressure} ${pressureDamp}
fix             2 all nph tri 9032.7 ${pressure} ${pressureDamp}
fix             2 all nph tri 9032.7 9032.7 ${pressureDamp}
fix             2 all nph tri 9032.7 9032.7 1000
fix             3 all temp/csvr ${temperature} ${temperature} ${tempDamp} ${seed}
fix             3 all temp/csvr 20.49 ${temperature} ${tempDamp} ${seed}
fix             3 all temp/csvr 20.49 20.49 ${tempDamp} ${seed}
fix             3 all temp/csvr 20.49 20.49 100 ${seed}
fix             3 all temp/csvr 20.49 20.49 100 745823


run             250000
PPPM initialization ...
  extracting TIP4P info from pair style
  using 12-bit tables for long-range coulomb (../kspace.cpp:340)
  G vector (1/distance) = 0.37259567
  grid = 30 36 32
  stencil order = 5
  estimated absolute RMS force accuracy = 0.0034948444
  estimated relative force accuracy = 1.052462e-05
  using double precision FFTW3
  3d grid and FFT values/proc = 7344 1152
Last active /omp style is kspace_style pppm/tip4p/omp
Neighbor list info ...
  update every 1 steps, delay 7 steps, check yes
  max neighbors/atom: 2000, page size: 100000
  master list distance cutoff = 10.8154
  ghost atom cutoff = 10.8154
  binsize = 5.4077, bins = 7 5 4
  1 neighbor lists, perpetual/occasional/extra = 1 0 0
  (1) pair lj/cut/tip4p/long/omp, perpetual
      attributes: half, newton on, omp
      pair build: half/bin/newton/tri/omp
      stencil: half/bin/3d/tri
      bin: standard
Per MPI rank memory allocation (min/avg/max) = 10.63 | 10.63 | 10.64 Mbytes
Step Temp PotEng TotEng E_pair E_mol Press Lx Ly Lz Volume Pxx Pyy Pzz Pxy Pxz Pyz Enthalpy 
12000000    23.694457   -6946.4776   -6885.5251   -6946.4776            0    9169.5629    22.967753    21.087569     21.33231    10331.965      8896.32    9966.7795    8645.5893    300.23326    802.54662    225.52321   -5503.8452 
12001000    21.341339   -6955.7495   -6900.8502   -6955.7495            0    9098.0607    22.966968    21.149847    21.235547    10315.121     9100.095    8774.3546    9419.7326    127.60217    -441.9006    22.155655   -5532.1792 
12002000    20.387398    -6953.776   -6901.3306    -6953.776            0    9095.9364    22.951785    21.076667    21.340622    10323.465    9247.7833    9498.9994    8541.0266   -121.23746    26.180781    182.36377   -5531.8724 
12003000    19.811395   -6953.4507   -6902.4871   -6953.4507            0    9101.5344     22.96362    21.131552    21.269767    10321.302    9020.8321    9188.4992    9095.2718     85.36314   -300.79939   -97.822381   -5532.4731 
12004000    19.556105   -6954.2613   -6903.9545   -6954.2613            0    9047.3407     22.95264    21.161134    21.251388    10321.882    9296.7628    8799.5304     9045.729   -200.32928   -101.63905   -366.87113   -5542.0215 
12005000    20.066428   -6953.2444   -6901.6247   -6953.2444            0    9033.9502     22.94388    21.140712    21.295742    10329.498    9398.4177     8861.329    8842.1038   -120.17715    277.93668   -82.583009    -5540.704 
12006000    21.371946   -6952.9516   -6897.9735   -6952.9516            0    9099.1824    22.954649    21.136547    21.258261    10314.126    9224.1626     8725.282    9348.1027    301.20172   -172.81058      397.566   -5529.2659 
12007000    20.535462   -6955.5894   -6902.7632   -6955.5894            0     8896.641     22.93813    21.133042    21.300277    10325.361    9108.5505    9020.9865    8560.3859    466.99602   -46.998231    15.326862   -5563.0642 
12008000     19.93041   -6951.8752   -6900.6054   -6951.8752            0    8933.2015    22.918253    21.172385    21.276263    10323.967    9289.4775    8388.5996    9121.5275    429.51647    -133.4541    301.13868   -5555.5826 
12009000    21.298711   -6952.4612   -6897.6716   -6952.4612            0    8993.5269    22.971226     21.16904    21.226203    10321.853     8722.259    8727.9326    9530.3891     350.5426    445.07812   -52.758976   -5543.8433 
12010000    19.962869   -6952.4232     -6901.07   -6952.4232            0    9126.2147    22.901928    21.140174    21.333423    10328.593    9687.0403    9064.0913    8627.5124    194.02041   -248.51626    23.108648   -5526.3706 
12011000    20.613863   -6952.4904   -6899.4625   -6952.4904            0    9293.2347    22.976138    21.142883    21.220078    10308.327     9171.909    9155.1238    9552.6714   -111.44359    273.09023    231.89899   -5502.3512 
12012000    21.075396   -6952.9532    -6898.738   -6952.9532            0    9039.7245    22.893922    21.151973    21.327174    10327.719    9258.6512    9273.2286    8587.2938    135.46762   -30.170299    -213.9614   -5537.1821 
12013000    21.123899    -6953.879    -6899.539    -6953.879            0    8795.8181    22.911388    21.203899    21.261068    10328.856    8925.7748     8238.121    9223.5585   -218.99497    546.53808    108.23551   -5574.5742 
12014000    19.606332   -6953.9607   -6903.5246   -6953.9607            0    9051.8868    22.928079    21.180496    21.251095    10320.128     9350.969    8739.6553     9065.036    32.878114   -119.32226   -261.95517   -5541.1389 
12015000    21.304898   -6956.2937   -6901.4881   -6956.2937            0    8979.5412    22.918807    21.127733    21.326301    10326.674    9224.8654    9026.4353    8687.3228    13.569368   -73.789135    184.38875   -5549.1338 
12016000    21.175248   -6954.5221   -6900.0501   -6954.5221            0    9107.6558    22.983606    21.146222    21.219891    10313.216    8989.6824    8864.0627    9469.2222    192.56503   -10.887876    295.00735   -5530.1887 
12017000    21.018965   -6956.6651   -6902.5951   -6956.6651            0      8964.22    22.912911    21.125216       21.349    10333.774    9161.5947    8946.9641    8784.1013   -106.00886    103.96445    124.50134     -5551.62 
12018000    20.555964   -6955.4248   -6902.5458   -6955.4248            0     9046.061    22.938453    21.199571    21.216056    10317.057    9252.8775    8453.2227    9432.0829   -118.13186    261.64604    55.645498    -5541.442 
12019000    20.058237   -6953.6422   -6902.0436   -6953.6422            0    9097.8336    22.963401    21.139501    21.263825    10322.202    8891.6482    9282.8023    9119.0503   -43.760352    104.67268   -121.17765   -5532.4673 
12020000    20.326555   -6953.5027   -6901.2139   -6953.5027            0    9053.0511    22.918848    21.143642    21.295102    10319.349    9257.8442    9091.0068    8810.3025    260.51818   -139.86562    326.90394   -5538.7558 
12021000    19.929291   -6955.3754   -6904.1085   -6955.3754            0    8994.5231    22.948226    21.160819    21.251685    10319.887    8998.9786    8745.6733    9238.9174    370.68511    59.502268    28.536281    -5550.388 
12022000    20.989528   -6953.3178   -6899.3235   -6953.3178            0    9290.5481    22.871837    21.176976    21.301995    10317.756    9633.2578    9391.8762    8846.5103    123.49887    644.58968   -86.942393   -5501.3385 
12023000    20.448861   -6955.0398   -6902.4364   -6955.0398            0    9037.8744    22.950563    21.136089    21.278825    10322.042    9050.5853    8912.3661    9150.6717    33.693614    28.018108    44.210551   -5541.9074 
12024000    21.899918   -6952.1599   -6895.8237   -6952.1599            0    8991.2774    22.963536    21.163378    21.242728    10323.668    8845.1887    9100.1004    9028.5431   -181.46245    258.04944    24.650076    -5542.096 
12025000     21.64611   -6953.7818   -6898.0985   -6953.7818            0    9078.5326    22.937136    21.127932    21.307037    10325.694    9008.3711    9356.2254    8871.0013    347.03447    25.930492   -17.782802   -5530.9654 
12026000    20.269134   -6949.3597   -6897.2186   -6949.3597            0    9292.3657    22.951824    21.140694    21.254316    10312.966    9625.6268    9169.7615    9081.7087    205.23418    247.31034   -533.42926   -5499.6093 
12027000    21.469529   -6956.1753   -6900.9462   -6956.1753            0    8897.5976    22.904773    21.146157    21.330183     10331.23    9225.2449    8626.4459     8841.102    378.97582   -122.91831    117.40295   -5560.3417 
12028000    19.652646    -6954.936   -6904.3807    -6954.936            0    8987.5309    23.000388    21.130289    21.248408    10326.829     8846.245     8800.625    9315.7227   -16.031832    98.169647   -18.651748   -5550.8027 
12029000    20.527569   -6956.1458   -6903.3398   -6956.1458            0    8993.8276    22.971319    21.132573    21.271172    10325.943    8962.5294    8738.9721    9279.9812    178.15904   -273.64606    525.44064   -5548.9297 
12030000       21.102   -6953.1464   -6898.8628   -6953.1464            0    9063.7012     22.95927    21.141331    21.275395    10326.854    9059.5903    8933.7074    9197.8061   -202.71505    205.78092    64.703843   -5533.8098 
12031000     20.94798   -6952.2255   -6898.3381   -6952.2255            0    8941.9101    22.947068    21.143627    21.265002    10317.444    9222.3928    8655.8077    8947.5296    138.85485    147.96082   -141.85813   -5552.8548 
12032000    21.357304   -6956.0491   -6901.1088   -6956.0491            0    8971.0908    22.927751    21.126368    21.324128    10328.983    9332.5431    8819.2997    8761.4295   -303.24084    7.6438828    85.320605    -5549.725 
12033000    19.477312    -6951.376   -6901.2718    -6951.376            0    8823.5221    22.986673     21.13159    21.256055    10325.021    9158.7158    8517.1533    8794.6973   -229.55347   -322.68878    181.64773   -5572.6273 
12034000    20.455469   -6955.6353   -6903.0149   -6955.6353            0    9070.5994    22.969173    21.131525    21.278229    10327.892    8914.3209    8773.5431    9523.9342   -143.81341    312.12271    373.05703   -5536.7857 
12035000    20.352728    -6955.465   -6903.1088    -6955.465            0    9042.3199    22.953994     21.15624    21.262795    10325.643    9314.0276    8699.5851    9113.3471   -9.3583655    343.15696    -566.8301   -5541.4357 
12036000    19.870007   -6954.3023   -6903.1879   -6954.3023            0    8973.2712    22.965585    21.152179    21.252364    10323.807    8900.2227    8663.0682    9356.5228   -181.46255    110.56915    -131.5516    -5552.153 
12037000    20.784709   -6954.5362   -6901.0688   -6954.5362            0    8965.9006    22.990735    21.076272    21.312473     10327.15    9185.7283    9079.1222    8632.8512    135.81573   -111.30388    206.17516   -5550.7065 
12038000    20.836828   -6954.2409   -6900.6395   -6954.2409            0    9106.7702    22.983376    21.098635    21.277497    10317.839    9177.1592     9032.504    9110.6473    10.490464   -39.403715    365.87275   -5530.2974 
12039000    20.392945   -6953.2468   -6900.7872   -6953.2468            0    9161.9434    22.928545    21.136682    21.300389    10322.879    9257.3713     9060.346    9168.1128   -253.97564    504.24481   -308.05768   -5521.4694 
12040000    20.149566   -6954.5645    -6902.731   -6954.5645            0    8981.4966    22.968485    21.137623    21.264844    10324.064    9089.5458    8756.4984    9098.4455    200.32872    307.83647    104.04723    -5550.424 
12041000    20.287134   -6955.5163   -6903.3289   -6955.5163            0    9024.3304    22.997679    21.119883    21.259371    10325.853    8973.8011    8796.7812    9302.4089   -356.20559   -315.29462     52.37298   -5544.3371 
12042000    20.216168   -6952.7737   -6900.7688   -6952.7737            0    9181.8736    23.003259    21.094289    21.266935    10319.512    9357.4886     9050.822    9137.3102   -401.20923   -224.04042    229.68271   -5518.9014 
12043000    20.178495   -6951.3563   -6899.4484   -6951.3563            0    9140.2945    22.960992      21.1212    21.274256    10317.242    9203.9296    9216.9086    9000.0454    188.00546    11.293171   -67.178082   -5524.1412 
12044000    20.571899   -6953.1089    -6900.189   -6953.1089            0    9212.6964    22.950586    21.085917    21.331773    10323.174    9325.9386    9319.2347    8992.9157    320.84275    184.33914    -337.3403   -5513.1908 
12045000    19.396212   -6955.6103   -6905.7148   -6955.6103            0     9170.557    23.024485     21.08061    21.254417    10316.261    8550.0906    9597.2254     9364.355   -154.22097    188.01601   -60.967225   -5525.9854 
12046000     21.26271   -6956.2194   -6901.5224   -6956.2194            0     8938.108    23.004727    21.097801    21.290573    10333.362    9267.7722    8902.2357     8644.316   -243.84121   -771.44365    27.357822   -5554.5363 
12047000    19.854399   -6954.3576   -6903.2834   -6954.3576            0    9142.2209    23.016465     21.09505    21.260247    10322.562    9011.8001    8995.8486     9419.014    111.64778    253.26922    67.675648   -5526.9771 
12048000    21.483968    -6955.169   -6899.9028    -6955.169            0    9007.5823    22.990156    21.124547    21.260204    10325.159    8863.8241    9008.6381    9150.2848   -194.48365    643.79759   -350.60647   -5543.5244 
12049000     20.86064   -6953.7381   -6900.0754   -6953.7381            0      8974.81    22.978337    21.053354    21.351462    10329.219    8991.2205    9188.4551    8744.7544    -127.2776   -249.83641    215.01041   -5548.1004 
12050000    21.598692   -6956.2447   -6900.6834   -6956.2447            0    8854.1386    23.066492    21.092001    21.212144      10320.1     8451.913    8782.5157    9327.9872   -263.06246   -338.56019    211.14582   -5568.0641 
12051000    20.740422   -6953.8595   -6900.5061   -6953.8595            0     8977.018    22.999599    21.089355    21.301104     10332.03    8907.2376    9378.1174    8645.6989    115.77124   -77.648634   -291.92543   -5547.8304 
12052000    20.664467   -6956.5905   -6903.4325   -6956.5905            0     9090.869    23.021633    21.077188     21.27899    10325.232    8753.6252    9208.9986    9309.9831    5.3071012    365.55169   -50.619567    -5534.503 
12053000     20.18349   -6956.2106   -6904.2898   -6956.2106            0    8844.4064    22.998941    21.116461    21.274366    10332.029    8966.1044    8611.7214    8955.3932   -280.74507   -210.95455   -276.85355   -5571.5966 
12054000    20.778781   -6954.0136   -6900.5614   -6954.0136            0    9021.5258    23.041086     21.02112     21.32302    10327.793    8697.2288     9619.571    8747.7777    18.490573     48.64729    186.69022   -5541.7368 
12055000    20.864811   -6953.7022   -6900.0287   -6953.7022            0    9068.8941    23.058159    21.067314    21.248471    10321.943    8920.0423    9075.5117    9211.1283   -100.96444   -406.77041     36.14337   -5534.8432 
12056000    21.227031    -6953.342   -6898.7367    -6953.342            0    9141.4505    23.021675    21.063356    21.284642    10321.215    9058.4134    9332.3045    9033.6336   -181.88822   -25.181082   -102.22921   -5522.7259 
12057000    20.418788   -6954.5245   -6901.9984   -6954.5245            0    8866.3232    23.013351    21.091608    21.284062    10331.041    8692.4672    8957.9055    8948.5969    347.95506    62.541376   -210.26963   -5566.1305 
12058000    20.351488   -6954.2662   -6901.9132   -6954.2662            0    9029.9001    22.985839    21.105222     21.28012    10323.438    8995.3931    9251.9848    8842.3223   -116.70059    210.10392   -86.073677   -5542.4008 
12059000    20.981478   -6955.9634   -6901.9898   -6955.9634            0    9018.2631    23.037251    21.056083    21.292345    10328.369    8673.8416    9345.8698    9035.0781   -44.426969    83.138794    137.16481   -5543.5809 
12060000    20.254917   -6956.7903   -6904.6858   -6956.7903            0    9027.7882    23.002595    21.097996     21.27351    10324.219    9167.2004    8842.1047    9074.0594   -310.26241   -461.62775    209.97803   -5545.3885 
12061000    20.170348   -6954.3806   -6902.4936   -6954.3806            0    8847.7707    22.997506    21.104235    21.286836    10331.455    8959.4898    8969.4053    8614.4169   -131.18229    172.58516   -26.529966   -5569.3675 
12062000    20.739038    -6953.893   -6900.5431    -6953.893            0    8989.8431    22.982595    21.105727    21.287919    10326.011    8842.3072    8893.4369    9233.7851    188.66126    179.79271    73.163821   -5546.7242 
12063000    20.319961   -6949.9828   -6897.7109   -6949.9828            0      9049.86    23.020043     21.09858    21.253998    10322.859    8887.3506    9270.2416    8991.9878    -132.3884    -361.4805    49.208579   -5535.2698 
12064000    20.604106   -6956.6203   -6903.6174   -6956.6203            0    9018.0252    23.032931    21.037522    21.313631    10327.644    8792.5805    9393.6139    8867.8812   -195.12069   -57.937023    376.36911   -5545.3397 
12065000    20.029207   -6956.3359    -6904.812   -6956.3359            0     9201.395    23.007222    21.112573    21.241775    10318.015    8951.8151    9262.6239    9389.7461   -159.66469    142.20051   -267.56958   -5520.2075 
12066000     20.74127   -6953.1168   -6899.7611   -6953.1168            0    9067.3646    22.978183    21.087138    21.311009    10326.124    9367.6395    9241.6341    8592.8202    273.15452    124.85143    -482.3593   -5534.2529 
12067000    20.095201   -6956.4433   -6904.7497   -6956.4433            0    9066.5174    22.984623     21.12113    21.263793    10322.747    9055.8712    8962.4595    9181.2214    241.18501    110.47844    73.172256   -5539.8156 
12068000     20.25842   -6954.0777   -6901.9642   -6954.0777            0    9110.6318     23.00025    21.086741    21.265717    10313.879    8975.1761    9036.8239    9319.8955      142.768   -275.76535    -9.405064    -5531.567 
12069000    19.150785   -6955.7059   -6906.4417   -6955.7059            0    9041.2328    22.992787    21.082516    21.301319    10325.725     8994.258    9283.6742    8845.7661     135.4319   -172.84534    181.20365   -5544.9215 
12070000    20.815914   -6955.3081   -6901.7605   -6955.3081            0    9164.3677     22.96766    21.127186    21.271401    10321.778    9021.1973    9038.3894    9433.5165    23.111628    28.741963   -161.24423   -5522.2249 
12071000    20.668999   -6954.4226   -6901.2529   -6954.4226            0    9153.8635    22.973777    21.119675     21.27241    10321.346    9127.8063    9154.8149    9178.9693    157.32302    88.578868    199.13759   -5523.3562 
12072000    21.571202   -6953.0921   -6897.6015   -6953.0921            0    8865.9499    23.007141    21.105715    21.279057    10332.731    8914.5195    9231.3298    8452.0004    16.886577   -591.52144   -266.46263   -5561.5713 
12073000    19.533775   -6954.0753   -6903.8258   -6954.0753            0    8972.5339    23.019678    21.083477    21.269059    10322.615    8717.1651    9224.6356    8975.8011    48.553729    130.75647    217.53251   -5553.0579 
12074000    20.658171   -6955.4904   -6902.3485   -6955.4904            0    9072.5903    22.949584    21.125065    21.303853    10328.352    9152.7682    9006.1469    9058.8558    286.13446    180.39731   -166.53999   -5535.7586 
12075000    20.525786    -6954.421   -6901.6197    -6954.421            0    8880.5653    22.999257    21.124418    21.253526    10325.939    8719.0263     8782.118    9140.5515   -11.743274    245.11243     92.12702   -5564.2667 
12076000    20.998017    -6956.552   -6902.5359    -6956.552            0    8976.2437    22.977543    21.108292    21.294027    10327.958    9388.2652    9059.4553    8481.0104    211.19601   -699.87385    169.91455     -5550.51 
12077000     19.57636   -6952.3031   -6901.9441   -6952.3031            0    9100.1266    23.027613    21.089022    21.245014    10317.213    8748.0681    9267.5466    9284.7652   -232.53638   -21.823638    290.84476   -5532.6848 
12078000    21.102022   -6952.5981   -6898.3144   -6952.5981            0    9109.0353    23.004388    21.076331    21.287087    10321.004    9010.4458    9094.0892    9222.5709    115.62958     4.734066    32.574421    -5527.211 
12079000      19.9921   -6956.1131   -6904.6846   -6956.1131            0    8982.9539    22.947596     21.11087     21.32535    10330.931    9398.1032    8755.3166    8795.4419   -212.70883    271.17044   -42.916824   -5551.2585 
12080000    20.098273   -6949.3262   -6897.6246   -6949.3262            0     9142.069    23.026116    21.095211    21.239515    10316.899    9077.6129    9164.4029    9184.1912      -364.33    151.93777   -41.720113   -5522.0962 
12081000    20.159888   -6954.7554   -6902.8953   -6954.7554            0    9165.5554    23.002544    21.065636    21.308683    10325.404    9137.5534    9386.2147    8972.8981      61.4657   -288.74361    159.02595   -5522.6963 
12082000      20.5515   -6955.2116   -6902.3441   -6955.2116            0    9111.1093    23.008719     21.11952    21.236347    10319.444    8748.2965    9198.5969    9386.4344    134.75712    145.24872   -130.14589   -5531.1358 
12083000    20.728864   -6955.8534   -6902.5296   -6955.8534            0    8918.3542    22.958434    21.145871    21.274599    10328.309    8816.2398    8747.6573    9191.1656    44.487342    389.27041   -233.23414   -5559.1776 
12084000    21.846059   -6954.8311   -6898.6334   -6954.8311            0    8765.9627    22.990063    21.095569     21.30702    10333.659    8629.3748    9241.3304    8427.1828    398.84103    36.101142   -277.67391   -5577.5519 
12085000    20.351048    -6955.633   -6903.2811    -6955.633            0    8955.7662    23.013892    21.070431       21.292    10324.759     8634.956    9190.9669    9041.3758    63.971296   -246.31095    295.08488   -5554.7574 
12086000    20.820905   -6956.2962   -6902.7357   -6956.2962            0    9067.6537    22.996051    21.101013    21.276499    10324.208    9035.0556    9336.7182    8831.1874   -101.19916   -201.73958   -117.37946   -5537.4375 
12087000     19.43482   -6955.2374   -6905.2425   -6955.2374            0    9049.2905    22.968896    21.116554    21.291704    10326.986    9098.8927     9243.082    8805.8967   -110.46927    164.49867   -446.93875   -5542.3425 
12088000    21.207264   -6955.4809   -6900.9265   -6955.4809            0     9099.117    23.005169    21.151786    21.215398    10323.422    8976.9453     8744.655    9575.7506   -127.92538    189.91662   -107.94054   -5530.9951 
12089000    19.905858   -6956.1904   -6904.9838   -6956.1904            0    9039.0511    23.034947    21.053106    21.278936    10319.373    8495.0954    9356.2837    9265.7742    34.301682   -252.43342    10.486462   -5544.6295 
12090000    20.154533   -6955.4608   -6903.6145   -6955.4608            0    8976.1332    23.022097    21.065109    21.293914     10326.76     8867.461    8902.7875    9158.1512     58.99261   -407.36319    429.94968   -5551.7622 
12091000    20.409383   -6956.4054   -6903.9035   -6956.4054            0    8997.0417    22.999445     21.08315     21.28468    10320.957    8868.9863    9134.1493    8987.9895    226.95382     338.6034   -222.16607   -5549.6637 
12092000    20.295525   -6954.6965   -6902.4875   -6954.6965            0    9085.6187    22.937837    21.144716    21.298128    10329.891    9116.4381    9150.6553    8989.7628   -169.94208    272.92969   -151.41692   -5533.7311 
12093000    20.288188   -6953.9011    -6901.711   -6953.9011            0    9103.0093    23.033277    21.090988    21.245989    10321.186    8646.8524     9398.067    9264.1085   -7.4357606   -222.74224   -271.90871   -5531.4904 
12094000    21.533458   -6956.1501   -6900.7566   -6956.1501            0    9060.8127    23.008184    21.074922    21.289716    10323.292    8946.6956     9244.111    8991.6316    -252.8291     110.6752    208.29206   -5536.6094 
12095000     20.10462   -6955.9338   -6904.2159   -6955.9338            0    9121.6412    22.957135    21.106876    21.291736    10316.983    9073.0549    9134.7788    9157.0897     378.2015   -6.2689549    21.792283     -5531.75 
12096000    21.275066   -6955.2688     -6900.54   -6955.2688            0    8865.6111    22.939517    21.102021    21.346548    10333.227    8818.2922    9030.0802    8748.4608    171.59245    887.16427   -425.54747   -5564.4967 
12097000     19.96727   -6954.6319   -6903.2673   -6954.6319            0    8826.3006     22.97878    21.135954    21.270306    10330.529    8903.5597    8850.6416    8724.7006   -4.6978146   -156.25739    15.746366   -5573.4954 
12098000    19.720961   -6955.2653   -6904.5343   -6955.2653            0    8948.2923     23.04719    21.094278    21.234804    10323.593     8420.041    9268.3819     9156.454   -134.23319    56.986028     499.6729   -5557.2882 
12099000    20.582824   -6954.6501   -6901.7021   -6954.6501            0    9011.8762    22.998844    21.121168    21.259094     10326.87    8788.1686    9200.0625    9047.3975    566.21384   -175.97881   -0.4806881   -5544.4522 
12100000    20.290441   -6955.1202   -6902.9243   -6955.1202            0    9062.2711    22.962282    21.114939    21.288624    10321.729    9075.7102    9353.9244    8757.1788     13.77412    290.94618   -673.89839    -5538.764 
12101000     20.67787   -6958.3099   -6905.1173   -6958.3099            0    8915.8223    22.966253    21.086744    21.329095    10329.329    9148.6376    8765.2526    8833.5768    131.00951   -91.333878   -115.64874   -5562.0141 
12102000    20.014362   -6952.8207   -6901.3349   -6952.8207            0    9095.5947    23.031548     21.05245    21.281454    10318.749    8775.6388    9478.1338    9033.0116    24.115589   -371.01397    299.07313   -5532.5537 
12103000    21.052895   -6953.4333    -6899.276   -6953.4333            0    9114.4383    23.032709    21.079548    21.262238    10323.222    8875.0407    9234.8473    9233.4268   -268.44082   -42.324369   -276.95935   -5527.0644 
12104000    21.243482    -6956.304   -6901.6565    -6956.304            0    8965.3759     22.98706    21.136139    21.257759    10328.246    8954.7969    8753.5382    9187.7927    283.02765    281.50503   -88.403852     -5551.23 
12105000    20.415105   -6953.2339   -6900.7173   -6953.2339            0    9082.1375    22.976127    21.154649       21.245    10326.173    9063.4473    8753.3572    9429.6079    146.84419    222.65662   -198.86879   -5532.9779 
12106000    20.422745   -6956.4968   -6903.9606   -6956.4968            0    9159.7427    22.972029    21.089804    21.311447    10324.876     9245.047    9501.6992    8732.4817   -76.587189   -255.18555    144.47992   -5524.7073 
12107000    19.827778   -6954.3461   -6903.3403   -6954.3461            0    8931.9302    23.020362    21.079654    21.280124     10326.42    8605.0152    9311.9794     8878.796    329.27463   -278.97413    129.13132   -5558.1895 
12108000    21.380547   -6957.8278   -6902.8276   -6957.8278            0    8876.0399    22.950241    21.109205    21.314445    10326.024    9096.9268     9060.069     8471.124   -202.28916    68.078518   -80.766674   -5566.1451 
12109000     19.68224   -6953.0571   -6902.4257   -6953.0571            0    9025.2314    22.952359    21.158781    21.261722    10325.627     9427.575     8589.806    9058.3131   -417.55526     308.1961   -364.60722   -5543.3281 
12110000     20.61917   -6956.2133   -6903.1717   -6956.2133            0    8968.1349    22.991924    21.131639    21.250032    10324.478    9030.8312    8737.8745    9135.6991   -117.84901    200.37786    169.33866   -5552.8225 
12111000     20.55226   -6955.1226   -6902.2531   -6955.1226            0     8991.635    23.000907    21.111705    21.275746    10331.255    8828.0408    9163.6753    8983.1888    287.97577   -328.00853    340.09516   -5547.4767 
12112000     20.72601   -6954.7669   -6901.4505   -6954.7669            0    9125.8774    23.008914    21.078252     21.28197    10321.494    8886.8979    9491.5978    8999.1366    327.91263    153.97487    7.3497406   -5527.7468 
12113000    20.630088   -6954.8514   -6901.7818   -6954.8514            0    8901.8905     22.92245    21.156109    21.298428    10328.669    9236.0945    8802.8142    8666.7629    161.94709    287.30509   -512.72414   -5560.8629 
12114000    20.727659   -6953.0376   -6899.7169   -6953.0376            0     9154.932    22.941856     21.11656    21.296835    10317.317    9510.9136     9121.542    8832.3403    22.930601   -81.413766      -103.84   -5522.1973 
12115000    20.272675   -6952.7955   -6900.6453   -6952.7955            0    9107.7823    22.967971    21.111454    21.279089    10317.959      9502.45    8773.0589     9047.838   -283.01604   -179.09771    52.236615   -5530.1349 
12116000    20.296974   -6958.7855   -6906.5728   -6958.7855            0    8912.7976    23.025551    21.107355    21.250342    10327.846    8724.9258    9039.2474    8974.2196    146.41046   -111.63422    213.32815   -5564.1179 
12117000    19.414519   -6957.9972   -6908.0545   -6957.9972            0    8955.6013     22.96592    21.122163    21.304028    10334.369     8974.387    8912.2179    8980.1991    353.50993    293.68738   -270.10314   -5558.3005 
12118000      20.4539   -6956.5487   -6903.9322   -6956.5487            0    8962.0997    22.997689    21.152549    21.222352     10323.82    8656.3291    8586.2215    9643.7484    44.968521    195.31079   -31.147705   -5554.5777 
12119000    20.771385   -6955.8009   -6902.3677   -6955.8009            0     8940.171    22.991764    21.054614    21.327212    10324.135    9196.6324    8862.0553    8761.8253   -299.77357   -485.70092   -29.392381   -5556.2737 
12120000    20.078978   -6952.5282   -6900.8763   -6952.5282            0    9087.1922    23.018998    21.082051    21.248534    10311.652    8840.9508     9379.316    9041.3098   -282.44645   -394.72413   -235.43528   -5534.3001 
12121000    20.462761   -6955.3525   -6902.7133   -6955.3525            0    9257.5689    22.971722    21.068536    21.318314    10317.649    9347.0929    9431.3454    8994.2684   -279.04123     172.3171   -30.166968   -5509.7053 
12122000    21.256764   -6954.9846   -6900.3029   -6954.9846            0    9074.4765    23.016815    21.095482    21.270644    10327.979    8872.5033    8871.6738    9479.2524    173.92404    122.07617   -58.210948   -5533.4783 
12123000    20.511556   -6956.8773   -6904.1126   -6956.8773            0    8967.1942    23.024914    21.090319    21.271581    10329.539    8940.8327    9112.9116    8847.8384   -383.83875   -215.99168    13.624829    -5553.243 
12124000    20.209135   -6954.4963   -6902.5095   -6954.4963            0    8835.6965    23.082256    21.062043    21.267025    10339.165    8754.0901     8929.247    8823.7525   -152.83727   -657.40954   -73.543572   -5570.2091 
12125000    20.782534   -6951.8801   -6898.4183   -6951.8801            0    9048.0357    23.032253    21.072209    21.257265    10317.011    8683.3489    9253.3013    9207.4569   -91.090194   -21.460338   -153.03404   -5537.0236 
12126000    20.205474   -6955.4672   -6903.4899   -6955.4672            0    9011.2596    22.966998    21.072099    21.338892    10327.231    8916.8213    9220.8631    8896.0945    120.75777    16.450258   -272.62012   -5546.2854 
12127000    20.688107   -6956.1722   -6902.9533   -6956.1722            0    8895.7719    23.022808    21.095043    21.252322    10321.554    8490.4062    8991.7779    9205.1315   -130.30298    339.91001    315.70237   -5563.8792 
12128000    20.448028   -6956.1348   -6903.5335   -6956.1348            0    8965.8129    23.004626    21.105061    21.288658    10335.942     9127.226    8722.4207     9047.792   -267.20592   -640.55429    105.61811   -5552.0348 
12129000     20.78803   -6951.6321   -6898.1561   -6951.6321            0    9084.7818    23.027535    21.097096    21.252158    10324.599    8726.9153    9039.3153    9488.1147   -527.72539    161.47125    151.89283   -5530.2271 
12130000    19.730737   -6956.6548   -6905.8987   -6956.6548            0    8985.0034    22.972344    21.179529    21.220018     10324.46     8925.242    8683.9216    9345.8467   -43.518295    125.74414   -413.85473   -5553.0118 
12131000    19.836681   -6955.4502   -6904.4215   -6955.4502            0    9055.5797     22.95132    21.071904    21.336247    10318.807    9150.1751    9255.6592    8760.9049    252.60797    518.73383    2.6494555   -5541.6544 
12132000    20.147222   -6950.5642   -6898.7367   -6950.5642            0    9092.9677    22.986289    21.102657    21.274411    10319.617    9117.9715    9140.2914    9020.6402    263.53137   -262.14546    1.8932795   -5530.2357 
12133000    20.852039   -6955.0469   -6901.4063   -6955.0469            0    8999.1869    23.015556    21.072704     21.28888    10325.107    8898.9406    9214.0175    8884.6027    254.15754   -134.87946    85.227285    -5546.299 
12134000    19.654911   -6956.3441    -6905.783   -6956.3441            0    9081.8344    22.965365     21.16056    21.251411    10327.336    9193.8783    8833.6625    9217.9625   -99.768908   -15.469952   -390.85743   -5537.9353 
12135000    19.731627   -6954.5272   -6903.7688   -6954.5272            0    9184.3086    22.977597    21.120503    21.261092    10317.974     9207.755    9024.9963    9320.1745    8.5281094    371.20084   -197.39274   -5521.7409 
12136000    21.218233   -6955.4932   -6900.9106   -6955.4932            0    8727.6194    22.960727    21.107199    21.326675    10335.688    8918.9764     8575.362    8688.5198    31.890204    4.4296396    72.780791   -5585.3493 
12137000    19.925682   -6952.9246    -6901.667   -6952.9246            0    9143.1744    23.007161     21.08595    21.261994    10314.785     8803.646    9322.2795    9303.5976    340.05011     120.5614    205.63025   -5526.2541 
12138000     20.09309   -6956.2092    -6904.521   -6956.2092            0    9009.4848    22.949332    21.090388    21.332551    10325.174    9129.6828      9240.76    8658.0115   -28.835601    258.36711   -96.334593    -5547.854 
12139000    20.135747    -6954.144    -6902.346    -6954.144            0    9079.8736    22.958198    21.166507    21.238634    10320.805    9106.9313    8895.6529    9237.0368    166.85352    77.318368   -86.937201   -5535.6584 
12140000    20.238421   -6954.9747   -6902.9126   -6954.9747            0    8886.7519    23.000775    21.100982    21.278633    10327.349    8803.9606    9037.4871    8818.8079    -46.80825    292.35056   -249.69086   -5564.4453 
12141000    20.006595   -6955.0812   -6903.6154   -6955.0812            0    8899.5359    23.002183    21.133743     21.24215    10326.282    8634.5882     8749.982    9314.0375    398.47102   -153.89237    416.90544   -5563.3611 
12142000    20.280867   -6953.1725   -6901.0012   -6953.1725            0    9099.3561    22.973164    21.098837    21.287047    10317.982    8966.0364    9255.4864    9076.5454   -136.04228   -46.819025   -139.43443   -5531.7557 
12143000     20.95702   -6955.9902   -6902.0796   -6955.9902            0    8942.6817    22.938702    21.150899    21.284465    10326.673    8924.9998    8757.5563    9145.4889    482.43291    456.68763   -39.837278   -5555.2766 
12144000    20.252914   -6955.0152   -6902.9158   -6955.0152            0    8983.3213    22.974201    21.108777    21.289553    10324.524    8936.0541    8944.2839    9069.6258    -57.54103   -226.85565   -226.12206   -5550.2739 
12145000    20.935286   -6951.9739   -6898.1191   -6951.9739            0     9183.102    23.024754    21.112646    21.227821     10319.13    9073.5747    9090.4992    9385.2321    94.243656   -90.064846     345.9905   -5516.1181 
12146000    20.572098   -6956.2507   -6903.3302   -6956.2507            0    8923.2613    23.013581    21.088955    21.280127    10327.935    8518.6214     9301.453    8949.7094    176.52972    11.069253    219.84407   -5559.2877 
12147000    19.308447   -6954.5489   -6904.8791   -6954.5489            0    9013.1266    22.993771    21.111817    21.273459    10326.994    8993.8351    9103.1514    8942.3933    -298.1061    182.37924   -356.82001   -5547.4246 
12148000    20.235625   -6957.3135   -6905.2586   -6957.3135            0    9081.6804    22.983165     21.08934    21.303824    10325.959    8980.0491    8823.8853    9441.1067    24.432239   -152.43439     256.7283   -5537.6164 
12149000    21.050114   -6953.3174   -6899.1673   -6953.3174            0    9044.2499    23.026242    21.096745    21.252323    10323.927    9095.6139    9094.7654    8942.3703   -703.46378   -427.18825    108.95858   -5537.4299 
12150000    20.184503   -6954.9508   -6903.0274   -6954.9508            0    8961.9444    23.039089     21.05246    21.279193    10321.036     8523.725    9313.2466    9048.8617    93.067089   -82.710947   -5.7913723   -5554.0601 
12151000    20.480351   -6953.0437   -6900.3592   -6953.0437            0    8855.8604    22.972295    21.155581    21.254439    10329.493    8979.7057    8522.0551    9065.8203    -121.6285    295.64497   -139.13338   -5566.2676 
12152000    20.424168   -6957.4852   -6904.9453   -6957.4852            0    8849.1881    22.982078    21.103268    21.290385    10325.772    8935.2316    8731.8837     8880.449   -191.45733    119.93991   -350.88677    -5572.339 
12153000    21.268353   -6954.3392   -6899.6277   -6954.3392            0    9054.8057    23.010243    21.092808    21.274572    10325.627    9015.1366    9047.1732    9102.1072    44.081911   -36.139087    63.786074   -5536.0764 
12154000    20.140681   -6953.0862   -6901.2755   -6953.0862            0    9138.0465    22.998995    21.075141    21.290379    10319.597    9090.4104    9268.9817    9054.7475    48.660656    -356.3062    205.97256   -5525.9928 
12155000    20.111093   -6956.9522   -6905.2176   -6956.9522            0    9073.2826    22.961527    21.128992    21.290953    10329.389    9332.1356    8997.6269    8890.0852    11.378375    82.868823   -101.92235   -5538.3861 
12156000    19.247117   -6955.2304   -6905.7184   -6955.2304            0    9039.8592    22.942805    21.162947    21.254823     10320.01    8990.6013    8782.7792     9346.197    211.89925    260.07337    108.90731   -5545.1584 
12157000    20.592875   -6956.0906   -6903.1166   -6956.0906            0    9157.8744    22.974242    21.127615    21.260881    10319.839    9167.4575    8949.5567    9356.6089    65.596639    99.415685   -140.24393   -5524.8175 
12158000    20.700186   -6955.8781   -6902.6281   -6955.8781            0    9037.6783    22.960914    21.111869    21.280204    10315.532    8985.4458     8754.923    9372.6661    -162.3692   -340.07642    457.87409   -5542.9866 
12159000    20.076899    -6953.563   -6901.9164    -6953.563            0    9007.8166    22.968952     21.13224    21.261334    10319.941    8898.8966    8695.7054    9428.8477   -223.00061    -101.4543   -2.0677912   -5546.1882 
12160000    20.332393   -6955.8641   -6903.5602   -6955.8641            0    8879.1109    22.882253    21.157816    21.338765    10330.917    9353.2902    8833.9388    8450.1039   -168.26291    425.89548   -206.17945   -5565.7816 
12161000    19.994394   -6955.9063    -6904.472   -6955.9063            0    9119.0856    22.955243      21.1663    21.241621    10320.827    9110.3104    8839.7149    9407.2315   -2.3150616    209.85223   -16.138043   -5531.8793 
12162000    20.751423   -6956.1014   -6902.7196   -6956.1014            0    8993.5122      22.9786    21.125569     21.27168    10326.039     8949.346    9073.5742    8957.6163   -238.38893    84.082153    10.224175   -5548.3444 
12163000    20.410851   -6955.0357   -6902.5301   -6955.0357            0    8985.4576    22.983841    21.102267    21.287162    10324.511    8886.1011    9295.0839    8775.1879     38.72961    -141.2783    127.97653   -5549.5681 
12164000    19.600237   -6953.9395   -6903.5191   -6953.9395            0    8981.8644    22.947951    21.123543    21.297752    10323.915    9273.2903    8741.7606    8930.5423    132.49322    347.99675   -45.593789   -5551.1762 
12165000     20.48082   -6953.8536    -6901.168   -6953.8536            0    9161.4246    22.921152    21.133037    21.305246    10320.124    9546.4703    9059.1382    8878.6653    -91.03589    391.38749   -269.77876   -5522.2964 
12166000    21.345541   -6955.1747   -6900.2646   -6955.1747            0    9068.6834    23.002851    21.125924    21.243405     10323.37    9018.4428    8935.6382    9251.9692    17.189304   -244.93416    22.706558   -5534.9221 
12167000    20.712335   -6956.1125   -6902.8313   -6956.1125            0    9012.2245    23.033688    21.064901    21.276951    10323.626    8712.4628    9349.4886    8974.7221   -242.06812    130.55623   -1.1166315   -5545.9552 
12168000    21.344812   -6955.5383   -6900.6301   -6955.5383            0    8855.1293    22.989739    21.151195    21.252766     10334.38    8693.4597    8658.0573    9213.8708    108.52493   -12.142987   -10.438982   -5566.0175 
12169000    21.557395   -6953.3614   -6897.9063   -6953.3614            0    9080.8138    22.980023    21.106564      21.2902    10326.372    8869.3533    9337.0691     9036.019   -155.35682    459.58934   -163.09889   -5530.3399 
12170000    19.824925   -6954.6605   -6903.6621   -6954.6605            0     9001.824    22.975467     21.12944    21.273763    10327.534    8711.1435    9077.4982    9216.8302     96.05717   -111.51005    119.53016   -5547.8389 
12171000    20.057125   -6953.9737    -6902.378   -6953.9737            0    8906.2507    23.012716    21.078231    21.285526    10324.913    8781.9063    9011.3758      8925.47   -306.36276   -250.85817    323.25138   -5561.2902 
12172000    20.644251   -6954.2568   -6901.1507   -6954.2568            0    9149.8953     22.99557    21.107547    21.262821     10320.55    9169.9984    9010.6571    9269.0304    24.045977   -298.75822    163.55838   -5523.9576 
12173000    19.753626   -6953.4562   -6902.6412   -6953.4562            0    9261.7794    22.951464    21.113282    21.288771    10316.129    9621.9669    9083.3807    9079.9905   -206.98285    15.401407   -534.97758   -5509.2051 
12174000     20.72547   -6958.7184   -6905.4034   -6958.7184            0    8965.0802    23.003413    21.097344    21.290695    10332.607    8952.0661    9056.3488    8886.8257    69.893715    123.42561   -303.61887   -5554.4512 
12175000    20.514862   -6954.4999   -6901.7267   -6954.4999            0     8944.792    23.020531    21.081288    21.281781    10328.101    8630.4261    9230.8444    8973.1056    190.43241    18.010428    84.133276   -5554.4196 
12176000    20.001788   -6956.3388   -6904.8854   -6956.3388            0    8800.4567    23.036748    21.095754    21.264487    10334.063    8406.4856    9225.1348    8769.7497    1.7106066   -230.61007   -15.257171   -5578.5535 
12177000    21.582673   -6954.3347   -6898.8145   -6954.3347            0    8937.5462    22.988911    21.097068    21.291121    10326.164    8668.0762    9128.2358    9016.3265   -37.705211    247.26848   -43.555776   -5552.8512 
12178000    20.591366   -6954.4429   -6901.4729   -6954.4429            0    8930.1145    22.974858    21.152405    21.261103    10332.333     8989.416    8803.6311    8997.2963    120.78532   -4.6048999   -486.55064   -5555.8254 
12179000    20.638659   -6954.2292   -6901.1375   -6954.2292            0    9038.1349    22.988339    21.079677    21.297475    10320.475    8746.5934     9237.647    9130.1643   -357.52252    497.76698     207.3624   -5540.7759 
12180000    20.297461   -6953.4507   -6901.2367   -6953.4507            0    9135.4785    23.012186    21.113109    21.245112    10322.125    8967.8611    9181.1238    9257.4505   -28.525649   -782.77454   -134.50131   -5526.0037 
12181000    20.101441   -6953.2975   -6901.5878   -6953.2975            0    9147.2261    22.981812    21.086666    21.293856    10319.211    9040.8174    9156.9005    9243.9604   -138.99416    286.39437    54.619196    -5524.975 
12182000    20.391361   -6954.0564   -6901.6009   -6954.0564            0    8918.0154    22.980493    21.138765    21.272386    10333.683    8980.1355    8787.3873    8986.5234     156.8058    290.86221   -769.95022   -5557.6009 
12183000    20.088928    -6955.917   -6904.2395    -6955.917            0    8969.2684    22.990945    21.107869    21.274575    10324.335    9181.6853     8578.169    9147.9509   -316.22122    194.54097    381.91203   -5553.7382 
12184000    20.129794   -6955.0885   -6903.3059   -6955.0885            0    9111.0229     23.00948    21.078186    21.283473    10322.444    9275.1129    8941.3799    9116.5761   -54.256768   -565.40964   -38.235931   -5531.7119 
12185000    20.860927   -6954.0357   -6900.3723   -6954.0357            0    9027.3379    23.017755    21.075549    21.280101    10323.229    8918.0698    9317.7969    8846.1469   -164.90612    112.19379   -61.493701   -5541.2731 
12186000    20.379628   -6952.7928   -6900.3675   -6952.7928            0    8922.9644    22.975756    21.106862    21.301124    10329.897    8733.9071     8921.619     9113.367    44.688415    325.14973    116.44677   -5556.1144 
12187000    19.880672   -6955.8612   -6904.7194   -6955.8612            0    9061.0723    22.997534    21.113845    21.259138    10322.722    8869.7095    9190.1799    9123.3276   -127.34573    140.25824   -394.22988   -5540.6084 
12188000    20.415484   -6952.8399   -6900.3223   -6952.8399            0    8951.5176    23.041253    21.060769    21.283823    10328.326     8666.241    9186.7413    9001.5705    153.91204    83.329522    401.82222   -5551.9727 
12189000    19.630434   -6956.9938   -6906.4957   -6956.9938            0    8864.5921    23.015825    21.093003    21.283124    10332.379    8700.3842    9020.4877    8872.9044   -149.04647   -453.75948    105.54249   -5570.7155 
12190000    20.875999   -6950.4165   -6896.7142   -6950.4165            0    9231.5912    23.015146    21.068635    21.278747    10318.016    8769.8154    9704.0929    9220.8653    38.573678    117.87954   -85.219862   -5507.5658 
12191000    21.306748   -6955.0459   -6900.2355   -6955.0459            0    9128.9636    22.988637    21.063579    21.329304    10328.139    8956.5958    9776.6359    8653.6592   -61.077819    313.62004   -281.20249   -5525.1826 
12192000    20.316093   -6952.3314   -6900.0695   -6952.3314            0     9126.727      23.0136    21.079861    21.264557    10315.936    8950.0241    9287.0954    9143.0616   -366.04386    27.709352   -184.26073   -5526.9776 
12193000    20.388253   -6955.9229   -6903.4754   -6955.9229            0    9109.5663    23.042035    21.060296    21.276769    10325.022    8850.1918    9507.9421    8970.5651   -188.51986    -145.5218   -94.642886   -5531.7582 
12194000    19.895724   -6951.7451   -6900.5646   -6951.7451            0    9363.2783    23.016437    21.075701    21.267277    10316.492     9263.731    9408.5746    9417.5293   -130.52393   -205.65902    25.701125   -5491.8084 
12195000    20.397889   -6952.6419   -6900.1696   -6952.6419            0    9170.3971    23.002331    21.105781    21.265041    10323.798    8940.7305    9302.4814    9267.9793    -231.6602    381.91989   -649.64131   -5519.4562 
12196000    20.308103   -6955.1079   -6902.8666   -6955.1079            0    9122.1424    22.949332    21.099158    21.319216    10323.012    9239.9192    9210.3149    8916.1932    85.049633    5.2558058    222.29205   -5529.5231 
12197000    20.687892   -6954.4363   -6901.2179   -6954.4363            0    8971.9689    23.016163    21.093731    21.256798    10320.107    8788.0338    9131.9937    8995.8792   -298.13866    41.549475   -52.986338   -5550.8633 
12198000    20.466031   -6953.3372   -6900.6896   -6953.3372            0    8938.5191     22.96882    21.080081     21.32522    10325.343    9096.0869    9272.9667    8446.5038    -470.5669   -239.05909    447.98684   -5554.6869 
12199000    20.631029   -6953.9282   -6900.8561   -6953.9282            0    8894.8351     23.01518    21.133646    21.242072    10332.031    8748.5514    8791.3281    9144.6257    248.85386   -332.94733   -252.44902   -5560.5639 
12200000    19.472688   -6953.1161   -6903.0238   -6953.1161            0    9105.4567    22.937507    21.135103    21.291432    10321.801    9587.0578    8972.4709    8756.8413   -453.26266    631.19654   -132.30649   -5532.3533 
12201000     20.71278   -6955.5923   -6902.3099   -6955.5923            0    8950.2024     22.94495    21.151038    21.286999    10330.783    9289.8814    8715.6836    8845.0421    156.21552   -122.90821   -19.507107   -5553.8378 
12202000     20.26003    -6954.485   -6902.3673    -6954.485            0    8886.2491    22.984458    21.113782    21.267306    10320.786    8912.9674    8542.9972    9202.7827   -271.16409    108.16762    377.54618   -5564.8262 
12203000     19.05889   -6955.8333   -6906.8055   -6955.8333            0    8895.4014    22.934187    21.143143    21.298743    10327.777    9207.8915    8856.4768    8621.8359    510.07996   -407.73813   -29.566201   -5566.9798 
12204000    20.125833   -6954.8764   -6903.1039   -6954.8764            0    8980.2812    22.946386    21.141963    21.279371    10323.296    9103.7411    8349.0496     9488.053    252.95562    345.21491    101.80724   -5551.0805 
12205000    20.547818   -6957.7927   -6904.9347   -6957.7927            0     8701.005    22.948998     21.17641    21.263768     10333.71    9211.0452    7951.1774    8940.7925    -224.3323   -130.37365   -215.19568   -5593.6361 
12206000     19.82669   -6956.7404   -6905.7375   -6956.7404            0    8841.9035    22.972997    21.105441    21.308892    10331.728    8878.4116    8458.2405    9189.0584    186.47444   -262.62763    507.71136   -5573.4602 
12207000    19.626761   -6954.5535   -6904.0649   -6954.5535            0    9014.7568    22.981416    21.134829     21.24706    10319.874     9120.705    8721.8439    9201.7216   -145.11709    -139.4328    122.83954    -5547.301 
12208000    19.880419   -6953.6702    -6902.529   -6953.6702            0    9065.8019    22.917135    21.134163    21.323495    10327.703    9187.5694    9168.8785    8840.9578    31.773573    296.46568    31.034675   -5537.0474 
12209000     20.29402   -6952.5053   -6900.3001   -6952.5053            0     8989.774    22.950469    21.160908    21.255278    10322.685    8957.5749     9132.171    8879.5762    162.18519    221.02021   -314.53138   -5546.9277 
12210000    20.157206   -6954.2397   -6902.3865   -6954.2397            0    9148.4936    22.948621    21.127723    21.280451    10317.871    8907.5138     9304.818    9233.1489     209.5244     204.2198    399.75086   -5525.7618 
12211000    20.279212   -6953.2862   -6901.1192   -6953.2862            0    9008.3491     22.94245    21.126625    21.304484     10326.21    9378.1426    9130.2796    8516.6251   -63.914454   -309.18942   -96.603764   -5544.4872 
12212000     20.27027   -6955.0193   -6902.8753   -6955.0193            0    9082.7929    22.993013    21.118337    21.245121    10316.083    8920.5531    8918.9344    9408.8914    308.54222     47.30436    305.94358   -5536.3738 
12213000    20.428785   -6957.4697   -6904.9179   -6957.4697            0    9072.2541     22.90625    21.137423    21.346139    10335.354    9803.2621    8752.6295    8660.8709    354.89779    141.93855   -110.51074   -5537.4522 
12214000     20.74868   -6954.4015   -6901.0268   -6954.4015            0    9074.8507    22.996357    21.144246    21.221716    10318.861    9232.5798    8742.4825    9249.4898    -109.3193    169.89933   -162.71301   -5535.3525 
12215000    19.797738    -6956.767   -6905.8385    -6956.767            0    9000.9694    22.975566    21.097807    21.307566    10328.503    9326.9364    8824.9397    8851.0322   -287.96486   -421.89072    388.24247   -5550.0169 
12216000    19.830515   -6953.4285   -6902.4157   -6953.4285            0    8950.1038    23.029462    21.066915    21.279586    10323.998    8883.3711    9087.4474    8879.4928   -74.105737   -408.46975    105.65865   -5554.8441 
12217000     19.93018   -6952.9618   -6901.6927   -6952.9618            0    9114.7236    22.966929    21.117078    21.275069     10318.29    9413.2509     8902.018     9028.902    38.037556   -183.18146   -8.8010528   -5530.0938 
12218000    20.842081   -6954.7481   -6901.1331   -6954.7481            0    9091.0889    22.990892    21.083351    21.306344    10327.719    8894.6966    9320.9089    9057.6611    117.48234    364.97603    18.994959   -5531.8407 
12219000    20.302424   -6954.1996   -6901.9728   -6954.1996            0    9099.1039     23.04852    21.093873    21.224457    10318.961    9063.3015    8983.5223     9250.488   -260.81549   -408.42993    137.86574   -5532.6354 
12220000    19.829343   -6956.9822   -6905.9724   -6956.9822            0    9038.7115    23.023457     21.05628    21.304901    10328.368     8705.206    9429.3198    8981.6086   -50.208396   -190.10956    196.98698   -5544.4835 
12221000    19.515837    -6953.752   -6903.5487    -6953.752            0    8958.2081    22.990086    21.128278    21.259248    10326.487    9039.3476    9077.4061    8757.8707    130.06377   -282.28788   -390.95198   -5554.4317 
12222000    20.377968   -6955.4037   -6902.9826   -6955.4037            0    9123.5862    22.967644    21.108847    21.285045    10319.426    9383.8672    8933.4204     9053.471   -94.469878    452.24323    -83.10049   -5529.8989 
12223000    20.757493   -6958.4644   -6905.0671   -6958.4644            0    8956.3727    22.994295    21.071904    21.319921    10330.217    9064.1745    9163.8296     8641.114    124.98651   -104.31745   -186.90416   -5555.7391 
12224000    21.149261   -6953.9904   -6899.5852   -6953.9904            0    9052.3968    23.021375    21.078657    21.273051    10322.954    9079.2248    8979.0138    9098.9517    143.05319   -435.10889    232.05122   -5536.7497 
12225000    20.392307   -6956.7939   -6904.3359   -6956.7939            0    8985.7747    23.003373    21.104751    21.279141    10330.608    8614.7834    9174.7568     9167.784    92.020449    168.92682   -160.21475   -5550.5273 
12226000    21.090472   -6956.2266   -6901.9727   -6956.2266            0    9140.1258    22.955478     21.15323    21.260009    10323.488    9229.0118    8943.0073    9248.3582   -253.08995     58.79292   -493.36589   -5525.8583 
12227000    21.801451   -6954.0194   -6897.9365   -6954.0194            0    8919.0842    22.955987    21.118024    21.307051    10329.341    9075.7123    9003.6767    8677.8637   -48.895014    333.75151   -207.24113   -5554.3403 
12228000    20.599393   -6951.5574   -6898.5667   -6951.5574            0    9012.8124    22.967789     21.12143    21.284552    10325.403    8895.9249    9093.5422      9048.97    72.025064   -242.86212    320.20816   -5541.3686 
12229000    19.767054   -6951.0217   -6900.1722   -6951.0217            0    9096.5911    22.993269    21.097885    21.272298    10319.391    8828.3257     9247.528    9213.9196    59.606043    284.51213    527.29942   -5531.1559 
12230000    20.428024   -6954.0487   -6901.4988   -6954.0487            0    8840.8888     22.94185     21.13516    21.316566    10335.969    9110.9854     8973.603     8438.078    256.52697   -4.8654344   -169.35296   -5568.8276 
12231000    21.228071   -6955.0832   -6900.4753   -6955.0832            0    8933.6744    22.989074    21.130405    21.271113    10332.835    8605.3519    9240.1231    8955.5482    109.20901    395.66308   -122.34447   -5554.2259 
12232000     20.58184   -6954.8176    -6901.872   -6954.8176            0    8909.4632    23.020248    21.096892    21.269129    10329.473    8726.8831    9115.4215     8886.085     142.1352   -310.25918    197.16462    -5559.708 
12233000    20.674736   -6955.4951   -6902.3106   -6955.4951            0     9320.389    23.019057    21.040628    21.297605    10315.185     9384.048    9587.7748    8989.3442   -343.28614   -288.97593    103.63309   -5500.1849 
12234000    20.799146   -6955.4992   -6901.9947   -6955.4992            0    9068.4551    23.004307    21.079018    21.284813    10321.181    9219.1775    8973.9302    9012.2577   -48.208535   -200.78373   -13.496306    -5536.976 
12235000    20.310373   -6955.9828   -6903.7356   -6955.9828            0    8966.8681    23.006932    21.074048    21.300516    10327.538     8773.023     9159.589    8967.9923   -257.96162    331.04309   -108.63873   -5553.1769 
12236000    20.209646   -6956.2318   -6904.2437   -6956.2318            0     8941.903    23.021151    21.098831     21.27308    10332.747    9065.6929    8862.9196    8897.0967    188.76191    -242.8399   -22.130109   -5556.7658 
12237000    19.828588   -6955.1045   -6904.0966   -6955.1045            0    9150.0687    23.056573    21.049245    21.270561    10323.102    9223.6851    8892.8556    9333.6653   -36.022727   -535.08158    534.51076   -5526.5368 
12238000    20.914454   -6953.4717   -6899.6706   -6953.4717            0    9038.8552    23.038825    21.091879    21.250545    10326.322    8532.8713    9384.9881    9198.7061    -186.7686   -333.34297    144.79877   -5538.4297 
12239000    20.339299   -6954.7475   -6902.4259   -6954.7475            0    9085.0632    22.965534     21.08237    21.318712    10321.836     9425.513     8998.804    8830.8727   -282.74476    54.184816    -87.91609   -5534.8206 
12240000    20.140704   -6952.5614   -6900.7506   -6952.5614            0    8966.9876    22.991219    21.094195    21.287008      10323.8    8984.7599     9152.885    8763.3179    103.16905    188.37345   -356.81995   -5550.6628 
12241000     20.16007   -6955.0613   -6903.2008   -6955.0613            0    9008.7209    22.982173    21.098501    21.293744    10325.111    9214.8765    8843.6534    8967.6328   -237.56059    -9.307618     317.6742   -5546.6572 
12242000      20.8718   -6957.9389   -6904.2474   -6957.9389            0    9001.9478     23.02018    21.109047    21.256181    10329.102    8955.5629    8616.7591    9433.5212   -40.351624   -317.12828    498.93555   -5548.1998 
12243000    19.729866   -6953.2846   -6902.5308   -6953.2846            0    8970.0086    22.976151    21.148878    21.261722    10331.491    9140.2176    8490.3707    9279.4375   -477.09078     131.4009    171.07247   -5550.9818 
12244000    20.335115   -6953.1449    -6900.834   -6953.1449            0    9145.6599    22.954808    21.159703    21.244998    10319.055     9139.812    8981.4475    9315.7201     99.94801     394.4806   -277.84014   -5524.4777 
12245000    21.931347   -6954.5908   -6898.1737   -6954.5908            0    9022.1909    22.896889    21.125777    21.341377    10323.135    9280.5644    9073.1822    8712.8262    356.54527    71.231236   -216.02599   -5539.8618 
12246000    20.175351   -6954.4598   -6902.5599   -6954.4598            0    9113.5162    22.976071    21.133479    21.247061    10316.814     9052.641    8850.6175    9437.2899   -52.548434   -212.54717    149.21629   -5531.3388 
12247000    20.332109   -6954.9924   -6902.6893   -6954.9924            0    9072.7881    22.987518    21.096539    21.286435    10323.007    9024.8109    9237.2259    8956.3274    287.66023   -282.35807    147.77046   -5536.7768 
12248000    20.871471   -6956.6473   -6902.9567   -6956.6473            0    8815.6948    22.960831    21.181742    21.253308    10336.555    8786.5166    9013.6025    8646.9652    398.49112     337.8221   -345.65252   -5574.0079 
12249000    19.867571    -6953.619   -6902.5109    -6953.619            0    9041.5892    22.941052     21.13495    21.291393    10323.302    8992.9425    9255.6761    8876.1491    498.04245    320.62445   -369.16659   -5541.2565 
12250000    21.188747   -6951.8135   -6897.3067   -6951.8135            0    9182.7796    22.929217    21.136678    21.297624     10321.84    9127.2745    9443.0438    8978.0207    -197.5243    420.42636    -14.15995   -5514.9913 
Loop time of 601.619 on 64 procs for 250000 steps with 1296 atoms

Performance: 71.806 ns/day, 0.334 hours/ns, 415.546 timesteps/s
193.9% CPU use with 32 MPI tasks x 2 OpenMP threads

MPI task timing breakdown:
Section |  min time  |  avg time  |  max time  |%varavg| %total
---------------------------------------------------------------
Pair    | 38.059     | 48.87      | 59.741     | 110.7 |  8.12
Bond    | 0.83415    | 1.0687     | 1.3832     |  10.9 |  0.18
Kspace  | 307.16     | 318.45     | 330.91     |  45.0 | 52.93
Neigh   | 0.13283    | 0.14431    | 0.15062    |   0.9 |  0.02
Comm    | 87.942     | 90.194     | 92.425     |  12.2 | 14.99
Output  | 0.55255    | 0.55289    | 0.55455    |   0.0 |  0.09
Modify  | 115.04     | 117.69     | 119.51     |   7.1 | 19.56
Other   |            | 24.65      |            |       |  4.10

Nlocal:        40.5000 ave          50 max          30 min
Histogram: 3 4 4 3 2 0 0 4 5 7
Nghost:        3225.69 ave        3252 max        3203 min
Histogram: 1 2 6 3 5 8 3 0 3 1
Neighs:        13531.8 ave       16614 max       10010 min
Histogram: 4 3 4 3 2 0 0 4 6 6

Total # of neighbors = 433017
Ave neighs/atom = 334.11806
Ave special neighs/atom = 2.0000000
Neighbor list builds = 253
Dangerous builds = 0

unfix		3
unfix		2
unfix		1

write_data	data.final.${pid}
write_data	data.final.0
System init for write_data ...
PPPM initialization ...
  extracting TIP4P info from pair style
  using 12-bit tables for long-range coulomb (../kspace.cpp:340)
  G vector (1/distance) = 0.37198733
  grid = 30 36 32
  stencil order = 5
  estimated absolute RMS force accuracy = 0.0036131026
  estimated relative force accuracy = 1.0880751e-05
  using double precision FFTW3
  3d grid and FFT values/proc = 7344 1152
Last active /omp style is kspace_style pppm/tip4p/omp
WARNING: Not all mixed pair coeffs generated from mixing. Use write_data with 'pair ij' option to store all pair coeffs. (../write_data.cpp:312)

write_restart   restart.lmp.${pid}
write_restart   restart.lmp.0
System init for write_restart ...
PPPM initialization ...
  extracting TIP4P info from pair style
  using 12-bit tables for long-range coulomb (../kspace.cpp:340)
  G vector (1/distance) = 0.37198733
  grid = 30 36 32
  stencil order = 5
  estimated absolute RMS force accuracy = 0.0036131026
  estimated relative force accuracy = 1.0880751e-05
  using double precision FFTW3
  3d grid and FFT values/proc = 7344 1152
Last active /omp style is kspace_style pppm/tip4p/omp
Total wall time: 0:10:01
