#include		in.partitions
include		in.temp
variable        temperature equal 271.79
variable	tempDamp equal 100.0
include		in.pressure
variable        pressure equal 9500.0
variable        pressureDamp equal 1000.0 # This is 1 ps
include		in.seed
variable        seed equal 745823

units		real
atom_style	full
read_restart	restart.lmp.${pid}
read_restart	restart.lmp.1
Reading restart file ...
  restart file = 30 Jul 2021, LAMMPS = 30 Jul 2021
  restoring atom style full from restart
  orthogonal box = (0.65838529 1.8670222 0.80322852) to (17.549187 21.762156 21.409967)
  2 by 4 by 4 MPI processor grid
  restoring pair style lj/cut/tip4p/long/omp from restart
  restoring bond style harmonic/omp from restart
  restoring angle style harmonic/omp from restart
  864 atoms
  576 bonds
  288 angles
Finding 1-2 1-3 1-4 neighbors ...
  special bond factors lj:    0        0        0       
  special bond factors coul:  0        0        0       
     2 = max # of 1-2 neighbors
     1 = max # of 1-3 neighbors
     1 = max # of 1-4 neighbors
     2 = max # of special neighbors
  special bonds CPU = 0.002 seconds
  read_restart CPU = 0.009 seconds
include 	in.setup
variable	out_freq equal 1000
variable	out_freq2 equal 10000
variable	out_freq3 equal 1000

timestep	2.0

neigh_modify    delay 7 every 1

include		in.tip4p
# This is TIP4P/Ice

# create groups ###
group ox type 2
288 atoms in group ox
group hy type 1
576 atoms in group hy

# set charges - beside manually ###
set group ox charge -1.1794
Setting atom values ...
  288 settings made for charge
set group hy charge 0.5897
Setting atom values ...
  576 settings made for charge

# ### TIP3P Potential Parameters ###
pair_style lj/cut/tip4p/long/omp 2 1 1 1 0.1577 8.5
pair_coeff 1 1*2 0.000 0.000
pair_coeff 2 2 0.21084 3.1668
bond_style  harmonic
bond_coeff  1 450 0.9572
angle_style harmonic
angle_coeff 1 55 104.52
kspace_style pppm/tip4p/omp 1.0e-5
pair_modify tail yes

thermo          ${out_freq}
thermo          1000
thermo_style    custom step temp pe etotal epair emol press lx ly lz vol pxx pyy pzz pxy pxz pyz enthalpy

restart 	${out_freq3} restart.lmp.${pid} restart2.lmp.${pid}
restart 	1000 restart.lmp.${pid} restart2.lmp.${pid}
restart 	1000 restart.lmp.1 restart2.lmp.${pid}
restart 	1000 restart.lmp.1 restart2.lmp.1


include         in.dump
dump            myDump all atom ${out_freq2} dump.water.${pid}
dump            myDump all atom 10000 dump.water.${pid}
dump            myDump all atom 10000 dump.water.1
dump            myDump2 all dcd ${out_freq2} dump.dcd
dump            myDump2 all dcd 10000 dump.dcd
dump_modify     myDump append yes
dump_modify     myDump2 append yes


variable natoms 	equal  "count(all)"                        # NUMBER ATOMS
variable H      	equal  "enthalpy/v_natoms"                 # ENTHALPY-per-atom
variable Vol      	equal  "vol/v_natoms"                 # volume-per-atom
fix AVG all 		ave/time ${out_freq} 1 ${out_freq} v_Vol v_H file vol_enthalpy.dat
fix AVG all 		ave/time 1000 1 ${out_freq} v_Vol v_H file vol_enthalpy.dat
fix AVG all 		ave/time 1000 1 1000 v_Vol v_H file vol_enthalpy.dat


timer           timeout 23:50:00 every 1000
New timer settings: style=normal  mode=nosync  timeout=23:50:00

fix 		1 all shake 1e-6 200 0 b 1 a 1
       0 = # of size 2 clusters
       0 = # of size 3 clusters
       0 = # of size 4 clusters
     288 = # of frozen angles
  find clusters CPU = 0.001 seconds
fix             2 all nph iso ${pressure} ${pressure} ${pressureDamp}
fix             2 all nph iso 9500 ${pressure} ${pressureDamp}
fix             2 all nph iso 9500 9500 ${pressureDamp}
fix             2 all nph iso 9500 9500 1000
fix             3 all temp/csvr ${temperature} ${temperature} ${tempDamp} ${seed}
fix             3 all temp/csvr 271.79 ${temperature} ${tempDamp} ${seed}
fix             3 all temp/csvr 271.79 271.79 ${tempDamp} ${seed}
fix             3 all temp/csvr 271.79 271.79 100 ${seed}
fix             3 all temp/csvr 271.79 271.79 100 745823

run             250000
PPPM initialization ...
  extracting TIP4P info from pair style
  using 12-bit tables for long-range coulomb (../kspace.cpp:340)
  G vector (1/distance) = 0.37467121
  grid = 24 24 24
  stencil order = 5
  estimated absolute RMS force accuracy = 0.0031145808
  estimated relative force accuracy = 9.3794676e-06
  using double precision FFTW3
  3d grid and FFT values/proc = 3549 432
Last active /omp style is kspace_style pppm/tip4p/omp
Neighbor list info ...
  update every 1 steps, delay 7 steps, check yes
  max neighbors/atom: 2000, page size: 100000
  master list distance cutoff = 10.8154
  ghost atom cutoff = 10.8154
  binsize = 5.4077, bins = 4 4 4
  1 neighbor lists, perpetual/occasional/extra = 1 0 0
  (1) pair lj/cut/tip4p/long/omp, perpetual
      attributes: half, newton on, omp
      pair build: half/bin/newton/omp
      stencil: half/bin/3d
      bin: standard
Per MPI rank memory allocation (min/avg/max) = 10.20 | 10.20 | 10.20 Mbytes
Step Temp PotEng TotEng E_pair E_mol Press Lx Ly Lz Volume Pxx Pyy Pzz Pxy Pxz Pyz Enthalpy 
 2000000    293.13902   -3812.1765   -3309.7462   -3812.1765            0    10583.113    16.890802    19.895133    20.606739    6924.7865    9811.0108     10196.05    11742.277    41.909542    1795.1156    532.60881   -2240.9481 
 2001000    277.35515   -3821.7187   -3346.3415   -3821.7187            0    9241.1549    16.947074    19.961415    20.675391    6994.2279    9790.4358    8298.5733    9634.4557   -198.48132   -1274.9279    1934.4194   -2403.7101 
 2002000    271.60791   -3824.0068   -3358.4801   -3824.0068            0    8603.9858    16.971845    19.990592    20.705611    7024.9424    8240.2221    9154.4293    8417.3059    80.555198    337.11665   -458.05016   -2476.9882 
 2003000    276.69074   -3820.1469   -3345.9085   -3820.1469            0    12415.337    16.900911     19.90704    20.619072    6937.2271    12586.953    12650.874    12008.184    1431.8732   -1419.6497   -1031.4117   -2089.8197 
 2004000     251.9593   -3832.9334   -3401.0838   -3832.9334            0    9258.1757    16.953212    19.968645    20.682879    7001.8304    9319.2303    9709.4202    8745.8764   -290.63191    467.76863   -834.39258   -2455.6897 
 2005000    264.89071   -3794.5877   -3340.5741   -3794.5877            0    7876.3926    16.922358    19.932302    20.645237    6963.6706      9857.28    7455.1887     6316.709    351.38453   -1204.3255    2452.4862   -2540.6635 
 2006000    271.19451   -3826.3634   -3361.5453   -3826.3634            0    9752.0883    16.963573    19.980849     20.69552    7014.6761    9607.4823      9599.33    10049.453    969.02682   -548.18915   -1675.9309   -2363.8886 
 2007000    273.05793   -3802.6735   -3334.6616   -3802.6735            0    9361.3448    16.918153     19.92735    20.640107    6958.4808    9432.9862    10027.747    8623.3015   -1470.0886   -594.00482    -853.1489   -2384.6507 
 2008000    272.39609   -3829.0978   -3362.2202   -3829.0978            0    8288.1863    17.008721    20.034026    20.750599    7070.8322    8512.3531    9436.7323    6915.4733    491.91942    89.495744     2105.697   -2507.5356 
 2009000    283.80823   -3779.7592   -3293.3216   -3779.7592            0    9975.9262    16.945854    19.959977    20.673902    6992.7169    11426.694    8827.5985    9673.4858    777.64943     762.3392    256.00241   -2275.9607 
 2010000     272.1072   -3824.1237   -3357.7413   -3824.1237            0    9085.2143    16.950407     19.96534    20.679456    6998.3547    7778.1296    9133.8751    10343.638   -958.98288   -889.34751    237.37214   -2430.4696 
 2011000    265.28885   -3806.3959   -3351.6998   -3806.3959            0    10703.967    17.006608    20.031538    20.748022    7068.1982    13401.519    9294.5826    9415.8009   -1807.0427    545.34239    55.727412    -2248.309 
 2012000    288.53354   -3789.8555   -3295.3189   -3789.8555            0    11051.919    16.910159    19.917934    20.630355     6948.622    10739.381    11676.232    10740.143   -1474.7026    111.22552   -542.52607   -2175.3338 
 2013000    283.07733   -3811.3918   -3326.2069   -3811.3918            0    7768.4897    16.934532    19.946641    20.660089    6978.7102     8698.699    7845.9528    6760.8173    145.35139   -744.20234    -212.9939   -2535.5508 
 2014000    273.21392     -3832.46   -3364.1806     -3832.46            0    9005.7562    16.938713    19.951567     20.66519    6983.8809    9532.8962    8442.1603    9042.2122   -728.67928   -1067.3983    967.59869   -2446.9197 
 2015000    277.13983   -3828.5126   -3353.5044   -3828.5126            0    10134.835    16.953863    19.969411    20.683673    7002.6364    10010.251    9801.4405    10592.814   -1884.2414   -337.04916     351.2696   -2318.4715 
 2016000    282.42971   -3818.3438    -3334.269   -3818.3438            0    10516.254    16.959584     19.97615    20.690653    7009.7282    10894.993    9494.4598    11159.309    872.85422   -377.18731   -211.48532   -2259.1956 
 2017000    272.43074   -3789.2615   -3322.3245   -3789.2615            0    9569.1398    16.907167     19.91441    20.626705    6944.9344    9705.9491    10186.272    8815.1985   -154.49245   -1108.8202    508.21212   -2353.1167 
 2018000    273.65232   -3854.7195   -3385.6888   -3854.7195            0    9108.6677    16.949427    19.964186    20.678261    6997.1415    9584.3546    10254.209    7487.4391    1004.0443    -207.0981    80.073427   -2456.1845 
 2019000    271.30621   -3822.3703   -3357.3608   -3822.3703            0    8912.9899    16.914878    19.923493    20.636112    6954.4411    5796.4387    9447.6967    11494.834    977.54903   -888.68454    477.34766   -2453.3751 
 2020000    251.14821   -3828.9988   -3398.5394   -3828.9988            0     9581.823    16.988012    20.009634    20.725335    7045.0371    8019.9587    9771.7891    10953.721    423.84389   -987.99218    -356.3685   -2414.0584 
 2021000     280.7593   -3845.8751   -3364.6633   -3845.8751            0    10566.161    16.904305    19.911038    20.623212    6941.4072    11083.337     10439.38    10175.766   -1732.6657    434.97476   -807.31484   -2295.0159 
 2022000    294.10892   -3840.3853   -3336.2927   -3840.3853            0    10714.542    16.939687    19.952714    20.666378    6985.0855    9582.8488    13031.518      9529.26     728.1187    1350.1416   -538.34909    -2244.799 
 2023000    253.10023   -3828.2774   -3394.4722   -3828.2774            0    9246.2035    16.977241    19.996947    20.712194    7031.6445    6917.3538    10841.215    9980.0418   -294.21645    1428.4418    -781.7316   -2446.2803 
 2024000    279.12021   -3763.7997   -3285.3972   -3763.7997            0    10841.725    16.942914    19.956515    20.670316    6989.0784     12374.12    9111.9299    11039.126    672.29123     1276.311    1381.1769    -2180.316 
 2025000    270.42235   -3792.2054   -3328.7108   -3792.2054            0    7474.2103     16.95229    19.967559    20.681755    7000.6882    6842.1099    7062.6864    8517.8346   -944.01011   -191.97009    538.12889   -2565.6099 
 2026000    284.40317   -3790.9975   -3303.5402   -3790.9975            0    10719.644    16.921595    19.931403    20.644306    6962.7283    10706.413    10269.242    11183.277    589.29349   -952.24543   -57.433181    -2215.022 
 2027000    281.80076   -3815.1938    -3332.197   -3815.1938            0    9025.8856    16.904815    19.911639    20.623834    6942.0353     8127.457    8850.1055    10100.094    846.91186    449.31284   -1284.7112   -2418.3941 
 2028000     258.1458   -3821.3502   -3378.8971   -3821.3502            0    7444.2611    16.910155    19.917929     20.63035    6948.6168     6378.349    8740.3308    7214.1037   -1784.5325   -452.97666   -347.93584   -2624.5072 
 2029000    269.86916   -3824.6937   -3362.1472   -3824.6937            0    9574.7804    16.887733    19.891519    20.602995    6921.0133    10919.682     10156.78    7647.8784   -385.38855    643.63783   -136.05382   -2395.7083 
 2030000    280.33093   -3794.2438   -3313.7661   -3794.2438            0    8862.6503    16.969284    19.987576    20.702487    7021.7632     7166.677    9390.2117    10031.062    724.89161    463.63305   -998.51723   -2406.1845 
 2031000    272.85346   -3783.9453   -3316.2838   -3783.9453            0    9553.3588    16.953353     19.96881    20.683051    7002.0047     9491.862     9189.323    9978.8914    1049.0144   -357.50982    479.52246   -2340.7229 
 2032000    274.57342   -3791.8289   -3321.2194   -3791.8289            0    9440.4227    16.956126    19.972076    20.686434     7005.441    9124.6675    9667.3336    9529.2668     1449.327    6.4890183    1170.8763   -2356.7182 
 2033000    282.48144   -3824.6934   -3340.5299   -3824.6934            0    9240.3491    16.969155    19.987423    20.702329    7021.6025    10294.478    8347.9177    9078.6516    596.45734    471.52612    -15.82533   -2394.2916 
 2034000    275.75973   -3868.7824   -3396.1397   -3868.7824            0    9186.1754    16.870478    19.871195    20.581944    6899.8202    8633.0844    10815.847     8109.595   -256.03106   -411.76916   -641.63476   -2471.7642 
 2035000    267.83275   -3887.0056   -3427.9494   -3887.0056            0    10574.998    16.889183    19.893227    20.604764    6922.7958     9809.953    11128.972    10786.068    555.80287    798.37171   -1113.5237   -2360.2778 
 2036000    259.49952    -3856.577   -3411.8037    -3856.577            0    8743.0055    16.937533    19.950177    20.663751    6982.4216     8622.788    9752.8517    7853.3768    133.73283   -446.75742   -148.65613   -2521.4907 
 2037000    269.19045   -3804.7042    -3343.321   -3804.7042            0    8984.6932    16.887501    19.891245    20.602711    6920.7271    9598.8803    7865.3484    9489.8509   -266.79211   -43.790394    304.47771   -2436.4806 
 2038000    273.10574   -3833.6692   -3365.5753   -3833.6692            0    10174.742    16.931553    19.943133    20.656456    6975.0287    11338.521    11241.125    7944.5815      42.7274    1505.2874   -1867.8292   -2330.5635 
 2039000    262.50444    -3820.601   -3370.6774    -3820.601            0    8164.5438    16.998634    20.022145    20.738294    7058.2599    8395.9448    8614.3232    7483.3633   -1463.2482    137.09744   -796.61942   -2530.2398 
 2040000    268.76455   -3853.2798   -3392.6265   -3853.2798            0    6296.3923    17.031764    20.061168    20.778713      7099.61    7703.6657    6502.7398    4682.7714    74.881754   -1574.1654    1268.8915   -2740.6948 
 2041000    262.19033   -3806.0873    -3356.702   -3806.0873            0    12305.891     16.88056     19.88307    20.594244    6912.1975      12559.4    11373.299    12984.975    303.01659    295.61911    -134.8242   -2116.1782 
 2042000    254.09614   -3799.5964   -3364.0843   -3799.5964            0     9870.677    16.824355    19.816868    20.525674    6843.3836    8109.5576    10772.287    10730.187    166.19039    13.382399    1397.0501    -2378.954 
 2043000    280.52348   -3843.9351   -3363.1275   -3843.9351            0    8635.8612    16.883123    19.886089     20.59737    6915.3462    10688.712    7720.8358    7498.0355    318.29481   -1431.6461   -1186.9347    -2492.173 
 2044000    283.39947   -3877.1661   -3391.4291   -3877.1661            0    10573.913    16.881055    19.883654    20.594848    6912.8062    10493.005    9950.7657    11277.968    412.23219    1443.8552   -610.88815   -2325.4075 
 2045000    268.84975   -3888.0768   -3427.2775   -3888.0768            0    7858.9824    17.001343    20.025336    20.741599    7061.6353    7856.2324    7223.8693    8496.8454   -292.35081    -1.479134    -205.5626   -2617.9068 
 2046000    277.45184   -3855.7492   -3380.2063   -3855.7492            0     8967.915    16.947767    19.962231    20.676236    6995.0854     7434.227    10119.118    9350.4001     978.2584   -49.086674    608.41123   -2465.3341 
 2047000    264.20911   -3838.4519   -3385.6065   -3838.4519            0    11224.949    16.853117    19.850746    20.560764    6878.5407     8965.622    11658.623    13050.601   -1281.7808    41.123678   -1957.2154   -2259.5594 
 2048000    277.50353   -3825.9835    -3350.352   -3825.9835            0    9964.3846    16.916046    19.924867    20.637536    6955.8808    8779.2296    10470.428    10643.496   -360.92116   -185.39375    929.12595   -2339.5211 
 2049000    279.04261   -3820.4485    -3342.179   -3820.4485            0    9225.0897    16.887884    19.891697    20.603179    6921.1983    7642.4459    11034.785    8998.0386    924.21833   -7.2184515    1874.4533   -2411.0116 
 2050000    264.21483   -3854.0244   -3401.1692   -3854.0244            0    10166.576    16.852151    19.849607    20.559584    6877.3572    12033.936    10538.976    7926.8154   -551.48467   -1542.1814    870.41883   -2381.4697 
 2051000    275.02332   -3818.6448   -3347.2643   -3818.6448            0    10035.454    16.885186    19.888519    20.599888    6917.8819    10821.131    8983.3309    10301.901   -367.23487   -560.26014    1578.7575   -2334.7852 
 2052000    270.19199   -3837.1794   -3374.0796   -3837.1794            0    9456.2748    16.945163    19.959164     20.67306    6991.8622    9550.1811     10268.33    8550.3132    346.15555   -383.69408   -353.56752   -2409.8314 
 2053000    270.81418   -3850.2337   -3386.0674   -3850.2337            0    9939.2461     16.87483    19.876321    20.587253    6905.1612     9965.919    9172.0756    10679.744    2288.0384    -784.0556    799.08046   -2385.1387 
 2054000     280.2059    -3823.514   -3343.2507    -3823.514            0    9479.1444    16.923192    19.933285    20.646255    6964.7005    9729.0004    9193.6836    9514.7493    1410.3394    1088.9143    1118.0806   -2380.4254 
 2055000    276.96101   -3824.8783   -3350.1766   -3824.8783            0    9714.3756    16.893331    19.898113    20.609824    6927.8978    8148.5854    10888.879    10105.663   -253.07392   -1071.2618    597.76856   -2368.6722 
 2056000     296.0262   -3812.2339   -3304.8551   -3812.2339            0    9704.4825    16.882633    19.885512    20.596773    6914.7447    11349.848    8135.1094    9628.4905   -1043.4137   -1183.8863   -125.34445   -2326.2118 
 2057000    287.56206   -3841.3267   -3348.4552   -3841.3267            0    9587.0175      16.8262    19.819041    20.527925    6845.6352    7357.1048    9578.9618    11824.986    613.42372   -1023.6226    97.606965   -2391.3203 
 2058000    274.11233   -3825.6137   -3355.7945   -3825.6137            0    8830.5912    16.929364    19.940555    20.653785    6972.3239    8595.6119     8710.114    9186.0477    849.46497    1256.9225    163.66601    -2457.863 
 2059000     269.4863   -3816.1827   -3354.2924   -3816.1827            0    9888.3433    16.905029    19.911891    20.624096    6942.2994    9765.2705    10157.756    9742.0038   -987.68929   -18.769476    2241.6349   -2353.1341 
 2060000      262.023   -3832.7438   -3383.6453   -3832.7438            0    7353.0931    16.864176    19.863771    20.574255    6892.0899    7000.5112    7936.5705    7122.1976   -2159.1971    1241.2407   -834.37435   -2644.5561 
 2061000    274.15976    -3819.795   -3349.8945    -3819.795            0    10433.845    16.864923    19.864651    20.575166    6893.0058    8704.5358    11684.674    10912.324    794.52492    731.83123    1336.2388   -2301.0071 
 2062000    273.64891   -3780.8225   -3311.7977   -3780.8225            0    9113.5662    16.953498    19.968981    20.683228    7002.1842    8584.1455    8659.6685    10096.885   -745.19901   -603.73239    733.78818   -2381.1233 
 2063000     289.6105   -3800.8047   -3304.4222   -3800.8047            0    9154.6239    16.933713    19.945677     20.65909    6977.6977    8568.6228    9638.7675    9256.4815    169.04914   -175.80934   -543.23299   -2372.8242 
 2064000    269.98932   -3797.4509   -3334.6984   -3797.4509            0    12022.666    16.859146    19.857847    20.568118    6885.9247    11030.139    12156.937    12880.922    25.288229   -1013.1667   -402.40566   -2127.3324 
 2065000    272.95556   -3868.9465     -3401.11   -3868.9465            0    11885.797    16.901991    19.908313    20.620389    6938.5574    10904.293    12636.214    12116.885    782.32827     -667.699    553.50506   -2198.3655 
 2066000    280.07983   -3828.7209   -3348.6737   -3828.7209            0    7308.5253    17.025727    20.054057    20.771347    7092.0624    7911.9417    7456.0125    6557.6215    1383.3784    448.09129    2022.3426   -2592.7496 
 2067000    263.59366   -3877.1629   -3425.3724   -3877.1629            0    9346.0063    16.953636    19.969144    20.683396    7002.3554    8489.1303    9311.0231    10237.865    548.28725    1366.5147   -1788.9281   -2470.9379 
 2068000    262.11354   -3836.3473   -3387.0936   -3836.3473            0    9537.9649    16.964694    19.982169    20.696888    7016.0668    7982.9116    11302.572    9328.4108   -1426.0374   -636.48087   -1742.8033   -2411.1487 
 2069000    270.73142   -3875.2864    -3411.262   -3875.2864            0    10219.914    16.845018    19.841206    20.550882    6868.6281    10459.991    8025.5601    12174.192    710.16324    -759.6882   -1953.3077   -2387.5138 
 2070000    264.49259   -3803.8617   -3350.5304   -3803.8617            0    9292.4095     16.95791    19.974178    20.688611    7007.6531    10995.727    9167.2911    7714.2106     -1000.05    965.28119      413.704   -2400.8515 
 2071000    259.38859   -3810.4905   -3365.9074   -3810.4905            0    10253.468    16.892216    19.896799    20.608464    6926.5256    11681.698    8959.0634    10119.643   -1290.5108   -529.24231    119.84626   -2330.1402 
 2072000    296.66388   -3827.3566   -3318.8849   -3827.3566            0    9235.3126    16.982031    20.002589    20.718038    7037.5978    11332.776    8381.6242    7991.5376   -1359.3896   -488.88767     1.145811    -2371.008 
 2073000    250.76672   -3831.2016    -3401.396   -3831.2016            0    10092.653    16.898023     19.90364    20.615549    6933.6723    9776.4567    9979.3161    10522.187    814.05164     509.6704    241.81549   -2380.8219 
 2074000    255.82045   -3845.5137   -3407.0462   -3845.5137            0    10022.235    16.879855     19.88224    20.593384    6911.3317    10934.241     9766.637    9365.8253   -735.80962   -571.93719   -1285.1477   -2396.8583 
 2075000    267.92539   -3842.5676   -3383.3527   -3842.5676            0    9377.6033    16.884594    19.887821    20.599165    6917.1537    9548.5877    9068.0239    9516.1984    255.13167   -499.15718    351.06982   -2437.3439 
 2076000     263.7459   -3848.2271   -3396.1757   -3848.2271            0    7713.2858    16.969401    19.987713     20.70263    7021.9078     7338.957    8111.7277    7689.1726    21.228992    98.935396    958.51988   -2606.2788 
 2077000    260.56611   -3864.4239   -3417.8225   -3864.4239            0    9589.8319    16.888669    19.892621    20.604137    6922.1638    9003.8444    8140.7193    11624.932   -9.7503157    1291.2853     1432.617   -2449.7035 
 2078000     287.7438   -3821.8631   -3328.6801   -3821.8631            0    9705.5319    16.850885    19.848116     20.55804    6875.8076    11850.124     6329.365    10937.106    323.45925    350.72102    431.16461   -2355.4424 
 2079000    274.43452   -3852.0006   -3381.6292   -3852.0006            0    7955.9909    16.855199    19.853199    20.563304    6881.0906    6987.4113    7913.6992    8966.8621     1012.839   -1285.7706    542.27726   -2583.2165 
 2080000    281.55905   -3810.2701   -3327.6875   -3810.2701            0    9266.7278    16.927494    19.938352    20.651503    6970.0131     8341.028    10411.134    9048.0215    1241.9871   -726.04295   -390.08904     -2385.72 
 2081000     268.6565   -3825.8779   -3365.4098   -3825.8779            0    9416.9851    16.877734    19.879741    20.590796    6908.7264    10237.582    8295.6885     9717.685   -646.55419    945.43587    36.642162   -2416.5856 
 2082000    262.92318   -3837.5714     -3386.93   -3837.5714            0     10159.27    16.889838    19.893998    20.605563     6923.601    9273.6916    11310.416    9893.7026    203.28551    330.76229   -848.10776   -2361.1118 
 2083000    269.08505   -3866.5561   -3405.3535   -3866.5561            0    9539.6174    16.945034    19.959012    20.672902     6991.702    10122.016    8951.5891     9545.247    781.80252   -989.70231   -176.01947   -2432.6292 
 2084000    287.32423   -3829.2154   -3336.7515   -3829.2154            0    8615.2265    16.943119    19.956757    20.670566    6989.3326    8689.6593    9864.6115    7291.4088    2183.8234   -24.791773   -106.65361   -2458.5821 
 2085000    276.13447   -3836.3108   -3363.0257   -3836.3108            0    8441.2786    16.917854    19.926997    20.639743     6958.112    7079.2505    10407.959    7836.6268     -91.0085    95.307084    1028.4522   -2506.4307 
 2086000    277.37555    -3839.342   -3363.9298    -3839.342            0     7443.097    17.004531    20.029092    20.745488    7065.6085    8850.0112    6440.5842    7038.6956   -1664.5367   -1457.5806    36.258188   -2596.9584 
 2087000    259.90063   -3816.4458    -3370.985   -3816.4458            0    7622.6734    16.948106     19.96263    20.676649    6995.5049    7532.2645    7782.5727    7553.1831   -81.911172   -615.04022     686.8632   -2593.3026 
 2088000    280.07516   -3804.8858   -3324.8466   -3804.8858            0    12101.498     16.86525    19.865037    20.575566    6893.4074    11152.393    12082.341    13069.762    1008.3626    245.73454     968.8214   -2108.2433 
 2089000     263.6064   -3846.8433    -3395.031   -3846.8433            0     10387.54    16.946229    19.960419    20.674359    6993.1811    12199.078     9560.846    9402.6968    743.31144   -654.65504    259.92979   -2335.6226 
 2090000    259.74766   -3804.0619   -3358.8633   -3804.0619            0    10022.419    16.954824    19.970543    20.684845    7003.8273    11095.914    9104.1664    9867.1756   -559.48187    608.63651    1815.5495   -2335.1371 
 2091000    267.45006   -3839.9482    -3381.548   -3839.9482            0    10257.411    16.953814    19.969353    20.683613    7002.5756    7974.1408    10561.113    12236.979    676.83295    959.35791    -346.4404    -2334.006 
 2092000    276.28209   -3840.6951   -3367.1571   -3840.6951            0    7141.0507    17.027016    20.055576     20.77292    7093.6737    8347.3706    6839.9489    6235.8325   -66.945588    74.274241    395.35122   -2628.3871 
 2093000     257.0465    -3839.618   -3399.0491    -3839.618            0    9692.5992    16.940437    19.953598    20.667294     6986.014    10811.754    8962.4153    9303.6288    1663.9145   -252.08581    536.48475   -2411.5298 
 2094000    262.30437   -3836.3782   -3386.7975   -3836.3782            0     10002.45    16.898147    19.903785      20.6157    6933.8241    12406.076    7131.7692    10469.506    113.89996    595.00843   -259.58957   -2375.3226 
 2095000    261.28573   -3838.2464   -3390.4116   -3838.2464            0    9335.1515    16.900933    19.907067    20.619099    6937.2544    9528.9747    9257.0337    9219.4463   -443.86296   -219.11053    1114.2829   -2445.9487 
 2096000    271.12165    -3802.164   -3337.4708    -3802.164            0    8875.5967    16.931254    19.942781    20.656091    6974.6591    8997.4974    8730.8044    8898.4885    570.10182   -1255.7703   -416.46094   -2434.6606 
 2097000    274.15696   -3821.4983   -3351.6027   -3821.4983            0    9820.9286    16.919612    19.929068    20.641887    6960.2811    9739.4263    9989.1574    9734.2022   -139.35716   -809.97942    636.92663   -2354.6944 
 2098000    260.11802   -3848.3807   -3402.5473   -3848.3807            0    10162.443    16.906759    19.913929    20.626206    6944.4308    10027.171    9372.0337    11088.125    241.38901       587.84    1039.8429   -2373.3215 
 2099000    268.08826   -3829.2524   -3369.7583   -3829.2524            0    8409.7476    16.934113    19.946148    20.659578    6978.1927    8589.8647    8082.0318    8557.3465   -407.99602   -994.14542    899.90156   -2513.9001 
 2100000    265.68899   -3833.5928   -3378.2109   -3833.5928            0    9543.9002    16.883714    19.886785    20.598091    6916.0723    10566.169    6736.6384    11328.894    188.25486    120.68259    -1059.564   -2415.5767 
 2101000    269.25027   -3861.8889   -3400.4032   -3861.8889            0     10039.86    16.839182    19.834332    20.543763    6861.4919    11694.645    9920.2673    8504.6687   -1157.5268   -1654.5038   -627.50965   -2395.7362 
 2102000    286.13339   -3843.4699   -3353.0471   -3843.4699            0    7818.6753     16.91645    19.925344     20.63803    6956.3798    7774.1146     8585.933    7095.9783   -315.26411    294.84404    43.982778   -2559.8295 
 2103000    263.67911   -3809.5226   -3357.5857   -3809.5226            0    7531.1051    16.940647    19.953844    20.667549    6986.2728    9176.7968    6326.1256    7090.3928   -635.59954   -1431.9554    100.60215   -2590.2593 
 2104000    270.91371   -3834.1284   -3369.7916   -3834.1284            0    10565.318    16.899905    19.905856    20.617845    6935.9892    9888.1417    10537.005    11270.808    1538.2062    -245.1721    -723.4175   -2301.0644 
 2105000    279.68596   -3822.3409   -3342.9688   -3822.3409            0    9885.4732    16.937567    19.950216    20.663792    6982.4628    9663.0423    10073.579    9919.7984    1088.3576    66.414614    1444.7461   -2336.3107 
 2106000    267.51375   -3865.4024    -3406.893   -3865.4024            0    7581.1285    16.940791    19.954014    20.667725    6986.4511    6215.1206    8163.1293    8365.1357   -250.69417    1076.7162    2309.2245   -2634.4501 
 2107000    269.49471    -3862.699   -3400.7943    -3862.699            0    10630.574    16.879302    19.881589     20.59271    6910.6528    12082.476     10975.63     8833.615   -341.79282    924.43391   -325.04607   -2329.3943 
 2108000    277.51544   -3834.0369   -3358.3849   -3834.0369            0    8501.8506    16.933138       19.945    20.658389    6976.9874    6896.0482    9365.0284    9244.4752     848.0569    308.72769    85.811963   -2493.3029 
 2109000    267.19433   -3841.3829    -3383.421   -3841.3829            0    10264.334    16.917752    19.926878    20.639618    6957.9864    9366.0314    13057.875    8369.0957   -347.42159   -86.880659   -275.20884   -2341.8467 
 2110000    263.53657   -3849.8532   -3398.1605   -3849.8532            0    9862.8853    16.919301    19.928702    20.641508    6959.8979    10823.197    9736.7673    9028.6915    1693.9338    537.64372    763.76474   -2397.0483 
 2111000    283.20625   -3851.5215   -3366.1157   -3851.5215            0    10530.885    16.904726    19.911535    20.623727    6941.9266    10090.364    9861.5953    11640.696    1599.8817    563.78555    892.39157   -2299.9596 
 2112000    267.92365   -3854.1906   -3394.9786   -3854.1906            0    7698.4175    16.983583    20.004418    20.719932    7039.5284    7370.1097    7662.6347    8062.5081   -776.44104    236.83094    1016.0789    -2604.626 
 2113000    258.56392   -3852.2099   -3409.0402   -3852.2099            0    10035.454    16.893923    19.898809    20.610546    6928.6255    8681.1489    11186.614      10238.6    687.80229    522.25795    -873.4545   -2394.9887 
 2114000     292.6162   -3856.2975   -3354.7634   -3856.2975            0    10821.097    16.862584    19.861896    20.572313    6890.1386    9694.9608    10155.236    12613.094   -16.390344     46.44891   -723.04477   -2267.3989 
 2115000    269.10637   -3809.1946   -3347.9555   -3809.1946            0    8907.9279    16.941858    19.955271    20.669027    6987.7716    9542.1467    8693.2731    8488.3641    1934.3551   -1223.1317    450.88455   -2440.1532 
 2116000    260.65694   -3831.6202   -3384.8631   -3831.6202            0    10474.352    16.893669    19.898511    20.610237    6928.3139    12379.459     9793.824    9249.7737   -1239.7605   -218.56365    1374.4925   -2326.5099 
 2117000    260.97127   -3886.4008    -3439.105   -3886.4008            0    10125.169    16.857816    19.856281    20.566497    6884.2962    9643.6413    9040.7391    11691.128    -481.1492   -893.96194    863.57623   -2422.5339 
 2118000    269.67794   -3894.2475   -3432.0287   -3894.2475            0    8863.2508    16.914314    19.922827    20.635423    6953.7444    11163.503    8552.4428    6873.8065    -598.0393    251.52943   -112.55448   -2533.1778 
 2119000    269.33893   -3853.4112   -3391.7735   -3853.4112            0    9100.0509    16.911217    19.919179    20.631645    6949.9254     8209.962    9691.0738     9399.117     531.0433    415.29038    787.17662   -2469.4148 
 2120000    264.16001   -3855.1807   -3402.4195   -3855.1807            0    9177.4033    16.932416    19.944149    20.657508    6976.0949    9304.5264    10809.565    7418.1187    430.35921    1075.1633   -442.10366    -2468.718 
 2121000    277.11955   -3858.4185   -3383.4451   -3858.4185            0    10410.764    16.930296    19.941652    20.654921    6973.4743    11583.451     11215.85    8432.9925   -1730.3178   -368.34312   -98.035254   -2324.6602 
 2122000    286.53621   -3811.4745   -3320.3613   -3811.4745            0    9639.7296    16.840532    19.835922     20.54541    6863.1426    6922.5002    11396.725    10599.964    115.75024    51.494236   -786.02781   -2355.5025 
 2123000    252.75791     -3830.48   -3397.2616     -3830.48            0    11301.552    16.872334     19.87338    20.584208    6902.0969    10295.261    14359.148    9250.2461    598.88711    -416.6136    39.708677   -2259.6474 
 2124000    284.66568   -3861.5281   -3373.6209   -3861.5281            0    7905.5091    16.947396    19.961794    20.675784    6994.6269    8057.6312    5773.1622    9885.7338   -635.68714    567.81275   -1992.5854   -2567.1842 
 2125000    287.36457   -3831.6736   -3339.1406   -3831.6736            0    10107.922    16.908541    19.916028    20.628381    6946.6273    9944.4732    11512.224    8867.0677   -225.67191     2193.854   -14.664422   -2315.1127 
 2126000    267.83299    -3844.566   -3385.5095    -3844.566            0    10199.397    16.932033    19.943698     20.65704    6975.6209    7898.8283    11839.515    10859.848   -694.71885   -2176.5835   -678.96985   -2347.9016 
 2127000    265.65668   -3832.8292   -3377.5028   -3832.8292            0    8286.7621    16.970873    19.989447    20.704426    7023.7357    9127.3492    9854.0516    5878.8855   -685.69511    15.331649    183.02981   -2528.6568 
 2128000    271.58868   -3847.8881   -3382.3944   -3847.8881            0     9357.434    16.912844    19.921097    20.633631    6951.9326    10093.343    8412.8771    9566.0823    95.015366    142.08223   -845.83394    -2433.674 
 2129000      276.545   -3814.5174   -3340.5287   -3814.5174            0    8574.4504    16.907358    19.914634    20.626937    6945.1691    8167.0734    8214.0421    9342.2357   -322.72853   -46.810567    495.13481   -2472.0383 
 2130000    248.65389   -3819.4516   -3393.2673   -3819.4516            0    11147.508    16.917164    19.926185    20.638901    6957.2609    11482.344    11258.645    10701.533   -2594.1221    1163.1621   -1194.6036   -2262.1909 
 2131000    262.32143   -3855.4269   -3405.8169   -3855.4269            0    9927.5352    16.893626     19.89846    20.610185    6928.2611    9924.2065     9358.282    10500.117   -617.06005   -979.59916   -637.49705   -2402.7231 
 2132000    273.44836   -3804.0191    -3335.338   -3804.0191            0    9050.6352    16.946037    19.960193    20.674126    6992.9439    9722.4398    8991.0169    8438.4491    -1066.487   -91.370255   -844.65148   -2412.3097 
 2133000    272.14766   -3829.6414   -3363.1897   -3829.6414            0    10373.736    16.879351    19.881646    20.592769    6910.7124    11382.877    10502.439    9235.8932   -560.65389    1690.1552    428.84463   -2317.6659 
 2134000    269.57428   -3861.0996   -3399.0586   -3861.0996            0    10377.171    16.895062    19.900152    20.611937    6930.0281    10066.655     11445.43    9619.4296    725.91422    -212.3165   -6.6212528   -2350.2653 
 2135000    273.74744   -3905.9621   -3436.7683   -3905.9621            0    10038.545    16.905481    19.912424    20.624648    6942.8569    9679.4965    9159.9315    11276.208   -413.64845    584.95303    468.47777    -2420.321 
 2136000    269.12504   -3838.1799   -3376.9088   -3838.1799            0    8996.3529    16.942755    19.956327    20.670121    6988.8812    8749.3923    8884.0176    9355.6489    359.29823    585.56633   -99.942318   -2459.9496 
 2137000    246.51364   -3804.0533   -3381.5373   -3804.0533            0    10454.657     16.86767    19.867887    20.578518     6896.375    11866.053    9572.4211    9925.4971   -281.36212    1074.6348    1320.4985    -2330.044 
 2138000    273.12944   -3832.1996   -3364.0651   -3832.1996            0    9691.3868    16.891323    19.895748    20.607375    6925.4281    10468.371    6666.6378    11939.151    494.31204    1207.5418   -49.083279   -2385.2324 
 2139000    250.42304   -3862.2474   -3433.0309   -3862.2474            0    7490.4634    16.985271    20.006406    20.721991    7041.6273     8641.438    8240.6655    5589.2866   -63.652969   -308.29875   -1328.2068   -2663.7984 
 2140000    266.32644   -3835.2939   -3378.8195   -3835.2939            0    9328.1779    16.922958    19.933009    20.645969    6964.4113     10968.11    7029.4191    9987.0044     839.7826    541.55025    788.92355   -2431.3677 
 2141000    271.93446   -3842.4973    -3376.411   -3842.4973            0    9363.5906    16.864999    19.864741    20.575259    6893.0995    8821.4283    7381.9577    11887.386    544.40183    1754.4022   -600.40369   -2435.1006 
 2142000    261.56859   -3838.7685   -3390.4489   -3838.7685            0    9716.2101     16.89559    19.900773    20.612581    6930.6774    9054.7028    10393.588    9700.3391   -505.75371   -550.08321    784.43548   -2408.3653 
 2143000    264.29702   -3835.4015   -3382.4055   -3835.4015            0    9861.0212    16.858359     19.85692    20.567158    6884.9605    9878.2428    9992.6872    9712.1336    -430.2028    279.08731    205.99365   -2392.2595 
 2144000    264.64868   -3855.8846   -3402.2858   -3855.8846            0    8223.3381    16.883963    19.887078    20.598395    6916.3785    8558.7298     7495.733    8615.5515    1086.4329   -832.83252   -470.18278   -2572.8118 
 2145000     280.5858   -3818.6353   -3337.7208   -3818.6353            0    9178.7469    16.878402    19.880528    20.591611    6909.5466    9885.5338    8514.9734    9135.7334   -882.41557    -1711.899    1194.9069   -2412.7909 
 2146000    257.21528   -3844.3224   -3403.4642   -3844.3224            0    9137.0715    16.957502    19.973698    20.688113    7007.1471    9165.4017    9795.6245    8450.1882    57.498211   -44.335605    1020.3355   -2469.7281 
 2147000    259.32908   -3874.0024   -3429.5212   -3874.0024            0    10352.284    16.930213    19.941554     20.65482    6973.3721    10103.932     10707.08     10245.84   -735.15212    222.70773   -538.90002   -2376.6993 
 2148000    257.97347   -3856.2999   -3414.1422   -3856.2999            0    8727.3419    16.910384    19.918198    20.630629    6948.8985    8034.6872    8121.8691    10025.469   -958.03672   -161.79753    -521.7878   -2529.6911 
 2149000    275.85636   -3800.1076   -3327.2992   -3800.1076            0    8743.0683    16.952007    19.967225    20.681409    7000.3373    7679.6263    9716.8182    8832.7604    270.43954     307.7629    247.86114   -2434.6955 
 2150000    270.51312   -3814.1521   -3350.5018   -3814.1521            0     11276.14    16.878916    19.881134    20.592238    6910.1785    12024.774    8597.7152    13205.932    -619.4236    797.43424    1447.6897   -2214.1165 
 2151000    284.33497   -3795.5133   -3308.1729   -3795.5133            0    11177.949    16.860401    19.859325     20.56965    6887.4632    12687.215    11720.335    9126.2974    948.14424   -260.01396    258.31259   -2185.3861 
 2152000    254.99657   -3815.5456   -3378.4902   -3815.5456            0    9314.2028    16.885169    19.888498    20.599866    6917.8603    9629.8966     8028.188    10284.524    1306.8192    457.80215   -1133.3067   -2438.7813 
 2153000    272.59235   -3830.1571   -3362.9431   -3830.1571            0    8702.4567    16.974506    19.993725    20.708857    7028.2465    8695.3893    9299.7769    8112.2038   -760.45991   -320.80148   -410.76352   -2470.9433 
 2154000    262.21635   -3831.7697   -3382.3398   -3831.7697            0    8318.2981    17.006425    20.031323    20.747799    7067.9699    8219.4052    8781.1129     7954.376   -19.668051     1449.954    778.92451   -2524.8972 
 2155000    262.31514   -3817.3819   -3367.7827   -3817.3819            0    9160.4555    17.041628    20.072787    20.790746     7111.952    8226.4114    8897.5138    10357.441   -302.33542    612.10722    509.04864   -2417.6555 
 2156000    252.07693   -3847.6723   -3415.6211   -3847.6723            0    8914.6419    16.965195    19.982759    20.697498    7016.6881    9017.7177     8938.125     8788.083    1535.8536   -420.59706   -1110.2483   -2503.3751 
 2157000    261.15329   -3836.1986   -3388.5908   -3836.1986            0    10309.451     16.96066    19.977417    20.691965     7011.062    10403.496    10037.346    10487.512   -238.21677     962.5226   -449.76863   -2334.4582 
 2158000     280.1802   -3887.6079   -3407.3886   -3887.6079            0    9004.3156    16.974155    19.993313     20.70843    7027.8116    8482.3949    7408.3344    11122.218   -1153.4674   -880.64994    516.03968   -2484.5055 
 2159000    270.03298   -3875.6076   -3412.7803   -3875.6076            0    9590.2873    16.953396    19.968861    20.683104    7002.0584    9313.8653    10036.149    9420.8476    561.09548   -887.63645   -882.59566   -2433.4409 
 2160000    287.11017   -3849.7688   -3357.6718   -3849.7688            0    7715.9652    17.004426    20.028968     20.74536    7065.4779    9450.9207    6175.4407    7521.5342   -1403.7915   -807.44435   -589.48723   -2562.5975 
 2161000    271.68043   -3872.7591   -3407.1082   -3872.7591            0    7800.1081    16.987712    20.009281    20.724969    7044.6632    9063.4549    8346.6193    5990.2502    235.91766   -1097.9248   -934.81457   -2605.7314 
 2162000    263.35308   -3816.1015   -3364.7233   -3816.1015            0    9289.3492    16.889481    19.893578    20.605128    6923.1626    10328.327    9958.3573    7581.3633    344.79416   -2271.1606   -720.62473   -2426.8035 
 2163000    269.08923   -3789.0791   -3327.8694   -3789.0791            0    10084.437    16.902054    19.908387    20.620466    6938.6349    11121.674    10502.246    8629.3914    436.36253   -253.18353    1368.7783   -2307.3963 
 2164000    275.81795    -3818.783   -3346.0405    -3818.783            0     10453.36    16.853385    19.851062    20.561091     6878.869    9550.0427    11885.131    9924.9054    1025.9456   -68.923552    1267.5465   -2297.3464 
 2165000    278.97013   -3834.2256   -3356.0803   -3834.2256            0    10839.179    16.851224    19.848516    20.558454    6876.2232    11409.074      10082.8    11025.662    1542.7244    498.25807     409.9969   -2269.0986 
 2166000    275.27155   -3844.2119   -3372.4059   -3844.2119            0    9082.0765    16.965648    19.983292     20.69805    7017.2494    8933.4052    9001.8043    9311.0199   -327.22789   -679.32193   -2313.4513   -2442.9518 
 2167000     259.8783   -3868.7124   -3423.2899   -3868.7124            0    10761.791    16.922703    19.932708    20.645658    6964.0962    10638.295    11299.049    10348.029    783.70782    42.933551   -213.27167   -2330.2772 
 2168000    285.95045   -3824.6144   -3334.5051   -3824.6144            0    8165.4033    16.944374    19.958234    20.672097    6990.8851    7373.6867    8150.6183    8971.9048    673.34725   -332.63803   -1240.7243   -2502.0023 
 2169000     284.8973   -3812.8173    -3324.513   -3812.8173            0    8669.0359    16.948088    19.962609    20.676628    6995.4836    8923.4556    10103.617    6980.0349   -703.55273    1043.6582   -555.54318   -2440.0811 
 2170000    274.78705   -3797.4018   -3326.4262   -3797.4018            0    9412.2891    16.930192     19.94153    20.654795    6973.3469    8531.6053     10300.18    9405.0822    228.36807    283.00059   -80.195408   -2369.2047 
 2171000    266.47363   -3844.2378   -3387.5111   -3844.2378            0    8350.0258    16.918192    19.927396    20.640155    6958.5295     7074.087    9817.7605      8158.23    1135.2634    586.26105   -1445.8404   -2540.1253 
 2172000    273.19979   -3838.1466   -3369.8915   -3838.1466            0    11392.633    16.886454    19.890012    20.601434    6919.4401    10359.486    10165.573    13652.841    3694.7695   -376.82357    -248.8393   -2220.2274 
 2173000      259.732   -3820.1702   -3374.9985   -3820.1702            0    11465.294    16.923087    19.933161    20.646127     6964.571    10927.209    11071.339    12397.334    -216.5039    1328.4817    369.43437   -2210.4557 
 2174000    271.23399    -3855.643   -3390.7573    -3855.643            0    9009.5593    16.972565     19.99144     20.70649    7025.8364    9266.2284    8609.1036    9153.3459    111.00789    -79.91081   -1607.5641   -2467.5962 
 2175000    275.13014   -3834.9814   -3363.4178   -3834.9814            0    9231.8337    16.965069     19.98261    20.697345    7016.5315    7728.6589    10009.737     9957.105    196.07738   -863.52938   -750.63058   -2418.7343 
 2176000    273.67613   -3855.3042   -3386.2327   -3855.3042            0    9865.7037    16.929068    19.940206    20.653423    6971.9572     10262.79    9444.1021    9890.2185      81.8116    -1173.607   -2560.6374   -2383.0994 
 2177000    261.50432   -3802.3016   -3354.0922   -3802.3016            0    10060.979    16.933709    19.945672    20.659085    6977.6929    10102.588    10119.947    9960.4017   -487.87053   -573.39184   -570.08332   -2330.2618 
 2178000    263.63591   -3792.5811   -3340.7182   -3792.5811            0    8556.7778    16.935718    19.948039    20.661537    6980.1772    7247.2512    10046.495    8376.5872   -656.82355    499.61209    258.44518   -2469.6491 
 2179000    266.86805   -3825.3909   -3367.9882   -3825.3909            0     9431.121    16.943734    19.957481    20.671316    6990.0932    12299.162    7708.4895    8285.7118     936.5786    552.75204    -2085.101   -2406.5483 
 2180000    265.42978   -3832.3943   -3377.4568   -3832.3943            0    7995.6021    16.916765    19.925715    20.638414    6956.7686    6576.5271    8924.9758    8485.3035    595.77184     796.3652   -1349.3268   -2566.2443 
 2181000    267.08686   -3825.3579   -3367.5801   -3825.3579            0    7845.9074    16.947145    19.961498    20.675477    6994.3158    7833.9996    6882.2719    8821.4507    278.13481    664.31949    76.426656    -2567.259 
 2182000    290.27267   -3831.5096   -3333.9921   -3831.5096            0    10797.772    16.920095    19.929637    20.642476     6960.877    10358.184    12001.601     10033.53    -222.0901   -1286.4374    108.27809    -2237.832 
 2183000    257.14719   -3847.0209   -3406.2794   -3847.0209            0    10984.228    16.898943    19.904722    20.616671    6934.8041    9038.5474    11309.551    12604.587    1113.4033    475.34466   -180.15072   -2295.3675 
 2184000    280.44391    -3887.497   -3406.8257    -3887.497            0    10538.779    16.901311    19.907512     20.61956    6937.7205    8871.7206    11264.615    11480.002   -940.99995   -1320.1515   -1087.7839   -2340.5169 
 2185000     275.7554   -3844.9938   -3372.3585   -3844.9938            0    7304.9424    16.985575    20.006764    20.722362    7042.0054         5724    8821.7812    7369.0459     58.98801    114.11316   -81.871997   -2622.1378 
 2186000    268.44934   -3816.5408   -3356.4278   -3816.5408            0    10063.359    16.886949    19.890595    20.602038    6920.0483    9949.7333     10351.67    9888.6733    -1275.735   -527.63766    -194.8918   -2340.8154 
 2187000    278.47363   -3849.6198   -3372.3256   -3849.6198            0    9043.1669    16.876169    19.877898    20.588887    6906.8049    9691.9298    8864.0999     8573.471    186.79818   -1.9444005    164.73706   -2461.4194 
 2188000    281.14927   -3820.9666   -3339.0863   -3820.9666            0    11552.009    16.847056    19.843607    20.553369    6871.1219     11314.41    9999.9639    13341.652    123.47683   -1963.6559   -1585.2579   -2181.4796 
 2189000    262.14807   -3841.9972   -3392.6844   -3841.9972            0    8716.5199    16.890501    19.894779    20.606371    6924.4161    8634.1573    7795.5522    9719.8502    -1682.671   -1284.9204    325.17862   -2512.4422 
 2190000    277.52184    -3797.867   -3322.2041    -3797.867            0    11001.512    16.829651    19.823106    20.532135    6849.8475    11647.109     9853.953    11503.474    1830.0031    2152.6404    76.813085    -2223.175 
 2191000    277.76452   -3839.9693   -3363.8904   -3839.9693            0    9684.5162    16.937911    19.950622    20.664212    6982.8894    10062.348    9332.7629    9658.4379   -358.19036    923.50892   -126.06177    -2377.636 
 2192000    271.22152   -3807.8826   -3343.0182   -3807.8826            0    9644.1996    16.922883    19.932921    20.645878    6964.3188     12124.59    8529.5356    8278.4734   -765.67669    2041.5051     381.2401   -2363.4815 
 2193000    274.74757   -3824.9532   -3354.0453   -3824.9532            0     8451.472    16.903914    19.910578    20.622736     6940.926    8867.1315    8049.9477    8437.3367   -2512.7799    1257.8268   -1399.4052   -2498.5342 
 2194000    283.24388   -3819.4357   -3333.9654   -3819.4357            0    11360.399    16.860537    19.859485    20.569816    6887.6296    9890.7147    12373.123    11817.359   -1740.4104     15.00192    560.45236   -2192.8245 
 2195000    267.62792   -3864.4506   -3405.7455   -3864.4506            0    8602.8151    16.936302    19.948727    20.662249     6980.899    6667.1736    8798.4868    10342.785   -1191.8642    818.00389   -1533.1506   -2529.8993 
 2196000    269.05278   -3816.6947   -3355.5474   -3816.6947            0    10853.366    16.870407     19.87111    20.581857    6899.7322    14468.797    10263.638    7827.6629    1376.8872   -87.686922    83.843647   -2263.4219 
 2197000    270.26637   -3854.0926   -3390.8653   -3854.0926            0    8744.8821     16.95114    19.966204    20.680351     6999.263    7016.5754    8961.9485    10256.122   -185.79572    -1232.611    1342.2815   -2498.2133 
 2198000    271.24723   -3847.7726   -3382.8641   -3847.7726            0    9900.5091    16.904475    19.911239     20.62342     6941.617    10218.814    11223.775    8258.9383   -99.400049   -437.52702    548.96535   -2380.5726 
 2199000    278.50915   -3797.2862    -3319.931   -3797.2862            0    9340.0481    16.849177    19.846105    20.555957    6873.7179    9804.2177    7728.5202    10487.406   -89.948389   -490.44456    45.603733   -2383.6274 
 2200000    261.18438   -3828.7048   -3381.0437   -3828.7048            0    9704.1511    16.877818     19.87984    20.590899    6908.8298    10166.531    8694.2501    10251.672   -519.27057   -94.103517    735.08823    -2403.271 
 2201000    261.70937   -3818.9528   -3370.3919   -3818.9528            0    8774.8493    16.971267    19.989911    20.704907    7024.2251     9078.237    9746.4648    7499.8462    167.18994   -1611.8083     2743.123   -2471.4865 
 2202000    276.48224    -3814.423   -3340.5419    -3814.423            0    8004.7934      16.9499    19.964744    20.678839    6997.7278     8193.318    8639.9384    7181.1239   -764.09615    974.05833    880.28628   -2523.6153 
 2203000    266.10325   -3861.0588    -3404.967   -3861.0588            0    10199.282    16.888239    19.892115    20.603612    6921.6352     9516.236    10924.999    10156.611     768.8413   -338.30035    540.41083   -2375.4009 
 2204000    262.47498   -3868.9825   -3419.1094   -3868.9825            0    8088.5013    16.935291    19.947536    20.661016    6979.6492    7391.5556    7248.0737    9625.8745    -16.62737    1662.0211    420.44293   -2595.7726 
 2205000    279.00795   -3910.2979   -3432.0878   -3910.2979            0    9136.0562    16.960941    19.977748    20.692308    7011.4108    8506.5928    8969.8077    9931.7681   -687.14619   -333.33075    540.86706   -2497.8874 
 2206000    263.32944    -3853.107   -3401.7693    -3853.107            0    10057.728    16.964522    19.981966    20.696678    7015.8533    12890.235    7068.2127    10214.736    1210.1492   -853.13307    626.33088   -2372.6725 
 2207000    263.75466   -3851.6333   -3399.5668   -3851.6333            0    6619.1438    17.053893    20.087234     20.80571    7127.3191    5583.7518    7771.2197    6502.4597    426.52892   -1117.0871   -913.09076   -2711.5423 
 2208000    273.13895   -3820.2464   -3352.0956   -3820.2464            0    10412.525    16.885767    19.889203    20.600596    6918.5961    10522.799    8419.8181    12294.959    1616.5362    1141.6756    44.449433   -2301.4653 
 2209000    268.86901   -3839.0809   -3378.2487   -3839.0809            0     11045.71     16.85324    19.850891    20.560914    6878.6913    10495.291    11752.867    10888.971   -402.32107   -326.29556    892.34316   -2270.1579 
 2210000    283.26558   -3845.8556   -3360.3481   -3845.8556            0    10370.587    16.916531    19.925439    20.638128    6956.4796    10489.602    13564.778    7057.3822   -384.11999    586.45986   -1095.7817   -2308.2197 
 2211000    275.02831   -3853.0825   -3381.6933   -3853.0825            0    10579.403    16.822272    19.814415    20.523133     6840.842    9646.1538    10075.108    12016.947    141.69164   -569.05842   -746.96807   -2326.2216 
 2212000    281.75602   -3861.9248   -3379.0046   -3861.9248            0    9174.5579    16.913829    19.922256    20.634831    6953.1462    8220.3136    9307.6966    9995.6634   -308.55406   -1861.1989   -927.73531   -2448.6631 
 2213000    274.22734   -3838.7632    -3368.747   -3838.7632            0    12540.594    16.898426    19.904113     20.61604    6934.1674     12151.09    13631.481    11839.211     30.69706    612.11296   -945.35254   -2100.5453 
 2214000    260.34558   -3824.1775    -3377.954   -3824.1775            0    8071.7049    16.995481    20.018432    20.734448    7054.3337    7190.2819    9073.5437     7951.289   -483.92581   -2159.9269   -541.48223   -2547.5353 
 2215000     260.4558    -3893.377   -3446.9647    -3893.377            0    6910.5214    16.917856       19.927    20.639745    6958.1149    7805.6129    6231.5614    6694.3898    1327.9632   -71.113198    190.89477   -2745.7059 
 2216000     254.1028   -3822.1809   -3386.6575   -3822.1809            0    9266.9481    16.941542    19.954899    20.668642    6987.3809    6302.9279     10410.29    11087.626    634.36411   -133.16912   -101.69689   -2442.3204 
 2217000    258.80782    -3837.287   -3393.6993    -3837.287            0    8531.3149    16.925854     19.93642    20.649502    6967.9875    9378.3201    8318.9622    7896.6624    789.64471    481.30347    1772.1089   -2526.7389 
 2218000    275.51718    -3818.812    -3346.585    -3818.812            0     8653.241    16.958741    19.975157    20.689625    7008.6833    9085.6514    8414.5883    8459.4832    -659.6709    830.53016     15.64469   -2462.0987 
 2219000    275.51099   -3817.2081   -3344.9917   -3817.2081            0    9027.5228    17.000792    20.024688    20.740927    7060.9489    9178.3987    9296.4811    8607.6886   -101.92521   -600.24929    367.96574   -2415.3672 
 2220000    261.19159   -3831.6631   -3383.9897   -3831.6631            0    11046.947    16.889431    19.893519    20.605066    6923.1006    11494.488    10764.414     10881.94   -878.93946    724.94986   -1208.7891   -2268.6201 
 2221000     274.9815   -3841.5339   -3370.2251   -3841.5339            0     10088.54    16.941303    19.954617     20.66835    6987.0846    8975.4115    10025.218    11264.992   -481.43167   -1937.6199    1846.8873   -2342.2082 
 2222000    265.89574   -3821.7737   -3366.0375   -3821.7737            0    9200.9205    16.912702     19.92093    20.633458    6951.7575    9492.4181    6858.0656    11252.278   -1547.8898   -816.92344   -753.65388   -2433.2091 
 2223000    263.46409   -3812.3551   -3360.7867   -3812.3551            0    8594.5691    16.896348    19.901666    20.613505    6931.6102    7747.3836    9112.4906     8923.833    344.30241   -1642.1567   -65.313873    -2491.958 
 2224000    270.44825   -3834.1498   -3370.6108   -3834.1498            0    8612.8718    16.993577    20.016189    20.732124    7051.9623    7269.8227    8508.2568    10060.536   -323.86136    229.32722   -139.89982   -2484.8145 
 2225000    266.11693   -3818.2847   -3362.1694   -3818.2847            0     10290.87    16.910405    19.918224    20.630655    6948.9252     9522.591    11503.966     9846.052    1158.1279    2156.0509     2.184964   -2319.2623 
 2226000    279.63527   -3822.8041   -3343.5188   -3822.8041            0    9049.5563    16.948173    19.962709    20.676731    6995.5884    9717.2695    9586.8596    7844.5398   -2025.1278    324.17146    398.46637   -2420.2516 
 2227000    288.54539   -3801.5865   -3307.0295   -3801.5865            0    8108.0831    16.961882    19.978857    20.693457    7012.5781    9485.0573    6212.2068    8626.9851    -832.0061   -1594.8234   -1201.5898   -2477.8057 
 2228000    266.85875   -3785.8864   -3328.4996   -3785.8864            0    10290.963    16.904591    19.911375    20.623561    6941.7595    9270.8814    11475.578    10126.429   -128.38844   -47.369794    1524.4198   -2286.6586 
 2229000    272.46725   -3803.8994   -3336.8998   -3803.8994            0    11048.137    16.904331    19.911069    20.623244    6941.4393    11256.829     9708.903    12178.679   -2144.1644   -1019.2549   -43.460487   -2218.4553 
 2230000    273.98624   -3809.0807   -3339.4777   -3809.0807            0    7154.1284    16.915076    19.923725    20.636353    6954.6842    8215.2529    7559.0134    5688.1191   -257.71447   -726.15918    965.91194   -2613.8563 
 2231000    275.20265   -3825.1686   -3353.4807   -3825.1686            0    7908.5397    16.943998    19.957791    20.671638    6990.4195    8064.3377    6672.7868    8988.4944    449.80144   -594.21994   -327.35089   -2547.2201 
 2232000    263.65732   -3802.4431   -3350.5434   -3802.4431            0    11203.094    16.895789    19.901008    20.612823    6930.9225    10827.583    12700.331    10081.369    460.44341    1113.5121   -1883.4003   -2218.1302 
 2233000    270.55145   -3848.1122   -3384.3962   -3848.1122            0    9885.0918    16.939897    19.952961    20.666635    6985.3454    10694.404    8103.9672    10856.904    1496.9249   -724.71674   -394.21963   -2377.3614 
 2234000    284.26198   -3828.4197   -3341.2044   -3828.4197            0    9329.6414    16.904035     19.91072    20.622883    6941.0745     9140.152    10157.091    8691.6809   -146.68707     -1352.35   -1120.5446   -2396.7792 
 2235000     269.1557   -3842.5956    -3381.272   -3842.5956            0    7020.4841    16.929115    19.940261     20.65348    6972.0152    6543.8071    6442.1303     8075.515    -746.8146   -565.85593   -487.22352   -2667.4313 
 2236000    257.68954     -3807.74   -3366.0689     -3807.74            0    9674.4464    16.984543    20.005548    20.721102    7040.7214    10047.312    8281.7086    10694.318   -36.270693   -417.48015   -2314.2169   -2372.6803 
 2237000    270.52871   -3823.1266   -3359.4496   -3823.1266            0    11185.312    16.949596    19.964385    20.678467    6997.3506    7497.8164    13331.588    12726.532    548.21779    158.47389    846.18547   -2217.9977 
 2238000    270.89592   -3827.4518   -3363.1455   -3827.4518            0    8616.6441    16.952594    19.967916    20.682125    7001.0643    8451.3969    9819.5691    7578.9663   -64.261554   -684.73869   -1613.0784   -2483.3573 
 2239000    277.64093   -3840.4878   -3364.6207   -3840.4878            0    9550.9932    16.917017    19.926012    20.638722    6957.0795    10368.007    10676.247    7608.7262    346.64649   -72.687554   -441.51525   -2395.5591 
 2240000    269.16272    -3840.977   -3379.6413    -3840.977            0    8347.3876    16.995183    20.018081    20.734084    7053.9626    7080.3873    6898.5647    11063.211    818.67498   -57.265346    1722.1551   -2520.9054 
 2241000    271.97574   -3870.6987   -3404.5416   -3870.6987            0    9324.9861    16.911751    19.919808    20.632296    6950.5838    9034.8401    9292.9062     9647.212   -137.44826    1.3003414    862.39741   -2459.2945 
 2242000      258.077   -3817.2554   -3374.9202   -3817.2554            0    9237.2116    16.961147     19.97799    20.692559     7011.666    8897.4067    10076.805     8737.423   -965.50459   -483.92693    906.13216   -2430.3419 
 2243000     274.1826   -3784.7341   -3314.7945   -3784.7341            0    10994.263     16.90147      19.9077    20.619755    6937.9164    10727.476    10586.702    11668.611   -1722.4048   -307.95286    1574.1072   -2202.3687 
 2244000    284.83023   -3853.9547   -3365.7654   -3853.9547            0    8987.2208    16.981701      20.0022    20.717635    7037.1878    8702.8055    9033.9455    9224.9115     457.1715   -412.57978     1518.491   -2443.4055 
 2245000    276.73092   -3805.8537   -3331.5464   -3805.8537            0    8615.7151    16.995553    20.018516    20.734534    7054.4223    10258.022    7653.4346    7935.6884    -666.9268   -1855.3926     400.8329   -2445.1486 
 2246000    269.14325   -3822.7478   -3361.4455   -3822.7478            0     8706.021    16.951856    19.967047    20.681225    7000.1504    7554.7887    10453.765    8109.5094    137.26559    575.83057   -252.68739   -2472.6477 
 2247000    270.79466   -3841.6724   -3377.5396   -3841.6724            0    9931.0504     16.88809    19.891939     20.60343    6921.4514    10419.327    9918.2048    9455.6198    63.474224   -565.64639   -838.96077   -2375.0768 
 2248000    281.69035   -3831.0331   -3348.2255   -3831.0331            0    11718.918     16.89737     19.90287    20.614752    6932.8685    13735.147    11286.144    10135.462    819.23248    1478.9621    1795.3387     -2163.34 
 2249000    265.05208   -3837.2126   -3382.9224   -3837.2126            0    8865.3367    16.883733    19.886807    20.598114    6916.0957    9737.9307    7269.2947    9588.7846   -590.73921   -44.682217    403.65162   -2488.7276 
 2250000    294.29529   -3835.2646   -3330.8526   -3835.2646            0    8325.1215    16.948471     19.96306    20.677095    6995.9575    9611.5632     6938.911    8424.8905    727.92672    1193.5954   -182.92264   -2481.4499 
Loop time of 404.246 on 64 procs for 250000 steps with 864 atoms

Performance: 106.866 ns/day, 0.225 hours/ns, 618.435 timesteps/s
192.9% CPU use with 32 MPI tasks x 2 OpenMP threads

MPI task timing breakdown:
Section |  min time  |  avg time  |  max time  |%varavg| %total
---------------------------------------------------------------
Pair    | 27.289     | 35.133     | 49.911     |  83.7 |  8.69
Bond    | 0.94742    | 1.2504     | 2.3735     |  29.0 |  0.31
Kspace  | 169.09     | 187.63     | 197.49     |  45.0 | 46.42
Neigh   | 4.4417     | 5.1493     | 5.7872     |  20.7 |  1.27
Comm    | 77.19      | 84.457     | 90.857     |  40.5 | 20.89
Output  | 0.47727    | 0.4777     | 0.47964    |   0.1 |  0.12
Modify  | 74.198     | 76.592     | 80.208     |  18.4 | 18.95
Other   |            | 13.55      |            |       |  3.35

Nlocal:        27.0000 ave          34 max          19 min
Histogram: 1 1 3 4 4 3 9 3 3 1
Nghost:        2606.72 ave        2651 max        2559 min
Histogram: 2 2 3 2 6 3 6 5 2 1
Neighs:        8824.41 ave       11247 max        6435 min
Histogram: 1 4 2 7 4 2 4 3 3 2

Total # of neighbors = 282381
Ave neighs/atom = 326.82986
Ave special neighs/atom = 2.0000000
Neighbor list builds = 15028
Dangerous builds = 3

unfix		3
unfix		2
unfix		1

write_data	data.final.${pid}
write_data	data.final.1
System init for write_data ...
PPPM initialization ...
  extracting TIP4P info from pair style
  using 12-bit tables for long-range coulomb (../kspace.cpp:340)
  G vector (1/distance) = 0.37439048
  grid = 24 24 24
  stencil order = 5
  estimated absolute RMS force accuracy = 0.0031463297
  estimated relative force accuracy = 9.4750784e-06
  using double precision FFTW3
  3d grid and FFT values/proc = 3549 432
Last active /omp style is kspace_style pppm/tip4p/omp
WARNING: Not all mixed pair coeffs generated from mixing. Use write_data with 'pair ij' option to store all pair coeffs. (../write_data.cpp:312)

write_restart   restart.lmp.${pid}
write_restart   restart.lmp.1
System init for write_restart ...
PPPM initialization ...
  extracting TIP4P info from pair style
  using 12-bit tables for long-range coulomb (../kspace.cpp:340)
  G vector (1/distance) = 0.37439048
  grid = 24 24 24
  stencil order = 5
  estimated absolute RMS force accuracy = 0.0031463297
  estimated relative force accuracy = 9.4750784e-06
  using double precision FFTW3
  3d grid and FFT values/proc = 3549 432
Last active /omp style is kspace_style pppm/tip4p/omp
Total wall time: 0:06:44
