LAMMPS (30 Jul 2021)
Processor partition = 1
  using 2 OpenMP thread(s) per MPI task
using multi-threaded neighbor list subroutines
variable        pid world 0 1
variable        phase world IceII IceV

shell cd ${phase}
shell cd IceV
include Restart.lmp
echo both
log log.lammps
#include		in.partitions
include		in.temp
variable        temperature equal 14.44
variable	tempDamp equal 100.0
include		in.pressure
variable        pressure equal 9483.3
variable        pressureDamp equal 1000.0 # This is 1 ps
include		in.seed
variable        seed equal 745823

units		real
atom_style	full
read_restart    restart.lmp.${pid}
read_restart    restart.lmp.1
Reading restart file ...
  restart file = 30 Jul 2021, LAMMPS = 30 Jul 2021
  restoring atom style full from restart
  triclinic box = (-3.0676946 0.036635498 0.11711618) to (14.677694 22.543364 19.112882) with tilt (-0.095842080 -6.7140536 0.12890231)
  2 by 4 by 4 MPI processor grid
  restoring pair style lj/cut/tip4p/long/omp from restart
  restoring bond style harmonic/omp from restart
  restoring angle style harmonic/omp from restart
  1008 atoms
  672 bonds
  336 angles
Finding 1-2 1-3 1-4 neighbors ...
  special bond factors lj:    0        0        0       
  special bond factors coul:  0        0        0       
     2 = max # of 1-2 neighbors
     1 = max # of 1-3 neighbors
     1 = max # of 1-4 neighbors
     2 = max # of special neighbors
  special bonds CPU = 0.002 seconds
  read_restart CPU = 0.008 seconds

include 	in.setup
variable	out_freq equal 1000
variable	out_freq2 equal 10000
variable	out_freq3 equal 1000

timestep	2.0

neigh_modify    delay 7 every 1

include		in.tip4p
# This is TIP4P/Ice

# create groups ###
group ox type 2
336 atoms in group ox
group hy type 1
672 atoms in group hy

# set charges - beside manually ###
set group ox charge -1.1794
Setting atom values ...
  336 settings made for charge
set group hy charge 0.5897
Setting atom values ...
  672 settings made for charge

# ### TIP3P Potential Parameters ###
pair_style lj/cut/tip4p/long/omp 2 1 1 1 0.1577 8.5
pair_coeff 1 1*2 0.000 0.000
pair_coeff 2 2 0.21084 3.1668
bond_style  harmonic
bond_coeff  1 450 0.9572
angle_style harmonic
angle_coeff 1 55 104.52
kspace_style pppm/tip4p/omp 1.0e-5
pair_modify tail yes

thermo          ${out_freq}
thermo          1000
thermo_style    custom step temp pe etotal epair emol press lx ly lz vol pxx pyy pzz pxy pxz pyz enthalpy

restart 	${out_freq3} restart.lmp.${pid} restart2.lmp.${pid}
restart 	1000 restart.lmp.${pid} restart2.lmp.${pid}
restart 	1000 restart.lmp.1 restart2.lmp.${pid}
restart 	1000 restart.lmp.1 restart2.lmp.1


include         in.dump
dump            myDump all atom ${out_freq2} dump.water.${pid}
dump            myDump all atom 10000 dump.water.${pid}
dump            myDump all atom 10000 dump.water.1
dump            myDump2 all dcd ${out_freq2} dump.dcd
dump            myDump2 all dcd 10000 dump.dcd
dump_modify     myDump append yes
dump_modify     myDump2 append yes


variable natoms 	equal  "count(all)"                        # NUMBER ATOMS
variable H      	equal  "enthalpy/v_natoms"                 # ENTHALPY-per-atom
variable Vol      	equal  "vol/v_natoms"                 # volume-per-atom
fix AVG all 		ave/time ${out_freq} 1 ${out_freq} v_Vol v_H file vol_enthalpy.dat
fix AVG all 		ave/time 1000 1 ${out_freq} v_Vol v_H file vol_enthalpy.dat
fix AVG all 		ave/time 1000 1 1000 v_Vol v_H file vol_enthalpy.dat



fix 		1 all shake 1e-6 200 0 b 1 a 1
Finding SHAKE clusters ...
       0 = # of size 2 clusters
       0 = # of size 3 clusters
       0 = # of size 4 clusters
     336 = # of frozen angles
  find clusters CPU = 0.001 seconds
fix             2 all nph tri ${pressure} ${pressure} ${pressureDamp}
fix             2 all nph tri 9483.3 ${pressure} ${pressureDamp}
fix             2 all nph tri 9483.3 9483.3 ${pressureDamp}
fix             2 all nph tri 9483.3 9483.3 1000
fix             3 all temp/csvr ${temperature} ${temperature} ${tempDamp} ${seed}
fix             3 all temp/csvr 14.44 ${temperature} ${tempDamp} ${seed}
fix             3 all temp/csvr 14.44 14.44 ${tempDamp} ${seed}
fix             3 all temp/csvr 14.44 14.44 100 ${seed}
fix             3 all temp/csvr 14.44 14.44 100 745823


run             250000
PPPM initialization ...
  extracting TIP4P info from pair style
  using 12-bit tables for long-range coulomb (../kspace.cpp:340)
  G vector (1/distance) = 0.38028852
  grid = 24 27 32
  stencil order = 5
  estimated absolute RMS force accuracy = 0.0023676228
  estimated relative force accuracy = 7.1300258e-06
  using double precision FFTW3
  3d grid and FFT values/proc = 5355 672
Last active /omp style is kspace_style pppm/tip4p/omp
Neighbor list info ...
  update every 1 steps, delay 7 steps, check yes
  max neighbors/atom: 2000, page size: 100000
  master list distance cutoff = 10.8154
  ghost atom cutoff = 10.8154
  binsize = 5.4077, bins = 5 5 4
  1 neighbor lists, perpetual/occasional/extra = 1 0 0
  (1) pair lj/cut/tip4p/long/omp, perpetual
      attributes: half, newton on, omp
      pair build: half/bin/newton/tri/omp
      stencil: half/bin/3d/tri
      bin: standard
Setting up Verlet run ...
  Unit style    : real
  Current step  : 9750000
  Time step     : 2
Per MPI rank memory allocation (min/avg/max) = 10.32 | 10.33 | 10.34 Mbytes
Step Temp PotEng TotEng E_pair E_mol Press Lx Ly Lz Volume Pxx Pyy Pzz Pxy Pxz Pyz Enthalpy 
 9750000    14.504922   -5350.1079   -5321.0963   -5350.1079            0    9712.0516    17.745388    22.506728    18.995766    7586.7308    9344.6433    10009.203    9782.3088    -220.4442    120.54588    72.582729   -4246.5094 
 9751000    14.406822   -5346.9858   -5318.1704   -5346.9858            0    9330.0916    17.702746    22.630803    18.942299    7588.8034    9061.8017    9357.4698    9571.0031     76.16828    232.31108   -156.98155   -4285.5633 
 9752000    14.218339   -5345.0982   -5316.6597   -5345.0982            0    9545.6767    17.690562    22.558847    19.003329    7583.8237    9513.2759    9625.8584    9497.8956    -162.1833   -28.796473    55.823645   -4260.8861 
 9753000    14.260993   -5348.8742   -5320.3505   -5348.8742            0    9372.5197    17.700786    22.587922    19.001714    7597.3411    8804.8683    9665.5251    9647.1657    122.46579    329.27134   -264.48146   -4281.8807 
 9754000    13.595592   -5345.8322   -5318.6393   -5345.8322            0    9552.2589    17.674492    22.574843    18.996395    7579.5404    9108.7146    9920.3003    9627.7619    49.617037    119.07816   -193.04425   -4262.7343 
 9755000    14.238949   -5345.0349   -5316.5553   -5345.0349            0    10085.305    17.693236    22.494691    19.034927    7575.9745    9903.7271    10501.302     9850.886    83.625342    134.46225   -293.42037   -4202.2519 
 9756000    14.721044   -5348.2237   -5318.7798   -5348.2237            0    9241.2113    17.755968     22.54805     18.95845    7590.2518    8904.2935    9561.5008    9257.8398   -10.771443   -19.505957    348.32805   -4295.8143 
 9757000    14.241685   -5347.4485   -5318.9633   -5347.4485            0    9347.9004    17.678052    22.622571    18.978017     7589.745    9799.4485    9261.8066    8982.4462    218.12751    239.50449    407.40135   -4284.2569 
 9758000    14.174722   -5347.7085   -5319.3573   -5347.7085            0    9359.1299    17.699049    22.615132    18.970552    7593.2731    9440.9361    9107.6513    9528.8022    248.17189   -77.425241   -17.635787   -4282.9264 
 9759000    14.817978    -5344.814   -5315.1763    -5344.814            0    9700.7222    17.684211    22.590892    18.978452    7581.9314    9817.5676    9665.0997    9619.4993   -136.24967     108.6723   -99.136099   -4242.5219 
 9760000    14.610301   -5345.1702   -5315.9478   -5345.1702            0    9800.2732    17.686359     22.58547    18.988903     7585.207     10182.76     9638.519    9579.5405     76.86543   -13.583782   -211.11549   -4231.8174 
 9761000    14.270333   -5345.3483   -5316.8059   -5345.3483            0    9657.9806    17.706568    22.576845    18.959331    7579.1526    9197.4743    9726.0942    10050.373    4.3609249   -87.090064    16.124339   -4249.2691 
 9762000    14.762478   -5345.2215   -5315.6947   -5345.2215            0    9695.4906     17.70376     22.53526    19.009913    7584.1729    9560.4171    9902.6545    9623.4003   -224.86958    26.139564    -137.9322   -4243.3019 
 9763000    15.543426   -5345.9401   -5314.8513   -5345.9401            0     9886.967    17.702886    22.559437    18.979659    7579.8521      10157.4    9900.2531    9603.2479   -54.403547    105.99994   -853.30227   -4221.9028 
 9764000    14.401635   -5346.8677   -5318.0627   -5346.8677            0     9489.903    17.693997    22.554071    19.021395    7590.8999    9964.5957    9474.7858    9030.3277    137.53224   -342.06353   -501.46459   -4267.4783 
 9765000    14.436258   -5347.1299   -5318.2556   -5347.1299            0    9403.5815    17.754909    22.553819    18.951227    7588.8485    8810.2161    9592.1988    9808.3296   -131.71466    65.944591    141.96005   -4277.5088 
 9766000    14.132352   -5346.5353   -5318.2688   -5346.5353            0    9218.6652    17.695543    22.595479    18.988501    7592.3486    9189.8702    9170.3376    9295.7878    35.489468    250.72578   -144.67131   -4297.5172 
 9767000    14.792303   -5345.5892   -5316.0028   -5345.5892            0    9800.2995    17.690704    22.535982    19.008738    7578.3539     9895.137    9860.1903     9645.571   -74.871434    45.569157   -14.634309    -4232.849 
 9768000     14.03552   -5345.1265   -5317.0537   -5345.1265            0    9449.9724    17.662051     22.64471    18.948621    7578.5398    9149.1345    9370.7245    9830.0582    405.00304   -92.740274    152.50253   -4272.5934 
 9769000    14.679505   -5344.5395   -5315.1787   -5344.5395            0    9965.1074    17.683945    22.595313     18.93481    7565.8629    10190.734    9805.7552    9898.8327   -250.53991   -189.92419   -599.54452   -4215.6252 
 9770000    14.700129   -5346.1957   -5316.7936   -5346.1957            0    9501.0531     17.71901    22.518849     19.00147    7581.8091       9188.7    9932.2458    9382.2135   -143.13102    46.049081    341.14032   -4266.2345 
 9771000    13.903556   -5345.7992   -5317.9904   -5345.7992            0    9772.0096    17.715254    22.560238    18.959861    7577.5049     9906.457    9998.4756    9411.0961    350.68766    417.40382    51.381123   -4238.0842 
 9772000    14.460605   -5346.3175   -5317.3945   -5346.3175            0    9239.2171    17.684733    22.601346    18.984817    7588.2081    9225.9732    9252.1035    9239.5747    392.92218   -201.08207    131.57719   -4294.9252 
 9773000    14.222419   -5346.4222   -5317.9756   -5346.4222            0    9483.4894    17.692881    22.593041    18.955184     7577.069    9294.1325     9399.771    9756.5647     -48.4197    -268.4689   -66.140989   -4270.0141 
 9774000    15.094589   -5348.1358   -5317.9447   -5348.1358            0    8891.5079    17.710903    22.574793    19.007385     7599.532    8798.8874    9058.0828    8817.5535   -271.86461    118.97593   -285.44453   -4332.4866 
 9775000    14.989267   -5345.9658   -5315.9854   -5345.9658            0    9650.8718    17.681522    22.566654    19.002742    7582.3371    9902.6076    9596.3623    9453.6456   -127.70241    23.142206    187.80304   -4248.7861 
 9776000    14.668458   -5345.0273   -5315.6886   -5345.0273            0    9440.6641    17.700899    22.599264    18.954508    7582.3205    9497.1214    9150.9126    9673.9584   -39.110887   -349.98403    -111.3447   -4271.7365 
 9777000    15.000104   -5346.5905   -5316.5884   -5346.5905            0    9218.6457    17.660441    22.628574    18.993315    7590.3098    9235.6908    9160.6745    9259.5718   -255.17665   -145.51012   -31.486467   -4296.1131 
 9778000    14.045925   -5347.2015   -5319.1079   -5347.2015            0    9640.3353    17.709566    22.571934    18.961684    7579.7274    9480.4072    9640.9292    9799.6695    444.09741    232.59058    90.753741   -4253.4407 
 9779000    14.640523   -5348.6585   -5319.3757   -5348.6585            0    9174.5587    17.710045    22.559471    19.004792    7592.9704     8862.884    9373.0373     9287.755   -387.62505    208.19298   -125.93966   -4303.4246 
 9780000    14.859682   -5348.0244   -5318.3032   -5348.0244            0    9224.0093    17.778344    22.498818     18.99136    7596.3869    8934.0428    9372.7617    9365.2235     110.2327   -374.94521   -280.72525   -4296.4166 
 9781000    14.889663   -5346.3097   -5316.5286   -5346.3097            0    9611.3752     17.68935    22.626768     18.95768    7587.8649    9510.4135    9503.2777    9820.4343   -272.48535      298.129   -257.88294    -4252.922 
 9782000    14.391909   -5344.1452   -5315.3596   -5344.1452            0    10098.318    17.650917    22.643458     18.95137    7574.4418    10387.961    9696.0983    10210.896    24.032438   -88.614362   -7.3584553   -4199.8441 
 9783000    14.337633   -5346.8138   -5318.1367   -5346.8138            0    9490.5211    17.713849     22.57334    18.976854    7588.0988    8854.3856    9923.6086    9693.5691     211.6506    215.59346   -5.4037712   -4267.8716 
 9784000     14.24968   -5348.1148   -5319.6136   -5348.1148            0    9458.8801    17.706754    22.588433    18.967318    7586.3171    9683.3516    9201.0781    9492.2106    426.43516   -128.27733   -10.505797   -4273.0959 
 9785000    14.200228   -5350.2961   -5321.8939   -5350.2961            0    9109.7333    17.691145    22.598625    19.010314    7600.2389    9190.5949     9173.333    8965.2718    73.972703   -95.217787    19.973457   -4312.1556 
 9786000    14.119487   -5347.0333   -5318.7926   -5347.0333            0    9532.1534    17.725247    22.570294    18.963942    7586.7909    9331.2377    9746.6926    9518.5299    157.50723   -100.48102    340.29055   -4264.1021 
 9787000    14.697024   -5346.6655   -5317.2696   -5346.6655            0    9387.0932    17.715165    22.616406    18.931083    7584.8023    9242.8221    9441.7619    9476.6956      345.534   -185.33347      236.238   -4278.9016 
 9788000    14.655641   -5348.0408   -5318.7277   -5348.0408            0    9401.4201    17.735866     22.52416    18.999386     7589.979    9173.1849    9521.8173     9509.258    119.05661   -155.06241    -144.2166   -4278.0652 
 9789000    14.627108   -5347.5039   -5318.2479   -5347.5039            0    9603.4455    17.721291    22.621408    18.920372    7584.8093    9285.1272    9242.6163    10282.593     390.4593   -367.56641   -511.96117   -4255.9468 
 9790000    14.836399   -5346.1695   -5316.4948   -5346.1695            0    9423.4455    17.684387    22.620657    18.958097     7583.854    9721.3936    9149.8228      9399.12    90.535431   -387.89273   -201.03821    -4274.236 
 9791000    14.772194   -5349.8891   -5320.3429   -5349.8891            0    8998.3987    17.693864     22.64018     18.98112    7603.6901    9137.9027    9097.6516    8759.6417   -284.58595    139.84589   -105.27395   -4322.4923 
 9792000    15.061261   -5348.3529   -5318.2285   -5348.3529            0    9232.1003    17.719871    22.535929    19.009131    7590.9877    8873.0678    9615.5789    9207.6543   -176.13961    119.28422    14.302358   -4296.1725 
 9793000    14.601752   -5344.7758   -5315.5705   -5344.7758            0     9457.492    17.699328    22.542286    19.006352     7583.217    9294.9205    9612.1828    9465.3729    121.70547   -193.51159   -123.22961   -4269.6339 
 9794000    14.329712   -5348.1317   -5319.4705   -5348.1317            0    9740.5646    17.684374    22.624625    18.955085    7583.9737    9656.0052    9762.5731    9803.1154    219.16057   -356.31169    141.07555   -4242.1205 
 9795000    13.857147   -5348.3233   -5320.6073   -5348.3233            0     9526.643    17.730698    22.515722    19.009037    7588.7775    9693.8755    9463.6212    9422.4324    33.206229   -73.329884    178.20941   -4266.2505 
 9796000    14.271143    -5349.101   -5320.5569    -5349.101            0    9211.1289    17.694992    22.570023    19.012623    7593.1926    8938.6773    9588.6862    9106.0233   -299.97792     54.71583   -533.37187   -4300.5264 
 9797000    14.237824   -5345.8479   -5317.3705   -5345.8479            0    9632.6755    17.698657    22.579305    18.981241    7585.3479    9590.0395    9499.6856    9808.3014    33.107891   -316.46986   -439.45788   -4251.7604 
 9798000    14.158769   -5348.1261   -5319.8068   -5348.1261            0    9418.4788    17.645108    22.656505    18.983048    7588.9761    9272.1027    9401.4144    9581.9193     28.37041    313.63923   -150.45706   -4277.3938 
 9799000    14.569951   -5345.6088   -5316.4671   -5345.6088            0    9546.0391    17.679588    22.574972    19.003266    7584.5114    9861.2624    9483.3912    9293.4638   -298.11746   -344.24046   -43.739046   -4260.5576 
 9800000    14.079006   -5348.4944   -5320.3346   -5348.4944            0    9067.1096    17.660008    22.630198    19.001388    7593.8948    9113.1013    9063.3591    9024.8683   -237.29848   -237.90586    162.27412   -4316.1598 
 9801000    14.739824   -5344.1589   -5314.6774   -5344.1589            0     9427.254    17.666637    22.660479     18.96592    7592.7112    9505.3869    9372.5874    9403.7876    -70.67321    189.81225    119.37742   -4270.7797 
 9802000    14.837785   -5347.8918   -5318.2143   -5347.8918            0    9422.0441    17.663339    22.591092    19.007797    7584.7596    9599.6639    9385.7013     9280.767    544.58491   -288.93718   -37.814663   -4275.9861 
 9803000    13.870401   -5348.6097   -5320.8672   -5348.6097            0    9409.8134    17.721324    22.588645    18.966636    7592.3575    9139.1315    9522.6635    9567.6451   -267.70563   -169.66807   -36.196059   -4278.9492 
 9804000    14.915809   -5346.7021   -5316.8686   -5346.7021            0    9264.5021    17.752255    22.461447    19.037549    7591.0578    8745.9701    9683.8524    9363.6839   -124.38302   -238.51716   -349.74129    -4291.216 
 9805000    14.874819   -5347.6712   -5317.9197   -5347.6712            0    9145.9359    17.697622    22.656818    18.943242    7595.7058    9085.9395    9156.9061     9194.962   -388.06162   -15.832569   -204.00379   -4304.7734 
 9806000    15.304732   -5346.1581   -5315.5468   -5346.1581            0    9559.2968    17.689892    22.601435    18.985489      7590.72    10030.574    9432.2055    9215.1109    98.362867    -43.23299     114.4655   -4257.3053 
 9807000    13.772152   -5347.6645   -5320.1185   -5347.6645            0    9511.4183    17.700074    22.640205    18.926679    7584.5506    9454.3155    9267.9512     9811.988   -184.81127   -159.01786    -54.56377    -4268.033 
 9808000    14.102878   -5345.7504   -5317.5429   -5345.7504            0    9386.2708    17.736368    22.531502    18.986654    7587.5801    9431.6511     9365.735    9361.4262   -113.19173   -132.53921    128.00564   -4278.8857 
 9809000    14.387784   -5346.7119   -5317.9346   -5346.7119            0    9403.6305    17.699883     22.63304    18.935808    7585.7258    9075.2861    9361.6115    9773.9938     245.5665    92.117887   -103.49002   -4277.6107 
 9810000     15.10737   -5349.2935   -5319.0769   -5349.2935            0     9536.279    17.714237    22.591033    18.973256    7592.7727    9443.7759    9517.6904    9647.3705    233.20609    155.41159    -39.87289    -4263.098 
 9811000    14.089675   -5344.8147   -5316.6336   -5344.8147            0    9739.6569    17.667993    22.599229    19.004463     7588.159     9829.367    9574.1779    9815.4256    49.578886    218.79785   -25.770055   -4238.7894 
 9812000    15.022468   -5345.5653   -5315.5185   -5345.5653            0    9341.3301    17.701075    22.677706    18.901745    7587.5342    9125.1954    8979.1985    9919.5965   -140.28819   -310.47163  -0.70820481   -4281.8405 
 9813000    14.959524   -5347.5046   -5317.5837   -5347.5046            0     9403.322     17.73384    22.499556    19.027395     7591.998    8984.9055    9957.9442    9267.1162   -80.387454    361.99953    103.72544   -4276.4338 
 9814000     14.63708   -5348.5672   -5319.2912   -5348.5672            0    9383.9663    17.706105    22.549639    19.005844    7588.3923    9288.0172    9717.7154    9146.1663    324.10824    51.081252    132.31438   -4280.7778 
 9815000    14.540882   -5348.6051   -5319.5216   -5348.6051            0    9354.8338     17.68046    22.644062    18.961511    7591.3815    10143.533    8891.5784    9029.3901    227.02343   -309.53628    488.34947   -4283.8244 
 9816000    14.720146   -5345.0768   -5315.6347   -5345.0768            0     9331.406    17.634261    22.657629    18.992422    7588.4326    9093.2492      9350.49    9550.4788    291.22092   -7.4938114    307.32247   -4282.9326 
 9817000    14.367473    -5347.919   -5319.1822    -5347.919            0    9276.5376    17.672048    22.608766    18.992253    7588.2256    9487.4223    9015.6853    9326.5053   -131.01301   -250.34181   -263.49609   -4292.5804 
 9818000    14.221774   -5345.2167   -5316.7714   -5345.2167            0    9797.7802    17.660926    22.569249    19.008772    7576.7796    10009.425    9877.1119     9506.804    144.57352   -126.47349   -659.72743    -4234.121 
 9819000    14.895164    -5349.626   -5319.8338    -5349.626            0    9468.2188    17.736965    22.576904    18.939933    7584.4157     9138.495    9435.3681    9830.7934   -226.56658    78.066791   -187.92066   -4272.5454 
 9820000    14.106488   -5346.3117    -5318.097   -5346.3117            0    9331.8412    17.673632    22.638136    18.964366    7587.6066    9710.1677    8918.0459    9367.3101    150.24314   -41.552617   -59.152841   -4285.4592 
 9821000    14.743972    -5348.185   -5318.6953    -5348.185            0    9401.0207    17.728653    22.595922    18.945536    7589.4921    9154.3963    9514.5072    9534.1585   -369.36839   -184.77712   -175.83671   -4278.1437 
 9822000    14.756849   -5343.4587   -5313.9432   -5343.4587            0    9770.9207    17.710243    22.569272     18.97305    7583.6666    9552.6014    9869.0508    9891.1098   -441.81595    136.77907   -354.72036   -4233.2794 
 9823000    13.873728   -5348.5974   -5320.8482   -5348.5974            0    9304.3356    17.681424    22.597788    19.003141    7592.9152    9440.8564    9361.8391    9110.3113    142.47475    293.09661   -49.927043   -4290.5337 
 9824000    13.878014   -5346.9766   -5319.2188   -5346.9766            0    9575.9726    17.675035    22.520396    19.045034    7580.8529    9454.2498    9712.6524    9561.0157    -218.2936   -255.51458    73.841578   -4260.5092 
 9825000    13.921635   -5347.6744   -5319.8294   -5347.6744            0     9492.106    17.706288    22.578666    18.986671    7590.5743    9212.0004    9860.5722    9403.7455    191.36962    139.23941   -323.86163   -4269.0462 
 9826000    14.813042   -5347.1438   -5317.5159   -5347.1438            0    9216.2502    17.648869    22.615208    19.001073    7583.9524    9605.0735    9135.7329    8907.9441   -76.901575    7.5603828   -442.01468   -4298.1602 
 9827000     13.62181    -5346.648   -5319.4027    -5346.648            0     9624.683    17.710252    22.584782    18.958731    7583.1548    9698.9983    9644.0338    9531.0169    338.96911    160.30872    331.91302   -4254.9846 
 9828000    14.966134   -5344.7411    -5314.807   -5344.7411            0    9380.0814    17.665406    22.590343    19.009295    7585.9934    9673.7639    9481.7348    8984.7456   -18.426194   -195.29289   -347.61883   -4277.0517 
 9829000    14.126781   -5348.1316   -5319.8763   -5348.1316            0    8904.2765    17.698456    22.654677    18.951242    7598.5538    8461.3759    9046.1938    9205.2598   -104.61477   -67.588555     323.7566   -4333.1301 
 9830000    15.189949   -5346.6939   -5316.3121   -5346.6939            0     9615.063    17.696967    22.563936    18.996252    7585.4547    9376.3655     9904.647    9564.1765    46.176112    281.61888    251.47545   -4252.6354 
 9831000    14.279341   -5347.6245   -5319.0641   -5347.6245            0    9367.5254    17.736251     22.52013    19.002314    7589.9551    8865.4737    9860.5838    9376.5188    286.26614    3.3692675   -186.06179   -4282.1567 
 9832000    14.584436     -5348.18   -5319.0093     -5348.18            0    9585.2011    17.633364    22.699008    18.951088    7585.3596    10018.242    9211.3835    9525.9773   -208.96182    111.81168   -230.81583   -4258.6494 
 9833000    14.733049   -5347.2206   -5317.7527   -5347.2206            0    9517.8519     17.74397    22.570389    18.944582    7587.0833    9296.5476    9684.2287    9572.7794    50.639909    116.44655    347.83577    -4264.604 
 9834000    14.769963   -5345.9574   -5316.4157   -5345.9574            0    9540.9549    17.726011     22.51844    19.006732    7586.7672    9281.0251    9720.4567     9621.383    89.324858   -335.03538   -165.95005   -4260.7546 
 9835000    14.386047   -5348.0375   -5319.2636   -5348.0375            0    9417.4959    17.716067    22.537599    19.010559    7590.4905    9550.6627    9623.0458    9078.7793    232.25686    87.505012   -212.26594   -4276.7514 
 9836000    13.712622   -5347.5106   -5320.0837   -5347.5106            0    9262.5214    17.675992    22.656278    18.947873     7588.096    9385.8943    9137.0643    9264.6057   -400.26733    99.887203   -634.45511   -4295.0505 
 9837000    14.240727   -5350.1508   -5321.6676   -5350.1508            0    8859.0619    17.701677    22.646019    18.954951    7598.5185    8789.2628    9101.6345    8686.2884   -48.758333    33.597611   -162.97802   -4339.9365 
 9838000    14.568179   -5346.7127   -5317.5746   -5346.7127            0    9623.7007    17.661128    22.629598    18.969377     7581.381    9808.8714    9534.6992    9527.5315    126.20272   -297.64712    138.39782   -4253.5141 
 9839000    14.068583   -5347.7832   -5319.6442   -5347.7832            0       9552.1    17.700076    22.557631    18.990383    7582.3242    9523.5044     9305.293    9827.5027   -240.91727    -109.8368    86.675468    -4263.369 
 9840000    14.420455   -5349.1466   -5320.3039   -5349.1466            0    9376.5146    17.691242    22.607705    18.973937    7588.7849    9047.7441      9481.13    9600.6697    495.35084    159.64442    464.61236   -4282.5615 
 9841000    14.363679    -5346.456   -5317.7268    -5346.456            0    9555.9605    17.700989     22.57101    18.971093    7579.5056    9658.1806    9345.3941    9664.3068    293.54815   -266.85631    137.30512   -4261.4175 
 9842000    14.494204   -5347.5973   -5318.6071   -5347.5973            0    9673.2574    17.690548    22.572143    18.985221    7581.0563    9756.8099    9649.4258    9613.5365    130.97825    -46.04574    208.68973   -4249.1131 
 9843000    14.976081   -5347.3256   -5317.3716   -5347.3256            0    9125.7052     17.66066     22.69836    18.936387    7590.9921    9176.8667    8770.6774    9429.5715   -14.111741   -371.96633   -139.46568   -4307.0937 
 9844000    14.573328   -5347.4523   -5318.3038   -5347.4523            0     9349.186    17.691666    22.560851    19.007061    7586.4602    9561.0193    9450.2435     9036.295   -228.63064    29.768415   -60.782307    -4283.903 
 9845000    14.489219   -5347.6571   -5318.6769   -5347.6571            0    9964.9344    17.674381    22.565213    18.987973    7572.9008     10392.67    9857.0404    9645.0929   -130.17776   -87.224324    301.15692   -4218.1197 
 9846000    15.197895   -5345.9748   -5315.5771   -5345.9748            0    9763.6499    17.703946    22.635366    18.914783    7579.8211    9301.6328    9778.4481    10210.869    74.289532    20.602779   -188.98297    -4236.265 
 9847000    13.769232   -5345.7428   -5318.2027   -5345.7428            0    9584.4476    17.659433     22.59355    19.008883    7584.3408    9359.7519    9931.2999    9462.2911    155.77126    195.10913    425.34295   -4258.0685 
 9848000    14.162968   -5347.5187    -5319.191   -5347.5187            0    9211.7641    17.719753    22.523201     19.00972    7586.8851    9121.3349    9486.7539    9027.2034   -13.206169   -189.59075   -111.40451   -4299.9375 
 9849000    14.188982   -5345.5532   -5317.1735   -5345.5532            0    9729.2547    17.702449     22.56731    18.964987    7576.4487    9266.7205    9933.5389    9987.5047   -213.86285   -88.511548   -443.15834   -4242.1421 
 9850000    14.245675   -5345.5584   -5317.0653   -5345.5584            0    9720.4896    17.658296    22.618914    18.977415    7579.7977    9652.6812    9646.1519    9862.6357    176.42131   -26.178891    78.575905   -4242.5276 
 9851000    13.644126   -5348.1439   -5320.8539   -5348.1439            0    9263.6567    17.705848      22.5918    18.969229     7587.824    9386.6837    9395.7025    9008.5841   -386.04688    230.52894   -158.53511   -4295.7318 
 9852000    14.185392   -5345.9504   -5317.5778   -5345.9504            0    9643.3611    17.656558    22.586373    19.012768     7582.246    9492.6984     9713.951     9723.434   -227.01734    49.188003    177.90678   -4251.2219 
 9853000    14.777807   -5346.1915    -5316.634   -5346.1915            0    9693.5939    17.703698    22.527263    19.007653    7580.5534    9403.1924    9999.1403     9678.449     344.0656    174.74152    237.63747   -4244.9627 
 9854000    14.603517   -5348.2428    -5319.034   -5348.2428            0    9086.1979    17.712708    22.593213    18.977438    7594.5235    8785.3371    9458.0656    9015.1908   -240.99522    40.077509    91.016687   -4312.6618 
 9855000    14.474902   -5344.5627   -5315.6111   -5344.5627            0    9221.9656    17.689779    22.582767    18.998663    7589.6652    9693.6716    9258.9552    8713.2698    85.148798    -31.75301    199.53442   -4294.8549 
 9856000    13.997975   -5348.6885   -5320.6908   -5348.6885            0    9263.7728    17.689268     22.58379    19.005909    7592.6839    9252.8277    9455.9899    9082.5009   -8.8708084      375.772   -531.39383   -4294.8993 
 9857000     15.16187   -5347.0428   -5316.7172   -5347.0428            0    9553.7119    17.641143    22.627906    18.996627    7583.1141     9705.354    9552.5419    9403.2398     81.44407   -144.84499   -563.15611   -4260.1536 
 9858000    14.847443   -5347.7067     -5318.01   -5347.7067            0     9235.595    17.660976    22.695483    18.946785    7594.3333     9307.048    9030.2408    9369.4963    42.238595    98.700186    229.31594   -4295.1165 
 9859000    14.486047   -5347.6674   -5318.6935   -5347.6674            0    9494.4807    17.662718    22.664042    18.937968    7581.0309    9395.6021    9463.4508    9624.3892   -190.36044   -95.933412    -23.30289   -4268.9689 
 9860000     14.05256    -5344.895   -5316.7882    -5344.895            0    9595.8902    17.707731    22.544583    19.006307    7587.5725    10301.235    9537.5391    8948.8969   -303.42947   -233.85228   -236.59684   -4254.9361 
 9861000    15.432649   -5347.4611   -5316.5939   -5347.4611            0    9734.4729    17.676115    22.685835    18.913286    7584.1787    9468.1678    9436.8694    10298.382     282.0488   -16.173946    442.69432   -4239.8885 
 9862000    14.520308   -5347.4573   -5318.4149   -5347.4573            0    9392.6004    17.674911    22.631822    18.978721    7591.7816    10109.418     9011.933    9056.4503   -209.36611   -166.80722    503.80615   -4278.4817 
 9863000    14.731223    -5348.453   -5318.9887    -5348.453            0    9394.0571    17.731249    22.560271    18.975769    7590.7211    9079.2737     9523.619    9579.2786   -271.44696    60.784623   -126.48381   -4279.0395 
 9864000    14.505489   -5347.1981   -5318.1853   -5347.1981            0    9572.5603    17.722514    22.535671    19.010347    7592.5187       9336.9    9762.5437     9618.237   -182.08353    367.91013    210.03058   -4258.2243 
 9865000    14.044556   -5346.4837   -5318.3929   -5346.4837            0     9410.959     17.72968    22.512963     19.01844     7591.165    9526.4043    9671.7655    9034.7072   -323.96298     136.9078    150.47078   -4276.5117 
 9866000    14.505398   -5348.9576    -5319.945   -5348.9576            0     9396.009    17.693974    22.627684    18.954829    7589.0141    9088.7367    9504.9263    9594.3641     285.0172    111.29728   -292.07592   -4280.0137 
 9867000    13.850041   -5345.7779   -5318.0761   -5345.7779            0    9967.6629    17.714754    22.533383    18.982832    7577.4401    9820.0632    10204.988    9877.9368   -229.97759    406.20225   -743.23747   -4216.5577 
 9868000    14.746227   -5349.2206   -5319.7263   -5349.2206            0    9137.2148    17.707408    22.619306    18.952527    7591.0424    8917.7214    9404.9212    9089.0018   -588.70024    94.365353   -267.32184   -4308.1675 
 9869000    14.304176   -5347.5913   -5318.9812   -5347.5913            0      9636.13    17.695464    22.602709    18.965484    7585.5376     9292.875    9650.9502    9964.5647   -471.13429    8.6447601    135.13576   -4252.9623 
 9870000    14.553485   -5345.1517    -5316.043   -5345.1517            0    9844.1714    17.708412    22.603421    18.928167    7576.3909    9680.5665    9755.6138    10096.334    49.389498    26.929883    491.83579   -4228.3222 
 9871000    14.166326   -5346.4632   -5318.1288   -5346.4632            0    9868.7015    17.660685    22.571593    19.015713      7580.23    10511.728    9802.4367    9291.9402    161.49169     204.6598   -402.98741    -4227.145 
 9872000    14.593418   -5345.6406    -5316.452   -5345.6406            0    9716.3515    17.703667    22.572979    18.984431    7586.6442    9523.5648    9717.6303    9907.8595   -214.51197    133.06554   -183.94407   -4241.4016 
 9873000     14.02843   -5346.9835   -5318.9249   -5346.9835            0    9425.1988     17.72924    22.505593    19.025934    7591.4822    9858.8516    9332.2743    9084.4706   -148.75242   -229.83811    219.55979   -4275.4236 
 9874000    14.413536   -5348.6543   -5319.8255   -5348.6543            0    8998.6923    17.698589    22.593343    19.010579     7601.766    9118.7184    8981.2909    8896.0675    29.969845    4.7106651   -50.636118   -4322.1948 
 9875000    14.941409   -5346.4676   -5316.5829   -5346.4676            0    9664.8821    17.730702    22.528611    18.981856    7582.2664    9568.2383     9817.739    9608.6692    4.8921996    18.841017    161.56954   -4247.8443 
 9876000    14.495969   -5346.9703   -5317.9765   -5346.9703            0    9776.8485    17.666758    22.596322    18.989231    7580.5722    9968.5987    9693.4115    9668.5354    -27.57064    94.683931    491.34697   -4237.0983 
 9877000    14.623509   -5349.6797   -5320.4309   -5349.6797            0    9357.9214     17.66272    22.679215    18.936882    7585.6723    9236.0509    9216.8637    9620.8494   -248.04296   -78.982251   -301.27497   -4285.1711 
 9878000    14.560667   -5347.0698   -5317.9467   -5347.0698            0    9281.0052    17.729241    22.531066    18.987946    7584.9003    9144.0886    9421.7541     9277.173   -135.89098   -14.830721   -230.60687   -4291.3005 
 9879000    14.963272   -5344.2217   -5314.2933   -5344.2217            0    9448.9497    17.707588    22.625223    18.921916    7580.8409    9259.2838    9387.3219    9700.2433    -177.4258     211.8843   -2.3964837   -4269.6289 
 9880000    13.690134   -5345.9541   -5318.5721   -5345.9541            0    9496.2381    17.699174    22.585482    18.965153    7581.2133      9281.65    9418.1752     9788.889    300.23207   -42.110257    577.15927    -4268.628 
 9881000    14.218737   -5347.1302    -5318.691   -5347.1302            0    9973.3418    17.665593    22.571758    18.988643    7571.5979    9993.3681    10066.844    9859.8127    125.36879    29.428145    -22.60655   -4217.3948 
 9882000     15.76163    -5347.458   -5315.9328    -5347.458            0    9406.3345    17.686411    22.563901    19.014389    7588.1563     9927.272      9341.12    8950.6116   -3.0710169   -300.19563   -168.96675   -4274.9763 
 9883000    14.950734   -5345.8711   -5315.9678   -5345.8711            0    9190.1152    17.680317      22.5773    19.003069    7585.5278     9554.539    9133.7052    8882.1015    63.557897   -216.29725    443.89838   -4299.2916 
 9884000    13.746738   -5346.0628   -5318.5677   -5346.0628            0    9656.6578     17.70724    22.604401    18.935406    7579.1152    9178.3842     9626.695    10164.894    225.44449   -180.40144    21.227132   -4251.1823 
 9885000    14.070113   -5346.3963   -5318.2543   -5346.3963            0      9665.89    17.637626    22.654851    18.960404    7576.1563    10024.282    9647.9966    9325.3918   -357.39695    185.08083   -90.960385   -4250.2656 
 9886000    14.721257   -5346.5123    -5317.068   -5346.5123            0    9418.1698    17.706359    22.593931    18.963114    7586.3127    9576.7319     9344.503    9333.2745   -56.179286   -52.095327     286.6632   -4275.0549 
 9887000    14.677271    -5347.021   -5317.6647    -5347.021            0    9596.6313    17.756285    22.470284    19.004669    7582.6494    9607.0671    10054.171    9128.6563    95.696082    50.191302    -98.27182   -4256.4196 
 9888000    13.988547   -5344.7875   -5316.8087   -5344.7875            0    9710.3269    17.724282    22.574971    18.949766     7582.278    9442.2638    9566.7886    10121.928    -87.37458   -141.30101   -162.86299   -4243.0432 
 9889000    13.599488   -5344.1078   -5316.9072   -5344.1078            0    9909.0671    17.732745    22.505207    18.982603    7575.5601    9964.5926    10095.112    9667.4969      176.291    27.730327    303.49213   -4222.1359 
 9890000    14.814045    -5346.559   -5316.9291    -5346.559            0    9727.9853    17.716032    22.502304    19.027629    7585.3933    9906.0029    9946.0601    9331.8927   -572.26024     20.01866   -96.568166    -4240.769 
 9891000    14.760204   -5346.0049   -5316.4827   -5346.0049            0    9890.9532    17.684104    22.560506    18.990047    7576.3136    10023.336    10026.474    9623.0501    312.57597    372.42857   -335.24937   -4223.6039 
 9892000    13.824007   -5344.3317    -5316.682   -5344.3317            0    9600.9994    17.675231     22.61679    18.962726    7580.4823    9079.8759    9804.3839    9918.7385    234.38353    88.298775   -12.002238   -4255.2574 
 9893000    14.098018   -5349.5458    -5321.348   -5349.5458            0    8972.8734    17.709909    22.587548    19.004636    7602.2998    8895.2963    9270.7842    8752.5397   -56.092034    280.23243     61.64564   -4326.5098 
 9894000     13.97462   -5346.4169    -5318.466   -5346.4169            0    9036.8656    17.650443    22.586352    19.047641    7593.5157    9338.9469     9135.943    8635.7069    210.63669    -125.5303   -197.80913   -4317.6906 
 9895000    14.316655   -5347.3862   -5318.7511   -5347.3862            0    9374.5168    17.711426    22.564803    18.973961    7583.0355    8924.5816    9469.2764    9729.6925    258.76224     -180.774    133.29862   -4282.0158 
 9896000    14.493902   -5346.5134   -5317.5238   -5346.5134            0    10129.334    17.698296    22.494067    19.025749    7574.2769    10125.114    10338.285    9924.6018    68.235553     152.7241       43.367   -4198.6067 
 9897000    14.519885   -5347.3519   -5318.3103   -5347.3519            0    10099.836      17.6421    22.613446    18.981015    7572.4505    10229.739    10159.662     9910.106   -188.11256    369.93873    -72.37445   -4202.9206 
 9898000    14.902247   -5348.8894   -5319.0831   -5348.8894            0    9357.1734     17.66616    22.601408    19.014935    7592.2846    9539.4387    9330.3624    9201.7191    56.802282   -95.106194    125.08175   -4283.0037 
 9899000    15.426714   -5346.8313    -5315.976   -5346.8313            0    9703.3257    17.706965    22.501733    19.016282    7576.7981    9536.6969    9854.4434    9718.8367   -449.03022   -119.06879   -167.87414   -4243.7601 
 9900000    14.173879   -5347.2646   -5318.9151   -5347.2646            0    9863.3537     17.74167    22.496101    18.993008    7580.4589    10002.426     9917.206    9670.4291   -37.326614   -19.607129    137.90257   -4228.4896 
 9901000    14.947275     -5347.84   -5317.9436     -5347.84            0    9095.5169    17.667071    22.627675    18.997609    7594.5739    9216.1028    9119.1567    8951.2913    272.59649   -390.59541    260.25574   -4310.5326 
 9902000    14.182573   -5346.3218   -5317.9549   -5346.3218            0    9245.8438    17.684052    22.612909    18.985257    7591.9736    9478.3078    8978.9204    9280.3031    33.539745    -111.0271    261.36592   -4294.2445 
 9903000     14.87575   -5346.9755   -5317.2221   -5346.9755            0     9510.279    17.681787    22.565327     19.01459     7586.732    9378.7992    9710.8537     9441.184    28.422185    66.517341    94.471587   -4264.9601 
 9904000    14.195001   -5347.2438    -5318.852   -5347.2438            0    9538.0838    17.711139    22.535341    19.012707    7588.4761    9006.5672    9769.3144    9838.3698   -169.91664    129.89662   -359.80595    -4263.271 
 9905000    14.576079   -5346.5094   -5317.3555   -5346.5094            0    9836.7762    17.670276    22.626934    18.948566    7576.0946    10053.044    9716.4387    9740.8462   -297.85894    84.086421   -404.64107   -4230.4943 
 9906000       14.227    -5348.684   -5320.2282    -5348.684            0    9371.8951    17.715322    22.586876    18.960913    7586.9018    9069.7249    9526.0712    9519.8893   -136.41114   -210.45326   -456.38244   -4283.2544 
 9907000    14.666994   -5349.0326   -5319.6968   -5349.0326            0    9363.2442    17.737936    22.520249    19.000142    7589.8486    9343.1998    9508.0899     9238.443    48.602808    33.009293    195.28334   -4283.2778 
 9908000    14.280942   -5346.9778   -5318.4142   -5346.9778            0    9755.6354    17.652782     22.64459    18.959547    7578.8894      9594.73    10025.427    9646.7488    90.735636    99.737599    32.348445   -4240.1206 
 9909000    13.694257   -5347.5771   -5320.1869   -5347.5771            0    9380.1611    17.700999    22.579193    18.999323    7593.5406    9276.2968    9361.9684    9502.2181   -211.11787   -26.499037   -304.17053   -4281.3903 
 9910000     15.09801   -5350.7678   -5320.5699   -5350.7678            0    8916.4223    17.701067    22.583914    19.015313    7601.5494    9099.0666    8982.6371    8667.5631   -61.292043   -200.70875    104.21458   -4332.0882 
 9911000    14.428246   -5348.2466   -5319.3883   -5348.2466            0    9763.7082    17.698076     22.53072    19.023381    7585.5811    9595.3955    10105.375    9590.3536    522.25799   -33.062452     353.4327   -4239.2496 
 9912000    14.927495   -5348.6346   -5318.7778   -5348.6346            0    9285.7559    17.717027    22.538983    19.015029     7593.153    9038.9324    9417.1733     9401.162   -123.88863   -277.78795    301.09362   -4290.4885 
 9913000    14.511477    -5347.573   -5318.5482    -5347.573            0    9614.6715    17.682764    22.636123    18.943729    7582.5918    9192.6946    9487.1776    10164.142   -224.72374    89.357667   -611.44886   -4255.3163 
 9914000    13.946845   -5348.6391   -5320.7437   -5348.6391            0    9379.5151    17.698005    22.601369    18.981752    7592.6846     9123.105    9516.0798    9499.3605   -104.92523   -104.45332   -314.90095   -4282.1358 
 9915000    15.275737   -5349.3972   -5318.8438   -5349.3972            0    9287.5132    17.727453      22.5093    19.012203    7586.4876     9582.583    9330.0661    8949.8905   -362.28569   -152.45304   -266.86837   -4291.2628 
 9916000    15.535513   -5348.0138   -5316.9409   -5348.0138            0    9380.1012    17.733363    22.545611    18.984476    7590.1739    9519.1113    9413.4782     9207.714   -105.18405    75.393174    30.617399   -4278.6115 
 9917000    14.441765   -5347.1196   -5318.2343   -5347.1196            0    9582.0991    17.684639    22.599517    18.965425    7579.8031    9488.1739    9653.4317    9604.6918    45.539912    34.965361    264.77628    -4258.994 
 9918000     14.74062   -5345.4082   -5315.9252   -5345.4082            0    9683.7612    17.685276    22.567381    19.000226    7583.1869    9446.6562    10011.633     9592.994   -283.57499    379.96654    88.233857   -4244.9689 
 9919000    14.691074   -5346.6682   -5317.2842   -5346.6682            0    9187.7244     17.68779    22.603706    18.991343    7592.9213    9301.7475     9167.854    9093.5718   -23.428985   -69.786384     159.6138   -4299.8819 
 9920000    14.361336   -5346.8015    -5318.077   -5346.8015            0    9237.8604    17.694925    22.627808    18.947304    7586.4506    9204.8379    9183.1238    9325.6196    93.835472   -191.33972   -39.201686   -4295.9946 
 9921000    14.418643   -5347.5159   -5318.6768   -5347.5159            0    9430.8865    17.693718    22.566773    19.008344    7589.8437    9540.4148    9634.9531    9117.2917   -200.23083    33.416895   -84.508822   -4274.7712 
 9922000    13.965335    -5348.748   -5320.8156    -5348.748            0    9105.9531    17.701474    22.613105    18.973252    7594.7138     8842.575    9194.4643    9280.8201   -321.21021    272.60878   -127.83278   -4312.2302 
 9923000    13.943861    -5348.163   -5320.2735    -5348.163            0    9457.8256    17.689801    22.635572     18.95405    7589.5575    9188.1963    9500.8055    9684.4749    203.41476    227.69335    -207.6037   -4273.4255 
 9924000    14.026276   -5346.2167   -5318.1624   -5346.2167            0    9837.3154    17.686634    22.563285    18.993881    7579.8608     10048.45    10009.593    9453.9033    162.64911    256.90922    541.43938   -4230.7014 
 9925000    14.685512    -5345.663   -5316.2901    -5345.663            0    9891.6625    17.686433    22.538275    19.003283     7575.121    10173.435    10048.467    9453.0857   -149.79731    47.382423    322.53035    -4223.505 
 9926000    14.475822   -5348.4217   -5319.4683   -5348.4217            0    9233.6172    17.754264    22.535383    18.978982    7593.4742    8967.2434    9231.5155    9502.0926      316.131    102.04808   -191.08297   -4296.9095 
 9927000    15.293786    -5346.145   -5315.5556    -5346.145            0    9527.7112    17.692982    22.627711     18.94301    7583.8658    9562.1595    9263.9326    9757.0414   -185.30495   -238.06316   -286.18512   -4261.7631 
 9928000    13.910854   -5345.1643   -5317.3409   -5345.1643            0    9759.7838    17.643522    22.652063    18.961852     7578.335    9874.9056    9648.2278     9756.218   -139.52439    19.962023   -123.13459   -4238.6677 
 9929000    14.560815   -5346.9875   -5317.8641   -5346.9875            0    9355.8917    17.723705    22.520031     19.02441    7593.3724     9541.339    9503.5082    9022.8278   -204.10686    -91.87501   -255.03408   -4281.7782 
 9930000    14.038806   -5345.3374   -5317.2581   -5345.3374            0    9483.5053    17.683144    22.581389    18.993842    7584.4302    9350.8607    9714.0189    9385.6364    35.521605    -261.8443    80.177224   -4268.2768 
 9931000    13.940451   -5348.7898   -5320.9072   -5348.7898            0    8941.7909    17.646074    22.675028    18.983235    7595.6712    9406.3835    8590.1109    8828.8785    16.701734   -163.04754    212.63934   -4330.3796 
 9932000    14.514035   -5344.8516   -5315.8218   -5344.8516            0    10000.007    17.682782    22.550853     18.98523    7570.5849    9957.6845    9952.0658    10090.272    166.85159   -55.843884    352.97412   -4211.7288 
 9933000    14.075314   -5349.4641   -5321.3117   -5349.4641            0    8908.2011    17.691522    22.573759    19.031138    7600.3546    9147.4688    8773.1159    8804.0184    642.32815    -133.7971    516.09313   -4333.8967 
 9934000    14.365162    -5348.079   -5319.3469    -5348.079            0    9666.6855    17.724585    22.510285    19.015335    7586.8422    9607.9554    9843.4761    9548.6251   -181.70131    129.67655   -98.776715   -4249.7638 
 9935000    14.967071   -5345.8702   -5315.9342   -5345.8702            0    9913.0577    17.721103    22.509486    18.999998    7578.9644    10221.901    9874.5026    9642.7698   -77.170123   -297.59202   -520.23132   -4220.2299 
 9936000    15.086621   -5348.0952   -5317.9201   -5348.0952            0    9608.4648    17.719275    22.597405    18.940711    7584.0433     8819.366    10020.703    9985.3255   -91.081543    382.10848   -247.98299   -4255.1711 
 9937000    14.387332   -5345.0299   -5316.2535   -5345.0299            0    10071.383    17.696635    22.578921    18.951198    7572.3475    10154.094    10210.291    9849.7652    332.20166    141.29355    152.89203   -4204.0211 
 9938000    14.797202   -5347.8865   -5318.2903   -5347.8865            0    9381.5744    17.692023    22.546639    19.026958    7589.7705    9795.9018    9556.0443    8792.7771   -280.44649     149.4408     195.2788    -4279.853 
 9939000    14.176721   -5348.6514   -5320.2962   -5348.6514            0    9469.4484     17.74941    22.571835    18.940544     7588.278    8828.1805    9624.1265    9956.0381    41.338988   -45.436362    -84.41224   -4272.3384 
 9940000    14.602403    -5345.278   -5316.0714    -5345.278            0    9508.3686    17.728646    22.502445    19.005683     7582.087    9475.5762    9788.7171    9260.8124   -133.60714    86.216493   -407.73118   -4264.6649 
 9941000    14.454663   -5347.4489   -5318.5378   -5347.4489            0    9484.8155    17.718626    22.580663    18.953901    7583.4241    8907.0166    9873.5801      9673.85    497.95351    197.15941    105.32314   -4269.5508 
 9942000    15.114179   -5347.0192    -5316.789   -5347.0192            0    9772.2999     17.70466    22.594246    18.952534    7581.4575      9844.24    9530.6828    9941.9769   -96.942433   -364.52878    413.29625   -4236.2874 
 9943000    14.409089   -5345.9851   -5317.1651   -5345.9851            0    9650.0468    17.609013    22.659666    18.992924    7578.4495    10080.052    9655.2583    9214.8304    270.27084   -154.71336    401.01214   -4250.6042 
 9944000    14.903841   -5348.4528   -5318.6433   -5348.4528            0    9078.7704    17.672867    22.621008    18.983158      7589.05    8861.9065    9251.3327     9123.072   -159.05276    39.974512    151.09499   -4313.8185 
 9945000    14.574312   -5348.1417   -5318.9913   -5348.1417            0    9233.2964    17.700976    22.581853    18.984247    7588.3991    9318.7919     9122.823    9258.2743    144.06168   -100.76033    52.733174   -4297.1515 
 9946000    14.562064   -5345.5832   -5316.4573   -5345.5832            0    9747.9308    17.630419    22.627924     18.97739    7570.8354    10031.769    9593.0021    9619.0212    -2.435477   -184.64229    216.03399   -4240.1603 
 9947000    14.524854   -5348.6656   -5319.6141   -5348.6656            0    9206.7882    17.727086     22.60572    18.960344    7598.0459    8299.1355    9567.5622     9753.667   -226.83016    -55.00046    372.13154   -4299.4126 
 9948000    14.928622   -5347.1896   -5317.3305   -5347.1896            0    9579.7424    17.667215    22.681922    18.928127    7584.9999    9937.0686    9195.2578    9606.9007    98.741023    42.365862    229.70873   -4257.6247 
 9949000    15.161261    -5345.116   -5314.7916    -5345.116            0    9840.0166    17.698509    22.515557    19.013638    7576.7787    9825.1399    10009.783    9685.1264    283.68013     197.8974    -11.43566   -4227.4742 
 9950000    14.532404   -5347.6296    -5318.563   -5347.6296            0    9273.9096    17.744294    22.568827    18.957658    7591.9331    8712.2048    9246.5356    9862.9883   -225.82932    124.85166    347.63645   -4291.7506 
 9951000    14.706263   -5348.6843     -5319.27   -5348.6843            0    9497.5695    17.703389    22.584288    18.977095    7587.3924    9580.3354    9307.7243    9604.6488    204.11504     11.50545    91.465115   -4268.3227 
 9952000    14.173987   -5347.1741   -5318.8244   -5347.1741            0    9423.2615    17.714172    22.589357    18.971309    7591.4023    9489.2643    9449.9068    9330.6134   -188.17866    488.23651   -6.3036385   -4275.5486 
 9953000    14.598331   -5347.5386   -5318.3402   -5347.5386            0    9499.6963    17.728201    22.568357    18.951675    7582.4964    9227.3634    9657.7619    9613.9637    11.033208   -300.12098    37.092533   -4267.8359 
 9954000    13.781509    -5345.179   -5317.6142    -5345.179            0    9877.4443    17.708813    22.536029     18.99242    7579.6152    9774.1968     10050.49    9807.6467    369.93667   -92.210019    181.65653   -4225.7525 
 9955000     14.77816   -5348.7758   -5319.2177   -5348.7758            0    9522.2597    17.723337    22.526167    18.995654    7583.8027    9358.9893    9817.0299    9390.7598   -78.315064     -239.197    7.9263248   -4266.0369 
 9956000    14.179519   -5348.3861   -5320.0253   -5348.3861            0    9375.4393    17.711874    22.562855    18.990307    7589.1048    9396.4473     9304.076    9425.7945   -27.895931   -228.03592   -296.07163   -4282.3582 
 9957000    14.662163   -5347.1218   -5317.7956   -5347.1218            0     9534.484    17.681181    22.580589    18.995312    7583.9065    9589.2807    9654.3722    9359.7992     174.3005   -258.88786    546.64172   -4263.2484 
 9958000    15.017598   -5346.1735   -5316.1364   -5346.1735            0    9849.5397    17.705372    22.570945    18.974716    7582.8085    9760.6362    9987.1879    9800.7951   -40.647715    141.15261   -482.33282   -4226.9006 
 9959000    14.423012   -5346.3322   -5317.4844   -5346.3322            0    9536.9894    17.680027    22.603102    18.971773    7581.5656    9059.2247    9658.5971    9893.1465     168.9152    65.663934   -199.06555   -4262.9856 
 9960000    14.691984    -5346.498   -5317.1122    -5346.498            0    9674.5522    17.694814    22.551008    19.005091    7583.7133    9423.7912    9990.5777    9609.2876   -98.797684    176.24674    12.222011   -4247.1001 
 9961000     14.06584   -5347.3726   -5319.2392   -5347.3726            0    9149.2617    17.713682    22.613323    18.960494    7594.9143    9357.8253    8619.0243    9470.9354    151.62397     -435.128     344.0549   -4305.8301 
 9962000    14.289898   -5346.6133   -5318.0317   -5346.6133            0    9328.6618    17.700408    22.572441    18.988099    7586.5318    9296.2922    9401.6688    9288.0244   -427.93047    31.659583    437.87804   -4285.8919 
 9963000    14.099039   -5346.1946   -5317.9948   -5346.1946            0    9443.1982    17.686084    22.641654    18.949803    7588.3009    9467.5765    9296.6045    9565.4137   -17.811216   -27.181713     298.9265   -4272.9389 
 9964000    14.355366   -5348.9755    -5320.263   -5348.9755            0    9352.0354    17.700732     22.59916    18.980959    7592.7949    9792.8342    9145.4159    9117.8563    41.629282    -65.26859    6.2383655   -4284.6829 
 9965000     13.90681   -5348.9027   -5321.0874   -5348.9027            0    9383.7144     17.74127    22.526965    18.989436    7589.2607    9292.7893    9391.2781    9467.0759    122.82745    71.152343   -21.969209    -4282.483 
 9966000    14.649971   -5347.3527   -5318.0509   -5347.3527            0    9572.7881    17.672378    22.588974     18.99332    7582.1505    10044.195    9377.7934    9296.3761   -13.716742   -106.50495   -432.45111   -4259.5122 
 9967000    13.652343   -5348.6178   -5321.3115   -5348.6178            0     9116.662    17.716457    22.553997    19.012693     7597.033    9456.7281     9083.102     8810.156   -240.64771    54.187998   -196.25109   -4311.2315 
 9968000    14.569168   -5346.2006   -5317.0605   -5346.2006            0    9630.9139    17.657992    22.632948    18.983507    7586.8043    9847.9269    9402.3547    9642.4601    371.35957    103.77871    565.11963   -4251.4407 
 9969000    14.201392    -5347.322   -5318.9175    -5347.322            0    9546.8818     17.68918    22.613735    18.964763    7586.2543    10058.587    9300.4379    9281.6209    40.731399     113.5026   -86.875408   -4262.6721 
 9970000    14.135652   -5350.1168   -5321.8438   -5350.1168            0    9052.0088     17.70242    22.597044    18.977871    7591.5725    8911.1676    9078.8379    9166.0207    -108.6433   -217.52479   -330.35478   -4319.6479 
 9971000    14.542807   -5347.3277   -5318.2402   -5347.3277            0    9499.9747    17.746401    22.489123    19.006373    7585.4623    8992.8604    9990.7867     9516.277   -137.07383    238.37865     202.3936   -4267.2943 
 9972000    13.359032   -5346.8012   -5320.0815   -5346.8012            0    9733.4553    17.663161    22.630077    18.963492    7580.0623    9583.9321     10097.12    9519.3144   -148.10583    297.03581    267.23576    -4244.073 
 9973000    13.598206   -5348.7875   -5321.5895   -5348.7875            0    9278.8596    17.679545     22.59327    18.998486     7588.731    9647.7205    9397.9002    8790.9582   -420.36236    65.029269   -371.09024   -4294.6623 
 9974000    14.610146   -5347.7552   -5318.5331   -5347.7552            0     9367.944    17.682179    22.639753    18.958005     7589.272    9425.1088    9268.6365    9410.0867   -1.2002849    69.842896   -103.87028   -4281.6727 
 9975000    14.269022   -5348.0715   -5319.5317   -5348.0715            0    9207.0499    17.705092    22.570791    18.996928    7591.5129     9258.051     9086.468    9276.6306   -263.32716   -5.3452787   -292.64339   -4300.1785 
 9976000    14.481444   -5348.0672   -5319.1026   -5348.0672            0    9402.7002    17.734068    22.543656     18.98546    7590.2109    9222.1895    9800.0412    9185.8699   -110.75095    503.60949   -154.13165   -4278.2665 
 9977000    15.386861   -5346.9686   -5316.1929   -5346.9686            0    9314.3658    17.660139     22.65645    18.977348    7593.1419     9677.858    9017.0699    9248.1695    12.948549   -24.453058    19.331431    -4284.737 
 9978000    14.953245   -5345.6771   -5315.7688   -5345.6771            0    9599.5612    17.746473    22.521636    18.972944    7583.0987    9664.2258    9804.8695    9329.5881    460.68503    121.54351    146.32729   -4254.1368 
 9979000    14.564096   -5345.6877   -5316.5578   -5345.6877            0    9636.5994    17.666445    22.658745    18.948795    7585.1927    9558.6388    9530.3387    9820.8207    166.96416    137.24005   -202.98712   -4250.5354 
 9980000    15.561224    -5346.381   -5315.2566    -5346.381            0    9728.5018    17.698897     22.55614    18.991623    7581.8127    9448.8151    10064.578    9672.1119   -733.66027    314.19678   -373.05967   -4239.5473 
 9981000    14.340963   -5344.5857    -5315.902   -5344.5857            0    9969.0512    17.645067    22.613772    18.989936    7577.3933    9980.8496    9863.9347    10062.369    -201.9377   -19.921193    338.26596    -4214.237 
 9982000    14.326163   -5346.3285   -5317.6745   -5346.3285            0    9558.3757    17.734337    22.545499    18.966586    7583.4002    9299.6478    9659.6152    9715.8641   -96.904998    2.9537595    200.57358   -4260.5553 
 9983000    14.066865   -5346.1539   -5318.0185   -5346.1539            0    9827.4676    17.671857    22.586225    18.981268    7576.1934    9924.1042    9827.4271    9730.8716    98.715493    10.560408   -48.042855   -4232.1716 
 9984000    14.757144   -5346.3927   -5316.8766   -5346.3927            0    9927.4318    17.687039    22.572763    18.984692    7579.5496    9758.8433    9987.7377    10035.714    12.805037    1.8928539    184.38791   -4219.4987 
 9985000    14.027967    -5346.566   -5318.5084    -5346.566            0    9769.2644     17.73282    22.506615    18.995857    7581.3556    9620.7614    9882.1439    9804.8879   -344.52451   -164.71032   -189.87412    -4238.357 
 9986000    14.417109   -5347.6714   -5318.8354   -5347.6714            0    9518.0412    17.658932    22.619262    18.995507    7587.4132    9795.9095    9172.9904    9585.2236    78.013387    5.3108922   -357.73047     -4265.62 
 9987000    14.069607   -5347.6044   -5319.4634   -5347.6044            0    9389.0767    17.706411     22.56092    19.000029    7589.9972    9388.7886    9579.2996    9199.1419   -84.173804    156.08033    557.31085   -4280.1647 
 9988000    14.745903   -5347.6628   -5318.1692   -5347.6628            0    9570.2992    17.700611    22.620026    18.950061    7587.3825    9441.1677    9656.2871    9613.4427    494.48119   -65.874508    664.44413   -4259.1755 
 9989000    14.832084   -5350.6437   -5320.9777   -5350.6437            0    9177.6122    17.711744    22.627937    18.953889     7596.344    9007.3601    8974.0992    9551.3772    218.09738   -97.771403    474.05033    -4304.237 
 9990000    14.979897   -5348.0511   -5318.0895   -5348.0511            0    9423.3447    17.694738    22.658733    18.935297    7591.9244    9375.2739    9276.3906    9618.3696   -317.82852    186.89922    147.11784   -4274.7327 
 9991000    13.916539   -5345.3139   -5317.4791   -5345.3139            0    9723.8746    17.699163    22.542846    18.999958     7580.784    10254.456    9389.3863    9527.7817    239.18774   -277.84001    184.96543   -4242.4274 
 9992000    13.799485   -5344.7318   -5317.1312   -5344.7318            0    9704.7855    17.718817    22.572618      18.9481    7578.4839    9406.2073    10038.052    9670.0971    36.531928    106.44476    101.78655   -4244.5154 
 9993000    15.164626   -5346.3811     -5316.05   -5346.3811            0    9551.8098    17.743575    22.551462    18.960693    7586.9992    9203.3487    9495.1151    9956.9655    9.8548479   -339.10394   -340.18008   -4259.1556 
 9994000    14.576348   -5346.4551   -5317.3006   -5346.4551            0    9402.8727    17.717671    22.548651    19.003065    7591.9066    9243.7978    9637.9796    9326.8406    105.00794    183.42654   -591.20853   -4276.2129 
 9995000    14.763014   -5346.1145   -5316.5866   -5346.1145            0    9548.9621    17.696847     22.59762    18.975435    7588.4023    9517.8496    9511.5766    9617.4602    17.964344     170.9338   -329.38949   -4259.8119 
 9996000    14.145673    -5345.821   -5317.5279    -5345.821            0    9805.3333    17.674119    22.564304    19.003577    7578.7061    10167.568    9750.0649    9498.3667    159.20052   -48.150579    109.95891   -4233.7674 
 9997000    14.172262   -5347.9111   -5319.5648   -5347.9111            0    9090.5937    17.658963    22.671621    18.970908    7595.1419    8813.8844    9335.2677     9122.629   -280.23542    489.30852    368.97513   -4312.6238 
 9998000    14.309114   -5346.3657   -5317.7457   -5346.3657            0    9083.1342    17.692114     22.69109    18.922132    7596.3535    9040.3434    8739.5446    9469.5146   -27.699692    -13.08246    363.78521   -4311.4705 
 9999000    14.318491   -5346.2794   -5317.6406   -5346.2794            0    9601.5736    17.703276    22.599371    18.955419    7583.7389    9444.4635    9597.8192     9762.438    351.52936    -283.1646    335.42332   -4255.6965 
10000000    15.129446   -5347.8466   -5317.5858   -5347.8466            0    9081.0192    17.692824     22.63789    18.955296    7592.1308    8974.5053    8964.8186    9303.7338    237.84346   -196.94499   -49.007402   -4312.1041 
Loop time of 614.628 on 64 procs for 250000 steps with 1008 atoms

Performance: 70.286 ns/day, 0.341 hours/ns, 406.750 timesteps/s
188.5% CPU use with 32 MPI tasks x 2 OpenMP threads

MPI task timing breakdown:
Section |  min time  |  avg time  |  max time  |%varavg| %total
---------------------------------------------------------------
Pair    | 35.622     | 40.451     | 49.236     |  47.4 |  6.58
Bond    | 0.87781    | 1.0915     | 1.5589     |  15.4 |  0.18
Kspace  | 296.58     | 308.77     | 323.17     |  32.0 | 50.24
Neigh   | 0.12598    | 0.13678    | 0.15948    |   2.6 |  0.02
Comm    | 93.686     | 104.72     | 109.18     |  40.2 | 17.04
Output  | 0.74219    | 0.74246    | 0.74423    |   0.0 |  0.12
Modify  | 115.12     | 120.65     | 124.64     |  21.8 | 19.63
Other   |            | 38.06      |            |       |  6.19

Nlocal:        31.5000 ave          34 max          29 min
Histogram: 5 0 3 0 7 0 9 0 4 4
Nghost:        3001.72 ave        3018 max        2989 min
Histogram: 2 5 2 6 5 5 2 1 2 2
Neighs:        10996.8 ave       11903 max       10057 min
Histogram: 5 1 2 0 7 4 5 2 2 4

Total # of neighbors = 351897
Ave neighs/atom = 349.10417
Ave special neighs/atom = 2.0000000
Neighbor list builds = 253
Dangerous builds = 0

unfix		3
unfix		2
unfix		1

write_data	data.final.${pid}
write_data	data.final.1
System init for write_data ...
PPPM initialization ...
  extracting TIP4P info from pair style
  using 12-bit tables for long-range coulomb (../kspace.cpp:340)
  G vector (1/distance) = 0.38047527
  grid = 24 27 32
  stencil order = 5
  estimated absolute RMS force accuracy = 0.0023426168
  estimated relative force accuracy = 7.0547208e-06
  using double precision FFTW3
  3d grid and FFT values/proc = 5355 672
Last active /omp style is kspace_style pppm/tip4p/omp
WARNING: Not all mixed pair coeffs generated from mixing. Use write_data with 'pair ij' option to store all pair coeffs. (../write_data.cpp:312)

write_restart   restart.lmp.${pid}
write_restart   restart.lmp.1
System init for write_restart ...
PPPM initialization ...
  extracting TIP4P info from pair style
  using 12-bit tables for long-range coulomb (../kspace.cpp:340)
  G vector (1/distance) = 0.38047527
  grid = 24 27 32
  stencil order = 5
  estimated absolute RMS force accuracy = 0.0023426168
  estimated relative force accuracy = 7.0547208e-06
  using double precision FFTW3
  3d grid and FFT values/proc = 5355 672
Last active /omp style is kspace_style pppm/tip4p/omp
Total wall time: 0:10:14
