LAMMPS (30 Jul 2021)
  using 1 OpenMP thread(s) per MPI task
package omp 0
using multi-threaded neighbor list subroutines
echo both

include		in.partitions
variable        pid world 0
include		in.temp
variable        temperature equal 247.65
variable	tempDamp equal 100.0
include		in.pressure
variable        pressure equal 5000.0
variable        pressureDamp equal 1000.0 # This is 1 ps
include		in.seed
variable        seed world 745823

units		real
atom_style	full
read_restart    restart.lmp.${pid}
read_restart    restart.lmp.0
Reading restart file ...
  restart file = 30 Jul 2021, LAMMPS = 30 Jul 2021
  restoring atom style full from restart
  triclinic box = (-3.2746776 -0.25107373 0.0019095126) to (14.884677 22.831073 19.228088) with tilt (0.30193661 -6.6557140 -0.15847573)
  4 by 4 by 4 MPI processor grid
  restoring pair style lj/cut/tip4p/long/omp from restart
  restoring bond style harmonic/omp from restart
  restoring angle style harmonic/omp from restart
  1008 atoms
  672 bonds
  336 angles
Finding 1-2 1-3 1-4 neighbors ...
  special bond factors lj:    0        0        0       
  special bond factors coul:  0        0        0       
     2 = max # of 1-2 neighbors
     1 = max # of 1-3 neighbors
     1 = max # of 1-4 neighbors
     2 = max # of special neighbors
  special bonds CPU = 0.080 seconds
  read_restart CPU = 0.267 seconds

include 	in.setup
variable	out_freq equal 1000
variable	out_freq2 equal 10000
variable	out_freq3 equal 1000

timestep	2.0

neigh_modify    delay 7 every 1

include		in.tip4p
# This is TIP4P/Ice

# create groups ###
group ox type 2
336 atoms in group ox
group hy type 1
672 atoms in group hy

# set charges - beside manually ###
set group ox charge -1.1794
Setting atom values ...
  336 settings made for charge
set group hy charge 0.5897
Setting atom values ...
  672 settings made for charge

# ### TIP3P Potential Parameters ###
pair_style lj/cut/tip4p/long/omp 2 1 1 1 0.1577 8.5
pair_coeff 1 1*2 0.000 0.000
pair_coeff 2 2 0.21084 3.1668
bond_style  harmonic
bond_coeff  1 450 0.9572
angle_style harmonic
angle_coeff 1 55 104.52
kspace_style pppm/tip4p/omp 1.0e-5
pair_modify tail yes

thermo          ${out_freq}
thermo          1000
thermo_style    custom step temp pe etotal epair emol press lx ly lz vol pxx pyy pzz pxy pxz pyz enthalpy

restart 	${out_freq3} restart.lmp.${pid} restart2.lmp.${pid}
restart 	1000 restart.lmp.${pid} restart2.lmp.${pid}
restart 	1000 restart.lmp.0 restart2.lmp.${pid}
restart 	1000 restart.lmp.0 restart2.lmp.0


include         in.dump
dump            myDump all atom ${out_freq2} dump.water.${pid}
dump            myDump all atom 10000 dump.water.${pid}
dump            myDump all atom 10000 dump.water.0
dump            myDump2 all dcd ${out_freq2} dump.dcd
dump            myDump2 all dcd 10000 dump.dcd
dump_modify     myDump append yes
dump_modify     myDump2 append yes


variable natoms 	equal  "count(all)"                        # NUMBER ATOMS
variable H      	equal  "enthalpy/v_natoms"                 # ENTHALPY-per-atom
variable Vol      	equal  "vol/v_natoms"                 # volume-per-atom
fix AVG all 		ave/time ${out_freq} 1 ${out_freq} v_Vol v_H file vol_enthalpy.dat
fix AVG all 		ave/time 1000 1 ${out_freq} v_Vol v_H file vol_enthalpy.dat
fix AVG all 		ave/time 1000 1 1000 v_Vol v_H file vol_enthalpy.dat



fix 		1 all shake 1e-6 200 0 b 1 a 1
       0 = # of size 2 clusters
       0 = # of size 3 clusters
       0 = # of size 4 clusters
     336 = # of frozen angles
  find clusters CPU = 0.068 seconds
fix             2 all nph tri ${pressure} ${pressure} ${pressureDamp}
fix             2 all nph tri 5000 ${pressure} ${pressureDamp}
fix             2 all nph tri 5000 5000 ${pressureDamp}
fix             2 all nph tri 5000 5000 1000
fix             3 all temp/csvr ${temperature} ${temperature} ${tempDamp} ${seed}
fix             3 all temp/csvr 247.65 ${temperature} ${tempDamp} ${seed}
fix             3 all temp/csvr 247.65 247.65 ${tempDamp} ${seed}
fix             3 all temp/csvr 247.65 247.65 100 ${seed}
fix             3 all temp/csvr 247.65 247.65 100 745823


run             250000
PPPM initialization ...
  extracting TIP4P info from pair style
  using 12-bit tables for long-range coulomb (../kspace.cpp:340)
  G vector (1/distance) = 0.38219859
  grid = 24 30 32
  stencil order = 5
  estimated absolute RMS force accuracy = 0.0020678133
  estimated relative force accuracy = 6.2271583e-06
  using double precision FFTW3
  3d grid and FFT values/proc = 4080 384
Last active /omp style is kspace_style pppm/tip4p/omp
Neighbor list info ...
  update every 1 steps, delay 7 steps, check yes
  max neighbors/atom: 2000, page size: 100000
  master list distance cutoff = 10.8154
  ghost atom cutoff = 10.8154
  binsize = 5.4077, bins = 5 5 4
  1 neighbor lists, perpetual/occasional/extra = 1 0 0
  (1) pair lj/cut/tip4p/long/omp, perpetual
      attributes: half, newton on, omp
      pair build: half/bin/newton/tri/omp
      stencil: half/bin/3d/tri
      bin: standard
Per MPI rank memory allocation (min/avg/max) = 9.341 | 9.345 | 9.348 Mbytes
Step Temp PotEng TotEng E_pair E_mol Press Lx Ly Lz Volume Pxx Pyy Pzz Pxy Pxz Pyz Enthalpy 
 8250000    261.81398   -4842.5716   -4318.9113   -4842.5716            0    4905.2297    18.159354    23.082146    19.226179     8058.785    5872.8033    3943.3161    4899.5697   -1812.3764   -71.982485    1671.4877    -3742.404 
 8251000    240.67838   -4840.1022   -4358.7158   -4840.1022            0    3994.2928    18.033898    23.056435    19.458728    8090.8887    5988.9533     3346.915    2647.0102   -361.83824    1059.4741   -239.99423   -3887.3999 
 8252000     248.1448   -4838.7644   -4342.4441   -4838.7644            0    3760.0093    18.167332    23.052991    19.407112    8127.9185    3541.3451    4245.9261    3492.7567   -1364.3018    41.012426   -619.57671   -3896.7426 
 8253000    242.03999   -4845.3512   -4361.2414   -4845.3512            0    3654.0489    18.184791     22.78895    19.472746    8069.7454    3999.0215    3933.6233     3029.502   -526.69197    -904.9696   -85.669981   -3931.2002 
 8254000     244.9846   -4878.5304   -4388.5309   -4878.5304            0    4516.8896    18.179709    22.731404    19.515187    8064.6569    6095.3483    3398.0562    4057.2642   -1227.6529   -897.28226    807.02921   -3857.2781 
 8255000    247.88679   -4847.4746   -4351.6703   -4847.4746            0    4704.9455    18.233371    22.774846    19.462027    8081.8443    3396.4388    5444.8016     5273.596   -1045.3252    523.59455   -574.13223     -3797.12 
 8256000    251.85763   -4839.9063   -4336.1599   -4839.9063            0    5631.5097    18.124758    22.840289    19.521201    8081.2837    6219.4677    6000.9744     4674.087   -118.30731    1316.6964     528.8292   -3672.4458 
 8257000    249.79089   -4853.9688   -4354.3561   -4853.9688            0    5516.3062    18.160146    22.837902    19.421517    8054.8729    4805.8264    5412.4917    6330.6006   -151.64326   -648.00208    1233.3927   -3706.3443 
 8258000    245.92102   -4845.1992   -4353.3268   -4845.1992            0    2886.4639    18.015227    23.092893    19.523343    8122.1737    4467.9388    1987.2563    2204.1966   -790.85664    23.610007    1401.8106   -4011.4149 
 8259000    255.36691   -4837.0712   -4326.3058   -4837.0712            0    5027.3466    18.127485    23.035946    19.321059    8068.1606    4110.8247    6217.4959    4753.7194    444.96695    1302.2525    778.43415   -3734.7588 
 8260000    254.74759   -4853.3352   -4343.8086   -4853.3352            0    5139.0347     17.89914     23.05121    19.491762    8042.2391    7057.9993    3873.8117    4485.2932   -394.32838   -477.49579    1247.4263   -3741.0625 
 8261000    243.96717   -4843.1669   -4355.2024   -4843.1669            0    5451.6608    18.169537    22.887284    19.372322    8056.0059    6110.7592    5462.7304    4781.4929    503.25953    368.95408    1128.1688   -3714.6945 
 8262000    257.43764   -4821.9158   -4307.0087   -4821.9158            0    5459.0443    18.081289    22.820606    19.558179    8070.2128    4639.3444    6136.5958    5601.1926    338.09579   -461.71952    1371.1426   -3664.5023 
 8263000    259.83888   -4829.9719    -4310.262   -4829.9719            0    4298.1339    18.332697    23.009719    19.228065    8110.9785    3520.4293    3257.0097    6116.9626    883.39571    1186.5471    2263.0072   -3801.8344 
 8264000    256.04538   -4870.9893   -4358.8669   -4870.9893            0    4162.1214    17.967415    22.905171    19.551644    8046.4149    4709.0252    4148.6015    3628.7376   -1471.1883    1468.0431    1062.9371   -3870.4474 
 8265000    240.80864   -4828.4205   -4346.7735   -4828.4205            0    4767.0244    18.317687    23.016943    19.178191    8085.8542    4249.4761    4553.4865    5498.1107    635.46269     230.6912    2876.2115   -3784.6274 
 8266000    243.37182   -4829.8875   -4343.1138   -4829.8875            0    5661.6235    17.888787    22.973335    19.543266    8031.6004    6790.1016    5792.3545    4402.4144     -875.256    -137.0861   -907.74426   -3679.9528 
 8267000    250.96204   -4851.4842   -4349.5291   -4851.4842            0    3246.0138    18.185049    23.246498    19.183742    8109.7103    1143.1722    3514.3554    5080.5137    849.64184   -620.34648   -721.29472   -3965.6172 
 8268000    240.64354   -4858.9055   -4377.5887   -4858.9055            0    5006.5699    18.005489    23.118786    19.312547    8039.1386    5423.9342      4535.71    5060.0655   -52.823713   -700.28381   -530.88813   -3790.6054 
 8269000    250.83895   -4852.4404   -4350.7315   -4852.4404            0    4687.9519    17.989032    22.947522    19.430577    8021.0139    6761.5974    3696.4824     3605.776   -150.56225    187.34415    1490.7897    -3802.343 
 8270000    234.85061   -4828.4507   -4358.7205   -4828.4507            0    4419.0599    18.207138    22.957968     19.34801    8087.4464    5398.9023    3326.9767    4531.3006    1380.5336   -165.02132   -490.97435   -3837.5051 
 8271000    245.00732   -4868.9493   -4378.9044   -4868.9493            0    4574.5936    18.016902    22.826713    19.597594    8059.8367    6969.5806    4453.8377    2300.3625    239.63107   -494.00439    960.77195   -3841.1863 
 8272000    251.56691   -4848.3446   -4345.1797   -4848.3446            0    4838.0847    18.161506    22.864955    19.369918    8043.5911    4533.4263    4939.0546    5041.7734   -1076.2471   -491.51598   -2061.3987    -3777.636 
 8273000    247.87255   -4876.4257     -4380.65   -4876.4257            0     4760.781    17.951484    22.978284    19.495885    8041.9414    5615.6279    3953.6799    4713.0353    1159.8175   -441.71565   -876.05919   -3822.2891 
 8274000    264.34006   -4833.5346   -4304.8219   -4833.5346            0    5600.2809    18.092005      23.0344    19.330163    8055.6227    4716.5759    5588.6215    6495.6452   -960.52071    204.29979   -654.22256   -3646.8841 
 8275000     253.0418    -4828.402   -4322.2871    -4828.402            0    5292.1521    17.993409    23.295059    19.199102    8047.4482     5028.128    4190.6868    6657.6415     24.03777    227.24482    71.466029   -3701.1801 
 8276000     261.4285    -4857.465   -4334.5757    -4857.465            0    4092.2891    17.994041     23.12828    19.437376    8089.2765    6115.7506     3135.097    3026.0199    842.61925   -423.33917    576.28207   -3851.7928 
 8277000    254.63443   -4826.7738   -4317.4735   -4826.7738            0    4885.2771    18.174625    22.936816    19.340929    8062.6149    4914.7948    4020.4945    5720.5419   -224.36574   -452.69967    1094.6651   -3743.0384 
 8278000    244.81018    -4856.566   -4366.9154    -4856.566            0     5188.833    18.101666     22.69091     19.62707    8061.6871    5492.4516    5865.1508    4208.8966   -1155.8445    1173.3483    -2553.103   -3756.8568 
 8279000    258.34383   -4863.1142   -4346.3946   -4863.1142            0    6440.3339    18.289863    22.620862      19.3151    7991.2839    5499.3692    5834.3061    7987.3265    332.68673   -1043.0353   -665.38208   -3595.8079 
 8280000    256.09281   -4841.9733   -4329.7561   -4841.9733            0    4653.3586     18.20774    22.731959    19.541267    8088.0837    4780.0027    4154.1253    5025.9478   -474.52648    347.58784   -2568.7519   -3780.8626 
 8281000    263.67701   -4844.0935   -4316.7069   -4844.0935            0    4285.9994    18.358502    22.621492    19.521651     8107.277    2999.3887    5089.7311    4768.8783    404.83274    307.00938   -214.47346   -3809.9461 
 8282000    257.51041    -4843.648   -4328.5953    -4843.648            0    6188.4303    18.058096     22.64058    19.556895    7995.7535    7171.5901    6352.3017    5041.3991   -117.04651   -967.21994    704.75057   -3606.9633 
 8283000    249.67719   -4855.5348   -4356.1495   -4855.5348            0    2984.0108    18.355309     22.70414    19.461476     8110.405    1773.6547    3460.3007    3718.0769   -778.31832   -1042.4328    -1455.897    -4003.195 
 8284000    244.91666   -4867.7956    -4377.932   -4867.7956            0    6219.3319    18.183296    22.497544    19.561341    8002.1439    5616.4657     6792.401    6249.1289    1081.0429    1247.2995    1691.9807   -3652.1169 
 8285000    241.79758   -4869.9829   -4386.3578   -4869.9829            0    5500.1161    18.073669    22.807418    19.512214    8043.2022    5588.1124     6280.091    4632.1449    341.49592    94.467666      272.483    -3741.184 
 8286000    241.50185   -4864.6843   -4381.6507   -4864.6843            0    6213.6659    18.289625    22.738658    19.305267    8028.7038    7628.5979    5749.6007    5262.7993    131.57266   -573.58281   -251.70388     -3654.09 
 8287000    251.41168   -4842.3235   -4339.4691   -4842.3235            0    3779.1523    18.028764    22.840339    19.582143    8063.5954    3596.7699    4742.4503    2998.2368   -260.22507   -630.02076   -877.14237   -3895.0436 
 8288000    243.71732   -4844.1945   -4356.7298   -4844.1945            0     2119.889    18.239466     22.93154    19.475644    8145.8646   -413.14745    3073.2896    3699.5249   -1085.7288    185.94495   -1039.4963   -4104.8889 
 8289000    240.75357   -4840.5081   -4358.9713   -4840.5081            0    4517.1446    17.920298    23.050616    19.471388    8043.1227    4391.7882    4565.2016    4594.4439     562.7991    118.27787    936.92502   -3829.1071 
 8290000    248.51758   -4841.9444   -4344.8785   -4841.9444            0    4281.2571    18.205979    23.041407    19.321432    8105.1739    3453.7367    3713.9942    5676.0404    1040.5796    558.68201   -169.26141   -3838.8098 
 8291000    251.59337   -4855.3088    -4352.091   -4855.3088            0    5361.5222    18.109768    22.904969    19.392102    8043.9151    6114.2385    4509.3906    5460.9374    1176.3926    608.45701    1464.2515   -3723.1187 
 8292000    250.03319   -4848.3991   -4348.3018   -4848.3991            0    8317.9958    18.040184    22.884518    19.305955    7970.2883    6873.5764    9052.6987    9027.7124    1024.7714   -322.75386   -435.13114   -3381.4306 
 8293000    252.60652   -4836.2435   -4330.9993   -4836.2435            0    4769.0421    18.161517    22.806826    19.492344    8073.8566    6174.3526    4963.6449    3169.1288   -102.15801    -1334.533   -230.65508   -3769.4497 
 8294000    239.69454   -4855.9482   -4376.5295   -4855.9482            0    4889.8594    18.090075    22.867777    19.442451    8042.9496    5456.3654    4737.7194    4475.4933    -493.5943    752.22883    -826.4341   -3802.9579 
 8295000    243.06368   -4872.2051   -4386.0477   -4872.2051            0    4455.6911    18.300375    22.704391    19.389672    8056.3869    5129.2002    4751.0404    3486.8328    1202.0067    219.94503    996.90774   -3862.5301 
 8296000    249.17384   -4867.8885     -4369.51   -4867.8885            0    5288.6705    18.209013    22.717027     19.48858     8061.542    6027.9654    4973.2216    4864.8246    267.47451   -1166.2793   -256.72596   -3747.7246 
 8297000    249.03999   -4856.7496   -4358.6389   -4856.7496            0    4347.6261    18.216809    22.656047    19.518548     8055.712    5114.1192    4512.4205    3416.3386    374.15374   -939.86078    338.46534   -3847.8611 
 8298000    249.13138   -4871.9346   -4373.6411   -4871.9346            0     5580.675    18.194936    22.702064    19.505856    8057.1394    5601.4302    5693.5461    5447.0488   -765.08734    475.19967   -124.88792   -3717.8832 
 8299000    252.99059   -4843.7927   -4337.7803   -4843.7927            0    4887.3913    18.084923    22.937428    19.434563     8061.877    5413.0731    5276.4635    3972.6372    762.50554   -545.07737   -1094.2429   -3763.1492 
 8300000     232.7924   -4838.9947   -4373.3811   -4838.9947            0    4637.4397    18.041164    23.016497    19.515087      8103.53    4293.7823    4907.5974    4710.9395   -1456.5124    89.533131   -1101.7577   -3825.3207 
 8301000     264.0032   -4816.5404   -4288.5014   -4816.5404            0    5768.4235    18.193569    23.081269    19.223368    8072.4816    5521.8109    4448.8648    7334.5949    386.85809    869.63306   -168.34597   -3609.3915 
 8302000    246.98899     -4863.46   -4369.4515     -4863.46            0    5739.2415    18.038508    23.047001    19.235729    7996.9374    5412.8357    5204.5564    6600.3324   -717.77063   -330.07858    297.57161   -3700.1002 
 8303000    247.00692   -4873.9805   -4379.9361   -4873.9805            0    5899.5779    17.839824    23.019587    19.443595    7984.8114     6941.952    6223.8589    4532.9228   -1245.8139    -1052.778    1313.9672   -3692.9286 
 8304000    252.44108   -4822.6591   -4317.7458   -4822.6591            0    3612.3427    18.136855    23.244846    19.250496    8115.7858    3711.1586     2732.092    4393.7775    47.874314   -1505.7478    529.95476   -3890.1874 
 8305000    262.37045   -4858.1747   -4333.4014   -4858.1747            0    5498.1664    17.864121    23.181558    19.379165    8025.2641    7249.8758    4412.1219    4832.5015   -1097.5039   -1778.4287   -126.15069   -3689.8947 
 8306000    259.31332   -4826.7668   -4308.1081   -4826.7668            0    5989.4952    18.122915    23.124309    19.281949    8080.6772    6510.9226    5723.3667    5734.1962    1890.3117    1428.1954     46.18907   -3602.2558 
 8307000    236.95996   -4857.3472    -4383.398   -4857.3472            0    3291.3858    18.022534    23.269609    19.298117    8093.1925     2982.294    3362.3466    3529.5166    131.87608   -312.53668    -913.5911   -3994.9128 
 8308000    251.59971   -4849.6769   -4346.4464   -4849.6769            0    4159.3009    18.033947    23.181443    19.318435    8076.1279    2378.3159    4524.5495    5575.0373    757.35805    980.81288   -12.533827   -3856.5555 
 8309000    249.58254   -4850.8498   -4351.6539   -4850.8498            0    5167.5269    17.944925    23.092108    19.378805    8030.3086    6319.6322     4051.147    5131.8016   -442.88071   -974.43381    9.9126785   -3746.4651 
 8310000    244.84206   -4840.4484    -4350.734   -4840.4484            0    6065.3032    17.990183    22.953378    19.394135    8008.5263    6090.8155    6185.0172    5920.0768    31.852585    -477.9019   -1884.0167     -3642.33 
 8311000    256.69204   -4847.8964   -4334.4806   -4847.8964            0    2917.7368    18.104313     23.10854    19.449757    8137.0826    2991.1953    3215.4176    2546.5975    32.067201    72.155557   -940.96825   -3988.2298 
 8312000    259.51726   -4822.5976    -4303.531   -4822.5976            0    5010.1462    18.077701    23.008309    19.443826    8087.4132    5494.4922    4802.2282    4733.7182     974.4343   -214.79842    554.23017   -3712.6012 
 8313000    258.47897   -4841.6818   -4324.6919   -4841.6818            0    5601.6789    18.193053    22.940055    19.322578    8064.2711    6077.5055    5510.2155    5217.3156   -834.92023      815.311    468.12039   -3665.8834 
 8314000    233.84792   -4831.1494   -4363.4247   -4831.1494            0    3802.5156    18.178738     22.91497    19.507645    8126.2069    5275.9403    2874.7146     3256.892   -630.76729   -246.86545    1215.1489   -3912.7794 
 8315000    239.55675   -4857.7533   -4378.6102   -4857.7533            0     5528.853    18.050134    22.834666    19.504393    8039.1021    5020.7903    6680.8874    4884.8812   -853.82178   -702.14732   -745.38425   -3730.3961 
 8316000    250.16815   -4816.3048   -4315.9376   -4816.3048            0    5123.4574    18.162735    22.848992      19.4356    8065.7776    4086.5501    5131.6158    6152.2063    729.59438   -2704.2011    1192.0502   -3713.2597 
 8317000    244.59096   -4855.7367   -4366.5246   -4855.7367            0    4097.3429    18.224685    22.778008    19.490141     8090.787    5277.8448    3828.0998     3186.084    5.3213807   -1126.1928       158.99   -3883.0552 
 8318000    254.99464   -4856.3254   -4346.3047   -4856.3254            0    5680.6461    18.194377    22.746604    19.352183    8009.0998     5937.385    6070.6687    5033.8847    196.41786    681.54964   -208.30683   -3682.7796 
 8319000    236.21101   -4863.4795   -4391.0283   -4863.4795            0    4850.0987    18.112298     22.76154    19.552271    8060.6937    4483.6937    6085.0028    3981.5995    -155.5308   -89.843409       223.47   -3820.8655 
 8320000     252.3134   -4841.8228   -4337.1648   -4841.8228            0    4447.3271    18.211315    22.937275    19.388368    8098.8693    4927.2693    4775.9687    3638.7433   -1249.5662     102.1017   -206.44764   -3811.8746 
 8321000    246.88813   -4841.2845   -4347.4778   -4841.2845            0    5282.9499    18.051357    22.836096    19.502751    8039.4734    5880.2511     5288.729    4679.8698   -400.23903   -1253.7118    -1973.449   -3728.0653 
 8322000    263.55226   -4818.5733   -4291.4363   -4818.5733            0    3286.7771    18.128049     22.75753    19.673196    8116.1696    3919.6315    3765.0209    2175.6788    83.335744   -1619.0635    1586.3482   -3902.3936 
 8323000    244.92149   -4871.9076   -4382.0344   -4871.9076            0    6875.3201    18.257896    22.612142    19.332908    7981.5937    5193.2515    8160.2476    7272.4612    982.18325   -145.74243    564.36857    -3581.724 
 8324000    235.80579   -4865.5047   -4393.8639   -4865.5047            0     5153.182    18.172337    22.591897    19.617727      8054.01    6655.6097    5069.2371    3734.6993   -1175.1793    285.28233    1557.8652   -3788.5739 
 8325000    238.49691   -4843.0367   -4366.0134   -4843.0367            0    3364.3639    18.408848    22.753211    19.428628    8137.8831    1932.2056    4556.7883    3604.0977   -160.37171    1250.4503   -294.38762   -3966.7217 
 8326000    242.91171   -4832.2906   -4346.4372   -4832.2906            0    5314.4726    18.100867    22.889855    19.481645    8071.7565    6247.5643    6396.9323    3298.9211   -1091.0902    1518.0341    1334.8376   -3720.8266 
 8327000     229.1052   -4861.5456   -4403.3069   -4861.5456            0     5092.924    18.105761    22.904909    19.386951    8039.9781    3548.2296    5369.6549    6360.8876    76.714538   -407.36169   -1866.0001   -3806.1369 
 8328000     255.9908   -4814.3331   -4302.3199   -4814.3331            0    6149.9198    18.102372    22.931897    19.384652    8046.9904    5368.4889    6600.2259    6481.0445    -72.28695    162.41693    1362.4856   -3580.5832 
 8329000    251.83236   -4877.3596   -4373.6637   -4877.3596            0    4272.0677    18.105519    22.799698    19.584063     8084.308    4980.5798    3468.6966    4366.9268   -879.79215   -1616.6524   -1027.1179   -3869.9812 
 8330000     250.3151   -4816.5942   -4315.9331   -4816.5942            0    6357.4239    18.122144    22.775663    19.476772     8038.918    6555.1286    7104.6431    5412.5001     516.4855   -209.94396    1949.0073   -3570.5927 
 8331000    252.96104   -4853.4485   -4347.4952   -4853.4485            0    3766.6469    18.186859     22.89087    19.467376    8104.5226    3834.7667    3052.9745    4412.1994   -1907.1917   -11.297686    -1233.188   -3902.2921 
 8332000    252.84952   -4884.4509   -4378.7206   -4884.4509            0    4460.5886    18.247766    22.830578    19.328386    8052.3415    3606.2092    4791.0687     4984.488   -262.10204    710.33399    415.62179   -3854.8908 
 8333000     258.5385    -4854.651   -4337.5421    -4854.651            0    5276.5047    18.036661    22.890979    19.560515    8076.0836    5538.1383    4798.4095    5492.9662   -470.81671   -188.05769   -147.60448    -3716.068 
 8334000    260.20302   -4835.4744   -4315.0362   -4835.4744            0    4260.5829    18.263025    22.874186    19.394562    8102.1137    2971.3288    4404.4164    5406.0036   -1146.9802   -1551.4557    2395.2711   -3811.6014 
 8335000    251.79639    -4869.559   -4365.9351    -4869.559            0    5551.8339    17.963013    22.973417    19.389541    8001.5166    6588.5815     4978.054    5088.8661   -962.73655   -1251.2026   -814.89729   -3718.0699 
 8336000    250.32432   -4860.0162   -4359.3366   -4860.0162            0    5269.6853    18.043986    23.010885     19.35565    8036.6225    5311.2426    5626.8973    4870.9161   -701.85671    -340.3777    1543.7867   -3741.6984 
 8337000    242.93113   -4847.7841   -4361.8918   -4847.7841            0    6142.1922    18.052381    23.017916    19.308528    8023.2374    6139.4089    5863.3576      6423.81   -2255.3831    143.95684   -983.46921   -3643.1897 
 8338000    241.52423   -4846.0753    -4362.997   -4846.0753            0    4748.8144    18.138494    22.916342    19.469067    8092.6667    5491.9768     4758.053    3996.4135    354.25544    579.12627   -596.57248   -3802.5266 
 8339000     238.7215   -4870.8413   -4393.3688   -4870.8413            0    4394.2336    18.408405    22.395441    19.509155    8042.9293    2836.2222    5543.6941    4802.7844   -55.559232     -535.258   -370.21019   -3877.9346 
 8340000    237.82141   -4834.0783    -4358.406   -4834.0783            0    7136.4922    18.039641    22.647741    19.653818    8029.7076    7175.4702     7317.475    6916.5315   -467.37767   -469.92884    520.94911   -3522.6868 
 8341000    237.71378   -4842.2688   -4366.8119   -4842.2688            0    4341.0073    18.296718    22.759756    19.441753    8096.1067    3856.0566    5477.9742    3688.9912   -952.21054   -709.61835    588.52808   -3854.2543 
 8342000    251.72368     -4865.43   -4361.9515     -4865.43            0      6247.96    18.057063    22.844569    19.458653    8026.8076     5727.912    7585.2656    5430.7024    402.22094    502.29905    395.78292   -3630.5481 
 8343000    257.56959     -4843.55    -4328.379     -4843.55            0    3210.7243    18.347063    22.938277    19.312397    8127.6224    3142.6012    2575.4035    3914.1682    818.80253    154.72352    161.40757   -3947.8021 
 8344000    248.37817   -4853.1939   -4356.4069   -4853.1939            0    6628.2387    17.905203    22.815402    19.624631    8016.9445    7623.4973    6252.5332    6008.6854    138.50855   -226.17183   -1195.7729   -3581.4405 
 8345000    237.63155   -4871.8174    -4396.525   -4871.8174            0    5102.8059    18.106175    23.012729    19.284823    8035.4552    4301.5477    5603.2258     5403.644   -136.97597   -481.54119   -53.613647   -3798.5329 
 8346000    246.70489    -4837.039   -4343.5987    -4837.039            0    5016.6232    17.968159    23.131716    19.391516      8059.78    6365.7793    4028.7016    4655.3887   -815.70816   -1108.2323   -307.03726   -3753.9266 
 8347000    247.96499   -4854.3859   -4358.4253   -4854.3859            0      4812.01    18.028724     23.08609    19.370704    8062.3339    6142.1254    4059.8153    4234.0894    875.54828   -963.54996   -295.56584   -3792.6249 
 8348000    240.09655   -4841.8812   -4361.6584   -4841.8812            0    4875.1865     18.12602    22.895618    19.492009     8089.309    4610.7685    5793.9432    4220.8476   -1.0487508   -78.284093   -123.84551   -3786.5118 
 8349000    248.23249   -4859.4388   -4362.9431   -4859.4388            0     5626.114    18.255875    22.817078    19.277978    8030.1594    3988.1474    6968.6322    5921.5624   -237.09516    700.24631    179.62838   -3704.0597 
 8350000    249.32096   -4860.2149   -4361.5422   -4860.2149            0    4794.0032    18.057862    22.954067    19.479191    8074.1512    4895.7868     4056.114    5430.1087    379.98371    369.84318    2557.2079   -3797.0329 
 8351000    230.46015   -4857.5349   -4396.5861   -4857.5349            0    4994.6046    18.128657     22.96397    19.305896    8037.1593    4068.4474    4366.8525    6548.5141    1049.7168   -486.26004   -358.51688   -3811.1499 
 8352000    245.43699   -4845.2315   -4354.3272   -4845.2315            0    4470.6632    18.097938    22.835068    19.538936    8074.8102    5068.8552    3675.5638    4667.5707    140.57472   -431.23042   -1212.1803   -3827.8492 
 8353000    256.15373   -4840.8135   -4328.4744   -4840.8135            0    5933.0036    18.153752    22.726033    19.433166    8017.4005    6556.6424    7104.4169    4137.9514   -539.09458     93.85334    869.19085   -3634.7546 
 8354000    254.99585   -4840.8007   -4330.7775   -4840.8007            0    5202.4384    18.111113    22.676945     19.60203    8050.6461    5299.6917    6253.4554    4054.1682    393.62465    23.907479    1973.0813    -3719.957 
 8355000    252.95357    -4816.687   -4310.7486    -4816.687            0    4909.0212    18.330319    22.712664    19.372595    8065.3995    3905.5803    5850.3772    4971.1061    692.66608   -359.12981    1390.2625   -3733.3221 
 8356000    234.78874   -4859.4189   -4389.8125   -4859.4189            0    3478.7966    18.139823    22.882522    19.650701    8156.7091    4359.0174    2768.0058    3309.3666    159.78271    993.26629    259.00664   -3975.9844 
 8357000      252.314   -4844.2274   -4339.5682   -4844.2274            0    6604.0862    18.200986     22.73358    19.375008    8016.8661    6013.7925    4880.7604    8917.7059    1627.1485   -121.33371   -357.67521   -3567.4332 
 8358000    258.19138   -4858.3417    -4341.927   -4858.3417            0    3643.7557    18.177501    22.780857    19.544257    8093.2582    4206.4209    3925.0698    2799.7764    675.81236   -295.25558   -1977.2235   -3911.8477 
 8359000    246.94394    -4856.157   -4362.2386    -4856.157            0    4120.9514     18.23555    22.863427    19.417772    8095.7966     3797.712    4412.7008    4152.4414    588.18629   -799.89286   -1488.2483   -3875.6824 
 8360000    250.61048   -4829.2126   -4327.9606   -4829.2126            0    5088.7186    17.917928    22.922521    19.605321    8052.3778    7504.4188    4355.9568    3405.7802    862.88812   -1278.6689    1608.4695   -3730.3636 
 8361000    266.20603   -4847.0093   -4314.5643   -4847.0093            0    4420.1899    18.182449    22.982678    19.304358    8066.9318    2526.5207    4268.6951     6465.354    363.89666   -1062.5336   -1157.1868   -3794.5382 
 8362000    243.21129   -4835.3813   -4348.9287   -4835.3813            0    4925.2843    18.132266    23.014902    19.408163    8099.2656    5866.9873    4769.4366    4139.4291    1671.1934    1271.1274    509.70091   -3767.1567 
 8363000     244.2487   -4857.1497   -4368.6222   -4857.1497            0    5365.1365    17.955041    22.960745    19.415397     8004.213    4402.5723    6579.8093    5113.0279   -449.38611   -12.352783   -795.91089   -3742.3324 
 8364000    255.46464   -4844.4253   -4333.4645   -4844.4253            0    4221.6715    18.082378    23.208729    19.317377    8106.9044    3632.3075    4698.6604    4334.0466   -684.53495    118.00048   -816.75135   -3834.3325 
 8365000    239.37873   -4837.6566   -4358.8696   -4837.6566            0    4422.5265    18.068424      23.1348    19.373641    8098.3634    5696.6576    4197.2025    3373.7194     712.7775   -136.81603    662.84056   -3836.5412 
 8366000    254.55802    -4889.431   -4380.2835    -4889.431            0    4515.8035    18.003497    23.019098    19.445097    8058.5198    3837.1509    4924.3471    4785.9125   -87.072836    -238.8111    882.78978   -3849.5626 
 8367000    227.92712    -4850.027   -4394.1446    -4850.027            0    3295.5638    18.212393    23.150692    19.266825    8123.4617    4201.6966    2201.2614    3483.7334    267.80355    144.88167    502.07015   -4003.7114 
 8368000    231.46944   -4838.7067   -4375.7392   -4838.7067            0    4221.7707    18.050509    23.033348      19.4249    8076.1676    4815.3872    3855.7343    3994.1905   -956.40783   -884.58516   -447.94457    -3878.488 
 8369000    249.66423   -4880.4052   -4381.0459   -4880.4052            0    3589.3046     18.00848    23.100652     19.41354    8076.1811    5617.1768    2009.6717    3141.0654   -673.40936   -1830.6709    1591.7831   -3958.2875 
 8370000    245.08863   -4848.7335    -4358.526   -4848.7335            0    4868.7611     18.28605    23.022365    19.201869    8083.7592    2595.4921    4684.3877    7326.4036   -770.52296   -431.74197    218.88767   -3784.5315 
 8371000    243.73082   -4863.3662   -4375.8745   -4863.3662            0    2152.3528    18.042206    22.845913    19.753555    8142.2306    3127.7845    2783.3097    545.96425   -1055.1536    437.92515    2065.6862    -4120.291 
 8372000    243.38263   -4811.9638   -4325.1685   -4811.9638            0    5566.1506     18.28809    22.954561    19.227019    8071.4083    6247.2269    5212.3825    5238.8423   -2148.8955     -489.535    709.53004    -3669.959 
 8373000    234.79002   -4824.0137   -4354.4046   -4824.0137            0    5968.2706    18.044356    22.863654    19.463814    8029.9894    6181.3303    6724.2877    4999.1938   -833.36537    467.41531   -635.99042   -3655.4655 
 8374000    264.21314   -4869.7524   -4341.2935   -4869.7524            0    5339.0371     18.09797    22.938087    19.346806     8031.494    7784.7322    4021.3649    4211.0142    1157.8873   -1721.4091    1381.7073   -3715.9262 
 8375000    249.79601   -4823.4947   -4323.8718   -4823.4947            0    5277.5502     18.03493    22.879726    19.453867    8027.3319    6344.1566    4447.3857    5041.1083   -932.04481   -1047.0151    410.73195   -3706.0269 
 8376000    243.22394   -4858.8483   -4372.3703   -4858.8483            0    4855.9911    18.026848    23.003016    19.407841    8047.8857    3581.2318    5439.8658    5546.8757   -751.28002   -647.48054   -2294.0843   -3802.4219 
 8377000    244.84854    -4860.581   -4370.8537    -4860.581            0    4294.0818    18.029075    22.992406      19.4691     8070.561    3823.6989    4619.8951    4438.6515   -1075.4718    885.66692    443.19523   -3865.4366 
 8378000    246.45657    -4867.027   -4374.0834    -4867.027            0    4480.0307    18.285715    22.823632    19.399277    8096.2188     4126.929    4794.6769    4518.4861    450.63347   -607.49966   -319.29564   -3845.1035 
 8379000     253.7017    -4815.279   -4307.8442    -4815.279            0    6158.7453    18.207559    22.604552    19.552045    8047.1077    6486.2568    6568.9294    5421.0496   -716.04366    429.27504   -645.07743   -3585.0612 
 8380000    231.18701   -4851.9995   -4389.5969   -4851.9995            0    4134.8152    18.241225    22.688723    19.524187    8080.4772     3417.962    5949.5844    3036.8994    1765.6217    902.17916   -526.66574   -3902.3276 
 8381000    236.36596   -4867.8291    -4395.068   -4867.8291            0    3585.4366     18.22473    22.645556    19.629447     8101.252    4104.8736    4660.7022    1990.7341   -463.37135   -50.162675   -905.71849   -3971.4542 
 8382000    255.37322   -4835.9786   -4325.2006   -4835.9786            0    4101.7411    18.345883    22.648072    19.525333    8112.7542    3464.0217    4995.3598    3845.8417    77.641459   -151.96886   -325.06954   -3839.8982 
 8383000    250.15851   -4836.3625   -4336.0145   -4836.3625            0    5399.2706    18.229021    22.792754    19.442842    8078.2987    5338.0096    5876.0383     4983.764   -597.65848    795.61282    1829.7827   -3699.9065 
 8384000    240.08374   -4859.0651   -4378.8679   -4859.0651            0     4734.351    18.167086    22.845824    19.429117    8063.9008    4359.4187    4438.1907    5405.4435   -365.57979   -872.49501   -389.28853   -3822.0906 
 8385000    241.61046   -4851.0507      -4367.8   -4851.0507            0    6789.2556    18.085896    22.743335    19.457795    8003.6447     9578.439    6460.0267    4329.3011   -317.64317    -744.3979    1530.8762   -3575.3245 
 8386000    239.75492    -4814.729   -4335.1895    -4814.729            0    5582.7823    18.062093    22.920499    19.460419    8056.4615    4835.1299    6671.4167    5241.8002   -183.75203    844.23263   -991.29868   -3679.2393 
 8387000    247.58489   -4861.6818   -4366.4814   -4861.6818            0    5504.5831    18.060296    22.966327    19.374108     8035.967     4203.322    5876.4965    6433.9308    372.41364    511.89731    1039.3169   -3721.3644 
 8388000    253.87497   -4862.5681   -4354.7867   -4862.5681            0    4894.6323    18.128136    22.992303    19.295867    8042.6641    4256.4635    4156.4155    6271.0178      236.575    58.570763   -136.99691   -3780.6757 
 8389000    248.85356   -4880.8338    -4383.096   -4880.8338            0    5549.2751     18.00542    23.082812    19.296731    8020.0246    6195.4196    3704.1903    6748.2155   -1332.5936   -417.99965    441.37529   -3734.0315 
 8390000     257.5178   -4849.0853   -4334.0179   -4849.0853            0     4197.968    18.172444    22.988207    19.340938    8079.7141    2502.6487    3707.0588    6384.1966   -870.09971   -488.73871    238.59805   -3839.3531 
 8391000    247.23064   -4853.0998   -4358.6079   -4853.0998            0    4544.6283     18.05451    23.029159    19.376309    8056.2853    4664.2705    4182.6576    4786.9569   -921.48103    291.42901    1334.6754   -3824.6475 
 8392000    250.79112   -4857.1802    -4355.567   -4857.1802            0    4980.8121    18.021707    23.178489    19.294376    8059.5682    5979.9401    3546.3852    5416.1112   -1854.8691   -1051.9222    147.98616   -3770.1197 
 8393000    251.15409   -4875.3319   -4372.9927   -4875.3319            0    6452.2452    18.041864    23.079481    19.324076    8046.4843    7251.9692    6570.6991    5534.0673   -434.66602    31.823213    490.17392   -3615.8235 
 8394000    253.88783   -4856.0071   -4348.2001   -4856.0071            0    5110.1899    17.871682    22.842638     19.71291    8047.5266    5374.9413    5655.1007    4300.5277    706.24237    1312.9428    979.62582    -3748.443 
 8395000    242.03721   -4836.7406   -4352.6362   -4836.7406            0    6266.7688    18.171893    22.968962    19.257496    8037.8767     6170.827    6231.1512    6398.3282    1466.4374   -409.36151    1084.4702   -3618.0193 
 8396000    246.09512   -4860.3808   -4368.1602   -4860.3808            0    5567.2244    18.054902    22.883588     19.50204    8057.4814    7158.4876    5688.1845     3855.001   -229.70332     200.9098    853.77848   -3713.9551 
 8397000    232.85343   -4858.5512   -4392.8155   -4858.5512            0    4107.8107    18.238369    22.847449    19.443774    8102.2246    3348.0269    5470.7216    3504.6836   -517.38999    810.05569   -107.68292   -3907.4258 
 8398000    240.99995   -4844.5413   -4362.5116   -4844.5413            0    6981.8289    18.234565    22.684974    19.388589    8020.1021    5887.1781    7018.4983    8039.8104   -677.90378     697.6047    304.87306   -3545.8823 
 8399000    254.71655   -4839.9988   -4330.5342   -4839.9988            0    4954.4785    18.160439    22.758978    19.494622    8057.3816    5815.1725    4023.5092    5024.7538    -929.9587    495.54511    -172.4579   -3748.3402 
 8400000    241.42531      -4852.4   -4369.5196      -4852.4            0    4276.5557     18.19028    22.795905    19.428112    8056.1367    2957.4793    5845.0242    4027.1637    -2702.801     141.9676    330.96559   -3867.0649 
 8401000     259.8001   -4825.5958   -4305.9635   -4825.5958            0    4737.7221    18.034552    23.028516    19.525352    8109.0537    5232.7451    4038.5945    4941.8266   -1382.5164   -545.27713   -365.13474   -3745.6699 
 8402000    252.90084   -4853.2755   -4347.4426   -4853.2755            0    5393.4314    18.077887    22.927833    19.368487    8027.9821    4804.1964    5374.6421    6001.4557   -1004.4998   -1273.8515    1027.2198   -3715.9802 
 8403000    250.63831   -4842.4861   -4341.1786   -4842.4861            0    4528.6742    18.029093    22.913171    19.543565    8073.5185    4593.7602    5178.3085    3813.9538    288.67431    658.83304   -371.84528   -3807.9544 
 8404000    248.69113   -4859.6125   -4362.1996   -4859.6125            0     6348.214    18.248634    22.870311    19.204989    8015.2392    5234.9378     5495.372    8314.3323    1250.0805    440.57342    1101.5601   -3620.1312 
 8405000    240.47102   -4851.8925   -4370.9208   -4851.8925            0    4504.3456    18.217121    22.689633    19.559903     8084.886    3645.3556    4709.1544    5158.5268   -653.06401   -1225.4376   -708.78101   -3839.8144 
 8406000    236.02376   -4856.8072   -4384.7305   -4856.8072            0    3612.4168    18.237361    22.786838    19.479167    8094.9921    3586.9838    3896.2453    3354.0213     307.4526    -1021.694    197.66385   -3958.2589 
 8407000    246.90182   -4862.1188   -4368.2846   -4862.1188            0    4868.9109    18.058315    22.859243    19.488607    8044.8855    3484.2664    5493.2228    5629.2435   -323.49691    -1401.023   -705.75814   -3797.0328 
 8408000    248.30581   -4874.2438   -4377.6015   -4874.2438            0     5525.992    17.955923    22.903563    19.481455    8011.8381    3807.9838    6229.8381    6540.1542    609.62617   -1383.1753    893.91946     -3731.92 
 8409000    240.11697   -4858.0642   -4377.8006   -4858.0642            0    4993.0541    18.068039    23.091754    19.264095     8037.418    3955.1123    4741.9072    6282.1428   -1254.0647   -497.42298    154.03581   -3792.5273 
 8410000    249.17181   -4850.6585   -4352.2841   -4850.6585            0    3836.4759    18.081933    23.079887    19.369627    8083.5067    4542.1629    3916.4269     3050.838    783.38822    473.41474   -818.95339   -3900.0032 
 8411000    246.09086   -4872.5057   -4380.2936   -4872.5057            0    4565.4536    18.029364    23.091691    19.316114    8041.8486    6695.6935    3353.9402    3646.7271    144.22054    134.54068   -421.33355   -3844.8475 
 8412000    237.60909   -4837.6758   -4362.4283   -4837.6758            0    2356.0106    18.147788    23.140766    19.381028    8139.1347     1662.176    2021.3231    3384.5325    121.25942   -722.57622   -308.05704   -4082.7676 
 8413000    250.50273   -4855.6396   -4354.6032   -4855.6396            0    7405.9615    18.069631    22.899398    19.327776    7997.5182    5432.9212    8855.3992     7929.564    1596.0162    1520.5537    745.74775   -3490.8044 
 8414000     245.9419   -4864.3278   -4372.4136   -4864.3278            0    3912.1057    18.119429    22.883404    19.465924    8071.2381    4500.1793    4108.6572    3127.4806   -233.96699    204.97681     429.6817   -3911.9168 
 8415000     244.1203    -4848.303   -4360.0322    -4848.303            0     4984.039    18.179337    22.708105    19.487723    8044.8886    7426.2191    4314.8551    3211.0428    409.61672    649.90325    2352.4016   -3775.2726 
 8416000    250.46073   -4809.0207   -4308.0683   -4809.0207            0    4033.8539    18.414391     22.62672    19.499652    8124.6718    3853.4838    3841.9467    4406.1312   -1158.3274    1008.8554   -1916.0095   -3830.0969 
 8417000    238.40213   -4839.1806   -4362.3469   -4839.1806            0    4829.0972    18.094797    22.787004    19.518193    8047.8627    5827.1361    5458.0157    3202.1398    -543.8067     468.5391    235.42695   -3795.5566 
 8418000    247.91694   -4825.2602   -4329.3957   -4825.2602            0    3946.1206    18.165455    23.143855    19.339363     8130.629    3791.0676    4169.7234    3877.5708    366.34976    508.30124    585.81243    -3861.477 
 8419000    255.83595   -4822.7677   -4311.0642   -4822.7677            0    5249.9306    17.669972    23.384011     19.43119    8028.8669    6570.7192    4721.4805    4457.5921    175.83628    186.05166    498.41819   -3696.3352 
 8420000    246.42351   -4844.5231   -4351.6457   -4844.5231            0    4046.4269    18.189107    23.087364     19.25515    8085.9795    5059.4674    2634.7844     4445.029   -220.21871   -570.17077    709.31937   -3874.4679 
 8421000    248.51131   -4844.4963    -4347.443   -4844.4963            0    4995.5506    17.950136    23.095852     19.45666    8066.2195    6163.4754    5313.7722    3509.4041    131.64973    488.77522   -535.08512   -3759.7788 
 8422000      245.874   -4861.8877   -4370.1094   -4861.8877            0    6808.0808    18.048408    22.962801    19.301767    7999.4631    7878.0694     6275.844    6270.3289    -577.3927    -300.7345     1611.138   -3575.8517 
 8423000    246.84463   -4871.5974   -4377.8776   -4871.5974            0    4653.2254    18.055532     22.96689    19.422688    8054.1888    5471.4365    4802.5961    3685.6437    -1112.682   -947.21389    773.51887   -3831.3001 
 8424000    247.37619   -4864.4387   -4369.6558   -4864.4387            0    3878.4002    18.016037    23.090839    19.412638    8075.7622    4351.5678    4791.8595    2491.7733   -1397.5491    244.51506    475.29534   -3912.8706 
 8425000    244.74339   -4845.0142   -4355.4972   -4845.0142            0    6182.9371    18.032144    22.936544    19.311478    7987.1319    4210.7793      6722.66    7615.3719    766.97389   -716.79252   -1553.5212   -3635.2832 
 8426000     247.1598   -4854.4675   -4360.1174   -4854.4675            0    4769.6119    18.200596    22.861766    19.398299     8071.589    6418.7166    4139.6135    3750.5056    607.50788    583.22794    545.43638   -3798.6585 
 8427000    257.53105    -4850.323   -4335.2291    -4850.323            0    3950.4742    18.074601    22.947724    19.477543    8078.7186    4006.3597    3117.6549    4727.4079    645.31936    -654.3358   -567.10444   -3869.7849 
 8428000    251.00931   -4847.0799   -4345.0303   -4847.0799            0    4999.2962    18.158927    22.817687    19.403182    8039.6058    3587.0204    6086.4008    5324.4674   -310.25132   -402.08896   -814.78857   -3758.8658 
 8429000    255.95108   -4853.2137   -4341.2799   -4853.2137            0    4440.2072    18.220104    22.648356    19.607574     8091.171    4007.9936     4736.927    4575.7008    -1094.165   -553.25383   -1832.2048   -3817.3291 
 8430000    250.52682   -4852.9421   -4351.8575   -4852.9421            0    3777.0765    18.303307     22.78138    19.471907    8119.2906    2938.2332    4521.6078    3871.3886   -75.718212   -123.46067    326.32036   -3904.6081 
 8431000    236.47719   -4844.9839   -4372.0003   -4844.9839            0    5960.6448    18.157879     22.67871    19.527435    8041.3447    7411.7549    6892.0634    3578.1161    819.45064    210.91352    690.47751   -3672.9671 
 8432000    245.47981   -4838.4201   -4347.4302   -4838.4201            0    5776.1177    18.151798    22.535114    19.619607    8025.4556    6195.7467    6282.7341    4849.8724     1170.347   -471.75326    920.17224   -3671.3758 
 8433000    241.85457   -4865.6383   -4381.8993   -4865.6383            0     3056.124    18.347128    22.695679    19.486753    8114.2943    2293.3165     3528.988    3346.0676    98.239648   -1295.0442   -287.93625   -4020.2416 
 8434000    244.12602   -4871.3078   -4383.0256   -4871.3078            0    4929.3234    18.121221     22.75228    19.563168    8065.8764    4834.4391    4786.0163    5167.5148    1063.0704   -1345.8355    549.45765   -3803.1768 
 8435000    261.90737   -4853.1412   -4329.2941   -4853.1412            0    4452.4621    18.219894    22.693205    19.511186    8067.2469    3153.1782    4831.5709    5372.6372    99.179683    -638.8394   -1759.5187   -3805.4507 
 8436000    250.76378   -4844.0761   -4342.5176   -4844.0761            0    5555.6028    18.138135    22.738651     19.46346    8027.4457    4145.4626    6957.5061    5563.8398    584.44317    408.83316    293.11478   -3692.1117 
 8437000    236.17012     -4840.21   -4367.8406     -4840.21            0    4122.9993    18.278354    22.724091    19.513345     8105.043    4489.4454    4763.4629    3116.0896     1484.382    232.82001   -19.568208   -3880.4866 
 8438000    253.47766   -4841.2699   -4334.2833   -4841.2699            0    6403.3852    18.126342    22.735264    19.412913    8000.2007    5314.9534    6420.6301     7474.572    195.08656    160.16263   -368.45217   -3587.1701 
 8439000    244.34625   -4877.5625   -4388.8398   -4877.5625            0    3870.5442    18.276186    22.899761    19.304003    8079.1169    4347.6955    3475.0979    3788.8392    346.52389   -897.88792   -366.92913   -3932.7905 
 8440000    250.94823   -4810.4747   -4308.5472   -4810.4747            0    5417.6727    17.996536    22.950183    19.494316    8051.6163    5756.8726    5662.0157    4834.1297    749.80626   -409.04381   -1880.6489   -3672.3794 
 8441000      252.673   -4849.3608   -4343.9836   -4849.3608            0    4602.8817    18.136212    23.081568    19.291833     8075.797    5052.1225     4145.331    4611.1916     249.2283   -317.40736   -1596.3461    -3801.869 
 8442000    246.78433   -4838.8872    -4345.288   -4838.8872            0    6440.5134    18.056606    22.953458     19.36865    8027.5609    5851.7062    5703.7385    7766.0956    893.29643   -80.060683    181.25804    -3591.273 
 8443000    251.10706   -4858.2616   -4356.0165   -4858.2616            0    4836.6858    18.105485    23.048414    19.319725    8062.1736    6006.7151    2937.2126    5566.1297   -96.633275   -753.22971   -839.51728   -3787.3261 
 8444000    247.20437   -4841.7697   -4347.3304   -4841.7697            0    4216.6317    17.949418    22.962293     19.55439    8059.5338    4720.1524    4447.6814    3482.0613    942.71297    855.73025    -471.5679   -3851.7074 
 8445000    252.61165   -4854.0904   -4348.8359   -4854.0904            0    5286.2205    18.165757    22.903114     19.27337     8018.732    4656.8523    5685.6819    5516.1275   -1382.8411    524.49698    813.95948   -3730.6389 
 8446000    240.04071   -4849.3825   -4369.2715   -4849.3825            0    3282.3271    18.070364    22.952661    19.559887    8112.7163    2586.1551    4084.1363    3176.6899   -87.978952   -158.07116   -2043.9499   -3980.9208 
 8447000    248.31361    -4851.941   -4355.2831    -4851.941            0    4896.5542    18.256982    22.815317    19.315054    8045.4704    2613.2577    5517.0982    6559.3068    1331.4064   -1068.1988   -167.37794   -3780.7462 
 8448000    251.77254   -4858.5208   -4354.9447   -4858.5208            0    4145.9108    17.824065    23.192628     19.56563    8088.1752    4512.7554    4525.0783    3399.8986    -430.9027    844.50004   -331.77123   -3865.9024 
 8449000    241.06188   -4812.6023   -4330.4488   -4812.6023            0    4738.0685    18.153898    23.226042    19.206077    8098.1115    4850.5285    4083.4101    5280.2668   -760.63994    543.62847    728.05843   -3770.8703 
 8450000    247.45832   -4853.3615   -4358.4143   -4853.3615            0    6062.6051    17.884355    23.168775    19.318935    8004.9665    6506.7932    5905.0018    5776.0204    556.38027    1002.4962    1561.7844   -3650.6402 
 8451000     248.6465   -4847.0388   -4349.7151   -4847.0388            0    5839.5015    18.175097    22.833869    19.348536     8029.793    4057.7634     6477.101    6983.6401   -1094.6038    417.42302    662.73687   -3665.8727 
 8452000    250.60826   -4862.8491   -4361.6016   -4862.8491            0    5879.1137    18.239448    22.669997    19.494267    8060.6504    4492.4901    6174.8681    6969.9831   -703.94098   -418.28662    -427.5859   -3670.4746 
 8453000    233.41482   -4854.3261   -4387.4676   -4854.3261            0    5071.6303    18.317036    22.590695    19.512514    8074.1724    4803.5703    5852.4447    4558.8757   -372.99389  -0.37694991    941.68554   -3790.2653 
 8454000    234.67759   -4858.3671   -4388.9829   -4858.3671            0    5290.3135    18.211548    22.615116    19.533096    8044.8281    3683.5933    6653.8407    5533.5067   -1064.8477    831.48774   -378.05205   -3768.2939 
 8455000    239.76428   -4861.2834   -4381.7252   -4861.2834            0     4993.609    18.271136      22.4689    19.632086    8059.6061    5186.9949    6808.0907    2985.7416   -71.250818     670.0649   -561.43995    -3794.771 
 8456000    244.10287   -4871.6358   -4383.3999   -4871.6358            0    4306.7818    18.214341    22.816904    19.411891    8067.4824    3030.2882    5283.4508    4606.6065    612.73749     460.2282     1346.895   -3876.6814 
 8457000    248.78227   -4858.4484   -4360.8531   -4858.4484            0    4935.0887    18.137063    22.870269    19.501878    8089.3694    4976.3334    5097.0455    4731.8871    361.91843   -708.19252   -2373.0094   -3778.6353 
 8458000     250.1854   -4832.6577    -4332.256   -4832.6577            0     4653.684    18.323579    22.679236    19.378555    8053.0448    3800.2051    4395.5573    5765.2896    1185.8863   -805.52582     103.2774   -3785.7022 
 8459000    251.88157   -4858.5493    -4354.755   -4858.5493            0    3883.5164    18.205403    22.751769    19.494517    8074.7289    3815.9149    4494.9898    3339.6444    1465.9217   -262.52562    569.05323   -3897.4257 
 8460000    253.03732   -4849.5329    -4343.427   -4849.5329            0    4010.2533    18.246186        22.66    19.544493    8080.8385    4840.6827    4087.4568    3102.6204    1703.7984    667.56028    1886.0451   -3870.8157 
 8461000    246.31245   -4840.6339   -4347.9785   -4840.6339            0    3973.9537    18.351462    22.646073    19.465181    8089.5066    3728.4675    4457.3762    3736.0174   -492.22133    57.609946   -929.11788   -3879.1428 
 8462000    242.56833   -4843.8745   -4358.7078   -4843.8745            0    3493.4209     18.18771    22.774517    19.464205    8062.3915    4091.6094    2809.6118    3579.0415   -861.53563   -1022.1985   -727.15363   -3947.9454 
 8463000    243.17557   -4844.3972   -4358.0161   -4844.3972            0    3796.4095    18.198532    22.767025    19.495365     8077.445    4182.7601    3795.7933     3410.675    395.27215   -346.99414    -558.1684   -3910.7943 
 8464000    236.77831   -4831.1759   -4357.5901   -4831.1759            0    4879.6685    18.142205    22.954943    19.402142    8080.0861    5545.7591    4962.4114    4130.8349    1423.1082    498.15428    132.67881   -3782.5711 
 8465000    234.63342   -4867.1673   -4397.8715   -4867.1673            0     4962.111    18.261071     22.96157    19.218229    8058.2583    3333.1631    5513.0918    6040.0781   -360.68709    1498.8289   -206.65815   -3814.7171 
 8466000    245.97721   -4854.3828    -4362.398   -4854.3828            0     5914.156    18.039453    22.886394    19.452774    8031.2339     5806.387    6333.0266    5603.0545    3098.5244    100.49691    1789.7326   -3669.6888 
 8467000      243.215   -4874.1637   -4387.7036   -4874.1637            0    4361.8725    18.094218    23.062045    19.341469    8070.9949    3910.9136    4329.8711     4844.833    686.43469   -1002.7892    381.10926   -3874.2799 
 8468000     253.9017   -4848.8468    -4341.012   -4848.8468            0    3950.7345    17.813549    23.324468    19.417128    8067.6529    6188.8629    2775.2965     2888.044    435.41032   -374.77317   -488.68598   -3876.1747 
 8469000    238.66064   -4845.4745   -4368.1237   -4845.4745            0    4209.0402    18.146307    23.134083    19.232593    8073.8076    3793.1148    3929.7003    4904.3056    29.302841    141.06835   -385.89707   -3872.5168 
 8470000    240.19468   -4868.5822   -4388.1631   -4868.5822            0    5950.8952    18.014795     22.92066    19.378244    8001.4901    7213.2533    5234.8988    5404.5336    84.647802   -461.46052    1450.9916   -3693.7322 
 8471000    239.59491   -4841.5201   -4362.3007   -4841.5201            0    5117.9591    18.066929    23.055253    19.378496    8071.8727    6576.0093    3994.3127    4783.5553   -79.298569     136.6268     306.1875   -3759.8147 
 8472000    236.10563   -4863.2966   -4391.0562   -4863.2966            0    4633.0414    18.011965    23.008974    19.456058    8063.3072    6393.0824    4442.8432    3063.1986   -258.40964    138.93995    325.71056   -3846.2334 
 8473000    240.49076   -4869.4046   -4388.3934   -4869.4046            0    6163.7995    17.992179    23.154926    19.154369    7979.8553      5892.81    5287.4686    7311.1199    39.768957   -654.73342   -101.97537   -3671.0627 
 8474000    243.88228   -4839.5088   -4351.7141   -4839.5088            0     3522.886     17.95217    23.138389     19.49102     8096.263    4239.1853    4286.7558    2042.7169     1072.623   -636.99165    4.3647816   -3935.7469 
 8475000    228.18569   -4839.7445   -4383.3449   -4839.7445            0    5079.7916     17.99605    23.004585    19.387169     8026.126    4478.6286    5360.2736    5400.4726    346.70373     313.1261    405.89965    -3788.741 
 8476000    230.49854   -4820.6804   -4359.6549   -4820.6804            0    4073.9324    18.054055    22.944363    19.575814    8109.0619     4327.079    3863.6184    4031.0998    223.13752    325.36547    411.67196   -3877.8621 
 8477000     254.9272   -4799.9637   -4290.0778   -4799.9637            0    4818.0124    18.338677    22.836002    19.293776    8079.8869    4116.4091    3752.1157    6585.5125    687.22358    974.48815    363.33248   -3722.3383 
 8478000    260.16521    -4856.368   -4336.0055    -4856.368            0    5320.1841    18.051783    22.867385    19.525499    8060.0688     5277.475    6348.9317    4334.1458    -613.1148     340.5351   -980.84077   -3710.6293 
 8479000    244.74954   -4833.9467   -4344.4174   -4833.9467            0    4331.9412    18.206947    22.844098    19.486336    8104.7818    3428.3556    4050.7694    5516.6986    374.98115   -1009.1182    1265.3152   -3832.3822 
 8480000    252.72251   -4825.6563   -4320.1801   -4825.6563            0    4546.5695    18.288169    22.573854     19.69554    8130.9974    4617.1055    5752.8411     3269.762   -662.93743    1328.6375   -1093.9785   -3781.0376 
 8481000    241.80275   -4815.7905   -4332.1551   -4815.7905            0     4964.386    18.267534    22.732072    19.504528    8099.4289    4092.3988    5164.0423    5636.7169    279.93989   -55.762936    1025.4118   -3745.7526 
 8482000    246.30229   -4846.5075   -4353.8725   -4846.5075            0    3787.3033    18.269717    22.745346    19.529756    8115.6105    3948.4667    3992.4015    3421.0417    353.67446    477.23644   -594.97609   -3905.6154 
 8483000    246.73956   -4861.1907   -4367.6811   -4861.1907            0    5635.6634    18.267534    22.556387    19.536681    8050.0806    4665.6654    7276.5933    4964.7315   -590.31589   -536.90738   -197.36425    -3706.042 
 8484000    262.50581   -4852.3789   -4327.3349   -4852.3789            0    5171.6427    18.149569    22.765438    19.419658    8023.8707    6519.8642    3978.4679    5016.5961   -957.27522   -1511.4246     215.5077   -3722.1496 
 8485000    233.95289   -4845.3359   -4377.4012   -4845.3359            0    4365.8985    18.133155    22.911082    19.431675    8072.8934    3409.4544    4807.3137    4880.9275   -53.509572    -916.7656    1563.0671   -3863.3827 
 8486000    251.31439   -4867.8124   -4365.1526   -4867.8124            0    4989.7021    17.953977    22.997514    19.453914    8032.4595    6929.6861    3868.7849    4170.6353    852.02764   -587.32348    1230.5259    -3780.633 
 8487000    242.62243   -4858.4484   -4373.1735   -4858.4484            0    3165.3591    18.151768    23.122153     19.40623    8144.9492    3454.5113    3002.6314    3038.9346   -922.72376    694.61828   -571.12771    -3997.174 
 8488000    242.26841   -4820.7492   -4336.1825   -4820.7492            0    4703.5638    18.055991    23.047358    19.336929    8046.9257    8695.4443    3883.0603    1532.1868    351.73084   -806.31882   -268.76842   -3784.1903 
 8489000    260.09934   -4872.1517   -4351.9209   -4872.1517            0    2634.5699    18.060945      23.3125    19.241244    8101.4446    2286.2925    1301.5513     4315.866   -1637.5184   -286.03016   -864.51905   -4040.6431 
 8490000    248.94484   -4837.3173   -4339.3969   -4837.3173            0    3446.8903     17.92824    23.237839    19.384516    8075.8522    4705.3005    2659.9431    2975.4272     629.9661   -750.31061   -535.24711   -3933.4289 
 8491000    236.76115   -4849.3841   -4375.8326   -4849.3841            0    5271.8368    18.025128    23.059576    19.274229    8011.3681    4880.2817    5206.9347    5728.2939   -720.69618    497.19045    453.47476   -3759.8839 
 8492000    242.15547   -4850.2564   -4365.9155   -4850.2564            0    3636.6728    18.145021    22.960798    19.406695    8085.2982    2660.4464    5219.2121    3030.3599   -370.37338    1716.7906     757.2548   -3937.0944 
 8493000    256.08972   -4841.4645   -4329.2534   -4841.4645            0    4232.0285    18.154527    22.738887    19.567981    8077.9311    3570.7298    5307.3594    3817.9964   -782.47802    1478.5891    92.825576   -3830.6852 
 8494000    242.64992   -4823.0276   -4337.6978   -4823.0276            0    6545.4806    18.316979    22.678367    19.304186    8018.9431    4432.7717    7801.9417    7401.7284   -539.94695   -400.61994    891.53432   -3572.2166 
 8495000     261.4452   -4840.9768    -4318.054   -4840.9768            0    5513.6013    18.065426    22.876573    19.484267    8052.3614    7411.7581    4312.5133    4816.5326    129.20277   -715.61901    566.79778   -3670.5619 
 8496000    241.57896   -4851.9037   -4368.7159   -4851.9037            0    3005.7172    18.073756    23.125506    19.387165    8103.1512    3560.7921    1766.9448    3689.4148   -336.62032    -1515.048    333.25337   -4013.5118 
 8497000    247.74805   -4848.9812   -4353.4545   -4848.9812            0    6776.5732    18.000828    23.207257     19.16706    8007.0364    8065.9637    5410.8038     6852.952    2099.9244    320.05143    449.45252   -3562.1241 
 8498000    253.42494   -4837.4563   -4330.5751   -4837.4563            0    4133.4996    18.047828    23.090714    19.380991    8076.7811     4942.465    4446.3482    3011.6856   -1865.0257    775.61585   -1658.9326   -3843.6837 
 8499000    245.76101   -4870.5422   -4378.9898   -4870.5422            0    4645.4724    18.086754    23.183401    19.246885    8070.4589     6130.056    2831.6128    4974.7484    854.20117    1012.4704    20.166018   -3832.2207 
 8500000    253.51799   -4825.1635   -4318.0962   -4825.1635            0    6968.4033    17.914754    23.037972    19.414863    8012.8947    7560.0755    7062.3971    6282.7374    116.86177    387.94499   -246.50939   -3503.7696 
Loop time of 495.518 on 64 procs for 250000 steps with 1008 atoms

Performance: 87.181 ns/day, 0.275 hours/ns, 504.522 timesteps/s
99.1% CPU use with 64 MPI tasks x 1 OpenMP threads

MPI task timing breakdown:
Section |  min time  |  avg time  |  max time  |%varavg| %total
---------------------------------------------------------------
Pair    | 28.11      | 31.741     | 35.28      |  30.2 |  6.41
Bond    | 0.28289    | 0.29443    | 0.30337    |   0.8 |  0.06
Kspace  | 230.88     | 240.06     | 249.87     |  29.5 | 48.45
Neigh   | 3.9754     | 4.5804     | 5.2617     |  16.4 |  0.92
Comm    | 92.826     | 101.46     | 110.22     |  45.2 | 20.48
Output  | 0.73032    | 0.73142    | 0.73716    |   0.1 |  0.15
Modify  | 106.51     | 109.65     | 111.51     |  15.0 | 22.13
Other   |            | 7.001      |            |       |  1.41

Nlocal:        15.7500 ave          20 max          12 min
Histogram: 3 3 10 12 0 13 13 7 2 1
Nghost:        2476.02 ave        2504 max        2448 min
Histogram: 2 5 8 7 13 7 6 6 6 4
Neighs:        5214.58 ave        6549 max        3918 min
Histogram: 3 3 10 9 3 13 13 7 1 2

Total # of neighbors = 333733
Ave neighs/atom = 331.08433
Ave special neighs/atom = 2.0000000
Neighbor list builds = 8735
Dangerous builds = 0

unfix		3
unfix		2
unfix		1

write_data	data.final.${pid}
write_data	data.final.0
System init for write_data ...
PPPM initialization ...
  extracting TIP4P info from pair style
  using 12-bit tables for long-range coulomb (../kspace.cpp:340)
  G vector (1/distance) = 0.38387181
  grid = 24 30 36
  stencil order = 5
  estimated absolute RMS force accuracy = 0.0018902792
  estimated relative force accuracy = 5.6925197e-06
  using double precision FFTW3
  3d grid and FFT values/proc = 4320 480
Last active /omp style is kspace_style pppm/tip4p/omp
WARNING: Not all mixed pair coeffs generated from mixing. Use write_data with 'pair ij' option to store all pair coeffs. (../write_data.cpp:312)

write_restart   restart.lmp.${pid}
write_restart   restart.lmp.0
System init for write_restart ...
PPPM initialization ...
  extracting TIP4P info from pair style
  using 12-bit tables for long-range coulomb (../kspace.cpp:340)
  G vector (1/distance) = 0.38387181
  grid = 24 30 36
  stencil order = 5
  estimated absolute RMS force accuracy = 0.0018902792
  estimated relative force accuracy = 5.6925197e-06
  using double precision FFTW3
  3d grid and FFT values/proc = 4320 480
Last active /omp style is kspace_style pppm/tip4p/omp
Total wall time: 0:08:16
