#include		in.partitions
include		in.temp
variable        temperature equal 180.77
variable	tempDamp equal 100.0
include		in.pressure
variable        pressure equal 8369.9
variable        pressureDamp equal 1000.0 # This is 1 ps
include		in.seed
variable        seed equal 745823

units		real
atom_style	full
read_restart    restart.lmp.${pid}
read_restart    restart.lmp.1
Reading restart file ...
  restart file = 30 Jul 2021, LAMMPS = 30 Jul 2021
  restoring atom style full from restart
  triclinic box = (-3.1988571 -0.026621487 -0.069044319) to (14.808856 22.606620 19.299042) with tilt (-0.23979012 -6.3402962 0.47709152)
  2 by 4 by 2 MPI processor grid
  restoring pair style lj/cut/tip4p/long/omp from restart
  restoring bond style harmonic/omp from restart
  restoring angle style harmonic/omp from restart
  1008 atoms
  672 bonds
  336 angles
Finding 1-2 1-3 1-4 neighbors ...
  special bond factors lj:    0        0        0       
  special bond factors coul:  0        0        0       
     2 = max # of 1-2 neighbors
     1 = max # of 1-3 neighbors
     1 = max # of 1-4 neighbors
     2 = max # of special neighbors
  special bonds CPU = 0.001 seconds
  read_restart CPU = 0.006 seconds

include 	in.setup
variable	out_freq equal 1000
variable	out_freq2 equal 10000
variable	out_freq3 equal 1000

timestep	2.0

neigh_modify    delay 7 every 1

include		in.tip4p
# This is TIP4P/Ice

# create groups ###
group ox type 2
336 atoms in group ox
group hy type 1
672 atoms in group hy

# set charges - beside manually ###
set group ox charge -1.1794
Setting atom values ...
  336 settings made for charge
set group hy charge 0.5897
Setting atom values ...
  672 settings made for charge

# ### TIP3P Potential Parameters ###
pair_style lj/cut/tip4p/long/omp 2 1 1 1 0.1577 8.5
pair_coeff 1 1*2 0.000 0.000
pair_coeff 2 2 0.21084 3.1668
bond_style  harmonic
bond_coeff  1 450 0.9572
angle_style harmonic
angle_coeff 1 55 104.52
kspace_style pppm/tip4p/omp 1.0e-5
pair_modify tail yes

thermo          ${out_freq}
thermo          1000
thermo_style    custom step temp pe etotal epair emol press lx ly lz vol pxx pyy pzz pxy pxz pyz enthalpy

restart 	${out_freq3} restart.lmp.${pid} restart2.lmp.${pid}
restart 	1000 restart.lmp.${pid} restart2.lmp.${pid}
restart 	1000 restart.lmp.1 restart2.lmp.${pid}
restart 	1000 restart.lmp.1 restart2.lmp.1


include         in.dump
dump            myDump all atom ${out_freq2} dump.water.${pid}
dump            myDump all atom 10000 dump.water.${pid}
dump            myDump all atom 10000 dump.water.1
dump            myDump2 all dcd ${out_freq2} dump.dcd
dump            myDump2 all dcd 10000 dump.dcd
dump_modify     myDump append yes
dump_modify     myDump2 append yes


variable natoms 	equal  "count(all)"                        # NUMBER ATOMS
variable H      	equal  "enthalpy/v_natoms"                 # ENTHALPY-per-atom
variable Vol      	equal  "vol/v_natoms"                 # volume-per-atom
fix AVG all 		ave/time ${out_freq} 1 ${out_freq} v_Vol v_H file vol_enthalpy.dat
fix AVG all 		ave/time 1000 1 ${out_freq} v_Vol v_H file vol_enthalpy.dat
fix AVG all 		ave/time 1000 1 1000 v_Vol v_H file vol_enthalpy.dat



fix 		1 all shake 1e-6 200 0 b 1 a 1
       0 = # of size 2 clusters
       0 = # of size 3 clusters
       0 = # of size 4 clusters
     336 = # of frozen angles
  find clusters CPU = 0.000 seconds
fix             2 all nph tri ${pressure} ${pressure} ${pressureDamp}
fix             2 all nph tri 8369.9 ${pressure} ${pressureDamp}
fix             2 all nph tri 8369.9 8369.9 ${pressureDamp}
fix             2 all nph tri 8369.9 8369.9 1000
fix             3 all temp/csvr ${temperature} ${temperature} ${tempDamp} ${seed}
fix             3 all temp/csvr 180.77 ${temperature} ${tempDamp} ${seed}
fix             3 all temp/csvr 180.77 180.77 ${tempDamp} ${seed}
fix             3 all temp/csvr 180.77 180.77 100 ${seed}
fix             3 all temp/csvr 180.77 180.77 100 745823


run             250000
PPPM initialization ...
  extracting TIP4P info from pair style
  using 12-bit tables for long-range coulomb (../kspace.cpp:340)
  G vector (1/distance) = 0.37984339
  grid = 24 27 36
  stencil order = 5
  estimated absolute RMS force accuracy = 0.0023785164
  estimated relative force accuracy = 7.1628315e-06
  using double precision FFTW3
  3d grid and FFT values/proc = 8505 1944
Last active /omp style is kspace_style pppm/tip4p/omp
Neighbor list info ...
  update every 1 steps, delay 7 steps, check yes
  max neighbors/atom: 2000, page size: 100000
  master list distance cutoff = 10.8154
  ghost atom cutoff = 10.8154
  binsize = 5.4077, bins = 5 5 4
  1 neighbor lists, perpetual/occasional/extra = 1 0 0
  (1) pair lj/cut/tip4p/long/omp, perpetual
      attributes: half, newton on, omp
      pair build: half/bin/newton/tri/omp
      stencil: half/bin/3d/tri
      bin: standard
Per MPI rank memory allocation (min/avg/max) = 12.47 | 12.52 | 12.57 Mbytes
Step Temp PotEng TotEng E_pair E_mol Press Lx Ly Lz Volume Pxx Pyy Pzz Pxy Pxz Pyz Enthalpy 
16500000    185.39957   -4987.3725   -4616.5505   -4987.3725            0    6558.5446    18.007713    22.633242    19.368087    7893.9078    4434.9397    8504.6484    6736.0456    696.71316    239.99024   -1669.8443    -3861.501 
16501000    182.58274    -5021.235   -4656.0469    -5021.235            0     7573.992    17.880266    22.795339    19.234621    7839.7763    8169.0789     7073.723    7479.1741   -1399.5321   -111.76218   -650.66761   -3790.0738 
16502000    183.96414   -5007.6244   -4639.6734   -5007.6244            0    8520.0381    17.779486    22.763072    19.308079    7814.2832    9235.7927    7745.9868    8578.3347    649.43399     -654.321    466.28542   -3668.7017 
16503000    181.17848   -5008.1484   -4645.7691   -5008.1484            0    10052.431     17.78294    22.866905    19.115965    7773.3315    10715.108    8435.8617    11006.323   -304.16223    -931.1703    2577.2312   -3506.1645 
16504000    173.27092   -5022.3799   -4675.8166   -5022.3799            0    7382.4902    17.800263    23.105869    19.042276     7831.908    6733.4738    7357.2305    8056.7663   -72.188002    64.194347   -1922.2931   -3832.5861 
16505000    173.68906   -4990.1732   -4642.7736   -4990.1732            0    9040.1557    17.927632    22.710854    19.149069    7796.5787     6959.767    10297.051     9863.649    -104.0978   -259.23659   -1429.3139   -3614.8618 
16506000    182.83382    -5000.465   -4634.7747    -5000.465            0    8284.3308    18.047618    22.472921    19.368882    7855.6832    8887.2061    8582.8813    7382.9049   -2056.1039   -1344.3345   -156.61614   -3685.6631 
16507000    180.26442     -5013.72   -4653.1689     -5013.72            0    8503.3989    17.835483    22.741408    19.271935    7816.7735    8711.1685    8411.3101     8387.718   -703.15059   -384.96984   -802.87316   -3683.7846 
16508000      174.203   -4983.6811   -4635.2536   -4983.6811            0    9441.4735    17.677735    23.091869    19.135718    7811.4286    10922.713    9728.7647    7672.9431    284.74966    869.04601   -347.44174   -3559.6651 
16509000    186.34093   -5000.7333   -4628.0284   -5000.7333            0    9609.8061    17.807894    22.843202    19.187244    7805.1658    10040.445    9358.0358    9430.9371    545.60703   -42.900609    484.11705   -3534.1409 
16510000    184.82789   -4998.3098   -4628.6312   -4998.3098            0    9335.1988    17.892084    22.651769    19.235338    7795.8391    8886.4024    10077.561    9041.6326   -527.03384    482.66217    1519.9041   -3567.2721 
16511000    184.85499   -5015.7671   -4646.0343   -5015.7671            0    9487.2724    17.951953    22.584359    19.177043    7775.0129    9039.3752    10576.454    8845.9875   -1327.3354   -432.82049    976.14949   -3570.2669 
16512000    187.39974   -4991.7119   -4616.8893   -4991.7119            0    7855.4608    17.910213    22.833197    19.223537    7861.4158    8571.8502    7295.8958    7698.6365    123.77713   -590.84293   -950.69163   -3716.2553 
16513000     188.1082   -4992.1463   -4615.9067   -4992.1463            0    7700.2845    17.832002    23.002834    19.092541     7831.504     6847.642    7981.7987    8271.4128   -77.029079    580.64179   -1753.7168   -3736.4229 
16514000    185.89897   -5013.5811   -4641.7602   -5013.5811            0    9552.7755    17.894737    22.755649    19.103607    7779.1104    11499.331     8578.026    8580.9697   -634.60938   -33.732689    199.82269   -3557.9945 
16515000    185.62095   -5019.8139    -4648.549   -5019.8139            0    7809.3003     18.03382    22.676441    19.155028     7833.312    7474.8011    7924.2007    8028.8992   -522.33972   -1231.8839    237.29209   -3756.4081 
16516000    184.89586   -5006.7112   -4636.8966   -5006.7112            0    9789.8799    17.910686    22.592148    19.259276      7793.09    10967.171      9925.66    8476.8087    690.35177     256.3187   -474.26652   -3524.2354 
16517000    189.51309    -5021.566   -4642.5164    -5021.566            0    9628.6658    17.859702    22.560882    19.324126    7786.2823    10113.362    9465.2912    9307.3438    459.27254    452.24621    942.45172   -3549.1338 
16518000    180.84735   -5020.8637   -4659.1466   -5020.8637            0    7597.9352    17.819133    23.046059    19.074548    7833.1688    7970.1839    6990.1278    7833.4938   -1066.0666    80.348309   -1076.6426   -3791.1682 
16519000    175.85468   -4993.3481    -4641.617   -4993.3481            0    9459.4502     17.75593    23.016761    19.072538    7794.6408    9881.8855    9361.5989     9134.866   -1469.9811   -182.68437    -499.5366   -3566.2966 
16520000    184.85647   -5022.5624   -4652.8266   -5022.5624            0    8112.5858    17.954509    22.802929    19.142496    7837.2325    7098.9359    8525.4147    8713.4068    81.035243   -439.80983    237.12322   -3725.5743 
16521000    179.73181   -5023.9748   -4664.4889   -5023.9748            0    9373.3714    18.071986    22.461251    19.222957     7802.971    8151.6989    10071.429    9896.9868    853.99648   -1012.5203    -587.6028   -3597.8149 
16522000    185.36717   -5013.2131   -4642.4559   -5013.2131            0    9272.9882    17.881146    22.734594    19.167847    7792.1249    8190.0602    10363.045    9265.8588   -110.48787      166.867   -273.42458   -3588.6721 
16523000    177.41606   -5016.6822   -4661.8282   -5016.6822            0    9877.1047    17.684462    23.081526    19.035921    7770.1653    8005.7256    10737.294    10888.295   -637.12769     537.2258    485.52846   -3542.5557 
16524000    182.02317   -4980.9466   -4616.8778   -4980.9466            0    7771.9305    17.806382    22.938911    19.269066    7870.6238    8420.2221    8194.3341    6701.2354    -284.1668   -157.72693   -314.12799   -3724.7769 
16525000    187.09489   -5000.2576   -4626.0447   -5000.2576            0    9710.1002    17.940715    22.634491    19.232784    7810.0289    10877.285    8635.6622    9617.3537      1217.43   -1672.9068    1190.6721   -3520.0521 
16526000    186.25136   -4996.8864   -4624.3607   -4996.8864            0    10362.155    18.032819    22.552851    19.158035    7791.4095    9427.3365    10858.614    10800.514     518.6168    510.20502   -812.92841    -3446.912 
16527000    183.69391   -4989.6761   -4622.2655   -4989.6761            0    7900.9063    17.867153    22.985039    19.073715    7833.1399    7255.6348    7718.5255    8728.5586    -518.4738   -448.93975   -405.85274   -3719.6793 
16528000    175.82334   -5008.6415   -4656.9731   -5008.6415            0    8484.3791    17.822386    22.839081    19.233796    7829.0574    9154.7645    8598.9306    7699.4423    1076.0423   -29.184008    1034.4235   -3688.2372 
16529000    182.53834   -5011.4962    -4646.397   -5011.4962            0     7739.238     17.80283    22.808792    19.342749    7854.3369    8283.0663    7740.6598    7193.9879    811.50469   -668.69605    348.86547    -3759.887 
16530000    183.62945   -5000.2693   -4632.9877   -5000.2693            0    8818.8208      17.8737    22.732931     19.29214    7838.8129    8507.9614    9248.3697    8700.1313    334.78389    133.90824    202.46131   -3624.8109 
16531000    188.18341   -4995.4848   -4619.0947   -4995.4848            0    9048.7584    17.885429    22.645033    19.292061    7813.5955    10765.821    8520.3563    7860.0982   -394.24252   -1022.6847    1168.2773   -3587.9591 
16532000    183.47656    -5008.636   -4641.6602    -5008.636            0    6662.0508    17.773416    22.872015    19.395012    7884.3407     7595.324    6595.4871    5795.3415    -1088.307    546.68326    79.975316   -3875.6241 
16533000    178.20221   -5003.4111   -4646.9847   -5003.4111            0    8537.2847    17.812701    22.881289    19.173457    7814.6708    9199.7251    8222.6698    8189.4592    154.99921   -685.46459   -1251.8064   -3673.9993 
16534000    177.58596   -5020.6901   -4665.4963   -5020.6901            0    8693.8771    17.974451    22.685467    19.126357    7798.9409    8872.2068    8794.8842    8414.5402    1500.0836    321.11837   -1282.3018   -3676.6586 
16535000    181.22257   -5035.9343   -4673.4668   -5035.9343            0    7103.7838    17.969499    22.708026    19.231086    7847.2804    6742.1563    5730.6905    8838.5047    842.53493   -400.65491   -490.88473   -3860.4776 
16536000    171.66732   -5010.9779    -4667.622   -5010.9779            0    8302.0988     17.97243    22.713446    19.188029    7832.8571    9565.1267    8091.6453    7249.5245    6.6218223    656.37706   -993.83794   -3719.2385 
16537000    178.03322   -4995.6476   -4639.5591   -4995.6476            0    9130.1766     17.87324    22.728711    19.189668    7795.5283    9977.5483    8969.8192    8443.1621    257.87933    104.79047   -1091.8953   -3601.5513 
16538000    179.36214   -5007.0086   -4648.2622   -5007.0086            0    8616.2813    17.856867    22.833294    19.169158    7815.8619    8672.0583    9458.4217    7718.3638   -779.08625    997.85123   -318.78194   -3666.1239 
16539000    181.69713   -5015.2823   -4651.8656   -5015.2823            0    8642.8789    17.976153    22.715136    19.162805     7824.763    7335.5391    9829.5117     8763.586    558.36461    1085.7974    1052.2144   -3665.5736 
16540000    181.82488   -5008.6093   -4644.9371   -5008.6093            0    8061.6448    18.051475     22.68855    19.176296    7853.8783    8214.2739    7997.6403    7973.0203   -755.17764    916.87986     663.4878   -3721.5502 
16541000    177.37979   -4998.0228   -4643.2413   -4998.0228            0    7692.1283    18.011437    22.661457    19.219665    7844.8025    8697.7847    7382.3217    6996.2786    394.79184   -953.96279   -457.19619   -3763.1973 
16542000    181.43111   -5008.4496    -4645.565   -5008.4496            0    9598.0586     17.93682    22.646596    19.212456    7804.2516    9301.4302    9796.1443    9696.6014   -1335.1989    421.37329    -150.2432   -3553.1427 
16543000    183.99642    -4996.397   -4628.3814    -4996.397            0    9187.2922    17.743068    22.920537    19.212355    7813.2927    10309.642    9133.8141    8118.4209   -747.30469    618.32469   -10.612504      -3581.5 
16544000     175.0963    -5011.166   -4660.9518    -5011.166            0    8959.8536    17.770891    22.748478     19.24964    7781.8735    8614.3277    8918.3282    9346.9049    449.00908   -749.53056    2933.7335   -3644.0923 
16545000    176.69177    -5020.448   -4667.0427    -5020.448            0    8115.8647    17.891976    22.619821    19.275883     7801.206    7602.3406    9232.7892    7512.4644     287.4601    717.60883   -1911.7693   -3743.6797 
16546000    179.50548   -5018.1315   -4659.0983   -5018.1315            0    8068.8194    17.821008    22.806893    19.213606    7809.2133    7595.9935    8920.1112    7690.3536   -1456.9093    -206.6448   -1098.8135   -3740.1456 
16547000    181.41698   -5011.4882   -4648.6319   -5011.4882            0    7845.5412    17.886743    22.923873    19.119247    7839.5305    7263.9192    7230.7033    9042.0011   -488.43331   -161.77213     379.6071   -3751.6393 
16548000    180.12708   -5022.0711   -4661.7947   -5022.0711            0    8704.9636     17.79427    22.875214    19.230325    7827.6604     9513.737    8215.9062    8385.2476     47.11465   -334.72218    -308.7401     -3668.05 
16549000    179.92611   -4999.5992   -4639.7247   -4999.5992            0    5290.9242      17.8312    22.965208    19.312144    7908.2692    5443.9347    5735.8599    4692.9781    729.44531   -403.51715   -2572.4778   -4029.5013 
16550000    176.98325   -5018.6303   -4664.6419   -5018.6303            0    8941.6397    17.933749    22.844769    19.147993    7844.7862    7470.5687    9921.5826    9432.7676    539.88737    1687.6633    219.77351   -3641.6454 
16551000     184.4853    -4971.718   -4602.7246    -4971.718            0    7996.9535    17.932893    22.799215    19.223396    7859.5986    8938.2502    8801.2335    6251.3768   -250.95698    674.26559    1636.0235   -3686.0803 
16552000     181.1958   -5019.2569   -4656.8429   -5019.2569            0    7596.6832    17.758925    22.892196    19.254588    7827.7753    8086.4143    7255.7571    7447.8782   -227.44448     412.2172     796.3735    -3789.605 
16553000    178.85114   -5036.8879   -4679.1635   -5036.8879            0    6910.4298    17.792964    22.909367    19.276988    7857.7926    7206.9357    7298.6796    6225.6743   -1266.7685    -228.9375   -573.90324   -3887.2432 
16554000    177.65844   -4977.6208    -4622.282   -4977.6208            0     8551.098    17.902758    22.803151     19.16924    7825.6369    10208.323    7747.9693    7697.0019   -271.79763   -671.31584   -147.75627   -3646.3547 
16555000    187.36344   -5011.2695   -4636.5195   -5011.2695            0    8668.8295    17.956127    22.740487    19.131414    7811.9509    7468.5082    9149.0039    9388.9765   -414.63533   -372.36567    1666.4967   -3648.8859 
16556000    189.52337   -4990.2488   -4611.1787   -4990.2488            0    8676.3112    17.998763    22.843591    19.042372    7829.3929    8338.0885    8167.6548    9523.1903   -397.53938   -492.20343    922.91548   -3620.4856 
16557000    171.80014   -5018.1109   -4674.4894   -5018.1109            0     8216.453    17.904169    22.797756    19.179234    7828.4815     7878.595    8775.1745    7995.5896   -78.953343    141.25394   -763.93768   -3736.4139 
16558000    181.82226   -5011.1434   -4647.4764   -5011.1434            0    7398.7593    17.947343    22.698358    19.232152    7834.7021    8090.3895    6766.8511    7339.0373    34.992306   -1028.7026   -1629.1791    -3802.086 
16559000    177.34912   -5004.2309   -4649.5108   -5004.2309            0    8998.1313    17.895079     22.64399     19.29454    7818.4562    9115.5214    9344.3749    8534.4977    136.24099    355.50407    197.72851   -3623.5064 
16560000     179.3007   -5010.9842   -4652.3607   -5010.9842            0    7290.4216    17.864396    22.937599    19.170994    7855.6281    6593.6055    7251.8462     8025.813   -863.31717    138.72569   -416.07936   -3817.1242 
16561000    186.58945   -5009.0319   -4635.8299   -5009.0319            0     7981.919    17.794219    23.072701    19.105689    7844.0451    8579.4916    7535.1286    7831.1366     1050.707   -675.81127    886.34319   -3722.7195 
16562000    185.15677    -4978.142   -4607.8056    -4978.142            0    9550.4791    17.974424    22.692076    19.146499    7809.4164    9100.6494    9375.7955    10174.992   -355.10185   -312.64328   -295.54482   -3520.0793 
16563000    193.76985   -5013.8415   -4626.2778   -5013.8415            0    8044.5284    18.061035    22.745789    19.127283    7857.7265    7220.7944    7807.8204    9104.9705    625.19953   -925.54189   -789.77753      -3704.4 
16564000     178.3752   -5010.3217   -4653.5492   -5010.3217            0    8978.5389    17.769253    22.753308    19.346033    7821.7811    11841.692    7847.2554    7246.6693   -155.53552   -845.94341   -555.95852   -3629.3435 
16565000    177.03631   -5015.8474   -4661.7529   -5015.8474            0    8695.2896    17.813551    22.754874    19.282918    7816.2362     9560.238    8892.2315    7633.3993    584.25402    706.78244   -207.32297   -3670.5613 
16566000    184.02917   -4993.3906   -4625.3095   -4993.3906            0    7709.8916    17.769673    22.867728    19.315517    7848.8998    10430.565    6648.9507    6050.1596   -397.39972    172.29371   -760.21685   -3742.7724 
16567000    174.16915   -5000.9749   -4652.6151   -5000.9749            0    8140.1943    17.866801    22.906704     19.14461     7835.305    7328.6867    7941.7224    9150.1739    583.70051    195.55414    2196.8774    -3722.436 
16568000    183.34848   -5008.0314   -4641.3118   -5008.0314            0    10238.328    17.906752    22.702585    19.171446    7793.7593    11059.702    10139.973    9515.3081    684.65349    1016.7101    1901.8788   -3477.5826 
16569000    182.04638   -5030.4857   -4666.3705   -5030.4857            0    8720.9442    17.858552    22.673273    19.275727    7804.9695    8853.1032    8707.7828    8601.9467   -1880.7939   -1052.3119   -1653.9632   -3673.6874 
16570000    181.71504   -5005.2285    -4641.776   -5005.2285            0    8392.6399     17.80702     22.79067    19.278508    7823.8725    7973.6769    8785.5068    8418.7359    4.1411092    372.04302   -1334.7611   -3684.1493 
16571000    185.32058   -5016.0731    -4645.409   -5016.0731            0    7695.7002    17.972462    22.742567    19.195731    7846.0615    6833.0108    7421.5452    8832.5446   -431.21803    326.73994   -1386.9472    -3764.815 
16572000    191.92496   -4994.9779   -4611.1042   -4994.9779            0    7574.7559    17.969983     22.79993      19.1644    7851.9293     6356.515    7538.0686    8829.6842   -986.85531    -329.7673   -681.05381   -3743.7012 
16573000     172.4129    -5011.609   -4666.7619    -5011.609            0     9710.783    17.909585    22.692548     19.12799    7773.8855    8460.8528    10937.964    9733.5318    607.65729   -881.65937      1552.03   -3565.8101 
16574000    176.66357   -5028.1692   -4674.8202   -5028.1692            0    9073.9623    18.071729     22.54187    19.181834     7814.115    9718.4634    8018.6075    9484.8161   -535.81336   -1022.1193    1361.2328   -3640.7438 
16575000     181.2472   -5016.2181   -4653.7013   -5016.2181            0    8763.4441    17.855831    22.829448    19.145901    7804.6113    9670.7082    7979.3876    8640.2363   -505.39543   -884.63133    3060.0852   -3656.2264 
16576000    178.70211   -4995.1704   -4637.7441   -4995.1704            0    8144.9775    17.653188     23.08264    19.188532    7818.9846    8248.5883     8270.928    7915.4162    165.32172    55.877922    859.73741   -3708.9571 
16577000    169.11698   -5012.4074   -4674.1525   -5012.4074            0    9301.1214    17.755905    22.945312    19.098044    7780.8252    9066.0878    9490.1836    9347.0929   -1596.7908   -43.705419   -738.18149   -3618.7045 
16578000    193.04246   -5000.1692   -4614.0604   -5000.1692            0    8502.8269    17.771735    22.714975    19.372797    7820.4979    10758.965    7211.8843    7537.6312    69.551238   -862.52698     992.5595   -3644.2795 
16579000    177.97786   -5013.5698   -4657.5921   -5013.5698            0    9049.7087    17.891592    22.529684    19.387529    7814.9564    9351.6954    10138.028    7659.4024    636.91184   -448.88431    679.13198   -3626.1685 
16580000    189.08738   -5010.1476   -4631.9495   -5010.1476            0    7023.0865    17.968608    22.800436    19.148155    7844.8477    6300.3385     7248.217    7520.7041   -355.24691   -482.72107    13.253707   -3828.4448 
16581000    186.26842   -5015.6894   -4643.1295   -5015.6894            0    8717.4846    17.823306    23.041646    19.047523    7822.4045    8116.4434    8958.9653    9077.0452   -380.40839    15.314167   -791.04761   -3648.6237 
16582000    177.12549   -5023.0572   -4668.7844   -5023.0572            0    9216.3036    17.912202     22.69007    19.213666    7808.9933    10082.844    8342.3137    9223.7535   -909.94222    -782.3885   -1708.4786    -3619.175 
16583000    180.91122   -4991.4511   -4629.6063   -4991.4511            0    8841.4338    17.988713    22.531666    19.295108      7820.61    8193.1121    9981.2282    8349.9611    378.85061   -333.30088   -1492.6261   -3621.1915 
16584000    192.36377   -5006.0388   -4621.2876   -5006.0388            0    8703.4057    17.850779    22.808369    19.234111    7831.1136    9118.0015    8921.2184    8070.9972    177.27221    775.84326    1049.1959   -3627.2824 
16585000    176.00676   -5010.4267   -4658.3914   -5010.4267            0    7824.0051    17.921254    23.028767    18.965272    7827.0511    6888.1338    7292.4404    9291.4411    670.27724    -297.0846    690.75482    -3765.285 
16586000    180.92919   -5020.7121   -4658.8314   -5020.7121            0    6971.9123    17.936579    22.823704    19.208085    7863.3896    7082.2339    7319.6888    6513.8141    -699.9571   -700.48758    1066.5184   -3859.2962 
16587000    181.97545    -5013.631   -4649.6577    -5013.631            0    9508.4546    17.869751    22.788703    19.105322    7780.2306    9696.0649     8869.751    9959.5479   -50.254229   -869.84909    1078.3356   -3570.7649 
16588000     180.1168    -5007.903   -4647.6471    -5007.903            0    7575.8781    17.931483    22.768171    19.216373    7845.4121    9049.7277    7716.4923    5961.4145   -464.45016    253.83518    366.00298   -3780.8357 
16589000    170.54781   -5022.9275   -4681.8108   -5022.9275            0     8151.587    17.951278    22.593393    19.274638    7817.4131    9566.3691     8359.208    6529.1839   -284.08377   -661.63737   -743.94984   -3752.4569 
16590000    183.07497   -5020.7113   -4654.5387   -5020.7113            0    9027.8452    17.831872    22.767244    19.213747    7800.4466      9617.98    9288.7509    8176.8046   -42.587636   -226.37855   -559.65994   -3627.5174 
16591000    180.14616   -5016.8537   -4656.5391   -5016.8537            0    9530.3169    17.910584    22.745133    19.132728    7794.2644    9781.7768    8847.7949    9961.3792   -767.51814   -766.05157   -1599.0006   -3573.2151 
16592000    178.79137   -5012.8388   -4655.2339   -5012.8388            0     7372.276    18.049969    22.695795    19.157172    7847.8962    7293.8257      7403.14    7419.8622    298.55775    164.53153     2556.889    -3811.451 
16593000    185.90849   -5000.7984   -4628.9584   -5000.7984            0    8118.3275    17.966659    22.838206    19.105356    7839.4291     6892.293    8837.1318    8625.5577   -1265.7177    373.72317    45.175672   -3700.7898 
16594000      176.991   -4999.4874   -4645.4836   -4999.4874            0    9213.2348    17.865493    22.753922    19.186672    7799.5746    8999.4481    9742.0324    8898.2238    226.11674   -280.53714   -1612.4824   -3597.4892 
16595000    172.89976   -5023.3534   -4677.5325   -5023.3534            0    7713.5235    17.844821    22.810615    19.228416    7826.9522    7227.7693    8288.0809    7624.7202   -233.52921    -148.0365   -422.34544   -3797.0487 
16596000     186.8254   -5012.6157   -4638.9418   -5012.6157            0    8870.6581    17.823858    22.725275    19.247952    7796.4227    8731.6724    9187.1169    8693.1849   -655.19127   -101.29845   -625.61572   -3630.3229 
16597000    182.06015   -5020.0943   -4655.9515   -5020.0943            0    6071.3079    17.981034    22.788635    19.249583    7887.7714    7144.1426    5532.9336    5536.8476   -378.00844   -193.44824    747.25651   -3957.5383 
16598000    188.25694   -5027.3795   -4650.8424   -5027.3795            0    7474.5194    17.946598    22.817798    19.131923    7834.5577    7559.6873    6798.1271    8065.7437    48.684417    125.59914   -118.70538   -3796.8114 
16599000    178.06469   -5004.7348   -4648.5834   -5004.7348            0    8881.9088    17.911146    22.654478    19.178933    7782.1913    8762.2317    9343.1765    8540.3182    9.3091398    782.18581     375.1124   -3640.5287 
16600000    180.84336   -5016.6943   -4654.9852   -5016.6943            0      7837.37    18.140505    22.483032    19.251347      7851.73    7176.8017    8046.4713    8288.8369    608.63521   -346.04857   -1903.5928   -3757.5325 
16601000    174.30017   -5022.1704   -4673.5485   -5022.1704            0    9575.6814    17.836627    22.768736    19.136227    7771.5559    9148.7985    9391.6957     10186.55    467.98562    463.93728    965.88933   -3588.2391 
16602000    178.49338   -5007.3639   -4650.3551   -5007.3639            0    8114.4538    17.775327    22.934096    19.223773    7836.7833    10507.004    6953.5358    6882.8216    1297.9992   -491.13628   -261.50108   -3722.9425 
16603000    182.92183   -5000.4478   -4634.5815   -5000.4478            0    8443.8413     17.80141    22.841708    19.260273    7831.5081    8721.0128    9659.7865    6950.7247   -1390.6907    942.00687     990.9942   -3670.1723 
16604000    175.76786   -4988.8653   -4637.3079   -4988.8653            0    8844.5774    17.887075    22.743941    19.226958    7821.9605    8122.1119    8844.6103      9567.01    -950.2554    582.72421   -142.63458   -3628.3603 
16605000    184.27259   -4989.5355   -4620.9675   -4989.5355            0     8257.987    17.995053    22.670411    19.262931    7858.4136    9495.1901    8147.7221    7131.0489    509.53607   -287.51097   -730.82014   -3674.5452 
16606000    171.46722    -5014.635   -4671.6794    -5014.635            0    8600.6134    17.899321    22.868585    19.108974    7821.9171     7089.066    7633.9792    11078.795    455.58269   -421.27592     -1033.45   -3690.5675 
16607000    173.04769    -4984.661   -4638.5442    -4984.661            0    9577.0387    17.838864    22.841748    19.117854    7789.9679    7860.1122    10322.485    10548.519    -822.6365    731.35477   -2382.1699   -3550.5094 
16608000    179.17399    -4998.714   -4640.3439    -4998.714            0    7614.7045    17.895183    22.820743    19.252643    7862.4204    6313.5376    8241.2277    8289.3482   -1081.4197    1142.7813   -194.77097   -3767.2012 
16609000    185.28872   -5025.0911   -4654.4908   -5025.0911            0    7837.9604    17.953947    22.593893    19.261859    7813.5647    7056.9436    8979.0584    7477.8793   -6.1327442    912.83193   -562.46357   -3761.3331 
16610000    185.58127   -5007.9203   -4636.7349   -5007.9203            0    7718.5395    17.875511     22.85335    19.206104    7845.9876    7091.3025    8133.1216    7931.1944    1044.1615    478.51122    1600.2343   -3753.5357 
16611000    189.48106   -5002.1342   -4623.1486   -5002.1342            0     8019.558    17.799926    22.806073    19.327025    7845.7367    9427.2839    8217.4886    6413.9016    2118.4553    601.66575   -1037.6607   -3705.5346 
16612000    183.85787   -5006.0076   -4638.2691   -5006.0076            0    8539.9993    17.903886    22.658274     19.24953     7808.979    7382.2868    9212.5894    9025.1217   -1246.1668    860.68073   -2009.7967   -3665.6832 
16613000    178.79339   -5020.6585   -4663.0496   -5020.6585            0    6988.8694    17.885208    22.652926    19.392154    7856.7758    8368.0522    8297.5449    4301.0111   -511.25366    553.31218    534.99771   -3862.2439 
16614000    189.11598   -5012.7225   -4634.4672   -5012.7225            0    9741.3437    17.826701    22.741365    19.202532    7784.7738    10846.969    10229.255    8147.8072   -2.4888332   -13.130827    -690.2535   -3528.5038 
16615000    169.70405   -4982.8267   -4643.3977   -4982.8267            0    9088.8789    17.826822    22.965225    19.087149    7814.2211    8455.1788    9901.0081    8910.4498   -664.98063    642.26749   -1114.6697   -3607.6072 
16616000    180.31353   -5033.1628   -4672.5134   -5033.1628            0    6906.0389    17.900644    22.842209    19.203503    7852.1251    6093.6307    6593.9393    8030.5467    329.19258    85.546936    1081.8937   -3881.6671 
16617000    169.11817   -5010.0595   -4671.8023   -5010.0595            0     8770.039    18.013298    22.522315     19.23073    7801.9298    8574.3805     9369.938    8365.7985    462.35205    771.11255    1765.6667   -3673.9197 
16618000    173.37442    -5010.073   -4663.3028    -5010.073            0    8608.7114    17.893015    22.668007     19.26084    7812.1772    10029.303    8870.8876    6925.9436    57.805064    97.759248   -519.32794     -3682.49 
16619000    179.63816   -5027.1289   -4667.8304   -5027.1289            0    8242.4699    17.686836    22.999889    19.213315    7815.8857    9050.0604    6272.3883    9404.9609   -204.11357   -1230.5215   -74.971697   -3728.2987 
16620000      179.978   -5015.4208   -4655.4425   -5015.4208            0    6779.6994    17.845834    22.912854    19.169376    7838.3384    5203.6572    7262.4026    7873.0384   -733.22793    187.27761    258.20293   -3880.4271 
16621000    174.22304   -5013.5953   -4665.1277   -5013.5953            0    8465.4403    17.997266    22.519316    19.299143    7821.6749    7284.5588    10055.269    8056.4935    35.893597    345.16492   -82.521453   -3699.4656 
16622000    186.23857   -4998.1398   -4625.6396   -4998.1398            0    8876.9204    17.969533    22.590298    19.268061    7821.6208    8454.6116    9943.6791    8232.4705   -524.26994    700.24385     730.6382   -3613.0465 
16623000     183.0583   -5015.9552    -4649.816   -5015.9552            0    8718.9644    17.753972    23.034616    19.105342    7813.2431    8440.4898    8771.1084    8945.2949    885.53717    1630.1301    246.65726   -3656.3063 
16624000    185.92612   -5004.6565   -4632.7813   -5004.6565            0    9234.1486    17.751482    23.091088     19.04974    7808.5081    10681.963    8175.6814     8844.801    159.71187   -140.21453    601.64109   -3581.2049 
16625000     188.4681   -5006.3093   -4629.3498   -5006.3093            0    7892.7392     18.01242    22.891971    19.007561    7837.5734     7585.169    7801.7772    8291.2715    131.20218   -586.93768   -471.94091   -3727.1863 
16626000    178.20627   -5016.9289   -4660.4943   -5016.9289            0     7877.479    18.038792    22.643963    19.174804    7832.3274    7380.9283    7651.8594    8599.6494   -1260.4158   -677.20901   -575.50427   -3760.6778 
16627000    175.60238    -5012.113   -4660.8866    -5012.113            0    7898.8815    17.845408    22.809839    19.258085    7839.0205    7691.2031    8343.1027    7662.3388    693.68927    356.70129    1124.9505   -3757.8543 
16628000    180.28919   -5021.0319   -4660.4312   -5021.0319            0    9089.9399    17.762448    22.802162     19.24799    7795.8636    9385.9157     9282.826     8601.078   -466.97823   -547.88906    841.30828   -3626.9535 
16629000    189.10927   -4991.1191   -4612.8772   -4991.1191            0    8033.6073    17.786879    22.904391    19.209574    7825.9355     9102.653    7819.5346    7178.6342    1671.6688    616.73653    584.19868   -3695.9755 
16630000    172.38188    -5019.851    -4675.066    -5019.851            0    7621.9222    17.827748     22.91565    19.154339    7825.2071     7384.123    7767.8813    7713.7623   -330.80722    404.10089   -419.36583   -3805.2323 
16631000    171.17002   -5018.3386   -4675.9774   -5018.3386            0    8695.2981    17.972939    22.591892    19.235149    7810.2918    6898.3855    10414.795    8772.7137   -1341.6622     1407.141   -824.16648   -3685.5386 
16632000    184.96248   -4999.7696   -4629.8217   -4999.7696            0    8582.3685    17.925021    22.658086    19.354042    7860.5795    9843.6866     8095.993     7807.426   -15.640419    588.00593   -449.88412    -3645.952 
16633000    186.29004   -5005.3809   -4632.7778   -5005.3809            0    8566.9709    17.781904    22.827509     19.27272    7823.1167     7732.171    8541.8758     9426.866    289.27405    1047.0897   -475.63036   -3655.3538 
16634000    175.79963   -5013.6616   -4662.0407   -5013.6616            0     9058.016    17.831607    22.760856    19.202063    7793.3998     9821.802    9463.8136    7888.4323   -910.12921    707.37043   -1097.8471    -3632.518 
16635000    185.55158   -5037.4663   -4666.3402   -5037.4663            0    5679.9097    18.048454    22.812324    19.142294    7881.4026    6851.6123    4637.0327    5551.0841    24.874875   -127.88824   -1219.3419    -4013.479 
16636000      189.405   -5007.5978   -4628.7644   -5007.5978            0    9281.1756    17.991053    22.576085    19.184855    7792.2654    9721.3804    9716.2163      8405.93    1338.1508    605.17964    1076.7862   -3574.0312 
16637000      181.709   -5026.5695   -4663.1291   -5026.5695            0    8074.8166    17.954344    22.796016    19.163098    7843.2168    7069.0172    8885.7967    8269.6358   -1128.4698    2349.3122   -2834.0632    -3739.489 
16638000     185.3299   -5018.1176   -4647.4349   -5018.1176            0    9614.1118    17.882204      22.7325    19.152906    7785.7944    11580.172    8996.0913    8266.0716   -281.19428    844.61684   -2.8809123   -3555.7735 
16639000    174.00562   -5024.8733   -4676.8406   -5024.8733            0    7866.3426    17.900826    22.709677    19.277907    7836.8929    7919.3791    8172.0636     7507.585   -32.877849    825.04928    2538.1552   -3777.7723 
16640000    187.98856   -5011.9445   -4635.9442   -5011.9445            0    7784.6751    17.806213    22.748326    19.290331    7813.7712    6175.4454    8224.3524    8954.2276    1343.6372    43.595547    943.70399    -3748.835 
16641000    175.39197   -5004.0505   -4653.2449   -5004.0505            0    9044.0942    17.857322    22.806839    19.119063     7786.603    7132.7664    9487.9751    10511.541    1269.1011   -80.252102    238.70294    -3626.201 
16642000    173.85084   -4998.2573   -4650.5341   -4998.2573            0    8028.5027    17.966823    22.954492    19.031488    7848.9531    7963.1893    6950.7265    9171.5921    45.166476   -1427.6253   -994.21229     -3731.52 
16643000      174.846   -5004.9882   -4655.2746   -5004.9882            0    9267.1231    17.949341    22.825629    19.057987    7808.1526    10072.144    8102.2173    9627.0081   -444.76691   -303.69564    759.29092   -3599.9912 
16644000    181.95773   -5015.7945   -4651.8565   -5015.7945            0    7012.1848    17.887208    22.896946    19.225586    7874.0777    7389.4014    6920.7683    6726.3847   -71.760931   -397.25862    787.44176   -3846.6099 
16645000    178.59247   -5011.1187   -4653.9117   -5011.1187            0    8573.0095    17.834408     22.62763    19.408091    7832.1424    9268.9978    9477.2096    6972.8211   -153.65152    847.29907   -1628.3097   -3674.6703 
16646000    184.97653   -5028.3777   -4658.4018   -5028.3777            0    8642.3087    17.910874    22.681817    19.212407     7805.063    8475.8931    8735.9367    8715.0963   -34.503788   -382.47802   -568.11975   -3674.6579 
16647000    178.44318   -5030.7714    -4673.863   -5030.7714            0    7605.5354    17.936921    22.745049    19.169333    7820.6309    7962.6499    7817.0116    7036.9447   -1293.9133    98.027578     505.3461   -3806.4069 
16648000    178.36168   -5011.3432   -4654.5978   -5011.3432            0    8818.6115    17.787214    22.863923    19.191706    7804.9884    8868.8383    8146.0853    9440.9109   -797.05423   -275.01736    1240.8029   -3650.7951 
16649000    179.47989   -4990.1801   -4631.1982   -4990.1801            0     7806.348    17.810867    22.926747    19.230798    7852.8045    7516.2174     7346.559    8556.2676   -363.66385    530.65025   -1836.2467   -3737.1754 
16650000    171.90858   -5005.1402   -4661.3018   -5005.1402            0    7836.6329    17.898905    22.790737    19.218341    7839.7231    8133.7619    7060.7078    8315.4289   -1094.2358    182.01573   -812.67117   -3765.3057 
16651000    188.28024   -4991.7852   -4615.2015   -4991.7852            0    9755.8222    17.951814    22.548842    19.312809    7817.6822    11276.419    9341.8703    8649.1767    200.46439   -316.18385   -1118.6679   -3502.9121 
16652000    180.81335   -5007.2976   -4645.6485   -5007.2976            0    8487.6165    17.979172    22.613269    19.262861    7831.6601    9828.4617    9071.4518     6562.936   -413.25103   -453.41287     410.4284   -3676.2207 
16653000    187.63011   -5022.7694    -4647.486   -5022.7694            0    6288.9647    17.928919    22.957114    19.096115    7859.8892    6438.8097    5167.0832    7261.0012   -446.97571    158.10936    48.127858   -3926.5919 
16654000    177.60604   -5008.8157   -4653.5816   -5008.8157            0    7540.3178    17.848589    23.027429    19.095485    7848.3798    9528.3073    7334.6957    5757.9505   -133.43465    1122.2388   -226.93634   -3790.5126 
16655000     175.5945   -5004.8899   -4653.6792   -5004.8899            0    10039.965    17.810965    22.618748    19.324126    7784.9506    10047.019    10150.727    9922.1493    686.80601    396.20906   -2518.8893   -3513.7866 
16656000    170.27112   -5017.0447   -4676.4814   -5017.0447            0    8458.5207    18.218022    22.295425    19.348399    7858.9046    7171.5391    9924.8915    8279.1315    100.09928    735.36801   -1391.9705    -3707.016 
16657000    177.72556   -5008.5774   -4653.1043   -5008.5774            0    9460.5391    18.022503    22.842314    18.986649    7816.3414    8164.0441    8599.4653    11618.108    780.54734   -550.46347    599.48244   -3574.6661 
16658000    179.69334   -5030.0601   -4670.6512   -5030.0601            0     7612.188    17.941274    22.937871    18.991072    7815.4839     6922.354     7571.664    8342.5459   -572.57254    148.88952   -567.24978   -3803.0078 
16659000    180.10754   -5023.8803   -4663.6429   -5023.8803            0    9029.7749    18.024568     22.55188    19.207194    7807.4921    7454.7477    10128.403    9506.1739    -473.4001    278.92472    370.04893   -3635.4743 
16660000    186.92062   -5008.2242   -4634.3598   -5008.2242            0    10004.526    17.844132    22.579432    19.300238    7776.2659    10458.221     10072.76    9482.5958     1196.898    -29.63837    335.18875    -3499.758 
16661000    178.78929   -5022.1081   -4664.5074   -5022.1081            0    7890.3549    17.820356    22.753758    19.301436    7826.3474    7614.8939     7780.656    8275.5148    657.71971   -546.41032    34.547009   -3763.9082 
16662000    180.98235   -5012.5212   -4650.5342   -5012.5212            0      8061.48    17.766377    22.841669    19.313119    7837.5283    8782.8701    7521.0534    7880.5165    724.25932   -741.17755    803.64243   -3729.0884 
16663000    173.83375   -5005.3305   -4657.6415   -5005.3305            0    8576.0947    17.803124    22.859772    19.240483    7830.4025    10040.963    8382.2094    7305.1114    198.84434   -1210.8703    2040.3445   -3678.2653 
16664000     181.2578   -5023.6732   -4661.1352   -5023.6732            0    7583.4011    17.927009     22.73501    19.219321    7833.2329    6927.5465    7049.0292    8773.6277   -705.13428   -891.44139   -777.23663     -3794.81 
16665000    180.93631   -5018.2247   -4656.3297   -5018.2247            0    9186.0624    17.798756     22.69486    19.270382    7784.0834    9391.9797     8876.766    9289.4417    -364.0203    82.374178    450.55965   -3613.5015 
16666000    188.62881   -4991.4531   -4614.1721   -4991.4531            0    9547.2266     17.80853    22.889922    19.166754    7813.0562    8781.4551     9718.469    10141.756     1478.068    -701.9778   -44.573767   -3526.3095 
16667000    181.87969   -5012.7071   -4648.9252   -5012.7071            0    9447.5051    17.775681    22.854874    19.180285    7792.2006    10260.696    9589.6281    8492.1908   -462.73648    -830.5392    -277.5984   -3575.2989 
16668000    186.32497   -5006.5403   -4633.8673   -5006.5403            0     7590.489    17.801748    22.857605    19.261666    7837.6743    7016.2827    8448.3225    7306.8618   -800.32068   -345.79817    417.77928   -3766.2407 
16669000    181.41419   -4984.4827   -4621.6319   -4984.4827            0    8196.3711     17.89508    22.734524    19.275341    7841.9051    8030.3857     8803.801    7754.9268    631.86789     479.4962     597.9993   -3684.2446 
16670000     173.6775   -4993.0762   -4645.6998   -4993.0762            0    7789.7535    18.031716    22.636343    19.211723    7841.6896    8485.8125    7803.3946    7080.0534    -10.42488   -1460.1783   -544.86507   -3754.8402 
16671000    187.17775   -5004.9864   -4630.6077   -5004.9864            0    8898.8564     17.81801    22.788582    19.158297    7779.1723    8199.0628    9216.8544    9280.6518    815.36248   -460.40381     266.0304   -3621.0214 
16672000    176.06855   -5011.2734   -4659.1145   -5011.2734            0      8058.06    17.722082    23.045207    19.189517     7837.172    8463.4762    8184.1433    7526.5606    290.65278    450.28756    550.26457   -3738.1015 
16673000    171.29223   -5008.3746    -4665.769   -5008.3746            0    8720.1596    17.890146    22.787019    19.203459    7828.5417    8547.7311    7876.1809    9736.5668    158.93769   -1357.6131    1167.3745   -3670.1775 
16674000    187.27622   -5031.7996   -4657.2241   -5031.7996            0    8005.2254    17.910805    22.651855    19.313363    7835.6819    7683.1583     8984.804    7347.7139    455.65546   -930.61672    1352.8666   -3742.4239 
16675000    179.23618   -5011.8817   -4653.3872   -5011.8817            0    8953.5328    17.764436    22.838841    19.210991    7794.2664    9095.2274    9685.9608    8079.4101   -773.62899    525.13983    207.56143   -3635.6267 
16676000    187.11092    -5028.468   -4654.2231    -5028.468            0    8972.4042    17.767854     22.79448    19.269456    7804.3032     8867.419    8749.5962    9300.1975    243.88072   -184.69429   -455.49002   -3633.0042 
16677000    189.63178   -5011.5172   -4632.2302   -5011.5172            0    8550.4763    17.873059    22.573879    19.374583    7816.9516    8052.8231    9579.2809     8019.325    1566.6307     77.18569    42.110839   -3657.4569 
16678000     184.0991   -5010.7018   -4642.4808   -5010.7018            0    7717.3522    17.791448    22.675793    19.407352    7829.6089    8883.3664    7709.4023    6559.2879     55.71392   -446.39886    435.20141    -3761.261 
16679000     184.5687   -5007.1444   -4637.9842   -5007.1444            0     8079.417    17.711719    23.069551    19.172511     7833.915    9035.5601    6563.1069    8639.5841    510.92252    169.81983   -759.15818   -3714.9139 
16680000    184.77526   -5019.1184   -4649.5451   -5019.1184            0    7374.2065    17.896679    22.916191    19.151181    7854.3536    7230.0819    7206.0383    7686.4993   -416.90324   -256.72682   -759.52755   -3804.8467 
16681000    177.82995   -5008.0858   -4652.4039   -5008.0858            0    10082.557    18.066687    22.544867    19.069831    7767.3533    9836.7953    10361.837     10049.04   -1747.7373    -807.5461    532.23756   -3510.2631 
16682000    179.65927   -5010.1722   -4650.8315   -5010.1722            0    7435.2658     17.87706    22.920645    19.164162    7852.5868     9067.021    6204.5488    7034.2277    809.86834   -1337.1352    1116.7868   -3799.3305 
16683000    184.50762   -5036.0047   -4666.9667   -5036.0047            0    8203.1252    17.727823    23.036416    19.179562    7832.6553    9172.7198    7102.3064    8334.3494    326.26344   -759.70362    1277.3594   -3729.9135 
16684000    169.13199   -5003.9598    -4665.675   -5003.9598            0      9361.25    17.937831    22.804547    19.055299    7794.8386    9042.5538    9629.2776    9411.9185   -1553.3363    75.938972    1965.7242   -3601.4907 
16685000    179.19246   -4990.6521   -4632.2451   -4990.6521            0    8119.2436    18.091911    22.608859    19.204736    7855.4567    6678.2262    8380.1984    9299.3062    365.41673   -582.58541    1583.2525   -3702.0738 
16686000    182.35527   -5000.3177   -4635.5847   -5000.3177            0    8056.5183    17.910192    22.916416    19.094178    7836.9651    7273.2806    7690.4658    9205.8085    68.806061    406.31742   -590.18784   -3714.7722 
16687000    179.71202   -5022.2094   -4662.7631   -5022.2094            0    8526.2401    17.865664    22.834904    19.152428    7813.4385    8251.5221    7641.7195    9685.4786    1312.3954    398.49864    -677.3129   -3691.1897 
16688000    185.88206   -5008.5838   -4636.7967   -5008.5838            0    8009.0993     18.01401    22.638112    19.235961    7844.4856    8276.0654    8149.0805     7602.152    2296.6519     106.9392    449.27506   -3720.5255 
16689000    180.28116    -5034.554   -4673.9694    -5034.554            0    7932.5733    17.897957    22.667632    19.256634    7812.4994     8650.865    7719.7461     7427.109   -129.47143    263.18866    186.92479   -3770.1535 
16690000    184.15912   -4990.2251   -4621.8841   -4990.2251            0    8111.6661    17.853995    22.926859    19.119058    7826.1193    8485.7481      7918.32    7930.9303   -843.75438    367.67522   -131.80157   -3696.0516 
16691000    178.34935   -5008.4099   -4651.6892   -5008.4099            0    6555.8711    17.888082    23.005327    19.156307    7883.2258    7067.6124    5709.5168    6890.4842   -1022.3877    183.05895   -1156.9886   -3897.9688 
16692000    189.77453    -5012.539   -4632.9665    -5012.539            0    9913.2838    17.799805    22.741807    19.195785    7770.4485    11547.903    9502.2689    8689.6798    668.19759    95.913635    917.41705   -3509.5533 
16693000    175.56265   -5001.2847   -4650.1377   -5001.2847            0    8825.1286    17.884709    22.724167    19.221949    7812.0904    8435.2693    9442.9217     8597.195    -419.4043    75.012399    1395.6142   -3644.6791 
16694000    179.84428   -5004.2731   -4644.5623   -5004.2731            0    7070.8269    17.879627    22.853758    19.209244    7849.2171    7148.3851    7054.4967    7009.5989   -661.39746    1026.4664    -589.1467   -3835.1451 
16695000    179.27027   -5004.1624   -4645.5997   -5004.1624            0    9328.8324    17.922516    22.778102    19.122856    7806.7318     9065.187    8747.1535    10174.157    941.80091   -493.67969    164.05451   -3583.4825 
16696000    177.94843   -5008.2716   -4652.3527   -5008.2716            0    9536.1321    17.955762    22.538103    19.259226    7793.9928     9411.849    10707.108    8489.4393    990.16024    607.45039   -534.17155   -3568.4055 
16697000    180.53184   -4999.1827   -4638.0967   -4999.1827            0    9994.1635    17.985767    22.482935    19.281686    7796.9896    8972.0577    11097.508    9912.9252    1536.8734    546.68504    1366.5534   -3501.6495 
16698000    179.92651   -5012.2013    -4652.326   -5012.2013            0    7561.2719    17.912861    22.761703    19.274295    7858.6548    7386.6026    8395.4643    6901.7487   -1172.4289    750.37972   -308.95383   -3785.7255 
16699000    193.62158   -5013.5156   -4626.2485   -5013.5156            0    9254.2842    17.792569    22.991177    19.052375    7793.7953    10284.737    7953.7939    9524.3213   -890.43653   -822.30799   -253.31076   -3574.3648 
16700000    172.94169   -5003.1939   -4657.2891   -5003.1939            0    8060.6947    17.930052    22.842848    19.142529    7840.2716    7493.4548    7628.0954     9060.534   -8.6687439   -1113.6638    377.07407   -3735.6106 
16701000    180.77513   -5008.5987   -4647.0261   -5008.5987            0    8061.9186    17.914826    22.737192    19.210334    7824.9999    7847.5993    8850.7565    7487.4002   -1664.8652    195.92964    -809.9864   -3727.0032 
16702000     178.8878   -5009.0039   -4651.2062   -5009.0039            0    8587.1645    18.004257    22.655435    19.152063    7812.0168     8474.695    8740.1372    8546.6612   -341.51423   -1256.1944   -1208.5692   -3672.8684 
16703000    175.06913   -5023.4052   -4673.2453   -5023.4052            0    8074.9199    17.927104    22.746127     19.20966    7833.1651    6766.5039     8463.945    8994.3107    118.17346    376.21758    84.960184   -3750.7771 
16704000    177.85327   -5033.7167   -4677.9882   -5033.7167            0     8237.167    17.904915    22.824852    19.119364    7813.6451    7129.4088    8696.5914    8885.5007   -1715.6679    1068.3217   -1260.1215   -3739.3301 
16705000    185.17709   -5038.5659   -4668.1888   -5038.5659            0    8538.9636    17.896936    22.827316    19.084834    7796.8993    10655.418    7160.5548    7800.9185   -1066.3298    -83.35558   -1253.8501   -3697.2252 
16706000    174.33455   -5014.5224   -4665.8317   -5014.5224            0    7404.5033    17.990005    22.807136     19.15149    7857.8654    8539.6558    6039.2402    7634.6141   -654.27921   -848.27242   -2198.7764   -3817.2837 
16707000    185.67417   -5024.5884   -4653.2171   -5024.5884            0    7659.3703    17.975794    22.536047    19.350726    7839.0437    6873.5328    8170.3441    7934.2339   -146.05841    23.930796   -1341.8025   -3777.5642 
16708000    191.97395   -5017.8841   -4633.9125   -5017.8841            0    8908.1042    17.934988     22.67753    19.239528    7825.1245    9184.4559    9034.5117     8505.345    979.03037    116.10532    685.24424    -3617.307 
16709000    178.87442   -5009.1223   -4651.3514   -5009.1223            0    8057.4373    17.924668    23.068778    18.994359    7854.1709    7081.6919     8484.718    8605.9019    262.19842    1195.1657   -391.13527    -3728.412 
16710000    178.24142   -4992.1892   -4635.6843   -4992.1892            0    7365.8881    17.916694     23.02341    19.042422    7855.0638     8598.724    5329.6571    8169.2831    832.99598   -982.80587    179.96613   -3791.8626 
16711000    181.83909    -5006.732   -4643.0313    -5006.732            0    8885.6204    17.950759    22.768037    19.118672    7813.8687     6353.414    10147.285    10156.162   -311.30419    291.41059    913.18206   -3630.4504 
16712000    182.34378   -5011.8493   -4647.1392   -5011.8493            0     8653.419    17.919349    22.541249     19.32954     7807.675    7349.5768    10164.277    8446.4034    1013.3489    482.88457   -169.03351   -3661.8009 
16713000    179.58446    -5011.953   -4652.7619    -5011.953            0    7470.1042    17.884263    22.751686    19.283739    7846.4984    6609.3065    7735.6789    8065.3272   0.41082133   -301.59149   -1794.2382   -3797.9345 
16714000    172.15994   -5000.5385   -4656.1973   -5000.5385            0    8402.2346    17.893474    22.872109     19.12927    7828.8736    8207.3884     8138.055    8861.2606    344.65927   -718.38798    187.61021    -3696.863 
16715000    172.31944   -5023.7035   -4679.0433   -5023.7035            0    7876.7386    17.942016    22.971562    18.923354    7799.3763    7837.1803    7406.8522    8386.1832    116.97956   -665.13113   -595.23096   -3783.0966 
16716000     186.8676   -5028.5383     -4654.78   -5028.5383            0    8193.6424     17.91881    22.844704    19.081535    7811.0243    7643.7535     8046.135    8891.0385    756.37564    657.04669    1393.1023   -3721.3949 
16717000    171.72121    -5016.718   -4673.2544    -5016.718            0    8239.9659    17.915634    22.793278    19.139979    7815.9255    7671.2185      9081.42    7967.2592   -679.03891    454.75906    118.47193   -3734.0033 
16718000    189.54179   -5011.3435   -4632.2365   -5011.3435            0    9497.5264    17.832767    22.688888    19.206338     7770.993    10153.765    9701.4863    8637.3283    1147.9634    162.93769    473.06202   -3555.8632 
16719000    182.03246   -5014.7943   -4650.7069   -5014.7943            0    8064.6066    18.040158    22.412836    19.326404    7814.2662    7205.7647    9672.9675    7315.0877   -428.19593    22.651956   -932.25211   -3731.6397 
16720000    172.63995    -5017.928   -4672.6268    -5017.928            0    8506.3187    17.888195    22.698257     19.25897    7819.7364    7771.5033    8821.4885    8925.9641   -422.34838    1463.2842   -380.29805   -3702.5421 
16721000    170.08251   -4997.9506   -4657.7645   -4997.9506            0    8936.9281    17.818779    23.007637     19.07543    7820.3158    7647.1659    9073.9024    10089.716    100.64221    510.31741    1639.7994   -3638.4964 
16722000    176.68656   -5033.0002   -4679.6052   -5033.0002            0    9252.9272    17.829804    22.807155    19.158376    7790.6981    9008.2431    9007.2422    9743.2963    2036.5533    1166.8942     1262.697   -3628.2937 
16723000    172.07036   -5014.0168   -4669.8548   -5014.0168            0    9094.6135    17.970469    22.492992    19.336347    7815.9374    9394.8881     9672.015    8216.9375    897.43701   -84.084311    312.72985   -3633.1832 
16724000    184.34486   -5016.9492   -4648.2367   -5016.9492            0    9102.7634    17.786219    22.843659     19.20899    7804.6574    9921.7239    8472.5867    8913.9795    818.40514   -265.95921    415.09985   -3612.1336 
16725000    170.18716   -5005.9536   -4665.5583   -5005.9536            0    8773.8161    17.785278    22.895892    19.207989    7821.6819    9811.2629    8382.7663    8127.4191   -826.61806    598.10521   -107.04421   -3664.7185 
16726000     180.6889   -5017.8359   -4656.4357   -5017.8359            0    8111.6416    17.927715    22.874948    19.102795    7833.9713    9138.1327    7256.2075    7940.5847   -466.82527   -666.50393   -459.06105   -3729.6771 
16727000    190.72735   -4993.3739   -4611.8956   -4993.3739            0    7583.2817    18.048543    22.646443    19.217017    7854.6728     6215.236    8138.2538    8396.3553   -596.52732    1032.2058    771.05713   -3743.2129 
16728000    185.88249   -4994.9238   -4623.1358   -4994.9238            0    10340.466    18.031111    22.648812    19.046948    7778.4542    9571.2375    10377.748    11072.413    457.49344    248.48836   -1912.1817   -3450.1053 
16729000    181.98807   -5005.4224   -4641.4238   -5005.4224            0    8063.0691    17.879382    22.933345    19.114238    7837.4884    7582.9186     7957.328    8648.9606    843.24042    461.50215   -665.78183   -3719.8011 
16730000    187.48148   -4995.2157   -4620.2296   -4995.2157            0    8764.7344    17.897597    22.707876    19.237651     7818.497     9418.116    8311.1144    8564.9728   -264.67184    209.66164    -1958.517   -3620.8328 
16731000    184.74251   -5002.6853   -4633.1775   -5002.6853            0    8685.2475    17.914667    22.572369      19.3881    7840.0915    8977.0382    9487.0283     7591.676   -1178.9451     504.7964  -0.29902693    -3640.109 
16732000    178.47581   -5002.8259   -4645.8522   -5002.8259            0    8564.1288    17.866588    22.603723    19.382744    7827.7482    9331.3485    8579.8273    7781.2107     171.5833   -139.99741    719.96034    -3668.174 
16733000     173.1844   -4999.6918   -4653.3016   -4999.6918            0    9046.0646    17.711763     23.08074    19.021607    7776.0442    10117.715    7674.9236    9345.5556   -379.04553    134.13487   -488.39995    -3627.427 
16734000    186.40099   -5006.5544   -4633.7293   -5006.5544            0    8103.1521    17.784459    22.986687    19.111459     7812.875    7191.4896    8885.4879    8232.4789    68.708506    473.12893    1303.9001   -3710.4338 
16735000     174.0394   -5015.2615   -4667.1612   -5015.2615            0    8246.7109    17.925787    22.714625    19.227345    7828.9427      8179.17    8373.6449    8187.3178    726.60251    523.21189    1436.0506   -3725.5757 
16736000    179.30198   -5008.0116   -4649.3855   -5008.0116            0    10407.358    17.885723    22.527833    19.232537    7749.3008    10798.008    11025.786    9398.2789    356.10239   -767.76949    6.9472488   -3473.1917 
16737000    177.96104   -5020.5514   -4664.6073   -5020.5514            0    6936.1919    17.901638     22.86451    19.192268     7855.629    7948.7123    6314.7406    6545.1227   -461.53898   -338.33344    1012.6394   -3869.9535 
16738000    183.80548   -5005.5994   -4637.9657   -5005.5994            0     8912.375    17.767928    22.965673    19.192118    7831.3905    9585.2509    7893.9278    9257.9462   -92.698265   -684.93685    488.07351   -3620.0584 
16739000    179.09893   -5013.5829   -4655.3629   -5013.5829            0    6440.4486    17.999401    22.725731    19.264312    7880.0578    7139.3422     6036.268    6145.7355     -536.789   -50.655091    1098.5644   -3915.2101 
16740000    175.14355   -4989.6253   -4639.3166   -4989.6253            0    7912.0762     18.12836    22.440522    19.290176    7847.4337    6172.1822    8442.8176    9121.2287    598.27374   -107.99148    193.67628    -3733.805 
16741000     177.4828   -5016.8322   -4661.8447   -5016.8322            0    8862.9148    17.796267    22.796823    19.226164    7800.0233    9409.4052    8530.2406    8649.0986   -528.31843    394.30432   -570.91818   -3653.6408 
16742000    175.64375    -5002.537   -4651.2278    -5002.537            0    8321.5229    17.539542    23.148501    19.264726    7821.7504    9562.5574    7512.1132     7889.898    2155.7082   0.65945942    1005.5507   -3701.9733 
16743000    183.35462   -5000.2338   -4633.5019   -5000.2338            0    7046.9473    17.908919    22.777929    19.298869    7872.5507    6360.0081    6955.9367    7824.8971    426.95415   -483.98145    1029.6624   -3824.4202 
16744000    183.44301   -5002.6889   -4635.7802   -5002.6889            0    8875.2963    18.052605    22.574817    19.190133    7820.6364    9006.0337     9343.671    8276.1843    89.841996   -838.16494    1397.8884   -3623.4998 
16745000    181.73174   -4991.6905   -4628.2046   -4991.6905            0    7185.9007    18.028638    22.724742    19.199775    7866.0738    7798.5974    7198.5664    6560.5383    921.53134    446.92717    783.42053    -3803.848 
16746000    182.87354   -5021.9424   -4656.1727   -5021.9424            0    7031.2592    17.849019    22.995841    19.133348    7853.3443    7084.6936    6006.9804    8002.1036    439.85695   -628.26177    36.410923   -3850.8617 
16747000    174.84748   -4999.0813   -4649.3647   -4999.0813            0    8662.1507    17.797372    22.887948    19.222533     7830.209    10962.306    7707.6487    7316.4971    2021.9137   -352.82542     960.7485   -3660.1855 
16748000    186.41768   -4998.6429   -4625.7845   -4998.6429            0    8129.4065    17.771741    22.719751    19.315314    7798.9353    8745.2017     8438.627    7204.3909    68.937267   -1114.6653    123.12028   -3701.1501 
16749000    175.05151   -5014.2348   -4664.1101   -5014.2348            0    7956.6017    17.952179    22.599708    19.329964    7842.4373    7468.6125    8301.4615     8099.731   -414.58505    116.91041    1323.3335   -3754.0826 
16750000    189.60598   -5008.3218   -4629.0864   -5008.3218            0    7762.7246    17.852317    22.900885    19.185878    7843.8369    8372.1971    7109.3661    7806.6105    251.24025   -389.14349   -1752.8608   -3741.0748 
Loop time of 603.844 on 64 procs for 250000 steps with 1008 atoms

Performance: 71.542 ns/day, 0.335 hours/ns, 414.014 timesteps/s
369.6% CPU use with 16 MPI tasks x 4 OpenMP threads

MPI task timing breakdown:
Section |  min time  |  avg time  |  max time  |%varavg| %total
---------------------------------------------------------------
Pair    | 42.234     | 44.417     | 46.376     |  15.9 |  7.36
Bond    | 1.6438     | 1.8396     | 2.2265     |  11.8 |  0.30
Kspace  | 283.05     | 290.41     | 298.47     |  23.4 | 48.09
Neigh   | 2.4163     | 2.5303     | 2.6422     |   4.5 |  0.42
Comm    | 79.203     | 87.355     | 93.864     |  47.3 | 14.47
Output  | 0.60681    | 0.60709    | 0.60847    |   0.0 |  0.10
Modify  | 118.35     | 130.16     | 151.05     |  93.9 | 21.55
Other   |            | 46.53      |            |       |  7.70

Nlocal:        63.0000 ave          68 max          57 min
Histogram: 1 1 2 1 2 2 1 2 2 2
Nghost:        3429.25 ave        3451 max        3413 min
Histogram: 2 0 4 1 3 3 0 2 0 1
Neighs:        21293.1 ave       22886 max       19331 min
Histogram: 1 1 2 1 2 2 1 2 2 2

Total # of neighbors = 340690
Ave neighs/atom = 337.98611
Ave special neighs/atom = 2.0000000
Neighbor list builds = 5011
Dangerous builds = 0

unfix		3
unfix		2
unfix		1

write_data	data.final.${pid}
write_data	data.final.1
System init for write_data ...
PPPM initialization ...
  extracting TIP4P info from pair style
  using 12-bit tables for long-range coulomb (../kspace.cpp:340)
  G vector (1/distance) = 0.37933216
  grid = 24 27 32
  stencil order = 5
  estimated absolute RMS force accuracy = 0.0024539322
  estimated relative force accuracy = 7.3899438e-06
  using double precision FFTW3
  3d grid and FFT values/proc = 7875 1344
Last active /omp style is kspace_style pppm/tip4p/omp
WARNING: Not all mixed pair coeffs generated from mixing. Use write_data with 'pair ij' option to store all pair coeffs. (../write_data.cpp:312)

write_restart   restart.lmp.${pid}
write_restart   restart.lmp.1
System init for write_restart ...
PPPM initialization ...
  extracting TIP4P info from pair style
  using 12-bit tables for long-range coulomb (../kspace.cpp:340)
  G vector (1/distance) = 0.37933216
  grid = 24 27 32
  stencil order = 5
  estimated absolute RMS force accuracy = 0.0024539322
  estimated relative force accuracy = 7.3899438e-06
  using double precision FFTW3
  3d grid and FFT values/proc = 7875 1344
Last active /omp style is kspace_style pppm/tip4p/omp
Total wall time: 0:10:03
