#include		in.partitions
include		in.temp
variable        temperature equal 250.22
variable	tempDamp equal 100.0
include		in.pressure
variable        pressure equal 1431.5
variable        pressureDamp equal 1000.0 # This is 1 ps
include		in.seed
variable        seed equal 745823

units		real
atom_style	full

read_restart	restart.lmp.${pid}
read_restart	restart.lmp.1
Reading restart file ...
  restart file = 30 Jul 2021, LAMMPS = 30 Jul 2021
  restoring atom style full from restart
  orthogonal box = (-0.10971127 -0.041829777 -0.22044686) to (20.109712 20.041831 20.920445)
  4 by 2 by 4 MPI processor grid
  restoring pair style lj/cut/tip4p/long/omp from restart
  restoring bond style harmonic/omp from restart
  restoring angle style harmonic/omp from restart
  972 atoms
  648 bonds
  324 angles
Finding 1-2 1-3 1-4 neighbors ...
  special bond factors lj:    0        0        0       
  special bond factors coul:  0        0        0       
     2 = max # of 1-2 neighbors
     1 = max # of 1-3 neighbors
     1 = max # of 1-4 neighbors
     2 = max # of special neighbors
  special bonds CPU = 0.003 seconds
  read_restart CPU = 0.008 seconds
include 	in.setup
variable	out_freq equal 1000
variable	out_freq2 equal 10000
variable	out_freq3 equal 1000

timestep	2.0

neigh_modify    delay 7 every 1

include		in.tip4p
# This is TIP4P/Ice

# create groups ###
group ox type 2
324 atoms in group ox
group hy type 1
648 atoms in group hy

# set charges - beside manually ###
set group ox charge -1.1794
Setting atom values ...
  324 settings made for charge
set group hy charge 0.5897
Setting atom values ...
  648 settings made for charge

# ### TIP3P Potential Parameters ###
pair_style lj/cut/tip4p/long/omp 2 1 1 1 0.1577 8.5
pair_coeff 1 1*2 0.000 0.000
pair_coeff 2 2 0.21084 3.1668
bond_style  harmonic
bond_coeff  1 450 0.9572
angle_style harmonic
angle_coeff 1 55 104.52
kspace_style pppm/tip4p/omp 1.0e-5
pair_modify tail yes

thermo          ${out_freq}
thermo          1000
thermo_style    custom step temp pe etotal epair emol press lx ly lz vol pxx pyy pzz pxy pxz pyz enthalpy

restart 	${out_freq3} restart.lmp.${pid} restart2.lmp.${pid}
restart 	1000 restart.lmp.${pid} restart2.lmp.${pid}
restart 	1000 restart.lmp.1 restart2.lmp.${pid}
restart 	1000 restart.lmp.1 restart2.lmp.1


include         in.dump
dump            myDump all atom ${out_freq2} dump.water.${pid}
dump            myDump all atom 10000 dump.water.${pid}
dump            myDump all atom 10000 dump.water.1
dump            myDump2 all dcd ${out_freq2} dump.dcd
dump            myDump2 all dcd 10000 dump.dcd
dump_modify     myDump append yes
dump_modify     myDump2 append yes


variable natoms 	equal  "count(all)"                        # NUMBER ATOMS
variable H      	equal  "enthalpy/v_natoms"                 # ENTHALPY-per-atom
variable Vol      	equal  "vol/v_natoms"                 # volume-per-atom
fix AVG all 		ave/time ${out_freq} 1 ${out_freq} v_Vol v_H file vol_enthalpy.dat
fix AVG all 		ave/time 1000 1 ${out_freq} v_Vol v_H file vol_enthalpy.dat
fix AVG all 		ave/time 1000 1 1000 v_Vol v_H file vol_enthalpy.dat


timer           timeout 02:55:00 every 1000
New timer settings: style=normal  mode=nosync  timeout=02:55:00

fix 		1 all shake 1e-6 200 0 b 1 a 1
       0 = # of size 2 clusters
       0 = # of size 3 clusters
       0 = # of size 4 clusters
     324 = # of frozen angles
  find clusters CPU = 0.000 seconds
fix             2 all nph aniso ${pressure} ${pressure} ${pressureDamp}
fix             2 all nph aniso 1431.5 ${pressure} ${pressureDamp}
fix             2 all nph aniso 1431.5 1431.5 ${pressureDamp}
fix             2 all nph aniso 1431.5 1431.5 1000
fix             3 all temp/csvr ${temperature} ${temperature} ${tempDamp} ${seed}
fix             3 all temp/csvr 250.22 ${temperature} ${tempDamp} ${seed}
fix             3 all temp/csvr 250.22 250.22 ${tempDamp} ${seed}
fix             3 all temp/csvr 250.22 250.22 100 ${seed}
fix             3 all temp/csvr 250.22 250.22 100 745823


run             250000
PPPM initialization ...
  extracting TIP4P info from pair style
  using 12-bit tables for long-range coulomb (../kspace.cpp:340)
  G vector (1/distance) = 0.37153664
  grid = 24 24 25
  stencil order = 5
  estimated absolute RMS force accuracy = 0.003514882
  estimated relative force accuracy = 1.0584963e-05
  using double precision FFTW3
  3d grid and FFT values/proc = 3458 576
Last active /omp style is kspace_style pppm/tip4p/omp
Neighbor list info ...
  update every 1 steps, delay 7 steps, check yes
  max neighbors/atom: 2000, page size: 100000
  master list distance cutoff = 10.8154
  ghost atom cutoff = 10.8154
  binsize = 5.4077, bins = 4 4 4
  1 neighbor lists, perpetual/occasional/extra = 1 0 0
  (1) pair lj/cut/tip4p/long/omp, perpetual
      attributes: half, newton on, omp
      pair build: half/bin/newton/omp
      stencil: half/bin/3d
      bin: standard
Per MPI rank memory allocation (min/avg/max) = 10.19 | 10.19 | 10.20 Mbytes
Step Temp PotEng TotEng E_pair E_mol Press Lx Ly Lz Volume Pxx Pyy Pzz Pxy Pxz Pyz Enthalpy 
  750000    265.87957   -4679.8561    -4167.085   -4679.8561            0    10.664646    20.219424    20.083661    21.140892    8584.8941    74.128876    612.73956   -654.87449    185.69457   -690.27369   -435.32959   -4165.7498 
  751000    243.61867   -4696.1492   -4226.3101   -4696.1492            0    1263.5636    20.189169    20.222491    21.059072    8597.8985    1256.5354    1833.7292    700.42608    -418.9101    31.540782    848.16101   -4067.8699 
  752000    249.80051   -4701.6798   -4219.9185   -4701.6798            0    497.66746    20.396541    20.099278    20.937264    8583.3519    -1693.657    2132.0504     1054.609    250.27754    38.376759    931.98077   -4157.6208 
  753000     240.2334   -4691.7623    -4228.452   -4691.7623            0    18.994396    20.247892    20.280399    21.007255    8626.3214    1086.4054   -941.22206   -88.200175   -49.247223    150.59892    975.09743   -4226.0624 
  754000    229.04208   -4708.1127   -4266.3857   -4708.1127            0    1628.0456    20.179615    20.125669    21.018102    8536.0451    1072.9041    1668.5787     2142.654   -400.50997   -225.15928    562.57815   -4063.7112 
  755000     243.1336   -4686.2808   -4217.3772   -4686.2808            0    810.24763    20.297564    20.014838    21.355764    8675.8316   -140.01088    1978.9905    591.76329     10.75779   -86.326489    556.19138   -4114.8581 
  756000    253.45586   -4697.6852   -4208.8743   -4697.6852            0    1110.9117     20.19939    20.154522    21.102694    8591.0977      1586.26    664.89577    1081.5793    -86.53651   -323.22193    1035.4367   -4069.6855 
  757000    257.70891   -4722.2176   -4225.2043   -4722.2176            0    1504.6178    20.192389    20.253811    20.966731    8574.8235    1433.9157    1061.8228     2018.115   -39.656835    1035.7946    695.06737   -4037.0443 
  758000    253.39642   -4708.8636   -4220.1673   -4708.8636            0    2876.0518    20.249296    20.057959    20.819756    8456.1422    2042.5949    3645.1089    2940.4517    321.78843       1645.5    -140.2002   -3865.4806 
  759000    256.49884   -4678.2144   -4183.5348   -4678.2144            0    1248.2152    20.140161    20.018549    21.269712    8575.4542    1460.7443    2204.6761    79.225179   -99.113716    961.33583    4.8000931   -4027.4278 
  760000    246.48145   -4681.1784   -4205.8182   -4681.1784            0    1921.2613     20.34133    20.029328    21.100911    8597.0002    874.97248    2822.9256    2065.8857    404.38961   -1227.1167   -1057.6207   -3964.9335 
  761000    259.16658   -4728.1708   -4228.3463   -4728.1708            0    1533.5048    20.164501    20.148748    20.930474    8503.8308    482.64761    2341.3663    1776.5005    595.19531   -665.86069    445.80525   -4038.1615 
  762000    264.56033   -4691.6314   -4181.4046   -4691.6314            0    218.13778    20.307642    19.979399    21.067231    8547.7024   -1008.9615    1667.5232   -4.1484368    54.050706    1496.7671    320.73048   -4154.2117 
  763000    256.12969   -4676.5393   -4182.5717   -4676.5393            0    1929.3752    20.109217    20.246286    21.101162     8591.063    3965.1111    23.569165    1799.4454   -635.22689    -810.1989    1505.2219   -3940.8367 
  764000    253.04557   -4721.1281   -4233.1085   -4721.1281            0    1512.2859    20.115471     19.95678    21.429365    8602.6051   -295.97795    3335.3294    1497.5062   -91.720893    15.985392   -221.00359   -4043.3768 
  765000    252.36406   -4713.3985   -4226.6932   -4713.3985            0    2695.8231    20.154624    20.051099    21.033919     8500.277    4097.8282    2955.5257    1034.1154   -268.89534   -441.82707   -821.76365   -3892.4979 
  766000    253.59637   -4708.4394   -4219.3574   -4708.4394            0    207.95287    20.201365    20.276445    21.142033    8660.0272    340.61931   -631.88358    915.12288   -214.88615   -1131.7125    -155.2767   -4193.0935 
  767000    254.51631    -4715.658   -4224.8019    -4715.658            0    2356.0101    20.121359    20.054903    21.142966     8531.861    1741.4354    2893.3406    2433.2544   -904.77933    604.46824    1140.5053   -3931.6473 
  768000    249.97918   -4730.1243   -4248.0184   -4730.1243            0    1440.5555    20.090965     20.05067    21.196865    8538.8877     2749.478    1279.5026      292.686    330.15892    572.43124    124.28666   -4068.6247 
  769000    241.57703   -4694.2556    -4228.354   -4694.2556            0   -953.26632    20.222327    20.331872    21.146453    8694.5284   -1639.7844    -972.4134   -247.60115   -399.47442    63.234599    196.92339   -4349.2289 
  770000    251.82875   -4716.0315   -4230.3586   -4716.0315            0    2103.5747    20.275611    19.977029    20.926975    8476.3974    480.36498    2433.9894    3396.3696   -486.59203   -71.473627   -1151.3132   -3970.3156 
  771000    249.67212   -4740.1397    -4258.626   -4740.1397            0    1213.8566    20.195848    20.259474     21.07815    8624.2777    199.72124    1834.4376    1607.4109    477.19698   -236.15329    314.10146   -4105.9517 
  772000    259.62571   -4727.3343   -4226.6243   -4727.3343            0    2292.0709    20.120053    19.968052    21.059368    8460.7751    2721.0244    1883.4715    2271.7168    663.02085   -1087.8198    523.74413   -3943.8017 
  773000    246.26289   -4720.9799   -4246.0412   -4720.9799            0    907.80307    20.220729    20.152427    21.080135    8590.0871   -241.68596    686.11214     2278.983    166.76301    244.24101   -121.94073   -4132.3138 
  774000    259.17588   -4677.6274   -4177.7849   -4677.6274            0    1901.4971    20.046403    20.053842    21.414095    8608.6244    441.42904     3547.719    1715.3434   -374.15048    177.43547     407.7891   -3939.0558 
  775000    252.32448   -4675.0486   -4188.4196   -4675.0486            0    2953.7218    20.135006    20.116304    21.007118    8508.7631     3127.419    2769.1533     2964.593    647.76687   -642.70169    653.47796   -3821.8876 
  776000    259.56783   -4690.7067   -4190.1083   -4690.7067            0   -384.13498    20.235221    20.485733    20.946935    8683.2026   -480.25003   -1256.2174    584.06249    569.65095    355.04012    1296.6051   -4238.7534 
  777000    262.55359   -4696.1938   -4189.8372   -4696.1938            0    2832.2196    20.132369    20.075721    21.041164     8504.246    3295.0934    2123.9143    3077.6511   -192.70006   -1133.5862    1229.6236   -3838.5691 
  778000    242.64483   -4709.7188   -4241.7579   -4709.7188            0    155.03046    20.145566    20.157948    21.203783    8610.7136   -552.40826    1519.1026   -501.60297     37.52648    1166.3613    1215.4261   -4222.2894 
  779000    254.49988   -4706.9691   -4216.1447   -4706.9691            0    1317.4473     19.99053    20.043188    21.296522    8532.9612    2133.3089   -44.132495    1863.1655   -293.32578    1206.7381   -408.21335   -4052.1956 
  780000    255.52095   -4680.1884   -4187.3948   -4680.1884            0    3070.5725    20.150869    20.170891    21.107855    8579.5196    3737.5705    2436.8389     3037.308    141.74936    -234.4704   -198.71734    -3803.194 
  781000    242.48058   -4660.9611   -4193.3169   -4660.9611            0    2104.0345    20.239727    20.232393    20.842012    8534.7645    1360.6704    1916.1579    3035.2752   -737.13682    401.05521   -603.18726   -3931.4261 
  782000    249.42571   -4685.1993   -4204.1608   -4685.1993            0    3140.0293    20.175205    20.121141    20.805862    8446.1009    3224.5301    3569.5401    2626.0177   -105.64502    306.06585   -157.04222   -3817.3792 
  783000    258.02816   -4715.4222   -4217.7931   -4715.4222            0    793.04207    20.290491    20.201039    21.052633    8629.2427    293.73103    1164.7612    920.63404    207.93307    147.37588    578.95276   -4117.9899 
  784000    251.97821   -4725.0175   -4239.0564   -4725.0175            0    2283.7008    19.999373    20.262384     21.04752    8529.1911    2496.0408    1162.2814      3192.78   -235.01085   -383.89186    291.86519    -3954.988 
  785000     242.5425   -4740.9136     -4273.15   -4740.9136            0    1008.5384    20.245149    20.069728    21.150717    8593.8459    968.73057    1135.2855    921.59928   -361.70436    758.28172    1034.4356   -4146.7474 
  786000    246.10043   -4721.7963   -4247.1709   -4721.7963            0    1778.9228    20.047457    20.112268    21.159404    8531.4682    2644.9396    768.15798    1923.6708   -348.60471    436.57276   -410.86772   -4025.8325 
  787000    240.71932    -4696.409   -4232.1615    -4696.409            0    667.74176    20.251563     19.96936    21.293273    8611.2281   -466.65609    1096.9294     1372.952    149.70003   -105.83804   -219.76753   -4148.3026 
  788000    255.86565   -4696.9823   -4203.5238   -4696.9823            0    1826.2096     20.07761      20.3162    21.041343    8582.7794    3295.7217    778.55414     1404.353   -361.46383    885.15651   -187.56628   -3974.9353 
  789000     251.2277   -4732.6006   -4248.0869   -4732.6006            0     1597.596    20.296518    20.042205    20.961487    8526.8598    847.96837    2597.3341    1347.4856     -163.909   -62.989078   -18.146211    -4049.417 
  790000    254.56125   -4724.2167    -4233.274   -4724.2167            0    998.38944    20.354351    20.071673    21.144577    8638.5297   -180.81247    2079.3574    1096.6234   -401.81959    269.62259    417.04408   -4107.4928 
  791000    242.25911   -4680.7407   -4213.5237   -4680.7407            0    1799.5646    20.019404    20.006901    21.207144    8494.0175    1066.0271    1689.4073    2643.2594    192.22706    1022.9007   -5.4041802   -3990.5998 
  792000    250.16734   -4712.1588     -4229.69   -4712.1588            0    2057.3904    20.087354    20.269341     20.97345    8539.4956    247.17764     4025.843    1899.1505   -4.5188721   -913.45569    -661.1082   -3973.4631 
  793000    253.03594   -4690.4843   -4202.4832   -4690.4843            0    1622.7938     20.23527    20.314033    20.730464    8521.4634    1250.5054    1540.6604    2077.2155    402.70151    713.36099   -911.70103   -4000.8076 
  794000    231.65565   -4704.8156   -4258.0482   -4704.8156            0    2762.6817    20.231954    20.248544    20.766231    8507.2521    4070.3368    90.247223    4127.4612   -691.95511   -472.61903    383.67517   -3915.2835 
  795000    242.83047   -4725.4369   -4257.1179   -4725.4369            0    1674.9718    20.168259    20.043689    21.230472    8582.3397    1397.3066    2694.1069    933.50205   -21.389297    1124.5162    1069.7835   -4047.4706 
  796000     245.9523   -4712.7519   -4238.4122   -4712.7519            0    2500.6273    20.123742    20.059126    21.243055    8575.0709    4033.8795    1603.5729    1864.4295    88.149812   -292.94775   -280.09999   -3925.6872 
  797000    256.50176   -4717.8328   -4223.1475   -4717.8328            0    2752.5719    20.104802    20.077036    21.164104    8542.7812    3303.8811     2342.644    2611.1904   -187.46434    182.63857    -1592.696   -3880.2109 
  798000    251.26709   -4740.9001   -4256.3104   -4740.9001            0    2192.7399     20.32758    20.157271    20.727925    8493.2368    914.86799    1978.7632    3684.5886    16.397244   -1771.6854   -269.06345   -3984.7064 
  799000    248.98824   -4681.4354   -4201.2406   -4681.4354            0    2735.1552    20.131858    20.227698    20.847162    8489.4049    2892.4663    2617.2866    2695.7128   -514.18902   -614.21177    282.36613   -3862.6031 
  800000     245.7917    -4721.512   -4247.4821    -4721.512            0    1887.8821    20.189599    20.195645    20.988592    8557.9299   -16.945075    3742.1873    1938.4041   -220.70327   -975.20388    2257.5348   -4011.8581 
  801000    261.05189   -4659.3482   -4155.8877   -4659.3482            0    1065.4356    19.962833    20.075863    21.533676    8630.0754    3824.2495   -1544.6915    916.74882   -398.84693   -573.46082    436.84635   -4021.7911 
  802000    237.61443   -4710.8939   -4252.6344   -4710.8939            0    2625.0509    20.180261     20.05624    21.202302    8581.4231    2046.6759     3002.538    2825.9389    513.19776    116.83192    463.75807    -3924.106 
  803000     227.3424   -4697.3057   -4258.8568   -4697.3057            0    2779.0028    20.174853    20.090377    21.053467    8533.3996    2937.5973    3262.7408    2136.6701   -929.49038   -1581.6503   -1569.4332   -3913.0074 
  804000    258.42579    -4698.955   -4200.5592    -4698.955            0    2704.8271    20.298914    20.123275    20.825379    8506.7641    2185.7779    2828.3052    3100.3982    -75.99466   -658.54232    313.51669   -3864.9917 
  805000     250.5202    -4702.793   -4219.6437    -4702.793            0    3234.6225    20.130601     20.17974    21.039513    8546.8874    3187.4807    4382.4397    2133.9471    348.03589    1109.1613   -602.43001   -3816.4558 
  806000    266.25169   -4696.5259   -4183.0371   -4696.5259            0    1871.7752    20.088875    20.063789    21.255191    8567.0953    2949.5056    739.32975    1926.4902    466.18312   -692.59826   -633.54151   -3949.1732 
  807000     242.1402   -4720.8503   -4253.8626   -4720.8503            0    1306.1635    20.296656    20.026558    21.100876    8576.9185   -30.478609    3493.2076    455.76139   -84.673133   -822.16401   -48.486624   -4090.4804 
  808000    256.09564   -4708.2351   -4214.3332   -4708.2351            0    1638.5567    20.152009    20.175519    20.892635    8494.4698    2089.4204    1878.7004    947.54932   -741.74136    157.93694    -368.7866   -4011.3436 
  809000    251.37183   -4714.4387    -4229.647   -4714.4387            0    1418.6103    20.348124    20.150812    20.944883    8588.0557    936.81459    63.643022    3255.3732   -1.7758415   -459.87164   -1594.8223   -4051.9689 
  810000    246.25191   -4697.8738   -4222.9563   -4697.8738            0    1427.5291    20.124832    20.126787    20.920185    8473.6834    803.96668   -199.34838     3677.969    884.26048   -452.29911    629.98888   -4046.5422 
  811000    252.49962   -4698.9181   -4211.9514   -4698.9181            0     1493.189    20.220632    20.028298     21.11098    8549.6267    1401.6866    710.37317    2367.5074    156.41105    206.53207    265.85236   -4025.7693 
  812000    259.48335    -4677.296   -4176.8605    -4677.296            0    861.86401    20.066863    20.167519    21.275611    8610.2152    1494.8958    1696.3675   -605.67127   -233.50155    222.82253    290.12573   -4068.6353 
  813000     245.7234   -4669.5167   -4195.6185   -4669.5167            0    1209.5837    20.241778    20.042686      21.3007    8641.6854    2140.7568    1560.3176   -72.323391    360.30078    307.63933   -287.02656   -4043.1745 
  814000    245.52174   -4702.9982   -4229.4889   -4702.9982            0   -936.39723       20.349    20.043306    21.321764    8696.3211   -1896.8227   -423.99879   -488.37024   -853.17103   -454.31593    1246.5625   -4348.2492 
  815000    249.82146   -4710.5892   -4228.7875   -4710.5892            0     1472.312    20.191743      20.1139     21.00539    8531.0174    2192.3858    668.65361    1555.8965    125.11787   -393.22963    1532.7207   -4045.6081 
  816000     258.0987   -4684.7867   -4187.0217   -4684.7867            0   -64.289059    20.389434    20.320568    20.760587     8601.628   -33.917596   -1850.2383    1691.2887   -114.14248     286.8557   -679.05411   -4195.0865 
  817000     239.5424   -4698.8476     -4236.87   -4698.8476            0    828.24802    20.292427    20.100235    20.997146    8564.3693   -1475.1732    2384.5017    1575.4155    89.770068   -2079.8438      416.112   -4133.4197 
  818000    249.00552   -4699.3783   -4219.1503   -4699.3783            0    1855.0184    20.108923    20.037887    21.248143    8561.7337    1873.2763    1914.7114    1777.0673    512.94553     991.4981     -1526.58    -3987.525 
  819000    249.44796   -4737.7369   -4256.6555   -4737.7369            0    1905.3806    20.211152    19.866282     21.40438    8594.2961      2660.65    1419.1714    1636.3204    310.90088   -72.592223   -364.31982   -4017.8371 
  820000    254.27024   -4706.0693   -4215.6877   -4706.0693            0     1450.548    20.183594    20.201466    21.156362    8626.2565    2366.8884    75.825824    1908.9296    495.24023   -1259.8163    974.72526   -4033.2014 
  821000    252.49504   -4701.0693   -4214.1113   -4701.0693            0    -12.32391    20.120795    20.154067    21.331755    8650.3653   -760.04525    598.09366    124.97986   -314.43997    1753.3947    467.00322   -4215.6661 
  822000    268.55922   -4684.7625   -4166.8235   -4684.7625            0    510.04875    20.329259    20.268404    20.927417     8622.967   -726.58831    1134.6296    1122.1049   -245.01992     481.8474    573.57405   -4102.6812 
  823000    237.26782   -4718.8259   -4261.2349   -4718.8259            0     218.7228    20.089243    20.386351    21.088505    8636.7208    1384.5907   -1050.7586    322.33627    221.97135    588.07107    290.07227   -4233.6851 
  824000    236.72693    -4708.105   -4251.5572    -4708.105            0    1039.5682    20.172932    20.099526    21.111606    8560.0464    197.93555    1906.6493    1014.1198   -384.01375   -203.01689   -207.32275    -4121.778 
  825000    245.65663   -4704.9318   -4231.1623   -4704.9318            0    713.03355    20.030373     20.28919    21.304075     8657.977    1683.9169   -556.02438    1011.2081    545.17326    474.05126   -1904.2254   -4141.1292 
  826000    253.56239   -4708.6315   -4219.6151   -4708.6315            0    1158.7834    20.274325    19.985515    21.088602    8544.9499    11.663762    2961.9384    502.74787   -813.57282   -184.70503   -740.89056   -4075.2083 
  827000    240.94035   -4738.6797    -4274.006   -4738.6797            0    670.78384     20.02681    20.248778    20.946248    8494.0893    1116.4655    1084.8153   -188.92935   -106.49452   -684.46012    443.44508   -4190.9109 
  828000    262.74757   -4694.9383   -4188.2076   -4694.9383            0    1247.9997    20.325025    20.210182    21.026929    8637.2834   -687.32782    2832.0459     1599.281    787.70449    151.73521   -670.97017   -4031.0021 
  829000    236.90973   -4704.8426   -4247.9423   -4704.8426            0    1506.8513    20.119434    20.257052    21.064885    8585.2133    2264.9745   -33.003891    2288.5833    272.81994   -1443.4249   -1848.5989   -4059.2746 
  830000    253.72082    -4688.915    -4199.593    -4688.915            0    2298.2604    20.129132    19.945939    21.325319    8561.9967    3004.3772    2241.4659    1648.9381    169.15149   -549.94014    1087.7773    -3912.614 
  831000    246.00766   -4689.0308   -4214.5843   -4689.0308            0    1070.9806    20.227609    20.235848    21.120213     8644.985    2692.5805   -321.61437    841.97577   -94.111299   -118.75932   -1669.9985    -4079.557 
  832000    248.63068    -4731.997   -4252.4919    -4731.997            0    1762.7072    20.358161    20.094264    20.855872    8531.7672    2682.7044    881.26995    1724.1472    -459.0248   -135.28269     408.3642   -4033.1634 
  833000    250.50245   -4693.7965   -4210.6814   -4693.7965            0    691.99796    20.238041    20.191737    21.062871    8607.1571    2954.0356   -1484.0422    606.00052    555.12243    2080.8063   -1075.7706   -4123.8173 
  834000    263.34946   -4693.7413   -4185.8497   -4693.7413            0    1793.1636    19.972968    20.187558    21.185074    8541.9375    1726.5528    1983.5171    1669.4211    673.53676    1255.8397    761.86707   -3962.4656 
  835000    244.15473   -4711.0653   -4240.1924   -4711.0653            0   -13.295882    20.264119    20.138429    21.233837    8665.2637    750.75669    179.69013   -970.33446   -517.00128   -107.56907    101.26807   -4241.8726 
  836000    240.23974   -4692.4713   -4229.1488   -4692.4713            0    2958.3704    20.213741    20.232325    20.697517    8464.6837    5037.8156    976.33941    2860.9563   -551.22606    828.10799    440.38581   -3863.9417 
  837000    245.82098   -4713.8095    -4239.723   -4713.8095            0    1665.8201    20.299388    20.058822    20.938479    8525.7681    1250.5771    2648.9057    1097.9774   -173.95165    966.85904   -117.15231   -4032.5956 
  838000    253.50641   -4713.9233   -4225.0149   -4713.9233            0    483.03185    20.057708     20.29423    21.001276    8548.6896    2627.7419   -2355.8093     1177.163   -142.26445    349.67491    62.885275   -4164.7935 
  839000      228.206   -4709.6317   -4269.5173   -4709.6317            0    747.96031    20.185276    20.085999    21.215557    8601.6658    1069.9841    151.28791    1022.6089    -39.86626    1069.8563   -226.77444   -4175.6883 
  840000    244.47401   -4709.0251   -4237.5364   -4709.0251            0    1598.2068    20.384314    19.877678    21.159458    8573.6608    800.22935    1347.0019    2647.3891    295.39516   -2292.8692     239.8847   -4037.6997 
  841000    246.43748   -4712.1873   -4236.9119   -4712.1873            0    1084.0466    20.017199     20.03059    21.371255    8568.9396    1743.1798    733.24042    775.71975    -278.7192   -1015.8611    440.02934   -4101.4395 
  842000    242.05353   -4699.6316    -4232.811   -4699.6316            0    1091.7739    20.254323    19.953377    21.186787    8562.4734    998.56467    1151.2673    1125.4899   -41.030003    1056.9581    70.948391   -4096.4758 
  843000    252.65483   -4688.6247   -4201.3586   -4688.6247            0    1638.0851    20.277686    20.323049    20.718792    8538.3053    615.73484    635.37725    3663.1433   -142.48696    50.238076   -1152.8249   -3997.3802 
  844000    256.89719   -4714.8592   -4219.4113   -4714.8592            0    1685.1878    20.246645     20.15655    20.989364    8565.8122    1325.8799    2010.5642    1719.1192   -115.79224    515.28794    524.89209   -4008.8916 
  845000     242.0792   -4735.6788   -4268.8087   -4735.6788            0    2852.9035    20.264822    19.939392     21.03657    8500.2093    1791.1567    2853.0313    3914.5226     -413.313    706.02769   -978.48202   -3915.1433 
  846000    247.60411   -4682.9348   -4205.4094   -4682.9348            0    1154.2704    20.328344    20.150976    21.215968    8690.8238    779.18054    681.01107    2002.6195   -9.8025369   -1250.2428    484.95707   -4059.1094 
  847000    251.79962   -4711.6183   -4226.0015   -4711.6183            0     1654.242     20.17515    20.035332    21.069374    8516.5746    1089.9181    2457.3342    1415.4738    -137.7981    590.11239   -1224.1457   -4020.5356 
  848000     245.3886   -4707.6724   -4234.4199   -4707.6724            0    1615.4231    20.131379    20.064095    21.284884    8597.3453    2126.4752    1239.6929    1480.1012   -227.72861    669.56424    -1414.359   -4031.8725 
  849000    251.52513   -4719.0671   -4233.9797   -4719.0671            0    888.84821    20.321516    20.059321    21.163893    8627.1606      132.195    1820.7781    713.57148    884.66695    657.76313   -493.91978   -4122.1464 
  850000    251.33397   -4712.7747    -4228.056   -4712.7747            0    1472.0432    20.125219    20.262787     21.19506    8643.1978    1505.2853    951.87195    1958.9723    -75.80021   -384.92121    52.938515   -4042.5017 
  851000    234.85951   -4723.3652   -4270.4189   -4723.3652            0    688.29841    20.222204    20.046859    21.096123     8552.193    878.98988    784.67495    401.23041    152.47498     1366.129   -1264.9497   -4184.5709 
  852000    254.62341   -4706.0645   -4215.0018   -4706.0645            0    2321.1212     20.00121    20.244322    21.173253    8573.2818    2657.3414    2667.7534    1638.2687   -124.28768    1937.1431   -105.48224   -3924.7862 
  853000    248.73053   -4682.7591   -4203.0613   -4682.7591            0    1424.7525     20.14867    19.825843    21.462034    8573.3182    1052.6365    2021.8408    1199.7802    160.46616   -1344.9276    978.15253   -4024.9202 
  854000    263.32873   -4720.9726    -4213.121   -4720.9726            0        845.1    20.031188    20.183451    21.339315     8627.453    1207.6115    922.21401    405.47443   -67.905715    141.59557    492.87312   -4106.7883 
  855000    267.94811   -4694.6774    -4177.917   -4694.6774            0    1327.1272    20.255813    19.934286    21.346867    8619.5486    2106.8025    687.83356    1186.7455   -20.953894   -531.39678    801.09871   -4011.0874 
  856000    252.05547   -4735.2721    -4249.162   -4735.2721            0    1602.0024    20.166338     20.14935    21.155246    8596.1931    -11.84929    2558.3043    2259.5523   -169.83859   -68.955946   -175.46556   -4048.3243 
  857000    245.70819   -4697.4645   -4223.5956   -4697.4645            0    1977.6844    20.227908     20.13155    20.914165    8516.6486    4072.5547   -802.83856    2663.3371    345.17015    586.00771   -162.59144   -3977.9541 
  858000    259.99815   -4703.4964   -4202.0681   -4703.4964            0    1039.6119    20.287299    20.255386    20.701734    8506.9031   -1254.5152    2290.6899    2082.6611    420.78064   -1065.7943   -982.43767   -4073.0892 
  859000    248.38286   -4702.4255   -4223.3982   -4702.4255            0    363.66906    20.095241    20.335182    21.106073    8624.7937    2246.7444   -1160.4021    4.6649577    154.85226    65.538118     555.2673   -4177.6546 
  860000    257.56299   -4696.1356   -4199.4037   -4696.1356            0    1133.4985    20.174125    20.045181    21.194264    8570.8327    1139.4556    218.05963    2042.9802    233.65998    673.49175   -870.24988     -4057.72 
  861000    267.92142   -4711.3489   -4194.6399   -4711.3489            0    2034.8714    19.969797    20.259917      21.1366    8551.5814     2827.044    1031.2323    2246.3377   -789.80113    820.27938   -554.84102   -3940.8588 
  862000    249.65416   -4688.5692   -4207.0902   -4688.5692            0    902.88988    20.315527     20.05338    21.131584    8608.9014     1686.308    1009.0359    13.325688     861.5471    179.39716    734.44468   -4093.7306 
  863000    245.09142   -4725.2965   -4252.6171   -4725.2965            0    2052.5078    19.977821    20.428958    20.825072    8499.2548    2548.7971    886.05384    2722.6723    936.05679    1185.1476   -511.39511   -3998.2028 
  864000    245.65096   -4687.4967   -4213.7382   -4687.4967            0    2546.1228    20.109095    20.150527    21.001285    8509.9069    3228.1881    3367.1971    1042.9833    192.32943   -221.96149    1585.2538   -3897.7433 
  865000    248.51297   -4701.5086   -4222.2304   -4701.5086            0    912.13625    20.239424    20.054923    20.985908    8518.1817    285.89054    1851.1639    599.35426   -358.91798    1103.5116    106.51443   -4108.9167 
  866000    237.23728    -4705.707   -4248.1749    -4705.707            0    1743.1271    20.312563    20.049214    21.074814    8582.7377     942.4993    2588.5449    1698.3371    242.06575    797.54619   -1208.8382    -4029.987 
  867000    237.85251   -4714.5929   -4255.8743   -4714.5929            0    995.61961    20.069746    20.179137    21.166259    8572.1263    2797.2731   -860.64732    1050.2331   -58.268105    74.960784    17.618868   -4131.4062 
  868000    238.10737   -4705.7551    -4246.545   -4705.7551            0   -123.43266    20.380018    19.857234    21.392722     8657.438    -573.0385    832.66862    -629.9281    61.005034   -627.38939   -1276.1469   -4262.1296 
  869000    240.70959   -4714.2606   -4250.0319   -4714.2606            0    1661.2956    20.149053    20.082109    21.132292    8550.8752    2445.7291    163.62381     2374.534    447.44995    527.58265   -168.37646   -4042.8588 
  870000    251.84312   -4699.3463   -4213.6457   -4699.3463            0    1501.9458    20.149804    20.120741    21.196694    8593.7547    626.24044    1983.7017    1895.8954   -396.35675    609.83042     959.5543   -4025.4052 
  871000    239.37264   -4718.7421   -4257.0918   -4718.7421            0    1443.5558    20.219481    20.074327    21.033743    8537.4377    2867.2243    373.54645    1089.8966    236.71768   -166.99897   -392.97654    -4077.355 
  872000    255.59985   -4697.6635   -4204.7177   -4697.6635            0    2351.7338    20.159865    20.298581    20.854727    8534.1018    2423.3459     1015.457    3616.3986    213.78189   -600.40182    -551.5218   -3912.0183 
  873000    237.12353   -4674.7977    -4217.485   -4674.7977            0    2793.8976     20.41397    20.028846    20.973347    8575.3362    2872.3352      2313.72    3195.6376    129.95031    1001.8952    1307.2882   -3868.0732 
  874000    253.78558   -4709.5185   -4220.0716   -4709.5185            0    1299.5322    20.067799    20.150246    21.062977     8517.259    1586.8807    820.64651    1491.0695    550.70973   -328.66724   -963.43674   -4058.6496 
  875000    247.32181   -4673.2417   -4196.2608   -4673.2417            0    968.19319    20.253795    20.052636    21.313162    8656.1696    649.50744    810.73092    1444.3412    974.25536   -7.8811372    726.40477   -4074.0347 
  876000    246.63149   -4734.4927   -4258.8432   -4734.4927            0    2124.2873    19.978109    20.166057    21.274373    8571.0129    3064.7416    2206.2848    1101.8356   -489.16746   -391.09412     381.8363   -3993.3084 
  877000    247.58499   -4707.8801   -4230.3916   -4707.8801            0    1611.7778    20.345563    19.985467    20.979402    8530.5517    528.84278     3446.608    859.88255    225.43954    94.794069     606.6067   -4029.8714 
  878000    246.45597   -4715.9887   -4240.6776   -4715.9887            0    479.41217    20.247265    20.264698    20.985977    8610.6455    1024.8708    75.592346     337.7734   -561.30116     359.8461   -121.10938   -4180.4743 
  879000    257.81117   -4675.7839   -4178.5734   -4675.7839            0    539.29405    20.434464    20.198821    20.838265    8601.0371   -45.735228    247.30139     1416.316    721.84343   -257.61663    42.511514   -4110.9258 
  880000    242.86069   -4737.8701   -4269.4929   -4737.8701            0    273.69577    20.171758    20.187672    21.148829    8612.2435    377.49837    468.80097   -25.212034    494.63489   -570.95599   -395.95597   -4235.1165 
  881000    233.43506   -4715.2262    -4265.027   -4715.2262            0    1536.9797    19.991397    20.028164    21.274616    8518.1645    3332.6768    1143.4522    134.81029   -180.30782   -114.77298     772.9289     -4074.09 
  882000    248.28529   -4669.9285   -4191.0894   -4669.9285            0    310.81573    20.181548    20.176037    21.250368    8652.8028    2220.7555   -833.08648   -455.22181    326.35431    1358.8525    797.77434   -4151.8669 
  883000    262.01587    -4698.318   -4192.9984    -4698.318            0    2759.5681    19.897774    20.291183    20.955207    8460.6519    3488.3135     2318.621    2471.7698    203.21617    921.46156    -515.3448   -3852.4954 
  884000     245.7341   -4718.3176   -4244.3987   -4718.3176            0    3041.3742    20.226069    20.173639    20.850102    8507.5379    2288.7511     2058.856    4776.5156   -555.63946    64.938751    736.33826   -3867.0441 
  885000    247.82212   -4715.7731   -4237.8273   -4715.7731            0    3163.9782    20.070971    20.235327    20.899593    8488.2164    3541.1481     1951.487    3999.2994   -326.46848    1199.0366    355.07712   -3846.1523 
  886000    267.22885   -4739.0557   -4223.6824   -4739.0557            0    1410.2106     20.17501    20.176217    21.133795    8602.6247    2697.2378   -153.09247    1686.4865    572.60021    371.42628    26.350777   -4046.7567 
  887000    243.26332    -4704.833   -4235.6792    -4704.833            0     1940.865    20.037747    20.139806    21.367175    8622.8592    1324.4148     2387.261    2110.9193   -197.07376    864.94012   -1119.5058   -3991.6046 
  888000    246.50411     -4704.79   -4229.3861     -4704.79            0    402.73005    20.105959    20.099463    21.191443     8563.864    959.25079   -2.7561351    251.69549   -297.92139    434.44195   -463.48376   -4179.0871 
  889000    240.42616    -4735.453   -4271.7709    -4735.453            0    220.99803    20.299878    20.157555     21.03264    8606.4705    1240.0943   -323.86565   -253.23456   -735.99118    35.719926    715.46894    -4244.032 
  890000    251.28488   -4695.3873   -4210.7633   -4695.3873            0    1087.4372    20.141321    20.309932    21.124528    8641.3864    105.56954    1253.3817    1903.3605   -89.905038   -711.14226    257.52849   -4073.7182 
  891000    253.86112   -4720.3192   -4230.7267   -4720.3192            0    283.85979    20.169854    20.109406    21.226305    8609.4696   -1194.5084    1827.1912    218.89657   -124.02105    576.06763    77.398125   -4195.0852 
  892000    244.85001   -4700.4453   -4228.2315   -4700.4453            0    632.14123    20.357188     20.14265    21.051514    8632.1252     68.02794    1743.8275    84.568208    531.94373    677.30621   -161.38328   -4148.6508 
  893000    250.92737   -4724.3555   -4240.4209   -4724.3555            0    3765.0997    20.133289    19.935234    21.130577    8481.0071    4079.4735    2946.4534    4269.3723    501.99992    -360.9262    376.83115   -3774.7278 
  894000     247.3525   -4698.4418   -4221.4017   -4698.4418            0    666.61279    20.182854    20.117609    21.348028    8667.9562    855.73829    151.42481    992.67526    152.89064    418.61244   -974.41766    -4137.133 
  895000    256.93697   -4721.5061   -4225.9815   -4721.5061            0    1965.0838    19.984162    19.973139    21.281621    8494.4835    346.57251    2962.3855    2586.2934   -876.16273    797.54347    -845.4795   -3982.5404 
  896000     247.5384   -4721.6131   -4244.2145   -4721.6131            0    567.64928    20.331532    19.956222    21.092077    8557.9111   -937.68213    1431.7191    1208.9109   -1152.5061    161.17665   -461.14042   -4173.3671 
  897000    233.57625   -4697.8703   -4247.3988   -4697.8703            0    2065.0886    20.407723     19.79626    21.164285     8550.299    2369.8523    2565.1004    1260.3131    155.23617    210.77164    787.63884   -3989.8878 
  898000    252.48743   -4734.1853   -4247.2421   -4734.1853            0    2067.4539     20.09999    20.316222    20.926504    8545.4608    2214.0487    2017.7179    1970.5951   -211.19982     5.710302   -892.29361    -3989.582 
  899000    257.84163   -4694.0662   -4196.7969   -4694.0662            0     2572.375    20.296349     20.20334    20.832243    8542.3458    1631.1931    4207.2674    1878.6646   -868.80715    563.19471   -1358.8658   -3876.3269 
  900000    248.01366    -4714.214   -4235.8988    -4714.214            0    282.20624    20.364698     20.08457    21.046509    8608.3632   -649.86445     1872.732   -376.24887    389.20071    370.60595    558.23228   -4200.4694 
  901000    270.09476   -4705.1302   -4184.2297   -4705.1302            0    1827.5763    20.128816    20.265724    20.952979     8547.245    3381.2974    397.01769    1704.4138    285.46013    128.27721   -243.84507   -3956.4172 
  902000     264.1106   -4723.0044   -4213.6449   -4723.0044            0    938.44672    20.164417    20.169421    21.266779    8649.2973    1166.1687    1071.6659    577.50561    510.70429   -323.19758    551.19491   -4095.2682 
  903000    253.75567   -4720.3929   -4231.0037   -4720.3929            0     2789.388     19.91862    20.129557    21.171452    8488.7574    3070.5504    2394.4659    2903.1477    146.09935    550.50643    1367.4347    -3885.678 
  904000    244.23122   -4697.8504   -4226.8299   -4697.8504            0    1444.8702     20.24172    20.127795    21.100759    8596.8963   -541.13466    3325.9358    1549.8094    130.23526    1617.4112    110.53991   -4045.6766 
  905000    245.23079    -4697.703   -4224.7548    -4697.703            0    3073.3083    20.080798    20.184084    21.037663    8526.8279    2246.9847    2966.7157    4006.2244   -380.27342   -1060.6201      538.618   -3842.5734 
  906000    230.68681   -4698.0656   -4253.1667   -4698.0656            0    1151.7301    20.288245    20.072286    21.139047    8608.4848    226.57854     1971.186    1257.4257   -239.68908    829.48391   -1.7196242   -4108.5717 
  907000    246.74713   -4686.4055    -4210.533   -4686.4055            0    1454.7641     19.98948    20.063688    21.370391    8570.8664    3727.5815    317.47698    319.23392     20.25227    -813.8606    17.244075   -4028.6914 
  908000    238.95045   -4718.0903   -4257.2543   -4718.0903            0    2044.0941    20.090895    20.020215    21.203477    8528.5481    3477.2155     807.4925    1847.5744   -944.45368    736.19948   -638.70927   -4003.0096 
  909000    243.57485   -4716.3631   -4246.6085   -4716.3631            0    663.23485    20.198711    20.099605    21.116266    8572.9104    913.49732    990.85214    85.355092   -78.589444    400.65735   -1933.0306   -4163.6861 
  910000    237.48917   -4675.3095   -4217.2916   -4675.3095            0    1884.6906    20.175629    20.270439    20.981761    8580.8866    4091.7602   -218.12171    1780.4333   -99.778711    312.04356   -354.75838    -3981.435 
  911000     252.5731   -4731.2252   -4244.1167   -4731.2252            0      1685.68    20.267199    20.173349    20.935339    8559.5656    2574.2188   -561.74511    3044.5664    182.40027   -367.32624   -147.63088   -4033.6891 
  912000    249.10375   -4693.8257   -4213.4082   -4693.8257            0    1508.8575    20.047164    20.320123    20.832772    8486.4556    4012.6287   -694.88084    1208.8247   -800.41386    234.60299     548.0331   -4026.6625 
  913000    247.74038   -4695.3881   -4217.5999   -4695.3881            0      3099.92    20.225707    19.998475    21.239954    8591.2066    2994.1179    3380.4858    2925.1564    264.59489   -856.66103    902.06825   -3829.1988 
  914000    241.81259   -4714.8501   -4248.4942   -4714.8501            0    1612.5609     20.23676    20.096469    21.180944    8614.0237    2000.1099    2751.4229    86.149806   -372.84439      -579.26   -672.57615   -4045.9135 
  915000     245.7689   -4705.0341   -4231.0481   -4705.0341            0    1868.0287    20.081128    20.220187    21.048877    8546.7737    3797.8174    1483.6985    322.57023    29.364222    467.28591    591.65264    -3998.206 
  916000    246.68124   -4682.4884   -4206.7429   -4682.4884            0    -56.28667    20.385939    20.165403    21.057119    8656.3851   -1186.9151   -56.315787    1074.3709    64.804325    541.51695    1462.0283   -4213.8488 
  917000      244.922   -4695.2651   -4222.9124   -4695.2651            0    3128.0778    20.290739    19.934631    21.061182    8519.0037     2510.552    3537.4543    3336.2271   -483.49669    919.27281   -71.175278   -3834.2771 
  918000     256.5203   -4687.9469    -4193.226   -4687.9469            0    2355.4562     20.17054    20.125505    21.059987    8549.1399    562.67817    3609.3384     2894.352   -502.74714    198.11925    121.17182   -3899.5467 
  919000    252.99936   -4675.7375    -4187.807   -4675.7375            0    338.52257    20.162115    20.208178    21.209491    8641.5869    32.733169    1420.9819   -438.14732    196.22567   -744.69896   -177.01136   -4145.1434 
  920000    249.23154    -4698.689    -4218.025    -4698.689            0    1069.8596     20.24807    20.042065    21.283807    8637.2481    1355.2975    764.21195    1090.0694   -372.70383   -199.43249    800.21016   -4083.2597 
  921000    246.43413   -4679.3463   -4204.0774   -4679.3463            0    -99.89049    20.447858    20.146049    20.887831    8604.6072   -803.59499    824.42898   -320.50546   -600.58954    813.75588   -581.96467   -4216.6126 
  922000    242.31393   -4705.1107   -4237.7879   -4705.1107            0    1991.1544    20.200074       20.236    20.841175      8519.22    3361.0551   -455.88516    3068.2932     176.6576   -706.47501    731.44067   -3990.3987 
  923000     249.7014   -4737.5309   -4255.9607   -4737.5309            0    2112.0514    20.157779    20.200309    20.842695     8487.007    1550.3228     1551.484    3234.3474    386.84196    1350.2273    899.67081   -3994.5431 
  924000    250.56295   -4704.3712   -4221.1395   -4704.3712            0     2210.545    20.301189    19.911823    21.324406    8620.0431    2095.5295    4231.4385    304.66703   -462.56854   -446.57302   -805.16505    -3943.242 
  925000    248.01317     -4721.73   -4243.4157     -4721.73            0    3141.1397    20.127382    20.116606     21.14225     8560.383    2583.3392    4551.0276    2289.0524    55.473095    280.11826    141.02079    -3851.262 
  926000      241.292   -4709.4372   -4244.0853   -4709.4372            0    3048.7915    20.150307     20.24917    20.811433    8491.6266    4486.5867    965.88968    3693.8982     376.2265    122.11996     455.7784   -3866.5178 
  927000    249.57992   -4706.9013   -4225.5655   -4706.9013            0    985.70497    20.283176    20.250882    20.771674    8532.0108    499.34947    58.579682    2399.1858   -486.75839    80.815406   -881.02745   -4102.9136 
  928000    241.70173   -4690.7491    -4224.607   -4690.7491            0    1725.8803    20.063062    20.233393    21.071872    8553.9959    1419.9068    1480.8779    2276.8562    774.36481    30.202177    518.53188   -4009.3013 
  929000    252.94673   -4682.4267   -4194.5977   -4682.4267            0    1054.6362    20.013435    20.186202    21.215483    8570.9542    1336.6964     1910.339    -83.12669    739.72238    420.70397    818.95132   -4062.7696 
  930000    249.81818   -4694.2494    -4212.454   -4694.2494            0    1329.1308    20.345277    19.963664    21.162358    8595.4363   -169.64813    2754.3013    1402.7392    106.93967    282.20242   -1230.5026     -4045.84 
  931000    248.23837   -4717.1998   -4238.4512   -4717.1998            0    1484.4502    20.252078    20.152421     21.06418    8596.8899    184.05701    1929.5229    2339.7706    357.60442     1007.994   -181.34262   -4052.3356 
  932000    254.97151   -4722.9661   -4231.2321   -4722.9661            0    1762.0961    20.313736    19.997088    20.989884    8526.4174   -60.248902    2841.8091     2504.728   -715.32176   -1212.4603     837.0981   -4012.1171 
  933000    237.78918   -4713.1043   -4254.5078   -4713.1043            0    1835.1779    19.935801    20.380741    21.080761    8565.2479    4592.8621   -93.652696    1006.3242   -84.462844    34.945319   -659.94451   -4025.2659 
  934000    246.56063   -4730.9411   -4255.4282   -4730.9411            0     1915.817    20.055734    20.139114    21.121151    8530.9322    2263.9677    1589.1804     1894.303   -667.57697     1099.049   -363.76132    -4017.072 
  935000    253.45157   -4686.2863   -4197.4837   -4686.2863            0     811.2323    20.260456    20.204778    21.198236     8677.668    2735.4449   -234.22734   -67.520656    85.791031   -491.88247    925.00093   -4094.8182 
  936000    240.21285   -4661.8859   -4198.6152   -4661.8859            0     3137.113    20.371869    20.279116    20.628032    8521.9248    2555.2365    2988.7338    3867.3687   -337.28846    1117.8805   -599.36428   -3808.7237 
  937000    244.42319    -4704.967   -4233.5763    -4704.967            0    1422.6161    20.100257    20.149687     21.07378    8535.1736    972.78854     1479.457    1815.6028   -368.35828    420.87089    803.44558   -4056.4937 
  938000    254.85235   -4705.5548   -4214.0506   -4705.5548            0    1389.9746    20.303433    19.810982    21.373852    8597.2247   -778.90615    5474.5276   -525.69766    453.24562   -452.65101    266.72243   -4039.7732 
  939000    240.50084   -4721.5602   -4257.7341   -4721.5602            0    924.16156    19.951581    20.206882    21.169625    8534.7298    531.55632    1162.8909    1078.0375    271.49539    192.24903   -1103.7552   -4142.7035 
  940000    267.26125    -4697.823   -4182.3872    -4697.823            0    2710.1883    20.109875    20.202039    20.989245    8527.1005    1685.0741    2760.2874    3685.2033   -247.72333    768.26136    801.91678   -3845.3508 
  941000    249.91791   -4707.3961   -4225.4084   -4707.3961            0    2144.1202    20.156842    20.084459    21.160028    8566.4099    1516.7642    3339.0069    1576.5894    146.58117   -210.14179    35.174733   -3957.5385 
  942000    256.30584   -4711.1912   -4216.8839   -4711.1912            0   -661.49876    20.080888    20.195197    21.413991    8684.1765    1243.0005   -1060.9215   -2166.5753    6.6475263    -675.2929   -192.50149   -4300.6626 
  943000    241.30825   -4681.9048   -4216.5215   -4681.9048            0    780.05978    20.274699    20.125537    21.078885    8601.0118    189.54473    1971.5769    179.05766   -428.70537   -1649.5631    576.26184   -4118.6732 
  944000    258.48425   -4699.1462   -4200.6375   -4699.1462            0    1332.0905    20.348886    20.185118    20.881491    8576.9611    1951.7475    438.28238    1606.2416   -93.979564    1308.3777   -371.96871   -4034.0114 
  945000    239.27102   -4687.4778   -4226.0236   -4687.4778            0    1427.1829    20.308136    20.189573    21.115411    8657.5844    -198.5406    3241.8259    1238.2635   -495.76788     -196.575   -347.92905   -4045.8246 
  946000    257.77009   -4723.6618   -4226.5305   -4723.6618            0    2561.9781    19.927286    20.198686    21.130189    8505.0063    3060.7667    3006.1437     1619.024   -504.38563    1444.5354     2357.746    -3908.751 
  947000    243.69272    -4696.195   -4226.2131    -4696.195            0   -506.56326    20.316048    20.136628    21.276905    8704.3119   -396.72919   -209.84514   -913.11545   -626.60578    40.686034    913.61803    -4290.518 
  948000    261.14034   -4722.1871    -4218.556   -4722.1871            0    2716.5275    20.135694     20.15695     21.00134    8523.9018    1406.3503    4263.1489    2480.0831    341.47247     197.0521    1181.3989   -3880.8581 
  949000    264.37938   -4704.9371   -4195.0592   -4704.9371            0     2119.873    19.875135    20.547364    20.992281    8572.8618      3913.11    93.270797    2353.2384   -976.19865    39.256038   -751.25259   -3930.0191 
  950000     247.0379   -4713.1139   -4236.6805   -4713.1139            0     2076.942    20.149411    20.031077    21.207017    8559.4574    892.31677     3034.855    2303.6542    5.5918559   -291.60364    852.94229    -3977.414 
  951000    241.15712   -4694.0349   -4228.9431   -4694.0349            0   -255.55389    20.243527    20.268081    21.060872     8641.222   -3260.6173     1584.534    909.42168   -331.95849    198.41739     -1982.95   -4261.1489 
  952000    249.42795   -4704.8079   -4223.7651   -4704.8079            0   -267.45369    20.376852    20.322608    20.968561    8683.3073    -1786.338     632.7449    351.23208   -36.983397   -453.10599    713.83157   -4257.6346 
  953000     246.0324   -4727.8797   -4253.3855   -4727.8797            0    2271.9653    20.087199    20.132548    21.086775    8527.6288    1237.9635    2533.2062    3044.7261   -20.493561    432.89128   -1100.9856   -3970.8286 
  954000     247.4183   -4736.2073   -4259.0403   -4736.2073            0    100.75801    20.167727    20.137786    21.154289    8591.4626    534.42261   -697.56627     465.4177   -530.02138    40.574462   -397.62824   -4246.4156 
  955000    249.68111   -4738.3217   -4256.7907   -4738.3217            0    549.05671    19.988388    20.045602    21.431739    8587.2534    1586.1412     1083.207   -1022.1781   -555.07309    119.28203    714.47339   -4188.0289 
  956000    239.29289   -4715.1224   -4253.6259   -4715.1224            0    724.51703    20.236525     20.10833     20.98633    8539.8146   -179.38982    1431.0148     921.9261   -371.50343   -1089.9876   -133.41179   -4163.3913 
  957000    254.45558   -4715.4374   -4224.6984   -4715.4374            0    1162.1831    20.219378     20.11679    21.047133    8560.9001    1311.8509    1025.4499    1149.2484    498.78101   -1137.9739    172.01327   -4079.5976 
  958000    257.17565   -4714.3403   -4218.3554   -4714.3403            0    1137.8709    20.184271    20.305684    21.026579    8617.8577    1299.1704     1013.397    1101.0454   -142.85844    190.51758    -42.34024   -4075.3448 
  959000    243.62869   -4711.3632   -4241.5047   -4711.3632            0    2432.6739    20.240135    19.968207    21.050647    8507.8127    1536.9074    3226.8784    2534.2359   -422.61874    1551.8831    394.06456   -3939.6641 
  960000    252.33978   -4687.3357   -4200.6772   -4687.3357            0    1019.7813     20.15287    20.224914    21.178233    8632.0369     2384.301   -128.07212    803.11513    549.13302    389.01284     -625.451   -4072.2975 
  961000    253.28614   -4712.3869   -4223.9033   -4712.3869            0    1550.2794    20.017347     20.22597    21.134879    8556.8839    1563.4935    1811.8835    1275.4613    501.12592   -262.34496   -391.16621   -4030.4387 
  962000    250.39913   -4708.9829   -4226.0671   -4708.9829            0    2446.6344    20.091022    20.151867    21.213575    8588.7743    2727.1693     2659.053    1953.6808   -5.6016335    958.42893    579.56903   -3919.6055 
  963000    265.99735   -4706.6398   -4193.6416   -4706.6398            0    2165.2799    20.125227    19.978749    21.149425    8503.6944    1888.0478    3175.0116    1432.7804   -161.54954   -240.17879     1649.443   -3925.1086 
  964000    251.38168   -4706.5199   -4221.7092   -4706.5199            0    -1156.947    20.227246    20.197599    21.244364    8679.2106   -736.99178   -2109.9761   -623.87316   -754.17791    1155.6096     79.10909   -4368.1525 
  965000    250.34137   -4753.3425   -4270.5381   -4753.3425            0    2826.6107    20.015449     20.16067    20.919799    8441.6586    2377.4671    2884.0458    3218.3194   -356.32666    585.72998   -458.59515   -3922.5457 
  966000    245.94814    -4715.059   -4240.7273    -4715.059            0    183.69147    20.354561    20.193061    21.094842    8670.4206   -998.26357    886.85718    662.48081   -362.32905    -485.0686    -826.5574   -4217.4997 
  967000     236.0584    -4717.415   -4262.1565    -4717.415            0    593.94617    20.180659    20.018074     21.25119    8585.0116   -23.096296    716.81316    1088.1217   -389.83899    1284.3569   -1064.9752   -4187.7923 
  968000    248.62033   -4698.6078   -4219.1226   -4698.6078            0    1985.4032    19.883695    20.350474    21.370892    8647.5734    2120.3584    1772.9188    2062.9324    684.02388    1258.4011    383.43868   -3968.7315 
  969000    252.92398   -4699.4012    -4211.616   -4699.4012            0    1293.2686    20.172219     20.30378    20.833446    8532.8023    1794.6881     44.52097    2040.5966    94.381978    -684.5365    925.27759   -4050.6789 
  970000    241.62315   -4718.6059   -4252.6153   -4718.6059            0    1850.2618    20.154118    20.361461    20.867618     8563.388    284.99231    2210.6138    3055.1791   -228.98471    546.50742    1016.0607   -4021.5394 
  971000    258.09376   -4727.4406   -4229.6851   -4727.4406            0     258.1411      20.3101    20.054022    20.993395    8550.5925   -1180.1555    1360.4557    594.12316    60.274301   -711.65149    1245.1239   -4197.4945 
  972000    248.39368    -4721.893   -4242.8448    -4721.893            0    311.74548    20.075546    20.277265    21.172608    8618.8853    1340.4279   -491.19047       85.999    142.67508   -332.96383    658.76134   -4203.6592 
  973000    245.75013   -4719.5869   -4245.6371   -4719.5869            0    1995.9154     20.24961    20.200517    20.970569    8578.0657    857.22453    2058.9182    3071.6036    569.73833   -1736.5024   -40.904708   -3995.9435 
  974000     253.9604   -4706.8104   -4217.0264   -4706.8104            0    1677.0527     20.27446    20.073938    21.075419    8577.4479   -697.94048    3533.5431    2195.5553   -479.76344   -347.99812    1578.3144   -4007.2384 
  975000    249.68745   -4731.2424   -4249.6991   -4731.2424            0     2131.896    20.108728    20.112229    21.071538    8521.9904    1242.8059     2504.587    2648.2953   -244.95486   -66.513554    77.955418   -3984.7375 
  976000    255.37788   -4717.2787   -4224.7609   -4717.2787            0    1757.2432    20.106151    20.303578     21.10922    8617.3497    1968.4607    1820.2774    1482.9914   -377.47958   -933.40241    451.27738    -4003.919 
  977000    256.98087    -4652.035   -4156.4257    -4652.035            0    2031.6054    20.432507    19.925871    21.055613    8572.4875    1065.0492    2477.7437    2552.0234   -482.14854    364.53292   -290.15552   -3902.4325 
  978000    260.14921   -4702.4498   -4200.7301   -4702.4498            0    739.66708     20.10799    20.217624     21.14181     8594.902    2396.9018    204.83262   -382.73321   -357.00641   -466.13027   -145.52373   -4108.0145 
  979000    248.53566   -4687.7752   -4208.4533   -4687.7752            0    2350.0855       20.083    20.365055    20.981978    8581.4484    2727.3163      1199.27    3123.6703   -337.27752    176.89143   -694.68061   -3914.3362 
  980000    264.19612   -4698.1729   -4188.6485   -4698.1729            0    2037.4748    20.097176    20.124744    21.123551    8543.4311    1782.8045    2853.2323    1476.3875    117.91391     37.90742     -1582.52   -3934.7849 
  981000    259.78166   -4711.7855   -4210.7748   -4711.7855            0    331.71009    20.276018    19.961879    21.222124    8589.5999    307.43619    597.70525    89.988836    273.53389   -1642.7359   -166.69875   -4169.2213 
  982000    243.46205   -4691.5768   -4222.0397   -4691.5768            0    2068.9079    20.332952    20.012562    21.072276    8574.6134    2406.5978    2198.1797    1601.9461   -511.73016    1186.1612    899.00171   -3963.3188 
  983000    249.84015    -4721.377   -4239.5393    -4721.377            0    467.31407    20.216545    20.266791    21.026221    8614.9578    1513.1577   -851.24909    740.03362   -290.88352    476.32736    975.91604   -4180.8258 
  984000    257.27312   -4703.7182   -4207.5454   -4703.7182            0    937.48551    20.123847    20.142089    21.154298    8574.6056    195.30747     1976.676    640.47302    200.99979    897.61516   -289.85696   -4090.3111 
  985000    237.44778   -4711.3992   -4253.4612   -4711.3992            0    1258.7431    20.280561     20.02635    21.270128    8638.7691    1602.5888     1037.051    1136.5895   -354.14381   -493.64145   -266.31276   -4094.8752 
  986000    248.39136    -4729.198   -4250.1544    -4729.198            0    3011.6738    19.916413    20.213538    21.075806    8484.7224    4035.8816    1428.8027    3570.3372    534.64813    697.87305    745.36938   -3877.4869 
  987000    251.95306   -4709.8544   -4223.9418   -4709.8544            0    1110.7502    20.062888    20.074461    21.357737    8601.8642   -1718.8654    4487.1171    563.99892   -726.96627   -350.21172    -711.2067   -4084.5989 
  988000     249.0597   -4694.6576    -4214.325   -4694.6576            0    1467.0019    20.124428     20.24463     21.02087     8564.146     2327.104    1264.5569     809.3447    -246.1159    375.59976    1311.4021   -4031.0975 
  989000    248.05948   -4701.9278   -4223.5242   -4701.9278            0    2027.9935    20.039269    20.258698    20.986559    8519.9024    3936.1851    1151.3451    996.45028    283.02436    227.98509     821.9364   -3971.5378 
  990000     255.1434    -4713.844   -4221.7785    -4713.844            0    23.240994     20.32104    20.137396    21.029564    8605.5676   -294.63532    222.29978    142.05851     48.34964    486.02508   -105.11032   -4218.8617 
  991000    244.81776   -4723.6788   -4251.5271   -4723.6788            0    1762.3511    20.043463    20.170847     21.16041    8555.0191    1921.4513    1243.0156    2122.5862   -143.95205    1723.6604   -918.68752   -4031.6453 
  992000    243.70489    -4690.295   -4220.2897    -4690.295            0    676.36516    20.151515    19.994445    21.398746    8621.9478    538.65404    462.68101    1027.7604    311.96184    1913.0753    408.46059    -4135.242 
  993000    246.97487   -4679.2426   -4202.9308   -4679.2426            0    461.49799    20.157361    20.185998    21.159581    8609.7583    825.38522     -239.547    798.65575    179.20364   -73.605006   -742.92442   -4144.9831 
  994000    247.13444   -4682.6619   -4206.0423   -4682.6619            0    2833.9234    20.446516    20.035216    20.677702    8470.6281    952.76085    4358.3063    3190.7029   -870.01492    475.75251   -1105.5026   -3855.9524 
  995000    275.58826   -4708.8751     -4177.38   -4708.8751            0    335.72716    20.243184    20.336489    20.879816    8595.7043     -1041.98    128.58777    1920.5738    -395.2763    125.09087   -365.21418   -4135.2934 
  996000    259.68449   -4717.0814    -4216.258   -4717.0814            0    165.28708    20.307384    20.106587     20.98917    8570.1338   -515.05639    1006.3599    4.5576897    228.15584    208.97527    1886.1749   -4195.5993 
  997000    238.61755   -4683.5358   -4223.3418   -4683.5358            0    194.91303    20.167949    20.120027    21.337052    8658.1418    -1299.923    1879.2095    5.4525591   -382.43718    1214.1188   -559.85071   -4198.7301 
  998000    258.78904   -4706.4623   -4207.3659   -4706.4623            0    2198.0685    20.105971    19.986336    21.295062    8557.3075    2147.0612     3218.054    1229.0904   -437.21144   -3.4814619   -1671.4815   -3933.0479 
  999000    245.72442    -4705.617   -4231.7168    -4705.617            0    1381.7697    20.002058    20.039824    21.436704    8592.6394    2486.5311    952.46911    706.30891   -396.95941   -754.08995    575.22021   -4058.5605 
 1000000    249.60321   -4661.6166   -4180.2358   -4661.6166            0     2108.493    20.288838    20.164123    20.913351    8555.7902    2674.8784    1085.1706    2565.4299    11.038745    863.19537   -427.61412   -3917.1435 
Loop time of 343.901 on 64 procs for 250000 steps with 972 atoms

Performance: 125.617 ns/day, 0.191 hours/ns, 726.953 timesteps/s
195.2% CPU use with 32 MPI tasks x 2 OpenMP threads

MPI task timing breakdown:
Section |  min time  |  avg time  |  max time  |%varavg| %total
---------------------------------------------------------------
Pair    | 26.335     | 35.235     | 44.088     |  74.7 | 10.25
Bond    | 1.0544     | 1.2773     | 2.1822     |  18.4 |  0.37
Kspace  | 152.57     | 163.43     | 173.09     |  40.1 | 47.52
Neigh   | 2.2918     | 2.4917     | 2.5963     |   6.0 |  0.72
Comm    | 57.474     | 61.97      | 65.393     |  22.9 | 18.02
Output  | 0.63707    | 0.63735    | 0.63892    |   0.0 |  0.19
Modify  | 64.588     | 66.118     | 70.007     |  16.5 | 19.23
Other   |            | 12.74      |            |       |  3.70

Nlocal:        30.3750 ave          34 max          23 min
Histogram: 1 3 2 1 1 2 3 5 3 11
Nghost:        2527.91 ave        2559 max        2500 min
Histogram: 1 0 6 6 5 7 2 1 3 1
Neighs:        9210.75 ave       11435 max        6679 min
Histogram: 2 3 1 2 2 8 5 5 3 1

Total # of neighbors = 294744
Ave neighs/atom = 303.23457
Ave special neighs/atom = 2.0000000
Neighbor list builds = 7715
Dangerous builds = 0

unfix		3
unfix		2
unfix		1

write_data	data.final.${pid}
write_data	data.final.1
System init for write_data ...
PPPM initialization ...
  extracting TIP4P info from pair style
  using 12-bit tables for long-range coulomb (../kspace.cpp:340)
  G vector (1/distance) = 0.37160675
  grid = 24 24 25
  stencil order = 5
  estimated absolute RMS force accuracy = 0.0035076113
  estimated relative force accuracy = 1.0563067e-05
  using double precision FFTW3
  3d grid and FFT values/proc = 3458 576
Last active /omp style is kspace_style pppm/tip4p/omp
WARNING: Not all mixed pair coeffs generated from mixing. Use write_data with 'pair ij' option to store all pair coeffs. (../write_data.cpp:312)

write_restart   restart.lmp.${pid}
write_restart   restart.lmp.1
System init for write_restart ...
PPPM initialization ...
  extracting TIP4P info from pair style
  using 12-bit tables for long-range coulomb (../kspace.cpp:340)
  G vector (1/distance) = 0.37160675
  grid = 24 24 25
  stencil order = 5
  estimated absolute RMS force accuracy = 0.0035076113
  estimated relative force accuracy = 1.0563067e-05
  using double precision FFTW3
  3d grid and FFT values/proc = 3458 576
Last active /omp style is kspace_style pppm/tip4p/omp
Total wall time: 0:05:44
