#include		in.partitions
include		in.temp
variable        temperature equal 250.40
variable	tempDamp equal 100.0
include		in.pressure
variable        pressure equal 5424.3
variable        pressureDamp equal 1000.0 # This is 1 ps
include		in.seed
variable        seed equal 745823

units		real
atom_style	full
box tilt large
read_restart	restart.lmp.${pid}
read_restart	restart.lmp.0
Reading restart file ...
  restart file = 7 Jan 2022, LAMMPS = 7 Jan 2022
  restoring atom style full from restart
  triclinic box = (-10.772688 -9.2053817 0.073990445) to (12.752688 12.19538 21.786009) with tilt (-9.116321 1.8489294 2.9375027)
  3 by 2 by 4 MPI processor grid
  restoring pair style lj/cut/tip4p/long/omp from restart
  restoring bond style harmonic/omp from restart
  restoring angle style harmonic/omp from restart
  1296 atoms
  864 bonds
  432 angles
Finding 1-2 1-3 1-4 neighbors ...
  special bond factors lj:    0        0        0       
  special bond factors coul:  0        0        0       
     2 = max # of 1-2 neighbors
     1 = max # of 1-3 neighbors
     1 = max # of 1-4 neighbors
     2 = max # of special neighbors
  special bonds CPU = 0.001 seconds
  read_restart CPU = 0.007 seconds
include 	in.setup
variable	out_freq equal 1000
variable	out_freq2 equal 10000
variable	out_freq3 equal 1000

timestep	2.0

neigh_modify    delay 7 every 1

include		in.tip4p
# This is TIP4P/Ice

# create groups ###
group ox type 2
432 atoms in group ox
group hy type 1
864 atoms in group hy

# set charges - beside manually ###
set group ox charge -1.1794
Setting atom values ...
  432 settings made for charge
set group hy charge 0.5897
Setting atom values ...
  864 settings made for charge

# ### TIP3P Potential Parameters ###
pair_style lj/cut/tip4p/long/omp 2 1 1 1 0.1577 8.5
pair_coeff 1 1*2 0.000 0.000
pair_coeff 2 2 0.21084 3.1668
bond_style  harmonic
bond_coeff  1 450 0.9572
angle_style harmonic
angle_coeff 1 55 104.52
kspace_style pppm/tip4p/omp 1.0e-5
pair_modify tail yes

thermo          ${out_freq}
thermo          1000
thermo_style    custom step temp pe etotal epair emol press lx ly lz vol pxx pyy pzz pxy pxz pyz enthalpy

restart 	${out_freq3} restart.lmp.${pid} restart2.lmp.${pid}
restart 	1000 restart.lmp.${pid} restart2.lmp.${pid}
restart 	1000 restart.lmp.0 restart2.lmp.${pid}
restart 	1000 restart.lmp.0 restart2.lmp.0


include         in.dump
dump            myDump all atom ${out_freq2} dump.water.${pid}
dump            myDump all atom 10000 dump.water.${pid}
dump            myDump all atom 10000 dump.water.0
dump            myDump2 all dcd ${out_freq2} dump.dcd
dump            myDump2 all dcd 10000 dump.dcd
dump_modify     myDump append yes
dump_modify     myDump2 append yes


variable natoms 	equal  "count(all)"                        # NUMBER ATOMS
variable H      	equal  "enthalpy/v_natoms"                 # ENTHALPY-per-atom
variable Vol      	equal  "vol/v_natoms"                 # volume-per-atom
fix AVG all 		ave/time ${out_freq} 1 ${out_freq} v_Vol v_H file vol_enthalpy.dat
fix AVG all 		ave/time 1000 1 ${out_freq} v_Vol v_H file vol_enthalpy.dat
fix AVG all 		ave/time 1000 1 1000 v_Vol v_H file vol_enthalpy.dat


timer           timeout 10:00:00 every 1000
New timer settings: style=normal  mode=nosync  timeout=10:00:00

fix 		1 all shake 1e-6 200 0 b 1 a 1
       0 = # of size 2 clusters
       0 = # of size 3 clusters
       0 = # of size 4 clusters
     432 = # of frozen angles
  find clusters CPU = 0.001 seconds
fix             2 all nph tri ${pressure} ${pressure} ${pressureDamp}
fix             2 all nph tri 5424.3 ${pressure} ${pressureDamp}
fix             2 all nph tri 5424.3 5424.3 ${pressureDamp}
fix             2 all nph tri 5424.3 5424.3 1000
fix             3 all temp/csvr ${temperature} ${temperature} ${tempDamp} ${seed}
fix             3 all temp/csvr 250.4 ${temperature} ${tempDamp} ${seed}
fix             3 all temp/csvr 250.4 250.4 ${tempDamp} ${seed}
fix             3 all temp/csvr 250.4 250.4 100 ${seed}
fix             3 all temp/csvr 250.4 250.4 100 745823


run             250000
PPPM initialization ...
  extracting TIP4P info from pair style
  using 12-bit tables for long-range coulomb (../kspace.cpp:340)
  G vector (1/distance) = 0.36700259
  grid = 30 40 32
  stencil order = 5
  estimated absolute RMS force accuracy = 0.0045812577
  estimated relative force accuracy = 1.3796322e-05
  using single precision MKL FFT
  3d grid and FFT values/proc = 9367 2400
  generated 0 of 1 mixed pair_coeff terms from geometric mixing rule
Last active /omp style is kspace_style pppm/tip4p/omp
Neighbor list info ...
  update every 1 steps, delay 7 steps, check yes
  max neighbors/atom: 2000, page size: 100000
  master list distance cutoff = 10.8154
  ghost atom cutoff = 10.8154
  binsize = 5.4077, bins = 7 5 5
  1 neighbor lists, perpetual/occasional/extra = 1 0 0
  (1) pair lj/cut/tip4p/long/omp, perpetual
      attributes: half, newton on, omp
      pair build: half/bin/newton/tri/omp
      stencil: half/bin/3d/tri
      bin: standard
Per MPI rank memory allocation (min/avg/max) = 10.53 | 10.55 | 10.61 Mbytes
Step Temp PotEng TotEng E_pair E_mol Press Lx Ly Lz Volume Pxx Pyy Pzz Pxy Pxz Pyz Enthalpy 
  250000    246.87857   -6259.2223   -5624.1423   -6259.2223            0    5598.3383    23.525377    21.400761    21.712018    10931.154    4703.7502     6748.959    5342.3056   -74.283131   -1119.0164   -952.23635    -4731.657 
  251000    246.90188   -6317.5975   -5682.4574   -6317.5975            0    5321.3153    23.265094    21.729834     21.62709    10933.502    6963.9145    2938.5608    6061.4706     1477.716    -676.3752    29.214771   -4833.9529 
  252000    254.03814   -6322.3374   -5668.8397   -6322.3374            0    6223.4977    23.305667    21.252601    21.988436    10891.005    7910.9397    6136.6978    4622.8556   -593.79276    31.616681     551.8467   -4680.3359 
  253000    255.34615   -6332.8334   -5675.9709   -6332.8334            0    6718.6802    23.395252    21.290961    21.772043    10844.816    6115.3309    7801.0488    6239.6609    219.94614    106.68847    11.584239    -4613.341 
  254000    241.21898   -6326.5189   -5705.9978   -6326.5189            0    5785.3363    23.339482     21.60889    21.568379    10877.803    5100.5719    4582.5823    7672.8547   -102.61671      27.8264    697.16173   -4788.2028 
  255000     250.3126   -6331.6293   -5687.7154   -6331.6293            0    3992.5238    23.473892    21.464246    21.791694    10979.731    4019.1339    4292.3373       3666.1   -5.0910941   -300.99809   -61.633347   -5048.4001 
  256000    254.93453   -6319.2771   -5663.4736   -6319.2771            0    3797.8163    23.349994    21.546524    21.799925    10967.787    4960.8399    3328.6908     3103.918    1067.9937     324.0443    870.53283    -5055.998 
  257000    249.58295   -6343.2807   -5701.2438   -6343.2807            0    4310.4233    23.326748    21.432188    21.878467    10937.992    3673.3459    5414.6939    3843.2301    936.48069   -66.552045    79.101816   -5013.6476 
  258000    259.64915   -6341.2428   -5673.3112   -6341.2428            0    4727.1744    23.424884     21.41104    21.834365     10951.05    4110.3495    5155.5365    4915.6371     484.9328    339.97992   -330.79067   -4918.3349 
  259000    272.57967   -6340.2565   -5639.0619   -6340.2565            0     5824.391     23.20025    21.649208    21.630124    10864.098    6727.3335    5665.4863    5080.3532   -542.52126   -722.00253   -848.25657   -4716.2353 
  260000      258.273   -6329.8542   -5665.4627   -6329.8542            0    6658.0588    23.603651     21.28111    21.622242     10861.11     5682.598    5496.6578    8794.9206   -158.91754    230.22018     577.2368   -4610.8385 
  261000    248.34441   -6321.6938    -5682.843   -6321.6938            0    5426.5412    23.189328    21.618104     21.78015    10918.592    6613.8355    4271.7216    5394.0665    1291.3482   -416.41373    563.64579   -4818.7398 
  262000    259.03554   -6309.4412   -5643.0881   -6309.4412            0    6259.5892    23.488783    21.328593    21.745333    10894.036     6241.863    5826.9197    6709.9849    -4.301958   -738.68552     783.5143   -4648.5749 
  263000     255.2582   -6311.7944   -5655.1582   -6311.7944            0    5632.8095    23.537785    21.520629    21.506691     10894.17    5824.1629    4528.7139    6545.5518    -808.2315   -196.69979   -5.6615883   -4760.2158 
  264000    246.38711    -6345.276   -5711.4601    -6345.276            0    5304.9498    23.237241    21.599232    21.741112    10912.006    4573.9908    5340.4156     6000.443   -349.86801    29.223189     179.9353   -4867.2282 
  265000    248.95705   -6312.3472   -5671.9204   -6312.3472            0    5501.5406    23.510758    21.317426    21.755534    10903.631     5003.499    6174.7582    5326.3645   -1720.3403   -835.51133   -458.93134   -4797.0749 
  266000    254.34154   -6332.9921    -5678.714   -6332.9921            0    6465.3502    23.036388    21.645693     21.74585     10843.32    8090.2106    5068.3625    6237.4775   -563.45109    818.36957    858.89271   -4656.2919 
  267000    259.14515   -6343.0551     -5676.42   -6343.0551            0    6767.9292    23.477326     21.36457     21.63018     10849.33    7260.2634    6283.5367    6759.9874    332.48976   -567.45754    612.46279   -4605.5553 
  268000    247.02797   -6352.2549   -5716.7905   -6352.2549            0    4171.7711    23.358151    21.580114     21.72669    10951.807    4879.7446    4036.1668    3599.4018    946.23158   -931.01683   -1285.6908   -5050.4716 
  269000    244.99271   -6316.8662   -5686.6374   -6316.8662            0    6084.8914    23.376107    21.328069    21.864683    10901.015    5325.4684    6469.4917    6459.7142    1260.7921    922.99596     271.1663   -4719.2606 
  270000    241.47655   -6320.3065   -5699.1227   -6320.3065            0    5247.2312    23.358475    21.436842    21.736741     10884.28    5153.2629    4591.4764    5996.9542     1610.888    1367.1452    1534.2348   -4866.1979 
  271000    246.72852   -6351.4372   -5716.7432   -6351.4372            0    4645.4288    23.320906    21.487027    21.770826    10909.294    4619.8871    5046.7146    4269.6848    263.38672   -67.692775    271.62106   -4977.6514 
  272000    255.66249   -6339.6499   -5681.9737   -6339.6499            0    4774.0158    23.501182    21.363115    21.774904    10932.275    3112.3172    7065.2233    4144.5069    583.79492    -449.6271     -1051.03   -4920.8236 
  273000    246.76968   -6334.0599   -5699.2599   -6334.0599            0    4413.7872    23.341745    21.644566    21.695954    10961.272     4902.645     4395.343    3943.3737   -349.45381    404.39731    159.24279   -4993.6767 
  274000     272.4338   -6316.2659   -5615.4465   -6316.2659            0    5086.4688    23.399816    21.472573    21.757249    10932.022    5511.9128    4055.2913    5692.2022   -1051.0094    146.83155     403.4593   -4804.4989 
  275000    256.37795   -6304.0384   -5644.5217   -6304.0384            0    4435.7309    23.365075    21.446344    21.936297    10992.178    4733.6843    4193.2372    4380.2711   -559.92737    423.72716    574.60756   -4933.4313 
  276000    261.97776   -6321.2771   -5647.3553   -6321.2771            0    4724.5199     23.39278    21.478185    21.823319    10964.787      4870.51    5701.4449    3601.6047    360.94443     429.6701   -299.32182   -4891.8565 
  277000    249.86354   -6302.2007   -5659.4419   -6302.2007            0    3983.6663    23.328197     21.64481    21.764839    10989.816    3850.1105      3904.43    4196.4584   -309.19481   -141.98749   -532.14412   -5020.9591 
  278000    249.66764   -6356.7871   -5714.5323   -6356.7871            0    5059.3356    23.411574    21.401326    21.751163    10898.175    5984.5272    4428.4735     4765.006   -666.63431    160.68634   -845.96513   -4910.4081 
  279000    242.64194    -6328.852   -5704.6704    -6328.852            0    3809.4009    23.307907    21.477806    21.978779    11002.636    4437.5717    3886.0804    3104.5506   -114.29392   -120.68091   -345.74506   -5093.4057 
  280000     256.6875   -6295.9004   -5635.5875   -6295.9004            0    5410.8898    23.255111     21.48519    21.844434    10914.363    6231.5428    6232.8633    3768.2633    460.51428    665.16958   -548.86776   -4774.3102 
  281000    257.12119   -6317.2908   -5655.8622   -6317.2908            0    4889.2537    23.407907     21.40267    21.826279    10934.785    5771.1678    3814.0514    5082.5418   -70.483747    586.15628     757.9143   -4876.1601 
  282000    253.74834    -6314.859   -5662.1069    -6314.859            0    5896.5761    23.326405      21.4836    21.736061    10892.704    6809.0577    5231.4304    5649.2403   -143.32439   -29.382485   -714.31757   -4725.3832 
  283000     248.1775   -6319.6038   -5681.1823   -6319.6038            0    6130.6279    23.255253    21.517908    21.723687    10870.629    6648.5646    4940.3814    6802.9375   -48.138893    181.08206    16.988305   -4709.2511 
  284000    249.95976    -6342.073   -5699.0668    -6342.073            0    4689.8898    23.402985    21.324811     21.92245    10940.711    4843.3941    6020.2741    3206.0011   -422.46407   -185.68622   -726.70809   -4950.7525 
  285000    250.71269   -6355.8281    -5710.885   -6355.8281            0    5409.6844    23.314241    21.516208    21.685399    10878.134    4317.5543    6781.2953    5130.2036   -178.59086    39.299557    -63.64013   -4852.6579 
  286000     249.8655   -6343.9486   -5701.1848   -6343.9486            0    5301.7816     23.24553    21.503445    21.751993    10872.929    5541.2767    4955.5789     5408.489   -491.76489    489.16453    932.40026   -4860.4786 
  287000    260.07198   -6338.0396   -5669.0203   -6338.0396            0    5872.7871    23.471557    21.151538    21.870715    10857.925    5004.9239    6025.2191    6588.2183    83.793745    294.36534   -950.81614   -4739.0545 
  288000    258.67472   -6342.6492   -5677.2243   -6342.6492            0    5558.7213    23.263238    21.609963    21.659285    10888.506    5633.1271    4603.2286    6439.8081    275.91442   -441.32531   -234.54064   -4794.5122 
  289000    254.15531   -6338.1627   -5684.3636   -6338.1627            0    5273.7304    23.437378    21.368019    21.780048    10907.673    5960.2352    4566.8937    5294.0621    259.22631   -165.75501    824.36268   -4845.4332 
  290000     244.6365   -6328.1936   -5698.8811   -6328.1936            0    4497.5571    23.279515    21.547738    21.747209    10908.855    5596.8113    3896.1433    3999.7169   -1083.7272    825.68743   -153.58312   -4983.3447 
  291000    254.50963   -6346.9051   -5692.1946   -6346.9051            0    5154.0772    23.250602    21.363503    21.885382    10870.783    5435.9866    5781.2435    4245.0016   -1149.5377    -145.2183    524.74733   -4875.0712 
  292000     245.9654   -6310.6552   -5677.9242   -6310.6552            0    5530.7773     23.34781    21.412896     21.77403    10885.801    5652.8836    6265.6531    4673.7952  -0.77743039    67.597168   -910.50731   -4799.8677 
  293000    254.56566   -6319.5155   -5664.6608   -6319.5155            0    5670.8442      23.2229    21.635963    21.694853    10900.575     5546.513    5659.7634    5806.2562   -854.40684    688.29201   -1090.7411   -4763.1457 
  294000    253.51018   -6323.3115    -5671.172   -6323.3115            0     6204.204     23.36562     21.37133    21.793697    10882.779    5270.8596     7029.248    6312.5043    442.95376    217.25077   -1138.5282   -4686.4769 
  295000    236.30014   -6358.0558    -5750.188   -6358.0558            0    5235.3008    23.212499    21.474611    21.846077    10889.819    6220.5498    4170.0209    5315.3317   -185.52864    615.77717   -80.901868   -4918.7341 
  296000    257.68686     -6334.19   -5671.3063     -6334.19            0    5385.3115    23.362682    21.311895    21.900542    10904.346    5896.3754    5051.8221    5207.7368   -216.35267   -344.21346    1176.2013   -4814.8871 
  297000    246.89874   -6338.9553   -5703.8234   -6338.9553            0    6600.4058    23.330537    21.418496    21.703862    10845.528    7820.9583    5356.8965    6623.3626   -1823.2908    1044.3935    737.01752   -4659.8312 
  298000    259.39373     -6326.31   -5659.0354     -6326.31            0    5743.8917    23.227709    21.546806    21.784387    10902.714    6389.6231     5585.014    5257.0379   -640.62487    573.33932    155.21466   -4745.7285 
  299000    253.78643   -6314.9445   -5662.0944   -6314.9445            0    3841.5595    23.570326    21.303957    21.854895    10974.243    2781.4235    4452.7542    4290.5006   -839.84377    5.0170317    366.81769   -5047.2601 
  300000    253.90466   -6328.3268   -5675.1725   -6328.3268            0    5719.6567    23.238344    21.566663      21.7527    10901.878    7230.6777    4699.5724    5228.7199   -1551.8172    1300.6246   -513.43622   -4765.7889 
  301000    250.76008   -6292.3998   -5647.3348   -6292.3998            0    5406.3134    23.463911    21.426363    21.724554    10921.938     4436.344    5042.6204    6739.9759    440.23835    2096.8077   -141.27637   -4786.1887 
  302000    241.41685    -6329.031   -5708.0008    -6329.031            0    5789.5149    23.399433    21.458399      21.6924    10892.065    5052.7897    5787.0858    6528.6693   -784.31614    1155.3432   -364.99377   -4788.3387 
  303000     245.0484   -6330.3172   -5699.9452   -6330.3172            0    5265.4659    23.308565    21.534396    21.740076    10912.124    5662.0546    5014.7645    5119.5787   -1207.7852   -442.52533   -551.74075   -4861.9877 
  304000    252.24715   -6319.2755   -5670.3851   -6319.2755            0    4972.7578    23.477932    21.332143    21.922841    10979.717      5406.65    6182.6717    3328.9515    -699.7106    499.93344   -616.67175   -4874.1077 
  305000    252.85804   -6314.3584   -5663.8965   -6314.3584            0    5631.7337    23.291373    21.540279    21.622513    10848.073    5275.8896    5659.2284    5960.0832    151.75265   -351.55917    187.18151   -4772.9111 
  306000    254.70504   -6293.3813   -5638.1681   -6293.3813            0    5540.5015    23.441126    21.436478    21.645858     10876.94    5872.4101    5828.4853    4920.6091    229.45378   -610.93256   -202.61062   -4759.2838 
  307000    250.45084   -6326.0778   -5681.8083   -6326.0778            0    6696.8783    23.210753    21.573913    21.636447    10834.381     6567.788    5427.0258    8095.8212     451.7146   -681.87891    654.97892   -4623.6457 
  308000    243.58666   -6311.7152   -5685.1034   -6311.7152            0    5772.6247    23.387807    21.388634    21.813707    10911.942    6366.9695    6079.8657     4871.039   -917.75758   -785.01163   -1582.6654   -4766.4509 
  309000     245.7126   -6302.6684   -5670.5877   -6302.6684            0    6379.5542    23.265669    21.505093    21.706253    10860.298    6883.5065    6045.4921     6209.664    215.35406   -3.5549886   -1277.3847   -4660.1537 
  310000    243.46007   -6338.3703   -5712.0841   -6338.3703            0    6274.6463    23.384299    21.336182    21.736315    10844.936    4920.0903    7131.4885      6772.36   -101.34806    1132.4883    852.35197   -4719.6719 
  311000    261.94678   -6352.9357   -5679.0935   -6352.9357            0    4395.5503    23.190289    21.529597    21.892003    10930.186    4520.3106    4202.5904    4463.7498    720.01432    486.94684    519.22621   -4978.4184 
  312000    260.08884   -6327.2456   -5658.1829   -6327.2456            0    4450.6821     23.36605    21.488386    21.854139    10972.935    3776.0166    5199.4279    4376.6017    214.53693    1113.2251   -1029.0157   -4945.9447 
  313000    251.30153   -6282.1933   -5635.7354   -6282.1933            0    5472.2783    23.614183    21.429639    21.663165    10962.502     5268.352    4338.6535    6809.8295   -772.62828   -849.28929    -826.4101   -4760.8448 
  314000    244.25006   -6318.6881   -5690.3697   -6318.6881            0    4413.9017    23.277105    21.577557    21.803264    10950.974    5343.9398    3570.5391    4327.2261    1121.3156   -128.01504      600.062   -4985.4311 
  315000    249.02184   -6377.0651   -5736.4716   -6377.0651            0    2968.9895    23.410159    21.367644    21.937612    10973.631    3298.1011    3091.0653     2517.802    678.31583    171.01296    569.17065    -5261.317 
  316000    260.31026   -6321.7865   -5652.1542   -6321.7865            0    4142.5732    23.441305    21.609368    21.738138    11011.492    3941.0722    4856.7148    3629.9324   -43.992839    112.76196   -647.32213   -4986.8929 
  317000    238.81626   -6344.9796   -5730.6393   -6344.9796            0    5099.5477    23.415777    21.509844    21.696144    10927.691    5949.2866    3849.9507    5499.4057   -352.08311   -1182.0314    300.36502   -4917.9287 
  318000    248.82191   -6345.8641   -5705.7849   -6345.8641            0    4798.8325     23.36718    21.599848    21.619025    10911.717    5231.7511    5050.6314    4114.1149    299.87844   -614.21477   -456.99979   -4942.1169 
  319000    242.52436   -6355.2001    -5731.321   -6355.2001            0    4567.0754    23.400874    21.461048    21.697062    10896.423    4579.7049    4705.7939    4415.7275    305.26356   -136.48655    76.646217   -5005.5527 
  320000    256.10753    -6349.115   -5690.2939    -6349.115            0    5983.0754    23.393224    21.325613    21.812426    10881.671    5377.8554    6438.7708    6132.5999    1378.5601    1056.0528    1572.7282   -4740.7918 
  321000     255.8373   -6332.8688   -5674.7429   -6332.8688            0    4889.5265    23.342748     21.50863    21.742166    10916.101    6023.8845     4727.509    3917.1859   -1614.1747     462.9886    -760.7834   -4896.3296 
  322000    259.57777    -6290.488     -5622.74    -6290.488            0    3929.9648    23.572345    21.357045    21.893265     11021.85    2623.8907    6640.2543    2525.7494   -552.37373    577.63787    -813.2059   -4991.0281 
  323000    241.62771    -6331.171   -5709.5984    -6331.171            0    4782.8104    23.213847    21.609553    21.827397    10949.514    4333.9472     5262.316    4752.1681    279.10107    988.13802   -317.76159   -4945.8437 
  324000    258.00353   -6352.9681   -5689.2697   -6352.9681            0    5482.1522    23.384191    21.387483    21.782296    10893.958     4987.783    6406.1337    5052.5399    409.49264    29.278486    471.54186   -4818.2807 
  325000    248.46901   -6314.9114   -5675.7401   -6314.9114            0      6333.82     23.27045    21.458731    21.643326    10807.688    6328.6089    6171.1742     6501.677   -630.19361    1584.0848   -898.13876   -4677.4094 
  326000    259.54309   -6345.9391   -5678.2804   -6345.9391            0    7028.5565    23.350143     21.45546     21.62255    10832.639    6233.6744    7439.3673    7412.6276   -67.736097    899.22846   -660.72661   -4567.8884 
  327000    249.82561    -6338.573   -5695.9118    -6338.573            0    6597.4489    23.256096    21.404754    21.807354    10855.505    8334.8935    6155.3528    5302.1006   -730.56275   -1161.4217   -473.52779   -4651.4274 
  328000    250.45495   -6278.4489   -5634.1688   -6278.4489            0    4991.0311    23.284964    21.591821    21.781898    10951.171    4996.3519    4506.6028    5470.1387    -1335.832    693.57365    1601.7747   -4837.0432 
  329000    241.25317   -6327.2929   -5706.6838   -6327.2929            0    5060.2387    23.427335    21.440709    21.719158    10909.504    3720.4812    5831.1054    5629.1295    747.41551    152.08554    532.71066   -4901.5799 
  330000    262.77867   -6322.3608   -5646.3786   -6322.3608            0    4863.4712    23.308759    21.543262    21.748179    10920.776    3977.0863    6014.7592     4598.568    420.46355    1042.2889    -263.9248   -4871.7818 
  331000    248.18794   -6342.2788   -5703.8304   -6342.2788            0    4223.3603    23.434712    21.390949    21.902181     10979.36    4415.8898    4148.3304    4105.8609      995.966    708.30733   -308.21337   -5027.5745 
  332000    253.23191   -6351.1437     -5699.72   -6351.1437            0    3864.6751    23.443998    21.463909     21.83971    10989.738    4083.4129    2424.5677    5086.0448   -781.51502    48.853214    304.57361   -5080.3128 
  333000    247.91591    -6327.637   -5689.8884    -6327.637            0    4455.0009    23.260044    21.598392    21.798022     10950.88    6221.3575    4065.7526    3077.8926   -851.29983    128.80364    977.36877    -4978.392 
  334000     256.3381   -6288.7172   -5629.3031   -6288.7172            0    5343.4444    23.396986    21.466151    21.853804    10975.925    5011.1487    5195.6572    5823.5271    38.287589   -315.04656    150.72268    -4773.964 
  335000    248.23035    -6334.283   -5695.7255    -6334.283            0     5184.561    23.367551    21.503097     21.71287    10910.168    4632.9713    6493.9508    4426.7609    225.74621   -1065.0343    610.80936   -4870.7913 
  336000    244.99821   -6331.2059   -5700.9629   -6331.2059            0      5440.81    23.503719    21.507106     21.60649    10922.015    3814.4025     5870.243    6637.7844    141.37712    225.94649    623.32256   -4834.3159 
  337000    241.72318   -6332.2403   -5710.4221   -6332.2403            0    5827.1671    23.438559    21.368865    21.726888    10882.029    4952.1454    6253.9052    6275.4507     250.0836   -81.520274   -386.83697   -4785.6319 
  338000    245.87108   -6308.0288   -5675.5404   -6308.0288            0    5283.8268    23.291407    21.513317    21.788592    10917.728    4845.7911    5331.2975    5674.3918    84.430728    1156.6591     1291.949   -4834.2291 
  339000    242.86778   -6355.5794   -5730.8169   -6355.5794            0     6404.877     23.37443    21.304255    21.738982    10825.466    6466.9368    6157.8445    6589.8497   -709.99214   -545.66048   -843.88684   -4719.6257 
  340000    248.04819   -6326.8321   -5688.7432   -6326.8321            0    7477.5839    23.375967    21.473501    21.582027    10833.397    7215.8173    7846.9866    7369.9478    411.74879    -860.6994   -1821.9401   -4507.3299 
  341000    238.49398   -6320.8492   -5707.3379   -6320.8492            0    6234.6442    23.364318     21.41905    21.707282    10863.224    7199.8828    6428.3768     5075.673   -1325.2935   -642.29618   -760.34437   -4719.5896 
  342000    252.06166    -6322.332   -5673.9188    -6322.332            0    6932.4113    23.297641    21.315214    21.782074    10816.852    6596.5224    7576.6818    6624.0297   -73.749909   -1.4069475    97.181745   -4580.3122 
  343000    246.96858   -6319.7616     -5684.45   -6319.7616            0    4635.2751    23.359742    21.590519    21.636057    10912.123    4713.2483    4004.1589    5188.4181    500.02056   -563.25421    580.47024   -4946.7825 
  344000    264.77168   -6356.8627   -5675.7537   -6356.8627            0    5188.8396    23.483706    21.456323    21.620827    10894.173    4833.4195    4809.3806    5923.7188   -173.43318    551.66392    76.923531   -4851.3491 
  345000    247.88541   -6370.4732   -5732.8031   -6370.4732            0    4932.6615    23.318003     21.46493    21.854574    10938.636    4516.0297    5878.7256    4403.2293     1495.381   -577.14005     -185.827   -4945.9016 
  346000    261.65681   -6329.4649   -5656.3688   -6329.4649            0    3810.2702    23.326167    21.576309    21.810331    10976.978    5108.3286    3473.9014    2848.5807    827.33952   -1272.9168   -456.73195   -5046.3904 
  347000     248.0138   -6325.3465   -5687.3461   -6325.3465            0    4779.4034    23.486501    21.485385    21.682105    10941.148    5106.2735    4687.3701    4544.5668   -6.0272967   -431.28938    829.11361   -4924.7185 
  348000     241.8118    -6353.578   -5731.5318    -6353.578            0    4503.5205    23.263179    21.704327    21.725626    10969.522    4323.5458    3136.4959    6050.5198   -463.82094   -313.03782    806.54199   -5011.0621 
  349000    254.07113   -6334.2779   -5680.6954   -6334.2779            0    4317.0261    23.504733    21.518106     21.64996    10950.059    2950.1423    4693.9862    5306.9498    1185.9743    949.11865    618.20496   -4991.2863 
  350000    256.27618   -6370.4936   -5711.2388   -6370.4936            0    4734.8956    23.353003    21.450328    21.794614    10917.567    4869.8471    5627.3417    3707.4981   -23.887661    1247.7404   -524.74236   -4957.3415 
  351000    248.75906   -6351.3945   -5711.4769   -6351.3945            0    6485.5944    23.406884    21.255348    21.736095    10814.174    5911.7497    7152.2688    6392.7649    1092.1838    853.60481   -308.73315   -4688.6103 
  352000    251.55845   -6330.1564   -5683.0376   -6330.1564            0    5278.4154    23.273454     21.52406    21.777236    10909.071    6178.9231    6495.1062    3161.2169   -898.59583   -481.32065   -767.32346   -4843.2543 
  353000    251.80225   -6303.6259     -5655.88   -6303.6259            0    5179.9937    23.362205    21.526232    21.725692    10925.856    5272.0252    4893.6698     5374.286    522.28232    -908.9663    318.62764   -4830.4874 
  354000    261.40826   -6352.9794   -5680.5225   -6352.9794            0    4184.9263    23.478946    21.421635    21.781969    10955.403    3362.6997    3422.8112    5769.2678   -378.56536    375.60192    580.54671    -5011.883 
  355000    251.65098   -6315.7739   -5668.4171   -6315.7739            0    4153.3191    23.339099    21.675263    21.658146    10956.447    4701.0724    2756.0634    5002.8216    1011.6274   -442.54332    1658.6806   -5004.7643 
  356000     258.9868   -6371.5156   -5705.2878   -6371.5156            0    5063.2296    23.399166     21.40066    21.763363    10898.169    4498.5447    5540.5794    5150.5646    764.13649    360.57806   -270.10193   -4900.5451 
  357000    248.14566   -6337.6463   -5699.3067   -6337.6463            0    4989.1031    23.355711    21.414346    21.911426     10958.94    4414.3085    6992.6805    3560.3202    1099.1471    500.75768   -1350.9649   -4901.9238 
  358000    254.39493   -6343.3759   -5688.9605   -6343.3759            0    5221.4999    23.373272    21.621389    21.571747    10901.554    5093.4733    4608.2091    5962.8173   -45.716583   -425.86583   -677.85041   -4858.8047 
  359000    241.87921   -6323.8864   -5701.6668   -6323.8864            0    4000.8795    23.382593    21.422766    21.837515    10938.844    3613.1396    5421.0094    2968.4897    499.80556    -1596.069    420.44769   -5063.3992 
  360000    250.29271   -6348.4909   -5704.6281   -6348.4909            0    4330.4722    23.366424    21.533669    21.719835    10928.657      4543.68    3949.2843    4498.4523   -160.96209   -126.81366   -574.65323   -5014.4234 
  361000    240.21521   -6294.5746   -5676.6356   -6294.5746            0    4541.7204    23.517469    21.522577    21.684241    10975.621    4073.7249    4957.3882    4594.0482    -172.7736    101.65264   -451.19157   -4949.6507 
  362000     250.7214   -6330.4479   -5685.4823   -6330.4479            0    5022.9068    23.498762    21.566016    21.623674     10958.33    5029.2186    5111.7632    4927.7387    455.85405   -448.42541    129.75544   -4882.7414 
  363000    247.22401    -6317.573   -5681.6043    -6317.573            0    5386.3827    23.496977    21.473513    21.659637    10928.644     4663.359    6005.7073    5490.0818    458.41183    1399.8049   -371.51063   -4823.1061 
  364000    252.56103   -6319.7444   -5670.0466   -6319.7444            0    5999.2158    23.204734    21.478768    21.833184    10881.857    7427.0561    5357.4459    5213.1456    182.27279   -24.682113    700.61463   -4717.9667 
  365000    245.66866    -6307.304   -5675.3364    -6307.304            0    4647.7017    23.291114     21.49668    21.855238    10942.516    4202.5437    4811.8205    4928.7409   -178.11196   -440.54744   -59.417078   -4933.6311 
  366000    245.83224   -6360.8999   -5728.5114   -6360.8999            0    5710.8062    23.292198    21.425749    21.785056    10871.893    6448.8127    5440.1736    5243.4323   -887.14353    -666.5007    278.17145   -4823.0323 
  367000    236.08526   -6357.6123   -5750.2974   -6357.6123            0    5652.0861    23.409355    21.592989    21.489645    10862.542    5347.2267     5241.236    6367.7956   -866.29932   -243.16992    367.12285   -4854.8994 
  368000    239.31141   -6330.2507   -5714.6367   -6330.2507            0     6039.982    23.495134    21.367516    21.669395    10878.744    4891.3386    6242.1688    6986.4385   -957.59356    1173.5086    -85.89592   -4756.3614 
  369000    252.39129   -6339.7769   -5690.5156   -6339.7769            0    4991.3198     23.27393     21.37078     21.88917    10887.279    6502.9518    4803.9485    3667.0591   -645.84431    548.90928   -515.18328   -4897.9949 
  370000    249.99617    -6331.528   -5688.4281    -6331.528            0    5157.8135     23.36573    21.499632     21.73933    10920.852    5349.2683    4831.9856    5292.1865    1123.6388   -276.74577    956.45534   -4866.9461 
  371000    246.66608   -6322.3853   -5687.8518   -6322.3853            0    4727.5107    23.622566    21.292581    21.745721    10937.781    3456.9792       5752.7    4972.8528   -1115.5451    669.34651   -175.99031   -4933.7368 
  372000     252.4869   -6285.5967   -5636.0895   -6285.5967            0    5801.0208     23.10648     21.61532     21.87232    10924.217    7090.2188    4728.1728    5584.6709    244.18654   -480.90338     937.1476   -4711.8796 
  373000    243.47212   -6328.5501    -5702.233   -6328.5501            0    3677.8914    23.547578    21.466118     21.74105    10989.559    2860.2669    3953.7389    4219.6683   -2203.0958    128.77804   -467.25297    -5112.772 
  374000    245.28282   -6305.8728   -5674.8976   -6305.8728            0    4156.1367    23.292002    21.561812    21.794403    10945.536    4242.7614    4710.9613    3514.6874   -1913.0801    349.48084   -103.64615   -5011.4559 
  375000     257.3536   -6315.8991   -5653.8726   -6315.8991            0    5589.8351    23.281742    21.475664    21.787077    10893.339    4725.1406    6193.3417    5851.0232   -352.17073    123.34625    895.04469   -4765.8257 
  376000     257.1856   -6345.3169   -5683.7226   -6345.3169            0     6023.494    23.326573    21.387996     21.73929     10845.92    6893.7476    5356.5993     5820.135   -517.69763    356.74154    -576.6423   -4730.9467 
  377000    261.03925   -6363.0587   -5691.5511   -6363.0587            0    5797.2991    23.396295    21.425044    21.677093    10866.004    4722.8369    5610.8656    7058.1946   -710.00204    1523.4923    305.91065   -4772.8559 
  378000    247.14502   -6319.9205    -5684.155   -6319.9205            0    6328.8644    23.238436    21.498414    21.746292     10864.22    6998.2519    6255.2373     5733.104    277.10412    496.31088   -363.90733   -4681.3875 
  379000    261.07442   -6313.5552   -5641.9572   -6313.5552            0    6286.9377    23.259731    21.416905     21.81717    10868.255    6440.4737    7723.1754     4697.164    138.04395    -106.4195   -715.80317   -4645.4627 
  380000    244.78974   -6367.2394   -5737.5327   -6367.2394            0    5257.2094    23.375149     21.34776    21.889484    10923.007    5709.9168    5642.3564    4419.3548   -2331.6881    910.49604   -1084.2559   -4900.0547 
  381000    242.44384   -6347.3263   -5723.6543   -6347.3263            0    5245.3674    23.379154    21.689242    21.489426    10896.775    5522.5915    3882.5371    6330.9737    275.09974   -833.24299    51.575831   -4890.0694 
  382000    247.64453   -6291.3702   -5654.3198   -6291.3702            0     5068.783    23.359767     21.41671    21.897951    10955.311     5424.212    4147.5483    5634.5888    825.01106   -213.26774    894.71848   -4844.4703 
  383000    255.96195   -6335.8272   -5677.3806   -6335.8272            0    4238.3324    23.299732     21.49565    21.864089    10950.474    4784.8094    4501.0041    3429.1837   -316.83522   -555.51202    220.73388   -5000.5129 
  384000    242.89531   -6355.4715   -5730.6381   -6355.4715            0    5152.1811    23.333414    21.643828    21.607939    10912.536    6190.0096    4180.8552    5085.6786   -933.03628    438.22304   -319.94293    -4910.678 
  385000    236.51553   -6326.6646   -5718.2428   -6326.6646            0    6135.2489    23.661082    21.332401    21.483064    10843.527    4972.4549     5425.583    8007.7087   -601.65249   -746.95561    136.55748    -4748.004 
  386000      258.066   -6323.2101    -5659.351   -6323.2101            0    5981.0133    23.094939    21.714076      21.6699    10867.136    7309.5831    4779.0387    5854.4182   -454.18309    698.01792    120.23632    -4711.444 
  387000    249.30139   -6332.9047   -5691.5921   -6332.9047            0    5179.3526    23.475807     21.29565    21.779929    10888.496    5687.3849    6072.4731    3778.1998    1029.3717   -844.18016   -575.28716   -4869.1236 
  388000    239.03006   -6327.7895   -5712.8992   -6327.7895            0    5911.7371    23.200745    21.495806    21.791127    10867.642    5375.3283    7068.8695    5291.0134    750.65879    837.29333   -225.62805   -4775.9278 
  389000    243.55876   -6329.5289   -5702.9888   -6329.5289            0     6719.789    23.465942    21.527483    21.435366    10828.346    5864.6179    7214.3017    7080.4474    617.42908    319.40049   -282.55482   -4641.7976 
  390000    254.85036   -6342.6617   -5687.0747   -6342.6617            0    4780.5858    23.597216    21.413616     21.63909    10934.269    4254.8542    5151.2619    4935.6413    480.83667   -1039.8172   -305.77807   -4924.7381 
  391000    238.15037   -6319.4927   -5706.8654   -6319.4927            0    5014.8627    23.147239    21.567843    21.942468     10954.47    5190.4903    4843.7967     5010.301    506.99848   -558.29859    358.14817   -4905.6924 
  392000     253.5374   -6333.7755   -5681.5659   -6333.7755            0    5578.9859    23.436522    21.325732    21.775809    10883.571    6214.9175    6127.6786    4394.3615   -517.61331    675.70476    329.30069   -4796.0374 
  393000    249.09083   -6322.3794   -5681.6084   -6322.3794            0    5927.6633    23.467404    21.509356    21.560936    10883.287    5335.4211    5754.1102    6693.4588   -72.132569    936.25666    276.07277   -4740.7603 
  394000    254.85148   -6346.5977   -5691.0078   -6346.5977            0    5274.5248    23.294355    21.573421    21.699183    10904.684    6223.0866    4680.1641    4920.3236   -365.76529    266.47063   -556.17766   -4852.1809 
  395000    246.78807   -6287.1362   -5652.2889   -6287.1362            0    5822.2486    23.409829    21.375515    21.831065    10924.203     5537.285    5911.6603    6017.8005   -381.12257    382.82785    -1373.871   -4724.6982 
  396000     245.5994   -6328.8462   -5697.0567   -6328.8462            0    6372.0379     23.40623    21.596289    21.475536    10855.619    5982.0723    5382.3571    7751.6842   -820.04364   -434.65681   -1257.6747   -4688.2479 
  397000    243.73255   -6331.6702   -5704.6831   -6331.6702            0    6611.6949    23.228362    21.456805    21.717698     10824.24    7651.7108     5748.692    6434.6819   -357.60313     337.7561     726.8086    -4660.958 
  398000    247.27806    -6344.658   -5708.5502    -6344.658            0    6473.5938    23.263289    21.409476    21.789631    10852.431    7128.1103    7251.8341    5040.8371    15.315372   -577.56725   -769.31031   -4683.9643 
  399000    258.72594   -6316.0426   -5650.4859   -6316.0426            0    5496.8846    23.480352    21.437786    21.705188     10925.67    4448.7892    5900.4772    6141.3874    39.516143   -646.43492   -1025.5181    -4774.614 
  400000    244.64811   -6324.5969   -5695.2545   -6324.5969            0    6681.9492    23.363973    21.583381    21.502679    10843.232    6855.8225    6308.2526    6881.7725    633.58272   -14.342171   -1310.3076   -4638.5883 
  401000    253.24138   -6297.7737   -5646.3257   -6297.7737            0    6424.6109    23.293325    21.395778    21.821244    10875.246    6892.8606    6141.7431     6239.229    702.68561    857.32523    105.37578   -4627.3547 
  402000    244.39509   -6340.6577   -5711.9662   -6340.6577            0    6229.5176    23.462884    21.306644    21.716661    10856.492    5643.4351    6954.7841    6090.3335    1378.9201   -573.67811   -514.73957   -4725.6417 
  403000    243.98436   -6278.8936   -5651.2587   -6278.8936            0    6915.7194    23.305926    21.661381    21.566357    10887.528    6408.3781    7469.0294    6869.7507    1828.5644    1399.4862   -818.60945    -4553.157 
  404000     251.3223   -6326.5125   -5680.0013   -6326.5125            0    5789.3296    23.354046    21.332792     21.79714    10859.488    5612.3323    7498.7182    4256.9383    219.57453   -591.30472   -139.14407   -4763.1191 
  405000     242.1041   -6333.0848   -5710.2867   -6333.0848            0    6785.5994    23.081096    21.583648    21.765363    10842.944    7855.6944    6670.6719    5830.4317   -115.04017    37.086222    174.05914   -4637.2581 
  406000    244.48115   -6364.5614   -5735.6486   -6364.5614            0    6127.2979    23.572842    21.400385    21.498033    10845.068    4824.5691    5772.3335     7784.991   -610.43667    181.89521    -410.8508   -4766.5295 
  407000     234.8842   -6313.6295   -5709.4042   -6313.6295            0    4749.4542    23.371028    21.541516    21.717447    10933.592    3919.3951     3993.143    6335.8245   -570.37442    314.57029    215.83804   -4952.0789 
  408000    255.33635   -6364.4084   -5707.5712   -6364.4084            0    5342.3908      23.1732    21.560181    21.809199    10896.277    5755.8821      5622.54    4648.7503    34.018939    593.00207     1155.084   -4858.6064 
  409000    251.01828   -6335.0121   -5689.2828   -6335.0121            0    4417.7425    23.480216    21.348411    21.867761     10961.55     3510.354     4294.074    5448.7995    -148.1292   -653.61276    660.03503   -4983.0494 
  410000    241.78777   -6316.8396   -5694.8553   -6316.8396            0    5563.2639    23.272488    21.595881    21.765376    10939.058    6938.8284    5115.9562     4635.007   -176.47097   -733.11273   -849.07975   -4807.3204 
  411000    236.00769   -6331.6031   -5724.4877   -6331.6031            0    5522.2341    23.337466    21.570129    21.693488    10920.332    5568.8269    5926.9501    5070.9254    569.92818   -176.67392   -1284.2896   -4845.0066 
  412000    247.55563    -6324.804   -5687.9823    -6324.804            0    3787.7551    23.578361    21.409684    21.752191    10980.621    3311.5573    4212.7305    3838.9775    1126.9216   -62.909038   -184.10445   -5081.4071 
  413000    253.04519   -6341.2516   -5690.3083   -6341.2516            0    4713.8158    23.259663    21.511861    21.901829     10958.77    5252.4199    4487.9252    4401.1023    524.23937    109.47846    1000.7073   -4936.9349 
  414000    244.70246   -6345.3812    -5715.899   -6345.3812            0    4768.6181    23.390257    21.435685    21.805432    10932.942    3837.5171    5267.3451    5200.9921     1442.868   -132.99587    198.66122   -4955.5631 
  415000    247.27998   -6323.8021   -5687.6895   -6323.8021            0    5059.0956    23.480588    21.531416    21.618859    10929.853    4769.9258    5082.2658    5325.0953    186.08094   -755.90783   -1554.8117   -4881.2661 
  416000    260.89396    -6329.562   -5658.4282    -6329.562            0    4710.8474    23.414091    21.632225    21.562857    10921.563    4506.4198    4893.8973     4732.225    823.29988    301.99796   -1160.7705   -4908.0854 
  417000    248.45522   -6341.3588   -5702.2229   -6341.3588            0     3560.889     23.41678    21.315793    21.991283    10976.888    3414.4105    4300.9757    2967.2807    916.44522    658.25658    147.81891   -5132.1721 
  418000    252.50966   -6298.7041   -5649.1384   -6298.7041            0     5023.274    23.393309    21.584049    21.666196    10939.746    3860.0317    4815.1962    6394.5941    186.04323      289.613    562.37782   -4847.7003 
  419000    260.70083   -6305.2316   -5634.5946   -6305.2316            0    5629.3563    23.417413    21.439627    21.798998    10944.418    5645.2101    5943.2708     5299.588   -245.13549    1268.3097    370.39935   -4736.0755 
  420000    248.39576   -6324.6073   -5685.6243   -6324.6073            0    5872.4065    23.208739    21.639856    21.667086    10881.942    6598.2101    5496.6191    5522.3904   -1256.7999   -535.70538   -517.84882   -4753.6619 
  421000     245.8179   -6323.3904   -5691.0389   -6323.3904            0    6839.3417    23.251106     21.38246    21.842568    10859.379    7243.7244    6667.4324    6606.8682    760.32588   -907.18886    873.69738   -4607.8724 
  422000    254.12441   -6331.9614   -5678.2418   -6331.9614            0    6647.2347    23.446951    21.347307    21.651833    10837.376    6204.6952    6469.9549    7267.0539   -1487.9404   -25.831838    839.73147    -4627.633 
  423000    238.15254   -6308.1206   -5695.4877   -6308.1206            0     6750.889    23.105575    21.657251    21.650684    10834.072    7526.3316    5338.1247    7388.2106   -83.789846    1366.7154    1443.1135   -4628.8214 
  424000    244.57729   -6334.2609   -5705.1007   -6334.2609            0     6384.474    23.636468    21.172752    21.693722    10856.603    4694.2761    7383.0501    7076.0958   -772.29223    91.798392    297.94757   -4694.2315 
  425000    243.26553   -6306.6181   -5680.8323   -6306.6181            0    5628.6739    23.149112    21.618626    21.738587     10879.12    5763.5961    4724.1796    6398.2461    1961.6089   -12.903511    570.08562   -4787.7824 
  426000    241.54129   -6333.0907   -5711.7405   -6333.0907            0     6603.329    23.431488    21.259384    21.725902    10822.519    6622.2917     6703.066    6484.6294    548.88625   -816.50667   -1093.5306   -4669.5018 
  427000     254.8892   -6294.2941   -5638.6072   -6294.2941            0    7407.4192    23.252637     21.50428    21.649847    10825.599    7768.6197       8014.2    6439.4379    124.03107    311.74116    1087.0188   -4469.1219 
  428000    247.88016   -6309.3968   -5671.7402   -6309.3968            0    6396.8095    23.355733    21.535524    21.610903    10869.808    6470.7169    6589.6637    6130.0478   -42.429719    595.29402     785.9544    -4657.686 
  429000    247.41382   -6314.1429    -5677.686   -6314.1429            0    5204.4189    23.409259    21.357547    21.864031    10931.236    4574.7736     6515.962     4522.521   -408.73804    -573.8285    188.11162    -4847.993 
  430000    250.48901   -6321.5417    -5677.174   -6321.5417            0    3520.9369    23.334791    21.650873    21.750979    10988.999    5489.6373      2447.62    2625.5533   -1786.7835   -293.02267    -400.7128   -5112.8971 
  431000    251.64914   -6339.1073   -5691.7552   -6339.1073            0     3788.311    23.408847    21.469186    21.800761    10956.384    3008.6816    4480.5138    3875.7374    923.71945   -1754.0113     411.5466     -5086.43 
  432000    244.44053   -6295.7798   -5666.9714   -6295.7798            0    4285.9613    23.461006    21.463978    21.694254      10924.5    3684.6289    6344.5127    2828.7423    255.78791    852.06526   -964.58148   -4984.1208 
  433000    243.95179    -6343.947   -5716.3959    -6343.947            0    5022.8776    23.395257    21.434341    21.803955    10933.853     3535.597      7182.71    4350.3258    1259.4415    867.54525     -224.239   -4915.4527 
  434000    245.44055   -6339.9976   -5708.6167   -6339.9976            0    4128.3416    23.418355    21.575911    21.681116    10954.869    4183.9937    3549.3252     4651.706   -1113.7147    439.59478   -980.79071   -5049.0501 
  435000    247.24599   -6307.5868   -5671.5615   -6307.5868            0    4375.4238    23.417835    21.582513    21.731578    10983.481    3921.9103    5357.5081     3846.853    370.91978   -219.68954   -843.70786   -4970.6938 
  436000    247.93602   -6298.2124   -5660.4121   -6298.2124            0     4402.063    23.472976    21.507638    21.719565    10965.085     3603.826    3621.5153    5980.8479    1509.4808    529.42907    544.33502   -4956.4583 
  437000    235.18698   -6334.3648   -5729.3606   -6334.3648            0    4100.6941    23.384699    21.542671    21.751008    10957.481    5509.4289    3834.4668    2958.1864   -376.22535   -615.62272    307.48749   -5074.0549 
  438000    258.38582   -6328.1516   -5663.4698   -6328.1516            0     4859.061    23.373878    21.589146    21.674334    10937.347    4805.7649    5223.5238    4547.8945   -620.54578   -1378.8928   -982.08852   -4888.4011 
  439000    240.33553   -6348.2026   -5729.9541   -6348.2026            0     5179.399    23.500307    21.442422    21.624625    10896.724    3658.0341    6004.2127    5875.9502   -1225.3904    414.11461   -511.55483   -4906.8567 
  440000    258.90602   -6290.7936   -5624.7736   -6290.7936            0    5909.1835    23.271831    21.489963    21.812405    10908.619    7077.4006    6380.2753    4269.8747   -561.05538    344.59719   -55.411963   -4684.6756 
  441000    250.08185   -6301.6044   -5658.2841   -6301.6044            0    4972.0306    23.442374    21.406318    21.773651    10926.343    4434.5672    4880.1095     5601.415    1566.7177    232.97698    89.394357   -4865.9935 
  442000    246.32171   -6305.6354   -5671.9878   -6305.6354            0    5787.9868    23.479391    21.479227    21.636512    10911.708    5712.3512    5280.1863     6371.423    -333.5765    493.72529    86.749223   -4750.9104 
  443000     253.5431   -6350.0715   -5697.8473   -6350.0715            0    5654.0646    23.337775    21.611295    21.618793    10903.644    6300.4277    4742.6645    5919.1016    221.30687    317.11224    167.48964   -4798.7466 
  444000    246.80963     -6324.99   -5690.0873     -6324.99            0    5255.6638    23.398922    21.466046    21.748202    10923.738    5199.6379    5728.7196    4838.6337   -1603.0918    -825.1712    53.037761   -4852.7995 
  445000    248.16556   -6306.2458    -5667.855   -6306.2458            0    5642.0477    23.374136    21.539644    21.688538    10919.541    5765.0542    5907.3494    5253.7395    -532.4993   -1519.7288   -99.102863   -4769.3572 
  446000    254.88978   -6350.6085   -5694.9201   -6350.6085            0    5282.6181    23.324152    21.498551    21.761178    10911.826    5887.5851    4286.9015    5673.3676    -361.9571    1048.0845    938.03436    -4854.256 
  447000    252.64472   -6334.3433   -5684.4301   -6334.3433            0    4542.7176    23.493715    21.457166    21.775251     10977.09    4272.0355    4725.2077    4630.9097    487.00474   -210.70796    571.11838   -4957.1883 
  448000    248.47277   -6307.5956   -5668.4146   -6307.5956            0    4127.5623    23.357842    21.618179    21.719652    10967.425     4940.025    3115.8023    4326.8596    397.56876    1287.6673    578.62472   -5008.2166 
  449000    245.65034   -6289.8655    -5657.945   -6289.8655            0    5858.8422    23.549336    21.201711     21.85525    10912.025    5503.1188    7436.4118     4636.996    636.81202   -1181.4312   -668.68739   -4725.5648 
  450000     239.4266   -6312.1753   -5696.2649   -6312.1753            0    6184.2061     23.14724    21.545298    21.810301    10877.106    6657.7365    6031.1526    5863.7293   -465.23813    162.77301    583.43044   -4715.2554 
  451000    246.30839   -6310.4825   -5676.8692   -6310.4825            0    5466.7267    23.415945    21.496288     21.69148    10918.535    5059.8191     5481.936     5858.425   -1433.4392    595.99423    1128.7052   -4806.3715 
  452000    249.72599   -6323.0737   -5680.6688   -6323.0737            0     6554.957    23.294596    21.602678    21.564622    10851.871    7036.3345    5742.3313    6886.2051   -43.596586    -378.3073    327.95629   -4643.2589 
  453000    238.63468   -6355.0885   -5741.2153   -6355.0885            0    4860.6125    23.335307     21.47609    21.761884    10905.993    5314.2314    4104.3063    5163.2999   -918.90245    264.82546   -435.81407   -4968.1217 
  454000    243.58668   -6326.3149    -5699.703   -6326.3149            0    5898.1657    23.342025    21.405773    21.834995    10909.945    5796.0093    6978.0936    4920.3941    870.16791    888.88119    35.559677   -4761.2438 
  455000    251.34393   -6356.9453   -5710.3784   -6356.9453            0    5326.2932    23.373982    21.502591    21.665173    10888.941    5595.9698    4893.6008     5489.309    1499.6137   -447.22348    45.683018   -4864.5415 
  456000    241.58667   -6349.8562   -5728.3892   -6349.8562            0    4028.7221    23.481676    21.389125    21.750642    10924.314    3028.2451    4760.5081     4297.413    490.41483     372.6497    158.94629   -5086.5336 
  457000     247.9896   -6356.6956   -5718.7574   -6356.6956            0    4940.5095    23.444371    21.398325    21.747901    10910.275     4549.123    5009.1709    5263.2346    441.92387    636.77239   -1170.1032   -4932.6474 
  458000      245.482   -6319.2227   -5687.7352   -6319.2227            0    3954.2641    23.365837    21.669068    21.688775    10981.372    4882.3264    3700.8347    3279.6312    407.69011   -22.926052   -2024.1092   -5054.4517 
  459000    249.38672   -6318.3974   -5676.8652   -6318.3974            0     4274.079    23.486041    21.516551    21.707615    10969.696    3734.6253    4407.2528    4680.3589   -703.16161    -28.51998    163.90098   -4993.0905 
  460000    246.71078   -6325.6081   -5690.9596   -6325.6081            0    4258.8566     23.33291    21.727837    21.597928    10949.581    3672.3875    4018.5776    5085.6048   -1113.8926   -275.84237     78.34735   -5010.8696 
  461000    246.28467   -6309.7452   -5676.1929   -6309.7452            0    4626.6161     23.40457    21.474771    21.822468    10968.142    4185.2838     5385.242    4309.3225    494.06118   -1412.2313   -164.95103   -4936.1236 
  462000    238.78722   -6318.4075   -5704.1419   -6318.4075            0     5055.003    23.366041    21.467003    21.767044    10918.325    4968.3149    4969.8262    5226.8679   -73.214799    218.96764    -275.2167   -4899.2208 
  463000    261.84558   -6371.8743   -5698.2925   -6371.8743            0    5036.8367    23.491883    21.518432    21.541025    10889.171    4214.0093    5186.7491    5709.7516   -883.19741     1201.331   -781.14716   -4898.4056 
  464000    254.77242     -6336.87   -5681.4835     -6336.87            0    6652.1989    23.200233    21.438546    21.826914    10856.254    7214.3232    6796.2281    5946.0455    654.71744    664.10819   -798.69271   -4628.2586 
  465000    236.88888   -6330.9593   -5721.5771   -6330.9593            0    7239.0479    23.338279    21.295331    21.744903    10807.138    8925.4276    6248.6548    6543.0613    1319.2206   -1067.7429    148.01189   -4580.6233 
  466000    254.60421   -6345.0112   -5690.0574   -6345.0112            0    5378.7855     23.46247    21.636113    21.424693     10875.96    5081.3421     5770.274    5284.7404   -543.74631    160.15058    812.90741   -4836.9028 
  467000    246.75344   -6324.6575   -5689.8993   -6324.6575            0    6393.0423    23.270938     21.44653     21.74246    10851.246    7041.9739    5579.4779    6557.6752   -543.94274    625.38376    1104.5029    -4678.173 
  468000    248.73611    -6299.004   -5659.1455    -6299.004            0    5947.3907    23.217692    21.403453    21.936246    10900.971    6396.6485    6615.5946     4829.929   -1098.0218    669.84953    522.02332   -4713.6324 
  469000    250.40221   -6333.9154    -5689.771   -6333.9154            0    5747.6549    23.330502    21.476672    21.704293    10875.187    6587.4703    5737.6652    4917.8291   -2015.3594    117.56195    117.57944   -4778.1732 
  470000    246.87836   -6367.9294   -5732.8499   -6367.9294            0    3737.2275    23.661641    21.479774    21.526754    10940.901    2045.4217    2926.9923    6239.2684   -380.14886    1483.1295    34.485596   -5136.5311 
  471000    246.64595   -6335.5805   -5701.0988   -6335.5805            0    4619.1949    23.322146    21.523102    21.752018     10918.75    4805.3024    3999.3348    5052.9475   -91.538952    191.51765   -51.465838   -4965.5439 
  472000     246.3889   -6336.1997   -5702.3792   -6336.1997            0    5395.8698    23.279643    21.402443    21.848314    10885.731    6017.6468    5088.6485     5081.314   -49.530609   -862.97162   -474.06104   -4845.7459 
  473000    237.51814    -6315.984   -5704.9831    -6315.984            0    5052.4874    23.396752    21.379771    21.766079    10887.767    5856.9989    4989.5778    4310.8854    805.45557   -835.34817   -927.73761   -4902.7142 
  474000    261.63853   -6328.0554   -5655.0062   -6328.0554            0    6244.0036    23.337123    21.562235    21.626644    10882.539    6990.2679    4118.8652    7622.8776    520.36593   -597.23389    313.74436   -4664.0163 
  475000    248.54247   -6342.9878   -5703.6274   -6342.9878            0    5434.1918    23.561343    21.292914    21.715441    10894.412    5204.7235    6641.6252    4456.2266    534.89408    -1613.943   -1190.1818   -4840.2222 
  476000    241.21693   -6305.8615   -5685.3456   -6305.8615            0     5323.297    23.087833    21.656363     21.79855    10899.242     5846.519    5154.7447    4968.6274    1019.4166    873.07363    717.65473   -4839.1848 
  477000    252.68356   -6285.6538   -5635.6407   -6285.6538            0    6433.1326     23.53633    21.367372    21.704828    10915.565    4991.3773    6972.2876    7335.7327   -1638.8613    216.97614   -685.97175   -4611.5354 
  478000    256.82394   -6303.7238   -5643.0599   -6303.7238            0    5374.6317    23.338356    21.656923    21.665002    10950.294    5673.7345    5500.3046    4949.8562    890.84452   -1526.8076   -5.1085349   -4784.7376 
  479000    253.98954   -6333.4102   -5680.0376   -6333.4102            0    4903.5154    23.537336    21.397789    21.714291    10936.337    3547.1648    4376.5515    6786.8299     870.6137   -798.98789    806.38111   -4897.9502 
  480000     263.2539   -6329.1593   -5651.9547   -6329.1593            0    3957.1257    23.259987     21.61733    21.819912    10971.463     5053.245    2589.6868    4228.4453   -226.58896    624.93581    860.38477   -5018.7848 
  481000     256.2458   -6318.5663   -5659.3896   -6318.5663            0     5042.022    23.385826    21.567081    21.640267    10914.571    5082.3829    3838.8249    6204.8583    588.73455    395.10281   -487.57206   -4856.8115 
  482000    257.14487   -6332.4599   -5670.9703   -6332.4599            0    6930.3462    23.381114    21.323128    21.770581    10853.908     6062.925    7117.9366    7610.1771    85.471511    492.24724    558.62062   -4573.9442 
  483000    239.97138   -6311.5323   -5694.2206   -6311.5323            0    7992.4336    23.113763     21.54211    21.675458    10792.627    7960.7124    6896.8358    9119.7526    269.79859    584.45195    1672.4298   -4436.2163 
  484000    258.96612   -6349.0172   -5682.8426   -6349.0172            0    5205.4725    23.482059    21.430153    21.624521     10881.98    4879.8767    5884.1766    4852.3643    221.92611   -951.52426    155.48052    -4856.721 
  485000    251.86501   -6346.3607   -5698.4533   -6346.3607            0    5884.8747     23.38755    21.390067    21.734583     10872.97    6490.4806    6189.8574    4974.2862   -55.206458   -925.24497   -88.894255   -4765.2821 
  486000    249.57152   -6334.0333   -5692.0258   -6334.0333            0    5784.3478    23.226026    21.584669    21.670257    10863.866    5399.2654     5511.582     6442.196    93.457776    835.17516   -167.96392   -4775.5633 
  487000    248.28602   -6346.4061   -5707.7054   -6346.4061            0    5878.9756    23.511396    21.321024    21.732817    10894.379    4879.0063    6365.9392    6391.9814    1656.0987    685.70145    550.20663   -4773.6341 
  488000    257.59697    -6319.053   -5656.4005    -6319.053            0     6140.669    23.236527    21.504104    21.755147    10870.627    6034.0175    6041.2035    6346.7861    482.51874    1768.0362    415.94744   -4682.8776 
  489000    239.89304   -6315.1701   -5698.0599   -6315.1701            0     5226.707    23.410143    21.498026    21.682036    10911.959    4525.3087    4540.9042     6613.908   -485.41262   -389.43538   -1052.6749   -4866.2832 
  490000    251.77957   -6319.2499   -5671.5623   -6319.2499            0    5362.3907    23.448898    21.450909    21.680992    10905.543    4639.2939    4684.4065    6763.4716    495.46331   -443.88986    -6.797096   -4818.6947 
  491000    252.22857   -6346.8282   -5697.9856   -6346.8282            0    5532.2537    23.227383    21.526196    21.749305    10874.592    5728.3447    7067.6887    3800.7276   -408.50505    132.63436    735.55496   -4820.5991 
  492000    247.06866    -6333.915    -5698.346    -6333.915            0    5966.2168    23.482349    21.445658    21.613855    10884.616    4066.5847     6235.145    7596.9207    636.17243    663.46604    886.91231    -4751.263 
  493000    245.09252   -6306.0149   -5675.5293   -6306.0149            0    5765.3904    23.341488    21.516436    21.706723    10901.673    5313.1857    6555.1412    5427.8443    -254.4302    696.34883    -160.9826   -4758.8915 
  494000    242.04381   -6316.1887   -5693.5458   -6316.1887            0    3904.8085    23.474529    21.518519    21.703838    10963.414    3778.8718    3494.4662    4441.0874   -579.50082    257.95809   -694.48992   -5069.2054 
  495000    260.21512   -6312.4193   -5643.0318   -6312.4193            0    4516.0472    23.456918    21.490612    21.770182    10974.425    3679.7077    5097.7812    4770.6526    39.118893     265.4974     -447.641   -4920.2351 
  496000    245.62586   -6336.9335    -5705.076   -6336.9335            0    4595.4946    23.285621    21.573746    21.708675    10905.528    4469.1825    4016.8215    5300.4798    406.91269   -74.438891    751.97982   -4974.1812 
  497000    245.83959   -6316.6417   -5684.2343   -6316.6417            0    4338.1712    23.597617    21.318146    21.747732    10940.358    3411.9333    4345.7842    5256.7961    518.83709    111.28041    2056.0158   -4992.0621 
  498000     252.5257   -6323.3404   -5673.7335   -6323.3404            0    5108.3586    23.423986    21.506954    21.680935    10922.391    5434.8731     5263.562    4626.6406    348.50921    278.54914    -186.8866   -4860.0135 
  499000     242.3458   -6331.6665   -5708.2467   -6331.6665            0    4942.6436    23.306948    21.489119    21.800212    10918.544    5769.5754    4342.1559    4716.1994   -109.80234   -906.24495   -1469.7495    -4921.201 
  500000    259.67931   -6304.3829   -5636.3737   -6304.3829            0    4245.3494    23.589529    21.482487    21.690893    10992.115    3743.1717    3985.7872    5007.0892    1196.6607   -172.99777    1203.6678   -4955.8072 
Loop time of 510.474 on 48 procs for 250000 steps with 1296 atoms

Performance: 84.627 ns/day, 0.284 hours/ns, 489.741 timesteps/s
196.0% CPU use with 24 MPI tasks x 2 OpenMP threads

MPI task timing breakdown:
Section |  min time  |  avg time  |  max time  |%varavg| %total
---------------------------------------------------------------
Pair    | 67.594     | 77.2       | 94.195     |  95.3 | 15.12
Bond    | 0.78157    | 0.84783    | 0.89645    |   4.0 |  0.17
Kspace  | 156.63     | 173.66     | 183.43     |  63.5 | 34.02
Neigh   | 5.2472     | 5.3658     | 5.5201     |   3.6 |  1.05
Comm    | 74.067     | 85.903     | 91.145     |  59.4 | 16.83
Output  | 0.59155    | 0.59295    | 0.59656    |   0.1 |  0.12
Modify  | 100.17     | 123.09     | 177.57     | 225.2 | 24.11
Other   |            | 43.81      |            |       |  8.58

Nlocal:             54 ave          60 max          46 min
Histogram: 1 0 4 0 2 6 1 7 2 1
Nghost:        3257.42 ave        3314 max        3206 min
Histogram: 4 2 2 1 1 4 5 2 2 1
Neighs:        16913.1 ave       18701 max       14260 min
Histogram: 1 0 2 3 1 4 3 5 3 2

Total # of neighbors = 405914
Ave neighs/atom = 313.20525
Ave special neighs/atom = 2
Neighbor list builds = 9293
Dangerous builds = 0

unfix		3
unfix		2
unfix		1

write_data	data.final.${pid}
write_data	data.final.0
System init for write_data ...
PPPM initialization ...
  extracting TIP4P info from pair style
  using 12-bit tables for long-range coulomb (../kspace.cpp:340)
  G vector (1/distance) = 0.36889949
  grid = 30 40 32
  stencil order = 5
  estimated absolute RMS force accuracy = 0.0041308128
  estimated relative force accuracy = 1.243982e-05
  using single precision MKL FFT
  3d grid and FFT values/proc = 9367 2400
  generated 0 of 1 mixed pair_coeff terms from geometric mixing rule
Last active /omp style is kspace_style pppm/tip4p/omp
WARNING: Not all mixed pair coeffs generated from mixing. Use write_data with 'pair ij' option to store all pair coeffs. (../write_data.cpp:309)

write_restart   restart.lmp.${pid}
write_restart   restart.lmp.0
System init for write_restart ...
PPPM initialization ...
  extracting TIP4P info from pair style
  using 12-bit tables for long-range coulomb (../kspace.cpp:340)
  G vector (1/distance) = 0.36889949
  grid = 30 40 32
  stencil order = 5
  estimated absolute RMS force accuracy = 0.0041308128
  estimated relative force accuracy = 1.243982e-05
  using single precision MKL FFT
  3d grid and FFT values/proc = 9367 2400
  generated 0 of 1 mixed pair_coeff terms from geometric mixing rule
Last active /omp style is kspace_style pppm/tip4p/omp
Total wall time: 0:08:30
