#include		in.partitions
include		in.temp
variable        temperature equal 88.97
variable	tempDamp equal 100.0
include		in.pressure
variable        pressure equal 6869.3
variable        pressureDamp equal 1000.0 # This is 1 ps
include		in.seed
variable        seed equal 745823

units		real
atom_style	full

read_restart	restart.lmp.${pid}
read_restart	restart.lmp.1
Reading restart file ...
  restart file = 30 Jul 2021, LAMMPS = 30 Jul 2021
  restoring atom style full from restart
  orthogonal box = (0.16499371 0.12033134 0.11359909) to (19.835007 19.879670 20.586399)
  2 by 4 by 4 MPI processor grid
  restoring pair style lj/cut/tip4p/long/omp from restart
  restoring bond style harmonic/omp from restart
  restoring angle style harmonic/omp from restart
  972 atoms
  648 bonds
  324 angles
Finding 1-2 1-3 1-4 neighbors ...
  special bond factors lj:    0        0        0       
  special bond factors coul:  0        0        0       
     2 = max # of 1-2 neighbors
     1 = max # of 1-3 neighbors
     1 = max # of 1-4 neighbors
     2 = max # of special neighbors
  special bonds CPU = 0.002 seconds
  read_restart CPU = 0.007 seconds
include 	in.setup
variable	out_freq equal 1000
variable	out_freq2 equal 10000
variable	out_freq3 equal 1000

timestep	2.0

neigh_modify    delay 7 every 1

include		in.tip4p
# This is TIP4P/Ice

# create groups ###
group ox type 2
324 atoms in group ox
group hy type 1
648 atoms in group hy

# set charges - beside manually ###
set group ox charge -1.1794
Setting atom values ...
  324 settings made for charge
set group hy charge 0.5897
Setting atom values ...
  648 settings made for charge

# ### TIP3P Potential Parameters ###
pair_style lj/cut/tip4p/long/omp 2 1 1 1 0.1577 8.5
pair_coeff 1 1*2 0.000 0.000
pair_coeff 2 2 0.21084 3.1668
bond_style  harmonic
bond_coeff  1 450 0.9572
angle_style harmonic
angle_coeff 1 55 104.52
kspace_style pppm/tip4p/omp 1.0e-5
pair_modify tail yes

thermo          ${out_freq}
thermo          1000
thermo_style    custom step temp pe etotal epair emol press lx ly lz vol pxx pyy pzz pxy pxz pyz enthalpy

restart 	${out_freq3} restart.lmp.${pid} restart2.lmp.${pid}
restart 	1000 restart.lmp.${pid} restart2.lmp.${pid}
restart 	1000 restart.lmp.1 restart2.lmp.${pid}
restart 	1000 restart.lmp.1 restart2.lmp.1


include         in.dump
dump            myDump all atom ${out_freq2} dump.water.${pid}
dump            myDump all atom 10000 dump.water.${pid}
dump            myDump all atom 10000 dump.water.1
dump            myDump2 all dcd ${out_freq2} dump.dcd
dump            myDump2 all dcd 10000 dump.dcd
dump_modify     myDump append yes
dump_modify     myDump2 append yes


variable natoms 	equal  "count(all)"                        # NUMBER ATOMS
variable H      	equal  "enthalpy/v_natoms"                 # ENTHALPY-per-atom
variable Vol      	equal  "vol/v_natoms"                 # volume-per-atom
fix AVG all 		ave/time ${out_freq} 1 ${out_freq} v_Vol v_H file vol_enthalpy.dat
fix AVG all 		ave/time 1000 1 ${out_freq} v_Vol v_H file vol_enthalpy.dat
fix AVG all 		ave/time 1000 1 1000 v_Vol v_H file vol_enthalpy.dat


timer           timeout 02:55:00 every 1000
New timer settings: style=normal  mode=nosync  timeout=02:55:00

fix 		1 all shake 1e-6 200 0 b 1 a 1
       0 = # of size 2 clusters
       0 = # of size 3 clusters
       0 = # of size 4 clusters
     324 = # of frozen angles
  find clusters CPU = 0.000 seconds
fix             2 all nph aniso ${pressure} ${pressure} ${pressureDamp}
fix             2 all nph aniso 6869.3 ${pressure} ${pressureDamp}
fix             2 all nph aniso 6869.3 6869.3 ${pressureDamp}
fix             2 all nph aniso 6869.3 6869.3 1000
fix             3 all temp/csvr ${temperature} ${temperature} ${tempDamp} ${seed}
fix             3 all temp/csvr 88.97 ${temperature} ${tempDamp} ${seed}
fix             3 all temp/csvr 88.97 88.97 ${tempDamp} ${seed}
fix             3 all temp/csvr 88.97 88.97 100 ${seed}
fix             3 all temp/csvr 88.97 88.97 100 745823


run             250000
PPPM initialization ...
  extracting TIP4P info from pair style
  using 12-bit tables for long-range coulomb (../kspace.cpp:340)
  G vector (1/distance) = 0.37242091
  grid = 24 24 24
  stencil order = 5
  estimated absolute RMS force accuracy = 0.0034813873
  estimated relative force accuracy = 1.0484094e-05
  using double precision FFTW3
  3d grid and FFT values/proc = 3211 432
Last active /omp style is kspace_style pppm/tip4p/omp
Neighbor list info ...
  update every 1 steps, delay 7 steps, check yes
  max neighbors/atom: 2000, page size: 100000
  master list distance cutoff = 10.8154
  ghost atom cutoff = 10.8154
  binsize = 5.4077, bins = 4 4 4
  1 neighbor lists, perpetual/occasional/extra = 1 0 0
  (1) pair lj/cut/tip4p/long/omp, perpetual
      attributes: half, newton on, omp
      pair build: half/bin/newton/omp
      stencil: half/bin/3d
      bin: standard
Per MPI rank memory allocation (min/avg/max) = 10.19 | 10.19 | 10.19 Mbytes
Step Temp PotEng TotEng E_pair E_mol Press Lx Ly Lz Volume Pxx Pyy Pzz Pxy Pxz Pyz Enthalpy 
34750000    93.371535   -5055.8639    -4875.789   -5055.8639            0    7903.6206    19.670014    19.759338      20.4728    7957.0905    8640.1144     6916.558    8154.1893   -134.63249    486.31544   -686.11612   -3958.6055 
34751000    87.695096   -5061.9753   -4892.8479   -5061.9753            0    6550.2228    19.656053    19.666377    20.567316    7950.5706    6728.7101    6126.6325    6795.3259    25.045413    661.06306    865.60189   -4133.3436 
34752000    89.453714   -5067.1801   -4894.6611   -5067.1801            0    6381.2946    19.851985    19.771499    20.388342    8002.4957     6659.041    5489.9211    6994.9215    -311.8578   -431.80497   -194.84219   -4149.9118 
34753000    90.013932   -5062.2426   -4888.6431   -5062.2426            0    8283.0361    19.655291    19.820883    20.281011    7901.1819    9602.5585    6436.6815    8809.8682     176.0159    344.39378    1061.8184   -3934.1836 
34754000    85.527453   -5070.6154   -4905.6685   -5070.6154            0    6443.9777    19.602884    19.939056    20.452279    7994.0391    7790.7199    5427.7708    6113.4424   -421.86787   -580.09581   -1347.4901   -4154.3982 
34755000    87.085682   -5059.7703   -4891.8182   -5059.7703            0    7473.0894    19.786189    19.693793    20.430085    7960.8913    8585.5818    6632.0786    7201.6078    71.993473    586.77796   -73.699416   -4024.1818 
34756000    92.343684   -5063.6094   -4885.5169   -5063.6094            0    6623.2223    19.745894    19.774418    20.410492    7969.5536     6265.092    6703.4216    6901.1534    493.08866    277.99101    755.92759   -4115.7146 
34757000    85.862746   -5058.7159   -4893.1224   -5058.7159            0    5992.1452    19.665836    19.722517    20.589298    7985.7608    5272.4119    7718.5471    4985.4767   -98.569593    352.91888   -156.00455   -4195.2524 
34758000    92.817227    -5072.578   -4893.5722    -5072.578            0    6983.3467    19.649089    19.813064    20.480637    7973.2892    7164.2196    6900.8506    6884.9698   -303.11949    1065.2923    771.22732    -4081.533 
34759000    91.067867   -5059.4142   -4883.7821   -5059.4142            0    6275.1343    19.919277    19.842001    20.222769     7992.813    5581.9646    6266.2418    6977.1965   -369.60038   -194.18512     434.6553   -4152.3087 
34760000    89.283966   -5062.1084   -4889.9168   -5062.1084            0    5691.0258    19.778931    19.801909    20.438428    8004.9269    5211.7164    5587.1087    6274.2523   -114.38591    1233.1269   -98.828645   -4225.5256 
34761000    89.885753   -5071.6964   -4898.3441   -5071.6964            0    6149.8165    19.756871     19.78067    20.438514    7987.4559    6298.2739    6034.1148    6117.0608     120.0916   -479.89859    298.13239   -4181.9591 
34762000    90.540092   -5049.5239   -4874.9097   -5049.5239            0    6541.3597    19.664907    19.835048    20.411223    7961.4869    7599.2263    5991.6144    6033.2384   -537.70028    557.14903   -20.054816   -4115.3917 
34763000    93.076407   -5056.1606   -4876.6549   -5056.1606            0    7948.8852    19.682062    19.879954    20.317075    7949.6344    8201.2632    7685.5015    7959.8908   -249.07137    121.80243   -123.02873   -3955.0829 
34764000    85.840068   -5063.4653   -4897.9155   -5063.4653            0    7112.5783    19.844646     19.74855    20.369518    7982.8753    6282.2159    8373.8828    6681.6363     263.2382    475.81511   -649.95736   -4069.8546 
34765000    89.954858   -5066.9623   -4893.4768   -5066.9623            0    6957.4579    19.803025    19.717433    20.388268    7960.9015    6077.3857    7637.2774    7157.7105   -51.955445    141.86311   -196.88857   -4085.7049 
34766000    90.055943   -5064.1122   -4890.4317   -5064.1122            0    6019.0519     19.61086    19.938068    20.350728     7957.189    6405.6487    4944.7043    6706.8027    71.725797    836.62821    348.66719   -4191.9362 
34767000    88.223944    -5061.966   -4891.8187    -5061.966            0    7383.3027    19.799495    19.732166    20.359989    7954.3813    7604.5951    6659.7352    7885.5777    65.054961   -122.30257    125.06905   -4035.3076 
34768000    87.095145   -5072.6912   -4904.7209   -5072.6912            0    6544.1512    19.716243    19.746046    20.541306    7997.0967    6744.7955    6820.4239    6067.2342   -220.97106   -458.77885   -258.38181   -4141.4802 
34769000    89.210833   -5066.9706     -4894.92   -5066.9706            0      7185.94     19.78522     19.82004    20.358764    7983.5647    6095.5869    8182.4917    7279.7412   -154.47281   -840.17281   -273.71162   -4058.2459 
34770000    84.681719   -5054.7981   -4891.4823   -5054.7981            0    7247.5608    19.689641    19.736871    20.429557    7939.1693    7611.3967    7173.6638    6957.6221    301.82741    657.54634    -526.4524    -4052.326 
34771000    87.582082   -5069.3313   -4900.4219   -5069.3313            0    6607.6868    19.827579    19.663906    20.405609    7955.8948    5056.2267    7196.8717    7569.9619   -488.68081    996.45687    -163.5325   -4133.7415 
34772000    90.275774    -5059.742   -4885.6376    -5059.742            0    7904.9461    19.577405    19.792757    20.434751    7918.2786    7954.3257    7535.9965     8224.516    94.272124   -736.46591   -673.97444   -3972.7746 
34773000    87.499211    -5066.269   -4897.5194    -5066.269            0    8182.7715    19.746757    19.670366    20.428758    7935.0598     7846.035    8717.3725    7984.9071    25.225503    -74.96092    244.72359   -3950.5706 
34774000    91.960819   -5057.1425   -4879.7883   -5057.1425            0    6104.1121    19.734548    19.781152    20.516959    8009.2483    5739.6279    7344.1634    5228.5451    146.98927   -308.47079   -5.4381347   -4166.7873 
34775000    89.645597   -5052.1838   -4879.2948   -5052.1838            0    7379.6495    19.684027    19.821074    20.340316    7935.9486    7040.7065    7717.2832    7380.9589    263.01175   -423.99699   -87.863618   -4025.1913 
34776000    91.498928   -5059.1398   -4882.6764   -5059.1398            0    7379.5955    19.814399    19.719233    20.409618    7974.5428    7889.7659    7509.1229    6739.8976    157.40291    350.61924    440.35378   -4024.4255 
34777000    91.053719    -5056.644   -4881.0393    -5056.644            0    7364.5959    19.739231    19.817808    20.355649    7962.8914    7495.4374    7050.1092    7548.2412   -87.811236   -857.12299    830.27311   -4025.7843 
34778000    88.277262   -5071.1258   -4900.8757   -5071.1258            0    5690.6402    19.631673    19.769178    20.587873    7990.1956     5103.837    6130.6392    5837.4444    351.62084   -332.78565    150.02436   -4237.7522 
34779000    90.112045    -5066.918   -4893.1294    -5066.918            0    7571.6436    19.774986     19.66434    20.554861    7993.0055    6280.2208    9545.0032    6889.7069   -150.12522    472.45121    670.40645   -4010.5045 
34780000    92.701779   -5064.3049   -4885.5218   -5064.3049            0    7519.1112    19.833257     19.63101    20.464093    7967.6302     8573.775    7012.8946    6970.6638     147.6496    787.89366     260.8086   -4011.8032 
34781000    90.619049   -5056.5872   -4881.8207   -5056.5872            0    7300.8629    19.706274    19.930879    20.318582    7980.3948    6468.9318    7594.8434    7838.8135    372.10246     652.3085     120.8299   -4032.1034 
34782000    90.366457   -5061.3429   -4887.0636   -5061.3429            0    6655.5422    19.668339    19.885627    20.390532    7975.0889    6323.6746    6608.6289    7034.3231   -369.48547   -128.80847    929.56433   -4112.9676 
34783000    87.911792   -5065.0199   -4895.4746   -5065.0199            0     5769.312    19.933359    19.704362    20.430179    8024.4456    4610.2308    7050.4013    5647.3038   -189.05512    30.820786   -776.40293   -4220.3018 
34784000    84.345674   -5059.8838    -4897.216   -5059.8838            0    7584.8289    19.709203    19.905785    20.298045    7963.4745    7362.0806    6818.9823    8573.4236   -466.87673    267.47976   -483.48303   -4016.3208 
34785000    86.799682   -5073.9044   -4906.5039   -5073.9044            0    7018.6548    19.621002    19.803099    20.431228    7938.6897    6937.6101    6784.0935    7334.2606   -471.85859    455.63925    570.37822   -4093.9006 
34786000    82.182041   -5066.1866   -4907.6916   -5066.1866            0    6289.4298    19.719734    19.829714    20.467288    8003.4607    5838.4985    6374.3392    6655.4518   -430.23688    145.63915   -131.97097   -4173.5751 
34787000    84.358592   -5059.1368   -4896.4441   -5059.1368            0    7066.6427    19.802959    19.715017    20.459565     7987.735    6559.4794    7729.6388    6910.8098    284.00928    829.62923    351.39562   -4073.2303 
34788000     88.87403   -5060.9415   -4889.5404   -5060.9415            0    6640.3555    19.758758    19.822455      20.4065    7992.5547    5559.9736    7228.1838    7132.9092   -50.367276   -408.48238    260.72481   -4115.5192 
34789000    84.460687   -5065.7188   -4902.8293   -5065.7188            0    6646.9409    19.754272    19.804663    20.382352    7974.1204    6380.0523    6800.0078    6760.7625   -132.94083    385.47053   -509.26015   -4129.8275 
34790000    87.368127   -5064.5747    -4896.078   -5064.5747            0    6431.8139    19.756214    19.767792    20.470513    7994.4871    6437.6855    6965.9025    5891.8538   -117.07256    293.63853   -54.026563   -4146.1838 
34791000    87.611275   -5058.9421   -4889.9764   -5058.9421            0    7314.3766    19.675376    19.819736     20.40245    7956.1547    8541.0169    6438.2121     6963.901     128.3881   -539.49927     331.4694    -4041.272 
34792000    86.068382   -5062.5463   -4896.5562   -5062.5463            0    6974.3284    19.741096    19.687536    20.508333     7970.636    6452.4685    7989.7478     6480.769    54.797818   -432.39464   -552.48327   -4085.8355 
34793000    87.414858    -5060.904   -4892.3171    -5060.904            0    5992.2645    19.757398     19.85912    20.473542    8033.0919    6286.0331    5540.4167    6150.3436    442.61791     138.8055   -412.31823   -4190.2969 
34794000     88.04626   -5078.5359   -4908.7312   -5078.5359            0     6084.906    19.952599    19.728835    20.360221    8014.6283    7100.1383    5573.7399    5580.8399   -95.252683   -167.54402   -82.019649   -4197.4962 
34795000    88.814356   -5077.8419   -4906.5559   -5077.8419            0    6993.1072    19.677928    19.709418    20.518914    7958.0659    6681.2549    7635.9197    6662.1468    -402.2857   -448.30056    560.50542   -4094.9343 
34796000     85.73172   -5063.8315   -4898.4906   -5063.8315            0    7287.9021    19.805683    19.663421    20.433745    7957.8703     5959.687    8009.9212    7894.0981     72.45357      276.557    202.47267   -4052.6758 
34797000     88.46234    -5068.899    -4898.292    -5068.899            0    6533.4053    19.652376    19.790966    20.526608     7983.609    7098.7618    6497.8553    6003.5987   -314.83716    866.40567   -358.25634   -4137.5896 
34798000    86.015989    -5069.478    -4903.589    -5069.478            0    6430.6704    19.851926    19.710281    20.350635    7962.9397    6819.6146    5898.8913    6573.5054    440.64195    69.969483   -650.27835   -4156.7868 
34799000    86.385239   -5052.3124   -4885.7112   -5052.3124            0    7000.3064    19.694477    19.812009    20.327443    7931.5069    6689.0571    6572.9396    7738.9226    278.83237   -626.00628   -625.53349   -4075.9656 
34800000    86.879749   -5072.9541   -4905.3992   -5072.9541            0      6150.92    19.733119    19.790957    20.474443    7996.0339     6852.859    5144.5341    6455.3671   -361.08057    515.25497   -788.23949   -4188.1161 
34801000    91.846018   -5048.9378    -4871.805   -5048.9378            0    7538.1347    19.652776    19.774379    20.553198    7987.4132    8116.4365    6629.1982    7868.7694   -602.20389   -207.43126   -1375.8509   -3993.7011 
34802000    88.670668   -5073.0792   -4902.0703   -5073.0792            0    6977.7109    19.732086    19.681157    20.514276     7966.725    5911.2209    7925.8308    7096.0812   -501.57801    196.89085   -597.07043   -4091.3544 
34803000    84.619269   -5069.2353   -4906.0399   -5069.2353            0    6896.9635    19.742331    19.775351    20.411515    7968.8908    6833.5444    7096.0559    6761.2901   -438.73584    217.08144    53.143127    -4104.488 
34804000    88.411813   -5055.5655   -4885.0559   -5055.5655            0    7462.5615    19.733121    19.800443    20.404402    7972.5006    6950.0676    7801.6309     7635.986      83.4425    1364.8296    226.71624   -4017.3783 
34805000    89.178551   -5064.0021   -4892.0138   -5064.0021            0     6838.474    19.730367    19.812524    20.384503    7968.4727    7489.3422    6387.1936    6638.8864   -199.03381    1458.8601    439.85794    -4097.301 
34806000    93.865117   -5059.9993   -4878.9726   -5059.9993            0    7257.4711    19.671245    19.886578    20.410393     7984.418    8303.4977    5592.2779    7876.6378   -624.36524    483.17053    138.83448   -4033.8796 
34807000    86.704876   -5073.9204   -4906.7028   -5073.9204            0    6957.6326     19.91844    19.706168    20.368903    7995.1232    6414.0026    7180.4347    7278.4605   -112.85291   -571.61074   -92.430012   -4095.4382 
34808000    88.918972   -5066.8313   -4895.3436   -5066.8313            0    6936.2122    19.703214    19.674559    20.582509    7978.8519    6806.9845    7743.2666    6258.3856    434.83687   -680.09762   -381.10438   -4088.2225 
34809000    87.502189   -5061.3828   -4892.6274   -5061.3828            0    6842.0599    19.723532    19.780913      20.3877    7954.2505    7012.1281    6461.0604    7052.9912   -341.12666     176.2948   -419.77668   -4098.9171 
34810000    91.245377   -5071.3503   -4895.3759   -5071.3503            0    5692.1971    19.800375    19.744711    20.390781    7971.8307    5741.0709     5918.894    5416.6263    38.946577     251.8841   -108.45266   -4233.5955 
34811000    91.480875   -5067.2026    -4890.774   -5067.2026            0    7306.2074    19.724795    19.777994    20.480693    7989.8637     7595.104     7049.346    7274.1723   -300.46658     -811.772    198.17796   -4039.4258 
34812000    92.538175    -5060.111   -4881.6433    -5060.111            0    6818.7341    19.742965    19.803245    20.508458    8018.2898    6036.1903    8262.6582    6157.3537   -68.913396    690.07403   -140.31973   -4084.2705 
34813000    92.098093   -5063.1843   -4885.5653   -5063.1843            0    6965.1111    19.643167    19.718739    20.593095     7976.498    6343.7474    8377.1265    6174.4594   -62.775252   -1284.0562    400.49241   -4075.3206 
34814000    88.843059   -5060.4465   -4889.1051   -5060.4465            0    8068.5391    19.700554    19.881715    20.311673     7955.692    8520.7638    7539.3516    8145.5019   -425.16142    148.10809   -150.14618    -3952.948 
34815000    91.619971   -5069.0942   -4892.3974   -5069.0942            0    7687.1245    19.800724    19.719789    20.301365    7926.9944    7618.1721    7563.8463     7879.355    -522.2967   -374.09397   -344.17696   -4003.7113 
34816000     92.65261   -5058.4211   -4879.7327   -5058.4211            0    6359.5279    19.680506    19.786654    20.464379    7969.0615    6225.3553    6884.2105    5969.0178   -437.18004    180.82552    562.16599   -4140.6246 
34817000    87.801094   -5069.7646   -4900.4328   -5069.7646            0    7054.5193    19.773955    19.725658    20.402748    7958.1789    8052.1149    6680.0987    6431.3443   -347.17658    286.47056    4.1978354   -4081.6721 
34818000     87.49254   -5062.3927    -4893.656   -5062.3927            0    6789.6669     19.76388    19.715462    20.480185    7980.1868     6415.892    7229.9327     6723.176   -314.52443   -510.19192    123.79084   -4103.4553 
34819000    83.483786   -5066.6398   -4905.6343   -5066.6398            0    6484.1078    19.649293    19.736797     20.56587    7975.7342    7234.5891    6633.0094    5584.7248     140.5998    282.78342    196.56543   -4151.4165 
34820000    89.548586   -5062.1804   -4889.4784   -5062.1804            0    7447.3622    19.720554    19.649234    20.608898    7985.8196    7808.4237     7785.108    6748.5549    207.57767    133.03317     -1221.81   -4022.1215 
34821000    91.299043   -5067.0443   -4890.9665   -5067.0443            0     6918.951    19.639007    19.730759    20.592952    7979.6143    7942.8337    7271.7436    5542.2757   -58.054135    659.64358    853.34989   -4085.7771 
34822000    94.346592   -5051.3457   -4869.3903   -5051.3457            0    7172.2866    19.681519     19.71937    20.496363    7954.7851    8462.0972      6159.25    6895.5126    15.620707    814.30587    215.56337   -4037.3163 
34823000     82.60451   -5064.8954   -4905.5856   -5064.8954            0    6803.8499    19.702574    19.784562    20.455771    7973.7988    8072.8899    5207.6205    7131.0391    111.77926    561.14362    72.923565   -4114.3681 
34824000    87.026898   -5065.6802   -4897.8415   -5065.6802            0    7780.8083     19.68996    19.730642    20.451699    7945.3942    8177.2134    7716.0816      7449.13   -231.48262    1723.9607    720.90901   -3996.2371 
34825000    88.190201   -5066.9192   -4896.8369   -5066.9192            0    7161.5142    19.744834    19.867746    20.343024    7980.2701    7951.1211    6144.6581    7388.7633    2.3302166    346.89094    487.21423   -4063.3509 
34826000     91.77587   -5072.0844    -4895.087   -5072.0844            0    6422.6165    19.945735    19.746136    20.254788    7977.3723    5735.6094    6352.5392    7179.7009    -549.8108    118.94234   -185.72792   -4147.8682 
34827000    82.982275   -5064.5756   -4904.5373   -5064.5756            0    6906.3451     19.62207    19.851397    20.378401    7937.9068    6861.4934    6834.9142    7022.6278    95.076346    700.06675    635.59153   -4105.0158 
34828000    90.993249   -5051.6825   -4876.1944   -5051.6825            0     7406.344    19.735449    19.646425    20.484479     7942.468    7212.6149    7387.5424    7618.8748   -131.03636   -23.564524   -861.00122   -4018.2972 
34829000      89.7896   -5075.5068     -4902.34   -5075.5068            0    7008.4721    19.741654    19.694168    20.549671    7989.6187    6608.7264    7281.1334    7135.5564     5.656048    312.22093   -124.99819   -4085.7101 
34830000    92.277133   -5066.9696   -4889.0054   -5066.9696            0    5709.3241    19.810954    19.752361    20.492317    8018.9124    6601.2177    5131.9191    5394.8354    61.539999   -185.79311   -398.05491   -4221.3135 
34831000    92.576135    -5070.797   -4892.2562    -5070.797            0     6727.542    19.768494    19.830745    20.385739     7991.698    6584.4839    6425.6718    7172.4703   -552.96377   -470.20115   -232.76185   -4108.1563 
34832000    85.263383   -5066.4443   -4902.0067   -5066.4443            0    6624.7631    19.804857    19.705004    20.399094    7960.8443    6487.9513     6453.666    6932.6721   -179.14116   -300.60399    38.414626   -4132.8668 
34833000    90.952439   -5063.8459   -4888.4365   -5063.8459            0    7889.0659    19.638978    19.685353    20.602999    7965.1237     8923.241     7751.989    6991.9678   -35.766188   -274.74196   -126.08381   -3972.0177 
34834000    91.692621    -5053.065    -4876.228    -5053.065            0    7683.7743    19.818583    19.654274    20.404023    7947.7722    7606.6804    7749.3982    7695.2445    91.722219     579.2257    122.50312   -3985.6009 
34835000    88.262824   -5073.2021   -4902.9798   -5073.2021            0    6651.9829      19.7509    19.848973    20.355179    7979.9445    7176.8307    5693.2923    7085.8258   -407.86733   -490.07833    597.01359   -4128.8267 
34836000    88.367202   -5068.7948   -4898.3712   -5068.7948            0    6137.6415     19.66333    19.749939    20.550741    7980.8709    6364.2603    6192.5354    5856.1287     -380.571    1590.4484    51.480605   -4183.9938 
34837000    90.911365   -5074.5842    -4899.254   -5074.5842            0    6462.8248    19.725098     19.74761    20.497768    7984.3632    6116.6459    7237.4534    6034.3751    214.21867    347.83058    368.53442   -4146.6985 
34838000    91.408361   -5072.5612   -4896.2725   -5072.5612            0    6134.7995    19.800419    19.736811    20.477739    8002.6418    5629.1023    5748.5249    7026.7713   -98.611134    1007.9743     416.3109    -4180.278 
34839000    85.415239   -5077.9635    -4913.233   -5077.9635            0    6909.3778     19.71924    19.796768    20.505004    8004.6862    6960.2249    7115.3282    6652.5804    134.85011   -318.88545    50.768223   -4106.6313 
34840000    86.955457   -5066.7014   -4899.0005   -5066.7014            0    7062.6588    19.731925    19.874478    20.331368     7973.184    6958.5528    6643.1411    7586.2826   -201.60414    549.49059    261.37812   -4077.7495 
34841000    87.748905   -5068.2011     -4898.97   -5068.2011            0    6570.4291    19.755608    19.807425    20.395289    7980.8343    6357.7348    6654.1108    6699.4417   -752.87792   -46.050087    485.05271   -4134.2227 
34842000     89.48617   -5072.4363   -4899.8547   -5072.4363            0    6458.1462    19.826075    19.761452    20.412195    7997.3353    6493.7321    6541.6055    6339.1009    5.8897537    566.05553   -1479.0662   -4146.6222 
34843000    90.289421   -5066.0657    -4891.935   -5066.0657            0    6132.4181    19.787368    19.733985    20.536043    8018.9884    6350.1102    6558.8089    5488.3351   -278.13813   -198.74953     420.6141   -4174.7565 
34844000    87.309124    -5058.728    -4890.345    -5058.728            0    7036.7602    19.606236    19.821261    20.429744    7939.4136    7594.5131    6029.2345    7486.5331   -154.65635    1128.8439   -824.09092   -4075.5712 
34845000     86.61637    -5072.057   -4905.0101    -5072.057            0    6848.2194    19.860806    19.625091     20.40904    7954.8337    5665.7544     7444.655    7434.2487   -274.67979   -32.266481    83.949983    -4110.527 
34846000    93.747349   -5064.8852   -4884.0855   -5064.8852            0    7666.8641    19.691516    19.779329    20.360829     7930.237    8762.3033    6247.5432    7990.7459   -134.42694    179.39933    145.99301   -3997.3792 
34847000     91.27354     -5071.94   -4895.9113     -5071.94            0    6123.1849     19.75131     19.90541    20.323649    7990.4036    5948.9962     5482.629    6937.9295    -138.8343    831.61045    431.19906   -4182.3653 
34848000    88.066284   -5064.6179   -4894.7746   -5064.6179            0    6779.7546    19.847194    19.715612    20.340426    7959.2002    6211.2275    6683.9379    7444.0985   -11.293694    704.17648    39.974418   -4107.8026 
34849000    87.353195   -5059.9211   -4891.4531   -5059.9211            0    6657.6571    19.752308    19.891654    20.247203    7955.2492    7184.0951    5875.1729    6913.7033   -183.30834   -257.60116    286.88068   -4119.0374 
34850000    90.979975   -5075.6526   -4900.1901   -5075.6526            0     6058.535    19.737268    19.829082    20.485719    8017.5351    6868.4804    5764.0215    5543.1031   -206.85122    215.41128   -125.92305   -4191.7805 
34851000    85.870185   -5074.9153   -4909.3075   -5074.9153            0    5592.9201    19.785385    19.808765    20.379268    7987.1253    5101.7496    6311.9393    5365.0714    167.38105   -97.776975   -805.33624   -4257.8216 
34852000    89.567203   -5057.9061   -4885.1682   -5057.9061            0    8008.6017    19.840661    19.726673    20.218646    7913.3803    7783.5297    7745.8436    8496.4317   -9.3519857    1056.7296    576.98796   -3960.9072 
34853000    90.485592   -5058.0845   -4883.5754   -5058.0845            0    6787.0437    19.605627    19.858214    20.397988    7941.6044    6497.7078    6556.5558    7306.8674   -328.66379    730.94222   -175.93973    -4097.499 
34854000    90.117252   -5059.5454   -4885.7467   -5059.5454            0    7240.0471    19.687595    19.674291    20.539215    7955.6485    6907.6178    8501.0025     6311.521    -211.0025    265.97815   -24.028807   -4045.7204 
34855000    94.291392   -5062.0186   -4880.1698   -5062.0186            0    6649.3826    19.807222    19.780164     20.39322    7989.8616    6296.8651     7103.059    6548.2237   -443.82399    -188.0609   -46.891772   -4105.3575 
34856000    89.737717   -5078.4743   -4905.4076   -5078.4743            0    6955.8441    19.749974    19.886846    20.333101    7986.1242    6722.8633    7016.5918    7128.0772    249.42525    536.07151    363.63731   -4095.2644 
34857000    86.211251   -5055.4945   -4889.2289   -5055.4945            0    6655.5253    19.721397    19.797778    20.380148    7957.2215    7202.7343     6029.262    6734.5796   -67.206209    635.52646    186.10067   -4116.8691 
34858000     88.80919   -5057.2254   -4885.9494   -5057.2254            0    6675.3711    19.601781    19.813427    20.513476    7966.9918    7639.6411    6126.2145    6260.2576    -472.6484   -253.35637    392.19591   -4110.3353 
34859000    89.317022   -5066.4239   -4894.1686   -5066.4239            0    6677.3099    19.720624     19.70504    20.505573     7968.377    7068.6167    6827.2278     6136.085    243.74326    150.83443    846.70931   -4118.1943 
34860000    93.414331   -5068.5032   -4888.3458   -5068.5032            0    6298.1692    19.838404    19.802747     20.37892    8005.9583    5514.5581    7458.3234    5921.6262    220.41873    70.205753    36.241167   -4152.9798 
34861000    87.786311   -5050.7561   -4881.4528   -5050.7561            0    6677.5446    19.551576    19.887004    20.514694    7976.5699    8178.6921    5194.5493    6659.3924   -507.54139    25.753382    75.217422   -4104.6534 
34862000    89.085471   -5066.4178   -4894.6089   -5066.4178            0     6145.519    19.864389    19.747917    20.471953    8030.7443    5309.8034    7037.2517    6089.5017   -343.00471    997.73403     406.8094   -4174.8447 
34863000    89.492937   -5076.9828   -4904.3882   -5076.9828            0    6453.1497    19.812769    19.735341    20.434314    7990.0568    6041.7886    7415.7589    5901.9015    -252.5936    656.21205    845.98874   -4152.4234 
34864000    89.501445   -5062.8839   -4890.2729   -5062.8839            0     5256.824    19.628272    19.867798    20.508493    7997.7084     5036.412    5430.6778    5303.3823   -100.43658   -1115.8749    712.65256   -4277.1255 
34865000     88.52407   -5064.3716   -4893.6455   -5064.3716            0    7587.2492    19.807391    19.746828    20.362682    7964.5201    6266.6976    8829.8037    7665.2463    137.52585    1309.0474   -117.63995   -4012.3535 
34866000    83.889259   -5066.3355   -4904.5481   -5066.3355            0     6150.678    19.751425    19.906136    20.318698    7988.7953    7315.5928    5044.3712    6092.0698   -204.89833    193.27776   -311.36082   -4187.9425 
34867000     81.92316    -5063.959   -4905.9633    -5063.959            0    6482.7547    19.764064     19.90131    20.267048    7971.6532    6202.0463    6056.8656    7189.3523    -372.1566    512.78068   -41.126195   -4152.2887 
34868000    90.956129   -5076.2638   -4900.8472   -5076.2638            0    6383.7142    19.727091    19.848139    20.336804    7962.7948    7589.3486    5180.5364    6381.2576   -318.81392    124.50422    362.98084   -4159.5116 
34869000    85.967524   -5070.7113   -4904.9157   -5070.7113            0    5658.8806    19.820719     19.72399    20.466742    8001.3428    6448.3794    5501.7744    5026.4881    -368.5459    252.69718    348.75902   -4244.5731 
34870000    88.592626    -5061.845   -4890.9867    -5061.845            0    6782.7142    19.739561    19.789987    20.346019    7948.0839    5686.2478    7934.5268     6727.368    -440.0449    558.35783    318.17286   -4104.7707 
34871000    87.359962   -5078.8842   -4910.4032   -5078.8842            0    5060.3796    19.779189    19.940833    20.303735    8008.0674    5971.4637    3415.4642    5794.2107   -1077.7958   -93.817693    186.91456   -4319.4043 
34872000    88.441569   -5061.0304   -4890.4634   -5061.0304            0    5480.8709    19.788726    19.828866    20.434838    8018.3853    4727.8324    6089.7329    5625.0475    -282.9606    88.578856    15.958684   -4249.5307 
34873000    88.381546   -5063.6814   -4893.2301   -5063.6814            0     7116.786    19.807789    19.836674    20.305376    7978.4019    5342.7421    8000.2323    8007.3835     242.9964    477.27967    665.50003   -4065.1436 
34874000    92.095611    -5065.379   -4887.7649    -5065.379            0    7477.1267    19.785785    19.853662    20.245165    7952.7111    7729.5118    7193.3245    7508.5439   -382.32772    667.49226   -193.23323   -4020.5518 
34875000     90.81963    -5059.164   -4884.0107    -5059.164            0    6582.3345    19.735328    19.784435    20.420837    7973.3634    6880.2205    6757.1692    6109.6137   -450.35177    754.62399   -116.58441   -4118.5949 
34876000    87.782674   -5077.9569   -4908.6606   -5077.9569            0    6498.4109    19.752872    19.792094    20.468141    8002.0345    6477.5185    6400.3809    6617.3332   -488.74698    100.81109    892.19511   -4150.2865 
34877000    88.516387   -5068.3973    -4897.686   -5068.3973            0    5970.0426     19.74183    19.758592    20.472882    7985.8728    5124.3124    6547.4788    6238.3365    31.732633    599.76859   -959.82395   -4202.3804 
34878000     90.40347   -5069.2176   -4894.8669   -5069.2176            0    7892.3696    19.785708    19.765864    20.294452    7936.7868    7611.0403    7521.8511    8544.2173    -214.5395    188.39089   -195.77115    -3981.326 
34879000    95.720564   -5062.0794   -4877.4742   -5062.0794            0    6798.8477    19.752793    19.810929    20.372413    7972.1564    6071.6336    6873.0787    7451.8309   -336.43315    105.90542   -213.92682   -4087.0012 
34880000    87.069334   -5076.1525   -4908.2319   -5076.1525            0    6593.8684    19.736941    19.776619    20.388678    7958.3119    6547.9316    6975.8147    6257.8589   -61.116571     126.7166   -322.56644   -4142.9224 
34881000    86.826032   -5071.7466   -4904.2953   -5071.7466            0    7289.0226    19.660632    19.693201    20.458892      7921.29    6909.9903     8206.846    6750.2316   -517.52036    590.09106     147.7542   -4062.2391 
34882000    90.578519   -5058.3593    -4883.671   -5058.3593            0    6156.9747    19.764037    19.754989    20.536305    8018.1606    6624.0663    6561.2733    5285.5846   -329.08115   -123.93932   -82.574674    -4163.695 
34883000     90.52169   -5055.4449   -4880.8662   -5055.4449            0    7598.0554    19.651951    19.840072      20.4301    7965.6168    8274.0463    7025.8239    7494.2959   -197.62763    798.49794    430.13671   -3998.1974 
34884000    88.376944   -5065.0027   -4894.5603   -5065.0027            0    7675.1708    19.638915    19.779408    20.389366    7920.1699    7403.9946    7993.9098    7627.6081   -409.60804    609.60796     364.5009   -4008.0201 
34885000    89.675654   -5068.6322   -4895.6851   -5068.6322            0    7395.6549     19.70766     19.69739    20.560135     7981.228     6360.205     8599.542    7227.2176   -253.98158   -80.601839   -389.85179   -4034.8455 
34886000    88.682712   -5063.3588   -4892.3267   -5063.3588            0    7060.4761     19.79851     19.70154    20.458137    7979.9244    6224.4653    7499.9942    7456.9688   -146.36953    250.61748    130.30812   -4070.6355 
34887000    86.949913   -5068.6154   -4900.9251   -5068.6154            0    7096.4298    19.709041    19.796268    20.474194    7988.3234    7595.7617    6370.4746     7323.053    85.073637    566.83376    448.18805   -4074.1804 
34888000    88.678922   -5071.1594   -4900.1347   -5071.1594            0    6935.8817    19.810006    19.705189    20.479281    7994.2903    7121.6428    6521.9596    7164.0427   -187.83751     989.9943   -265.20437   -4091.4905 
34889000    82.000239   -5063.2089   -4905.0645   -5063.2089            0    7450.9189    19.749683    19.713016    20.376344    7933.0366    7265.7159    7311.8548    7775.1861   -545.29402   -462.82935    173.69931    -4043.029 
34890000    92.083404   -5062.6577   -4885.0671   -5062.6577            0    6737.2847    19.503873    19.830954    20.546477    7946.9753     7030.658    7779.4436    5401.7526   -20.661766    -538.6345   -194.45676   -4104.2261 
34891000    88.726161   -5068.8952   -4897.7793   -5068.8952            0    6690.3479    19.810044    19.830964    20.368055    8001.6366     6697.583    6207.9169    7165.5439   -181.88445    25.076852   -55.460719   -4117.0447 
34892000    89.837836   -5071.8203   -4898.5604   -5071.8203            0    6551.0051    19.741932     19.85974    20.374477     7988.214    6699.2234    7089.2406    5864.5513   -291.09597   -674.44889    1011.4149    -4135.369 
34893000    82.701145   -5053.9416   -4894.4454   -5053.9416            0    6434.9487    19.613313    19.779122    20.469347    7940.7579    6873.7559    6756.0395    5675.0508   -104.98213    964.48836   -337.37282   -4149.2281 
34894000    88.511564   -5063.3387   -4892.6367   -5063.3387            0    6903.5615      19.7113    19.789829    20.412243    7962.4741    6656.4972    6833.5805    7220.6069   -286.95895    59.529027   -1295.7465   -4090.9639 
34895000    85.364225   -5061.7666   -4897.1345   -5061.7666            0    6964.8583    19.981158    19.782848    20.233351    7997.9244    7227.6159    6338.1738    7328.7852   -353.82799    472.99799    375.89545   -4084.7428 
34896000    89.211228   -5072.9178   -4900.8664   -5072.9178            0    7250.2892    19.658048    19.799411    20.429702     7951.603    7048.7624    6664.8594    8037.2457   -283.00442   -825.88825    403.54724   -4060.0796 
34897000    89.092933   -5076.1754   -4904.3522   -5076.1754            0    6624.7461    19.716283    19.940774    20.291514    7977.7697     7212.756    5712.1285    6949.3537     9.723091    17.476837    137.50973    -4133.579 
34898000     86.48392   -5066.1563   -4899.3648   -5066.1563            0    7701.4875    19.704331    19.775231    20.338732    7925.1433    6549.2539    8080.8526     8474.356    -145.7025    679.75367    651.86758   -4009.2262 
34899000    88.298038   -5058.2721   -4887.9819   -5058.2721            0    7416.0892    19.742423    19.762466    20.458376    7982.0191    7665.2937    7172.1107    7410.8633   -95.630985    40.072622   -491.91078   -4024.6782 
34900000    85.608516   -5063.8313    -4898.728   -5063.8313            0    6161.3805    19.747181    19.769537    20.444369     7981.331    5920.1866    6229.1595    6334.7953   -1.7761194    539.64205    108.28204   -4181.5463 
34901000    91.875398   -5056.9028   -4879.7133   -5056.9028            0    6845.8802    19.640993    19.818161    20.470069    7967.9404    7760.2978    6660.2499    6117.0929   -489.21975    726.49579    79.574023    -4084.193 
34902000    90.763922   -5060.7401   -4885.6942   -5060.7401            0    7305.6939    19.677083    19.807021    20.429272    7962.1941    9129.7277    6355.2005    6432.1536    195.96237    740.70957    879.92527   -4037.3539 
34903000    91.541365   -5069.9825   -4893.4373   -5069.9825            0    6921.8224    19.698914     19.85967    20.331042    7953.7868    8268.6491    5725.5045    6771.3137   -673.36068    1008.6346     207.4933    -4090.521 
34904000    88.081276   -5066.8028   -4896.9306   -5066.8028            0    6235.8176    19.814406    19.791371    20.412533    8004.8616    7184.4307    5567.1281    5955.8941    107.86878    535.06449    299.14557   -4168.9444 
34905000     90.55374   -5067.9279   -4893.2874   -5067.9279            0    6785.9112    19.637833    19.735749    20.491177    7941.7108    6442.2495    7618.5098    6296.9742   -180.93066     64.00653   -222.16517   -4107.3316 
34906000    84.384187   -5063.7592   -4901.0172   -5063.7592            0    6283.2615    19.741195    19.786697    20.387517    7963.6299    5141.6726    7150.6469    6557.4651    393.51971   -244.97881   -702.07721   -4171.2706 
34907000    91.505687   -5069.8889   -4893.4124   -5069.8889            0    7107.5942    19.775064     19.71599    20.440484    7969.4371    6478.0045     7370.939    7473.8392     -297.885    89.637267   -256.37026   -4067.3247 
34908000    82.752516   -5067.7677   -4908.1725   -5067.7677            0    7230.5399    19.775338    19.684528    20.511796    7984.5898    7224.4323    7358.5288    7108.6585    41.359544     690.9749   -119.07374   -4066.1974 
34909000    86.347225   -5065.6586   -4899.1307   -5065.6586            0    7408.1545    19.648609    19.745171    20.467773    7940.7823    7654.4223    7114.7324     7455.309   -37.407447   -275.95181    748.45725   -4041.2059 
34910000    87.475006    -5063.164   -4894.4611    -5063.164            0    6201.8703     19.79032    19.779246    20.401724    7986.0019    6439.7796    6858.4418    5307.3896   -99.066745    316.66024   -59.083814   -4172.1439 
34911000    87.895299   -5070.5581   -4901.0446   -5070.5581            0     6190.787     19.82902    19.762309      20.4276    8004.9067     6799.672    5622.1975    6150.4914    247.24696    451.00888    127.57657   -4178.3114 
34912000     90.01181    -5065.328   -4891.7327    -5065.328            0    6995.2852    19.698706     19.84185     20.42286     7982.454    7581.6028    6505.0901    6899.1626    478.94228    837.23602      34.8135   -4077.3702 
34913000    90.048481   -5059.4314   -4885.7653   -5059.4314            0    7597.5332    19.653868     19.84539    20.328319     7928.831    8038.0316    7514.9606    7239.6074   -94.304446     1122.326   -389.61391   -4007.2331 
34914000    88.681854   -5069.6921   -4898.6617   -5069.6921            0    7081.8039    19.844424    19.623794    20.429307      7955.64    5593.5639    8712.5959    6939.2519   -309.62641    247.74154   -350.02941   -4076.9965 
34915000    89.518053   -5070.2169   -4897.5738   -5070.2169            0    6581.6659    19.694832     19.80039    20.475393     7984.694     8544.608    5261.5207     5938.869   -357.42144    585.77495    591.46517   -4131.1482 
34916000    88.578137   -5065.3773   -4894.5469   -5065.3773            0     5825.757    19.708758     19.73036    20.695058    8047.4987    7678.1753    5505.4238    4293.6719     23.50553   -355.71533    -729.6133   -4210.8097 
34917000    91.037576   -5070.2108   -4894.6372   -5070.2108            0    7012.1244    19.737996    19.806629    20.410838    7979.4775    7824.7258    6351.6218    6860.0256    99.115665    198.96518   -90.762011   -4078.6187 
34918000    90.886123   -5051.9663   -4876.6848   -5051.9663            0     7293.936    19.762803    19.676079    20.416654    7939.1073    7014.7454    7210.5885    7656.4739   -185.31249    568.58188    1601.7981   -4032.1656 
34919000    90.779664   -5061.4934   -4886.4172   -5061.4934            0    6501.4833    19.695149    19.848803    20.406698    7977.4909    5806.3689    6548.2525    7149.8284    231.90318   -512.64501   -611.66168   -4130.0117 
34920000    90.844469   -5067.3288   -4892.1276   -5067.3288            0    7606.0706    19.694362    19.865982    20.344029    7959.5577    7012.9253    7565.2122    8240.0741   -458.58637    60.000093    1250.2696   -4009.1998 
34921000    86.289505   -5056.5475   -4890.1309   -5056.5475            0    6154.5054    19.789671    19.715542    20.442083    7975.7669    5548.1094    6882.9106    6032.4962   -542.51519    184.76652   -531.22442   -4174.2488 
34922000    88.809041   -5063.2168   -4891.9411   -5063.2168            0    8337.0481    19.677345    19.762819    20.309658    7898.0156    8209.7305    8610.8798    8190.5341   -378.12134   -79.178961   -371.20182   -3931.6427 
34923000    85.326303   -5066.1119   -4901.5529   -5066.1119            0     7415.796    19.764356     19.75193    20.317648    7931.6885    6931.3574    7283.6415    8032.3891   -506.71522    372.38806    485.73075   -4043.7267 
34924000    86.655418   -5056.3437   -4889.2214   -5056.3437            0    7918.1115    19.841932    19.646479    20.383779    7946.0885    8388.9268    7094.2147     8271.193    268.68351    100.41016    348.95429   -3971.6267 
34925000    86.589969   -5060.7586   -4893.7625   -5060.7586            0    7226.1855    19.711514    19.778582    20.377012    7944.2996    7204.9874    6783.6933     7689.876   -148.73295    863.54482    162.07956   -4056.5406 
34926000    88.790219   -5075.0053   -4903.7659   -5075.0053            0    6137.0913    19.772208    19.851107    20.332776    7980.6189    5827.8638    5833.2195    6750.1907   -228.82213    104.63785   -140.97348   -4189.4751 
34927000    88.412139   -5060.8286   -4890.3183   -5060.8286            0     7624.125    19.739978    19.726237    20.386629    7938.4612    7835.8049    7885.3795    7151.1907   -125.04593   -724.52903    286.57474   -4007.6405 
34928000    88.404242   -5059.2976   -4888.8026   -5059.2976            0    7927.4594    19.793591    19.740582      20.2564    7914.9247    6951.4301     8158.767    8672.1813   -690.70081   -557.55452    55.672239   -3973.7275 
34929000    90.127844   -5057.4849   -4883.6658   -5057.4849            0    6826.3834    19.758478    19.759285    20.374567     7954.504     7180.458    6392.9647    6905.7274   -314.29352   -1130.3167    82.266701   -4091.7488 
34930000    91.378354   -5064.4261   -4888.1952   -5064.4261            0    7797.6857    19.706874    19.757903    20.457666    7965.5298    7709.1127    8216.5766    7467.3676    565.27296    1156.2301    269.86762   -3982.3452 
34931000    90.369852    -5069.025   -4894.7392    -5069.025            0     7392.608    19.672395    19.803232    20.375947    7938.0001    7714.1079     6476.669    7987.0472   -296.07934   -237.40304    483.04576   -4038.9148 
34932000    89.647318   -5067.7441   -4894.8517   -5067.7441            0    7015.0894    19.693111    19.868529     20.37291    7971.3726     6942.491     7247.811    6854.9663   -12.581099    593.71191   -95.177165   -4079.3175 
34933000    85.655421   -5069.5956    -4904.402   -5069.5956            0    7843.9754    19.688336    19.692826    20.530421    7960.0338    8698.5107    7079.6132    7753.8023    133.66474    246.58881   -227.37085   -3993.8033 
34934000    87.361208   -5070.8814   -4902.3979   -5070.8814            0    7620.7518    19.712139    19.751854    20.395804    7941.1327    8547.6399    6851.7797    7462.8359    185.65524   -126.35109    137.45599   -4019.8137 
34935000    91.240535   -5059.8403   -4883.8753   -5059.8403            0     6985.648    19.796083    19.825354    20.280315    7959.3006    7230.0734    5905.8902    7820.9802    18.375804    314.77062    227.08354   -4072.9936 
34936000    89.763891   -5054.4907   -4881.3734   -5054.4907            0    8056.6828    19.654618    19.682739    20.459496    7914.8932    8742.6377    7626.0527     7801.358    267.08592     648.2209   -107.44298   -3951.3857 
34937000    90.374928   -5072.2298   -4897.9342   -5072.2298            0    5962.4051    19.744877    19.705376    20.498692    7975.6357    6576.2152    5126.9799      6184.02   -352.44575    890.11441    529.65609   -4204.4083 
34938000    92.329396   -5069.8546   -4891.7896   -5069.8546            0    6499.4662    19.764693     19.83565     20.39871     7997.223    6636.3765    6218.8408    6643.1813   -385.18289   -47.220372   -529.52136   -4133.7484 
34939000    86.690232   -5073.2969   -4906.1075   -5073.2969            0    5213.3248    19.795605    19.946723    20.278168    8006.9854    5976.8058    3654.7877     6008.381   -554.65457   -371.24661     170.0133   -4297.3284 
34940000    91.060694   -5058.5849   -4882.9667   -5058.5849            0    6745.9792    19.754872     19.75681    20.443952    7979.1361    7496.5541    6676.2335      6065.15   -334.30501    653.05586   -591.29106   -4097.9538 
34941000    85.824209   -5057.9105   -4892.3913   -5057.9105            0    6956.6438    19.757286    19.834019    20.280095    7947.0876    6467.7741    7523.4565    6878.7007     54.95833   -190.54119     155.3192   -4086.1154 
34942000    92.788993   -5071.1045   -4892.1531   -5071.1045            0    6480.2072    19.827604    19.780298     20.32074    7969.7111    6382.9918    6602.5364    6455.0934   -30.066089   -182.75722   -180.02081   -4138.9582 
34943000    88.032359   -5063.8364   -4894.0586   -5063.8364            0    6367.7668    19.836379    19.813424    20.316386    7984.8801    6300.1406    6338.9619     6464.198    31.198149    972.01447   -924.18777    -4152.524 
34944000    92.193333     -5057.08   -4879.2774     -5057.08            0    7876.3317    19.685855    19.660909    20.477649    7925.7063    7800.5525    8431.5666     7396.876   -390.86292   -495.19704   -341.72029   -3968.8657 
34945000    89.387627   -5060.2101   -4887.8185   -5060.2101            0     6762.961    19.667898    19.796114    20.383578    7936.3046    6689.9207    7199.8447    6399.1175  -0.12594149    262.98474    487.61387    -4105.054 
34946000    87.815869   -5067.9827   -4898.6224   -5067.9827            0    6558.3512    19.695871     19.88233     20.35105    7969.4672    6785.6068    5570.3074    7319.1394   -138.41117   -228.90007   -528.60986   -4136.3681 
34947000    86.671806   -5060.7052   -4893.5514   -5060.7052            0    7574.9652    19.849072     19.72595    20.362777    7972.8785    8641.7704    5702.0032    8381.1218   -209.67754    1080.9422    1030.3071   -4012.7628 
34948000     87.43773    -5063.748    -4895.117    -5063.748            0    6812.0017    19.875529    19.732529    20.391327    7997.3655     6963.669    7219.1419    6253.1944   -200.25268    743.49485    327.06811   -4100.6102 
34949000     93.08026   -5067.2048   -4887.6917   -5067.2048            0    6370.4486    19.680609    19.833469    20.500873    8002.2029    6532.1103    6423.2209    6156.0146   -319.24824    678.37378   -699.17571   -4144.2354 
34950000    88.799314   -5068.9485   -4897.6915   -5068.9485            0    6598.9011     19.83734    19.642502    20.413944    7954.3954    7685.7992    6373.2675    5737.6366   -170.37282   -58.732036   -536.72818   -4132.1748 
34951000    89.713682   -5068.2126   -4895.1923   -5068.2126            0    6810.3862    19.753283    19.759127    20.388807    7957.9067    7215.8046    5849.6734    7365.6805   -177.95104    317.36512    1039.7341   -4104.7931 
34952000    89.102459    -5065.766   -4893.9245    -5065.766            0    6388.9094    19.871836    19.747551    20.305572    7968.3142    5529.7643    6174.9872    7461.9766   -304.79938    77.292852   -1385.6192   -4151.4713 
34953000    89.032143   -5079.2283   -4907.5223   -5079.2283            0    6153.6329    19.845088    19.815559    20.352157    8003.3132    6788.6922     5448.028    6224.1784    66.518548    168.60617    1272.5151   -4189.2696 
34954000    85.286515   -5063.3715   -4898.8893   -5063.3715            0    7663.4661    19.569574    19.797792    20.457359    7925.8836    7096.1309    8117.5819    7776.6856    156.17137   -353.38626   -4.3661937   -4013.0624 
34955000    86.744128   -5071.7218   -4904.4284   -5071.7218            0    6611.0328    19.819647    19.677123    20.388327    7951.3175    6217.6001    7212.4053    6403.0929    55.670631    836.55106    284.90984   -4137.8011 
34956000    85.815378    -5066.907   -4901.4048    -5066.907            0    7929.4305    19.755952    19.767871    20.348872    7946.9081    8067.9502    7730.4799    7989.8614    23.446577   -107.19547     426.8796   -3982.4036 
34957000    89.190621   -5071.4293   -4899.4177   -5071.4293            0    6522.6339    19.770793    19.844455    20.369245    7991.6817    6349.9986    6122.9847    7094.9184    -41.16928   -730.63106   -204.86718   -4139.2016 
34958000    86.083596   -5054.9744   -4888.9549   -5054.9744            0      6209.56    19.775864    19.671195    20.454363    7957.0517    7426.4313     5297.912    5904.3367   -291.67152    29.534988    807.46354   -4168.3638 
34959000     88.42447   -5066.6805   -4896.1465   -5066.6805            0    6940.9105    19.802485    19.823091    20.353624    7989.7429    7205.9883    6241.4221    7375.3213    51.840642     591.0904   -62.893893   -4087.3763 
34960000       91.812    -5063.322   -4886.2548    -5063.322            0    6570.1421    19.896106    19.626681    20.480166    7997.3928    6205.4587     7062.026    6442.9416   -188.25741    310.49918    339.10715   -4119.9544 
34961000    88.151016   -5061.4298   -4891.4232   -5061.4298            0    6464.0023    19.689254    19.768727    20.475644    7969.7651    7111.8957    5872.8781    6407.2331   -78.137881   -74.727122    620.48877   -4140.1067 
34962000    92.412221    -5069.859   -4891.6343    -5069.859            0     7137.798    19.731498    19.880746    20.280914    7955.7342    6402.6483    7575.7323    7435.0134   -307.97272    734.78938   -113.41036   -4063.4625 
34963000    92.728714   -5062.2846   -4883.4495   -5062.2846            0     6805.777    19.866842    19.684579    20.357832    7961.3463     7106.442    6418.8668    6892.0222   -48.146193    707.14933   -1116.9048   -4093.2439 
34964000    86.795757   -5060.2366   -4892.8437   -5060.2366            0    6288.9942    19.814291    19.782718    20.367642     7983.719    6176.0106    5941.4043    6749.5677   -761.14495   -311.64982   -569.49707   -4160.5887 
34965000    86.594105   -5076.0082   -4909.0042   -5076.0082            0    6623.9536    19.664793    20.013756    20.246576    7968.3715    5532.7223    6116.9252    8222.2132    219.35867    722.87971   -74.239196   -4139.2311 
34966000    87.674088   -5071.1613   -4902.0744   -5071.1613            0    6341.4239    19.811193    19.764741    20.421696    7996.3826    5678.0509    6443.1126    6903.1081     103.4875    515.30992    716.60806   -4162.5437 
34967000     87.64708   -5076.7328    -4907.698   -5076.7328            0    7443.8911    19.696988    19.754692    20.448142    7956.5346    8349.3829    7028.6569    6953.6333   -136.27375   -355.34787    815.99611   -4043.9246 
34968000    89.030887   -5055.2146   -4883.5111   -5055.2146            0    7193.2703    19.701206    19.644364    20.520498    7941.7951    7197.4443    7456.8834    6925.4832    194.11933      448.397    61.152104   -4050.3654 
34969000    87.678355   -5058.3881    -4889.293   -5058.3881            0    6760.1371    19.722764    19.808557    20.384456    7963.7887    6950.8641    6186.2385    7143.3086   -373.28645    529.11678   -617.88933   -4104.1458 
34970000    84.588482   -5064.6321   -4901.4961   -5064.6321            0    7347.1553    19.805337    19.786851     20.26221    7940.4611     7074.287    8048.3633    6918.8156    118.36186   -1348.2426   -257.43214   -4050.6699 
34971000    87.095359     -5058.51   -4890.5393     -5058.51            0    8169.8711     19.43428     19.94858    20.442983     7925.464    9721.9023    5750.0238    9037.6871      -485.92    86.625726    520.30061   -3946.2267 
34972000    85.282456     -5065.24   -4900.7656     -5065.24            0    6987.1451    19.731393     19.72327    20.443655    7956.0084    6057.7067    7525.3696    7378.3592   -91.563354    427.90603     658.3875   -4090.0457 
34973000    84.015106   -5058.9047   -4896.8745   -5058.9047            0    7165.8072    19.727535    19.735718    20.407064    7945.2267    7688.2821    6637.2687    7171.8707     279.6805    241.28829    870.95454    -4066.551 
34974000    87.266339   -5064.0303   -4895.7298   -5064.0303            0    7635.6752    19.820119    19.723462    20.376163    7965.4776      7437.59    7763.2412    7706.1944   -188.68254   -773.57814    338.25146   -4008.7062 
34975000    84.969919    -5070.031   -4906.1593    -5070.031            0    5578.3566    19.742206    19.875856    20.404342    8006.5259    6134.4532    5373.1276    5227.4889     180.8247     697.8892    217.26029   -4254.7916 
34976000    88.790826   -5069.4511   -4898.2105   -5069.4511            0    6736.8092    19.738333    19.750827     20.52395    8001.2289    7907.6243    6347.6424     5955.161    249.57534    793.57873    39.470607   -4112.0942 
34977000    92.876172   -5052.4216    -4873.302   -5052.4216            0    6278.6724    19.652389    19.774478    20.560392    7990.0918    5623.2994    6406.8626    6805.8552   -301.18388    500.68002    492.67153   -4141.6653 
34978000    89.372543   -5063.4553   -4891.0929   -5063.4553            0    5847.5482    19.751086    19.799885    20.515798    8023.0979    5775.5155    5396.2763    6370.8528   -176.11273   -11.700011   -1154.4973   -4206.8791 
34979000    87.046459     -5062.27   -4894.3936     -5062.27            0     6401.386    19.848428    19.792117    20.410801    8018.2283    7229.6655    4811.3657    7163.1269   -143.90386    -466.6325    989.65941   -4145.8307 
34980000     93.77747   -5061.0573   -4880.1995   -5061.0573            0    7294.5584    19.776613     19.78455     20.34458     7960.252    6608.3902     7991.328    7283.9571   -381.69632   -225.95264    689.91826   -4033.3588 
34981000    89.591226   -5059.1306   -4886.3464   -5059.1306            0    6038.5454    19.687107    19.879121    20.371346    7972.5783    7177.9164     4882.256    6055.4637   -436.22264   -312.40772     566.0855   -4184.2334 
34982000    86.386758   -5065.2685   -4898.6643   -5065.2685            0    6071.7691    19.905811    19.721993    20.485882     8042.394    5539.1439    7031.4755    5644.6878    12.988881    207.62355    152.63746   -4186.5061 
34983000    87.172297   -5065.2619   -4897.1428   -5065.2619            0    8144.9309    19.912522    19.611044    20.344742    7944.7307    7130.8247    10104.107    7199.8613    540.17079    255.42676    328.34968   -3953.4243 
34984000    92.527153   -5066.9082   -4888.4618   -5066.9082            0    7340.2388    19.764604    19.738719    20.437937    7973.4105    5788.3753    8856.6206    7375.7206   -157.32732    28.514714    71.687368   -4034.9094 
34985000    85.283118   -5068.0775   -4903.6018   -5068.0775            0    6631.9641    19.681555     19.78243    20.464866    7967.9747    6691.2074    6491.0466    6713.6384    485.50356   -266.86535    153.34659   -4132.9362 
34986000    88.504875   -5069.9348   -4899.2457   -5069.9348            0    7624.9101    19.861661    19.677803    20.371024    7961.6859    7671.4303    7425.1803    7778.1197    155.40463    409.21852     73.72149   -4013.8943 
34987000    91.929673   -5069.8314   -4892.5373   -5069.8314            0    6441.1056     19.65972    19.746832    20.495318    7956.6349     6412.002     7203.504    5707.8108   -320.55654    265.85702    461.90039   -4145.1155 
34988000    90.710165   -5059.9385   -4884.9963   -5059.9385            0    7580.6792    19.806575    19.651101    20.379449    7932.1096    5767.1791    8064.6309    8910.2276    27.893834    44.582169    208.11774   -4008.0506 
34989000    83.449344   -5057.6339   -4896.6949   -5057.6339            0    6699.3602    19.757713    19.721827    20.508924    7991.4705    6099.0897    7835.6074    6163.3836   -148.29983    854.43233    309.36161   -4115.9018 
34990000    88.731297   -5063.1911   -4892.0654   -5063.1911            0    7062.6798    19.834446    19.753188    20.376081    7983.2172    6232.4077    7553.0787    7402.5529    197.21139    800.49723    80.260348   -4069.7785 
34991000    85.855579   -5065.1295   -4899.5498   -5065.1295            0    6126.6606    19.678666    19.856191    20.363638     7956.956    6081.9819    5880.4011    6417.5986  -0.23165644   -163.61866     512.3286   -4188.5873 
34992000    87.975061   -5062.0596   -4892.3923   -5062.0596            0    7999.8518    19.743227    19.748224    20.318033    7921.8727    7998.5501    7796.2384    8204.7669   -178.62148   -888.92559   -173.91531   -3968.1503 
34993000    87.502415   -5056.4187    -4887.663   -5056.4187            0    7050.2445    19.662123    19.797414     20.50435    7981.5068    9016.2065    6016.7144    6117.8126   -200.81919   -14.938703    980.62005   -4066.9998 
34994000     89.10115   -5058.8733   -4887.0343   -5058.8733            0     8173.365    19.693339    19.794842    20.396491    7951.0936    8122.6764    7627.1935    8770.2251    454.91062    444.46835    530.94288   -3939.2628 
34995000     97.06927   -5063.0512    -4875.845   -5063.0512            0    7628.2583    19.627594    19.614944      20.6291    7942.0832    7141.4832    9012.9629    6730.3288    -203.0752    795.62114    -234.2282   -3992.2856 
34996000    86.677473   -5054.6475   -4887.4827   -5054.6475            0     7579.769    19.626495    19.845806    20.454682    7967.1723    8398.6701    6485.7412    7854.8956   -96.440285    220.23092   -229.15356   -4006.7663 
34997000    86.875879   -5068.0348   -4900.4874   -5068.0348            0    6248.9152    19.777841    19.871015    20.343426    7995.0836    5697.7078    6068.1158    6980.9222   -136.08764    62.158773   -414.46328   -4171.8633 
34998000    90.713414   -5066.4072   -4891.4588   -5066.4072            0    5913.0733    19.610483    19.891496    20.556643    8018.7733    6845.0577    5131.6617    5762.5004     38.29452   -332.45968   -870.89864    -4199.951 
34999000    85.787397   -5073.1615   -4907.7133   -5073.1615            0    6228.5262    19.789514    19.823263    20.461478    8026.8896    6390.6558    6373.9503    5920.9723   -305.68228    102.47212   -281.60683   -4178.5774 
35000000    93.056413   -5060.6915   -4881.2244   -5060.6915            0    5800.5673    19.840165    19.703533    20.459969    7998.2387    5092.1318    5674.8991    6634.6711   -185.85175   -452.16756    637.38391   -4204.6108 
Loop time of 358.497 on 64 procs for 250000 steps with 972 atoms

Performance: 120.503 ns/day, 0.199 hours/ns, 697.356 timesteps/s
193.7% CPU use with 32 MPI tasks x 2 OpenMP threads

MPI task timing breakdown:
Section |  min time  |  avg time  |  max time  |%varavg| %total
---------------------------------------------------------------
Pair    | 29.316     | 35.972     | 44.239     |  69.0 | 10.03
Bond    | 1.016      | 1.2196     | 1.6187     |  12.7 |  0.34
Kspace  | 154.1      | 164.12     | 170.8      |  33.2 | 45.78
Neigh   | 0.29765    | 0.31592    | 0.33855    |   2.2 |  0.09
Comm    | 62.207     | 66.641     | 69.677     |  22.0 | 18.59
Output  | 0.5524     | 0.55274    | 0.55438    |   0.0 |  0.15
Modify  | 71.053     | 73.006     | 75.873     |  13.0 | 20.36
Other   |            | 16.67      |            |       |  4.65

Nlocal:        30.3750 ave          37 max          26 min
Histogram: 5 3 4 6 5 3 3 1 0 2
Nghost:        2712.41 ave        2742 max        2690 min
Histogram: 3 7 3 2 5 4 1 2 2 3
Neighs:        9815.12 ave       12943 max        8294 min
Histogram: 6 7 3 4 5 3 2 1 0 1

Total # of neighbors = 314084
Ave neighs/atom = 323.13169
Ave special neighs/atom = 2.0000000
Neighbor list builds = 901
Dangerous builds = 0

unfix		3
unfix		2
unfix		1

write_data	data.final.${pid}
write_data	data.final.1
System init for write_data ...
PPPM initialization ...
  extracting TIP4P info from pair style
  using 12-bit tables for long-range coulomb (../kspace.cpp:340)
  G vector (1/distance) = 0.3722939
  grid = 24 24 24
  stencil order = 5
  estimated absolute RMS force accuracy = 0.0034962634
  estimated relative force accuracy = 1.0528893e-05
  using double precision FFTW3
  3d grid and FFT values/proc = 3211 432
Last active /omp style is kspace_style pppm/tip4p/omp
WARNING: Not all mixed pair coeffs generated from mixing. Use write_data with 'pair ij' option to store all pair coeffs. (../write_data.cpp:312)

write_restart   restart.lmp.${pid}
write_restart   restart.lmp.1
System init for write_restart ...
PPPM initialization ...
  extracting TIP4P info from pair style
  using 12-bit tables for long-range coulomb (../kspace.cpp:340)
  G vector (1/distance) = 0.3722939
  grid = 24 24 24
  stencil order = 5
  estimated absolute RMS force accuracy = 0.0034962634
  estimated relative force accuracy = 1.0528893e-05
  using double precision FFTW3
  3d grid and FFT values/proc = 3211 432
Last active /omp style is kspace_style pppm/tip4p/omp
Total wall time: 0:05:58
