LAMMPS (30 Jul 2021)
Processor partition = 1
  using 4 OpenMP thread(s) per MPI task
using multi-threaded neighbor list subroutines
variable        pid world 0 1
variable        phase world IceII IceIh

shell cd ${phase}
shell cd IceIh
include Restart.lmp
echo both
log log.lammps
#include		in.partitions
include		in.temp
variable        temperature equal 107.60
variable	tempDamp equal 100.0
include		in.pressure
variable        pressure equal 2050.8
variable        pressureDamp equal 1000.0 # This is 1 ps
include		in.seed
variable        seed equal 745823

units		real
atom_style	full
#include		in.box
read_restart	restart.lmp.${pid}
read_restart	restart.lmp.1
Reading restart file ...
  restart file = 30 Jul 2021, LAMMPS = 30 Jul 2021
  restoring atom style full from restart
  orthogonal box = (0.096739400 0.17585291 0.15127109) to (18.110833 23.453325 22.061925)
  2 by 4 by 2 MPI processor grid
  restoring pair style lj/cut/tip4p/long/omp from restart
  restoring bond style harmonic/omp from restart
  restoring angle style harmonic/omp from restart
  864 atoms
  576 bonds
  288 angles
Finding 1-2 1-3 1-4 neighbors ...
  special bond factors lj:    0        0        0       
  special bond factors coul:  0        0        0       
     2 = max # of 1-2 neighbors
     1 = max # of 1-3 neighbors
     1 = max # of 1-4 neighbors
     2 = max # of special neighbors
  special bonds CPU = 0.001 seconds
  read_restart CPU = 0.006 seconds
include 	in.setup
variable	out_freq equal 1000
variable	out_freq2 equal 10000
variable	out_freq3 equal 1000

timestep	2.0

neigh_modify    delay 7 every 1

include		in.tip4p
# This is TIP4P/Ice

# create groups ###
group ox type 2
288 atoms in group ox
group hy type 1
576 atoms in group hy

# set charges - beside manually ###
set group ox charge -1.1794
Setting atom values ...
  288 settings made for charge
set group hy charge 0.5897
Setting atom values ...
  576 settings made for charge

# ### TIP3P Potential Parameters ###
pair_style lj/cut/tip4p/long/omp 2 1 1 1 0.1577 8.5
pair_coeff 1 1*2 0.000 0.000
pair_coeff 2 2 0.21084 3.1668
bond_style  harmonic
bond_coeff  1 450 0.9572
angle_style harmonic
angle_coeff 1 55 104.52
kspace_style pppm/tip4p/omp 1.0e-5
pair_modify tail yes

thermo          ${out_freq}
thermo          1000
thermo_style    custom step temp pe etotal epair emol press lx ly lz vol pxx pyy pzz pxy pxz pyz enthalpy

restart 	${out_freq3} restart.lmp.${pid} restart2.lmp.${pid}
restart 	1000 restart.lmp.${pid} restart2.lmp.${pid}
restart 	1000 restart.lmp.1 restart2.lmp.${pid}
restart 	1000 restart.lmp.1 restart2.lmp.1


include         in.dump
dump            myDump all atom ${out_freq2} dump.water.${pid}
dump            myDump all atom 10000 dump.water.${pid}
dump            myDump all atom 10000 dump.water.1
dump            myDump2 all dcd ${out_freq2} dump.dcd
dump            myDump2 all dcd 10000 dump.dcd
dump_modify     myDump append yes
dump_modify     myDump2 append yes


variable natoms 	equal  "count(all)"                        # NUMBER ATOMS
variable H      	equal  "enthalpy/v_natoms"                 # ENTHALPY-per-atom
variable Vol      	equal  "vol/v_natoms"                 # volume-per-atom
fix AVG all 		ave/time ${out_freq} 1 ${out_freq} v_Vol v_H file vol_enthalpy.dat
fix AVG all 		ave/time 1000 1 ${out_freq} v_Vol v_H file vol_enthalpy.dat
fix AVG all 		ave/time 1000 1 1000 v_Vol v_H file vol_enthalpy.dat


timer           timeout 23:50:00 every 1000
New timer settings: style=normal  mode=nosync  timeout=23:50:00

fix 		1 all shake 1e-6 200 0 b 1 a 1
Finding SHAKE clusters ...
       0 = # of size 2 clusters
       0 = # of size 3 clusters
       0 = # of size 4 clusters
     288 = # of frozen angles
  find clusters CPU = 0.000 seconds
fix             2 all nph aniso ${pressure} ${pressure} ${pressureDamp}
fix             2 all nph aniso 2050.8 ${pressure} ${pressureDamp}
fix             2 all nph aniso 2050.8 2050.8 ${pressureDamp}
fix             2 all nph aniso 2050.8 2050.8 1000
fix             3 all temp/csvr ${temperature} ${temperature} ${tempDamp} ${seed}
fix             3 all temp/csvr 107.6 ${temperature} ${tempDamp} ${seed}
fix             3 all temp/csvr 107.6 107.6 ${tempDamp} ${seed}
fix             3 all temp/csvr 107.6 107.6 100 ${seed}
fix             3 all temp/csvr 107.6 107.6 100 745823


run             250000
PPPM initialization ...
  extracting TIP4P info from pair style
  using 12-bit tables for long-range coulomb (../kspace.cpp:340)
  G vector (1/distance) = 0.37202626
  grid = 24 27 25
  stencil order = 5
  estimated absolute RMS force accuracy = 0.0031186483
  estimated relative force accuracy = 9.3917169e-06
  using double precision FFTW3
  3d grid and FFT values/proc = 6300 1296
Last active /omp style is kspace_style pppm/tip4p/omp
Neighbor list info ...
  update every 1 steps, delay 7 steps, check yes
  max neighbors/atom: 2000, page size: 100000
  master list distance cutoff = 10.8154
  ghost atom cutoff = 10.8154
  binsize = 5.4077, bins = 4 5 5
  1 neighbor lists, perpetual/occasional/extra = 1 0 0
  (1) pair lj/cut/tip4p/long/omp, perpetual
      attributes: half, newton on, omp
      pair build: half/bin/newton/omp
      stencil: half/bin/3d
      bin: standard
Setting up Verlet run ...
  Unit style    : real
  Current step  : 26500000
  Time step     : 2
  Walltime left : 23:49:59.96
Per MPI rank memory allocation (min/avg/max) = 12.26 | 12.29 | 12.31 Mbytes
Step Temp PotEng TotEng E_pair E_mol Press Lx Ly Lz Volume Pxx Pyy Pzz Pxy Pxz Pyz Enthalpy 
26500000    114.49427   -4532.3671   -4336.1278   -4532.3671            0    2484.5993    18.014094    23.277472    21.910654    9187.6313    3322.8862    2495.2926    1635.6191    611.32593   -189.45497     -1.73037   -4003.2109 
26501000    109.53165    -4549.311   -4361.5775    -4549.311            0    1377.1201    17.876586    23.391772    22.032516    9213.2275    2659.7128    1367.5673    104.08023    869.04312    288.06719   -15.756956   -4176.5401 
26502000    109.29564   -4547.9464   -4360.6174   -4547.9464            0    2331.1415    17.822696    23.340674    22.064814    9178.8245    3580.6594    2207.2964    1205.4688   -430.53161    88.248065   -190.80812   -4048.5621 
26503000    109.73353   -4549.2938   -4361.2143   -4549.2938            0    2706.8957    18.002829    23.176861    21.898943    9137.3134    2773.2877    3126.2907    2221.1086    28.515015    275.79508   -338.71282   -4000.4978 
26504000    102.48318   -4556.5297    -4380.877   -4556.5297            0    912.31256    18.103416      23.2609     21.90629    9224.7773    844.34457    868.12031    1024.4728    585.83038    267.02803     257.0449     -4258.14 
26505000    107.74227   -4543.2714   -4358.6049   -4543.2714            0    2169.0223    17.951573    23.262837    21.994305    9184.9209    3422.9863     2125.743    958.33771   -288.16525   -26.552476   -365.41656   -4068.0586 
26506000    111.49057   -4543.3932   -4352.3022   -4543.3932            0    2455.9779    17.923098    23.158007    22.012336    9136.5111    1946.8983    2667.7758    2753.2597   -636.23659    253.27731    479.29006   -4025.0514 
26507000    102.56486   -4535.5639   -4359.7713   -4535.5639            0    2198.2644    17.998043      23.1646    22.000383    9172.3441    1835.3615    2429.2411    2330.1906   -255.07035    251.68104    48.917213   -4065.7112 
26508000    110.69848   -4544.6476   -4354.9142   -4544.6476            0    1261.5926     17.91762    23.353306     22.04193    9223.1298    1766.0615    536.90778    1481.8085    12.927863    43.294961   -897.34486   -4185.2175 
26509000    111.11197   -4538.3668   -4347.9247   -4538.3668            0    2836.7246    17.874219     23.35192    21.918838    9148.8643    2729.7492    2577.5127    3202.9117   -954.34614    304.25689    83.579562   -3969.4296 
26510000    112.42417   -4552.1045   -4359.4133   -4552.1045            0    975.77925    17.905382    23.318482    22.084406    9220.8211    794.78755    1487.5466    645.00357    20.461454    313.50836   -282.38454   -4228.1942 
26511000    108.48472   -4547.7629   -4361.8238   -4547.7629            0    1937.0155    17.866596    23.367633    22.010945    9189.5705    1892.9174    1831.1969    2086.9323    68.585389   -115.23908     45.36949   -4102.2241 
26512000    115.23019   -4540.7684   -4343.2678   -4540.7684            0    1925.0506    17.897215    23.359072    21.962365    9181.6376    1472.6583    2310.4694    1992.0241   -1046.3866    124.76739    169.50208   -4085.4944 
26513000    106.53123    -4530.849   -4348.2581    -4530.849            0    2186.1406    17.844783    23.464246    21.923865    9179.8373    3535.2071    1865.6501    1157.5646    300.32352    71.882757    992.95762   -4055.5809 
26514000    104.88437   -4550.6214   -4370.8532   -4550.6214            0    2341.4233    17.915116    23.360444    21.890124    9161.1278    2082.1307     2975.633    1966.5061    412.25056   -151.68594    236.90722   -4058.0258 
26515000    110.46017   -4548.4122   -4359.0873   -4548.4122            0    2047.5649    17.884389    23.333241    21.996364    9179.0995    2501.8285    1186.0228    2454.8433    232.66551    -640.9969    141.38974   -4084.9844 
26516000     110.1377   -4551.2394   -4362.4671   -4551.2394            0     2067.097    17.960491    23.241137    21.967661    9169.7903    1451.9711    2186.6288    2562.6912    353.98699   -341.26233    83.591694   -4086.0301 
26517000    107.23486   -4543.3702   -4359.5733   -4543.3702            0    1751.4885    17.849576     23.30665    22.076294    9184.0432    2782.3877    2123.6796    348.39815    267.19117   -246.60196    580.18657   -4124.9792 
26518000    100.55676   -4545.3712   -4373.0204   -4545.3712            0    2501.3397    17.752273    23.349082    22.062711    9144.9777    3088.4741    2317.6411    2097.9039   -951.37003    413.13372    195.31544   -4039.4164 
26519000    108.30868   -4547.5715   -4361.9341   -4547.5715            0    1302.2571    17.840278    23.386354    22.076152    9210.5912    1713.1546    971.23996    1222.3768   -790.65525    -188.1558   -368.70001   -4187.0058 
26520000    105.71833   -4552.0388   -4370.8412   -4552.0388            0    1443.6416    17.973288    23.239077    21.999905    9188.9783    1031.4687    1762.8337    1536.6224   -615.35704    242.41114    667.19797   -4177.3761 
26521000    105.78911   -4548.5799    -4367.261   -4548.5799            0    3481.8843    17.838953    23.295154    21.928183    9112.5007    3058.4208    3514.5893    3872.6427   -758.04463   -48.230111      122.281   -3904.5308 
26522000    104.82748   -4533.1763   -4353.5056   -4533.1763            0    732.80202    17.923942    23.353261     22.07139    9238.6974    216.20756    1420.6239    561.57462    201.65939   -190.01093   -283.72707   -4254.7701 
26523000    101.69844   -4545.5553   -4371.2477   -4545.5553            0    1290.8607    17.813655    23.411578    22.023108    9184.6438    1573.2329    1275.5984    1023.7509   -110.55908   -536.42921    37.328744   -4198.3387 
26524000    112.33467   -4532.7286   -4340.1908   -4532.7286            0    1749.2411    17.914926    23.286838    22.032386    9191.5143    2928.8011    1423.8954    895.02683   -450.87838   -585.76427    675.69725   -4105.7071 
26525000    109.30801   -4546.7657   -4359.4155   -4546.7657            0    1913.5913    17.968777     23.15811    22.076282    9186.4469    1147.3855    2712.2894     1881.099    -608.2273    377.13793    -139.7188   -4103.0423 
26526000    117.99932   -4550.2494   -4348.0026   -4550.2494            0    784.42604     17.93923    23.351843     22.03394    9230.3274    714.14641    1211.6862    427.44554    67.985207   -645.47936    431.20146   -4242.4072 
26527000    108.77863   -4539.7561   -4353.3132   -4539.7561            0    1831.6233     17.89907    23.463531    21.914231    9203.4376    1537.9956    2363.1946    1593.6795   -754.06034      465.884   -89.593232   -4107.4678 
26528000    108.13417   -4551.0708   -4365.7326   -4551.0708            0    1170.2228    18.066022    23.360873    21.775944    9190.2769    694.29229    1826.2931    990.08296   -59.057942   -54.164948    237.88254   -4208.8867 
26529000    109.03905   -4565.7386   -4378.8494   -4565.7386            0    1520.7488    18.099273    23.300976    21.829857    9206.3217    1131.5894    1842.9385    1587.7187   -468.74634    155.04841    -196.2392   -4174.6664 
26530000    109.60895   -4544.4656   -4356.5996   -4544.4656            0     1442.396    17.951283    23.400381    21.956005    9222.9902    1506.3504    1875.5364    945.30136   -361.38618     94.65232    172.74128    -4162.586 
26531000    110.50793   -4533.8988    -4344.492   -4533.8988            0    2672.8453    17.946934    23.295678    21.902942    9157.3133    2020.8868    3302.4906    2695.1584    83.408919    131.72962    498.73856   -3987.5334 
26532000    108.78464   -4539.9482    -4353.495   -4539.9482            0    2390.1546    17.862512    23.392222    21.913954    9156.6105     3150.141    2291.4233    1728.8994      282.063   -300.35992    -32.54466   -4034.3143 
26533000    110.52141   -4549.3753   -4359.9454   -4549.3753            0    1750.0091    17.834098    23.473871    21.955134    9191.1943    2282.5738     760.2976    2207.1559   -113.65986   -671.52846   -92.335173   -4125.3669 
26534000    101.92165   -4548.8046   -4374.1144   -4548.8046            0    2559.7272    17.839804    23.307732    22.050894      9168.88    2718.7744    2149.2744    2811.1328    301.22923    957.60441   -197.96708   -4031.8309 
26535000    106.78789   -4560.0769   -4377.0461   -4560.0769            0    3146.1585    17.935827    23.181712     21.93682    9120.9603    3117.5008    3567.3785    2753.5963    239.86637     253.9096   -7.7857513   -3958.5446 
26536000    106.96913   -4557.1132   -4373.7717   -4557.1132            0    1934.3998    17.940527     23.34185    21.969534    9200.0738    1970.9903    2019.8784    1812.3306    201.83439   -16.497702   -424.56518   -4114.2263 
26537000    106.40626   -4537.9505   -4355.5738   -4537.9505            0      2475.86    17.851573     23.29241    21.987833    9142.6766    2934.6702    2688.6473    1804.2624   -326.27266    44.091393    163.62931   -4025.4511 
26538000    113.02408   -4554.8156   -4361.0962   -4554.8156            0    1613.0897    17.966857    23.152851    22.092384     9190.077    1316.1938    2028.2924    1494.7828    285.23997   -346.42718   -307.33008   -4144.8972 
26539000     104.6727   -4538.0249   -4358.6195   -4538.0249            0    2648.4497    17.902257    23.205413    22.011723    9144.3141    2906.6741    2712.9902    2325.6849    243.20753   -166.08045    25.933138   -4005.4211 
26540000    103.94761   -4539.9305   -4361.7678   -4539.9305            0    2936.2627    17.849423    23.210133    22.043902    9132.5124    1911.2583    3462.7932    3434.7367   -553.29602    261.89654   -288.35733   -3970.6919 
26541000    106.96065    -4549.243   -4365.9161    -4549.243            0     2272.904    17.940611    23.276226    21.948127    9165.3121    2133.3782    2388.1048     2297.229    62.908206   -319.04699   -686.04106   -4062.1046 
26542000    108.21305   -4551.3152   -4365.8417   -4551.3152            0    1341.7188    18.088809    23.138311    21.996216    9206.3948    1733.1136    1724.0601    567.98257   -235.12084   -203.20072    776.51166   -4185.6947 
26543000     106.1196   -4539.6181   -4357.7328   -4539.6181            0    1260.1726    17.937603      23.3578      21.9666    9203.6306     1699.129     1374.759    706.62979    231.52688   -33.996485     277.5235   -4188.5855 
26544000    108.78298   -4545.3991   -4358.9488   -4545.3991            0    2105.5672    17.828262    23.497581    21.892872    9171.3842    3014.9744    1688.6123    1613.1148     -276.384     50.25536    84.817773   -4077.3182 
26545000    104.80143   -4565.0805   -4385.4545   -4565.0805            0    1817.9093    18.020918    23.348281    21.829406    9184.8855    711.10467     1971.984    2770.6392   -423.65182    6.0729238   -373.38051   -4141.9417 
26546000    111.14936   -4545.6542    -4355.148   -4545.6542            0    1918.4869    18.049034    23.227437    21.903116    9182.5045    654.74519    2041.5706    3059.1451    296.44676    305.69678   -18.312903   -4098.2292 
26547000    103.39812   -4544.7566   -4367.5358   -4544.7566            0    1710.3597    17.983359    23.213297    21.983582    9177.1132    741.56067    2624.1367    1765.3817   -128.15923   -399.56189   -426.67775   -4138.6233 
26548000    107.38807   -4541.3334    -4357.274   -4541.3334            0    2767.0467    17.769796    23.440692    21.977472    9154.4154     3493.295    2481.8475    2325.9978   -1062.2107    112.67576    3.9683587   -3987.8518 
26549000    108.88638   -4542.6262   -4355.9987   -4542.6262            0    2253.6783    17.794175    23.490756    21.976332    9186.0767    3083.9545    1172.9337    2504.1466    151.50143    -452.0828   -646.64346   -4054.0745 
26550000    107.30104   -4550.9095   -4366.9992   -4550.9095            0    2745.7796    17.941286    23.233349    21.953546    9151.0317    3574.7175    3230.0149    1432.6064   -174.27224   -319.39759    421.83345   -4000.5518 
26551000    105.33175   -4536.5292   -4355.9942   -4536.5292            0    763.83603    17.965758    23.446396    21.959157    9249.9059    964.65609    75.469183    1251.3828    316.80787   -616.10027   -477.00263   -4252.9524 
26552000    107.07826   -4549.3467   -4365.8182   -4549.3467            0    2611.1359    17.874363     23.42191    21.899105    9168.0981    1827.0393    1977.6671    4028.7013    272.86597   -77.442065   -115.20681   -4016.6903 
26553000    106.70312   -4553.2624   -4370.3769   -4553.2624            0    1802.8483    17.964965    23.281891    21.931687    9173.1115    1919.5262    664.10869    2824.9099   -394.24913    177.23596    -79.04828   -4129.1911 
26554000    104.46641   -4534.3653   -4355.3135   -4534.3653            0    1494.2098    18.101104     23.15495    21.939523    9195.5156    649.43679    2089.6652    1743.5276    187.37431   -246.14405    -277.1344   -4154.9292 
26555000    110.10027   -4550.6619   -4361.9538   -4550.6619            0    1650.4529    17.901328    23.307465    22.059023    9203.7872    3167.3772     2107.802    -323.8204    371.05542   -72.054224   -371.55857   -4140.4172 
26556000    112.86028   -4541.8562   -4348.4175   -4541.8562            0    1797.9731    17.833086    23.459216    21.965913    9189.4442    2044.8113    2209.6819    1139.4263   -49.721287    70.318657   -425.16986   -4107.4556 
26557000    110.72797   -4551.9354   -4362.1514   -4551.9354            0    2610.8412    17.886051    23.340311    21.957783    9166.6278    2162.4948    2825.0189    2845.0099    226.20635    588.38103    503.63736   -4013.1189 
26558000    107.20329   -4543.9334   -4360.1906   -4543.9334            0    2528.7017    17.798348     23.22508    22.200365    9176.9215    3266.4901    2730.7646    1588.8503   -246.82431   -409.79388   -150.63358   -4021.7593 
26559000    108.63995   -4545.4516   -4359.2465   -4545.4516            0    2384.7435    17.840229    23.263618    22.065679    9157.8807    2699.5595    2587.6946    1866.9764   -680.10048   -485.02683   -609.63706   -4040.7442 
26560000    110.90756   -4567.4498    -4377.358   -4567.4498            0    2647.2636    17.964393    23.282469    21.885524    9153.7393    2806.2316    2343.8215    2791.7377   -398.95447    259.99626    332.90056   -4023.9539 
26561000    108.06435   -4549.9692   -4364.7506   -4549.9692            0    2409.7649    18.052219    23.296133    21.820158    9176.3994    2539.7648    2429.5104    2260.0196    210.95035   -418.61437    170.42588   -4042.2557 
26562000    109.41552   -4543.5309   -4355.9964   -4543.5309            0    2872.6014    17.895142    23.274798    21.949759    9142.2022    3590.0938    3292.8513    1734.8591    583.63892    49.786435    78.950763   -3972.9935 
26563000    112.72964   -4539.8386   -4346.6239   -4539.8386            0    1885.7516    17.907743    23.341063    22.055146    9218.7369    2010.4587     1802.438    1844.3581    64.134069   -282.76642    420.45404   -4093.0925 
26564000    108.10193   -4548.0444   -4362.7614   -4548.0444            0    1960.1038    17.849147    23.319458    22.082229      9191.34    1705.9127    2189.4356    1984.9629     182.3871    94.051385    312.91715   -4100.0168 
26565000    104.20864   -4552.6813   -4374.0713   -4552.6813            0    3139.9968    17.958881     23.20757    21.863999    9112.5207    2475.6952    4044.0461    2900.2491   -289.39761    264.36057    384.84379   -3956.7759 
26566000    111.06461   -4543.5107   -4353.1497   -4543.5107            0    1609.4913    18.000119    23.358104    21.887325    9202.4966    1170.0124    1535.3102    2123.1513     63.09234    16.379651   -55.750985   -4137.1416 
26567000    104.91292   -4556.9669   -4377.1498   -4556.9669            0    1350.4994     17.93007    23.374381    21.970355    9207.8697     1631.518    1197.3072    1222.6731   -230.41961   -396.13353   -88.510392   -4195.7948 
26568000    103.63878   -4541.3814   -4363.7481   -4541.3814            0    1206.5335     17.96811    23.241472    22.048628    9207.6246    1314.9551    1670.2997    634.34577    171.10195   -90.426048    199.55697   -4201.7302 
26569000    101.78229   -4554.6335   -4380.1822   -4554.6335            0    1387.0275    17.871705    23.417918    21.997015    9206.1492    1155.5171    1216.1454      1789.42   -609.57139   -195.02411   -202.41991   -4193.9567 
26570000    108.52786   -4550.1985   -4364.1855   -4550.1985            0     1697.407     17.95483    23.328829    21.954389    9195.9286     1288.284    1877.7212    1926.2156   -288.17117    1178.9033    8.5822542   -4136.5408 
26571000    110.21428   -4550.1926   -4361.2891   -4550.1926            0    1738.3128    17.845707    23.354544    21.977786    9159.8655    1806.9523    1164.3654    2243.6208   -128.31259    -385.4799    167.56418   -4129.0727 
26572000    113.17674   -4532.1182   -4338.1371   -4532.1182            0    2818.5971    17.838652    23.285587    21.997577    9137.4303    2667.8659    3005.8482    2782.0771   -38.823444    94.990081   -238.95709   -3962.5307 
26573000    103.16664   -4554.6803   -4377.8562   -4554.6803            0    1705.9546     17.94512    23.378737     21.91902    9195.7795    378.21383    2085.6726    2653.9773    135.73628   -158.51643    217.40616   -4149.0689 
26574000     107.6192   -4551.9947   -4367.5391   -4551.9947            0    2123.3541    17.854012    23.524482    21.855693    9179.5304     2189.002    1229.3348    2951.7254   -269.20612   -260.36604    328.24932   -4083.2771 
26575000    111.24554   -4556.1678   -4365.4968   -4556.1678            0    2165.9059    18.065666    23.249164    21.916349    9205.1218    1187.9699    2794.7296    2515.0182    417.22695   -205.04289    675.61452   -4074.7299 
26576000    109.21305   -4551.4217   -4364.2343   -4551.4217            0    2416.4771    17.975333    23.159861     22.00116    9159.2196    2686.4725    3182.7207    1380.2381    77.609822    136.13632   -39.677591   -4041.4465 
26577000    105.25643   -4552.0942   -4371.6883   -4552.0942            0    1328.5872    17.936589    23.329817    22.011804    9211.0006    1222.6643    927.92753    1835.1698   -574.89457   -103.46419   -177.78849   -4193.2152 
26578000    115.55625   -4541.5874   -4343.5279   -4541.5874            0     1576.615    17.806506    23.613767     21.91379    9214.2817    1377.7096    948.91328    2403.2221   -185.48954    180.01474     323.3326   -4131.6611 
26579000    105.71566   -4546.9595   -4365.7665   -4546.9595            0    1763.5954    17.898447    23.280253    22.104691    9210.5908    1812.3245    2835.9833    642.47854   -740.36876   -539.19709   -286.55414   -4128.8679 
26580000    110.93229   -4539.0928   -4348.9586   -4539.0928            0     1581.356    17.960734    23.394992    21.951929    9224.0082    2559.7465    324.85391    1859.4676   -152.32775     488.0678    125.30182   -4136.2303 
26581000    107.25257   -4545.4275   -4361.6002   -4545.4275            0     1423.187    18.044155    23.273856    21.887196    9191.6826    1286.7717     1254.778    1728.0114   -347.04669   -280.04275   -123.29988   -4170.8202 
26582000    108.87341   -4560.8764   -4374.2711   -4560.8764            0    1635.3504    18.023489    23.219943    21.960942    9190.7509    984.74078     1654.352    2266.9585    245.70579   -35.492733    287.55611   -4155.0726 
26583000    106.06897   -4553.6465   -4371.8479   -4553.6465            0    2384.3882    17.899238    23.371085    21.887108    9155.9161    2691.6697    2381.8277    2079.6672    28.631798   -68.030151   -227.05635   -4053.4614 
26584000    111.62737   -4536.3701   -4345.0446   -4536.3701            0    1898.4205    17.992678    23.321877     21.89326    9186.9161    2027.1638    1135.4215    2532.6761   -70.729932   -507.59315   -100.09799   -4090.6909 
26585000    111.04253   -4555.6258   -4365.3027   -4555.6258            0    1093.0197    18.101102    23.312178    21.875406    9230.8991    688.00823    773.09897    1817.9518   -582.51304   -100.77108     406.6353   -4218.1569 
26586000    107.67789   -4546.3599   -4361.8037   -4546.3599            0    2892.9301    18.012638    23.148198    21.908589    9135.0079    3457.5546    2751.2714    2469.9641    618.07812   -368.41836   -509.84846   -3976.3939 
26587000    105.68619   -4548.9428   -4367.8003   -4548.9428            0    2836.3173    17.942083    23.345952    21.864809     9158.622    2626.7372    3295.4713    2586.7435   -285.96782   -113.53822     97.00812   -3988.9559 
26588000    111.90942   -4541.3175   -4349.5086   -4541.3175            0    2491.3053    17.998768    23.350143    21.822731    9171.5223     2097.957    2382.9677    2992.9911    -160.3626   -574.36957   -224.73503   -4016.2785 
26589000     102.0759   -4549.9491   -4374.9945   -4549.9491            0    2304.8402    18.040642    23.317135     21.76801    9156.8462    2564.3817    2490.4433    1859.6956   -736.23076   -184.69974   -77.629268   -4067.1987 
26590000    105.88258   -4542.8676   -4361.3885   -4542.8676            0    2288.3096    18.150563    23.223603    21.761635    9172.9964    1521.6833    3155.3149    2187.9308   -226.15715   -714.16738    386.79026   -4055.2613 
26591000     106.8295   -4559.0338   -4375.9317   -4559.0338            0    2251.6603     17.96377    23.370046    21.800884    9152.3192    2382.2274    1495.3754    2877.3781    433.67223   -388.39219   -346.75149   -4075.3864 
26592000     112.1085   -4543.9842    -4351.834   -4543.9842            0    1702.3558    17.957529     23.38969     21.91642    9205.3576    833.63413    2613.0564    1660.3768   -504.06444   -99.001675   -67.064316   -4123.2916 
26593000    102.89285   -4547.6612   -4371.3063   -4547.6612            0     1802.103    17.954972    23.366989    21.905852    9190.6799    2956.2332    646.00774    1804.0681   -203.56256    102.79233   -148.67829   -4129.7585 
26594000    104.31245   -4544.2557   -4365.4677   -4544.2557            0     1560.656    18.070485    23.437574    21.726061    9201.6023    749.41024    1457.9639    2474.5939   -208.12275   -160.59981     370.1672    -4156.034 
26595000    106.56462   -4551.5613   -4368.9132   -4551.5613            0    2233.6129    17.938378    23.403134    21.794872    9149.7981    1131.6272    2203.1549    3366.0565   -771.97446   -108.68747    -509.8205   -4070.8589 
26596000    110.64483   -4543.9809   -4354.3394   -4543.9809            0    2544.1551    18.004322    23.386043    21.749519    9157.6316    1806.8243    2084.0934    3741.5475    391.92239    170.70133    235.64754   -4014.5556 
26597000    113.66103    -4554.987   -4360.1759    -4554.987            0     2312.582    18.033552    23.346061    21.747301    9155.8836    1470.4197    1836.0374    3631.2888   -320.06171   -430.82247    16.097869   -4051.3787 
26598000    101.83421   -4551.3147   -4376.7743   -4551.3147            0    2214.9926    17.989516    23.365735    21.775964    9153.2712    2241.4233    3044.3971    1359.1573   -259.04251   -95.782783   -294.31969   -4081.0926 
26599000    112.22056   -4552.4141   -4360.0719   -4552.4141            0    2536.0548    17.952432    23.334685    21.836175     9147.487    3057.3235    2451.7843    2099.0567    2.2588918   -491.45297    210.49704   -4021.7452 
26600000    104.36093   -4550.2997   -4371.4286   -4550.2997            0    2398.7218    18.080098    23.099327    21.932682    9159.9241    2393.3702    3105.9484    1696.8467   -381.44877   -817.38935    293.04101    -4050.988 
26601000    106.28147   -4557.8093   -4375.6465   -4557.8093            0    2075.1706    17.953005    23.358335    21.921919     9193.007    2551.5224    2463.4168    1210.5727   -446.87894    121.73849   -183.36962   -4097.4272 
26602000     109.2493   -4541.7225   -4354.4729   -4541.7225            0    2165.8079    17.896303    23.498396    21.822655    9177.1772    1969.6016    1778.9745    2748.8476    932.91856   -197.08331   -63.312439   -4064.6018 
26603000    110.59417    -4547.225   -4357.6704    -4547.225            0    1530.1616    17.956016    23.420989    21.846887    9187.6573    1463.7308    2028.6562    1098.0976   -848.15135    17.473094   -397.94808   -4152.6401 
26604000    105.56182   -4543.5445   -4362.6151   -4543.5445            0    2254.4832    18.015127    23.265507    21.840638    9154.0901    2260.3312    3375.4926    1127.6257    104.71358   -344.85217    252.32857   -4061.6348 
26605000    113.32058   -4547.9906    -4353.763   -4547.9906            0    2078.1113    18.074458    23.326624    21.804766    9193.2399    1272.2418    1633.1869    3328.9053   -518.05587   -362.82796    459.80915   -4075.1423 
26606000    98.610781   -4541.5908   -4372.5753   -4541.5908            0    2533.1564    17.868059    23.433799    21.867765    9156.3946    2620.9634    2570.8792    2407.6264    77.148939    341.13075   -253.20213   -4034.3061 
26607000    102.73456   -4549.9366   -4373.8531   -4549.9366            0    1687.3331    17.885619    23.422933    21.942399    9192.4096    1352.5066    2397.3533    1312.1393    145.42871    138.41715    210.17473   -4147.6461 
26608000    103.82581   -4542.1726   -4364.2188   -4542.1726            0     1720.699    17.993783    23.312182    21.951017    9207.8886    159.45811    2130.8369    2871.8021    -297.0882   -206.47333     101.2167   -4133.1502 
26609000    110.75989   -4552.7857    -4362.947   -4552.7857            0    1944.8478     17.90966    23.306683    22.008113    9186.5113     2266.914    1371.6609    2195.9684    361.04246    45.078412   -343.86527   -4102.3844 
26610000    104.87358   -4545.5061   -4365.7564   -4545.5061            0    2383.0411     17.83846    23.454717    21.860797    9146.4709    3248.3385    2001.7527    1899.0322     136.7732   -28.861111    239.59682    -4047.878 
26611000    110.90354   -4549.6826   -4359.5978   -4549.6826            0    1801.5538    17.924571    23.505543    21.798969    9184.4891    2594.5466    861.17101    1948.9437    660.93937   -103.86717    31.664385   -4118.2862 
26612000    108.34576   -4548.4097   -4362.7088   -4548.4097            0    1796.9645    18.033029    23.145662    22.024162    9192.5858    917.26619     2956.206    1517.4214   -775.65078   -810.47566    239.38169   -4121.7997 
26613000     105.9984   -4546.5438   -4364.8662   -4546.5438            0    1642.4357    17.938303    23.154871    22.077189    9169.9608    1545.9457    1873.0726    1508.2887    156.25608    382.82471    167.22967   -4145.2159 
26614000    112.60294    -4537.797   -4344.7994    -4537.797            0     3193.734     17.78756    23.475591    21.877476     9135.454    3749.0992    2516.0154    3316.0874   -510.24658    154.90507   -152.42401   -3919.2943 
26615000    113.88655   -4546.2462   -4351.0486   -4546.2462            0    2880.1169    17.840033    23.315521    21.944089    9127.6363    4095.9007    2753.0967    1791.3534    110.01088    502.14368    -265.9075   -3967.6554 
26616000    103.41859   -4546.6691   -4369.4132   -4546.6691            0    2613.2977    17.899206    23.202039    22.004033    9138.2324    3556.7498    2455.5089    1827.6344   -380.42423    206.76974    198.33784   -4021.1344 
26617000    102.86218   -4553.6503    -4377.348   -4553.6503            0    2094.3445    18.024829    23.185067    21.918388     9159.845    1067.6816    3502.5223    1712.8295   -42.021797    183.71663   -70.479853   -4097.5709 
26618000    108.72395   -4556.9742   -4370.6251   -4556.9742            0    2715.7943    18.047121    23.323105     21.69492    9131.7149    1540.0493     3238.717    3368.6165    100.62217    181.56262    132.60792   -4008.9445 
26619000    111.05346   -4546.3623   -4356.0205   -4546.3623            0    1636.8675    17.922253    23.385929    21.881488     9171.156    939.13818    1445.4835    2525.9807    316.53366    304.22744     132.8047   -4137.0863 
26620000    103.86879   -4549.0875     -4371.06   -4549.0875            0    2283.1455    17.939696     23.23113    21.949322    9147.5867    1509.1807    3339.2682    2000.9877   -127.30215   -276.94601    233.23041   -4066.4697 
26621000    108.89712   -4556.4617   -4369.8157   -4556.4617            0    2761.0676    17.999133    23.172492    21.919098    9142.1217    3206.6679    3182.8794    1893.6555   -396.51335    -2.096955    143.20295   -4001.6868 
26622000    110.85159   -4543.9707   -4353.9748   -4543.9707            0    942.95833    17.910806    23.416514    22.012077    9232.0553    1313.9922    552.91542    961.96741    -151.9897   -183.62697    363.03019   -4227.0149 
26623000    100.99078   -4548.5404   -4375.4457   -4548.5404            0    1982.8097    17.807882    23.531725    21.875057    9166.7469    2302.2621     1549.481     2096.686   -108.00859   -277.89067   -67.019638   -4110.3686 
26624000    108.84686   -4539.3597   -4352.7999   -4539.3597            0     2118.786    17.782283    23.461317    21.957873    9160.7322    2024.3611    2482.2379    1849.7591    185.06566   -321.19202   -46.719788   -4069.7303 
26625000    111.22737   -4539.8863   -4349.2464   -4539.8863            0     2140.454    17.957756    23.239778    21.942031    9157.1611    2977.4116    1301.9866    2141.9637     453.2578     438.0472    181.87925   -4063.3934 
26626000    106.29037    -4544.754   -4362.5759    -4544.754            0    2425.9705    18.028024    23.265601    21.796813    9142.2984    1031.3466    2961.9747    3284.5902   -902.57424     94.92347    125.91542   -4039.1187 
26627000    107.87461   -4542.7342   -4357.8409   -4542.7342            0    2535.4689    17.977698    23.365943    21.791696    9153.9474     2049.611    2645.3148     2911.481   -387.21521   -353.83836   -48.011282   -4019.3534 
26628000    110.86904   -4550.7145   -4360.6888   -4550.7145            0    1717.2072    17.834288    23.475876     21.88388     9162.245    2333.5154    719.75849    2098.3477   -742.49962    176.87494    162.97628   -4131.2322 
26629000    112.18121   -4544.7068    -4352.432   -4544.7068            0    2209.3435    17.968644    23.260118    21.932581    9166.7832    2709.1296    2732.9613    1185.9395    390.38348   -317.86871   -497.41757    -4057.069 
26630000    106.27636   -4553.1453   -4370.9913   -4553.1453            0    2415.4004    18.021619    23.184466    21.879259    9141.6273    2461.0044    2502.3864    2282.8105    -113.4045    9.0149287   -23.600738    -4048.967 
26631000    108.25757   -4561.3812   -4375.8314   -4561.3812            0    2226.2935    17.866523    23.319909    21.989275    9161.7368    2423.1999    2326.0768    1929.6039   -507.14257    1.8297129   -63.454586   -4078.3662 
26632000    106.90946   -4533.5586   -4350.3195   -4533.5586            0    2879.9068    17.876218    23.408407     21.85281    9144.3912    3797.7751    2533.4917    2308.4535   -521.31494     -54.9526   -449.36103   -3966.2506 
26633000    102.36624   -4546.6784   -4371.2261   -4546.6784            0    1494.9857    18.136466    23.278644    21.832441    9217.4891     1548.614    726.24092    2210.1023    155.94988    71.617792    12.200558   -4170.2588 
26634000    105.92009   -4559.0653   -4377.5219   -4559.0653            0    1640.1226    18.048013    23.192634    21.954199    9189.6097    1301.8275    1324.7443    2293.7962   -233.62298   -215.36023    475.99711   -4157.7109 
26635000    106.08049   -4561.3358   -4379.5175   -4561.3358            0     1836.818    17.943301    23.283564    21.962269    9175.4844     2454.173    894.83494    2161.4462     699.0964    101.84887    485.00457   -4133.7237 
26636000    107.83632   -4547.1811   -4362.3533   -4547.1811            0    1817.1856    17.828371    23.495636    21.900966    9174.0719    2434.9487    1471.5906    1545.0175    461.43837   -521.21878    -338.1806    -4119.224 
26637000    108.13067   -4558.9632    -4373.631   -4558.9632            0    1411.0379    17.961245    23.432266     21.88706    9211.6653    1588.1716    1683.4804    961.46163   -388.75428    57.185145    187.84916   -4184.0683 
26638000    109.09347   -4550.6129   -4363.6305   -4550.6129            0    2133.7506    18.101657    23.041006    22.033059    9189.5572     1294.225      3482.12    1624.9067    260.35613    84.175375   -66.767453   -4077.6646 
26639000    101.02598   -4556.4934   -4383.3383   -4556.4934            0    1587.1082    17.984299    23.243222    21.941151    9171.6876    1403.0422    1689.2989    1668.9835    354.99388     367.0818   -376.39115   -4171.0473 
26640000    107.66796   -4546.2991   -4361.7599   -4546.2991            0     2944.141     17.84504    23.428381    21.772714     9102.745    2362.9869    2444.9636    4024.4724   -108.01605   -340.58438    46.677815   -3970.9128 
26641000    103.11134   -4553.5763    -4376.847   -4553.5763            0    1794.7247    17.946344      23.2741    21.958677    9171.8098    3166.5999    1178.5245    1039.0498   -747.23347    212.76034   -209.92311    -4136.782 
26642000    101.38894   -4543.9849   -4370.2077   -4543.9849            0    2182.1607    18.006828    23.197697    21.941678    9165.4105    2897.8775    2205.0286    1443.5761   -83.954328   -560.69167    36.841783   -4078.5224 
26643000    107.42527   -4554.1208   -4369.9975   -4554.1208            0    2349.7954    18.009006    23.147862    21.943612    9147.6331    2798.8505    1662.8742    2587.6615   -14.947142   -119.39516   -83.765415    -4056.514 
26644000    107.56693   -4549.6151    -4365.249   -4549.6151            0     2656.942      17.8985    23.289096    21.887033    9123.3881     2643.564    2010.0893    3317.1727    535.62872   -355.50169   -619.79083   -4011.7289 
26645000    108.15951   -4537.3659   -4351.9842   -4537.3659            0    2553.7205    17.892238    23.335944    21.906417    9146.6358       2824.9    1291.1571    3545.1044   -298.21049   -546.49144    385.20611   -4011.3325 
26646000    103.40876    -4546.822   -4369.5829    -4546.822            0    1812.6574    17.984832    23.400646    21.807945    9178.0194     1589.768    1337.9451    2510.2591     360.0903    561.89596    53.646629   -4126.9551 
26647000    98.924164   -4545.3198   -4375.7672   -4545.3198            0    2179.7256    18.012256    23.441778    21.696668    9161.1864    376.73832    2432.4741    3729.9645    258.66606   -148.99925   -466.19845   -4084.5417 
26648000    98.477007    -4548.275   -4379.4888    -4548.275            0    1388.8344    17.981272     23.32587    21.886407      9179.79    1489.8111    2150.6397    526.05249    727.23245    358.87043   -136.11483   -4193.5546 
26649000    114.85716   -4542.6339   -4345.7727   -4542.6339            0    2217.1638    18.123425    23.140181    21.824116    9152.5829    1394.2743    3119.9127    2137.3044    375.76618    372.62444    233.42022   -4049.8233 
26650000    103.92192    -4545.638   -4367.5194    -4545.638            0    1965.2375    18.026581    23.310753    21.813032    9166.1233    2431.3005    2123.7507    1340.6614   -245.61574   -139.75332   -71.542835   -4104.8093 
26651000    109.44593      -4541.2   -4353.6134      -4541.2            0    2090.2813    17.996846    23.295058    21.846492    9158.8699    1423.8019    3048.9924    1798.0497    126.34143    247.89203    -79.64058   -4074.4088 
26652000    102.90724   -4552.5715    -4376.192   -4552.5715            0     940.1681    17.953882    23.457094    21.875374    9212.7241    832.81809    1646.4572    341.22901   -397.34381    345.49894   -31.762265   -4249.8728 
26653000    111.72375   -4549.1834   -4357.6927   -4549.1834            0    2948.1556    18.063139    23.104647    21.858041    9122.2885     1873.519    3019.4324    3951.5153    -481.6224   -471.29544    358.68305   -3965.4724 
26654000    108.10787   -4559.0823   -4373.7891   -4559.0823            0    1346.8434    18.079537    23.239648    21.878528     9192.528    913.21633     1406.527    1720.7867    373.64968    187.95665    114.43369   -4193.2264 
26655000    103.08513   -4543.0079   -4366.3235   -4543.0079            0     1260.774    18.048203    23.379613    21.841016     9216.035    1300.7082    454.86925    2026.7446   -186.54413   -760.14634    -284.2805   -4196.8674 
26656000    101.61564   -4558.5392   -4384.3735   -4558.5392            0    2220.0012    17.942243    23.308293    21.870233     9146.198    1388.5061    2778.1333    2493.3641   -79.344296   -703.38516    72.817854   -4088.2521 
26657000    102.01435   -4544.8138   -4369.9647   -4544.8138            0    2356.0774    17.922555     23.40702    21.823022    9155.0548    1789.6177    2013.5718    3265.0428    98.966906    401.11874   -191.70714   -4055.3881 
26658000    103.51249     -4547.51   -4370.0932     -4547.51            0    1822.0302    18.107625    23.251533    21.768448    9165.1704    1608.8705    2415.7615    1441.4586     454.6135    159.95505    385.01034   -4126.5522 
26659000    105.66223    -4549.344   -4368.2425    -4549.344            0    1389.1335    17.997872    23.321042    21.913889    9197.8974    1169.6326    1130.2985    1867.4694   -551.58104    291.57414   -31.619539   -4181.9015 
26660000    112.32015   -4545.3408   -4352.8279   -4545.3408            0    1975.5825    17.870307    23.395628    21.963244    9182.5478    2033.8163     1385.874    2507.0573   -715.31879   -558.08145    360.50531   -4088.2617 
26661000    101.08037   -4550.8085   -4377.5602   -4550.8085            0    1299.3934    17.830423    23.510376    21.882161    9173.0012    1456.6527     1071.973    1369.5546    305.68831    518.53051   -52.799018   -4203.7289 
26662000    100.34223   -4542.3347   -4370.3516   -4542.3347            0    1141.7114    18.031988    23.454896    21.779788    9211.5089    762.56717    325.53636    2337.0306    777.75487   -139.91754   -635.35907   -4216.9736 
26663000     102.3034   -4541.0341   -4365.6895   -4541.0341            0     1543.596    18.009045    23.343022    21.883591     9199.545    1362.1528    1749.3619    1519.2733    311.53955     100.9918     195.3111   -4158.5915 
26664000    106.54842   -4550.8042   -4368.1838   -4550.8042            0    2753.7137    17.931653    23.307879    21.864046    9138.0515    2404.8636    2487.2702    3369.0074   -672.10843  -0.92986757    185.84288   -4001.1989 
26665000    105.41361   -4544.8173    -4364.142   -4544.8173            0    2483.3424    17.879972    23.351308    21.941415    9160.9958    2728.9308    2992.4471    1728.6493    223.94892    107.34058   -593.09708   -4032.3582 
26666000    108.85409   -4547.3001   -4360.7279   -4547.3001            0    2083.5231    18.009933    23.253953    21.927592    9183.3226    1735.4628    2285.7169    2229.3895   -171.75287    -390.4641    347.86151    -4081.683 
26667000    106.15442   -4556.7128   -4374.7678   -4556.7128            0    2632.9121    18.025992    23.260023    21.795358    9138.4665    2417.9771     2683.138    2797.6212   -441.65593   -511.34741   -21.752657    -4023.866 
26668000    111.55155   -4539.2777   -4348.0821   -4539.2777            0    1219.6615     17.87988     23.45829    21.921247    9194.4596    940.36895    768.91013    1949.7053    301.94588   -263.51524   -167.17615   -4184.5356 
26669000    108.42454    -4536.142    -4350.306    -4536.142            0    1807.6386    17.820837    23.322679    22.075757    9175.3392    2580.8053    1238.6794    1603.4311    318.31127   -93.019967    243.45035   -4108.4206 
26670000    104.56979   -4543.3778   -4364.1488   -4543.3778            0    2750.6887    17.984199    23.231056    21.862797    9134.1005    3108.0083    2641.8152    2502.2426    24.535034   -70.987383    251.50301   -3997.7254 
26671000    104.43054    -4542.444   -4363.4536    -4542.444            0    2267.1044    17.992891    23.171387    21.959763    9155.4699    1152.7011     2642.996    3005.6163   -561.82787   -59.736516    143.51955   -4060.7427 
26672000    111.50852   -4559.4321   -4368.3103   -4559.4321            0     2179.791    17.856655    23.359253    21.974496    9165.9604    3026.5901     866.9718     2645.811   -216.49625    414.21022    71.223892   -4076.9242 
26673000    109.03794   -4554.7704   -4367.8831   -4554.7704            0    1712.4494    17.884465    23.388907    21.958092    9185.0281    1742.2782    1033.3414    2361.7286    273.86606    197.63322     17.86886   -4138.4933 
26674000    103.82332   -4549.0823   -4371.1327   -4549.0823            0    2073.8507    17.977641    23.164863    22.058615    9186.3013    1697.6961    2436.7577    2087.0983   -414.06059     738.3884    616.35452   -4093.2932 
26675000    110.27389   -4547.8588   -4358.8531   -4547.8588            0    1696.2708    18.002911    23.178782    22.054187    9202.8937    1260.6743    2733.7464    1094.3916   -85.343386   -734.10436    44.411886   -4131.1885 
26676000    106.21525    -4553.734   -4371.6847    -4553.734            0     1603.359    17.836864    23.518696    21.893605    9184.3624    2176.2177    1531.2838    1102.5754   -116.26798    67.666448    81.253817   -4156.9236 
26677000    108.19185   -4537.1045   -4351.6674   -4537.1045            0    2165.6872    17.859443    23.523797     21.81845    9166.4087    2406.1255     1208.045    2882.8911    779.99943   -380.95565   -214.99339   -4062.1525 
26678000    105.57263   -4539.0848   -4358.1369   -4539.0848            0     1611.536    17.928737    23.320321     22.09329    9237.2907    1717.9585    1330.3432    1786.3062   -28.689565   -682.83427    145.70149   -4141.0366 
26679000     107.9051   -4548.7845   -4363.8388   -4548.7845            0    2685.4021     17.83591    23.149113    22.122601    9134.1006    2278.7116    2598.0023    3179.4924    -285.9605    131.50348   -14.383246   -4006.1124 
26680000    109.15662   -4553.2144   -4366.1237   -4553.2144            0    2080.1289    17.863587    23.227062    22.114896    9175.8825     2563.685    2739.3789    937.32279   -466.41676   -78.120531   -105.28224   -4087.7591 
26681000    108.75366   -4547.3555   -4360.9555   -4547.3555            0    1068.3105    17.840566    23.552698    21.986471    9238.5718    1505.9951    678.41931    1020.5172    66.125796    244.93669   -22.134728   -4217.0166 
26682000    111.31091   -4542.4142   -4351.6312   -4542.4142            0    1981.1772    17.907026    23.291307    21.968752    9162.6838    1257.2437    2032.4122    2653.8757    589.54186   -733.72211    533.21695   -4086.8897 
26683000    105.14089   -4552.3756   -4372.1677   -4552.3756            0    1801.8237    17.850696    23.276002    22.131064    9195.2989    2225.8555    1373.2873    1806.3283    -666.7629    609.66453   -415.88646    -4130.536 
26684000     104.7946   -4553.3956   -4373.7813   -4553.3956            0    2188.6995    17.890235    23.358505    21.940315    9168.6198    2257.3046    2162.5272    2146.2666   -35.187969   -619.55754    6.3492414   -4081.1195 
26685000    108.24112   -4539.4481   -4353.9266   -4539.4481            0     2266.515    17.841449    23.425769    21.921616    9162.1321     1906.947    2915.6027    1976.9954    244.94741    351.75348    423.17298   -4051.0742 
26686000    111.97991   -4546.7478   -4354.8181   -4546.7478            0    2436.1648    17.834376    23.469402     21.89508    9164.4519    2188.0889    2173.1589    2947.2467    140.93244    163.46067   -307.55029   -4029.2146 
26687000    99.448734   -4541.6357   -4371.1839   -4541.6357            0      1889.01    17.979137    23.294158    21.959386    9196.7852    1056.1177    2621.2234    1989.6889   -374.93532    585.13709    783.18626   -4117.8192 
26688000    108.51242   -4535.1713   -4349.1848   -4535.1713            0    1876.0362    18.064812    23.014125    22.116678    9194.9172    1520.9214    1968.1801    2139.0071    98.701561    200.52551    78.267299   -4097.6112 
26689000    104.19976    -4554.342   -4375.7472    -4554.342            0    2208.3078    17.923693    23.302432    21.955714    9170.1476    1896.9187     2978.494    1749.5107    365.11358   -127.77927    106.44127   -4080.4143 
26690000    109.86413   -4534.0422   -4345.7389   -4534.0422            0    1439.7998    17.700738    23.617167    22.011527    9201.7271     2667.133    1371.9819    280.28438    96.173143    318.89654    1.0612069    -4152.521 
26691000    110.30147    -4550.675    -4361.622    -4550.675            0    2384.4077    17.957845    23.129874    22.042303    9155.5501    2119.1312    2874.0461    2160.0459    513.43923   -320.64568    987.99298   -4043.2456 
26692000    111.43458   -4548.3032   -4357.3082   -4548.3032            0    2207.7397    17.978042    23.159776    21.989086    9155.5395    2734.0163    1766.9357    2122.2671    -113.7313   -525.07488    53.489763   -4062.5216 
26693000    104.94617   -4540.9201   -4361.0459   -4540.9201            0    1881.7578    17.854423    23.374733    22.031295    9194.5932    3039.2083    1240.4301    1365.6349   -451.82628    234.60196    166.28568    -4108.714 
26694000    109.48809   -4540.8317   -4353.1728   -4540.8317            0    2618.3161    17.887253    23.444514    21.845352    9161.0221    2746.5125    3012.3139    2096.1218   -23.354828   -388.02835    428.52152    -4003.355 
26695000     110.3612   -4553.7915   -4364.6361   -4553.7915            0    2565.6152    17.934249    23.277523    21.951942     9164.165    2335.5853    3432.8374     1928.423    157.91702     343.8673    7.6291433   -4021.7418 
26696000    104.88307   -4544.3706   -4364.6046   -4544.3706            0    1687.0681    18.011904    23.170451     22.05727     9205.468    828.31558    3029.1888    1203.6998    275.66531   -371.15418   -219.05068   -4138.1118 
26697000    105.56985   -4544.0688   -4363.1257   -4544.0688            0     1182.963    17.956942    23.335394    22.006408     9221.396    1230.3649    652.80489    1665.7192   -212.20144    422.46637    354.67305   -4204.0354 
26698000    109.34332   -4548.1421   -4360.7314   -4548.1421            0    1781.8015    17.826661    23.537147       21.873    9177.6643    1824.7549     2010.278    1510.3716    848.25377   -213.56342    177.11316   -4122.2429 
26699000    114.18372   -4549.2136   -4353.5067   -4549.2136            0    1096.5982    17.918641    23.437274    21.969793    9226.5242    1072.7049    729.61904    1487.4707    145.27181   -269.09963    34.411234   -4205.9491 
26700000    105.25468   -4547.7813   -4367.3784   -4547.7813            0    2125.5536    17.923018    23.293956    22.012133     9190.021    2105.7624    2089.7891    2181.1094   -666.66733    335.99374    162.27437   -4082.4967 
26701000    107.33026   -4548.5706   -4364.6102   -4548.5706            0    1352.0722    18.001252    23.456498    21.791218     9201.262    473.21086    312.93228    3270.0735   -129.70767    230.70384    169.59956   -4183.1743 
26702000    109.41652   -4546.6924   -4359.1563   -4546.6924            0     2545.647    17.879823    23.400884    21.879773    9154.5773    2567.1308     1873.697    3196.1133   -1004.1193   -126.94043   -418.89248   -4019.2866 
26703000    110.99721   -4564.1387   -4373.8933   -4564.1387            0     2384.556    17.869866    23.381522    21.925047    9160.8257    2634.9868    1737.6647    2781.0165    98.731661   -197.77402    189.02176   -4055.3136 
26704000    104.56271   -4549.1841   -4369.9672   -4549.1841            0    2237.1204    17.846524    23.201872    22.135549    9165.7276    2195.9613    2096.8564    2418.5435    50.062575   -54.648805    667.89981   -4070.9252 
26705000     102.0925   -4553.9241    -4378.941   -4553.9241            0    1199.2196    17.988201    23.230686    22.036759    9208.6821    1404.2087    1301.5733    891.87682   -370.69081   -608.98644    591.56941   -4217.8868 
26706000    105.75967   -4551.4916   -4370.2231   -4551.4916            0    2046.5323    17.881749    23.446027    21.837342    9155.4355     2019.183    2232.2217    1888.1921    -595.3105    -153.5897   -100.91303   -4096.9647 
26707000    104.28763   -4545.3495   -4366.6041   -4545.3495            0    1660.9138     17.98183    23.324877    21.912578    9190.6605    892.56158    2366.6202    1723.5596   -170.70381    238.47836    106.52821   -4143.9813 
26708000    109.45244   -4544.8745   -4357.2768   -4544.8745            0    2135.5126    18.034778    23.356446    21.734649    9155.2494    2804.6709    996.46003    2605.4069   -56.511812   -424.86585    148.29978   -4072.1433 
26709000    105.72361   -4546.6372   -4365.4305   -4546.6372            0    1538.1834    18.006648    23.278566    21.958227     9204.207    2271.1781    2120.0666    223.30553    57.264048   -275.31726   -171.72794   -4158.9542 
26710000    111.53338   -4542.0491   -4350.8847   -4542.0491            0    1802.6695      17.9551    23.393638    21.876062    9188.7144    1674.6297    1843.3642    1890.0147   -140.37286   -582.17891    268.04996   -4109.3126 
26711000    105.55667   -4548.2817   -4367.3612   -4548.2817            0    2204.1454    17.934122    23.446332    21.742016     9142.287    2024.2167    1856.1048    2732.1146   -86.895935   -277.84251    -174.5544   -4073.4806 
26712000    107.22501   -4547.6795   -4363.8995   -4547.6795            0    2159.7639    18.009922    23.405446    21.742022    9164.9201    1315.2705    1793.8093    3370.2118   -220.66571   -453.42703    248.40703   -4075.2234 
26713000     113.6834   -4550.9119   -4356.0624   -4550.9119            0    1958.4154    18.086296    23.151141    21.923073     9179.594    280.44865    2014.4084    3580.3892   -63.714709    69.139407    381.18882   -4093.8796 
26714000    106.58271   -4549.5744   -4366.8952   -4549.5744            0    1962.5652    18.021044    23.026577    22.099744    9170.5752    1928.3464    1726.2559    2233.0934     771.8936    455.86792   -13.119363    -4104.415 
26715000     98.68124   -4552.9979   -4383.8616   -4552.9979            0    2836.9804    17.839847    23.341588    21.911736    9124.2737     3031.969    2445.2399    3033.7325   -690.24764    183.80375    25.530881   -4006.3498 
26716000    106.32783   -4552.9745   -4370.7322   -4552.9745            0      1177.58    17.915459    23.516401    21.871689    9214.6979    2316.2372    926.42527    290.07759   -529.13873    193.38679     179.0623   -4212.4809 
26717000    102.38797   -4549.4076   -4373.9182   -4549.4076            0    2063.5325    18.061638    23.182737    21.907772    9173.1834    1005.5529    2596.4584    2588.5862   -652.61046    223.88252   -271.55335   -4097.8557 
26718000    106.12236   -4543.1671    -4361.277   -4543.1671            0     2249.467    18.073002    23.175895    21.936696    9188.3609    2228.7074    2596.7266    1922.9669    513.77118   -343.48237   -279.34216   -4059.8421 
26719000    108.60036   -4545.8818   -4359.7445   -4545.8818            0    2092.8195    17.886933    23.371721    21.964902     9182.392    2144.6408    1531.4231    2602.3946    184.57921   -248.24405   -239.61664    -4079.483 
26720000    107.30581   -4558.0745    -4374.156   -4558.0745            0    3104.9586     17.88227    23.447838    21.779436    9132.1301     2907.024    3120.3626     3287.489   -330.78672   -35.836885    268.29042   -3960.6291 
26721000    108.54324    -4551.958   -4365.9186    -4551.958            0    1741.7685    18.031189    23.174463    21.986218    9187.2294    1669.6684    2812.8036    742.83351   -689.22392   -2.7989183   -365.41301   -4132.5454 
26722000     105.5341   -4553.2156   -4372.3337   -4553.2156            0    2180.7573    17.968623    23.166509    21.999422    9157.7052    2080.3384    2830.8854    1631.0482   -208.79258   -364.87679     291.8132   -4081.0811 
26723000    105.88124   -4550.4583   -4368.9814   -4550.4583            0    2113.5723    17.964388    23.336073    21.881359     9173.065    1975.4547    2266.1752    2099.0871    182.49666   -377.54081   -103.63398   -4086.2283 
26724000    104.20034   -4542.0945   -4363.4986   -4542.0945            0    1537.6526    17.876404    23.529152    21.811535    9174.2945    2898.3459    206.68436    1507.9275    194.60136    99.537512    33.249507   -4157.7643 
26725000    107.65788   -4557.2942   -4372.7723   -4557.2942            0    2050.3033    17.855429    23.365945    21.950747    9158.0487    2947.5125     1846.988    1356.4093    237.00577    255.31088    666.40068   -4098.9322 
26726000    108.08049   -4548.3447   -4363.0985   -4548.3447            0    2360.6422    18.005565    23.206974       21.922    9160.2103    2057.5206    3544.4538    1479.9522    581.34961    134.86501    24.167433   -4047.7349 
26727000    114.05727   -4536.0866   -4340.5963   -4536.0866            0    1420.1362    18.032766    23.335672    21.839134    9190.0543    1411.8945    1203.7368    1644.7772   -1015.8592    -188.9167     104.0138    -4150.259 
26728000    106.38814    -4534.619   -4352.2734    -4534.619            0    2760.8199    17.915916    23.319956    21.852603    9129.9818     2976.011    2987.0399    2319.4087   -73.555142   -74.405435    516.39838   -3984.6663 
26729000    106.70316   -4538.7713   -4355.8857   -4538.7713            0    2710.6634    17.842781    23.386741     21.91477    9144.6937    3381.2209    2252.3678    2498.4016   -304.63023   -353.59444   -261.36087   -3994.3754 
26730000    111.02847   -4540.0213   -4349.7223   -4540.0213            0    2520.7718    17.992667    23.211685    21.938668    9162.4679    2682.5283    2382.2872    2497.4998    374.98751   -284.30203   -569.01997   -4012.8837 
26731000     105.0212   -4538.5225   -4358.5197   -4538.5225            0    1371.7043    18.040431    23.247598    22.021164    9235.6031    1184.0008    647.68818    2283.4238    144.70995   -275.73191    231.85354   -4173.7624 
26732000    107.07193   -4547.9041   -4364.3865   -4547.9041            0    1450.6724    17.951258    23.327803    21.996893    9211.4936    1670.8933    427.21878    2253.9052   -1420.0097    121.79423     100.6318   -4169.5029 
26733000    105.64917   -4552.3787   -4371.2996   -4552.3787            0    1654.1966    17.870216    23.451262    21.937433    9193.5203    2330.4078    1155.7263    1476.4557     350.1264    198.30741    21.660908   -4149.5081 
26734000    112.06885   -4544.4228   -4352.3406   -4544.4228            0    2725.3669     17.84321    23.460832    21.873527    9156.6208    2612.2289    3294.8033    2269.0685   -350.71376    223.87461   -4.1973077   -3988.3953 
26735000    105.66844   -4554.9098   -4373.7977   -4554.9098            0    1404.8949    18.129502    23.169265    21.928252     9210.902    899.25232    1675.9518    1639.4807    73.693867    98.592419   -139.37968    -4185.076 
26736000     110.2116   -4555.0524   -4366.1535   -4555.0524            0    2133.8755    17.988321    23.286537    21.837582    9147.4506    1879.5624    2437.2709    2084.7931    502.28201   -291.59576   -209.74116   -4081.4814 
26737000    107.96587   -4550.3793   -4365.3295   -4550.3793            0     2598.459    17.831569    23.548075    21.763216    9138.3556    2269.8353    1024.9553    4500.5864   -670.14942    238.32067   -628.26384   -4019.0237 
26738000    112.44285   -4549.4609   -4356.7377   -4549.4609            0    2345.2165    17.956357    23.318536    21.893599    9167.1988     1943.217    1798.6616    3293.7708    206.26759    -167.7248    472.69607   -4043.1959 
26739000    102.32809   -4537.0376   -4361.6507   -4537.0376            0    1431.5257       18.047    23.129886    22.043395    9201.4648      1265.84    1201.6602    1827.0768   -491.76067    205.65767     138.0415   -4169.5487 
26740000    108.86933   -4549.5256   -4362.9273   -4549.5256            0     2053.514    17.894281     23.32761    22.002886    9184.6822    2699.2512    1099.9831    2361.3078    -74.23179    422.87469    168.19884   -4087.8608 
26741000    103.25972    -4550.909   -4373.9254    -4550.909            0    1580.5873    17.862809    23.420064    21.942733    9179.7013    1807.5318    1370.9016    1563.3286    128.34227    258.41508   -183.68226   -4162.3218 
26742000    110.98979   -4553.2221   -4362.9894   -4553.2221            0    2574.9274    17.876431    23.414577    21.868428    9153.4478    2730.1033     2074.224    2920.4549    158.62547    138.89222    363.55469   -4019.2529 
26743000    114.43989   -4547.0059   -4350.8598   -4547.0059            0    2296.5518    17.912672    23.284788    21.926598    9145.4256    1996.0371    2592.2851    2301.3333   -753.30959   -78.898324    453.25039   -4044.5534 
26744000    109.00834   -4546.2012   -4359.3646   -4546.2012            0    1754.5928    18.062408    23.277249    21.903468    9209.1635    1924.4471    2265.4752    1073.8562    261.51293   -171.64547    -55.21395   -4123.7119 
26745000    109.46494   -4538.6162    -4350.997   -4538.6162            0    3034.8141    17.965795    23.279743    21.803525    9119.0869    3143.3371    2447.2121     3513.893   -730.85946    553.72011    36.249544   -3947.3894 
26746000    108.14513   -4551.1884   -4365.8314   -4551.1884            0    1705.8684     17.83415    23.539792    21.873792    9182.8842     1224.558    626.76734    3266.2798    184.44543    36.320277   -7.7538186   -4137.3765 
26747000    104.49649   -4547.4711   -4368.3677   -4547.4711            0    1718.4104    17.975909    23.365658    21.900841    9198.7678    3087.9618    1430.4204    636.84906   -439.21093   -399.35511    119.22176    -4137.835 
26748000    107.84054   -4538.2166   -4353.3816   -4538.2166            0    1665.0025    18.168924    23.200525    21.801567    9189.9837    590.80965    2169.5931    2234.6047   -510.64873   -21.595164    165.18295   -4130.2272 
26749000    103.74081   -4551.3724   -4373.5642   -4551.3724            0    1972.6714    17.979015    23.339533    21.894975     9187.609    2423.2085    1990.6026    1504.2032   -94.123065   -437.58421    4.7734433   -4109.2423 
26750000    111.36527   -4539.8783   -4349.0021   -4539.8783            0     670.7009     18.04734    23.349062    21.968839    9257.4155    1026.4146    1136.9177   -151.22959   -190.43549   -310.44595    357.39268   -4258.4508 
Loop time of 295.85 on 64 procs for 250000 steps with 864 atoms

Performance: 146.020 ns/day, 0.164 hours/ns, 845.022 timesteps/s
390.7% CPU use with 16 MPI tasks x 4 OpenMP threads

MPI task timing breakdown:
Section |  min time  |  avg time  |  max time  |%varavg| %total
---------------------------------------------------------------
Pair    | 24.662     | 27.385     | 29.892     |  30.2 |  9.26
Bond    | 1.5019     | 1.7859     | 1.9921     |   9.5 |  0.60
Kspace  | 156.73     | 161.27     | 166.04     |  18.8 | 54.51
Neigh   | 0.46242    | 0.49838    | 0.51995    |   2.3 |  0.17
Comm    | 35.97      | 39.065     | 41.937     |  24.4 | 13.20
Output  | 0.45057    | 0.45084    | 0.45221    |   0.1 |  0.15
Modify  | 48.48      | 53.164     | 57.524     |  45.7 | 17.97
Other   |            | 12.23      |            |       |  4.14

Nlocal:        54.0000 ave          63 max          46 min
Histogram: 3 3 1 1 0 0 1 5 1 1
Nghost:        2556.00 ave        2580 max        2534 min
Histogram: 2 2 1 2 2 0 3 0 3 1
Neighs:        13121.9 ave       15297 max       11503 min
Histogram: 6 1 1 0 0 0 2 3 2 1

Total # of neighbors = 209950
Ave neighs/atom = 242.99769
Ave special neighs/atom = 2.0000000
Neighbor list builds = 2261
Dangerous builds = 0

unfix		3
unfix		2
unfix		1

write_data	data.final.${pid} nocoeff
write_data	data.final.1 nocoeff
System init for write_data ...
PPPM initialization ...
  extracting TIP4P info from pair style
  using 12-bit tables for long-range coulomb (../kspace.cpp:340)
  G vector (1/distance) = 0.37180713
  grid = 24 27 25
  stencil order = 5
  estimated absolute RMS force accuracy = 0.0031438289
  estimated relative force accuracy = 9.4675474e-06
  using double precision FFTW3
  3d grid and FFT values/proc = 6300 1296
Last active /omp style is kspace_style pppm/tip4p/omp

write_restart   restart.lmp.${pid}
write_restart   restart.lmp.1
System init for write_restart ...
PPPM initialization ...
  extracting TIP4P info from pair style
  using 12-bit tables for long-range coulomb (../kspace.cpp:340)
  G vector (1/distance) = 0.37180713
  grid = 24 27 25
  stencil order = 5
  estimated absolute RMS force accuracy = 0.0031438289
  estimated relative force accuracy = 9.4675474e-06
  using double precision FFTW3
  3d grid and FFT values/proc = 6300 1296
Last active /omp style is kspace_style pppm/tip4p/omp
Total wall time: 0:04:55
