LAMMPS (30 Jul 2021)
Processor partition = 0
  using 4 OpenMP thread(s) per MPI task
using multi-threaded neighbor list subroutines
variable        pid world 0 1
variable        phase world IceII IceIh

shell cd ${phase}
shell cd IceII
include Restart.lmp
echo both
log log.lammps
#include		in.partitions
include		in.temp
variable        temperature equal 107.60
variable	tempDamp equal 100.0
include		in.pressure
variable        pressure equal 2050.8
variable        pressureDamp equal 1000.0 # This is 1 ps
include		in.seed
variable        seed equal 745823

units		real
atom_style	full
box tilt large
read_restart	restart.lmp.${pid}
read_restart	restart.lmp.0
Reading restart file ...
  restart file = 30 Jul 2021, LAMMPS = 30 Jul 2021
  restoring atom style full from restart
  triclinic box = (-10.644583 -9.2270326 0.087211190) to (12.624583 12.217031 21.772788) with tilt (-9.1566678 2.0377239 2.9839631)
  2 by 2 by 4 MPI processor grid
  restoring pair style lj/cut/tip4p/long/omp from restart
  restoring bond style harmonic/omp from restart
  restoring angle style harmonic/omp from restart
  1296 atoms
  864 bonds
  432 angles
Finding 1-2 1-3 1-4 neighbors ...
  special bond factors lj:    0        0        0       
  special bond factors coul:  0        0        0       
     2 = max # of 1-2 neighbors
     1 = max # of 1-3 neighbors
     1 = max # of 1-4 neighbors
     2 = max # of special neighbors
  special bonds CPU = 0.001 seconds
  read_restart CPU = 0.005 seconds
include 	in.setup
variable	out_freq equal 1000
variable	out_freq2 equal 10000
variable	out_freq3 equal 1000

timestep	2.0

neigh_modify    delay 7 every 1

include		in.tip4p
# This is TIP4P/Ice

# create groups ###
group ox type 2
432 atoms in group ox
group hy type 1
864 atoms in group hy

# set charges - beside manually ###
set group ox charge -1.1794
Setting atom values ...
  432 settings made for charge
set group hy charge 0.5897
Setting atom values ...
  864 settings made for charge

# ### TIP3P Potential Parameters ###
pair_style lj/cut/tip4p/long/omp 2 1 1 1 0.1577 8.5
pair_coeff 1 1*2 0.000 0.000
pair_coeff 2 2 0.21084 3.1668
bond_style  harmonic
bond_coeff  1 450 0.9572
angle_style harmonic
angle_coeff 1 55 104.52
kspace_style pppm/tip4p/omp 1.0e-5
pair_modify tail yes

thermo          ${out_freq}
thermo          1000
thermo_style    custom step temp pe etotal epair emol press lx ly lz vol pxx pyy pzz pxy pxz pyz enthalpy

restart 	${out_freq3} restart.lmp.${pid} restart2.lmp.${pid}
restart 	1000 restart.lmp.${pid} restart2.lmp.${pid}
restart 	1000 restart.lmp.0 restart2.lmp.${pid}
restart 	1000 restart.lmp.0 restart2.lmp.0


include         in.dump
dump            myDump all atom ${out_freq2} dump.water.${pid}
dump            myDump all atom 10000 dump.water.${pid}
dump            myDump all atom 10000 dump.water.0
dump            myDump2 all dcd ${out_freq2} dump.dcd
dump            myDump2 all dcd 10000 dump.dcd
dump_modify     myDump append yes
dump_modify     myDump2 append yes


variable natoms 	equal  "count(all)"                        # NUMBER ATOMS
variable H      	equal  "enthalpy/v_natoms"                 # ENTHALPY-per-atom
variable Vol      	equal  "vol/v_natoms"                 # volume-per-atom
fix AVG all 		ave/time ${out_freq} 1 ${out_freq} v_Vol v_H file vol_enthalpy.dat
fix AVG all 		ave/time 1000 1 ${out_freq} v_Vol v_H file vol_enthalpy.dat
fix AVG all 		ave/time 1000 1 1000 v_Vol v_H file vol_enthalpy.dat


timer           timeout 10:00:00 every 1000
New timer settings: style=normal  mode=nosync  timeout=10:00:00

fix 		1 all shake 1e-6 200 0 b 1 a 1
Finding SHAKE clusters ...
       0 = # of size 2 clusters
       0 = # of size 3 clusters
       0 = # of size 4 clusters
     432 = # of frozen angles
  find clusters CPU = 0.000 seconds
fix             2 all nph tri ${pressure} ${pressure} ${pressureDamp}
fix             2 all nph tri 2050.8 ${pressure} ${pressureDamp}
fix             2 all nph tri 2050.8 2050.8 ${pressureDamp}
fix             2 all nph tri 2050.8 2050.8 1000
fix             3 all temp/csvr ${temperature} ${temperature} ${tempDamp} ${seed}
fix             3 all temp/csvr 107.6 ${temperature} ${tempDamp} ${seed}
fix             3 all temp/csvr 107.6 107.6 ${tempDamp} ${seed}
fix             3 all temp/csvr 107.6 107.6 100 ${seed}
fix             3 all temp/csvr 107.6 107.6 100 745823


run             250000
PPPM initialization ...
  extracting TIP4P info from pair style
  using 12-bit tables for long-range coulomb (../kspace.cpp:340)
  G vector (1/distance) = 0.36575346
  grid = 30 40 32
  stencil order = 5
  estimated absolute RMS force accuracy = 0.0049177949
  estimated relative force accuracy = 1.4809793e-05
  using double precision FFTW3
  3d grid and FFT values/proc = 11832 2400
Last active /omp style is kspace_style pppm/tip4p/omp
Neighbor list info ...
  update every 1 steps, delay 7 steps, check yes
  max neighbors/atom: 2000, page size: 100000
  master list distance cutoff = 10.8154
  ghost atom cutoff = 10.8154
  binsize = 5.4077, bins = 7 5 5
  1 neighbor lists, perpetual/occasional/extra = 1 0 0
  (1) pair lj/cut/tip4p/long/omp, perpetual
      attributes: half, newton on, omp
      pair build: half/bin/newton/tri/omp
      stencil: half/bin/3d/tri
      bin: standard
Setting up Verlet run ...
  Unit style    : real
  Current step  : 26500000
  Time step     : 2
  Walltime left : 9:59:59.96
Per MPI rank memory allocation (min/avg/max) = 12.75 | 12.76 | 12.76 Mbytes
Step Temp PotEng TotEng E_pair E_mol Press Lx Ly Lz Volume Pxx Pyy Pzz Pxy Pxz Pyz Enthalpy 
26500000    117.71648   -6729.4716   -6426.6532   -6729.4716            0    1634.3171    23.269165    21.444063    21.685577    10820.787    2409.1789    1080.4925    1413.2798   -691.56893    -120.0312    69.047891   -6168.7415 
26501000    108.03366   -6738.8302   -6460.9202   -6738.8302            0     2973.731    23.267738    21.410325    21.578226    10749.621     2579.822    2451.2569    3890.1142   -195.41884    896.34873     186.5935   -5994.7219 
26502000    106.02816   -6731.2328   -6458.4818   -6731.2328            0    1943.9916    23.231112     21.34764     21.77296    10797.851    2616.9402    1625.0484    1589.9862   -67.260699   -775.11679    25.118697   -6152.3506 
26503000    107.68528   -6739.0748   -6462.0609   -6739.0748            0    1523.4739    23.294774    21.379912    21.672723    10793.888    1315.7756    1312.7237    1941.9224    556.19979    134.38449     520.7578   -6222.2391 
26504000    98.526441   -6729.5597   -6476.1064   -6729.5597            0    2711.6718    23.245349    21.321659    21.682357    10746.414    2741.9753    2174.8105    3218.2295    49.194657   -170.68256    175.71181   -6051.1185 
26505000    110.46882   -6748.5242   -6464.3499   -6748.5242            0    1463.4881    23.251142    21.443744    21.650938    10794.975    1918.2406    1320.8523    1151.3713    132.89384   -1277.9044   -604.61336   -6233.9476 
26506000    111.49133   -6740.8126    -6454.008   -6740.8126            0    2028.0845    23.233025    21.441958    21.639341    10779.888    1971.3696    1693.9195    2418.9643    393.99626   -252.60008   -138.22939   -6135.1655 
26507000    110.45669     -6750.63   -6466.4869     -6750.63            0    2598.0607    23.179883    21.381027    21.699694    10754.579    2915.8266    2561.3589    2316.9968    777.59802   -472.25144    452.17271   -6058.9954 
26508000    109.91865   -6737.8599   -6455.1008   -6737.8599            0    2679.0404    23.250718    21.335355    21.651549    10740.518    2212.0186    2650.9538    3174.1488    105.10095    814.17852    410.73872   -6035.4575 
26509000    108.33414   -6721.4601   -6442.7771   -6721.4601            0     1367.259    23.295537    21.299196    21.796884    10815.095    2112.0205    1690.3177    299.43896   -508.86534   -221.11282   -274.42987   -6227.1234 
26510000    108.96199   -6736.0266   -6455.7285   -6736.0266            0    2150.4565    23.314553    21.343323    21.661311    10778.885    1983.1652    2908.5933    1559.6111    255.39434   -965.36984     55.85074   -6117.6789 
26511000    107.54681   -6736.4876     -6459.83   -6736.4876            0    1509.0517    23.255503    21.395785    21.720182    10807.306    1969.8858     1007.973    1549.2962   -815.38806    80.423786    65.412596   -6221.9831 
26512000     108.7584   -6721.2042   -6441.4298   -6721.2042            0    2326.1521    23.217975    21.470343    21.587415    10761.281    2227.4669    1902.1045    2848.8849    472.40102   -385.18228    79.432041   -6076.3583 
26513000    113.84777   -6744.2987   -6451.4323   -6744.2987            0    1659.1711     23.14135    21.466618    21.731108    10795.287    2864.3661    909.22347    1203.9237   -357.39944    703.38446    424.32195   -6190.2154 
26514000     108.1195   -6751.3723   -6473.2414   -6751.3723            0    2060.6165    23.184863    21.425189    21.676054    10767.365     3415.886    1351.2491    1414.7144    455.97356   -523.16013    233.39269   -6149.6608 
26515000    110.27824   -6741.7005   -6458.0164   -6741.7005            0    2673.8968    23.285572    21.250953    21.733275    10754.507    1890.6097    3336.6951    2794.3857   -517.12548    591.13723   -38.623486   -6038.6332 
26516000    107.18836   -6739.0887   -6463.3532   -6739.0887            0    924.28005    23.432666    21.314804    21.675645    10826.176    -185.0123    2065.0906    892.76188   -96.638606    463.30777   -900.22514   -6317.4199 
26517000    106.66426   -6736.7267   -6462.3394   -6736.7267            0    1722.4117    23.285806    21.325835    21.765013    10808.271    2462.4657    1475.9159    1228.8535   -1192.4377   -537.17845   -317.21847   -6190.8398 
26518000    102.98909   -6739.0032     -6474.07   -6739.0032            0    2148.7536    23.182615    21.460467    21.648454    10770.317    2098.5955    2367.4367    1980.2287    311.37498    1024.4658   -341.28373   -6136.5566 
26519000    108.49754    -6745.315   -6466.2117    -6745.315            0    1821.9221    23.188539    21.416023    21.699814    10776.264    1967.4815    1192.8362    2305.4486   -436.58845    462.78021    1064.8728    -6179.877 
26520000    106.34752   -6743.6657   -6470.0932   -6743.6657            0    1199.8785    23.312542    21.371982    21.707682    10815.532    819.54425    1177.9101     1602.181    180.72215    428.69361    1213.5508   -6280.8322 
26521000    104.77326   -6740.5544   -6471.0315   -6740.5544            0    2787.5019    23.363619    21.244256     21.67907    10760.248    2663.0598    3035.0171    2664.4288   -435.57229   -698.67214    -315.5871   -6033.5967 
26522000    108.18701    -6735.267   -6456.9625    -6735.267            0    2459.4074    23.312705    21.281029    21.681554    10756.617    2295.6887    2518.4782    2564.0554   -974.92621    1037.5306   -682.93415   -6071.1448 
26523000     104.0057   -6734.7385   -6467.1902   -6734.7385            0    1396.4845    23.336899    21.369347    21.685521    10814.445    1450.4533    2036.4334    702.56701   -148.20468   -903.33281     394.6045     -6246.94 
26524000     116.8303   -6731.9713   -6431.4325   -6731.9713            0    2575.3078    23.156477    21.414821    21.706136    10763.895    2674.2414     2737.366     2314.316   -94.582027    389.60435    13.943649   -6027.1597 
26525000    110.01151   -6727.0887   -6444.0908   -6727.0887            0    1758.9331    23.188541    21.468273    21.699363    10802.332    2209.1061    1156.8751    1910.8179    779.52409   -375.96178    835.55407   -6166.9869 
26526000    108.89472   -6724.8707   -6444.7457   -6724.8707            0    2649.6218    23.196588    21.402611    21.691243    10768.998    3638.5203    2325.8607    1984.4843   -32.849691     -445.552   -615.87428   -6028.6099 
26527000    107.27052   -6730.0881   -6454.1412   -6730.0881            0    1839.8114    23.419455    21.336531    21.632059    10809.322    748.10536    1683.0639     3088.265   -745.17354   -26.027606    743.85599    -6164.108 
26528000    109.04088   -6754.0988   -6473.5978   -6754.0988            0    2228.0714    23.274604       21.202    21.830137    10772.477    2357.6593    3188.4752    1138.0797    325.17169   -568.16339   -554.49249   -6123.5554 
26529000     104.5922   -6740.5931    -6471.536   -6740.5931            0    1895.7812    23.286895    21.379205    21.637263    10772.226    2195.4506    1606.5747    1885.3184   -397.90997    339.99087   -208.13538   -6173.7052 
26530000    110.11301   -6727.3503   -6444.0913   -6727.3503            0    2188.1631    23.198552    21.408865    21.724727    10789.687    2302.1509    2929.5706    1332.7678    168.46686    178.71895   -758.74185   -6099.7695 
26531000    108.38705   -6728.0722   -6449.2531   -6728.0722            0    2330.0526     23.16677    21.458981     21.66167     10768.78    4142.6412    1333.7193    1513.7975     -211.208 -0.083196553    -370.3781   -6083.3145 
26532000    111.29072   -6736.2226    -6449.934   -6736.2226            0    2792.5572    23.294736    21.385505     21.56383    10742.447    2250.3143    1987.7079    4139.6495    193.70087   -593.27212    1552.3127   -6012.4308 
26533000    109.49078    -6743.597   -6461.9386    -6743.597            0    1253.1278    23.279004    21.361437    21.781093    10831.149    1677.0499    756.16731    1326.1663   -525.76358   -447.65602   -48.669435    -6263.993 
26534000     109.2057   -6747.4253   -6466.5003   -6747.4253            0    2677.9929    23.393236    21.323546    21.535198    10742.333    1770.2182    2307.4838    3956.2767     675.7806     13.45591    -114.2902   -6046.9501 
26535000    109.14612     -6755.24   -6474.4683     -6755.24            0    1233.3833    23.190115    21.294236    21.898658    10813.903    1817.7565     1595.245    287.14839   -367.68905   -34.364174    793.21925   -6279.9518 
26536000    111.92032   -6755.7177   -6467.8095   -6755.7177            0     2682.802    23.181195    21.403621    21.627312     10730.64    2252.8987     2883.177    2912.3305    280.20853   -91.770899    524.62066   -6047.9633 
26537000     110.6627   -6742.9877   -6458.3146   -6742.9877            0     1952.068    23.190654    21.489052    21.660944    10794.627     1911.773    1472.5271    2471.9041    401.37626   -219.54721    289.58983   -6151.0033 
26538000     107.9612   -6742.9898   -6465.2662   -6742.9898            0    1203.2042    23.207857    21.446827    21.754456    10827.952    1211.6241    174.22605    2223.7625   -308.85318    777.48668      387.817   -6275.2628 
26539000    107.93544   -6736.3242   -6458.6669   -6736.3242            0    3245.0035    23.318883    21.347608    21.554277     10729.77    2855.4527    3379.7296    3499.8282    447.07495   -357.13849   -419.44556     -5950.88 
26540000    109.88453   -6747.4503   -6464.7791   -6747.4503            0     2119.576     23.23245    21.257909    21.796605    10764.762     2571.041    2268.9367    1518.7503    436.97781    -144.4217    192.22649   -6132.0204 
26541000    108.44621   -6750.9764   -6472.0051   -6750.9764            0    1345.1251    23.340713     21.36708    21.631068    10787.909    757.28465    636.18158     2641.909     435.4896    224.50417    804.36945   -6260.3758 
26542000    103.58954   -6730.5862   -6464.1084   -6730.5862            0     2698.027     23.17542    21.376361    21.727869    10764.119    2923.3807    2528.4929    2642.2075    993.56048   -498.68692 -0.081015052   -6040.5623 
26543000     113.3583   -6746.8234   -6455.2161   -6746.8234            0    2015.7769    23.230473    21.429844    21.653187    10779.507     2156.055    1759.6645    2131.6113   -1356.1796   -163.52772   -727.80033   -6138.3197 
26544000    106.08027   -6728.6219   -6455.7368   -6728.6219            0    2003.3599    23.265173    21.425837    21.633771    10783.911     2110.041    1930.5141    1969.5245    395.70981   -864.06192   -266.68116   -6140.6639 
26545000    98.307942     -6743.54   -6490.6488     -6743.54            0     1746.701     23.26891    21.320585    21.736633    10783.691    1438.0179    2375.1183    1426.9668   -43.330396    607.72082   -80.883336   -6215.9468 
26546000    109.59442   -6735.9452   -6454.0202   -6735.9452            0    2641.2468    23.284554    21.290735    21.664123    10739.886    3132.8337    3236.6205    1554.2863    565.03267   -1135.7675    151.05379   -6040.3211 
26547000    107.86043   -6748.9591   -6471.4947   -6748.9591            0    1752.4388    23.262949    21.341929    21.729053    10787.958    1766.9713    1640.7171    1849.6281    75.042123   -28.621302   -528.80281   -6195.7812 
26548000    111.44343   -6740.9776   -6454.2961   -6740.9776            0    2220.7394    23.303711    21.422162    21.589132    10777.638    2301.1151    1796.8105    2564.2926   -58.598182    350.75638   -304.97238   -6105.2386 
26549000    111.22552   -6738.9746   -6452.8538   -6738.9746            0    1261.7215    23.229353     21.46458    21.710458    10825.015    2045.3359    900.58711    839.24141    564.23145   -1101.4231   -905.59175   -6253.6636 
26550000    113.00141   -6751.6831   -6460.9939   -6751.6831            0     1835.381    23.245575    21.388642    21.684626    10781.407    1736.5307    2156.4712    1613.1411    852.73484   -28.754136    456.62203   -6172.4064 
26551000    112.03276    -6736.626   -6448.4285    -6736.626            0    1505.2755    23.264366    21.293943     21.79928    10799.147    1716.4051    1101.3695     1698.052   -17.226791   -123.94489    1672.8064   -6211.3559 
26552000    109.70057   -6754.7757   -6472.5776   -6754.7757            0     2580.743    23.275926     21.30009    21.669347    10743.214    2288.0671    2586.3071    2867.8548   -420.41882   -104.64316   -165.90324     -6068.23 
26553000    102.84928   -6734.9983   -6470.4248   -6734.9983            0    1983.5957    23.283696    21.422084    21.653694    10800.544    2824.7139    913.99908    2212.0741   -849.55678   -119.56315    475.40576    -6157.979 
26554000    111.49938   -6736.8037   -6449.9783   -6736.8037            0    2957.3835    23.052309     21.52995    21.661699    10751.028    3870.6832    2298.8592    2702.6079     1756.972    73.213568   -248.20645   -5986.2822 
26555000     107.4709   -6735.2832   -6458.8209   -6735.2832            0    1466.4275    23.173873    21.484629    21.711759    10809.895    889.74752    1179.6599     2329.875   -333.30182    268.10203    177.97896   -6227.6368 
26556000    106.19702   -6718.3354   -6445.1501   -6718.3354            0    2413.7191    23.298766    21.308197    21.700504    10773.317    1988.3775    2819.0849    2433.6949   -707.51305   -446.19626  -0.93995668   -6065.9119 
26557000    107.57044    -6734.448   -6457.7297    -6734.448            0    2098.4548    23.468377    21.248513    21.637791    10790.077    1381.4856    1881.3004    3032.5785   -657.73684    583.86826    556.12627   -6127.5122 
26558000    104.57776   -6730.5391   -6461.5192   -6730.5391            0    2699.6552    23.254993    21.324576    21.703809    10762.982    2724.2443    2777.5693    2597.1519    582.68013   -371.81716   -31.996355   -6037.7623 
26559000     108.2673   -6737.7837   -6459.2727   -6737.7837            0    1377.7595    23.190642    21.525813    21.647496    10806.374    1394.7693    859.74901    1878.7603    758.85948    69.199394   -19.487406   -6242.1379 
26560000    108.35637   -6756.7425   -6478.0023   -6756.7425            0    1745.3174    23.032304    21.480722    21.783861    10777.576    2363.7199    1771.0479    1101.1846   -381.36255   -63.977985   -296.18955   -6203.6735 
26561000     106.3735   -6732.6578   -6459.0184   -6732.6578            0    2358.3711    23.278584    21.403925     21.60841    10766.456    1675.3761    3076.4695    2323.2677    867.71841     74.94786     410.6992   -6088.7124 
26562000    104.46111   -6721.6773   -6452.9574   -6721.6773            0    2053.0675    23.269688    21.313403    21.760778    10792.393     1633.361    3162.5478    1363.2937     293.7219   -317.61462   -1164.7301   -6129.8128 
26563000    109.77446   -6726.7264   -6444.3383   -6726.7264            0    1642.4443    23.500353    21.303721     21.55516    10791.482    293.72316     1688.739    2944.8706   -142.34667    410.45505    42.646549   -6185.8459 
26564000    110.81473   -6748.5997   -6463.5356   -6748.5997            0    2769.1531    23.221428    21.278173     21.74757    10745.682    2845.1662    2628.6099    2833.6833   -537.23585    417.94585    122.74999   -6029.5684 
26565000    103.84042    -6748.537   -6481.4138    -6748.537            0    2153.9667    23.220931    21.395872    21.666205    10764.465    2015.4744    2097.9688    2348.4568     494.1123    -84.75119   -93.782205   -6143.2654 
26566000    109.34022   -6731.0235   -6449.7524   -6731.0235            0    1162.4632    23.286837    21.473704    21.650198    10826.282    596.13317    865.96651      2025.29    321.30036    962.66598    113.16112   -6266.2108 
26567000    104.37126   -6745.1241   -6476.6354   -6745.1241            0    3185.7355    23.098123    21.358557    21.788035    10748.965    3916.4156    3250.4318     2390.359   -346.16392   -199.41673   -1196.8153   -5977.2311 
26568000    104.37242   -6741.1308   -6472.6391   -6741.1308            0    1850.6599    23.422244    21.327699    21.580442    10780.349    1230.9189    2368.1722    1952.8885   -434.63027    209.78308   -101.74192   -6181.6777 
26569000    105.56182    -6755.296   -6483.7446    -6755.296            0    1204.9585    23.325708     21.33584    21.721274    10810.104    313.88304    2735.5209    565.47154   -302.67108    -124.4895   -727.87714   -6293.7777 
26570000     108.9894   -6749.3075   -6468.9389   -6749.3075            0    2288.1195    23.220315    21.329029    21.756881     10775.46    2289.1248    2595.2639    1979.9699   -243.75568     106.4655   -442.60325   -6109.3631 
26571000    108.15986   -6737.1629   -6458.9282   -6737.1629            0    1655.1658    23.283035    21.437096    21.600804    10781.408    1021.6643    1631.5345    2312.2985   -385.09553    493.90983    59.283292    -6198.677 
26572000    113.10411   -6730.9028   -6439.9494   -6730.9028            0    1781.8518    23.149116    21.439029    21.817753    10828.033    2195.9891    1668.1911    1481.3753    435.17031    323.64839    80.186156   -6158.5669 
26573000    104.39568   -6742.8583   -6474.3067   -6742.8583            0    1442.0945    23.317901    21.431077    21.641217    10814.716    1502.1776    1683.7288     1140.377    223.33102   -460.66297   -372.05933   -6246.8574 
26574000    112.24377   -6752.6448   -6463.9045   -6752.6448            0    1906.5002    23.354991    21.242314    21.709429    10770.352    1634.6248    2475.6734    1609.2026   -212.43747   -400.44761    135.43609   -6164.4419 
26575000    104.14365   -6732.5921   -6464.6889   -6732.5921            0    1662.5899    23.370823    21.275034    21.719808    10799.416    467.77989    3006.1181    1513.8718    -661.2226    315.30229     311.1781   -6202.8336 
26576000    104.04024   -6731.9895   -6464.3523   -6731.9895            0    2567.1277    23.239823    21.333682    21.717495    10767.338    2466.3103    2799.6223    2435.4503    395.82414   -83.153926    517.15216   -6061.2348 
26577000    108.00612   -6752.0544   -6474.2152   -6752.0544            0    1909.3078    23.208811    21.516444    21.600637    10786.733    2184.4833    1108.4478    2434.9924    640.03857    140.45076   -172.75892   -6173.8554 
26578000    111.44359   -6730.6739    -6443.992   -6730.6739            0    2096.6491    23.109538    21.510909    21.693572     10784.03     2746.001    1204.9305    2339.0159   -456.80454   -733.47003    288.61582   -6114.2436 
26579000    110.35145   -6758.5834    -6474.711   -6758.5834            0    1912.8897    23.284692    21.440257    21.571997    10769.383    1523.9023    1442.2669    2772.4999   -35.192816    81.026092    104.53174   -6174.2717 
26580000    110.03727   -6727.1953   -6444.1312   -6727.1953            0    2392.1706    23.312614    21.231811    21.741183    10761.212    2321.2299    2316.5045    2538.7775   -62.519927   -391.31849    45.496911   -6068.7009 
26581000    104.21382   -6739.5195   -6471.4358   -6739.5195            0    1158.0881    23.404596    21.271738     21.69887    10802.922    383.88623    1410.5918    1679.7864    723.32364   -199.13011    135.64221   -6288.9796 
26582000    105.53726   -6739.1523   -6467.6641   -6739.1523            0    2221.3436    23.192846    21.385186    21.733358    10779.383    2352.6707    2305.5289    2005.8311   -404.96746    244.29775   -933.13748    -6118.455 
26583000    107.08259   -6738.6954   -6463.2319   -6738.6954            0    2264.4866    23.122694    21.512188    21.654355    10771.304    2061.7299    1652.1769    3079.5531    974.71568    545.11175    86.023572   -6107.5073 
26584000    115.65448   -6737.1375   -6439.6234   -6737.1375            0    1856.9367    23.155439    21.522615    21.638356    10783.812    1936.8928    763.62274    2870.2947    430.52785   -455.74342    211.89446   -6147.5814 
26585000    108.87017    -6749.451   -6469.3892    -6749.451            0    2242.9054    23.188092    21.426625    21.706814    10784.869    2057.2632    1749.3295    2922.1234    794.38153   -29.871941    11.738912    -6116.611 
26586000    107.12668   -6743.5154   -6467.9386   -6743.5154            0    2408.8437     23.37679    21.236522    21.686676     10766.17    1445.8169    2665.8338    3114.8803   -608.64107    36.753284   -292.62509   -6089.7175 
26587000    106.55442   -6749.8373   -6475.7326   -6749.8373            0    2379.5625    23.354728    21.218346    21.733796    10770.154    1495.4123    3596.7403    2046.5348   -23.746034    41.524833     480.6079   -6101.9707 
26588000    108.40754   -6737.4079   -6458.5361   -6737.4079            0    1504.7005    23.283524    21.365184    21.692826    10791.244    1363.1175    1141.5813    2009.4028   -135.39871    1109.7313    740.93975   -6221.7275 
26589000    105.42267   -6756.0823   -6484.8889   -6756.0823            0    2360.6535    23.044657     21.48052     21.74113    10762.103     2906.167    2539.1445     1636.649    1083.4986   -6.7893554    -227.6179   -6114.3744 
26590000    105.44907   -6740.8934    -6469.632   -6740.8934            0    1713.1014    23.204513    21.507587    21.640768    10800.325    1412.2652    1397.6259    2329.4131   -15.424489    163.79439    3.0321066   -6199.7986 
26591000    106.46715   -6750.3867   -6476.5064   -6750.3867            0    1581.4656    23.307006    21.391889    21.629571    10784.091    1760.1555    517.28736    2466.9539    284.83289   -1071.0884   -3.8074141   -6227.7816 
26592000    109.00834   -6742.1409   -6461.7236   -6742.1409            0    2329.5433    23.298704    21.232445    21.781141    10774.879    2666.9378    2696.8008    1624.8915    -312.3531   -421.77267      -500.93   -6095.6578 
26593000    107.33451    -6738.235   -6462.1235    -6738.235            0    2790.0524    23.284896    21.298483    21.632586    10728.312    2464.1287    3063.2723    2842.7561    222.93493   -495.85084   -817.14426   -6025.5879 
26594000     104.3364   -6729.1259   -6460.7269   -6729.1259            0    1394.6904    23.144302    21.408288    21.837372    10819.978    2055.0333    1827.8213    301.21674    386.75809   -242.25493   -351.68253   -6240.6471 
26595000    104.82726   -6750.3786   -6480.7168   -6750.3786            0    2650.0622    23.224302    21.454567    21.563724    10744.499    2522.0268    2270.3962    3157.7635   -827.14244    781.79663    325.40143   -6065.4587 
26596000    109.91663   -6733.5124   -6450.7586   -6733.5124            0    1455.9384     23.16577    21.472046    21.732242    10809.976    2339.5491     1388.197    640.06904   -219.84822   -481.48795   -464.58787   -6221.2264 
26597000    105.22335   -6735.5156   -6464.8349   -6735.5156            0    1477.3809    23.228761    21.468809    21.674187    10808.783    1599.8279    395.11898    2437.1959     574.7859   -1028.6151   -49.629055   -6231.9479 
26598000    103.62263   -6745.0389    -6478.476   -6745.0389            0    2226.5216    23.355322     21.32624    21.580614    10748.898    1146.3207    3211.4563    2321.7877   -201.81829   -22.403636   -587.59872   -6129.4428 
26599000    108.39528   -6740.5891   -6461.7489   -6740.5891            0    959.48019    23.275471    21.352043    21.799679     10833.98    1283.4555    792.69981    802.28528   -148.42897    260.57817   -142.58841   -6310.1486 
26600000    104.16063   -6741.3382   -6473.3913   -6741.3382            0    3041.2005    23.220375    21.368816    21.605123    10720.288    3244.2945    2010.5229    3868.7841    223.87355    77.225513    556.29992   -5997.9166 
26601000    109.22828   -6757.9912   -6477.0081   -6757.9912            0    2143.2436    23.173607    21.408231    21.713965    10772.427    1909.4789    2255.8012    2264.4507    195.18086    121.69644    290.27478   -6140.2942 
26602000    109.37793   -6745.5562   -6464.1881   -6745.5562            0    1250.1296    23.280514    21.471087    21.625786    10809.821    1294.1175    880.06083    1576.2106   -71.551074    65.558454   -214.51902    -6267.105 
26603000    108.52633   -6730.2916   -6451.1142   -6730.2916            0    1456.2913    23.308247    21.407814    21.665458      10810.6    1008.2769    1624.5737    1736.0234   -89.401566    875.48617   -175.52357   -6221.5131 
26604000    109.55411   -6739.7069   -6457.8856   -6739.7069            0     2834.421    23.261931    21.289546    21.709825    10751.486    2671.0006    2850.6922    2981.5703     62.67332   -340.09515    554.32847   -6013.4501 
26605000    107.88397    -6734.135     -6456.61    -6734.135            0    2130.0413    23.328414    21.355202    21.628239    10774.821    1258.1623    2492.9163    2639.0452   -621.06442    441.39989    35.365296   -6121.8959 
26606000    106.58271   -6747.9324   -6473.7549   -6747.9324            0    1965.9931    23.255764    21.315295    21.745905     10779.52    2170.0064    1766.3898    1961.5831    481.44314   -656.09959   -246.34615   -6164.6846 
26607000    106.21016   -6741.0548   -6467.8356   -6741.0548            0    1759.0655    23.289608    21.389709    21.622371    10771.356    1878.1627    1165.2151    2233.8188    510.27106   -803.15036    694.84928   -6191.5054 
26608000    112.01158   -6757.1855   -6469.0425   -6757.1855            0    1859.9875    23.219322    21.442958    21.664862    10786.738     2189.549    1592.1576    1798.2559    424.45376    433.30316   -174.70555   -6176.4413 
26609000    105.93893   -6743.8283   -6471.3068   -6743.8283            0    2279.3984     23.12532    21.423673    21.722363    10761.895    2642.8054    1885.2652    2310.1244   -247.36119    318.64505   -265.49093   -6113.5525 
26610000    106.68182   -6742.3109   -6467.8784   -6742.3109            0    2061.2218    23.326332    21.387121    21.568559    10760.189    1574.4436    2239.4592    2369.7626   -767.74985    471.32648    92.842946   -6144.4185 
26611000    107.89628   -6739.7534   -6462.1968   -6739.7534            0    1579.6471    23.305903    21.324731    21.751019    10810.085    1263.8847    2522.7963    952.26011    78.978124   -728.96117     35.00493   -6213.1591 
26612000     109.5184   -6743.0662   -6461.3368   -6743.0662            0    2356.9229    23.343935    21.261911    21.663462    10752.371    1481.0191    3367.0465    2222.7032   -57.330974    532.98307   -121.28804   -6091.7423 
26613000    108.13474   -6738.3332   -6460.1631   -6738.3332            0    1688.5883    23.222528    21.396832    21.746304     10805.49    1993.3078    1332.8964    1739.5608    781.41363   -704.02534   -180.08928   -6194.0636 
26614000    107.68216   -6733.3888    -6456.383   -6733.3888            0     1689.554    23.184808    21.424646    21.709421    10783.641    1834.6833    1669.8452    1564.1335    617.90228   -295.55466     39.87634   -6190.6696 
26615000    110.89794   -6742.1859   -6456.9078   -6742.1859            0    2298.0373    23.228648    21.418046    21.633361    10762.862    1843.9233    1542.3431    3507.8454    342.50056    106.65748    621.24464   -6096.1957 
26616000    107.84059    -6760.674   -6483.2606    -6760.674            0    2195.0437    23.212264     21.37136    21.719183    10774.401    2977.0201    2281.9707    1326.1404    41.281441   -596.19644   -301.62443   -6138.3455 
26617000    99.887527   -6747.7727   -6490.8182   -6747.7727            0    2379.2737    23.296088    21.298425    21.677368     10755.66    2640.6182    2172.6365    2324.5664   -378.27317   -64.752003    167.29668   -6117.6047 
26618000    104.84407   -6747.4073   -6477.7023   -6747.4073            0    1119.3662    23.372634    21.346409    21.655531    10804.417    262.55403     1302.303    1793.2417    58.810909   -30.420775   -511.79668   -6301.3223 
26619000    103.88309   -6732.9192   -6465.6863   -6732.9192            0    2589.9964    23.133467    21.298849     21.82682    10754.428    3471.4036    2313.8006     1984.785    91.500824   -13.455658    800.13573   -6059.4653 
26620000     104.6114   -6735.5207   -6466.4143   -6735.5207            0    2205.3323      23.2809    21.459897    21.535009    10759.014    2441.9834    1502.6746     2671.339    98.093215   -368.45212    486.47526   -6120.3774 
26621000    108.30621   -6745.4056   -6466.7945   -6745.4056            0    1968.1913    23.169756    21.370663    21.770396    10779.678    2375.6308    1611.5845    1917.3586    287.83322   -622.19952    243.55632    -6157.374 
26622000    109.85319   -6728.6291   -6446.0384   -6728.6291            0    2455.5204    23.345891    21.320927    21.619564    10761.268    2474.9099     1980.682    2910.9694    178.51291   -362.97197   -99.136653    -6060.664 
26623000    108.82039   -6745.3552   -6465.4214   -6745.3552            0    2881.3122    23.294031    21.228935    21.716052     10738.75    2791.1231    3430.1252    2422.6885    78.963821   -430.92256    -401.7412   -6014.1686 
26624000    103.85295   -6728.0677   -6460.9123   -6728.0677            0    1376.3242    23.306236    21.381561    21.718391    10822.789    1001.2059    1755.8062    1371.9603   -1036.8023    231.97366    402.11833   -6243.6743 
26625000    108.46092   -6730.8344   -6451.8253   -6730.8344            0    2438.3931    23.255273     21.35617    21.684628    10769.531    1955.4089    3116.7463     2243.024    1742.3196   -716.56426   -260.32891    -6068.845 
26626000    108.03017   -6744.7178   -6466.8168   -6744.7178            0    2676.9161    23.189893    21.426402    21.646459    10755.605    2706.6445    2243.2007    3080.9029      416.901   -27.989961   -40.529345   -6046.9171 
26627000    99.809177   -6722.2314   -6465.4784   -6722.2314            0     1430.245    23.214232    21.458623    21.713866    10816.664    2217.4311     656.0266    1417.2772    -194.9354   -207.45034   -33.922175   -6239.8573 
26628000    110.15841   -6748.5823   -6465.2065   -6748.5823            0    2316.6554    23.272274    21.318559     21.67432    10753.309    2269.1138    2208.8102    2472.0423    361.80761    358.93962   -175.77054   -6101.8947 
26629000    109.49789   -6727.4771   -6445.8004   -6727.4771            0    2236.3371    23.362646    21.271895    21.695576    10782.002    1325.4069    2510.2692    2873.3353   -575.38144    566.01403   -105.61068   -6094.1489 
26630000    104.10941   -6751.2712    -6483.456   -6751.2712            0    2568.2703     23.27335    21.271009    21.715876    10750.393    2208.0381    3000.3277    2496.4451    313.99744    -161.0688      458.782   -6080.7937 
26631000    104.53055   -6750.4638   -6481.5653   -6750.4638            0    1978.4226    23.224919    21.401193    21.703545    10787.551    2619.6094    1365.0215     1950.637   -1120.6452    1594.4912    531.27323   -6170.3092 
26632000     109.5617   -6730.0623   -6448.2215   -6730.0623            0    2742.2619    23.159172    21.435495    21.679016    10762.078    3361.0194    1970.3211    2895.4451    437.90276    -114.7195     294.2933   -6017.8129 
26633000     106.8084   -6732.6643   -6457.9062   -6732.6643            0    2152.6539    23.142864    21.477386    21.699321    10785.609    3198.3047    1521.6975    1737.9595   -371.83652   -539.50682   -501.09885   -6119.3001 
26634000    103.06866   -6743.1647   -6478.0269   -6743.1647            0    2121.1915    23.336418    21.346357    21.642436    10781.125    1854.6754    2367.8189    2141.0802    7.0126321   -581.28547    68.623911   -6144.5084 
26635000    102.88934    -6742.598   -6477.9214    -6742.598            0    1370.7411    23.380295    21.264339    21.726571    10801.723    1108.3916    2650.5287    353.30308    224.78528    182.39903   -1237.9845   -6261.9857 
26636000    114.34744   -6747.2877   -6453.1359   -6747.2877            0     2233.578    23.339056    21.257176    21.702174    10766.935    2045.7491    2418.6426    2236.3425    -689.6575    301.10008   -224.15281    -6102.409 
26637000    108.13307   -6741.8753   -6463.7096   -6741.8753            0    2153.7288    23.227798    21.386575    21.696144    10777.843    2621.6188    1893.5547     1946.013    -604.4701    -733.0188    589.61206   -6125.1783 
26638000    106.50805   -6750.1605    -6476.175   -6750.1605            0    2240.1858    23.179125    21.420746    21.665085    10757.021    2579.5998    2246.8491    1894.1085   -312.55139    165.84402   -727.08141   -6124.7344 
26639000    104.95374   -6741.3022   -6471.3151   -6741.3022            0    1721.2958    23.263155    21.426324    21.677447    10804.991    1694.2607    1241.0162    2228.6104   -425.05882    188.54837   -414.16545   -6200.0739 
26640000    106.89708   -6739.0838   -6464.0976   -6739.0838            0    2043.4131    23.256873    21.363211    21.707278    10785.076     1353.419    2351.5157    2425.3044    249.07592   -450.64773     918.9877   -6142.6906 
26641000    107.03587   -6747.8154   -6472.4721   -6747.8154            0    2416.3796    23.268233    21.294034    21.707978     10755.75    1647.6979    3237.0307    2364.4102    124.88037   -128.88572    114.57038    -6093.435 
26642000    106.80921    -6737.936   -6463.1758    -6737.936            0     2561.462    23.288565    21.334695    21.684666    10774.122    2001.6443     1352.714    4330.0276   -749.58234    1225.8877    1270.9201   -6060.6945 
26643000    107.33303    -6739.892   -6463.7843    -6739.892            0    2124.0797    23.246005    21.402666    21.677211    10784.987    2358.2285    1683.4685    2330.5419   -236.06208    -481.5073   -34.114241   -6129.6921 
26644000    107.97482   -6743.0954   -6465.3367   -6743.0954            0    2161.9875     23.20598    21.575341    21.534723    10781.939    2953.0203    933.53716    2599.4049    285.32739   -723.89281   -38.162699   -6125.3782 
26645000    108.09117   -6724.0159    -6445.958   -6724.0159            0    2682.9613    23.146701    21.408644    21.712719    10759.509    3359.4808    3044.9564    1644.4466    -458.1232   -2.4011575   -713.71954   -6024.9573 
26646000    103.54785   -6739.6477   -6473.2772   -6739.6477            0    867.37324    23.351519    21.425873    21.641297    10827.718    1315.3439    815.21094    471.56486    659.72462    -63.17347    121.53218   -6336.3092 
26647000    108.47565   -6751.8492   -6472.8022   -6751.8492            0    3229.7052    23.271253     21.09902    21.818698    10712.994    3668.0701    4108.9022    1912.1432   -1291.6552   -419.27727   -568.15747   -5968.1994 
26648000    104.58973   -6743.9174   -6474.8667   -6743.9174            0    1844.2239    23.431698    21.349138    21.566712    10788.674    910.19076     1501.977    3120.5038   -125.12149    308.62881   -57.494034   -6184.6933 
26649000     112.2854   -6737.7634    -6448.916   -6737.7634            0    1944.3467    23.203746    21.360578    21.771392    10790.891    2949.2365    1378.5473    1505.2562   -589.56862   -261.35707   -470.74934   -6142.9263 
26650000     101.9129   -6733.3456   -6471.1809   -6733.3456            0    2474.2652    23.193708    21.511094    21.557711    10755.617    1993.9286    2116.6362    3312.2309   -33.688449    671.92959    337.27085   -6083.0686 
26651000    112.57359   -6739.5363   -6449.9476   -6739.5363            0    2015.5887    23.149528    21.462051    21.674953    10768.904    2426.8582    1566.1677    2053.7403   -51.353469    -148.8154     210.4329   -6133.3925 
26652000    104.94893   -6749.9334   -6479.9587   -6749.9334            0     1751.103    23.315066    21.375709    21.654642    10792.155    1379.7898    1897.8972    1975.6219    272.39863     -63.0538     23.35121   -6204.3482 
26653000    111.39834   -6735.8012   -6449.2358   -6735.8012            0    1630.2542    23.361547    21.230262    21.748461    10786.622    1014.9911    2296.1627    1579.6089    245.26512   -505.15103    217.48934   -6192.7775 
26654000    106.18101   -6736.8743   -6463.7301   -6736.8743            0    1801.5682    23.335867    21.237531     21.78244    10795.294    2462.8673     1884.211    1057.6263    -1046.308    49.629738   -59.801712   -6180.0943 
26655000     103.1586   -6740.8782    -6475.509   -6740.8782            0     2270.952    23.199918    21.451687    21.605794    10752.715     2629.156    1783.9647    2399.7354    699.81743   -350.51082    204.47874   -6119.3844 
26656000    100.39455   -6746.4089     -6488.15   -6746.4089            0    2085.6592     23.09027    21.567587    21.621952    10767.763    2459.3045    1140.0359    2657.6372     124.8698    -636.2001   -38.213722   -6160.6248 
26657000    105.24737   -6741.9008   -6471.1583   -6741.9008            0    2122.9691    23.226456    21.394918    21.681768     10774.28    2852.9269    1923.8182    1592.1623     129.4013    -267.4757    236.07283   -6137.5723 
26658000    110.40914   -6759.2268   -6475.2061   -6759.2268            0    2251.3772    23.359068    21.271893    21.652432    10758.912    2367.8267    2632.5802    1753.7246   -611.10539   -367.03804    336.74373   -6121.9477 
26659000     108.3187   -6739.7834   -6461.1401   -6739.7834            0    1562.9013    23.404044     21.20852    21.801706    10821.607    1363.3087    1832.9759    1492.4193   -621.48108   -96.610016    646.54029   -6214.4799 
26660000    108.91133   -6748.1371   -6467.9693   -6748.1371            0    2932.2756    23.271308    21.330223    21.616586    10730.088    2984.3797    3737.6179    2074.8292    123.31786    135.51027   -21.575028   -6009.1054 
26661000    100.76925   -6737.6632   -6478.4405   -6737.6632            0    1303.0854    23.118652    21.507861    21.742679    10811.172    1771.0323    552.60824    1585.6157    70.157401    875.60501    731.44979   -6272.9832 
26662000    106.68108   -6736.1836    -6461.753   -6736.1836            0    2297.1425    23.148881     21.50169     21.60301    10752.684    2412.0362    1302.1356    3177.2556    656.96497   -927.76057    424.21573   -6101.5223 
26663000    102.56454   -6729.7953   -6465.9543   -6729.7953            0    1418.7856    23.211499    21.445085    21.751482    10827.291    1258.0106    801.89254    2196.4537    56.516624   -271.09735   -377.55532    -6241.921 
26664000    105.91281   -6745.7754   -6473.3212   -6745.7754            0    2515.5757    23.345372     21.28544    21.642462    10754.497    2704.4499    2647.7356    2194.5414    75.288599   -281.10186   -28.370154     -6078.77 
26665000    109.00004   -6744.9414   -6464.5454   -6744.9414            0    1014.3403    23.367881    21.240553     21.80953    10825.089    481.03812    1656.3381    905.64476    71.613906   -312.62946   -354.78324   -6304.4087 
26666000    107.83961   -6726.9165   -6449.5057   -6726.9165            0    2798.0494    23.265523    21.337233    21.645018    10745.061    2334.3623    2821.6583    3238.1275   -77.335218    462.54096    487.52929   -6011.0355 
26667000    105.48787   -6739.9089   -6468.5478   -6739.9089            0    1562.8051    23.164109    21.503462    21.675497     10796.75     1901.513    819.30815    1967.5941    669.15547   -446.70765    612.33154   -6222.4693 
26668000     108.4089   -6731.5467   -6452.6715   -6731.5467            0    2000.3684    23.141316    21.497486    21.669836    10780.312    2363.7707    1566.8885    2070.4461   -647.61939    924.63174   -92.200659   -6138.1739 
26669000    110.78039   -6724.9415   -6439.9657   -6724.9415            0    2745.4168    23.278484     21.39432    21.643371    10778.991    2587.6456    2285.4783    3363.1264  -0.47041197    107.79634    515.46886   -6008.3848 
26670000    107.30255   -6740.3149   -6464.2857   -6740.3149            0    2267.3906    23.362775    21.121121    21.809082    10761.648    1682.9334     3379.152    1740.0865   -906.99569   -76.621258   -30.535464   -6108.4242 
26671000    104.28091   -6733.5084   -6465.2521   -6733.5084            0    378.51741    23.397804    21.345299    21.697346    10836.374    379.97843    480.47651    275.09728    751.06935   -788.31153   -37.604555   -6405.4322 
26672000     109.4744   -6743.6032    -6461.987   -6743.6032            0    2183.4562    23.201332    21.462341    21.620072    10765.821    3030.0919    500.63367    3019.6431   -352.40848     353.8038    224.64062   -6119.1659 
26673000    106.12017   -6743.6654   -6470.6778   -6743.6654            0    2799.0631     23.11537    21.437136    21.657498    10731.882    3880.3038    2219.0998    2297.7858   -618.03737   -9.4944158   -7.6089519   -6032.5866 
26674000    106.33198   -6746.1911   -6472.6585   -6746.1911            0    1902.7723    23.208208    21.402561     21.67871    10768.142    1776.5256    1623.4457    2308.3455   -809.41244    1145.2047    862.61981   -6173.8428 
26675000    107.90587   -6741.0291   -6463.4478   -6741.0291            0    1891.2285    23.295645    21.258628    21.773782    10783.106      1062.78    2485.5446    2125.3607    675.36381    238.84567   -39.293365   -6166.0322 
26676000    102.12808     -6737.65   -6474.9318     -6737.65            0    2113.4201    23.419248    21.272527    21.646716    10784.104    1466.8699     3023.855    1849.5354   -36.244056   -416.55806   -499.69857   -6142.5434 
26677000    110.25665   -6729.1003   -6445.4717   -6729.1003            0    1406.2651    23.303195    21.443287    21.641916    10814.402    1945.6789    636.49148    1636.6248   -833.75085    106.64069   -403.44389   -6223.6799 
26678000    106.99379   -6731.6107   -6456.3757   -6731.6107            0    1829.6456     23.10491    21.477861    21.716143    10776.507    1918.5969    1543.3452    2026.9947    77.383373     132.6336    367.26144   -6168.8207 
26679000     104.1791   -6730.6221   -6462.6277   -6730.6221            0    2523.5976    23.149337    21.505954    21.585079    10746.101    2420.8852    1170.8531    3979.0544    384.04742    42.450182    935.12246   -6067.1273 
26680000    104.06083   -6728.8093   -6461.1191   -6728.8093            0    2446.8665    23.206598    21.327119     21.76534    10772.317    2209.9872    3026.6697    2103.9427    1307.6107   -101.26561    817.99341   -6076.7086 
26681000     108.1984   -6743.5424   -6465.2087   -6743.5424            0    2573.4837    23.406802    21.250833    21.620859    10754.519    2195.3236    1952.8469    3572.2805   -188.39217    267.18954    654.03862   -6061.5741 
26682000    106.52904   -6728.3482   -6454.3087   -6728.3482            0    2091.5074    23.249692    21.325088    21.763683    10790.472    2078.1162     2537.007     1659.399   -604.09802   -18.357177   -834.73198   -6125.1725 
26683000     106.7413   -6744.2917   -6469.7062   -6744.2917            0    3424.3885    23.251573    21.426212     21.52316    10722.691    2989.9687    3179.0948     4104.102   -207.41462   -533.43216   -230.69449   -5934.2022 
26684000    106.19608   -6747.3169   -6474.1339   -6747.3169            0    1652.6133    23.158899    21.409846    21.746884    10782.724    1927.6708    2107.3018    922.86727    229.82954    62.520079   -425.17814   -6214.2523 
26685000    106.80248   -6729.9239    -6455.181   -6729.9239            0    1598.3615    23.217312     21.43735    21.673907    10787.486    1249.4148    2119.3011    1426.3685    512.99087     489.5606   -137.45877   -6203.7197 
26686000    111.50054    -6741.467   -6454.6387    -6741.467            0    2259.0923     23.29027    21.321535    21.701131    10776.441     2340.396    2348.0554    2088.8255   -424.54874    434.88155    486.71584   -6099.5922 
26687000    108.09542   -6757.6691   -6479.6002   -6757.6691            0    2517.3493    23.305375    21.328921    21.650018    10761.759    2549.5088    2113.8763    2888.6627   -618.20801   -172.60333    679.08683   -6084.5042 
26688000    109.57319   -6734.0094   -6452.1391   -6734.0094            0    1369.2842    23.352316    21.291394    21.734878    10806.654     1468.418    1135.6552    1503.7794    703.65741    417.12664   -241.28041   -6236.3345 
26689000    105.31634   -6754.0705   -6483.1506   -6754.0705            0    2018.0845    23.293255    21.387687    21.621684    10771.682    1364.3701    2150.4108    2539.4725   -9.5624212   -79.568026   -785.21993   -6166.1218 
26690000    111.02499   -6725.9487   -6440.3437   -6725.9487            0     2289.902    23.197943    21.464665     21.65609    10783.348    2766.3936    1533.6174     2569.695   -460.49157   -1202.2636    255.17483   -6080.2243 
26691000    104.02335   -6719.9054   -6452.3116   -6719.9054            0    2442.7904      23.2255     21.40014    21.686388    10778.763    2615.1808    2522.7016    2190.4888    60.713461   -112.30349    432.45148   -6068.3118 
26692000     107.2125   -6736.5482   -6460.7506   -6736.5482            0    1309.0592    23.244309    21.421022    21.709246      10809.4    1807.8298    1491.0472    628.30053    82.714325    45.449591   -407.91617   -6254.3852 
26693000    106.68089   -6744.1225   -6469.6924   -6744.1225            0    2672.4916    23.149354    21.392223    21.725741    10758.938    3359.2839    2463.0162    2195.1749   -292.34285   -946.13156    -37.51372   -6050.3569 
26694000    108.46875   -6741.6795   -6462.6503   -6741.6795            0     1281.602    23.358924     21.36652    21.642233    10801.615    1253.0911    1385.6372    1206.0777    137.85849   -359.83816   -257.00488   -6260.7589 
26695000    111.53107   -6742.3873   -6455.4804   -6742.3873            0    2459.5884    23.342993    21.187524    21.753608    10758.904     1829.746    3616.4022    1932.6168   -293.10756    326.41028   -274.26137   -6069.5523 
26696000    109.76139   -6751.8551   -6469.5006   -6751.8551            0    2427.7737    23.222966    21.377163    21.679637    10762.663    2506.6658    2605.4376    2171.2177    445.06543   -718.60794    344.88447   -6088.4314 
26697000     108.6175   -6741.2628   -6461.8509   -6741.2628            0    1506.8547    23.211651    21.454498    21.683637    10798.328    2004.6219    2253.6767    262.26555      112.893    36.636508   -666.48433   -6224.5476 
26698000    113.66868   -6747.9255   -6455.5197   -6747.9255            0    2271.9695    23.117094    21.451223    21.721315    10771.382    2230.1762    2854.2427    1731.4895   -449.18634    224.64929   -463.01106    -6098.617 
26699000    111.20272   -6739.7173   -6453.6551   -6739.7173            0    2821.9016    23.318516    21.366786    21.564612     10744.39     2138.438    3132.8425    3194.4243    447.51577    124.18037    532.04239   -6011.4746 
26700000    107.48594   -6747.3704   -6470.8694   -6747.3704            0    1816.7771    23.299918    21.228343    21.826341    10795.715    1584.5319    2336.4034     1529.396     413.8104     11.68196   -31.702582    -6184.828 
26701000    106.38805   -6735.4791   -6461.8023   -6735.4791            0    1909.4917    23.406897     21.32209    21.601328    10780.876    2181.6057    1606.8316    1940.0379   -1101.6122    216.08871    382.47834   -6161.5767 
26702000    105.28223   -6735.8615   -6465.0293   -6735.8615            0    1668.5023    23.157374    21.372456       21.826    10802.341    2732.9024    1262.5937    1010.0108    159.95557   -984.07659    983.11996   -6202.1717 
26703000    101.93175   -6749.0941   -6486.8809   -6749.0941            0     2624.711    23.157633    21.477193    21.569209    10727.683    2812.6682    1468.7934    3592.6712    351.13979    645.75543    421.21163    -6076.239 
26704000    109.89353   -6751.2635   -6468.5691   -6751.2635            0    2018.0919     23.19872    21.399667    21.713234    10779.424    1828.0533    2302.0723    1924.1501    275.48843    431.83918   -773.22984   -6151.3113 
26705000    105.10032   -6742.2455   -6471.8813   -6742.2455            0    2026.9826    23.257965    21.393798    21.663337    10779.161    1887.5403    1689.7752    2503.6323   -75.738017    147.26421    101.18527   -6153.2336 
26706000    105.55282     -6751.14   -6479.6118     -6751.14            0    1598.1083    23.423939    21.318963    21.619035    10795.986    524.05243    1854.0138    2416.2586   -779.23125    245.21462    -245.6984   -6227.9922 
26707000    104.20435   -6744.6835   -6476.6242   -6744.6835            0    2338.8594    23.248271    21.262528    21.784338    10768.369    2456.4312     3013.134    1547.0131    438.42582    -764.3716   -936.91803   -6109.3165 
26708000    103.93862   -6728.6856   -6461.3098   -6728.6856            0    2457.1431    23.328103    21.367214    21.595165    10764.251     2460.484    1668.9066    3242.0386    500.00864    -76.66679    228.94693   -6075.5738 
26709000    113.25942    -6745.321    -6453.968    -6745.321            0    2277.1787    23.154768    21.377803    21.748848    10765.638    3137.6684    2001.9374    1691.9304   -933.04743   -488.76442    259.55252   -6096.4378 
26710000    105.73842    -6740.538   -6468.5323    -6740.538            0    1115.2063    23.235536    21.486518    21.692216    10829.855    1347.7532    538.02753    1459.8381    17.619373    1401.0713    196.97056    -6292.394 
26711000    109.01748   -6737.2359   -6456.7951   -6737.2359            0    2770.1306    23.184503    21.444416    21.631753    10754.835    2985.6318    2656.6266    2668.1332    344.20821    -200.4891   -77.335323    -6022.305 
26712000    105.66631   -6746.8988   -6475.0787   -6746.8988            0    800.64117     23.26744    21.376428    21.791979     10838.78    788.76153    1670.0524   -56.890474   -4.2941391    464.66053    -277.0595   -6348.5194 
26713000    105.22919   -6739.5092   -6468.8135   -6739.5092            0    2842.9157    23.359305    21.285618    21.604998    10742.377    2171.9045    3051.3979    3305.4446    -87.84343    220.63048   -89.687441   -6023.4237 
26714000    113.19121   -6757.5392   -6466.3617   -6757.5392            0    2230.1037    23.219475    21.315898    21.788243     10783.96    2542.0156    2165.5594     1982.736    49.556879   -415.29689   -183.08125   -6115.6266 
26715000    103.52768   -6744.1548   -6477.8361   -6744.1548            0    2718.3852    23.257552     21.47943    21.498876    10739.956    2168.0054    1791.1048    4196.0454    -68.40081    73.855255     845.7091   -6052.0521 
26716000    106.39225   -6739.1159   -6465.4283   -6739.1159            0    2002.1802    23.083212    21.464368     21.76814    10785.386    3127.9187    1702.8938    1175.7282   -474.59762    135.05434    59.400788   -6150.4978 
26717000    106.53442   -6737.7762   -6463.7229   -6737.7762            0    2134.1184    23.269244     21.45194    21.583776    10773.982    2092.4233    2423.6646    1886.2673   -282.64514   -280.63184     46.36609   -6128.3942 
26718000    109.57979   -6738.0597   -6456.1724   -6738.0597            0    2487.4587    23.271634    21.264952    21.766318    10771.502     2497.284    2709.8348    2255.2575    112.28776    145.86787   -407.42997   -6065.4143 
26719000    106.96288   -6745.2997   -6470.1442   -6745.2997            0    853.62583    23.364479    21.334082    21.739669    10836.349    952.87752    879.04711    728.95287    187.82784    142.06575    78.865646   -6335.2397 
26720000    102.00744   -6747.0556   -6484.6476   -6747.0556            0    2446.6427    23.240601    21.353764    21.655425    10747.031    2533.4174    2848.9487     1957.562    568.75665    22.760882   -525.47231   -6101.1745 
26721000    101.70547   -6734.7564   -6473.1252   -6734.7564            0    2234.9447    23.141797    21.436576    21.739994    10784.795    3407.3955    1452.5627    1844.8757    233.96904   -792.67658    747.74532   -6121.6016 
26722000    107.66619   -6748.0729   -6471.1082   -6748.0729            0    2638.2355    23.189984    21.468418    21.570815    10739.079    3127.9684    1182.9212    3603.8169    533.94301    58.568424    498.91483   -6057.9118 
26723000    105.57191   -6747.7565   -6476.1792   -6747.7565            0    1079.2904    23.175789    21.405659    21.833951    10831.671    2195.2588    345.32998    697.28244   -354.52832    19.931103   -198.47645   -6305.6849 
26724000    111.62234   -6736.5441   -6449.4025   -6736.5441            0    2967.3502    23.319075     21.32579    21.600528    10741.893     2605.018    2882.7283    3414.3043   -226.21975   -276.93149    99.199035   -5984.5389 
26725000    106.58867    -6745.382   -6471.1891    -6745.382            0    926.76558    23.369114    21.264384    21.802422    10834.274    698.81862    1952.2142    129.26389    196.22879   -599.86084   -1336.1811   -6324.7539 
26726000    106.72433   -6739.4651   -6464.9233   -6739.4651            0    2776.5549    23.264322    21.281345    21.694949    10741.084    2542.8679    3224.0401    2562.7568   -688.37647    284.78214   -143.75225   -6029.9824 
26727000    113.57399   -6733.9233   -6441.7611   -6733.9233            0    1623.0416     23.22331    21.443617    21.666976    10789.976    1567.4534    1620.0373     1681.634   -779.66253    751.71094   -377.11849   -6186.3581 
26728000    111.10278   -6726.2893   -6440.4842   -6726.2893            0     2950.088    22.952626    21.493977     21.74352    10727.018    4407.2797    1645.1531    2797.8313    910.49277    -148.6852   -11.461124   -5978.9649 
26729000    106.45173   -6735.0816    -6461.241   -6735.0816            0    2308.5002    23.229474    21.461398     21.59255    10764.685    1874.8378    1351.3323    3699.3303    674.99156    376.83196    63.866375   -6098.8252 
26730000    110.70027    -6736.046   -6451.2763    -6736.046            0    1890.5366    23.350823     21.28535     21.72639    10798.677    414.17676    2984.0825    2273.3505   -245.53876     471.7569    -597.2816   -6153.5402 
26731000    110.64528   -6733.2762    -6448.648   -6733.2762            0    2020.2155    23.419819    21.239432    21.664266    10776.318      905.858    2473.8425    2680.9461   -535.26456    96.466265   -74.198596   -6131.1478 
26732000    111.83936   -6746.3682   -6458.6682   -6746.3682            0    1949.9265    23.248408    21.336223    21.695759    10761.817    2423.5432    1772.3165    1653.9198    91.875789   -836.88511    406.93643   -6152.6272 
26733000    106.20544   -6747.6409   -6474.4338   -6747.6409            0     1704.657    23.127334    21.474153    21.727273    10790.631    1589.0761    1568.4936    1956.4014    756.72374    799.27904   -110.00058   -6206.1715 
26734000     108.6497    -6742.304   -6462.8093    -6742.304            0    2481.1487    23.125326    21.575564    21.546664    10750.535    2627.0564    1323.1876     3493.202     579.5909   -153.65533    169.67262   -6073.8011 
26735000    109.80245   -6750.1116   -6467.6514   -6750.1116            0    2354.5234    23.233878    21.363811    21.703484    10772.832    2384.4624    2289.7998    2389.3081   -393.74761    55.019907   -458.11493   -6097.7306 
26736000    105.52332   -6738.8141   -6467.3618   -6738.8141            0    2047.7489    23.411281    21.252524    21.660606    10777.209    2045.6043    1579.4334     2518.209   -405.80987    140.77126    693.69326   -6145.5078 
26737000    106.84457   -6750.9788   -6476.1276   -6750.9788            0    1968.4342     23.28195    21.245572     21.80059    10783.408    1500.5787    2853.5967    1551.1271    392.10573    787.22822   -397.56962    -6166.562 
26738000    110.08167   -6730.4828   -6447.3044   -6730.4828            0    2454.4035    23.218067    21.470977    21.575527    10755.715    2645.2362    1789.3712    2928.6031    669.18548   -796.91548   -262.52679   -6062.3041 
26739000    104.05089    -6737.214   -6469.5495    -6737.214            0    1658.6876    23.151518    21.527735      21.6851    10807.848    1815.6316    1332.4132    1828.0182    450.54936    119.21706    -247.0893   -6208.1048 
26740000    112.60317   -6745.9716   -6456.3068   -6745.9716            0    1770.9468    23.128705    21.478517    21.700911    10780.368    2207.8022    2103.9984    1001.0398   -338.71837    397.52106    -455.1238   -6177.8775 
26741000    108.24843   -6750.2948   -6471.8323   -6750.2948            0    1312.1608    23.284067    21.400961    21.683483     10804.91    916.37456    1581.5646    1438.5433   -155.86002    62.065045    39.808229   -6265.0639 
26742000    106.26521   -6742.8404   -6469.4796   -6742.8404            0    2926.5998    23.269303    21.285168    21.679149    10737.488    3162.7783    3079.5388    2537.4824   -982.06377   -387.69142   -222.83084    -6011.188 
26743000    109.17443   -6736.6416    -6455.797   -6736.6416            0     1887.461    23.426096     21.28863    21.628292    10786.235    1152.6794    2193.2438      2316.46    950.54917   -763.94036    403.50562   -6158.8877 
26744000    106.06093   -6737.2603    -6464.425   -6737.2603            0    2143.9636    23.218613    21.349225      21.6895    10751.472    2571.3314    1572.6734    2287.8859    -89.38492     624.5456    746.77113   -6128.2533 
26745000    111.90597   -6732.7471   -6444.8758   -6732.7471            0    2150.5219    23.194735    21.417406    21.677176    10768.594    2917.9238    1253.4073    2280.2346   -391.40171    225.75797    263.91589   -6107.1387 
26746000    103.48529   -6736.6739   -6470.4643   -6736.6739            0    1428.8343    23.239696    21.466036    21.648874    10799.847    1669.5054    1166.5048    1450.4926   -541.92752    734.60095   -297.22657   -6245.4162 
26747000    103.29682   -6729.5612   -6463.8364   -6729.5612            0    2348.5672    23.186787    21.430971    21.675036    10770.658    3240.7827    1881.1284    1923.7904   -843.64867    645.80611   -514.64291   -6094.9258 
26748000    107.76274   -6737.8106   -6460.5975   -6737.8106            0    2257.0056    23.261618    21.368518     21.68558    10779.171    1844.0302     2149.982    2777.0044    458.43721    1.7756649    651.39735   -6105.7891 
26749000    108.69259   -6748.0261    -6468.421   -6748.0261            0    2606.0581    23.251268    21.287187     21.70062    10740.811    1868.1825    3217.9575    2732.0342   -916.07006     980.6687   -48.340173   -6060.1984 
26750000     110.7786   -6723.1351   -6438.1639   -6723.1351            0    2540.0514      23.2744    21.360998    21.686749    10781.879    1847.3568    2266.2907    3506.5066    809.55016   -614.92711    152.08445   -6038.7595 
Loop time of 479.31 on 64 procs for 250000 steps with 1296 atoms

Performance: 90.130 ns/day, 0.266 hours/ns, 521.583 timesteps/s
393.2% CPU use with 16 MPI tasks x 4 OpenMP threads

MPI task timing breakdown:
Section |  min time  |  avg time  |  max time  |%varavg| %total
---------------------------------------------------------------
Pair    | 40.396     | 48.992     | 56.971     |  62.7 | 10.22
Bond    | 1.53       | 1.76       | 2.2968     |  17.5 |  0.37
Kspace  | 239.28     | 247.84     | 255.58     |  31.2 | 51.71
Neigh   | 1.0065     | 1.0649     | 1.1134     |   3.2 |  0.22
Comm    | 42.972     | 48.25      | 51.777     |  35.7 | 10.07
Output  | 0.50219    | 0.50255    | 0.50434    |   0.1 |  0.10
Modify  | 119.01     | 123.02     | 126.7      |  14.4 | 25.67
Other   |            | 7.881      |            |       |  1.64

Nlocal:        81.0000 ave          97 max          61 min
Histogram: 1 1 0 3 1 3 3 0 2 2
Nghost:        3679.12 ave        3713 max        3646 min
Histogram: 2 1 2 2 0 2 2 3 0 2
Neighs:        25910.5 ave       31085 max       19604 min
Histogram: 1 1 0 3 1 3 3 0 2 2

Total # of neighbors = 414568
Ave neighs/atom = 319.88272
Ave special neighs/atom = 2.0000000
Neighbor list builds = 2722
Dangerous builds = 0

unfix		3
unfix		2
unfix		1

write_data	data.final.${pid}
write_data	data.final.0
System init for write_data ...
PPPM initialization ...
  extracting TIP4P info from pair style
  using 12-bit tables for long-range coulomb (../kspace.cpp:340)
  G vector (1/distance) = 0.37786771
  grid = 30 40 36
  stencil order = 5
  estimated absolute RMS force accuracy = 0.0025711923
  estimated relative force accuracy = 7.7430692e-06
  using double precision FFTW3
  3d grid and FFT values/proc = 12528 3600
Last active /omp style is kspace_style pppm/tip4p/omp
WARNING: Not all mixed pair coeffs generated from mixing. Use write_data with 'pair ij' option to store all pair coeffs. (../write_data.cpp:312)

write_restart   restart.lmp.${pid}
write_restart   restart.lmp.0
System init for write_restart ...
PPPM initialization ...
  extracting TIP4P info from pair style
  using 12-bit tables for long-range coulomb (../kspace.cpp:340)
  G vector (1/distance) = 0.37786771
  grid = 30 40 36
  stencil order = 5
  estimated absolute RMS force accuracy = 0.0025711923
  estimated relative force accuracy = 7.7430692e-06
  using double precision FFTW3
  3d grid and FFT values/proc = 12528 3600
Last active /omp style is kspace_style pppm/tip4p/omp
Total wall time: 0:07:59
