#include		in.partitions
include		in.temp
variable        temperature equal 235.10
variable	tempDamp equal 100.0
include		in.pressure
variable        pressure equal 2145.7
variable        pressureDamp equal 1000.0 # This is 1 ps
include		in.seed
variable        seed equal 745823

units		real
atom_style	full
box tilt large
read_restart	restart.lmp.${pid}
read_restart	restart.lmp.0
Reading restart file ...
  restart file = 30 Jul 2021, LAMMPS = 30 Jul 2021
  restoring atom style full from restart
  triclinic box = (-10.799347 -9.2109909 -0.098983070) to (12.779347 12.200989 21.958982) with tilt (-9.2865491 1.6645212 2.8580150)
  4 by 2 by 4 MPI processor grid
  restoring pair style lj/cut/tip4p/long/omp from restart
  restoring bond style harmonic/omp from restart
  restoring angle style harmonic/omp from restart
  1296 atoms
  864 bonds
  432 angles
Finding 1-2 1-3 1-4 neighbors ...
  special bond factors lj:    0        0        0       
  special bond factors coul:  0        0        0       
     2 = max # of 1-2 neighbors
     1 = max # of 1-3 neighbors
     1 = max # of 1-4 neighbors
     2 = max # of special neighbors
  special bonds CPU = 0.002 seconds
  read_restart CPU = 0.006 seconds
include 	in.setup
variable	out_freq equal 1000
variable	out_freq2 equal 10000
variable	out_freq3 equal 1000

timestep	2.0

neigh_modify    delay 7 every 1

include		in.tip4p
# This is TIP4P/Ice

# create groups ###
group ox type 2
432 atoms in group ox
group hy type 1
864 atoms in group hy

# set charges - beside manually ###
set group ox charge -1.1794
Setting atom values ...
  432 settings made for charge
set group hy charge 0.5897
Setting atom values ...
  864 settings made for charge

# ### TIP3P Potential Parameters ###
pair_style lj/cut/tip4p/long/omp 2 1 1 1 0.1577 8.5
pair_coeff 1 1*2 0.000 0.000
pair_coeff 2 2 0.21084 3.1668
bond_style  harmonic
bond_coeff  1 450 0.9572
angle_style harmonic
angle_coeff 1 55 104.52
kspace_style pppm/tip4p/omp 1.0e-5
pair_modify tail yes

thermo          ${out_freq}
thermo          1000
thermo_style    custom step temp pe etotal epair emol press lx ly lz vol pxx pyy pzz pxy pxz pyz enthalpy

restart 	${out_freq3} restart.lmp.${pid} restart2.lmp.${pid}
restart 	1000 restart.lmp.${pid} restart2.lmp.${pid}
restart 	1000 restart.lmp.0 restart2.lmp.${pid}
restart 	1000 restart.lmp.0 restart2.lmp.0


include         in.dump
dump            myDump all atom ${out_freq2} dump.water.${pid}
dump            myDump all atom 10000 dump.water.${pid}
dump            myDump all atom 10000 dump.water.0
dump            myDump2 all dcd ${out_freq2} dump.dcd
dump            myDump2 all dcd 10000 dump.dcd
dump_modify     myDump append yes
dump_modify     myDump2 append yes


variable natoms 	equal  "count(all)"                        # NUMBER ATOMS
variable H      	equal  "enthalpy/v_natoms"                 # ENTHALPY-per-atom
variable Vol      	equal  "vol/v_natoms"                 # volume-per-atom
fix AVG all 		ave/time ${out_freq} 1 ${out_freq} v_Vol v_H file vol_enthalpy.dat
fix AVG all 		ave/time 1000 1 ${out_freq} v_Vol v_H file vol_enthalpy.dat
fix AVG all 		ave/time 1000 1 1000 v_Vol v_H file vol_enthalpy.dat


timer           timeout 10:00:00 every 1000
New timer settings: style=normal  mode=nosync  timeout=10:00:00

fix 		1 all shake 1e-6 200 0 b 1 a 1
       0 = # of size 2 clusters
       0 = # of size 3 clusters
       0 = # of size 4 clusters
     432 = # of frozen angles
  find clusters CPU = 0.001 seconds
fix             2 all nph tri ${pressure} ${pressure} ${pressureDamp}
fix             2 all nph tri 2145.7 ${pressure} ${pressureDamp}
fix             2 all nph tri 2145.7 2145.7 ${pressureDamp}
fix             2 all nph tri 2145.7 2145.7 1000
fix             3 all temp/csvr ${temperature} ${temperature} ${tempDamp} ${seed}
fix             3 all temp/csvr 235.1 ${temperature} ${tempDamp} ${seed}
fix             3 all temp/csvr 235.1 235.1 ${tempDamp} ${seed}
fix             3 all temp/csvr 235.1 235.1 100 ${seed}
fix             3 all temp/csvr 235.1 235.1 100 745823


run             250000
PPPM initialization ...
  extracting TIP4P info from pair style
  using 12-bit tables for long-range coulomb (../kspace.cpp:340)
  G vector (1/distance) = 0.3673374
  grid = 30 40 32
  stencil order = 5
  estimated absolute RMS force accuracy = 0.0044569115
  estimated relative force accuracy = 1.3421857e-05
  using double precision FFTW3
  3d grid and FFT values/proc = 7888 1280
Last active /omp style is kspace_style pppm/tip4p/omp
Neighbor list info ...
  update every 1 steps, delay 7 steps, check yes
  max neighbors/atom: 2000, page size: 100000
  master list distance cutoff = 10.8154
  ghost atom cutoff = 10.8154
  binsize = 5.4077, bins = 7 5 5
  1 neighbor lists, perpetual/occasional/extra = 1 0 0
  (1) pair lj/cut/tip4p/long/omp, perpetual
      attributes: half, newton on, omp
      pair build: half/bin/newton/tri/omp
      stencil: half/bin/3d/tri
      bin: standard
Per MPI rank memory allocation (min/avg/max) = 10.65 | 10.66 | 10.66 Mbytes
Step Temp PotEng TotEng E_pair E_mol Press Lx Ly Lz Volume Pxx Pyy Pzz Pxy Pxz Pyz Enthalpy 
 1000000    240.10081   -6304.7054   -5687.0607   -6304.7054            0    1191.7689    23.578693     21.41198    22.057965    11136.328    245.94032    2769.5441    559.82224    108.77067    586.52016   -15.609118   -5493.5032 
 1001000    228.79615   -6341.7892   -5753.2251   -6341.7892            0    1803.6753    23.235832    21.803225    21.932105    11111.157    2393.9364    1101.8597    1915.2296    699.89476    808.22454   -39.241635   -5460.9488 
 1002000    240.51282    -6363.909   -5745.2044    -6363.909            0    1910.4563     23.65088    21.529759    21.796561     11098.76    794.45063    1869.9178    3067.0003    36.935511   -103.05047    437.32551   -5435.9703 
 1003000    227.52162   -6334.5131   -5749.2276   -6334.5131            0    1392.5588    23.480877    21.691821    21.881016    11144.942    718.53915    1887.0849    1572.0524    258.86039   -686.84752   -666.21729   -5522.8845 
 1004000    227.00996   -6369.0182   -5785.0489   -6369.0182            0     419.5842    23.573021    21.577038    21.918661    11148.619    387.23813    1105.0957   -233.58121    1149.7039    -443.1851     283.9224   -5716.8282 
 1005000    227.19135   -6344.3813   -5759.9454   -6344.3813            0    606.50615    23.443209    21.597646    22.047562     11163.08      277.906    1083.6823    457.93014    1004.1632     620.2557   -137.69036   -5661.2049 
 1006000    240.05567   -6352.9621   -5735.4336   -6352.9621            0    1895.2346    23.421893    21.530934    22.043406    11116.385    2488.3207    2108.9184    1088.4648   -267.12017    388.60166   -33.966178   -5428.1761 
 1007000    231.77258   -6363.7587   -5767.5379   -6363.7587            0    2147.9635    23.529763    21.475526    21.889511    11061.078    2448.5763    1690.9293     2304.385     865.4159   -419.25093   -347.48031   -5421.0403 
 1008000    245.66626   -6371.0171   -5739.0556   -6371.0171            0    2767.0942    23.372563    21.757417    21.695791    11032.887    3287.0081     643.8553    4370.4193   -9.9619428    687.71122    435.11097   -5293.8209 
 1009000    246.11821    -6343.656   -5710.5319    -6343.656            0    3004.0413     23.58156    21.468443    21.916804    11095.588    1379.3804     3014.092    4618.6515   -1922.9335    105.05748   -457.12906   -5224.4247 
 1010000    246.68749   -6368.4935    -5733.905   -6368.4935            0    2952.6949    23.246804    21.667013    21.897401    11029.476    3472.4751    1953.2217    3432.3879   -200.28253     212.2302    435.27327   -5258.9534 
 1011000     233.9329   -6357.1068   -5755.3287   -6357.1068            0    2054.1174    23.470289    21.391528    22.030687    11060.845    1758.2897    3232.1934     1171.869    300.15145    558.42354    868.46206   -5423.9768 
 1012000    245.55954   -6349.5874   -5717.9005   -6349.5874            0    997.81554    23.340901    21.827178     21.85115    11132.418    2622.4466   -790.41857    1161.4185   -226.00111     765.4988   -881.19974   -5555.9002 
 1013000    243.07233   -6353.0755   -5727.7867   -6353.0755            0    1816.8445    23.579144    21.501926    21.864875    11085.426    1093.2297    2035.7328     2321.571   -382.74354    190.94532   -151.92902   -5434.0583 
 1014000    223.91046   -6350.2161   -5774.2201   -6350.2161            0    2253.5555    23.355974    21.657176    21.873704    11064.254    3001.5505     2429.715     1329.401   -956.69832    453.62744   -276.23009   -5410.5845 
 1015000    236.94228   -6350.1765   -5740.6569   -6350.1765            0    2895.8169    23.473759    21.356803    22.020312     11039.32    3230.0122    2510.0034     2947.435    646.96946    247.67017    937.69878   -5274.4386 
 1016000    232.79702   -6348.9028   -5750.0466   -6348.9028            0     2751.692    23.354587    21.672035    21.894437    11081.681     2694.212    1493.8509    4067.0131   -684.86294   -683.07828    622.75724    -5305.332 
 1017000    238.97162   -6366.3692   -5751.6293   -6366.3692            0    3295.4046    23.544634    21.506997    21.752105    11014.708    3475.0674    3165.6074    3245.5389   -1316.1434   -21.426517    700.72917   -5222.2614 
 1018000    228.53385   -6370.3833   -5782.4939   -6370.3833            0    689.01118     23.47746    21.683276    21.795607    11095.452    92.024227    361.09756    1613.9117    613.97848    -170.6011    1422.2742    -5671.001 
 1019000    236.81376   -6364.6798   -5755.4909   -6364.6798            0    2319.2007    23.506229    21.375776    22.042091    11075.355    1739.5512    3105.7435    2112.3075    1984.6106    638.89876   -351.32683   -5380.8873 
 1020000    234.50873   -6376.4085   -5773.1491   -6376.4085            0    1217.0508    23.471805    21.606531    21.902026    11107.487    2146.2118    1453.3935    51.547103   -1135.1579    680.79968   -856.34312   -5575.9974 
 1021000    233.84545   -6381.3444   -5779.7912   -6381.3444            0    2409.3416    23.459787    21.603859    21.827588      11062.7    1243.4256    2255.0041     3729.595    626.81239    408.18842   -16.492577   -5391.0726 
 1022000    242.04449   -6362.1725   -5739.5278   -6362.1725            0     1766.821    23.485101    21.674163    21.753596    11073.013    2321.3515    1146.3828    1832.7288     82.28148   -474.06939    206.06038   -5454.2065 
 1023000    221.96294   -6334.0791   -5763.0929   -6334.0791            0    1358.0432    23.586884    21.527414    21.862447    11100.977    622.02149    2601.0205    851.08761    1220.4535   -795.33496    802.15542   -5543.2307 
 1024000    252.34738     -6331.32   -5682.1717     -6331.32            0    1216.5626    23.417484    21.641084      22.0057    11152.043    1634.8015    1058.0309    956.85534   -248.08085   -183.23894   -37.824457   -5484.3086 
 1025000    244.40525   -6346.7255   -5718.0079   -6346.7255            0    2061.5563    23.442916    21.524784    21.974291    11088.309    2760.7821    2766.7608    657.12613    470.23777    99.227236   -1609.5302   -5384.6303 
 1026000    241.85558   -6341.7022   -5719.5434   -6341.7022            0    3134.6235    23.470619    21.632655    21.765446    11051.009     2366.871    3302.6981    3734.3013    37.830748    528.06612    -836.6854   -5214.3436 
 1027000    229.40245   -6323.4296   -5733.3058   -6323.4296            0    1061.9249     23.66892     21.52056    21.880306    11145.137    1124.9138    729.13276    1331.7282   -564.36996   -145.33772   -356.65272   -5560.7001 
 1028000    220.00361   -6349.3597   -5783.4138   -6349.3597            0     2051.331    23.328459    21.568448    22.045084    11092.174    2410.2783    3224.1032     519.6114    402.82169   -41.447395    555.17452   -5451.5742 
 1029000     233.0442   -6373.3859   -5773.8939   -6373.3859            0    2625.1976    23.472616    21.447994    21.943981    11047.489    1119.8031    4047.9519    2707.8379    486.37356     453.9747    631.50794   -5350.9318 
 1030000    243.08352   -6332.9026   -5707.5851   -6332.9026            0     2313.994    23.451548    21.592324    21.906068     11092.65    1207.7475    2829.3769    2904.8576    481.49793   -407.91223    1197.2249   -5333.2389 
 1031000    237.78476   -6339.3625   -5727.6757   -6339.3625            0    1474.1508    23.484816     21.52184    22.038168    11138.893     1577.059    2099.6704    745.72294   -1021.5129    -270.7684   -1345.6991   -5488.2009 
 1032000    236.10857   -6350.9345   -5743.5596   -6350.9345            0    2112.4535    23.512987    21.621742    21.804351    11085.152    1328.6811     1553.373    3455.3065    140.56392   -377.23824   -604.86677   -5402.0486 
 1033000    233.81849   -6354.5001   -5753.0163   -6354.5001            0    2685.1054    23.643704    21.530122    21.647486    11019.693    1805.6721    3548.5939    2701.0502   -178.93462    12.687858    154.67417   -5321.4905 
 1034000    230.19233   -6364.8322   -5772.6764   -6364.8322            0    2801.3668    23.335916    21.576881    21.964054    11059.259    3557.3737    3545.1316    1301.5952    630.06608   -572.68741   -774.88984   -5320.8497 
 1035000    233.83708   -6380.3149   -5778.7832   -6380.3149            0    3678.9526     23.35105    21.435914    21.920493    10972.326    3409.9459    3545.9808    4080.9312    646.73083   -234.05884    1360.8227   -5190.0768 
 1036000    238.44988   -6388.3879   -5774.9901   -6388.3879            0    3136.5386    23.427563    21.510177    21.812133    10991.811    2546.5282    3756.2025    3106.8852   -147.22626    475.98518   -1153.0721   -5272.1895 
 1037000    237.69167   -6356.2651   -5744.8178   -6356.2651            0    3133.9919    23.477761     21.51262    21.851009    11036.248    2482.9321    3698.9822    3220.0614   -161.20425    209.67093   -1718.5014   -5240.3944 
 1038000    238.90822   -6360.3438   -5745.7669   -6360.3438            0    2811.2328    23.387891    21.475916    21.986638    11043.369    2962.1181     2584.984    2886.5962    355.20459   -370.52372   -122.76953   -5293.0004 
 1039000    240.76654   -6368.6295   -5749.2722   -6368.6295            0    1412.6516    23.435054    21.531824    21.962984     11082.51    1625.9249    1829.2738    782.75619   -536.15064   -65.894254    1328.3318   -5520.9495 
 1040000    246.08207    -6396.755   -5763.7238    -6396.755            0    1755.7602     23.50961    21.583158     21.84999    11086.939    1980.6154     1666.504    1620.1613   -1228.4009    156.39511   -394.99198   -5479.8321 
 1041000    234.55333   -6372.4041   -5769.0299   -6372.4041            0    2009.6802    23.377518    21.688954    21.842077    11074.673    2197.3122    1049.1411    2782.5872    4.6046908   -304.69696   -741.59201    -5444.441 
 1042000    234.29685   -6356.6904   -5753.9761   -6356.6904            0     2267.799     23.39965     21.42128    22.022225    11038.651     1862.389    3263.8834    1677.1245    1263.8186    985.06547     16.57595    -5388.889 
 1043000    233.55006    -6342.246   -5741.4527    -6342.246            0    2278.7042    23.490047    21.593594    21.744939    11029.784    1847.0017    1834.6115    3154.4994    -476.0912    -260.1148    49.192345   -5374.9047 
 1044000     237.0196   -6353.9861   -5744.2676   -6353.9861            0    2123.5935    23.455776    21.555325      21.8916    11068.324    2277.1196     1854.979    2238.6818    -1090.063   -105.38052   -841.68324   -5401.4768 
 1045000    219.26069   -6376.4272   -5812.3924   -6376.4272            0    2187.4074    23.375957     21.60995     21.90481    11065.286    1795.8816    2512.2298    2254.1106     35.24235    789.77687    325.82759   -5459.3977 
 1046000    228.20719   -6323.4247   -5736.3756   -6323.4247            0    2650.3352    23.626575    21.492955     21.76218    11050.942    1574.8699    3303.3285    3072.8073    1233.3321    1060.3967    1144.5084     -5309.23 
 1047000    230.21705   -6363.5363    -5771.317   -6363.5363            0    2170.3206    23.303218    21.700494    21.898971     11074.12    3544.5614    1784.4887    1181.9119   -108.05592   -1479.0404   -1402.2356      -5420.8 
 1048000    243.38524   -6359.4871   -5733.3934   -6359.4871            0    2640.2851    23.438056    21.466743    21.978314    11058.141    3029.6469    3316.3196    1574.8887    377.61223    -1388.555   -267.31544   -5307.5903 
 1049000    240.45779    -6344.265    -5725.702    -6344.265            0    3552.7059    23.360765    21.591649     21.79562    10993.655      3882.37    4857.8758    1917.8718    436.53995   -357.52898    40.931213   -5156.0924 
 1050000    238.55175   -6359.3554   -5745.6956   -6359.3554            0    3025.6962    23.513402    21.374612    21.900698    11007.069    3525.3675     2613.475    2938.2462    487.69753   -877.62526    148.46288   -5259.9902 
 1051000    246.33462   -6354.5512   -5720.8704   -6354.5512            0    976.67912    23.231078     21.74057    22.123371    11173.561    2405.4612     672.9996   -148.42343    331.44768   -376.07946    681.08013   -5561.7158 
 1052000    233.96015   -6382.4459   -5780.5976   -6382.4459            0    1205.9396    23.605846    21.542397    21.845152    11108.839    1050.9594      720.286    1846.5734    -457.1265    142.03097   -262.49993   -5585.2221 
 1053000    230.58084   -6365.5322   -5772.3771   -6365.5322            0    2874.0393    23.469301    21.663945    21.722585    11044.581    3531.5037     2041.939    3048.6752    388.62745   -559.10278   -121.61648   -5309.4444 
 1054000    235.58927   -6340.4271    -5734.388   -6340.4271            0    2729.0751    23.392631    21.453904     22.03806    11060.093    4558.7623    2517.2569    1111.2061    642.99785   -157.49571   -64.271754   -5294.1879 
 1055000    241.16241   -6357.5645   -5737.1888   -6357.5645            0    2910.0379     23.26054    21.495252    22.098566    11049.087    4266.2246    2462.7237    2001.1653    894.37579   -799.47521    484.53973   -5268.2665 
 1056000    248.91676   -6354.4823   -5714.1591   -6354.4823            0    1753.7386     23.36868    21.670767     21.97622    11129.136     2328.712    949.30485    1983.1991   -71.135086    205.67932    364.60797   -5429.5149 
 1057000    236.00576   -6353.4031   -5746.2927   -6353.4031            0    2039.8813    23.592166    21.495355    21.790318    11050.349    1255.5371    3186.1727     1677.934   -1089.7401     781.2415   -507.23002   -5417.5495 
 1058000     230.6111   -6346.9123   -5753.6793   -6346.9123            0    3980.3628    23.239643       21.679    21.795906    10981.044    4922.4582    2896.0478    4122.5826   -7.2420834   -244.78063   -573.97334   -5116.2351 
 1059000    230.54795   -6334.3598   -5741.2893   -6334.3598            0    2280.9338    23.520222    21.321978    22.094531    11080.355    1944.4705    2559.9275    2338.4033     1455.655   -239.03045    16.910169   -5372.7004 
 1060000    230.32058    -6379.242   -5786.7563    -6379.242            0    1130.5661    23.356245    21.739745    21.880107    11109.817    166.91469    1827.3059    1397.4778    401.86908    102.03502   -168.37177    -5603.576 
 1061000    231.88712   -6348.3891   -5751.8736   -6348.3891            0    1378.6093    23.611248    21.449217    21.969324    11126.206    1204.9181    1591.6449    1339.2649    71.974035   -69.319928   -918.83963   -5528.1745 
 1062000    234.45988    -6338.539   -5735.4052    -6338.539            0    2719.1208    23.254183    21.744675    21.835559    11041.252    3985.2803    1467.2962    2704.7859    522.94021    888.84362     -70.0107   -5297.5579 
 1063000    244.08025   -6334.6298   -5706.7482   -6334.6298            0    2070.4122    23.678735    21.558242    21.745034    11100.228    842.45112     1923.943    3444.8424   -333.39388    51.008684    364.75934   -5371.5786 
 1064000    234.52991   -6359.3912   -5756.0773   -6359.3912            0     1610.805    23.467663    21.609497    21.861024    11086.259    1590.8108    1419.8624    1821.7417   -698.68128   -747.43069    845.09059   -5495.6396 
 1065000    230.01172   -6385.6202    -5793.929   -6385.6202            0    386.13022    23.377156    21.529696     22.13393    11140.075    1476.6119   -77.806926   -240.41435   -1424.6364   -282.02353     210.3277   -5731.1958 
 1066000    235.30378   -6325.5076    -5720.203   -6325.5076            0    746.93352     23.39261    21.656679    22.003755     11147.24   -24.522056    1184.9724    1080.3503    219.98689    1759.4937   -164.45001   -5598.7732 
 1067000     232.4637   -6385.7007    -5787.702   -6385.7007            0    1873.4439    23.547986    21.535351    21.785258    11047.613    765.48313    1395.0355    3459.8132   -151.92744    1562.9989   -285.34912   -5485.8562 
 1068000    233.60295   -6375.4474   -5774.5181   -6375.4474            0    1609.1054    23.550089    21.543422     21.81409    11067.368    1047.4668    1422.6179    2357.2314    771.73626    435.09716    272.03528   -5514.7985 
 1069000     230.1993   -6389.3272   -5797.1535   -6389.3272            0    990.14351    23.232786    21.802263     21.87821    11081.911    1969.2374   -691.91813    1693.1112   -115.15486    430.96862    1200.1825   -5637.1282 
 1070000    237.33828   -6363.8155   -5753.2772   -6363.8155            0    1281.2657     23.53569    21.443048    22.045895    11126.055    1433.8576    1582.0701    827.86942   -1282.4864   -531.50555    1232.6039   -5545.3763 
 1071000    236.99768   -6356.5969   -5746.9348   -6356.5969            0     868.7945     23.46276    21.693707    21.882706    11138.172    1008.9121    810.16757    787.30383    163.94962   -911.36486   -690.74321   -5605.8089 
 1072000    244.99165   -6321.6583   -5691.4322   -6321.6583            0     1709.978    23.499833    21.523808    21.964245    11109.644    1544.1938    1222.6926    2363.0475     334.3735    616.77425    388.99233   -5414.3768 
 1073000    239.31158   -6395.5255   -5779.9111   -6395.5255            0    2832.0862    23.446826    21.517688    21.822454    11009.897    3362.4047    1845.2197     3288.634    577.20034    867.28056   -84.585766   -5325.1685 
 1074000     233.9495   -6354.8126   -5752.9917   -6354.8126            0    2947.4269    23.492435    21.609014    21.762996    11047.949    2215.0692    3842.9276    2784.2839    747.85313   -815.03759    165.09388   -5278.0934 
 1075000    242.95238   -6377.4502     -5752.47   -6377.4502            0    2042.9605    23.470452    21.592259    21.843154    11069.676    2689.3457    1015.5331    2424.0025    342.77606   -1026.9117    959.61186   -5422.6547 
 1076000    231.59184   -6347.3004   -5751.5444   -6347.3004            0    3146.4225    23.406752    21.530789    21.858366     11015.87    3180.5125    3233.4724    3025.2825    34.225035   -1435.1693    119.12043   -5246.0554 
 1077000    238.73151   -6382.0652    -5767.943   -6382.0652            0    2168.0973    23.396001    21.533992    21.955478    11061.374    3290.4188    2336.7675    877.10563   -500.08625    5.0604908    -299.2235   -5418.1881 
 1078000     242.6878   -6337.4415   -5713.1419   -6337.4415            0    1712.3634    23.448302    21.632469    21.895501    11106.376    3187.1547    716.18649    1233.7489    37.630261   -285.19007   -565.07208   -5435.7817 
 1079000    227.53582   -6363.4737   -5778.1517   -6363.4737            0    1717.6032    23.474099    21.528407    21.852599    11043.428    1509.4184    1371.2703    2272.1208    822.03271    589.67875    275.79618   -5501.5195 
 1080000    238.41839    -6337.654   -5724.3372    -6337.654            0    2468.7112    23.415825    21.527295    21.964101     11071.65    3062.1186    1750.4199    2593.5952    191.84105    390.18373    477.69005   -5325.7177 
 1081000    229.55544   -6356.2569   -5765.7395   -6356.2569            0    3535.3855    23.317486    21.561334    21.871026    10995.792    4378.9665     3523.862    2703.3279   -1491.6941   -813.76001   -576.89174   -5198.7968 
 1082000    238.20834   -6376.0983   -5763.3219   -6376.0983            0    1458.6168    23.508969    21.611038    21.808886    11080.075    1098.3455    1563.6516    1713.8534    283.76408    508.85809    118.61011   -5527.6217 
 1083000    231.34965   -6348.4567   -5753.3238   -6348.4567            0    1962.6644    23.511893    21.628616    21.843125    11107.878    1994.6842    1790.9918    2102.3174    968.18771    -600.5447    101.87308   -5435.3781 
 1084000     237.9099   -6315.2882   -5703.2795   -6315.2882            0    1004.4554     23.55799    21.559156    21.956863    11151.679    332.54316    1420.4373    1260.3858    644.90662    967.89283   -537.52765    -5539.919 
 1085000    225.51076   -6350.0233   -5769.9106   -6350.0233            0    3163.0005    23.463652    21.549412    21.804389    11024.908    3038.4835    3092.6081    3357.9099    865.79449    1208.8054   -154.08989   -5261.3413 
 1086000     222.1408   -6343.7776   -5772.3339   -6343.7776            0    2047.8735    23.308654    21.619381    21.992311    11082.336    2212.0432    1651.0403    2280.5368   -837.00041    -246.8619   -1713.1124   -5441.3474 
 1087000    231.15787   -6370.5464   -5775.9068   -6370.5464            0    2786.3384     23.41957     21.57921    21.827828    11031.257    1988.3566     2124.925    4245.7335   -482.99876    356.69439     982.9367   -5327.6419 
 1088000    229.70548   -6328.8677   -5737.9643   -6328.8677            0    1791.5594    23.564603     21.61053    21.804559    11103.831    1151.8536    656.38629    3566.4383    -104.8843   -782.26102    1117.6197   -5447.8428 
 1089000    226.08405   -6381.3692   -5799.7818   -6381.3692            0    2010.4765    23.444234    21.471585    21.931354    11039.912    1991.2931    2332.8424    1707.2939    621.03747    69.599218    178.75133   -5476.0835 
 1090000    235.59675   -6372.8117   -5766.7534   -6372.8117            0    1761.9155    23.285668    21.662566    21.944024    11069.165    3481.1352    879.08819    925.52315   -490.19032    623.77713    66.645516   -5482.3231 
 1091000    233.77808   -6377.7125   -5776.3327   -6377.7125            0    2393.8034    23.522326    21.510416     21.82081    11040.785    1738.2406     1862.484    3580.6856    742.40352    249.75951   -677.64874    -5390.886 
 1092000    244.51159   -6376.5656   -5747.5744   -6376.5656            0    3311.8659     23.33482     21.65096    21.788435    11007.981    3115.4116     3009.597    3810.5891   -2.1464228       341.53   -70.052449   -5215.8871 
 1093000    244.85008   -6384.8344   -5754.9725   -6384.8344            0    1721.0458    23.605581    21.507883    21.819663    11077.976    1737.7141    855.53961    2569.8836   -1098.4793     -75.3206    1695.1439   -5476.9187 
 1094000    232.62956   -6337.4268   -5739.0014   -6337.4268            0    2614.6495    23.353783    21.647243    21.880386     11061.52    2586.1778    2245.3849    3012.3858    659.42657   -344.62683    1086.6689   -5317.2037 
 1095000    224.70889   -6377.3471   -5799.2972   -6377.3471            0    2542.7381    23.489517     21.39923    21.989852    11053.366    1233.2556    3163.5722    3231.3864   -410.23598    1416.9456   -178.56104   -5389.4027 
 1096000    238.83187   -6339.8569   -5725.4765   -6339.8569            0    2763.7001    23.300958    21.667165    21.971114    11092.462    2873.2271    3799.1367    1618.7366    764.03812    944.04288   -1107.1574   -5278.3867 
 1097000     237.1234   -6371.2105    -5761.225   -6371.2105            0    3062.9882    23.450747    21.505143    21.850204    11019.313    2306.0928     2526.749    4356.1228    86.089528   -717.14035    881.73283   -5268.9863 
 1098000    230.16966   -6384.8824    -5792.785   -6384.8824            0    2271.7796    23.398611    21.556199    21.821725    11006.553    3412.5309    1821.8172    1580.9907    420.07654    -285.7214    748.53848   -5428.1205 
 1099000    234.56228    -6349.066   -5745.6688    -6349.066            0    1742.0028    23.362342    21.720539    21.948325    11137.517    2302.6997    1653.4165     1269.892    -878.7237   -786.73371   -636.69905   -5462.7166 
 1100000    229.14808    -6366.883   -5777.4135    -6366.883            0    2598.1279    23.482053    21.520158    21.945091    11089.677    3122.1113    2337.2239    2335.0486    277.76682   -1095.6411   -43.084109   -5357.2142 
 1101000     225.5219   -6367.3295   -5787.1881   -6367.3295            0    2994.2516    23.448638    21.601136    21.782004     11032.96    3490.8087    1855.1411    3636.8052    512.25398    409.25969    200.49132   -5305.3998 
 1102000    236.27654   -6361.0298   -5753.2228   -6361.0298            0    1613.1738    23.464324    21.480213    21.984449    11080.572    2396.2909    1973.4968    469.73374   -62.699154   -620.92744   -571.94718   -5492.5359 
 1103000    243.27691   -6353.7576   -5727.9426   -6353.7576            0    2037.5709    23.391988    21.525823    22.002968    11079.193    2385.4807    1448.5202    2278.7118     94.23042   -187.53503    1059.6072   -5398.7146 
 1104000    238.16684   -6364.6246    -5751.955   -6364.6246            0    2032.6127     23.45279    21.542902    21.908709    11069.182    1935.6225    1778.3174    2383.8982   -414.63241   -118.08572    1167.3593   -5423.8249 
 1105000    238.22895   -6350.3822   -5737.5527   -6350.3822            0    1039.2274    23.495826    21.683933    21.765917    11089.341     845.0662    820.13013    1452.4858    -164.8074    928.33975    176.25227   -5569.4819 
 1106000    243.41694   -6402.0372   -5775.8619   -6402.0372            0    2360.8666    23.424802    21.352701    22.060137    11034.101    1359.7323    3528.8575    2194.0099    623.18669    1054.4246   -563.53437   -5395.9488 
 1107000    222.96559   -6337.8895   -5764.3241   -6337.8895            0      2096.14    23.311572    21.643881    21.884602    11041.939       3470.7    901.31299    1916.4071    864.82967    107.67874    718.68683   -5426.7714 
 1108000    243.86898   -6389.4272    -5762.089   -6389.4272            0    2420.1917    23.501181    21.550361    21.836959    11059.523    2194.1851    3383.9685    1682.4216    641.37123   -251.44089    1138.5132    -5371.732 
 1109000    228.83226   -6362.7338   -5774.0767   -6362.7338            0    1103.9368    23.504859    21.728645     21.79789    11132.809    1271.2998    337.86372     1702.647   -209.83829    -1429.195    381.94348   -5594.8409 
 1110000    233.46889   -6365.6826   -5765.0981   -6365.6826            0    569.69863    23.407838    21.529674     22.12066    11147.997    1576.9833    640.07168   -507.95909   -468.96798   -1054.3826    296.01211   -5672.4753 
 1111000    237.61473   -6366.6802   -5755.4308   -6366.6802            0    899.52013    23.509729    21.560178    21.986065    11144.163     846.8862    1173.7556     677.9186   -1329.9597    622.67012   -56.325639   -5609.2353 
 1112000    233.67537   -6357.0951   -5755.9794   -6357.0951            0    1968.2143    23.534274    21.608453     21.81088    11091.688    1466.1947    2191.6744    2246.7736     1440.287    1066.4561   -265.93441   -5437.5993 
 1113000     237.3318   -6368.2385   -5757.7169   -6368.2385            0    3025.8044    23.317834    21.652507    21.874026    11043.968    2924.3989    2556.9439    3596.0704    820.10657   -31.529541   -490.50416   -5270.3659 
 1114000    242.13632   -6365.4491   -5742.5681   -6365.4491            0    2645.5135    23.526224    21.534741    21.837934    11063.777    1519.2991    3059.2716    3357.9698    1325.6664   -171.93118    171.03307   -5315.7044 
 1115000    231.50032   -6339.4099   -5743.8895   -6339.4099            0    2097.9936    23.496629    21.583955    21.823331    11067.706    2529.0654    1471.9866    2292.9288    791.75515   -1071.8002    586.50377   -5405.2499 
 1116000    229.04909   -6380.1675   -5790.9526   -6380.1675            0     3033.264    23.400941    21.491159    21.899768    11013.685    4019.1093    2611.8246     2468.858   -1675.5952   -802.48383   -250.19168   -5303.7398 
 1117000    227.80442   -6400.2654   -5814.2524   -6400.2654            0    3023.6443    23.384968    21.567253    21.858294     11024.22    3625.6548    3161.7496    2283.5285   -3071.6022    1208.1253   -2105.2206   -5328.1201 
 1118000     233.5538   -6382.3066   -5781.5037   -6382.3066            0    2874.9383    23.417385    21.558104    21.840365    11025.768    1846.8387     3495.141    3282.8353   -13.431828    450.75554    -279.8144    -5319.215 
 1119000    233.50472   -6365.7085   -5765.0318   -6365.7085            0    2915.2542    23.402394    21.518251    21.889492    11023.079     4078.275    2007.8638    2659.6238    599.05499   -432.76671   -194.00591   -5296.3746 
 1120000    229.61905   -6350.5398   -5759.8588   -6350.5398            0    790.94661    23.480353     21.54788    22.054346    11158.436    450.93987    400.76641    1521.1336    207.11237   -131.70341     1093.267   -5631.1446 
 1121000    224.95008   -6336.1789   -5757.5085   -6336.1789            0    1186.6968    23.384028    21.623377    21.966629    11107.242     2178.393    783.79032    597.90719   -1397.9814   -122.84788    850.67923   -5565.2782 
 1122000    234.87675     -6321.49   -5717.2839     -6321.49            0    1974.8302     23.37186    21.629935    21.972219    11107.656    2733.4597    1638.0214    1553.0096   -707.03251    219.27536   -356.32646   -5397.3737 
 1123000    238.84474   -6389.7428   -5775.3293   -6389.7428            0    1756.4972     23.43653    21.515948    21.960734    11073.901    2299.0415    1246.4675    1723.9826    176.54027    535.20016    8.8130196   -5491.6524 
 1124000    227.87431   -6332.1436   -5745.9509   -6332.1436            0    2619.3268     23.32559    21.665741    21.885202    11060.041      3244.47    2402.8846    2210.6258    1061.5294    397.60831     360.4175   -5323.4551 
 1125000    240.79897    -6344.815   -5725.3743    -6344.815            0    3246.8117    23.446193    21.494663    21.871383    11022.477    4010.8363    2930.1488    2799.4502    114.67726    296.91195   -134.87519   -5203.4444 
 1126000    231.68528   -6348.4754   -5752.4791   -6348.4754            0    3256.2622    23.428877    21.523476    21.858716    11022.714    2403.7958    4158.7107    3206.2801    592.56542   -475.24073   -92.367567   -5229.0188 
 1127000    238.49799   -6374.0626   -5760.5411   -6374.0626            0    2113.3206    23.412096    21.608007    21.904764    11081.374    2332.0978    1751.1085    2256.7555   -456.98982   -901.77478   -337.73523   -5419.0063 
 1128000    228.02416   -6343.0432   -5756.4649   -6343.0432            0    1729.6206    23.557037    21.618662    21.794176    11099.155    1456.7568    1890.1147    1841.9903   -1259.1213    216.48867   -81.655026   -5476.4916 
 1129000    237.79631   -6323.5792   -5711.8627   -6323.5792            0    1859.7415    23.528744    21.635852    21.797666    11096.416    1213.3995    1670.1245    2695.7005    417.74054     519.0737    1700.7875    -5410.901 
 1130000    223.26416   -6377.3564   -5803.0229   -6377.3564            0     1158.138    23.476826    21.604439     21.90683    11111.224   -109.21654    1486.4359    2097.1947    1454.6664    84.004149    2046.2716   -5615.3515 
 1131000    232.68663   -6400.5569   -5801.9847   -6400.5569            0    1498.1379    23.398029    21.470729    22.069146    11086.937    1518.4263    493.23926    2482.7481    545.32157    638.85645     42.76038   -5559.7484 
 1132000    243.00343    -6353.394   -5728.2825    -6353.394            0    1554.1355    23.480158    21.596403    21.903371    11106.914    1505.9636    1892.1707     1264.272    448.89969    622.84008   -163.53128   -5476.5391 
 1133000    245.71588   -6378.8675   -5746.7784   -6378.8675            0    1864.0394    23.429618    21.533613     21.95675    11077.715    1479.4191    2295.5101    1817.1891   -237.15044    120.19699    -103.5849   -5445.6296 
 1134000    228.62869   -6386.4374    -5798.304   -6386.4374            0    1048.5575    23.525878    21.621342    21.821615    11099.806    367.75679     1202.569    1575.3467   -39.714989    206.36899   -626.78592   -5628.5643 
 1135000    229.22665   -6377.9525   -5788.2809   -6377.9525            0    3074.2492    23.429334    21.522494    21.798155    10991.888    3646.9647    2360.6638    3215.1191   -1482.9845    -160.5486    343.98094   -5295.4621 
 1136000    234.88315   -6332.3741   -5728.1515   -6332.3741            0    1644.5031    23.336988    21.582077    22.004515    11082.809    1701.4739    1176.3444     2055.691   -671.50109     167.3174    765.99514   -5462.3481 
 1137000      231.384   -6360.6332   -5765.4119   -6360.6332            0    1808.4864    23.536839    21.554704    21.835395    11077.742    1962.5812    1206.4836    2256.3946   -1930.3245     199.4324    12.916387   -5473.2374 
 1138000    235.01296   -6390.5723   -5786.0157   -6390.5723            0    2625.8885    23.532669    21.609182    21.687422    11028.525    1551.4072    2857.3893    3468.8689    385.99517    182.60768    25.748091   -5363.6685 
 1139000    235.61136   -6378.0582   -5771.9623   -6378.0582            0     3252.684    23.349422    21.509445    21.880239    10988.981    3594.5194    2604.3983    3559.1342    491.54309    71.361431    337.89493   -5250.6774 
 1140000     235.2685   -6357.6136   -5752.3997   -6357.6136            0    2255.5038    23.305659    21.533866    22.043495    11062.769    2450.3368    2738.3424    1577.8322    899.75627    857.12444    893.26387   -5388.4986 
 1141000    232.44224   -6374.3992   -5776.4557   -6374.3992            0    487.96195    23.567734    21.631925    21.823798     11126.11   -176.36923   -518.99097    2159.2461    129.26276     -1087.85    1500.8518   -5697.2776 
 1142000    236.81158   -6369.9489   -5760.7655   -6369.9489            0    983.27292    23.486523    21.622485    21.886527    11114.788    198.96857    880.04205    1870.8081   -88.403771    231.02925   -100.45399   -5601.3792 
 1143000    232.16445   -6350.9729    -5753.744   -6350.9729            0    1211.0589    23.440009    21.473739    22.061352    11104.463    2417.2996    802.46013    413.41699   -1113.6651   -69.211982   -823.71135   -5557.6164 
 1144000    230.83132   -6360.9683   -5767.1687   -6360.9683            0    2382.7824    23.401735    21.541336    21.948759    11064.471    4148.9641     1667.608    1331.7751   -1034.1292    606.85426   -407.72538   -5382.6735 
 1145000    241.36883   -6338.2483   -5717.3417   -6338.2483            0    3009.9271    23.636039    21.584125    21.597892     11018.45    1882.0077    2196.6913    4951.0822   -595.45797    895.72521    120.56686   -5233.6681 
 1146000    233.76817   -6371.9526   -5770.5982   -6371.9526            0    2056.7893    23.413219    21.670165    21.802999    11062.151    2527.8968    650.60523     2991.866   -128.57757    301.09137     155.4806   -5438.7761 
 1147000    230.28189   -6375.3409   -5782.9548   -6375.3409            0    2089.1197    23.392776    21.422979    22.071647     11061.05    2527.7595    2629.4889    1110.1107   -1524.4372   -102.91001   -709.91883   -5445.9504 
 1148000    235.06775    -6389.275   -5784.5776    -6389.275            0    2617.0836    23.247452    21.588879    21.935508    11009.134    3409.1362    2178.8564    2263.2584   -624.72175   -359.80648    295.36298   -5364.3867 
 1149000    231.70265   -6316.0876   -5720.0467   -6316.0876            0    1873.4321    23.672093    21.518924    21.721834    11065.058    1177.4651    1864.1959    2578.6354    621.77292   -303.91656    416.43762   -5417.7262 
 1150000    226.85902    -6354.173    -5770.592    -6354.173            0    1813.4928    23.411101    21.599151    21.927565    11087.891    2410.3945    640.14809    2389.9358   -166.13195   -225.30022    576.16443   -5477.3402 
 1151000    227.76537   -6317.0503   -5731.1378   -6317.0503            0    1418.1253    23.584448    21.466396    21.995334    11135.646    1071.9114    1627.7348    1554.7297   -507.39968   -115.46195   -168.59068   -5500.8314 
 1152000    239.20779   -6401.2278   -5785.8803   -6401.2278            0    1560.9586    23.390232    21.755841    21.790914    11088.833    2115.5588    217.67712      2349.64   -291.65278   -218.98996    559.63167   -5533.4432 
 1153000    242.60776   -6351.1612   -5727.0675   -6351.1612            0    2903.3112    23.489689    21.477345    21.907589    11052.294    3259.1099    2822.0957    2628.7279    492.67002   -672.54172    375.38755   -5259.0933 
 1154000    224.41428   -6335.8806   -5758.5885   -6335.8806            0     2908.883    23.420206     21.53513    21.870961    11030.776     3435.226     2539.268    2752.1549   -214.63683    189.63318    627.02277   -5290.6291 
 1155000    222.68296   -6357.2204   -5784.3821   -6357.2204            0    2676.5908    23.537347    21.475106    21.846635    11042.754    3289.9956    1552.2122    3187.5646   -260.58814   -167.81157    600.09377   -5353.3245 
 1156000    225.49287   -6386.5724   -5806.5057   -6386.5724            0    2158.9317    23.306552    21.590138    21.925823    11032.891    3431.0586    2117.3761    928.36039   -4.0475633   -245.51748   -1430.2332   -5459.1262 
 1157000    233.51423   -6378.4335   -5777.7323   -6378.4335            0    1021.1522    23.511606    21.484011    21.997084    11111.246    248.66028    998.59479    1816.2015    491.30447    813.17512     443.3408   -5612.2586 
 1158000    230.96088     -6375.08   -5780.9472     -6375.08            0    1864.1112    23.357728    21.585216    21.922499    11052.921    1920.9612    2240.7575     1430.615   -59.983548    85.692293     108.0034   -5480.4609 
 1159000    238.03243   -6366.3562   -5754.0323   -6366.3562            0    2308.5368     23.36111    21.572422     21.89175    11032.472     2481.074    1564.6972     2879.839   -1311.1115   -99.047276    219.96713   -5382.5949 
 1160000    238.26633   -6373.2009   -5760.2753   -6373.2009            0    2185.8883    23.557051    21.483812    21.877003    11071.847    1454.7998    2966.7176    2136.1476   -1261.3588    20.581431    431.98507   -5407.3165 
 1161000    228.74315   -6372.7179   -5784.2901   -6372.7179            0    1824.4155    23.358745    21.690798    21.859857     11075.73    1489.1321    1780.9731    2203.1414   -437.12984    232.70715   -130.57105   -5489.5956 
 1162000    239.92979   -6371.8971   -5754.6924   -6371.8971            0    894.21243    23.670606    21.410137    21.943842     11120.94     1311.776    417.70317    953.15812    117.56768    736.12636    1480.5841   -5609.6623 
 1163000     239.6446    -6376.345   -5759.8739    -6376.345            0    2238.6243    23.358202    21.550034     21.96734    11057.701    2942.8142    3315.9059    457.15272    847.82634    254.01743   -805.12253   -5398.8616 
 1164000    234.81067   -6384.5264   -5780.4903   -6384.5264            0    1629.9117    23.418286    21.566155    21.955828    11088.623    2066.4024    1600.8558     1222.477   -1132.5964   -1086.6433   -219.83048   -5516.9071 
 1165000    226.30633   -6338.6683    -5756.509   -6338.6683            0    1991.7441    23.580158    21.660077    21.668139    11066.959    1586.7847    1037.6119    3350.8356    46.606289   -1156.2824    738.61364    -5435.041 
 1166000    242.98131   -6351.4388   -5726.3842   -6351.4388            0    1807.7263     23.54954    21.552905    21.777104    11053.209    2175.8425    1807.0207    1440.3158    306.41487    97.858082   -577.66843   -5434.9792 
 1167000     230.0103   -6359.7812   -5768.0937   -6359.7812            0    2572.4374    23.360569    21.459572    22.015217      11036.4    2247.5005    3203.7691    2266.0426    227.24877    895.82192    222.74963   -5354.0482 
 1168000    239.43199   -6346.4609   -5730.5366   -6346.4609            0    1610.2168    23.532768     21.52044    21.905549    11093.748    1092.0622    1385.2805    2353.3076     348.7007    7.9487872   -783.27354   -5470.0182 
 1169000    240.61358   -6326.7935   -5707.8297   -6326.7935            0     3115.509     23.43211    21.615071    21.819577    11051.326    3789.6204    3486.0528    2070.8539   -277.65631    206.69244   -484.95969   -5205.6961 
 1170000    230.54147   -6350.5478   -5757.4939   -6350.5478            0    3571.1178    23.413416    21.558511    21.843302     11025.59    3033.6162    3803.8522     3875.885   -737.95798    576.25057    156.61659   -5183.2692 
 1171000    232.62596   -6354.2325   -5755.8164   -6354.2325            0    1933.3187    23.358492    21.516543     21.94765    11030.757    2731.1907    2266.1433    802.62203   -1269.0513    26.494919   -50.300314    -5444.799 
 1172000    243.71626     -6380.59   -5753.6448     -6380.59            0    2366.3218    23.433043    21.419181    21.976864    11030.552    2327.6576    3256.8299    1514.4778   -26.625762    1821.7995    -146.6402   -5372.9763 
 1173000    227.80666   -6359.8595   -5773.8408   -6359.8595            0    2631.8288     23.51131    21.581548    21.749232    11035.788    2119.6842    1989.6345    3786.1675   -69.720949   -172.19999   -292.91713   -5350.2594 
 1174000    225.24559   -6356.4441   -5777.0136   -6356.4441            0    1742.1536     23.51423    21.538745    21.873183    11078.045    1871.4232    1979.6222    1375.4154   -569.13352    890.58789   -744.83378   -5495.5479 
 1175000     239.4624   -6371.6328   -5755.6304   -6371.6328            0    2311.3609    23.223952    21.625811    22.018256    11058.379    2234.5077    2718.0884    1981.4866   -34.288886   -371.38092    612.34949   -5382.8654 
 1176000    232.19651   -6384.6188   -5787.3074   -6384.6188            0     3314.963     23.49257    21.428537    21.784124    10966.377    3807.2951    3943.1261    2194.4679   -771.26386   -28.807156    310.12138   -5257.1342 
 1177000    237.70705   -6331.6032   -5720.1163   -6331.6032            0    3867.5237    23.443714    21.599793    21.713195    10995.114    3575.4616    3773.3762    4253.7333    111.12726    221.73282    147.56104   -5099.9494 
 1178000    238.36348   -6354.2189   -5741.0433   -6354.2189            0    2761.8102    23.547929    21.599998    21.700967    11037.876    1859.9502    3299.0693     3126.411    618.66604    39.685341    453.93798   -5296.4579 
 1179000    231.51057   -6349.6806   -5754.1337   -6349.6806            0    1207.8466    23.402541    21.629205    22.001359    11136.612    1853.3657    1804.1071   -33.933188    487.98156   -559.19849   -593.92083     -5557.96 
 1180000    238.07873   -6363.3862   -5750.9432   -6363.3862            0     792.8088     23.41683    21.575599    22.033605    11132.085    1538.3208    1102.0117    -261.9061    2037.4113   -993.79465   -88.632029   -5622.2306 
 1181000    235.31642   -6378.4629   -5773.1258   -6378.4629            0    2156.1812    23.499287    21.540813    21.801864    11035.967    2000.6297    2440.5104    2027.4034    712.20756    461.35878    255.37398   -5426.0922 
 1182000    241.29456   -6355.6991   -5734.9836   -6355.6991            0    2212.5319    23.447737    21.647204    21.738699    11034.084    2290.1954    2252.2291    2095.1712   -430.55451    68.581372   -430.10491   -5378.9412 
 1183000    227.49562   -6360.2234   -5775.0047   -6360.2234            0    2671.0823    23.371327    21.484135     21.99378    11043.357    3219.3012    3140.6158    1653.3299    929.03667   -1630.5113   -524.39283   -5344.8108 
 1184000    231.72433   -6370.5336   -5774.4369   -6370.5336            0    2272.6541    23.358702    21.520973    21.997837    11058.357    2677.6297    2312.3644    1827.9683   -1094.7724    777.01592    123.79282   -5407.9151 
 1185000    240.48469   -6353.4566   -5734.8244   -6353.4566            0    2741.9772    23.502313    21.456123    21.895084    11041.001    1934.9097    2764.7454    3526.2765    384.65582    27.003588    539.84102   -5293.3066 
 1186000    243.21464    -6360.793   -5735.1382    -6360.793            0    1564.4354    23.491618    21.666931    21.821069    11106.733    1423.9251    1171.5373    2097.8439   -993.32394     773.0732   -290.79857   -5481.7304 
 1187000    229.66077   -6384.9823    -5794.194   -6384.9823            0    606.97368    23.579929    21.559358    21.942249     11154.74    752.42956     787.4941    280.99738    126.54012   -908.96951   -871.84092   -5695.4513 
 1188000    240.92292   -6347.7009   -5727.9414   -6347.7009            0    3839.6106     23.26743    21.553011      21.9249    10994.969     4578.624    3036.2843    3903.9234    110.83501   -866.97886     1101.469   -5112.2585 
 1189000    224.59522   -6379.8571   -5802.0996   -6379.8571            0    2703.3249    23.611107    21.506005    21.652025    10994.478    2009.7714    3217.2916    2882.9117   -137.26175   -1005.2761    410.96694   -5368.6399 
 1190000    246.82762   -6333.7611   -5698.8121   -6333.7611            0    2057.4023    23.355483    21.709181    21.897918    11102.866    1983.9207    1128.7731    3059.5132   -561.92972    385.73396    104.88933   -5365.6695 
 1191000    228.77366   -6326.7417   -5738.2354   -6326.7417            0    3433.0023    23.645683    21.368598    21.855065     11042.82    2988.7069    4070.1202    3240.1798    577.26857    701.69242    44.041859   -5185.3566 
 1192000    229.68799   -6330.7619   -5739.9035   -6330.7619            0    3095.4766    23.393498     21.72384    21.725591    11040.872    2901.9959    1658.3303    4726.1037    1383.6577    1082.1745   -196.42455   -5241.4705 
 1193000    224.26564   -6347.9206   -5771.0109   -6347.9206            0    2696.4395    23.561622    21.418521    21.967008    11085.763    2814.0413    3079.4965    2195.7808    69.699959   -216.74732   -293.57898   -5335.0655 
 1194000    236.60884    -6367.065   -5758.4031    -6367.065            0     1335.116    23.347992    21.736139    21.862887     11095.31    2145.3609      901.327    958.66002   -686.14162    191.22798    -191.2208    -5542.363 
 1195000    238.14639   -6346.4226   -5733.8055   -6346.4226            0    2272.1743    23.713946    21.428856    21.776031    11065.767    75.840091    3715.0054    3025.6775   -146.56678   -202.64915   -1095.4626   -5367.1155 
 1196000    231.36765   -6360.2787   -5765.0996   -6360.2787            0    1468.8697     23.31727    21.788647    21.779968    11065.351    2313.5222    682.97403    1410.1128   -830.25223    855.72825    231.58464   -5528.0581 
 1197000    231.93737    -6352.657   -5756.0122    -6352.657            0     1418.753    23.532257    21.403242    22.090074    11126.032    1527.9248    917.34055    1810.9935   -182.27398    1570.3696    359.10951   -5525.8029 
 1198000    242.12802    -6360.775   -5737.9154    -6360.775            0    1508.0578    23.337102    21.649271    22.000441     11115.31    2785.0821    324.64617    1414.4451   -304.38214    368.97992    360.49478   -5493.4511 
 1199000    241.38028    -6356.714    -5735.778    -6356.714            0    2090.4866    23.605522    21.502513    21.766297    11048.095    1008.1904    2421.7168    2841.5527    771.96766   -74.616251    -695.9713    -5398.948 
 1200000    237.21377   -6383.3267   -5773.1088   -6383.3267            0    2429.8467    23.512931    21.634041    21.685389    11030.917    1355.4054    2294.3792    3639.7554   -1060.7315     917.6402    193.53574   -5382.2081 
 1201000    236.61839   -6359.7279   -5751.0415   -6359.7279            0    1827.7394    23.434086     21.54378    21.959947    11086.672    2234.9156    1589.8948    1658.4079    131.58243   -810.79778   -260.16762   -5455.5184 
 1202000     243.2132   -6383.0449   -5757.3938   -6383.0449            0    2127.9181    23.417173     21.53772     21.88199    11036.237    3092.8532    1612.5811      1678.32    236.44379   -627.20245    859.11212   -5414.9007 
 1203000    223.15314   -6380.3832   -5806.3353   -6380.3832            0     1478.408    23.537831    21.561628    21.836392    11082.274    440.14243    2065.9118    1929.1698    866.65979   -186.25088   -254.33271   -5567.3897 
 1204000    236.49384   -6379.4755   -5771.1095   -6379.4755            0    642.40101    23.495801    21.680586     21.86018    11135.635    523.75664    904.28794    499.15847    379.89889   -314.15421   -1162.3824   -5666.7824 
 1205000    231.26615   -6374.6896   -5779.7715   -6374.6896            0    1034.3491    23.522042    21.479959    21.979782     11105.34    944.70841    1638.2795    520.05932    1037.8413   -1042.6406   -299.74311   -5612.2483 
 1206000    228.12159   -6380.7504   -5793.9215   -6380.7504            0    2461.5308    23.387153      21.6156    21.819948     11030.58    2346.2106    2339.4053    2698.9766   -45.006912    -1575.748   -138.22923   -5397.9357 
 1207000     223.9985   -6357.9193   -5781.6968   -6357.9193            0    2875.0131    23.482196    21.448428    21.893102    11026.596    2408.0509     3920.787    2296.2012   -667.89029    968.63132    1228.8574   -5319.3614 
 1208000    230.48328    -6345.755   -5752.8508    -6345.755            0    1460.1666     23.46911    21.610142    21.859837    11086.671    1403.0102    2140.9291    836.56033   -618.05938    304.47586     191.0704   -5516.7598 
 1209000    237.27213   -6350.5994   -5740.2313   -6350.5994            0    1443.3791    23.473098    21.546522     21.99916    11126.374    1185.3889    1766.2864     1378.462   -1002.8023    1754.4058   -281.69126   -5506.0189 
 1210000    239.74877   -6384.2707   -5767.5316   -6384.2707            0    1318.7828    23.373241    21.613431     21.98572    11106.657    1455.2806    1741.7075    759.36042    678.29125    65.594378    346.89061   -5553.9162 
 1211000    235.54628   -6351.1243   -5745.1959   -6351.1243            0    1793.0825    23.532547     21.52401    21.840128    11062.347    1419.4033    1902.1818    2057.6623    653.30505   -19.600224    248.63839   -5455.9125 
 1212000    232.93444   -6373.8284   -5774.6187   -6373.8284            0    3412.5543    23.459892    21.431756    21.837652    10979.681    4336.3339    3788.8056    2112.5234    2.9758764   -1370.3732   -641.90425   -5228.1753 
 1213000    221.99679   -6332.9457   -5761.8725   -6332.9457            0    3344.7668     23.26286     21.81546      21.7158    11020.551    4124.0021    2560.1616    3350.1368    134.76178   -51.570405   -934.12585     -5224.29 
 1214000    233.82481   -6352.2921   -5750.7921   -6352.2921            0    2933.6722    23.629412    21.470497    21.771699    11045.549     1377.907    3351.0657    4072.0437    723.22347   -370.87248   -380.88358   -5278.2127 
 1215000    227.16872   -6380.5485   -5796.1708   -6380.5485            0    2166.4872     23.32297    21.625163    21.881095    11036.015    2189.1944    878.57719      3431.69    1609.5961   -244.76861    862.91753   -5447.4769 
 1216000    233.35904    -6361.643   -5761.3411    -6361.643            0    3305.8828    23.458429    21.363006    21.966927    11008.562    2081.4999    4380.4869    3455.6615    278.90891   -606.62096    68.028237   -5230.5863 
 1217000    235.00459   -6368.6781   -5764.1431   -6368.6781            0    2842.1945    23.278661    21.626236    21.892848    11021.512     3070.918    2825.0312    2630.6343   -189.22984     -40.3382     497.4273    -5307.296 
 1218000    238.25297   -6346.3324   -5733.4411   -6346.3324            0    3370.7037    23.448314    21.514805    21.777437     10986.41      3888.64    2989.0106    3234.4605   -796.44348    1326.6204    461.62794   -5193.3684 
 1219000    232.19549   -6359.2428   -5761.9341   -6359.2428            0    3385.8096    23.382806    21.561868    21.832477    11007.433    2922.8512    3802.5586    3432.0189   -511.41616    1094.3246    232.39618   -5218.4029 
 1220000     228.4394   -6384.5463   -5796.8999   -6384.5463            0    1581.9513    23.414989    21.509953    21.969217    11064.913    1688.6795    2292.9794    764.19496    8.2116496    354.65751   -603.03642   -5541.6198 
 1221000     230.0074   -6360.3481   -5768.6681   -6360.3481            0     1546.054    23.580126    21.631304    21.757989    11098.073    1119.7479    1624.2073    1894.2068   -789.74376   -281.70783   -653.33903    -5518.433 
 1222000     230.1932   -6370.5206   -5778.3626   -6370.5206            0    891.81007    23.390689    21.767566    21.826177     11112.98    1813.9494    186.46038    675.02046    299.16725    -701.6091   -1170.3263   -5633.8256 
 1223000    227.05178   -6363.7709   -5779.6941   -6363.7709            0    3457.6669    23.496009    21.401603    21.924647    11024.858    4078.4272    2978.8522    3315.7213    546.67273   -1353.3446    138.91241   -5223.7488 
 1224000    245.55169   -6357.4164   -5725.7496   -6357.4164            0    2601.5088    23.308841    21.685518    21.850247     11044.52    2488.6646    2239.8321    3076.0297    823.23209    -1.780542    368.34907   -5306.7169 
 1225000     226.8724   -6359.7945   -5776.1791   -6359.7945            0     372.1073    23.600968    21.542867    21.908629    11139.059    233.30694    726.52521    156.48976   -1232.3632    429.06509   -746.81894   -5715.7296 
 1226000    237.07831   -6375.9956   -5766.1261   -6375.9956            0    615.76652    23.461866    21.681385    21.853408    11116.517    1660.3759   -506.59529    693.51899   -472.57815    -631.9845   -54.057111   -5666.2961 
 1227000    236.49235   -6319.1502    -5710.788   -6319.1502            0    2230.4411     23.49836    21.418331    22.030791    11088.001    2623.8503    2731.1087    1336.3643    422.74087   -74.541871    149.53958   -5350.1098 
 1228000    242.46556   -6344.1856   -5720.4578   -6344.1856            0    2464.6503    23.194135    21.792283    21.909715    11074.334    4430.0807     1293.315    1670.5551    449.86671   -239.93553    86.374606   -5322.3975 
 1229000    241.27363   -6358.1555   -5737.4937   -6358.1555            0    1751.4754    23.712133    21.453608     21.75619    11067.609    667.85166    2334.9578    2251.6166   -63.001918    556.77542   -147.69588   -5454.7886 
 1230000    235.41281   -6328.3091   -5722.7239   -6328.3091            0    977.69097    23.487289    21.695766    21.931529    11175.753    872.75746    1025.5721    1034.7433    757.07301   -677.28721   -455.02603   -5563.3731 
 1231000    239.24089    -6337.037   -5721.6043    -6337.037            0    3588.2935    23.434875    21.320372     22.07617    11030.143    3061.5199    5233.4524    2469.9083   -1380.0775    715.73188    378.46606   -5144.3795 
 1232000    226.29345   -6329.1788   -5747.0527   -6329.1788            0    2445.4372     23.39231    21.571903    21.911346     11056.83    2415.0617    2130.0698    2791.1801    631.79587   -873.84971    14.631973   -5352.7198 
 1233000    230.57516   -6366.5686    -5773.428   -6366.5686            0    2345.5566    23.545171    21.581082    21.725317    11039.291    2569.0418    1266.4765    3201.1516    295.68448    282.75783    299.76825   -5395.8011 
 1234000    232.04848   -6352.3508   -5755.4203   -6352.3508            0    1923.2448      23.4236     21.57761    21.987431    11113.004    1212.3619       2211.5    2345.8723    657.76557    391.40743   -695.57474   -5443.7166 
 1235000    227.62555   -6355.7232   -5770.1703   -6355.7232            0    1689.2914    23.479109    21.582428    21.916933    11106.103    1256.4915    2168.2364    1643.1464    1406.8979    123.03108   -795.95421   -5496.5539 
 1236000     226.6142   -6345.7699   -5762.8186   -6345.7699            0     2828.017    23.426067    21.510943    21.903636     11037.61    3109.1325    2118.4746    3256.4438    786.62001   -1260.3759     645.9272   -5307.5865 
 1237000    233.85641   -6376.7848   -5775.2034   -6376.7848            0     2644.642    23.382466    21.659795    21.774525    11027.914     3055.759    1672.3712    3205.7958    1539.2627   -1048.1569    738.76034   -5349.8635 
 1238000    239.32322   -6345.8263   -5730.1819   -6345.8263            0    2586.6816    23.600628    21.412735    21.857704    11045.878    2453.8336    3160.7724    2145.4388    380.94116   -1315.1371   -179.05894   -5313.4861 
 1239000    229.86744   -6356.9873   -5765.6673   -6356.9873            0    2969.1016    23.358728    21.656529    21.868127    11062.407    3907.2397    2605.9643    2394.1009   -103.52707   -965.47561   -1085.2517   -5286.6507 
 1240000    230.80859   -6337.2983   -5743.5573   -6337.2983            0    2601.9759     23.62084    21.527598    21.723835    11046.569    2016.7425    3538.1546    2251.0305    -167.9353    -162.9607   -1180.7434   -5324.3715 
 1241000    232.04809   -6364.8631   -5767.9336   -6364.8631            0    2434.7721    23.412643    21.554594    21.867322    11035.344    2798.2688    2171.9983    2334.0493    316.27055    285.11084    395.35696   -5376.0833 
 1242000    234.25085   -6366.3964   -5763.8003   -6366.3964            0    1358.5414    23.359463    21.511326    22.101943    11106.072    2681.5806    697.31216    696.73159    887.18123    791.16898   -87.310529   -5543.7565 
 1243000    230.35849   -6334.8153   -5742.2321   -6334.8153            0    2203.7429    23.389426    21.547757    21.984387    11079.904    1923.0768    2887.2274    1800.9244   -513.53122    1324.4204    21.785672   -5386.1314 
 1244000    220.39325   -6327.8205   -5760.8723   -6327.8205            0    2345.2477     23.53789    21.579176    21.804866    11075.308    1957.2632    3572.0982    1506.3816   -263.85131    176.67805   -1066.3058   -5382.0632 
 1245000    249.83169   -6362.0617   -5719.3849   -6362.0617            0    620.88844     23.47574    21.687878    21.874664    11137.244   -44.106863    246.00717     1660.765   -2043.9497    783.92363    690.84619   -5618.5369 
 1246000    231.16657   -6371.4725   -5776.8106   -6371.4725            0    1995.4285    23.461921    21.520035    21.950259    11082.715     2227.794    1825.9872    1932.5043    -84.66588    314.29791   -14.877598   -5454.2894 
 1247000    234.07005   -6360.6082   -5758.4773   -6360.6082            0    1848.3036    23.341153     21.49509    22.086947    11081.467    2364.3995    2753.2011    427.31027    1151.5926   -1349.0226   -53.781619   -5459.7695 
 1248000     230.7345    -6338.045   -5744.4945    -6338.045            0    2498.3432    23.607919    21.486374    21.837658    11077.121    2090.5401      3203.33    2201.1594    1325.1271    804.20296    1147.0805   -5340.8911 
 1249000    225.07719   -6351.3703    -5772.373   -6351.3703            0    3068.1803    23.343904    21.734657    21.679883     10999.76    3671.2312    2403.7755    3129.5342    283.12183    182.50518   -1145.1404   -5280.1748 
 1250000    245.65511   -6334.1172   -5702.1844   -6334.1172            0    1916.5072    23.752774    21.381308    21.937451    11141.272    1296.1689    2873.7244    1579.6283   -659.32512    150.19128   -307.85982   -5390.7826 
Loop time of 529.231 on 64 procs for 250000 steps with 1296 atoms

Performance: 81.628 ns/day, 0.294 hours/ns, 472.384 timesteps/s
196.1% CPU use with 32 MPI tasks x 2 OpenMP threads

MPI task timing breakdown:
Section |  min time  |  avg time  |  max time  |%varavg| %total
---------------------------------------------------------------
Pair    | 37.469     | 48.076     | 55.618     |  84.2 |  9.08
Bond    | 0.71824    | 1.0471     | 1.8826     |  19.4 |  0.20
Kspace  | 276.24     | 285.9      | 298.37     |  36.9 | 54.02
Neigh   | 3.4006     | 3.7479     | 3.9471     |   6.7 |  0.71
Comm    | 69.897     | 73.657     | 77.615     |  23.1 | 13.92
Output  | 0.87587    | 0.87618    | 0.87765    |   0.0 |  0.17
Modify  | 100.31     | 103.28     | 106        |  10.0 | 19.51
Other   |            | 12.65      |            |       |  2.39

Nlocal:        40.5000 ave          48 max          31 min
Histogram: 3 2 5 1 5 1 2 2 3 8
Nghost:        2996.59 ave        3028 max        2959 min
Histogram: 2 1 1 4 6 4 7 2 3 2
Neighs:        12522.9 ave       14980 max        9700 min
Histogram: 3 3 4 3 3 1 2 2 3 8

Total # of neighbors = 400733
Ave neighs/atom = 309.20756
Ave special neighs/atom = 2.0000000
Neighbor list builds = 8425
Dangerous builds = 0

unfix		3
unfix		2
unfix		1

write_data	data.final.${pid}
write_data	data.final.0
System init for write_data ...
PPPM initialization ...
  extracting TIP4P info from pair style
  using 12-bit tables for long-range coulomb (../kspace.cpp:340)
  G vector (1/distance) = 0.3762674
  grid = 30 40 36
  stencil order = 5
  estimated absolute RMS force accuracy = 0.0027544917
  estimated relative force accuracy = 8.29507e-06
  using double precision FFTW3
  3d grid and FFT values/proc = 8352 2400
Last active /omp style is kspace_style pppm/tip4p/omp
WARNING: Not all mixed pair coeffs generated from mixing. Use write_data with 'pair ij' option to store all pair coeffs. (../write_data.cpp:312)

write_restart   restart.lmp.${pid}
write_restart   restart.lmp.0
System init for write_restart ...
PPPM initialization ...
  extracting TIP4P info from pair style
  using 12-bit tables for long-range coulomb (../kspace.cpp:340)
  G vector (1/distance) = 0.3762674
  grid = 30 40 36
  stencil order = 5
  estimated absolute RMS force accuracy = 0.0027544917
  estimated relative force accuracy = 8.29507e-06
  using double precision FFTW3
  3d grid and FFT values/proc = 8352 2400
Last active /omp style is kspace_style pppm/tip4p/omp
Total wall time: 0:08:49
