LAMMPS (30 Jul 2021)
  using 1 OpenMP thread(s) per MPI task
package omp 0
using multi-threaded neighbor list subroutines
echo both

include		in.partitions
variable        pid world 0
include		in.temp
variable	temperature equal 250
variable	melttemp equal 450.0
variable	tempDamp equal 100.0
include		in.pressure
variable        pressure equal 4000
variable        pressureDamp equal 1000.0 # This is 1 ps
include		in.seed
variable        seed world 745823

units		real
atom_style	full



include 	in.box

read_data       ice.data
Reading data file ...
  triclinic box = (-3.3947780 0.0048050000 -0.13785900) to (15.004777 45.145583 19.367857) with tilt (0.0000000 -6.7926110 0.0000000)
  2 by 7 by 3 MPI processor grid
  reading atoms ...
  2016 atoms
  scanning bonds ...
  2 = max bonds/atom
  scanning angles ...
  1 = max angles/atom
  reading bonds ...
  1344 bonds
  reading angles ...
  672 angles
Finding 1-2 1-3 1-4 neighbors ...
  special bond factors lj:    0        0        0       
  special bond factors coul:  0        0        0       
     2 = max # of 1-2 neighbors
     1 = max # of 1-3 neighbors
     1 = max # of 1-4 neighbors
     2 = max # of special neighbors
  special bonds CPU = 0.075 seconds
  read_data CPU = 0.256 seconds
include 	in.setup
variable	out_freq equal 500
variable	out_freq2 equal 500

timestep	1.0

neigh_modify    delay 5 every 1

include		in.tip4p
# This is TIP4P/Ice

# create groups ###
group ox type 2
672 atoms in group ox
group hy type 1
1344 atoms in group hy

# set charges - beside manually ###
set group ox charge -1.1794
Setting atom values ...
  672 settings made for charge
set group hy charge 0.5897
Setting atom values ...
  1344 settings made for charge

# ### TIP3P Potential Parameters ###
pair_style lj/cut/tip4p/long 2 1 1 1 0.1577 8.5
pair_coeff 1 1*2 0.000 0.000
pair_coeff 2 2 0.21084 3.1668
bond_style  harmonic
bond_coeff  1 450 0.9572
angle_style harmonic
angle_coeff 1 55 104.52
kspace_style pppm/tip4p 1.0e-5
pair_modify tail yes

thermo          ${out_freq}
thermo          500
thermo_style 	custom step temp pe etotal epair emol press lx ly lz xy xz yz vol pxx pyy pzz pxy pxz pyz cella cellb cellc cellalpha cellbeta cellgamma

restart 	${out_freq} restart.lmp.${pid} restart2.lmp.${pid}
restart 	500 restart.lmp.${pid} restart2.lmp.${pid}
restart 	500 restart.lmp.0 restart2.lmp.${pid}
restart 	500 restart.lmp.0 restart2.lmp.0

include         in.dump
dump            myDump all atom ${out_freq2} dump.water.${pid}
dump            myDump all atom 500 dump.water.${pid}
dump            myDump all atom 500 dump.water.0
dump_modify     myDump append yes


timer           timeout 23:50:00 every 1000
New timer settings: style=normal  mode=nosync  timeout=23:50:00


fix 		0 all shake 1e-6 200 0 b 1 a 1
       0 = # of size 2 clusters
       0 = # of size 3 clusters
       0 = # of size 4 clusters
     672 = # of frozen angles
  find clusters CPU = 0.013 seconds
fix             1 all nph tri ${pressure} ${pressure} ${pressureDamp}
fix             1 all nph tri 4000 ${pressure} ${pressureDamp}
fix             1 all nph tri 4000 4000 ${pressureDamp}
fix             1 all nph tri 4000 4000 1000
fix             2 all temp/csvr ${temperature} ${temperature} ${tempDamp} ${seed}
fix             2 all temp/csvr 250 ${temperature} ${tempDamp} ${seed}
fix             2 all temp/csvr 250 250 ${tempDamp} ${seed}
fix             2 all temp/csvr 250 250 100 ${seed}
fix             2 all temp/csvr 250 250 100 745823
velocity        all create ${temperature} ${seed}
velocity        all create 250 ${seed}
velocity        all create 250 745823

run             500000
PPPM initialization ...
  extracting TIP4P info from pair style
  using 12-bit tables for long-range coulomb (../kspace.cpp:340)
  G vector (1/distance) = 0.37789371
  grid = 25 48 36
  stencil order = 5
  estimated absolute RMS force accuracy = 0.0026123984
  estimated relative force accuracy = 7.8671602e-06
  using double precision FFTW3
  3d grid and FFT values/proc = 6615 1092
Last active /omp style is kspace_style pppm/tip4p/omp
Neighbor list info ...
  update every 1 steps, delay 5 steps, check yes
  max neighbors/atom: 2000, page size: 100000
  master list distance cutoff = 10.8154
  ghost atom cutoff = 10.8154
  binsize = 5.4077, bins = 5 9 4
  1 neighbor lists, perpetual/occasional/extra = 1 0 0
  (1) pair lj/cut/tip4p/long/omp, perpetual
      attributes: half, newton on, omp
      pair build: half/bin/newton/tri/omp
      stencil: half/bin/3d/tri
      bin: standard
Per MPI rank memory allocation (min/avg/max) = 9.641 | 9.653 | 9.672 Mbytes
Step Temp PotEng TotEng E_pair E_mol Press Lx Ly Lz Xy Xz Yz Volume Pxx Pyy Pzz Pxy Pxz Pyz Cella Cellb Cellc CellAlpha CellBeta CellGamma 
       0          250   -10133.557   -9132.7495   -10133.557            0    -3299.268    18.399555    45.140778    19.505716            0    -6.792611            0    16200.867   -7058.7342   -3376.4904    537.42079    346.80239   -4913.0145   -3638.9603    18.399555    45.140778      20.6546           90    109.20001           90 
     500    250.16314   -9756.5759   -8755.1159   -9756.5759            0    1685.1718    18.150903    45.905213    19.515181  -0.21118087   -6.7369366  0.078140215     16260.46    2749.5095    1765.1733    540.83261    199.09752    942.69803   -369.20422    18.150903    45.905699    20.645453    89.697134    109.04531     90.26358 
    1000    243.51022    -9679.178   -8704.3511    -9679.178            0    4332.7884    18.073821    46.160881    19.420434  -0.47742121   -6.6022422   0.14166941    16202.536    5682.2465    4223.0354    3093.0833   -325.15845   -115.97461   -288.80279    18.073821     46.16335    20.512507    89.413577     108.7757    90.592563 
    1500    257.70642   -9725.4778   -8693.8203   -9725.4778            0    3015.7103    18.189954    45.925937    19.414862  -0.20884819   -6.4861161   0.14735945    16218.994    2669.7575    3294.4554    3082.9178   -301.33636   -825.02856   -504.05533    18.189954    45.926411     20.47018    89.504984    108.47294    90.260551 
    2000    243.13399   -9652.0129   -8678.6922   -9652.0129            0    4850.7555    18.096381    45.686184    19.545519 -0.081867982   -6.4357947  0.016691107    16159.348    4237.8368    5470.1691    4844.2605    375.79205    106.03522    62.351344    18.096381    45.686257    20.577829    89.921415    108.22527    90.102672 
    2500    251.27615   -9655.8779   -8649.9622   -9655.8779            0    3781.8087    18.189868     46.11701    19.357731  -0.56908103   -6.6963904  0.043798501    16238.471    3105.6025    3766.6167    4473.2069    924.77556   -345.58845    271.91588    18.189868    46.120521    20.483293    89.646371    109.08192     90.70699 
    3000    255.36733   -9699.1016    -8676.808   -9699.1016            0    4623.9373    18.044189    46.102029    19.472204  -0.43464224   -6.8544286   0.27607952    16198.414    4949.6714    4586.0533    4336.0872    540.94425    778.21981    295.07408    18.044189    46.104078    20.645245    89.054465    109.39082    90.540159 
    3500    243.15957   -9693.0279   -8719.6047   -9693.0279            0    5234.5098    18.213963     45.59624    19.426787 -0.058130859   -6.7823415  0.092985939    16133.718    4917.1555    5616.5446    5169.8293   -456.29009    877.96904   -472.31609    18.213963    45.596277    20.576901    89.717006    109.24507    90.073047 
    4000    248.22106   -9706.3732   -8712.6877   -9706.3732            0    3742.0046    18.175075    45.988735    19.402806  -0.45716365   -6.4942094 -0.087217003     16217.81    3985.1432    2861.7179    4379.1527    19.250853   -572.95072   -16.373117    18.175075    45.991008    20.460969    90.063449    108.50546    90.569546 
    4500    248.56869   -9685.0339   -8689.9568   -9685.0339            0    3643.6618      18.0683    46.161198    19.481892  -0.34096255   -6.4831107   0.24889766    16248.957    2897.0534    3222.4616    4811.4703    19.919905    626.82439   -886.10879      18.0683    46.162457    20.533796    89.171872    108.40482    90.423199 
    5000     249.9012    -9664.563   -8664.1515    -9664.563            0     3380.102    18.230641    45.912841    19.443753  -0.45688104   -6.6742983   0.15449217    16274.821    2767.1671    3830.8421    3542.2969     887.9245    3.2319226    14.567275    18.230641    45.915114    20.557959    89.384339    108.94483    90.570134 
    5500     241.7348   -9692.5914   -8724.8718   -9692.5914            0    2975.5977    18.074812    45.896724     19.64254  -0.13874745   -6.7451181  -0.11323583    16294.953    3885.1611    2782.1584    2259.4734   -678.57129   -324.64128    928.93391    18.074812    45.896934    20.768698    90.256137    108.95184    90.173207 
    6000    256.40234   -9690.2335   -8663.7965   -9690.2335            0    2857.1606    18.179528    46.200666    19.350138   0.36522964   -6.5640656  0.010598896    16252.303    2318.8231    2882.8904    3369.7684   -1010.5774   -846.09331   -1012.4689    18.179528     46.20211    20.433182    90.115781    108.73826     89.54707 
    6500    247.17963   -9692.1504    -8702.634   -9692.1504            0    5261.2191    18.060354    46.060228    19.395489  -0.43870125   -6.3643579   0.18391947     16134.41    3495.8639    6041.8125    6245.9809     663.9775    612.82864   -913.65488    18.060354    46.062317    20.413816    89.313669    108.16576    90.545698 
    7000    250.67223   -9676.8395   -8673.3415   -9676.8395            0     4250.772    18.148892    45.765994    19.545135  -0.61890093   -6.5456993    0.1708294     16234.23    2600.6235    5155.4794     4996.213    634.14795    662.40873     910.7755    18.148892    45.770179    20.612804    89.279158    108.51513    90.774773 
    7500    255.96669   -9699.6561   -8674.9632   -9699.6561            0    4038.8111    18.180945    45.966931    19.407813   0.10974901    -6.704397  0.082154596    16219.541    3196.3195    4136.8443    4783.2696   -467.12424     400.7377    24.658312    18.180945    45.967062    20.533361    89.815424    109.05723    89.863203 
    8000    246.14395   -9696.5647   -8711.1944   -9696.5647            0    3321.4511    18.075715    46.170638    19.485983  -0.17865331   -6.7256123  0.055946044    16262.364    3447.9774    3480.9545    3035.4215     324.1319    873.26878    596.67485    18.075715    46.170983    20.614085    89.772169    109.04211      90.2217 
    8500    239.11469   -9677.7604   -8720.5298   -9677.7604            0    4266.0458     18.25701    45.578438    19.524397   -1.0112041   -6.6435829   0.37525571    16246.758    4026.4961    5325.0679    3446.5734    363.17899   -217.85886   -770.09108     18.25701    45.589654    20.627168    88.548444    108.78872    91.270957 
    9000    251.61733   -9655.2663   -8647.9848   -9655.2663            0    3352.9485    18.137923    45.911127    19.550485  -0.41174296   -6.4593469   0.14289637    16280.324    4132.4746    2951.4055    2974.9653    796.99103   -751.03487   -187.11526    18.137923    45.912973    20.590411    89.441188    108.28275     90.51383 
    9500    259.20155   -9712.8141   -8675.1712   -9712.8141            0    5039.3199     18.06646    46.110816    19.383401   0.33457829   -6.4597425  -0.12713659    16147.521    6134.6025    4291.1148    4692.2423   -1258.7998   -396.34665    912.69464     18.06646     46.11203    20.431855    90.487954    108.43088    89.584271 
   10000    260.59692   -9680.9126   -8637.6838   -9680.9126            0    4441.3717    18.163691    45.784033    19.438196  -0.22986425   -6.5845366   0.12523184    16164.941    5200.5528    4382.7426    3740.8196   -177.83869    277.96384    519.36136    18.163691     45.78461     20.52353      89.5581    108.71305    90.287658 
   10500    255.74821   -9643.7348   -8619.9165   -9643.7348            0    3896.6034      18.1485    45.800949    19.509286   -0.6663718   -6.7292538   0.14934135     16216.48    4185.3297    4645.2031    2859.2774    903.55018    839.15917   -301.04421      18.1485    45.805796    20.637767    89.313634    109.03011    90.833555 
   11000    251.89909   -9686.1212   -8677.7117   -9686.1212            0     2888.222    18.204953      46.2228    19.359487  -0.11920496   -6.6938785  0.085086042    16290.697    2712.0389    2537.5408    3415.0863   -603.34334    36.073275   -586.85197    18.204953    46.222953    20.484262    89.713723    109.07354    90.147761 
   11500    252.25859   -9698.2597   -8688.4111   -9698.2597            0    2431.6673    18.030758    46.370484    19.576275   0.45418043   -6.4085078  0.035205237    16367.625    3548.4794    1929.8216    1816.7009   -1984.1435    -16.75764   -1040.8511    18.030758    46.372708    20.598562    90.076666     108.1264    89.438829 
   12000    255.27086   -9658.0097   -8636.1023   -9658.0097            0    3464.9499    18.177654    45.990638    19.476801  -0.47332678   -6.4289967 -0.068497892    16282.643    2945.6763    3251.1779    4197.9954    240.78097    507.73661     310.0835    18.177654    45.993074    20.510546    90.006514    108.26717    90.589656 
   12500    249.33934   -9661.1358   -8662.9736   -9661.1358            0    3653.0777    18.168832    45.945441    19.482007   -0.3545434   -6.5588488   0.23375044    16263.092    4086.0992    3820.0358    3053.0981    277.27727   -436.21775    191.24864    18.168832    45.946809    20.557766    89.207462    108.60517    90.442121 
   13000    247.75148   -9649.5652   -8657.7596   -9649.5652            0    3833.9969     18.13444    46.085811    19.457853  -0.32849929   -6.6882315   0.14363767    16261.713    2825.4726    4028.0687    4648.4493   -524.70252    139.95355    1220.5824     18.13444    46.086981    20.575741    89.467275    108.96886    90.408397 
   13500    249.82875   -9705.1615   -8705.0401   -9705.1615            0    3431.1912    18.072855    46.208964    19.415042  -0.38915331   -6.6625417  0.014993605    16214.044    4707.7959    3168.5343    2417.2433   -98.621952   -554.11737    427.37246    18.072855    46.210602    20.526411    89.801536    108.94037    90.482511 
   14000    246.64363   -9707.0719   -8719.7013   -9707.0719            0     5786.898    18.240664    45.472103    19.367123  0.012149897   -6.5072307    0.2298549    16063.893    5070.2491    6275.2251    6015.2199   -420.74147    417.31844   -607.28049    18.240664    45.472105    20.432385    89.360311     108.5708    89.984691 
   14500    241.22777   -9702.1079   -8736.4182   -9702.1079            0    4484.6128    18.178265    45.455032    19.568699  -0.40610422   -6.4667926    0.1020219    16169.491    4688.1279     5005.717    3759.9934    326.73354   -659.58275    264.60569    18.178265    45.456846    20.609799    89.555772    108.28674    90.511878 
   15000    243.58319   -9649.4584   -8674.3394   -9649.4584            0    3601.2764    18.142935     46.40163    19.378549  -0.33357436   -6.6975788 -0.0031893515    16314.059    4338.6535    3136.6262    3328.5495   -193.78886    1056.0559    95.984359    18.142935    46.402829     20.50331    89.874368    109.06608    90.411884 
   15500    255.44848   -9708.9984   -8686.3799   -9708.9984            0    3668.3371    18.159349    46.167015    19.410372  0.018674133   -6.8339098   0.17030614    16272.936    3389.7008    3692.5735    3922.7372   -899.27127     23.26809    113.66101    18.159349    46.167019    20.578966    89.533526    109.39521    89.976824 
   16000    248.92054   -9674.9797   -8678.4941   -9674.9797            0    2654.4247    18.233748    45.694463    19.594192   -0.4264209     -6.67123   0.17852881    16325.515    1507.1314    4170.1801    2285.9628    831.56524    696.56919     444.4983    18.233748    45.696452    20.699505    89.333527    108.80143    90.534669 
   16500    259.03485   -9703.2082   -8666.2326   -9703.2082            0    4567.9696    18.179046    45.757032    19.438904  -0.31099049   -6.4693664  0.088371333    16169.653      3119.63    5311.2517     5273.027    23.576545     227.1336    947.23191    18.179046    45.758088     20.48735    89.629896    108.40753    90.389408 
   17000    255.79811   -9692.1371   -8668.1189   -9692.1371            0    5216.5079    17.986718    46.093477    19.449005   0.41797671   -6.5334065 0.0048012096    16124.594    5901.9747     4876.684     4870.865   -485.20796    336.86482    45.785476    17.986718    46.095372    20.517047    90.152034    108.56849    89.480455 
   17500     253.5915   -9685.8928   -8670.7082   -9685.8928            0     4475.188    17.975508     46.40345    19.350588  -0.26873135   -6.6783597 -0.055327015     16140.82    3708.8348    4278.4781    5438.2511    1055.5224    430.51274    -343.0726    17.975508    46.404228    20.470682    90.046605    109.04073    90.331807 
   18000    251.30865   -9730.4928    -8724.447   -9730.4928            0    3905.6248    18.202265    45.894482    19.358467  -0.83841846    -6.684656   0.32801392    16171.744    2777.7658    3907.5182    5031.5904   0.88916607   -266.13614   -604.81832    18.202265    45.902139    20.482736    88.740968    109.04773    91.046585 
   18500    257.15586   -9725.0472   -8695.5937   -9725.0472            0    3774.7893    18.112445    45.734136    19.564961  -0.26637796   -6.6014443   0.18638448    16206.773    3749.8345    4047.3616    3527.1717   -467.03406    467.75564   -1012.7032    18.112445    45.734911    20.649492    89.376154     108.6442    90.333715 
   19000    251.35737    -9706.107   -8699.8661    -9706.107            0    3945.4383     18.14677    46.155007    19.369058   0.09709214   -6.5336908  -0.15570425    16222.832    4533.0645    2645.6403    4657.6102    123.34514    -72.64632    1246.8161     18.14677    46.155109    20.441961    90.474944    108.64004    89.879472 
   19500    255.94198   -9706.0596   -8681.4655   -9706.0596            0    3660.1835    18.104784    45.958942    19.515386   -0.3906464   -6.5185366   0.19912721    16238.299    4002.3234    3454.2316    3523.9954   -325.58117    -55.92857   -429.70558    18.104784    45.960602     20.57623    89.291242    108.46947    90.486997 
   20000    247.82522   -9715.5649   -8723.4641   -9715.5649            0     3733.705    18.177924    45.732266    19.496312  -0.72351994   -6.5705695   0.35676386    16207.628    3601.7754    3427.8268    4171.5128    867.73645    224.08918   -522.54659    18.177924    45.737989    20.576828      88.7172    108.62174    90.906388 
   20500    252.03947   -9719.0356   -8710.0641   -9719.0356            0    3432.9972    18.114603    45.883053    19.544377  -0.26321227    -6.581558  -0.14573146    16244.373    3244.1487    3460.6939    3594.1491    1213.4343    325.60984    1745.4569    18.114603    45.883808    20.623308    90.299975    108.61044    90.328679 
   21000    254.79803   -9719.5351   -8699.5205   -9719.5351            0    2844.2998    18.111251    46.137111    19.411091   0.29792057   -6.5759818  -0.13242167    16219.924    1918.9731    2957.1249    3656.8014    163.51829   -137.44984    1297.3451    18.111251    46.138073    20.495159    90.488899    108.71466     89.63003 
   21500    237.11915   -9697.8482   -8748.6062   -9697.8482            0     3578.528    18.143768    45.964143    19.460749  -0.34410645   -6.5598284   0.22265116    16229.539    4210.9634    3692.7934    2831.8272   -766.45636   -309.73632    -1048.906    18.143768    45.965431     20.53781    89.241849     108.6268    90.428932 
   22000    243.92245   -9651.6907   -8675.2135   -9651.6907            0     4476.041    18.111838    45.696965    19.543598  -0.98103601   -6.5822801   0.14513959    16175.377    5307.9903    4695.2641    3424.8685    767.34992    338.74252    506.24699    18.111838    45.707494    20.622796    89.204321    108.61304    91.229854 
   22500    253.14513   -9688.4331   -8675.0355   -9688.4331            0    4719.0256    18.160143    45.773153     19.42078   0.35783574   -6.6299161  0.045851309    16143.465    4822.8863    5357.8682    3976.3225   -1306.7022    276.71752    264.33807    18.160143    45.774552     20.52132    90.016692    108.84896    89.552094 
   23000     250.0513   -9746.7471   -8745.7348   -9746.7471            0    4014.2105    18.084155     46.16142    19.378702 -0.059589981   -6.5654635  0.086625571    16177.152    4701.6423    3495.2437    3845.7453   -65.629271    423.92554   -164.79364    18.084155    46.161459    20.460862    89.733692     108.7161    90.073963 
   23500    249.79394    -9699.374    -8699.392    -9699.374            0    3285.5302    18.151556    45.986435    19.468074   -1.0223034    -6.588845   0.16950748    16250.495    3579.0328    3292.3626    2985.1952    1210.2623     397.5443   -367.09405    18.151556    45.997797    20.553528    89.119342     108.6974    91.273506 
   24000    259.54449    -9667.474   -8628.4583    -9667.474            0    2814.9168    18.274654    45.746464    19.570302  0.052942057   -6.6822086   0.15353849    16360.788    2636.4103    2738.5385    3069.8015   -830.70046   -520.12455   -414.73737    18.274654    45.746494    20.680237    89.596035    108.85175    89.933692 
   24500    256.35303   -9707.8369   -8681.5973   -9707.8369            0    3195.7245    18.074341    46.046556    19.548219   0.43227044   -6.6020946 -0.069937486    16269.224    2808.5557    2775.2084    4003.4095   -1077.7927    765.18466    285.56252    18.074341    46.048585    20.633114    90.366301    108.66145    89.462141 
   25000    252.61653    -9666.405   -8655.1235    -9666.405            0    4119.6969    18.094843    46.191209    19.425525  -0.34203455   -6.4854833    0.0307506    16236.294    3724.9403    4614.8351    4019.3154   -820.96617    243.36594   -1550.9653    18.094843    46.192475    20.479587    89.779619    108.46229    90.424253 
   25500    255.66648   -9704.0226   -8680.5314   -9704.0226            0    4392.3466    18.153292    45.784119    19.433813  -0.49161718   -6.5564278   0.26171952    16152.073    4301.1219    4862.8343    4013.0835   -74.906351    339.92764   -281.61229    18.153292    45.786759    20.511663    89.072292    108.64139    90.615203 
   26000    257.74254   -9677.4171    -8645.615   -9677.4171            0    3298.3653    18.142567    45.821986    19.579776  -0.26147482   -6.7173176  0.099596672    16277.224    3711.8915    3827.8803     2355.324   -368.71558    1098.2875    -765.5768    18.142567    45.822732    20.700239    89.618236    108.93555    90.326944 
   26500    240.22697   -9684.6455   -8722.9622   -9684.6455            0    2663.9952    18.203624    46.295458     19.35578   0.29311257   -6.7140746   -0.1398561    16311.989    2957.7359    2409.9021    2624.3476   -806.83643    657.37595    473.25522    18.203624    46.296386    20.487668    90.509999    109.13002    89.637245 
   27000     249.5454    -9656.427   -8657.4399    -9656.427            0    3499.9497    18.142569    46.205423    19.442672  0.072774577   -6.4726796   0.11448224    16298.502    2862.9128    4213.9251    3423.0112   -635.31329    593.82702   -900.04264    18.142569     46.20548    20.492101    89.708412    108.41287    89.909758 
   27500    257.78245    -9709.349   -8677.3871    -9709.349            0    3811.6548    18.143969    45.765063    19.543851  -0.62517599   -6.4419323   0.14739514     16228.43    3770.8116    3437.7475    4226.4054    1106.3957    417.69841   -535.77649    18.143969    45.769333    20.578686    89.344652    108.24247    90.782643 
   28000    242.85203   -9672.8165   -8700.6245   -9672.8165            0    4942.6982    18.206044    45.769654    19.378385  -0.39724594   -6.6514595   0.11422904    16147.705    4634.7964    4367.1893    5826.1091    214.21198   -9.0260443   -116.54676    18.206044    45.771378    20.488455    89.519132    108.94403    90.497271 
   28500    259.05882   -9702.6609   -8665.5894   -9702.6609            0    5339.3945    18.073058    45.986706    19.404394  0.034139064   -6.7156586  0.044033371    16127.388    5831.6432    5144.2016    5042.3386    23.685819   -38.313627   -281.44392    18.073058    45.986719    20.533692    89.891043    109.09016    89.957465 
   29000      245.162   -9682.1296   -8700.6902   -9682.1296            0    5119.0577    18.092656    45.898574    19.414582  -0.34429487   -6.5795942  0.047626778    16122.395    4175.7882    5670.1496    5511.2352    707.61962    816.88637   -352.53492    18.092656    45.899866    20.499252    89.728941    108.72145     90.42978 
   29500    258.53853   -9683.4991   -8648.5105   -9683.4991            0    3673.0165    18.219377    45.773354       19.472  -0.63634596   -6.2911147   0.12367172    16238.908    2636.8272     3955.288    4426.9343    841.85991   -707.51725    562.84586    18.219377    45.777777    20.463436    89.408898    107.90454    90.796481 
   30000    261.17073   -9653.1104   -8607.5845   -9653.1104            0     2702.763    18.054978    45.941789    19.673994   0.11532221   -6.3140601   0.15970529    16319.145    2889.3797    2624.8971     2594.012    -655.4906    -553.6684   -959.26832    18.054978    45.941933    20.662984    89.601104    107.79267    89.856178 
   30500    246.58231   -9663.2124   -8676.0872   -9663.2124            0    3616.7003    18.179407     46.11243    19.427026 -0.021646921   -6.6166035  0.019798017    16285.611    2470.7886    3016.1463    5363.1661    691.47785   -13.381843    1580.7057    18.179407    46.112435    20.522894    89.936056     108.8082    90.026897 
   31000    257.67301   -9669.8031   -8638.2794   -9669.8031            0    3236.9484    18.120371     45.96901    19.525669   -0.5436641   -6.7577955   0.12802339    16264.404    4221.5243    2568.4167    2920.9042   -200.65875   -408.15927   -269.48457    18.120371    45.972224    20.662428    89.423407    109.09026    90.677591 
   31500    243.79207    -9654.766   -8678.8108    -9654.766            0    4526.2858    18.195166    45.779531    19.433427  -0.53572668   -6.6292197   0.21527784    16187.387    3468.3732    4326.6724    5783.8119   -118.60774   -727.77118    201.91239    18.195166    45.782666    20.534141    89.182884     108.8347    90.670463 
   32000    250.62098   -9679.8909   -8676.5981   -9679.8909            0    4535.4703    18.071053    46.034602    19.470812   0.13896703    -6.314737  0.056612612    16197.646    3736.4511     4477.413    5392.5469    247.16478   -73.869391   -292.71419    18.071053    46.034812    20.469285    89.894894    107.96875    89.827039 
   32500    246.85703    -9639.375   -8651.1501    -9639.375            0     4366.574    18.051987    46.241096    19.440877  0.011881037   -6.3624652   -0.1806842    16228.149    3500.3091    4813.1305    4786.2823   -507.68759   -146.19206     440.7723    18.051987    46.241098    20.456326    90.510661    108.12112    89.985279 
   33000    265.10393   -9707.3052   -8646.0338   -9707.3052            0    4191.7216    18.254899    45.706097    19.415992  -0.65878054   -6.8367173  0.061080034    16199.931    3769.2724    4175.0649    4630.8276    57.418781    372.90746   -305.97409    18.254899    45.710845    20.584586    89.555749    109.39799     90.82577 
   33500    247.79282   -9689.0326   -8697.0614   -9689.0326            0    4978.5162    18.101569    45.733018    19.506848  -0.35204496   -6.8183265    0.2862126    16148.537    4959.6006    5022.6838     4953.264    -679.6323    532.00278   -1062.4799    18.101569    45.734373    20.666122     89.06096    109.26439    90.441044 
   34000    243.45098   -9709.5323   -8734.9425   -9709.5323            0    3944.0429    18.170116    45.995071    19.392323  -0.22908276   -6.5546404 -0.042297118    16206.858    3141.2055    3960.7978    4730.1254   -90.578208   -24.549091    85.526048    18.170116    45.995642    20.470157    90.027013     108.6753    90.285365 
   34500    241.40088   -9705.0383   -8738.6556   -9705.0383            0    2781.4554    18.118508    46.011245     19.51592 -0.0085422793   -6.4417626  0.029253555    16269.546    3813.7891     2382.949    2147.6282   -967.18825   -554.31621   -56.014677    18.118508    46.011246    20.551601     89.91511    108.26687    90.010637 
   35000    237.89534   -9715.4388   -8763.0896   -9715.4388            0    2542.6361    18.212639    45.748624    19.573393  -0.47580459   -6.6451155   0.26682197    16308.613    1823.7668    3022.8957    2781.2457    768.44689   -4.3789678    165.87461    18.212639    45.751099     20.67236    89.068931    108.75059    90.595878 
   35500    248.59754   -9684.4948   -8689.3022   -9684.4948            0    3178.8514    18.307188    45.936366    19.379666  -0.70629547   -6.9222673  0.078966954    16297.634    1854.5142    3415.4117    4266.6283    574.04739   -95.220333    331.55958    18.307188    45.941795    20.579006    89.483865    109.65619    90.880883 
   36000    246.23569   -9690.6052   -8704.8677   -9690.6052            0    3244.4361    17.980049      46.2692    19.521783  0.014853417   -6.6882304 -0.0056827318     16240.61    4205.4672    2383.7376    3144.1034   -264.63201   -680.56342    1297.1633    17.980049    46.269203    20.635708     90.02174    108.91164    89.981607 
   36500    246.14155   -9657.7869   -8672.4261   -9657.7869            0    3487.2616    18.207052     46.02827    19.439159 -0.050436422   -6.5577599  0.073422285    16290.776    4412.8216    2903.4603    3145.5029   -1552.5963   -407.30704   -478.97551    18.207052    46.028298    20.515616    89.774878    108.64159    90.062783 
   37000    251.86566   -9711.9204   -8703.6448   -9711.9204            0    4010.4151    18.136334    45.879808    19.522066  -0.42816373   -6.5323678  0.094135476    16244.145    4538.5504    3175.4955    4317.1995    229.01037   -202.39125    1188.6261    18.136334    45.881805    20.586203    89.568346    108.50079    90.534685 
   37500    253.15428   -9718.5134   -8705.0791   -9718.5134            0    4694.4487    18.120585    45.871358    19.441131  -0.22619122   -6.5951721   0.17161226    16159.776     4475.066    4488.3015    5119.9786   -573.01197   -29.737328   -450.21402    18.120585    45.871915    20.530059    89.430298    108.73821    90.282523 
   38000    260.11868   -9684.3248   -8643.0104   -9684.3248            0    4644.1019    18.149029    45.945304    19.362454   -0.3038269   -6.6427402 -0.086686202    16145.628     4507.918    3919.8445    5504.5431    750.25952   -348.44969    184.65801    18.149029    45.946309    20.470421    90.119678    108.93555     90.37888 
   38500    257.39939   -9700.3881   -8669.9597   -9700.3881            0     5271.645     17.95254    45.821734    19.577276  -0.21175262   -6.4733074   0.13278274     16104.59    5979.9808    5187.4434    4647.5108   -82.576326   -384.21521   -351.21957     17.95254    45.822223    20.620162    89.547925    108.29629    90.264775 
   39000    248.88067   -9700.6307   -8704.3046   -9700.6307            0    4999.7736    18.225054    45.921732    19.282616  -0.44078707    -6.456852   0.33883725    16138.123    4206.0044    4969.8443    5823.4721   -601.73274   -597.48625   -1138.1906    18.225054    45.923847    20.337773    88.870801    108.51064    90.549946 
   39500    256.58531   -9680.8529   -8653.6834   -9680.8529            0     4512.402     18.09531    45.970376    19.501166  -0.45199576   -6.5477665 -0.0038134372     16222.01    4690.3648     4985.435    3861.4061    1177.0886    649.88961    463.42322     18.09531    45.972598    20.571066    89.831315    108.56014    90.563333 
   40000    246.97453    -9695.691   -8706.9957    -9695.691            0    3468.7177    18.153309    45.988088    19.445955  0.026412618   -6.6787606  0.065510615    16234.183    3938.3401    3448.7469    3019.0662   -200.35922   -80.484563   -111.33608    18.153309    45.988096    20.561014    89.828136    108.95506    89.967093 
   40500    247.82593   -9715.5295   -8723.4258   -9715.5295            0    3894.9853    18.147038    46.160874    19.350065  -0.40180966    -6.637596   0.22157327    16209.222    3184.4253    3984.5929    4515.9377   -723.17845    -28.35333   -695.26851    18.147038    46.162622    20.458049    89.217643     108.9322    90.498721 
   41000     247.3071   -9713.4335   -8723.4068   -9713.4335            0    3734.5481    18.048637    45.914104    19.584283  -0.93184178   -6.5669533  0.069117654    16229.241    3402.6524    3711.6325    4089.3594    798.43587   -23.401802   -343.28929    18.048637    45.923559    20.656084    89.438701     108.5371    91.162677 
   41500    245.05573   -9643.1597   -8662.1458   -9643.1597            0    3381.9266    18.384465    45.549545    19.460073   0.57203341   -6.6725834   0.13496419    16295.943    2228.9448     3786.428     4130.407    -658.5623   -16.021656    -726.7686    18.384465    45.553137    20.572701     89.85751    108.92569    89.280489 
   42000     252.0444   -9694.2558   -8685.2646   -9694.2558            0    3598.6544    18.144943    45.909536    19.512602 -0.0015575336    -6.662001 -0.013199997    16254.503    3486.6541    3747.1652    3562.1438   -26.169142   -136.66447    208.61622    18.144943    45.909536    20.618537    90.036053    108.85095    90.001944 
   42500    249.58094   -9686.0623   -8686.9329   -9686.0623            0    4431.4133    18.098294    46.216138    19.379091  -0.55855884   -6.5924329   0.17419722    16209.316    5001.6722    3585.5147    4707.0531    63.353705   -79.051026    216.24618    18.098294    46.219513    20.470459    89.289459    108.78671    90.692431 
   43000     249.4376   -9667.0905   -8668.5349   -9667.0905            0    3031.6496    18.171163    45.910704    19.529228  -0.33195991   -6.5728591   0.21894931    16292.275    3116.9387    3449.6754    2528.3347   -2.5793777     67.73416   -231.96876    18.171163    45.911904    20.606823    89.259085    108.60036    90.414273 
   43500    250.14935    -9677.618   -8676.2132    -9677.618            0    3077.4727    18.148767    45.765583    19.586981 -0.044119605   -6.5553994 -0.081663168    16268.728    3939.4072    2792.6095    2500.4014   -334.18061   -573.58552    201.87409    18.148767    45.765604    20.655017    90.208999    108.50429    90.055235 
   44000    251.02031   -9702.1513   -8697.2598   -9702.1513            0    4889.0717    18.135127    46.173444    19.293611  -0.24635165   -6.5563774   0.14221109    16155.723    4556.3023    4361.1213    5749.7914   -611.37226    242.62143   -547.43975    18.135127    46.174101    20.377677    89.501792    108.76837     90.30569 
   44500    252.95624    -9709.103   -8696.4615    -9709.103            0     5193.779    17.962388    46.190003    19.420367  -0.81732452   -6.5755357   0.24412445    16112.743    6277.9936    4566.1543    4737.1891   -424.66493   -591.24293    250.59697    17.962388    46.197234    20.504826    88.992839    108.70419    91.013734 
   45000    243.75525   -9723.9492   -8748.1414   -9723.9492            0    4405.4893    18.195022    45.673191     19.42985  -0.41735616   -6.6782598 -0.064364299    16146.686     3031.835    5513.2786    4671.3541    831.78731    431.13737    763.43789    18.195022    45.675098    20.545617    90.009312    108.96833    90.523547 
   45500    251.41269   -9719.8414   -8713.3791   -9719.8414            0    4433.3046    18.173241    45.718377     19.49822   0.20947017   -6.6159017 -0.0021758759    16200.117    4279.2467    4214.5629    4806.1042   -421.81248   -230.38866    38.687969    18.173241    45.718857    20.590064    90.090404    108.74248    89.737487 
   46000    255.51797   -9682.2277    -8659.331   -9682.2277            0    4550.7111    18.007734     46.23202    19.473599  -0.26859294   -6.5100206   0.13021213    16212.432    5562.3812    3857.6149    4232.1373    701.17232    50.091387   -1042.2048    18.007734      46.2328    20.533348    89.531127    108.48439    90.332866 
   46500    246.70158   -9675.1821   -8687.5794   -9675.1821            0    5434.4883    18.093942    46.203922    19.284875  -0.64389948    -6.438994   0.14299202     16122.37    4686.7997    5341.8275    6274.8378     372.0538    423.39975   -696.32064    18.093942    46.208408    20.331933    89.344223    108.46309    90.798424 
   47000    257.19739   -9733.0092   -8703.3894   -9733.0092            0    4620.9037    18.180695    45.315057    19.661929    0.1540643   -6.5205343   0.12524134    16198.662    4260.9734     5371.339    4230.3986   -1216.7846    323.92004   -7.3157947    18.180695    45.315319    20.715321    89.714916    108.34685    89.805204 
   47500    258.62081   -9681.9434   -8646.6254   -9681.9434            0    4456.5023    18.260963    45.566681    19.484282  -0.13851265   -6.6666382 -0.074710982    16212.705    4673.7223    4831.5716    3864.2129   -221.52747    565.86862   -569.85578    18.260963    45.566892     20.59337    90.151481    108.88849    90.174166 
   48000    250.88297   -9693.7458   -8689.4041   -9693.7458            0    4571.8175    18.060157     46.29335    19.357693  -0.45349044   -6.6190934  0.071063578    16184.293    4629.8099    3400.8445     5684.798   -173.85348    -684.5406   -923.44725    18.060157    46.295572    20.458194    89.619398    108.87729    90.561252 
   48500    250.25422   -9685.9108   -8684.0861   -9685.9108            0    3931.5546    18.086859    45.981733    19.501747  -0.24822148   -6.5936586   0.21795909    16218.923      4818.19    3589.3261    3387.1478      -407.55      360.888   -263.80282    18.086859    45.982403    20.587422    89.294341    108.67962    90.309295 
   49000    249.27072   -9640.8352   -8642.9477   -9640.8352            0     4032.941    18.282952    45.605701    19.483852  -0.42059762   -6.5615824 -0.0055457379    16245.769     3622.156    4170.1446    4306.5225    805.73965   -30.139661    884.35698    18.282952    45.607641    20.559058    89.846816      108.612    90.528394 
   49500    250.26212   -9559.5295   -8557.6732   -9559.5295            0    3637.0534    18.106724    46.176972    19.530304  -0.11059095   -6.5166133 -0.0045789978    16329.555    3150.6257    3949.0348    3811.4997    -819.5194    277.66646    76.583286    18.106724    46.177105    20.588809    89.969311    108.45214     90.13722 
   50000    246.14084    -9624.925   -8639.5671    -9624.925            0    3944.2559    18.122429    46.422737    19.360846 -0.038745541   -6.6089483   0.25297411     16288.14     3052.652    3658.6422    5121.4736    140.29248    -935.6077   -529.94097    18.122429    46.422753    20.459339    89.276087    108.84617     90.04782 
   50500    243.28167   -9674.4589   -8700.5469   -9674.4589            0    3321.4957    18.174246    45.870395    19.512132  -0.78466806   -6.6827664   0.06398153    16266.481    3176.0846    3498.7758    3289.6266     604.7065     416.6024    732.54748    18.174246    45.877106    20.624907    89.504756    108.90587    90.980017 
   51000    249.27205   -9664.6763   -8666.7835   -9664.6763            0    3061.5677    18.228582    45.680537    19.564618  -0.16377984   -6.5645384  0.049108691     16291.29    2795.2705    4151.1774    2238.2553    71.868675     322.3122   -228.66795    18.228582    45.680831    20.636614    89.798309    108.54815    90.205423 
   51500    247.35648   -9679.0418   -8688.8174   -9679.0418            0    4249.9183    18.118483     46.01222    19.414212   0.13506574   -6.5199823  0.083040084    16185.078    3200.3709    4271.7179     5277.666   -890.92341   -582.11358   -417.91498    18.118483    46.012419    20.479958    89.821227    108.56372    89.831813 
   52000    250.06311   -9720.2965   -8719.2369   -9720.2965            0    5212.1204    18.053896    45.991269     19.38616    -0.394232   -6.5795647  0.037069862    16096.747    6158.4805    4510.0902    4967.7905    181.49305    -148.8434    16.135494    18.053896    45.992958    20.472305    89.738417    108.74692    90.491121 
   52500    256.45294    -9664.174   -8637.5344    -9664.174            0    4439.9422    18.175778    45.612737    19.510995  -0.44832593   -6.6935668   0.22427461    16175.531    3539.1621    5463.4947    4317.1699    381.53539    890.35882   -982.48166    18.175778     45.61494    20.628453    89.194352    108.93421     90.56314 
   53000    248.26188   -9688.1058   -8694.2569   -9688.1058            0    5637.9969    18.171595    45.717252    19.394791  -0.19816045   -6.7969925   0.06743702    16112.327    5502.3071    5042.0879    6369.5956   -37.440317    -268.3856    92.720387    18.171595    45.717681    20.551437    89.729856    109.31314    90.248346 
   53500    254.58341   -9692.7641   -8673.6087   -9692.7641            0    4562.6393    17.942664    46.463906    19.393901    -0.210923   -6.5881271 -0.090534236    16168.429    6312.3268    3264.9467    4110.6445    72.899234   -67.368226    280.96087    17.942664    46.464385    20.482554    90.169591    108.76248    90.260093 
   54000    257.90376   -9683.5117   -8651.0642   -9683.5117            0    3626.8022    18.101561    46.154474    19.404354  -0.15976256      -6.4664   0.21760933    16211.717    5000.3694    2684.9457    3195.0914    739.82894   -39.570749   -489.40461    18.101561     46.15475    20.454599    89.327741     108.4293    90.198327 
   54500    246.37595   -9716.5767   -8730.2776   -9716.5767            0    3364.6185    18.190317    45.723837    19.542502  -0.22882584     -6.48232   0.10187388    16254.107    3858.1728    3630.5398    2605.1431    90.135037   -446.37895    279.72088    18.190317    45.724409    20.589809    89.626241    108.35064    90.286735 
   55000    255.84685   -9690.9539   -8666.7406   -9690.9539            0    3404.0079    18.188265    45.941516    19.456047  -0.42846192   -6.6769777  0.016163438    16257.404    3776.7948    3201.8921    3233.3369    129.44229    30.133699     1156.206    18.188265    45.943514    20.569882    89.781536    108.94133    90.534339 
   55500    241.81965   -9697.2334   -8729.1742   -9697.2334            0    3320.4196    18.009645    46.559398    19.374552  -0.31572292   -6.7909368   0.26546969    16245.915    3565.0897    2589.8407    3806.3283    459.13233    122.04527   -1066.5628    18.009645    46.560468     20.53194     89.13067     109.3143    90.388521 
   56000    253.58908   -9656.4701   -8641.2953   -9656.4701            0    3267.6853    18.107216    46.081077    19.513463  -0.52243427   -6.5271373  0.040854256    16282.034    4804.4879    3134.8883    1863.6797   -5.9543823    757.33141    873.16156    18.107216    46.084038    20.576211      89.6802    108.49474    90.649551 
   56500    246.49573   -9679.0164   -8692.2378   -9679.0164            0    3163.4209    18.288623    45.606891    19.508496  -0.26109164   -6.3841315  0.017634318    16271.787    2918.0458    3505.3499    3066.8669   -534.35608   -1053.0843    799.68892    18.288623    45.607638     20.52654    89.848763    108.12061    90.328005 
   57000    247.12003   -9672.9414   -8683.6636   -9672.9414            0    2985.7065    18.096118    46.191986    19.510348  0.029781734   -6.5921364   0.14776864    16308.615    2860.5845    3102.2627    2994.2724    323.69336    359.01644   -2.0306125    18.096118    46.191996     20.59446    89.600715    108.66853    89.963059 
   57500    246.89871   -9678.3437   -8689.9518   -9678.3437            0    2307.3208    18.146072    46.444198    19.390483  -0.35996519   -6.8454429  0.094506927    16341.907    3096.6709    1845.9173    1979.3742   -456.23141    391.26137   -123.05566    18.146072    46.445593    20.563557    89.588859     109.4444    90.444061 
   58000    252.17335   -9704.6554    -8695.148   -9704.6554            0    3742.9467    18.249014    45.761468    19.509955  -0.47166946   -6.7260955   0.14096301    16292.796    3122.9615    4593.5721    3512.3066     538.2264     839.4166   -1163.3911    18.249014    45.763899    20.637311    89.416189    109.02127    90.590534 
   58500    249.37125   -9686.0425   -8687.7525   -9686.0425            0    4183.6958    18.200076    45.578872    19.577996  -0.28618806   -6.5224688  0.026277187     16240.71    4322.2706    4208.6979     4020.119    478.88644   -418.10772   -403.83437    18.200076     45.57977    20.635921    89.813335    108.42564    90.359753 
   59000    251.48775   -9673.6297   -8666.8669   -9673.6297            0    4806.5896    18.078712    46.175146    19.328985 0.0021788872   -6.4976267  0.026880257    16135.589    5489.3648    3784.5693    5145.8346   -725.72795   -644.37107   -360.69452    18.078712    46.175146    20.391899    89.925335    108.58056    89.997296 
   59500    255.02355   -9674.3626   -8653.4452   -9674.3626            0    5367.1533    18.028273    46.152536    19.296745  -0.27765778   -6.5712807   0.16209865    16055.867    6139.4478    4966.1052    4995.9069   -473.38573    272.14947    113.19946    18.028273    46.153371    20.385592    89.433294    108.80506    90.344692 
   60000    247.06611   -9715.2729   -8726.2109   -9715.2729            0    5874.5438    18.097827    45.629149    19.515048  -0.76181876   -6.6627907   0.20429069    16115.301    7821.5009    5999.4043    3802.7263    1150.1257   -315.06375   -307.21271    18.097827    45.635508    20.622115    89.123425    108.84987    90.956515 
   60500    247.50301   -9713.9155   -8723.1045   -9713.9155            0    4847.7264    18.175694    45.666793    19.431793  -0.28200916   -6.6599064   0.15817111    16128.887    5221.5476    5089.9087    4231.7229    1004.5566    -598.1944   -1054.6465    18.175694    45.667664    20.542005    89.444118    108.91767    90.353818 
   61000    245.32621   -9694.2587    -8712.162   -9694.2587            0     3522.536    18.092571    46.126991    19.439069 -0.0049804327   -6.5780066  0.022524354    16222.989    2237.2527    3631.2081    4699.1473    159.31182    112.95749    180.84874    18.092571    46.126991    20.521893    89.935131    108.69535    90.006186 
   61500    259.90399   -9675.8886   -8635.4337   -9675.8886            0    3590.8974    18.118922     46.11472    19.453451  -0.21479279   -6.5777401  0.062922543    16254.312    2704.2115    3557.4149    4511.0657    1041.6854    513.44763   -45.537446    18.118922     46.11522    20.535515    89.738961     108.6817     90.26687 
   62000    248.43818   -9664.0663   -8669.5117   -9664.0663            0    3928.5977    18.257234    45.850823    19.423615  -0.53887268   -6.6357463   0.43902146    16259.687    2721.5374    4129.4365    4934.8191   -714.49569    332.20828   -1795.2116    18.257234    45.853989    20.530531    88.557097    108.85738    90.673351 
   62500      242.465   -9699.4958   -8728.8531   -9699.4958            0    3482.1123    18.110105    45.750224    19.560372   -1.0896008   -6.7877683   0.18764053    16206.578    3587.7441    4371.9522    2486.6405    1387.2139     750.0252   -268.37231    18.110105    45.763198    20.705487    89.033653    109.13679    91.364315 
   63000    257.35904   -9648.0512   -8617.7844   -9648.0512            0    4909.5648    18.092998      46.1196    19.410943  0.068797754   -6.8173126 -0.058771074    16197.303    4208.9996    5131.8692    5387.8256   -625.66964    575.65828    360.86333    18.092998    46.119651    20.573379    90.191996    109.35169    89.914531 
   63500    246.24887   -9712.0817   -8726.2914   -9712.0817            0    5033.2389    18.095955    45.933012    19.431807   0.19716404   -6.6145598   0.10351583    16151.751    4954.5357    4895.3182    5249.8627   -757.08083    475.03293    287.74045    18.095955    45.933436    20.527012    89.790314    108.79825    89.754064 
   64000    261.65828   -9698.9839   -8651.5062   -9698.9839            0    3969.7249    18.152606    45.770561    19.484036  -0.68121964   -6.4239981  0.063745682    16188.408    4182.5732    4123.0249    3603.5766   -63.527296   -223.68378   -72.184139    18.152606     45.77563    20.515834    89.555001    108.24759    90.852691 
   64500    249.35264   -9704.0985    -8705.883   -9704.0985            0    4521.7991    18.118176    45.873992    19.439565  -0.26374489    -6.458204   0.12191986    16157.254    4135.4604    5206.1972    4223.7395   -239.88994    31.503663    430.94506    18.118176     45.87475    20.484627    89.555137    108.37716    90.329409 
   65000    242.82309   -9722.8427   -8750.7666   -9722.8427            0    3429.7999    18.075212    46.199074     19.44688   0.38755856   -6.7747748  0.065138576    16239.273    3260.1566    4128.4832    2900.7598   -172.90002    342.75626   -392.84138    18.075212      46.2007    20.593274    89.976892    109.20688    89.519364 
   65500    243.64244    -9677.265   -8701.9087    -9677.265            0    1979.8168    18.250679    46.009689    19.505985  -0.41168959    -6.893343 -0.020411454    16379.333    882.54532    2303.4985    2753.4065    754.90919    746.56959    853.06544    18.250679    46.011531     20.68821    89.885709    109.46321    90.512663 
   66000    255.24252   -9628.9485   -8607.1546   -9628.9485            0    2643.8625    18.229791    45.936099    19.581272  -0.46024329    -6.680383    0.1717486    16397.465    3505.5585    2303.0988    2122.9302   -285.18453    556.37828    359.28863    18.229791    45.938404    20.690172    89.339057    108.83701    90.574039 
   66500     252.7649   -9650.4551   -8638.5796   -9650.4551            0    3792.7463    18.100127    46.136647    19.473995  -0.26541239   -6.4609736   0.11539652    16262.328    4293.5082     3007.461    4077.2698   -602.89611   -542.56734    487.74007    18.100127    46.137411    20.518138    89.573974    108.35422    90.329604 
   67000    240.30628   -9686.4089   -8724.4081   -9686.4089            0    2931.3608    18.189028    45.975725    19.459869  -0.18510771    -6.476797 -0.014337893    16273.389    2463.3495    3305.6754    3025.0574   -621.30969    119.45838    194.88008    18.189028    45.976097    20.509403    89.967206     108.4089    90.230683 
   67500    249.40454   -9692.7052    -8694.282   -9692.7052            0    3880.9763    18.127923    45.698231    19.549937  -0.15602312   -6.7331225   0.15320331    16195.442    5416.4627    3826.8785    2399.5876   -134.91758   -178.15888    403.55896    18.127923    45.698497    20.677486    89.511783    109.00349    90.195619 
   68000    241.10874   -9676.6227   -8711.4094   -9676.6227            0     4281.092    18.172386     46.01315    19.385606  -0.44616929   -7.0159181   0.34337875    16209.637    6031.5406    3557.3737    3254.3616     524.4037    139.94779   -413.85226    18.172386    46.015313    20.618989     88.85676    109.89301    90.555555 
   68500    249.99349   -9664.6535   -8663.8726   -9664.6535            0    4148.7946    18.194554     46.06366    19.384365   -0.5657025   -6.7029304 -0.0066346768    16246.186    3848.1313    4674.1429    3924.1097   -115.06231     510.5823    291.57545    18.194554    46.067133    20.510557    89.788596     109.0749    90.703607 
   69000    246.90412   -9714.3646   -8725.9511   -9714.3646            0    4848.0297    18.020136    45.888431    19.548062  0.044666492   -6.3277545  0.040729886    16164.601    6703.7861    4814.0725    3026.2305    248.94853    285.93693    701.45643    18.020136    45.888452    20.546748    89.903598    107.93685     89.94423 
   69500    244.06981   -9684.9716   -8707.9045   -9684.9716            0    4742.3997    18.140024     46.08115    19.333609  -0.24171034   -6.4179862   0.22343302    16161.219    4485.2838    3745.2936    5996.6218   -861.88963   -982.03638   -642.38202    18.140024    46.081784    20.372258    89.276919    108.36296    90.300532 
   70000    247.37509   -9703.6725   -8713.3737   -9703.6725            0    3452.9784    18.152842    45.906212    19.500064  -0.68000277   -6.8666658   0.14254296    16249.953    2708.0518    4538.3063    3112.5772    705.12105    531.66335   -549.03791    18.152842    45.911248    20.674233    89.323131     109.3985    90.848653 
   70500    243.67193   -9701.4112   -8725.9369   -9701.4112            0    3890.1818    18.262797    45.732753    19.460704  0.041451537   -7.0090367  0.090196128    16253.735    3342.3829    4110.1135     4218.049   -644.90575    -24.84585   -690.60031    18.262797    45.732772    20.684625    89.767756    109.80698    89.948068 
   71000    252.77721   -9715.4463   -8703.5215   -9715.4463            0    3652.6617    18.100655    46.033033    19.467981  0.018031555   -6.4361457  0.013449712    16221.268    4865.7476    3109.5174    2982.7202   -755.45264   -749.06632   -814.17766    18.100655    46.033037    20.504303    89.969462    108.29396    89.977557 
   71500    249.17242   -9686.7695   -8689.2755   -9686.7695            0    3809.4826    18.014755    46.232246    19.471241  -0.27529757   -6.1295166   0.10335686    16216.869    5052.2024    3402.8427    2973.4027    -781.1294   -953.35929   -148.29171    18.014755    46.233066    20.413498    89.607462    107.47369    90.341173 
   72000    256.04392   -9649.8042   -8624.8021   -9649.8042            0    3499.1075    18.208758    45.833313    19.490171  -0.32070629   -6.5353757   0.11318826    16265.868    2740.0413    4557.5566    3199.7244   -378.39605    128.06803   -496.70706    18.208758    45.834435    20.557012    89.557076    108.53686    90.400905 
   72500    245.05972   -9706.1671   -8725.1371   -9706.1671            0    3823.8794    18.181621    45.698566    19.505983 -0.054952428   -6.9434877   0.12952963    16207.015    3597.4045    3928.7114    3945.5221   -672.46393    433.00781    460.79335    18.181621    45.698599    20.705366    89.618459    109.59366    90.068898 
   73000    248.34603   -9737.1047    -8742.919   -9737.1047            0    3694.4224    18.136393    46.099998    19.409042   -0.5015347   -6.8514323   0.11031209     16227.66    4496.5877    3194.2558    3392.4236   -409.08827    322.02719   -764.24051    18.136393    46.102726    20.583129    89.485468    109.44285    90.623312 
   73500    246.30407   -9637.4431   -8651.4318   -9637.4431            0      3658.51    18.074885    46.426212    19.377217   -0.6092375   -6.2541656  0.079551236    16260.361    3357.5924    2182.5509    5435.3867    302.07821   -1430.4671    375.48876    18.074885    46.430209    20.361666    89.545243     107.8878    90.751832 
   74000    257.35695   -9708.7855    -8678.527   -9708.7855            0    4542.5148    18.106873    45.869538    19.503287    0.1263778   -6.2712673   0.17289784     16198.53    5117.1791    4823.6836    3686.6818   -439.91557   -781.36331   -100.20357    18.106873    45.869712    20.487481    89.564788     107.8245    89.842142 
   74500    258.22941   -9732.3197   -8698.5685   -9732.3197            0    3605.8859    18.205538     45.84571    19.424021  -0.43927631   -6.6688913  0.043483621    16212.178    3060.5469    4138.2572    3618.8535    41.241691   -388.00993   -619.29731    18.205538    45.847814    20.537005    89.700428    108.94895     90.54897 
   75000    259.08058   -9680.5861   -8643.4275   -9680.5861            0    3673.1094    18.062589    46.164539    19.486015  -0.25435801   -6.8511552   0.20393656    16248.435    3763.4095    3609.1807     3646.738   -58.967387    429.69069    -884.1043    18.062589    46.165239    20.656348    89.329618    109.37036    90.315686 
   75500    241.35309     -9667.67   -8701.4786     -9667.67            0    2869.3752    18.212044    46.095399    19.402109  -0.14561431   -6.6760626  0.037861648    16287.904    2261.0804    2945.6475    3401.3978   -310.00023   -382.51051    81.492879    18.212044    46.095629    20.518603    89.835386    108.98777    90.180995 
   76000    250.37502   -9686.8242   -8684.5159   -9686.8242            0    3614.2893    18.186788    45.818729    19.542837  -0.32087343   -6.2916392 -0.015065179    16284.959    3294.7791    3957.0949    3590.9939   -603.05571   -923.48469   -192.03006    18.186788    45.819853    20.530646    89.919082    107.84549    90.401242 
   76500    236.80327   -9726.4404    -8778.463   -9726.4404            0    4323.0217    18.081255    45.792764    19.534596  -0.33302507   -6.2675248   0.32590913    16174.463    4276.1401    5008.1502    3684.7748    461.15738    193.15109   -843.54091    18.081255    45.793975    20.518005      88.9626    107.78612    90.416673 
   77000    244.28712   -9736.2698   -8758.3328   -9736.2698            0    4525.6341    18.137913     46.16473    19.283781  -0.62690104   -6.7470704  0.054461761    16146.924    3628.2505    4280.0969    5668.5548    554.78516   -633.89879    1829.2218    18.137913    46.168986    20.430128    89.590344    109.28401    90.778009 
   77500    242.49357    -9676.646    -8705.889    -9676.646            0    4447.6008    18.081428    45.980556    19.439242  -0.31991846   -6.8999332   0.07280124    16161.671    5037.3673    3675.2737    4630.1614   -452.71622    670.05304    610.31489    18.081428    45.981669    20.627615    89.664445    109.54212     90.39864 
   78000    255.84629   -9645.2293   -8621.0182   -9645.2293            0    4537.4733    18.203172    45.645364    19.499146 -0.035685805   -6.5506652   0.21215222    16201.653    5666.5734    4029.4703     3916.376    267.96151   -670.48521   -748.63712    18.203172    45.645378    20.571167    89.394828    108.56856    90.044794 
   78500    245.28704   -9723.9607   -8742.0207   -9723.9607            0    2969.3355    18.147097    45.934004    19.467199  -0.46444892   -6.2912396 -0.027790893    16227.251    3054.0584    2544.1071    3309.8408    22.070959     -1229.94    340.53092    18.147097    45.936352    20.458551    89.899685    107.90933    90.579311 
   79000    255.15541   -9723.5093   -8702.0641   -9723.5093            0    4428.4753    17.954077    46.270198    19.448495  -0.21758522   -6.4375249   0.14226062    16156.618    5887.2128    3901.0455    3497.1676   -486.37221    6.0317337   -1216.7955    17.954077     46.27071    20.486726    89.517472    108.31428    90.269431 
   79500    254.39746   -9682.0146   -8663.6036   -9682.0146            0    3515.8348    18.241994    45.967763    19.376326  -0.21540927   -6.8599655   0.18887716    16247.896    3678.4308    2439.9013    4429.1721   -466.54919   -733.37089   -679.23437    18.241994    45.968267      20.5557    89.383926    109.49507    90.268491 
   80000    255.88367   -9695.6957    -8671.335   -9695.6957            0    3228.8602    18.162431    45.727014    19.600584  -0.35876112   -6.7963789  0.097608136    16278.554    3723.5995    3756.9982    2205.9829    110.39762    306.70937    1268.2817    18.162431    45.728421    20.745678    89.583166    109.12345    90.449517 
   80500    258.16004   -9715.5514   -8682.0779   -9715.5514            0    3523.1835    18.158512    46.149365    19.390314  -0.09115673   -6.4639298   0.17072978    16249.157     3309.763    3385.9156     3873.872    -94.83884    317.31074   -106.51325    18.158512    46.149455    20.440054    89.485629    108.43559    90.113174 
   81000    248.65671   -9676.5465    -8681.117   -9676.5465            0    4692.2632    18.057956    45.998802    19.492243  -0.27062837   -6.2123935  0.040351129    16191.122    4710.0289    5242.4812    4124.2795    609.42698   -623.52665    446.16765    18.057956    45.999598    20.458324    89.784634    107.67762    90.337089 
   81500    255.12815   -9737.4038   -8716.0676   -9737.4038            0    4080.5282    18.092415    45.693147    19.548653  -0.41361347   -6.5570957  -0.08268491    16160.859    3563.1212    4721.0777    3957.3856    124.94362   -202.24799      484.807    18.092415    45.695019    20.619218    90.064826    108.54256    90.518626 
   82000    251.25889   -9703.0246   -8697.1781   -9703.0246            0    3535.5085    18.220626    45.983302    19.358074 -0.059735168   -6.9619255   0.18626216    16219.057     3140.641    4005.7935    3460.0911   -39.774534    186.77181   -231.62627    18.220626     45.98334    20.572752    89.456058    109.77974    90.074431 
   82500    261.79268   -9656.2025   -8608.1867   -9656.2025            0    4597.1989    18.010259    46.162169    19.486917  -0.58794115   -6.7957239   0.03944657    16201.279    5311.2482    4781.3582    3698.9903    108.94164     594.6312   -621.43432    18.010259    46.165913     20.63791    89.650221    109.22529    90.729704 
   83000    243.50846   -9689.2625   -8714.4426   -9689.2625            0    4395.6586    18.159653    46.101984    19.366818  -0.35668126    -6.485037  0.045227262    16213.823    4084.2229    3997.0559     5105.697     450.3242    218.26201    1311.7457    18.159653    46.103364    20.423794    89.732375    108.51323    90.443276 
   83500    247.36103   -9665.4983   -8675.2557   -9665.4983            0    4137.6442    18.079782     45.78394    19.529151  -0.21961237   -6.3147686   0.16616896    16165.521    3997.8831    4975.6165    3439.4329   -517.47127     26.37876   -879.25198    18.079782    45.784466    20.525391    89.451591    107.91805    90.274829 
   84000    250.35377    -9621.236   -8619.0128    -9621.236            0    3674.7567    18.096727    46.222401     19.45403  -0.70137352   -6.5707221  0.032908878    16272.794    3717.3034    3439.4869    3867.4796    339.12238   -189.11727    1041.8883    18.096727    46.227722    20.533747    89.630009     108.6627    90.869333 
   84500    249.25439   -9681.6749   -8683.8528   -9681.6749            0    3162.4491    18.165286    46.305636    19.336231  -0.26567732   -6.9646289   0.19292071     16264.77     2907.296    3039.4121    3540.6393    208.56038    990.89397   -311.29053    18.165286    46.306399    20.553177    89.350801    109.80737    90.328729 
   85000     250.0382   -9698.5806   -8697.6207   -9698.5806            0    3119.7187     18.14282    45.856671    19.534917  -0.23391378   -6.8297138  0.094954003    16252.452    4394.8203    2823.8362    2140.4996    349.39332    267.72919    332.72125     18.14282    45.857267    20.694613    89.640655    109.27022    90.292262 
   85500    256.72116    -9664.478   -8636.7647    -9664.478            0    3817.0985    18.186921    45.842485    19.506592  -0.30341589   -6.6013871  0.066878828    16263.303    4500.8271    3335.6159    3614.8526   -559.80189    375.45363   -158.33987    18.186921    45.843489    20.593444     89.69237    108.69666    90.379216 
   86000    255.45149   -9694.4733   -8671.8428   -9694.4733            0     4209.374    18.062468      46.1392     19.41397 -0.077440933   -6.3432302   0.15252254    16179.366    4315.1661    4260.2908    4052.6652   -254.99863   -141.18762    184.77124    18.062468    46.139265    20.424545    89.542267    108.09352    90.096166 
   86500    244.38356   -9702.8149   -8724.4918   -9702.8149            0    3571.2297    17.960294    46.317007    19.442198  -0.32373046   -6.4656496  0.011683185    16173.324    5209.1322    3293.5094    2211.0476    -634.5967   -124.24745   -698.96771    17.960294    46.318138    20.489115     89.84096    108.39493     90.40046 
   87000    245.86111   -9682.4636   -8698.2255   -9682.4636            0     5310.294    18.237792    45.460372    19.522812  -0.33671378   -6.8831463  0.062870411    16186.301    4014.8397    5668.8155    6247.2269    1276.9659    278.51229    334.48715    18.237792    45.461619    20.700769    89.684886      109.421    90.424368 
   87500    253.98647    -9698.945   -8682.1793    -9698.945            0     5043.508    18.190679    45.541679    19.472817  -0.36837009   -6.8800922   0.20107504    16131.945    4686.9403    4959.0359    5484.5478   -311.17449    100.54724   -353.11117    18.190679    45.543169    20.653492    89.287811    109.45826    90.463435 
   88000    253.09868   -9667.0998   -8653.8881   -9667.0998            0    4110.3588    17.996674    46.439804    19.334587  -0.34245597   -6.4931096  0.074278697    16159.113    3182.3419    4046.3058    5102.4286    87.570878   -383.23555    460.90676    17.996674    46.441067    20.395888    89.656837     108.5634    90.422502 
   88500    253.53862   -9716.4443   -8701.4714   -9716.4443            0    4380.7902    18.082875    46.016878     19.41716 0.0061201144   -6.4303867  0.085788584    16157.357    3964.4729    4831.2377      4346.66   -632.17626    109.24115    496.44927    18.082875    46.016878     20.45442    89.762089    108.32317     89.99238 
   89000    249.34891   -9745.4132   -8747.2127   -9745.4132            0    5443.7113    18.128699    45.306145    19.597514   -0.1788135   -6.6081534   0.13297999    16096.251     5854.159    6920.4202    3556.5547   -1579.0398    521.11847   -1725.3478    18.128699    45.306498    20.682068    89.559351    108.63337    90.226133 
   89500    247.09551   -9727.8228   -8738.6432   -9727.8228            0    4036.5325    18.160226    46.095667     19.27249   -0.5496235    -6.714073  0.065136304     16133.15    3726.1643    3898.5621    4484.8712    438.91464   -342.99061   -187.16322    18.160226    46.098943    20.408623     89.59241    109.20701    90.683136 
   90000    249.73903   -9707.9063   -8708.1441   -9707.9063            0    3541.3376    17.951147    46.429333    19.456207  -0.13717648   -6.5746261   0.18273528    16215.966    4740.6169    2908.3122    2975.0836   -878.98561    269.33434   -1176.1853    17.951147    46.429535    20.537846    89.436014    108.67033    90.169281 
   90500    249.76174   -9666.5449   -8666.6917   -9666.5449            0    4411.8375    18.255357      45.6917    19.519904 -0.031650188   -6.4811858  0.079526207    16281.909    4462.8726    4388.3263    4384.3136   -781.43503    -55.74052    186.07184    18.255357    45.691711    20.567906    89.765958    108.36755    90.039688 
   91000    251.06841   -9691.6445   -8686.5604   -9691.6445            0    3649.9891    18.199059    45.691097    19.517234  -0.32991284   -6.5054285  0.043212775    16229.263    3612.3677    3739.6382    3597.9614    590.76457    499.56067    532.63613    18.199059    45.692288    20.572917    89.748839    108.43407    90.413697 
   91500    242.90254   -9696.2711   -8723.8769   -9696.2711            0    3748.1991     17.99972    46.236757     19.43965  -0.34410224   -6.6011829   0.18131379    16178.623    3547.7586    3703.9744    3992.8644    681.75102   -21.154738     273.0688     17.99972    46.238038    20.530672    89.356903    108.75535    90.426398 
   92000    244.42448   -9656.7011   -8678.2142   -9656.7011            0    4286.3472    18.241344    46.118628    19.277912   -0.4498215   -6.7453863  0.023409718    16217.847     4137.852    3575.7792    5145.4103    727.98698   -189.26257   -1227.9314    18.241344    46.120821    20.423973    89.749773    109.28505    90.558821 
   92500    248.50522   -9695.3872   -8700.5642   -9695.3872            0    4498.3123    18.097126    45.393679    19.711428  0.048497584   -6.5831355 -0.0020748587    16192.842    4748.1588    5516.3521    3230.4259   -246.46327    31.805498    900.43715    18.097126    45.393705    20.781676    90.025111    108.46806    89.938787 
   93000    247.31552   -9668.4258   -8678.3654   -9668.4258            0    3789.6471    18.185532     46.06442    19.388304  -0.14865665   -6.4676675   0.16094798    16241.698    3875.3216    4135.6593    3357.9603    242.34729   -549.60917    -1165.476    18.185532     46.06466     20.43925    89.490314    108.44739    90.184901 
   93500    246.41315   -9700.3472   -8713.8992   -9700.3472            0    4224.5386    18.024324    46.368518    19.395797  -0.60381861   -6.4707002  0.023813353    16210.255    5151.3315    3790.9916    3731.2928    194.86567   -268.15808    821.49959    18.024324    46.372449    20.446698    89.697174    108.44938    90.746073 
   94000    245.28287   -9707.9693   -8726.0461   -9707.9693            0    4217.7745    18.133986    45.768064     19.48843  -0.26534698   -6.6866122   0.15028687    16174.567     4240.083    4299.4324     4113.808   -38.834104    474.05725   -448.90874    18.133986    45.768833    20.604181    89.474285    108.93692    90.332177 
   94500    240.46609    -9692.654   -8730.0135    -9692.654            0    5036.3641     18.17982    45.723908    19.431113  -0.10555214   -6.7282385  0.061021263    16152.159    5406.2928    5325.0905     4377.709   -20.590274    345.80014    315.94676     18.17982     45.72403    20.563099    89.786697    109.09889    90.132265 
   95000    237.38604   -9711.5435   -8761.2331   -9711.5435            0    5164.3033    17.931351    46.221342    19.431841  -0.53876124   -6.5277023 -0.030073501    16105.326    6057.1798    4286.9162     5148.814   -753.74233   -64.151995   -88.483287    17.931351    46.224482    20.498982    89.871397    108.56863    90.667816 
   95500    246.11051   -9669.0811   -8683.8447   -9669.0811            0    4614.7388     18.12327     46.22742    19.302619    -0.244659   -6.4236473   0.35677733    16171.581     2387.744    4930.5216    6525.9508   -351.03315   -523.71645   -842.20436     18.12327    46.228067    20.346539    88.899528     108.4038    90.303236 
   96000     253.7081   -9706.3959   -8690.7445   -9706.3959            0    3034.5481    18.222435    45.460793    19.643207  -0.28303538   -6.4527353  0.054511592    16272.558    3653.5366    3553.3896    1896.7179   -11.014115   -126.68536     207.8591    18.222435    45.461674    20.675985    89.737618    108.18513    90.356714 
   96500    246.54686   -9666.6656   -8679.6824   -9666.6656            0    3055.7731     18.23372    45.627465    19.575604  -0.22135558   -6.6254198 -0.064521443    16286.089    2455.6761    4031.8332      2679.81   -168.98082   -620.72751    795.72382     18.23372    45.628002     20.66651    90.089767    108.69844    90.277961 
   97000    250.36628   -9675.5101   -8673.2369   -9675.5101            0    2944.2763    18.170866    46.273485    19.320431  -0.28534932   -6.6881192   0.19738251    16245.185    2259.8096    1836.9089    4736.1105   -716.87731   -55.032309   -247.42573    18.170866    46.274365    20.446246    89.331306     109.0933    90.353315 
   97500    252.17719   -9697.1295   -8687.6068   -9697.1295            0    3040.3005    18.087284    46.102066    19.516329  -0.61161224   -6.6047753  0.098791639    16273.909    2787.4101    3253.7063     3079.785    939.20071    199.17831    434.24159    18.087284    46.106122    20.603881    89.481655    108.69678    90.760069 
   98000    240.08008   -9705.4851   -8744.3899   -9705.4851            0    4313.8674    18.275808    45.656636    19.436871  -0.14310726   -6.5736594   0.14711644    16218.357    3210.8256    4224.7569    5506.0197   -163.84345   -808.78972    -679.9607    18.275808     45.65686    20.518933    89.531663    108.68533    90.179589 
   98500    249.18179   -9717.6409   -8720.1094   -9717.6409            0    3865.2997    18.064726    45.874564    19.542204   0.23161206   -6.5038521   -0.0332265    16194.848     5282.567    3553.1998    2760.1324   -438.17555   -428.62343    487.61243    18.064726    45.875149     20.59609    90.183778    108.40796    89.710727 
   99000    251.11973   -9679.9411   -8674.6516   -9679.9411            0    4201.2483    18.018253    46.380766    19.289029  -0.18383087   -6.6290145 -0.0035908375    16119.849    3432.8185    3852.0821    5318.8444    58.290769    476.45121   -140.57194    18.018253     46.38113    20.396335     89.93628    108.96619    90.227092 
   99500    263.18205    -9665.378   -8611.8003    -9665.378            0    4192.7132    18.147389    45.957278    19.422358   -0.4193603   -6.6981092   0.34460301    16198.336    4471.8814    4778.0879    3328.1702    279.36408    71.475879    262.37952    18.147389    45.959191    20.547784    88.868648    109.02479     90.52281 
  100000    257.51199   -9737.5989   -8706.7198   -9737.5989            0    3910.5235     18.09061    45.564128    19.614934  -0.53966046   -6.5087609  0.086874584    16168.255    4913.8114    4519.5216    2298.2375    1037.9636   -440.01502    751.52766     18.09061    45.567324    20.666813     89.54546    108.35706    90.678578 
  100500    248.69393   -9684.6745    -8689.096   -9684.6745            0    3844.1334    18.155478    46.202999    19.368577 0.0031221293   -6.4328416  0.016384236    16247.089    4093.5117    3079.4051    4359.4833    5.7110345   -98.683243    915.15351    18.155478    46.202999    20.408907    89.955223    108.37275    89.996128 
  101000    248.27176   -9702.1316   -8708.2432   -9702.1316            0    3227.4455    18.050833    46.267158    19.466404  0.044416068   -6.5107378   0.18215329    16257.577    3138.9981    3225.7459    3317.5925   -854.84309    194.31891   -888.87144    18.050833     46.26718    20.527148     89.50901    108.49228    89.944997 
  101500    244.56116   -9670.2546   -8691.2206   -9670.2546            0    3822.9096    18.258278    45.680825    19.450335  -0.73273104   -6.8228281  0.089556928    16222.615    2828.7847    5101.2277    3538.7163   -7.0956962      1215.31     1614.739    18.258278    45.686701    20.612485    89.446919    109.32976    90.918959 
  102000    245.87592   -9653.1036   -8668.8062   -9653.1036            0    5338.3217     18.19312    45.660561    19.422222  -0.20278208   -6.7958132   0.18082772    16134.197    4826.7029    6698.5266    4489.7355   -213.33796    460.13542   -213.62472     18.19312    45.661011    20.577621    89.412469    109.28411    90.254453 
  102500    247.21968   -9694.6979   -8705.0211   -9694.6979            0    4798.6857    17.946077    46.325183    19.420175   0.31487574   -6.3045585  0.014629116    16145.065    5591.7094    4190.3424    4614.0053    -207.2028   -176.05276   -138.01312    17.946077    46.326253    20.417905    90.079198    107.98548    89.610562 
  103000    249.53423   -9676.3778   -8677.4355   -9676.3778            0    4077.6531    18.141962    46.108159     19.40831  -0.41213314   -6.2619506 -0.051903365    16234.905    2789.6627    4354.2268    5089.0699   -141.66819   -77.645684    671.61629    18.141962    46.110001    20.393558     89.98857    107.88186    90.512119 
  103500      241.013   -9682.5522   -8717.7222   -9682.5522            0    3476.9618    18.209776      45.8279    19.536985  -0.28623413   -6.5358713   0.31646525    16303.923    4585.3752    2740.2196    3105.2905   -849.96885   -221.99569   -1335.4675    18.209776    45.828794    20.603678    89.006406     108.4948    90.357856 
  104000    242.99337   -9652.0259    -8679.268   -9652.0259            0    3703.9782    18.185458    45.890419    19.482397  -0.45676033   -6.7602377 -0.030218313    16258.806    4454.3319    3529.0448    3128.5579     463.5261    316.52264     1171.343    18.185458    45.892692    20.621967    89.897015    109.13635    90.570262 
  104500    250.15074   -9709.1103   -8707.6999   -9709.1103            0    4240.5126    18.165102    46.081442    19.377987  -0.14275049   -6.6951046  0.018956205    16220.811    2437.0127    4314.5554    5969.9698    66.578235   -298.29748   -689.23765    18.165102    46.081663    20.501979    89.889064    109.06005     90.17749 
  105000     251.2093    -9665.135   -8659.4869    -9665.135            0    2934.8153    18.102886     46.17938    19.506572  -0.04523721   -6.4141893   0.28355622    16307.106    2695.6738    2573.3557    3535.4165   -860.29305   -213.16766   -1497.2942    18.102886    46.179402    20.536032    89.191318     108.2002    90.056127 
  105500    251.82167     -9650.54   -8642.4405     -9650.54            0    2967.6959    18.115629    46.080876    19.502383  -0.91489539   -6.3438238  0.037836199    16280.278     3071.939    2921.5543    2909.5943    682.72275   -23.909172   -428.37224    18.115629    46.089957    20.508254    89.542498    108.01887    91.137408 
  106000    249.75031   -9713.9963   -8714.1889   -9713.9963            0    4464.4342    18.126295    45.822824    19.473687 -0.0019273723   -6.6318424   0.15734237    16174.806    4592.5433    4295.1374    4505.6218   -614.66704   -336.69947   -605.91347    18.126295    45.822824    20.572568    89.561011    108.80591     90.00241 
  106500    248.92937   -9665.7201   -8669.1991   -9665.7201            0    5262.1229     18.17397    45.723657    19.408621  -0.15760426   -6.7709586 -0.068869508    16128.183    4219.7104    6496.8817    5069.7767   -331.27761    306.15773    866.70123     18.17397    45.723929    20.555904    90.126908     109.2319    90.197491 
  107000    255.64405   -9717.6631   -8694.2617   -9717.6631            0    5008.7081    17.989589    46.020577    19.434975  -0.63633913   -6.5212775  0.050118167    16090.046    5930.2549    5073.2781    4022.5913    1369.8924   -463.48614    1517.3848    17.989589    46.024976    20.499947    89.607936    108.54878    90.792194 
  107500    256.61945   -9700.8918   -8673.5857   -9700.8918            0    3753.0801    18.119527    46.090925    19.380967  -0.35133395   -6.3915939   0.27681727    16185.933     3806.884    3288.2245    4164.1319   -397.34862   -200.47824   -1503.0023    18.119527    46.092264    20.409581    89.086106    108.25015    90.436736 
  108000    250.50795   -9661.2576   -8658.4172   -9661.2576            0    4154.8756     18.16659     45.84765    19.495121  -0.22811711   -6.5175834 0.0057804995    16237.398    3344.2644    3962.9389    5157.4236    224.80887    389.15145    770.14757     18.16659    45.848218    20.555745      89.8935    108.48574    90.285075 
  108500    262.30031   -9676.5073   -8626.4594   -9676.5073            0    3799.0783    18.169948    45.843248    19.497659   0.07195273   -6.7463248  0.065426943    16240.954    3233.7212    3957.9973    4205.5163   -1084.8025    596.57029   -44.286554    18.169948    45.843304    20.631914    89.847711    109.08587    89.910072 
  109000    243.56457   -9666.5988   -8691.5544   -9666.5988            0    3537.7658    18.193207    46.193575    19.325309  -0.43949096   -6.8255896   0.12691093    16241.169    3463.5746    3395.3439    3754.3788    95.524477   -13.626434   -257.20331    18.193207    46.195666    20.495667    89.463697    109.45254    90.545102 
  109500    253.43356   -9704.4819   -8689.9297   -9704.4819            0    2273.9835    18.047337    46.246005    19.539661  -0.81160982   -6.5778962   0.24594763    16308.137    2898.4662    2212.2746    1711.2097   -25.302077    293.59432   -320.87872    18.047337    46.253127    20.618621    88.995863    108.60409    91.005428 
  110000    239.19923   -9675.5479   -8717.9788   -9675.5479            0    3214.0985    18.237783    45.779192    19.537381  -0.17492616   -6.4139771   0.13266662    16311.974    3075.8134    3260.8681     3305.614   -457.72229    -545.5497   -744.02241    18.237783    45.779526    20.563705    89.562069    108.17423    90.218931 
  110500    248.86488   -9720.6727   -8724.4099   -9720.6727            0    2557.8643    18.145838    45.958534    19.492318  0.033794826    -6.481174 -0.076557198    16255.738    2782.9502    2915.9173    1974.7254    1161.4853   -646.37997    1221.7322    18.145838    45.958547    20.541713     90.22683    108.39178    89.957869 
  111000    248.23583   -9670.0218   -8676.2772   -9670.0218            0    3431.8923    18.102741    46.363621    19.356223  -0.24878139   -6.7410447   0.15442581    16245.845    2385.5179    3837.6424    4072.5167    229.99202    90.764717     914.6237    18.102741    46.364289    20.497046    89.467219    109.20074    90.307439 
  111500     257.1273   -9696.3669   -8667.0277   -9696.3669            0    3092.8153    18.142632     45.96913    19.476343  -0.49525835   -6.8943745   0.21637841    16243.289    4147.8293     3213.656    1916.9606    633.38968    1071.0324    129.47581    18.142632    45.971798    20.661732    89.194019    109.49219    90.617265 
  112000    246.05244   -9657.2008   -8672.1968   -9657.2008            0    5028.6424    18.183988    45.379153    19.604644  -0.47841635   -6.5587887 -0.020559028    16177.243    5848.3231    5264.2136    3973.3905    717.39543     397.7272    436.61742    18.183988    45.381675    20.672692    89.865343     108.4978    90.604027 
  112500    250.29974   -9723.5954   -8721.5885   -9723.5954            0    4060.8777     18.07315    45.949182    19.451968   0.18374712   -6.1796357   0.07081494    16153.818    3880.2113    4312.4255    3989.9963   -605.60978   -428.57707   -835.14826     18.07315    45.949549    20.410095    89.870579    107.62426     89.77088 
  113000    251.62159   -9693.5363   -8686.2378   -9693.5363            0    3926.4898    18.019656    46.528217    19.368943  -0.24651126    -6.309504  0.009966171    16239.358    5083.6589    3184.0399    3511.7706     39.60595   -309.85266    1450.2782    18.019656     46.52887    20.370712    89.877948    108.04321    90.303556 
  113500    251.90013   -9691.4184   -8683.0047   -9691.4184            0    3355.5811     18.16423    45.914877    19.529164  -0.54069381   -6.6693878   0.10185573    16287.487    3093.8767    3717.6373    3255.2294    346.84063    623.17362     80.80269     18.16423     45.91806    20.636845    89.499184    108.85527    90.674684 
  114000    244.63938   -9658.0627   -8678.7154   -9658.0627            0    5123.2557    18.162981    45.831376    19.442757  -0.11746586   -6.7034491   0.12493836     16184.82    5551.5336    4892.1816    4926.0517   -1247.3153    552.60972   -1618.1153    18.162981    45.831527    20.566298    89.604067    109.02274    90.146849 
  114500    252.42845   -9677.0427   -8666.5141   -9677.0427            0    4591.7318    18.128522    45.982422    19.415141 -0.056361421   -6.4657913 -0.019430726    16184.333    5393.8406    3887.6131    4493.7417   -1270.7468    -450.8841   -550.39997    18.128522    45.982457    20.463493    90.032214    108.41921    90.070228 
  115000    263.68013    -9711.698   -8656.1264    -9711.698            0    3902.0759      18.1621    45.626933    19.530755  -0.32194254   -6.2893097   0.12168086    16184.764    2898.2423    4363.6694     4444.316   -292.68465    82.808631    205.15612      18.1621    45.628068    20.518787    89.536313    107.84931    90.404271 
  115500    253.60881    -9699.802   -8684.5481    -9699.802            0    3380.4447    18.164898    45.607828    19.577233  -0.70489837    -6.499175   0.28741871    16218.985    3702.2386    3913.5477    2525.5479    935.92199    305.39888   -225.82945    18.164898    45.613275    20.629831     88.92283    108.36309    90.885473 
  116000    256.66712   -9740.9803   -8713.4833   -9740.9803            0    3847.1761    18.100937    46.231512    19.334189   -0.1850978   -6.8615672   0.11965532    16179.501    3023.1918    3464.8097    5053.5267   -635.06521   -15.947056   -38.348748    18.100937    46.231883    20.516001    89.589113    109.53907    90.229395 
  116500    255.47823   -9654.0408   -8631.3033   -9654.0408            0    3274.6646    18.089615     46.20601    19.497965 -0.050732483   -6.7647075  0.030770691    16297.353    6372.2249    1811.9389    1639.8301    249.87012   -692.26953   -868.67098    18.089615    46.206038     20.63814    89.893954     109.1339    90.062909 
  117000    245.89831   -9748.1232   -8763.7362   -9748.1232            0    2737.7597    18.263318    45.672797    19.525937  -0.25984248    -6.518708   0.13546402    16287.303     2138.062    2862.0983    3213.1188    -553.6496    537.04676   -274.58858    18.263318    45.673537    20.585775    89.519748     108.4611    90.325965 
  117500    249.04522   -9724.4532   -8727.4684   -9724.4532            0    2906.1688     18.10005    46.160303    19.478603   -0.5664313    -6.415063   0.17581699    16274.447    2863.1104    2836.2327    3019.1633    2.2808147    374.07592    288.95637     18.10005    46.163778    20.508533    89.288925    108.22803    90.703039 
  118000    249.30283   -9754.9975   -8756.9814   -9754.9975            0    3923.3791    18.051357    46.473707    19.312158  -0.21207106   -6.7176295   0.11554779     16201.23     4118.591    3077.2706    4574.2757    722.14175   -108.06106    -68.15162    18.051357    46.474191    20.447478    89.590329    109.17963    90.261453 
  118500     249.4505   -9686.7332   -8688.1259   -9686.7332            0    4014.5926    18.191616    45.669963    19.514083  0.050346164     -6.95497 -0.0032660707    16212.503    5210.0589     3571.131    3262.5878   -1137.6772    270.63111   -18.036287    18.191616     45.66999    20.716444    90.030238    109.61646    89.936838 
  119000    245.87986   -9690.1369   -8705.8237   -9690.1369            0    4904.3821    18.201066    45.519212    19.489142  -0.57370372   -6.6021941    0.1469741    16146.719    5257.4923       5026.3    4429.3541    718.94901    191.96799     -106.904    18.201066    45.522827     20.57759    89.359115    108.71397    90.722092 
  119500    257.59285   -9711.4253   -8680.2224   -9711.4253            0    3873.1499    18.053349    46.332617    19.365564  -0.64434571   -6.2672315   0.20947624    16198.498    3970.4414    2893.6393    4755.3691    338.51274   -1091.4606   -245.07179    18.053349    46.337097    20.355518    89.165098    107.93203    90.796759 
  120000    242.44199   -9678.5714   -8708.0208   -9678.5714            0    3023.0298    18.112272    46.050542    19.521676  -0.15063437   -6.5077477  0.035311675    16282.638    3192.1634    3008.9397    2867.9864   -310.28893    58.058444    289.53508    18.112272    46.050788    20.577849     89.84241     108.4363    90.187418 
  120500    249.03235   -9686.3211   -8689.3879   -9686.3211            0    3767.0325    18.243148    45.773598    19.440496  -0.10557229   -6.7649219  0.099055268    16233.874    3916.4098    3590.1311    3794.5566   -26.102707    357.59194    240.11471    18.243148     45.77372    20.584141     89.68085    109.18669    90.132147 
  121000    247.25751   -9692.3162   -8702.4881   -9692.3162            0     4682.413     18.00123    46.167937    19.450838  -0.48917404   -6.6867637   0.20061794    16165.195    4393.6674    5157.2393    4496.3324   -30.814377   -263.09709   -688.06707     18.00123    46.170529    20.569107     89.24384    108.97089    90.607057 
  121500    247.18224   -9680.4464   -8690.9195   -9680.4464            0    4453.3161    18.045624    46.327066    19.322612  -0.27420245   -6.3516153   0.13407315     16153.72    3858.3215    4203.9849    5297.6418    34.814128    302.54321   -375.20854    18.045624    46.327878    20.340215    89.516438    108.19601    90.339121 
  122000    253.76232   -9662.7265   -8646.8582   -9662.7265            0    3856.0654    18.172834    45.641852    19.539216   0.19792296    -6.255563  -0.02815648    16206.642    3780.9028    4325.7663    3461.5273   -19.360399   -885.22349     1152.976    18.172834    45.642281    20.516184    90.154389    107.75267    89.751542 
  122500    258.37614   -9641.3413   -8607.0028   -9641.3413            0    4112.3011    18.214269     45.56505    19.588324 -0.071519325   -6.6045038   0.05261535    16257.018    4580.8217    4147.9357    3608.1459   -573.27978    256.56507   -660.20599    18.214269    45.565106    20.671833    89.825434    108.63226    90.089932 
  123000    244.03869    -9677.135   -8700.1925    -9677.135            0    3784.3036    18.182184    46.181649    19.336927  -0.55959021   -6.9113303    0.1538902    16236.893    2702.3561    4046.3155    4604.2392    359.97915    949.47904   -250.65649    18.182184    46.185039    20.535504     89.33701    109.66714    90.694228 
  123500    255.30406   -9707.3262   -8685.2859   -9707.3262            0    3012.9134    18.111596    46.086695     19.51513  -0.20371678   -6.7840431   0.14031565     16289.35    3462.4585    2552.5644    3023.7174    236.48505   -396.83309    128.32945    18.111596    46.087145    20.661153    89.527729    109.16852    90.253263 
  124000    253.49706   -9684.0151   -8669.2086   -9684.0151            0    4436.9345    18.234025    45.651132    19.493874 -0.096866569   -6.5217321 -0.016622224    16226.777    4027.6159    4753.5921    4529.5955    149.95721   -363.16846     675.7737    18.234025    45.651235    20.555885    90.007759    108.49781    90.121575 
  124500     251.6571    -9672.865   -8665.4243    -9672.865            0    4394.7563    18.174387    45.925893    19.460013  -0.40854596   -6.3714046   0.14736424    16242.786    4933.4587    4077.2291     4173.581    445.07873   -848.11836    724.08823    18.174387    45.927711    20.477026    89.429091    108.12848    90.509676 
  125000    258.62179    -9690.817   -8655.4951    -9690.817            0    4106.5236    17.996228    46.301312    19.500946  -0.57755583   -6.6772707   0.32890541    16249.143    5151.6362     3820.071    3347.8636    582.17416    674.11726   -1299.5766    17.996228    46.304914    20.615067    88.854388    108.89909    90.714662 
  125500    250.33584   -9683.5077   -8681.3563   -9683.5077            0    4710.8245    18.206665    45.956733    19.340571  -0.40305477     -6.96333 -0.051779583    16182.619    3675.0278    4490.6282    5966.8173    1217.7552    531.32466    1612.7421    18.206665      45.9585     20.55598    89.974104    109.80071    90.502489 
  126000    243.08579    -9672.012   -8698.8842    -9672.012            0    4736.9165    18.087403    45.852453    19.531803  0.030592294   -6.6306268 -0.0042770334    16198.736    4802.5056    4579.4461    4828.7979     125.7788     330.1806    174.16545    18.087403    45.852464    20.626598    90.024169    108.75124    89.961773 
  126500    245.68106   -9730.8868   -8747.3695   -9730.8868            0     4060.107    18.116177    45.997538    19.413004  -0.11492839    -6.358099  0.098245115    16176.847    4908.5379    3494.7451    3777.0379   -104.08024   -2032.7771   -660.66365    18.116177    45.997681    20.427917    89.679886    108.13431    90.143158 
  127000    258.05779   -9699.1524   -8666.0883   -9699.1524            0    4650.2635    18.078593    45.972294    19.477048  -0.52418661   -6.5037708  0.042373114    16187.655    5069.2579    4416.6706    4464.8618    953.07881    373.75185     1385.015    18.078593    45.975282     20.53427     89.67487    108.46514    90.653271 
  127500    250.30646   -9695.9138     -8693.88   -9695.9138            0    4581.5818    18.218053    45.776487    19.446356   -0.2868672   -6.9221909   0.18541626    16217.453     4457.188    4678.9184    4608.6389   -373.24894    169.96074   -523.82262    18.218053    45.777386    20.642477    89.364949    109.59305     90.35905 
  128000    252.80768   -9712.1229   -8700.0761   -9712.1229            0    3052.5523    18.153794    46.201648    19.404602 -0.095236369   -6.8487324   0.13115171    16275.323    2782.7037    2625.6532       3749.3    58.950533    628.38731   -1111.3303    18.153794    46.201746    20.578166    89.595525    109.43975    90.118105 
  128500    257.84531   -9726.8464   -8694.6329   -9726.8464            0    2589.4763    18.048046    46.175351    19.565676  -0.41168328   -6.3612814 -0.091777128    16305.543    3434.3384    2480.6937    1853.3968    17.772906   -881.37015     531.9933    18.048046    46.177187    20.574013    90.097639    108.01043    90.510816 
  129000    252.01241   -9657.0058   -8648.1426   -9657.0058            0     4400.447    18.249029    45.763231      19.4823 -0.058138827   -6.3960503   0.20004353    16270.341     3378.736     4924.573    4898.0319   -144.38666   -460.87254   -2672.1866    18.249029    45.763268    20.506328    89.418354    108.17414     90.07279 
  129500    255.73084   -9662.4429   -8638.6941   -9662.4429            0     4568.502    18.142136    45.823647    19.486965  -0.24186824   -6.6245649   0.10578945    16200.271    5202.7064    4189.7888    4313.0107    705.99406    282.99254    1108.2336    18.142136    45.824285    20.582465    89.608179    108.77513    90.302418 
  130000    241.07935   -9705.1802   -8740.0846   -9705.1802            0    4110.8468    18.078894     46.09518    19.397572  -0.46107429   -6.7115679   0.10084226    16164.964     4596.799    3301.7456    4433.9957     405.9633   -115.41228    345.11957    18.078894    46.097486    20.526108    89.531137     109.0854    90.573091 
  130500    249.47415   -9675.6401   -8676.9382   -9675.6401            0    4680.0575    18.172158    45.985814    19.342705   -0.2545843   -6.5781891   0.21715333    16163.953    4355.6199    4901.5372    4783.0153   -264.45733    540.94798   -920.94039    18.172158    45.986518    20.431837    89.288918    108.78137    90.317195 
  131000     250.5608   -9735.2738   -8732.2218   -9735.2738            0    4703.8866    18.063345    45.514173    19.601659  -0.23118095   -6.3789352  0.024952451    16115.272    5224.6637    5161.3951    3725.6012    630.50467   -289.86191    278.28592    18.063345     45.51476    20.613502    89.840587    108.02634    90.291021 
  131500    243.37104   -9717.1716   -8742.9019   -9717.1716            0     4109.448    18.087477    46.114674    19.364592  -0.28272704   -6.5222551  0.067562118     16151.97    3244.5812    4291.6632    4792.0997    150.30089    153.71608   -391.80971    18.087477    46.115541    20.433595    89.698435    108.61411    90.351273 
  132000    248.29462   -9684.0898   -8690.1098   -9684.0898            0    4332.5838    18.084754     46.31094     19.35737   -0.3099583   -6.7881168   0.18357202    16212.223    3798.6781    4296.8875     4902.186    678.99961    48.124069    124.21238    18.084754    46.311978    20.513898    89.360386    109.32361    90.383474 
  132500    263.30921   -9692.1248   -8638.0381   -9692.1248            0    3433.4992    18.202452    45.562755     19.58048  -0.31706964   -6.8500357  0.087445128    16239.146    2801.1842     4410.272    3089.0413    426.96606     762.8879    1095.6423    18.202452    45.563858    20.744296    89.626821     109.2817    90.398713 
  133000    256.83115   -9683.3522   -8655.1986   -9683.3522            0    3856.1731    18.225803    45.968867     19.37314  -0.29533015   -6.4822012   0.18041358    16231.195    3845.9482    3113.3089    4609.2621   -178.60402   -1004.2681   -859.84498    18.225803    45.969815    20.429636    89.377227    108.49936    90.368096 
  133500    254.12482   -9687.3193   -8669.9997   -9687.3193            0    3950.1447    17.915113    46.443645    19.520865  -0.20250788   -6.1725338  0.066369567    16242.202    5537.2395    3363.8353    2949.3591   -455.00751   -357.37855    282.89323    17.915113    46.444087    20.473611    89.738946    107.54696    90.249825 
  134000    237.88731    -9711.588   -8759.2709    -9711.588            0     3727.655    18.278547    45.709306    19.434356  -0.24888596   -6.5958637    0.1082932    16237.399    2693.2808    4158.8113     4330.873   -27.381839    -135.9233   -518.70841    18.278547    45.709984    20.523434    89.597415    108.74653    90.311971 
  134500    255.64534   -9716.4417   -8693.0352   -9716.4417            0    3428.6408     18.24143    45.597767    19.517788  -0.37627975   -6.8262154   0.08405545     16234.28    3109.4743    3369.5261     3806.922     60.30438   -345.92852   -250.12742     18.24143    45.599319    20.677242    89.611005    109.27678    90.472803 
  135000    235.40648   -9686.2958     -8743.91   -9686.2958            0    4641.6024    18.020893    46.024848    19.457117  -0.18004541   -6.6595291   0.12572254    16137.905    4342.1748    5415.0795    4167.5528   -185.15634    372.56278   -24.611002    18.020893      46.0252    20.565615    89.577157    108.89402    90.224135 
  135500    248.18413   -9694.5666   -8701.0289   -9694.5666            0    3498.6833    18.168642    46.311273    19.343805  -0.21239814   -6.4927796  0.035201492    16276.127    2950.8872    3254.7084    4290.4544    654.11029   -295.82307    1725.8254    18.168642     46.31176    20.404416    89.817539    108.55438    90.262775 
  136000    254.89929   -9708.0495   -8687.6295   -9708.0495            0    1983.3867    18.184169    45.607249    19.756348  -0.33020365   -6.5208081  0.096510139     16384.53    2007.8507    3189.2934    753.01604   -631.84154    150.50112   -12.722676    18.184169    45.608444    20.804892    89.604204    108.26586    90.414823 
  136500    245.66586   -9650.6171   -8667.1607   -9650.6171            0    3552.7736    18.327844    45.610121    19.503525  -0.37779632   -6.7876365   0.27301437    16303.683    1868.8597     4589.549    4199.9119   -393.38725     862.2054    163.33097    18.327844    45.611686    20.652701    89.086605    109.18723     90.47458 
  137000    243.59559   -9687.2961   -8712.1274   -9687.2961            0    4332.5345    18.078509    46.105883    19.425107  -0.40774193   -6.7406082   0.07656823    16191.324    5187.3797     4060.654    3749.5696   -171.51102   -387.27004   -486.90488    18.078509    46.107686    20.561528    89.620541    109.13689    90.506688 
  137500    260.67894   -9668.3288   -8624.7716   -9668.3288            0     4568.236    18.006017    46.260543    19.408351   -0.1059961   -6.5559744  0.055674956    16166.537    5159.6418    3696.3666    4848.6996    369.77386    22.029732    642.75939    18.006017    46.260664      20.4858    89.802272    108.66446    90.131281 
  138000    255.62052   -9710.1611   -8686.8538   -9710.1611            0    4870.9685      18.1495    45.736215    19.459533  -0.10196624   -6.3659308  0.036895041    16153.153    4660.7153    4383.4948    5568.6954   -178.39717   -871.20981   -285.69577      18.1495    45.736329    20.474371    89.857036     108.1148    90.127737 
  138500    249.10995   -9682.7977   -8685.5538   -9682.7977            0    3997.1802    18.181422     45.42551    19.646777  -0.34388565   -6.4833431   0.11742587     16226.28     3921.792    4454.8966    3614.8521     173.1403   -522.44424   -124.61102    18.181422    45.426811    20.689209    89.538892    108.26234    90.433739 
  139000     245.4398   -9744.1457   -8761.5943   -9744.1457            0     3374.374    18.077053    46.367055    19.345411  -0.46752802   -6.8187072  0.097380832    16214.931    3179.7275    3113.1624    3830.2322    227.45674    670.70461    38.260006    18.077053    46.369412    20.512171     89.53596    109.41588    90.577705 
  139500    250.19123   -9679.4782   -8677.9057   -9679.4782            0    4503.4559    18.105592    46.294979    19.376139  -0.11276595   -6.8493993  0.093404395    16241.041    5177.6434    3849.1501    4483.5741    351.73375    1059.4018    1019.8696    18.105592    46.295116    20.551345    89.693081    109.46812    90.139562 
  140000    248.42687   -9672.6867   -8678.1773   -9672.6867            0    3612.1776    18.186567    45.493044    19.644403   0.13293035   -6.5836765  0.076955466    16253.038    2544.8986    4735.2185    3556.4156   -236.75746    325.63463   -93.241465    18.186567    45.493238    20.718428    89.840384    108.52806    89.832583 
  140500    253.74223   -9657.8413   -8642.0534   -9657.8413            0    3352.7075    18.207067    45.986344    19.382653  -0.42885895   -6.4178044  0.022876053    16228.638    3601.2221    3281.0764    3175.8239    72.358758   -485.11472    251.36579    18.207067    45.988343    20.417541     89.76786    108.32025    90.534313 
  141000    248.14166   -9716.3528   -8722.9852   -9716.3528            0    2848.8462     17.93861    46.214334    19.509351  -0.44888125   -6.4524709   0.22984177     16173.66    3561.5281     2655.494    2329.5164   -31.808632   -556.24842   -1450.8244     17.93861    46.216514    20.549988    89.184445    108.29979    90.556498 
  141500    241.53624   -9673.8226    -8706.898   -9673.8226            0    3163.1958    18.219749     45.92123    19.421174 -0.027011935   -6.7237492    0.1140874    16249.177    2413.0791    3487.3851    3589.1231   -702.71134   -126.14078   -837.71941    18.219749    45.921238    20.552465    89.670922    109.09591    90.033703 
  142000    253.13356   -9719.8339   -8706.4825   -9719.8339            0     2916.424    18.172495     45.92307    19.485095  0.010723126   -6.7305023 -0.027831471    16261.029    3060.0282    3108.6319    2580.6119    299.20968    493.17435   -210.81839    18.172495    45.923072    20.614785    90.081722    109.05581    89.986621 
  142500    247.86241   -9674.9097     -8682.66   -9674.9097            0    3570.1974    18.044672    46.140086    19.529303  -0.25348422   -6.4821927   0.11087575     16259.76    4918.1346    2918.2836     2874.174    73.715622   -318.37542    210.01472    18.044672    46.140782    20.577288     89.59212    108.36183    90.314768 
  143000     248.4871   -9675.1964    -8680.446   -9675.1964            0    2764.5455    18.247046    46.063819    19.417582  -0.49837975   -6.4590933   0.12459995    16321.033    2129.5611    2667.3464    3496.7289    345.07915    123.15621   -22.558213    18.247046    46.066515    20.464064    89.455505    108.39891    90.619878 
  143500    252.97805    -9692.103   -8679.3742    -9692.103            0    3404.4558    18.080034    45.961238    19.623091  -0.31408509    -6.705797  0.056402494    16306.411    3714.1664    3510.4918    2988.7093     652.6301    245.80174   -126.74809    18.080034    45.962311    20.737324    89.717557    108.86676    90.391536 
  144000    245.54546   -9676.4484    -8693.474   -9676.4484            0    2501.9963    18.148181    46.156426    19.465009  -0.17743326   -6.8065559  0.085578537    16304.966    2082.0287    2463.3611    2960.5989    70.556097    28.964828   -36.956711    18.148181    46.156767    20.620939    89.689517    109.27362    90.220254 
  144500    247.00157   -9694.8802   -8706.0766   -9694.8802            0    3764.1529    18.181176    45.994663    19.434975  -0.22543088   -6.6389626  0.034780673    16252.246    4292.7977    3038.1833    3961.4776    5.6378514    274.99532    755.45811    18.181176    45.995215    20.537655    89.812194    108.86007    90.280818 
  145000    254.35507   -9674.6552   -8656.4139   -9674.6552            0    4209.5747    18.122804      45.5318    19.653837  -0.16578082   -6.3091736  0.065455184    16217.637    5330.4898    3931.9236    3366.3106   -547.08261   -442.56775    -51.75934    18.122804    45.532102    20.641784    89.754553    107.79731    90.208612 
  145500    253.56648   -9678.9708   -8663.8864   -9678.9708            0    4120.9443    18.196113    46.009184    19.294934  -0.32390931   -6.2641067   0.21805059    16153.493    2690.7553    4271.6904    5400.3871   -993.78249   -690.73179    -952.1141    18.196113    46.010324    20.287461    89.259633    107.98496    90.403361 
  146000    249.44611   -9706.8337   -8708.2441   -9706.8337            0    5029.8753    18.007154    46.100394    19.398123  -0.52537502   -6.6265172   0.13754947    16103.097    4226.7718    5557.8883    5304.9659   -338.85581    485.66528    233.91575    18.007154    46.103388    20.499191    89.404499    108.86004    90.652933 
  146500    254.92216   -9713.5497   -8693.0382   -9713.5497            0    5444.2743    18.076842    45.758842    19.433014  -0.27428549   -6.8035838   0.10126563    16074.511     5755.481    5265.3633    5311.9787   -693.59614   -210.15717    667.02686    18.076842    45.759664    20.589828    89.604726    109.29513    90.343436 
  147000    243.31466   -9661.5569   -8687.5128   -9661.5569            0    5239.8992    18.166133    45.849999    19.380128  -0.18843928   -6.6163609  0.030242076    16142.042    5101.4325    5199.0866    5419.1784   -523.71423    699.84631    794.81827    18.166133    45.850386     20.47844    89.839307    108.84984    90.235479 
  147500    253.34828   -9694.0895   -8679.8786   -9694.0895            0    3477.6654    18.085108    46.035139    19.439679  -0.19137953   -6.3361228   0.10962032    16184.513    3585.9245    3575.7342    3271.3374   -198.10445   -877.12865    54.745743    18.085108    46.035537    20.446505    89.619006    108.05247    90.238191 
  148000    242.35843   -9672.6912   -8702.4752   -9672.6912            0    4033.6028    18.092082    46.063004    19.495755  -0.39887149   -6.3587701   0.25985318    16247.288    5036.9995    3167.8808    3895.9281   -594.91843   -316.02213   -357.00659    18.092082    46.064731    20.508192    89.120188    108.06285    90.496127 
  148500    248.43352   -9703.5894   -8709.0534   -9703.5894            0    2459.4325    18.287809    45.891639    19.453735   -0.7019823   -6.8059874   0.19249809    16326.694    2656.7447    1730.5914    2990.9616   -212.81321   -299.82014   -651.93928    18.287809    45.897008     20.61083    89.175537    109.28177    90.876358 
  149000    247.98177   -9662.4004   -8669.6728   -9662.4004            0    2625.9988    18.122591    45.969276    19.585184  -0.19260647   -6.8447738  0.084881048    16316.072    3444.6355    2400.3023    2033.0586   -48.307072    341.06573   -499.90069    18.122591     45.96968    20.746989    89.686389    109.26371    90.240062 
  149500    246.15222   -9648.7911   -8663.3876   -9648.7911            0    3740.7504     18.18879    46.336763    19.321825  -0.16373638   -6.5788082  0.040397842    16284.621    4180.6519    2815.2575    4226.3416   -175.38712   -316.51654    626.31594     18.18879    46.337052    20.411156    89.821345    108.80294    90.202461 
  150000    249.65303   -9736.5154   -8737.0974   -9736.5154            0    3475.0725    18.070598    46.041479    19.500538   -0.4765293   -6.4000227   0.12070548    16224.391    3338.4908     3094.604    3992.1228   -209.54441   -588.63391    104.65452    18.070598    46.043945    20.524274    89.478141    108.16937     90.59299 
  150500    247.67889    -9701.427   -8709.9119    -9701.427            0     3647.486    18.119269    45.779897     19.57556  -0.29454252   -6.4855007   0.19099429    16237.893    5094.4974    3370.8485    2477.1121   -291.43871    240.30759   -282.13563    18.119269    45.780845    20.622821    89.353437    108.32953    90.368629 
  151000    249.18526   -9670.5749   -8673.0295   -9670.5749            0    4736.2064    18.285935    45.827401    19.357216 -0.013118095   -6.8045581 -0.0097328813    16221.286    5453.0834    4471.5228    4284.0131   -644.51355    -699.9487    232.95325    18.285935    45.827403     20.51838    90.021739    109.36788    90.016401 
  151500     243.7721    -9678.124   -8702.2487    -9678.124            0    4693.7209    18.007873    45.923367    19.535869  -0.12508681   -6.9585343  0.028602389    16155.815    5799.7326    4188.3425    4093.0876    51.924969    569.95868    590.71383    18.007873    45.923537    20.738182    89.868611    109.60551    90.156063 
  152000    247.20712   -9697.2587   -8707.6323   -9697.2587            0    4232.4096    18.160347    46.085033     19.33073  -0.65558131   -6.5994416   0.32166807    16178.278    3705.7426    4360.0887    4631.3974   -1011.6831    441.91565   -2087.0243    18.160347    46.089696    20.428736    88.834564    108.84729    90.815004 
  152500    251.14924     -9727.94   -8722.5323     -9727.94            0    4098.2611      18.1255    45.916517    19.459401   -0.5218903   -6.3820126   0.14950179    16195.278    4319.2614    4091.5956    3883.9264    888.71486   -514.54501     402.9413      18.1255    45.919483    20.479764    89.378831    108.15721      90.6512 
  153000    248.62666   -9676.5759   -8681.2667   -9676.5759            0    3131.2338    18.151321    45.796591    19.559952  0.091359293   -6.5072313  0.018848233    16259.574    2635.5284    3933.1133    2825.0597     194.9347    225.13092   -300.72932    18.151321    45.796682    20.613979    89.983693    108.40131    89.885701 
  153500    250.05556   -9675.1036   -8674.0742   -9675.1036            0    4142.4935    18.244629    45.884898    19.377653  -0.21077274   -6.7286435  0.074246317    16222.059    3017.4619    4137.9515    5272.0671    461.10927   -320.14086    87.466952    18.244629    45.885382    20.512766    89.706287    109.14878    90.263187 
  154000    251.84414   -9712.1446   -8703.9551   -9712.1446            0    2689.1257    18.017057    46.168551    19.552568  -0.74103845   -6.7616122   0.27194539    16264.245     2773.743    2166.2649    3127.3692   -78.266138    8.1380397   -642.64839    18.017057    46.174497    20.690487    88.946473    109.07455     90.91956 
  154500    238.82962   -9694.3203   -8738.2309   -9694.3203            0    3038.3462    18.197442    46.183192    19.399585  -0.43685266   -6.6017511   0.11573866    16303.721    2243.2742     3018.899    3852.8654    94.375103   -182.62235   -319.83991    18.197442    46.185258    20.492448    89.501819    108.79332    90.541952 
  155000    244.70844   -9697.2361   -8717.6125   -9697.2361            0    3871.9498    18.184899    45.918611    19.508429   0.14293077   -6.5082805 -0.033504376    16290.031    3565.9651    4538.7697    3511.1145   -158.37415    35.121048     418.6505    18.184899    45.918833    20.565447    90.149783    108.44938    89.821656 
  155500    245.69217    -9686.754   -8703.1923    -9686.754            0    3191.8415    18.034395    45.996488    19.593491  -0.14859574   -6.6063934   0.16744773     16253.17     3354.883    3798.5514      2422.09   -185.67671    750.95203    -421.6296    18.034395    45.996728    20.677944    89.476883    108.63208    90.185098 
  156000    238.31535   -9702.2053   -8748.1747   -9702.2053            0    3673.2726    18.232525    46.063722    19.292106   -0.8015113   -6.7185259   0.17311262    16202.628    3158.4579    4165.7554    3695.6045    528.01085    604.36187    852.89386    18.232525    46.070695    20.429241     89.18672    109.20009    90.996849 
  156500    247.18647   -9703.4749   -8713.9312   -9703.4749            0    4594.0161    17.982403    45.792125    19.646059   -0.2085073   -6.4910323   0.14902692    16177.595    6098.4348    4731.6034      2952.01     283.6668   -851.08535    1184.1876    17.982403    45.792599    20.691142    89.505486      108.283    90.260886 
  157000     248.0842   -9714.3882   -8721.2506   -9714.3882            0    4579.6314    18.249277    45.888638    19.345187  -0.07461983    -6.482139  0.017909252    16200.326    5189.8016    4055.5173    4493.5753      20.6637   -875.90705    16.157169    18.249277    45.888699    20.402321    89.920104    108.52484    90.093169 
  157500    242.51842   -9708.9573   -8738.1008   -9708.9573            0    3906.8627    18.126561    45.890592    19.438318  -0.50012753   -6.5966314  0.074430385    16169.544    4023.7219    3678.9083    4017.9578    1145.6442   -606.31429   -514.43354    18.126561    45.893317    20.527282    89.591606    108.74514    90.624399 
  158000    252.29811   -9723.7008    -8713.694   -9723.7008            0    3305.6165    18.133507    45.876403    19.541199  -0.23747372    -6.771412    0.2750623    16256.325    3676.1276    3780.6631    2460.0589   -76.678777    115.45647   -486.33052    18.133507    45.877017    20.682992    89.140906    109.11046    90.296582 
  158500    254.18134   -9729.1177   -8711.5718   -9729.1177            0    3642.6596    18.238652     46.00506    19.392788  -0.32992894   -6.7343469 -0.027119528    16271.912    3409.4741    3673.3909    3845.1138    -1051.174   -151.25032   -186.24546    18.238652    46.006243    20.528818    89.940898    109.15007    90.410894 
  159000    247.52769   -9689.7548   -8698.8451   -9689.7548            0    3385.1073    18.029334    46.163977    19.539552  -0.29902191   -6.5223544 -0.00053473695    16262.882    3219.1274    4049.5917    2886.6027   -81.082857    600.74321    165.44964    18.029334    46.164945    20.599398     89.88398    108.45915    90.371122 
  159500    255.00113   -9673.2489   -8652.4213   -9673.2489            0    2913.1234    18.127294    46.216725    19.424521 -0.060636254   -6.4929268   0.17063198    16273.556    2929.1622    2568.9774    3241.2307   -1232.4467    639.43236   -1860.2792    18.127294    46.216765     20.48168    89.498835    108.48228    90.075172 
  160000    245.99617   -9688.2015   -8703.4228   -9688.2015            0    3613.3737    18.176439    45.730868    19.548067  -0.56896853     -6.61183 0.00045270512    16248.829    4537.7465    3454.5372    2847.8375    1722.5685   -204.14144    794.43695    18.176439    45.734407     20.63597    89.770359    108.68731    90.712819 
  160500     255.1232   -9699.9538   -8678.6375   -9699.9538            0    3493.9286    18.180711    45.539727    19.592445 -0.090521351   -6.8178108   0.16497425     16221.46     2569.599    3528.4309     4383.756   -1250.2855    303.95337   -1352.8736    18.180711    45.539817     20.74545    89.506932    109.18633    90.113889 
  161000    245.95508   -9713.6986   -8729.0844   -9713.6986            0     3412.712    18.212526    46.193542    19.263845 -0.0091232313   -6.7624756   0.20798911    16206.694    4459.7131    2162.9403    3615.4825   -193.83806    241.21977    268.91659    18.212526    46.193543    20.417396    89.412578    109.34232    90.011316 
  161500    253.60877   -9703.9547    -8688.701   -9703.9547            0    3937.4403    18.049945    46.121247    19.456437  -0.57393172   -6.5309613 -0.022382736    16197.211    2754.0242    4188.5442    4869.7525    928.17461    636.93048    785.66581    18.049945    46.124818    20.523326    89.835611     108.5554    90.712951 
  162000    252.92832    -9702.722   -8690.1923    -9702.722            0    3330.6429    18.207821    45.813019    19.501927 -0.076739688   -6.5055104    0.1509079    16267.635    2186.8218    4187.6959    3617.4109   -93.545519    151.09083   -1139.4265    18.207821    45.813084     20.55893    89.549061     108.4473    90.095974 
  162500    250.40623   -9695.3954   -8692.9622   -9695.3954            0     3212.248     18.25491    45.850892     19.43133    -0.311866   -6.6016327 -0.041914516    16264.099    2766.9014    3713.2833    3156.5594   -215.89464    -420.2301    646.53629     18.25491    45.851953    20.522181    89.991658    108.76472    90.389705 
  163000    254.68945   -9701.6319    -8682.052   -9701.6319            0    2913.0226     18.03388    46.312423    19.502335  -0.58121726   -6.6895279  0.020094693    16288.208    4401.5468    2658.2487    1679.2723    377.42804     232.8177    850.81468     18.03388     46.31607    20.617742    89.710878    108.93256     90.71902 
  163500    243.78277   -9676.4651   -8700.5471   -9676.4651            0    3578.1838    18.163076    46.094204    19.439467   0.10412495   -6.7754338   0.36197265    16274.966    4196.7315    2923.2986    3614.5213   -540.27455    202.90142   -1545.4171    18.163076    46.094321     20.58957    89.035266    109.21241    89.870571 
  164000    245.58812   -9680.2773   -8697.1321   -9680.2773            0    3961.5095    18.210707    45.693534    19.581196  -0.37968738   -6.6133777 -0.080131019    16293.739    3314.7251    4791.5005    3778.3028    843.40496    585.87749    1030.6302    18.210707    45.695111    20.668005    90.069795     108.6618    90.476085 
  164500    254.41029   -9717.6704   -8699.2081   -9717.6704            0    3695.7545    18.126067    45.964815    19.438697  -0.21560837   -6.5039307   0.17761067     16195.57    3722.6019    3722.4456     3642.216   -499.83495    386.95164   -553.88911    18.126067    45.965321    20.498673    89.418284    108.49884    90.268757 
  165000    251.31641   -9689.2635   -8683.1866   -9689.2635            0    4600.3856    18.022052     46.14279    19.443056  -0.24661752   -6.5015915   0.17371582    16168.607    5042.1914    4480.1428    4278.8226   -1054.6285   -288.62675    399.48001    18.022052    46.143449    20.502031    89.417415    108.48881    90.306224 
  165500    258.64633   -9710.0643   -8674.6441   -9710.0643            0    5170.2909    18.132542    45.677914     19.42807    -0.433917   -6.5644863 -0.045684467    16091.429     5684.869    5550.4405     4275.563    734.99337   -60.247097    816.02011    18.132542    45.679975    20.507181    89.953414    108.66938    90.544264 
  166000    250.59571   -9637.3443   -8634.1526   -9637.3443            0     5959.991    18.241919    45.475543    19.427312   0.19912487   -6.6148442   0.14853947    16116.144    5757.3896    6799.8781    5322.7052   -842.26441    641.52053   -826.72594    18.241919    45.475979    20.523126    89.666176    108.80279    89.749119 
  166500    240.30855   -9672.2597   -8710.2498   -9672.2597            0    5946.2581    18.018725    45.894936    19.415776  -0.45781379   -6.6032948  0.042109812    16056.229    6418.0651    5559.7348    5860.9746    773.08343    297.58464     885.0457    18.018725    45.897219    20.507989    89.698338     108.7831    90.571521 
  167000    250.00662   -9727.3915    -8726.558   -9727.3915            0    4241.6423    18.098433     45.96755     19.37281  -0.43568049    -6.545491   0.13409831    16117.027    3955.5298    4424.1619    4345.2353   0.12237337    5.3699558    -875.7755    18.098433    45.969615    20.449137    89.450468    108.66815    90.543033 
  167500    246.47348   -9687.8251   -8701.1356   -9687.8251            0    3883.0025    18.165567     45.81678    19.454147  0.067579406   -6.5497447   0.17501727    16191.449    3451.2193    3801.1074    4396.6809   -348.23213    221.78995   -643.00744    18.165567    45.816829    20.527874    89.538466    108.60644    89.915489 
  168000    250.32733   -9680.7923    -8678.675   -9680.7923            0    5023.6202     18.01858    45.897665    19.568828  -0.45481494   -6.5646504  -0.16851645    16183.631    6209.3382    4802.1837    4059.3386    243.82849    528.21047    1461.2812     18.01858    45.899919     20.64127    90.287184    108.54414    90.567744 
  168500    251.60525   -9716.3656   -8709.1325   -9716.3656            0    4129.4075     18.15963    46.010505    19.314064  -0.28992356   -6.6660038   0.13996408    16137.552     3358.594    3719.4357    5310.1929    292.47913   -464.60516    266.65811     18.15963    46.011418     20.43253    89.489738      109.041     90.36103 
  169000    252.81209    -9678.809   -8666.7446    -9678.809            0    2961.2399    18.128366    45.829174    19.568224  -0.29670895   -6.6388521   0.20855242    16257.438    2151.7217    3641.9249     3090.073    711.83786    353.44295    467.93205    18.128366    45.830135    20.664783    89.302587    108.73939    90.370941 
  169500    251.76249   -9728.4547   -8720.5921   -9728.4547            0    3590.1907    18.241413    45.760902    19.426158  -0.53488736   -6.5501046 -0.013225897    16215.859    2959.3335    4157.5996    3653.6391    660.63811   -465.51922    135.20248    18.241413    45.764028    20.500723    89.822998    108.63305    90.669685 
  170000    250.04757   -9646.0658   -8645.0684   -9646.0658            0    3825.0352    18.158768    46.207678    19.393972   0.23522597   -6.4312349   0.20377575    16272.988    4119.7452    3813.4625    3541.8979   -726.97481   -378.61206   -318.38449    18.158768    46.208277    20.433513    89.520412    108.34509    89.708331 
  170500     240.9474   -9731.1395   -8766.5722   -9731.1395            0    4040.8311    18.009443    46.069824    19.532745   -0.3343902   -6.5539162  0.074132183     16206.16    5393.9833    3919.9471     2808.563    98.478096   -464.75917   -612.40199    18.009443    46.071037    20.603093     89.66156    108.54827    90.415865 
  171000    250.56623   -9703.1624   -8700.0886   -9703.1624            0    2787.1647    18.288168    45.947123    19.356629  -0.51217973   -6.7502585   0.10468447    16265.156    2456.5125    2781.0402    3123.9413    809.62046    65.889448   -180.65751    18.288168    45.949978    20.500147    89.497137    109.22499    90.638659 
  171500    241.56551   -9697.0157   -8729.9739   -9697.0157            0    3198.5155    18.141337    45.920168     19.52376 0.0090667391    -6.651321   0.20820213    16264.332    3027.1057     4041.187    2527.2538   -843.39914    307.18272   -166.94565    18.141337    45.920169    20.626697    89.425305    108.81187    89.988687 
  172000    249.44167   -9715.0367   -8716.4649   -9715.0367            0    3700.5616    18.186636    46.040658     19.34931  -0.45403232   -6.5374193  -0.03281355    16201.655    3331.7867    3548.4425    4221.4557   -88.978302   -674.92783    1287.4894    18.186636    46.042897    20.423876      89.9112    108.66819    90.565007 
  172500    258.99961   -9689.4137   -8652.5793   -9689.4137            0    5117.8905    18.063382    45.851825    19.484431  -0.21268705   -6.5117623   0.25964419    16137.766    5860.2712    5184.2597    4309.1406   -374.70447    615.79144   -901.53981    18.063382    45.852318    20.545401    89.191667    108.47827    90.265769 
  173000    243.27231   -9661.8486   -8687.9741   -9661.8486            0    4005.2278    18.179993    45.888021    19.452202 -0.070168922   -6.6611088   0.17369528    16227.881    2583.0453    4367.9886    5064.6495   -157.49972    648.39378   -608.21354    18.179993    45.888075    20.561826    89.487607    108.90228    90.087613 
  173500    247.61277    -9661.826   -8670.5756    -9661.826            0    2944.9141    18.216867    46.031209    19.465251   -0.3441162   -6.7293167  -0.12485004    16322.477     2226.999    3424.0946    3183.6488    141.82219   -250.86842    36.874202    18.216867    46.032496    20.596002    90.207367    109.07038    90.428319 
  174000     235.1946   -9658.6237   -8717.0861   -9658.6237            0    2762.8736    18.088653    46.116891    19.551832  0.026827342   -6.6383736   0.22697903    16309.991    3180.8372    3326.7531    1781.0305   -21.233848    663.43038   -983.32494    18.088653    46.116899    20.649302    89.380903    108.75256     89.96667 
  174500    251.92338   -9655.7884   -8647.2817   -9655.7884            0    2763.1134    18.228268    46.068823    19.416845  -0.45628421   -6.5384305   0.18026602     16305.39    1311.5485    2739.1785    4238.6133      167.695   -218.59381    466.94365    18.228268    46.071082    20.488959    89.314823     108.6097    90.567462 
  175000    249.15871   -9694.0251    -8696.586   -9694.0251            0    5158.4663    18.162463    45.687305    19.526464  -0.29184875   -6.5314047  0.035174412    16202.942    5316.7054    5689.2728    4469.4209   -143.82859   -219.91969   -970.91931    18.162463    45.688238    20.589883    89.786022    108.49454    90.365998 
  175500    244.30292   -9737.7496   -8759.7493   -9737.7496            0    3867.5263    18.060171    46.117058    19.438068   0.37244003   -6.7627461  0.036783516    16189.617    3145.3415    3821.8099    4635.4276   -679.48975    1376.8103    258.04808    18.060171    46.118562    20.580928    90.049642    109.18339    89.537291 
  176000    244.43298   -9733.0716   -8754.5507   -9733.0716            0     3872.599    18.174298    46.252701     19.28606  -0.42511528   -6.8703409 -0.019892065    16212.062    3325.8486    3569.0142    4722.9343    616.89217   -278.20421    378.44654    18.174298    46.254655    20.473253    89.878955    109.60759    90.526599 
  176500    255.09644   -9693.2126   -8672.0034   -9693.2126            0    4338.8902    18.061948    45.889536    19.576149  -0.64420003   -6.5838786   0.17392263    16225.778    5207.4832    4195.1105     3614.077    915.89743   -86.387505   -296.32498    18.061948    45.894058    20.654378    89.261197    108.58821    90.804269 
  177000    253.28653   -9691.9573   -8677.9936   -9691.9573            0     3496.313    18.221416    45.839608    19.410961  -0.17431379   -6.3866343  0.072365196    16213.249    1855.8329    3991.6888    4641.4172   -870.84854   -173.30979    255.79511    18.221416    45.839939    20.434768    89.729006    108.21223    90.217877 
  177500    245.30759   -9677.6489   -8695.6267   -9677.6489            0    2860.5484    18.127274    46.021335    19.497275  -0.15712474   -6.4911995 -0.017715275    16265.433    3865.0339    2447.7874     2268.824   -822.18734   -912.58776   -968.77058    18.127274    46.021603    20.549445    89.987602    108.41407    90.195617 
  178000    247.59268   -9672.9189    -8681.749   -9672.9189            0    3225.5973     18.20671    45.776214    19.523382  -0.18711909   -6.9322662   0.14214322    16271.455    3080.9134    4105.1072    2490.7715    454.70805    354.89388    828.24834     18.20671    45.776596    20.718083    89.528536     109.5482    90.234206 
  178500    246.31951   -9727.3968   -8741.3237   -9727.3968            0    4220.6438    18.197174    45.842976    19.407504  -0.65080456   -7.1297532   0.19812706    16189.984    4177.1973    4490.4189    3994.3154   -65.553263    1113.4434   -420.47893    18.197174    45.847595     20.67665    89.170562     110.1709    90.813338 
  179000    242.22931   -9665.1143   -8695.4152   -9665.1143            0    3455.4275    17.991377    46.299596    19.543235  -0.53144567   -6.4771856 -0.031292245    16279.388    3298.3115    3598.9717    3468.9994    1273.6724    242.25001    1368.5043    17.991377    46.302646    20.588661    89.880189    108.33665    90.657635 
  179500    253.96344   -9735.5471   -8718.8736   -9735.5471            0     3288.957     18.12098    46.147784    19.423369  0.045788602   -6.2919202  0.070281995    16242.658    3333.4802    2944.9425    3588.4482   -763.68402   -661.09721   -579.89957     18.12098    46.147806    20.417161     89.82029    107.94887     89.94315 
  180000    242.38021    -9667.584   -8697.2808    -9667.584            0    3616.9365    18.137268     45.82154    19.544154  -0.26892318   -6.5338721   0.11324472    16242.708    2679.1927    3814.6894    4356.9274    126.05656    203.57521   -978.05515    18.137268     45.82233    20.607723    89.578533    108.48518    90.336261 
  180500    254.74513   -9686.2038    -8666.401   -9686.2038            0    3795.6317    18.151893    45.850951    19.518723  -0.53780024   -6.8526321   0.22639126    16245.074    3746.8672    4353.5071    3286.5207    921.45835    353.32608   -369.43073    18.151893    45.854105    20.687928    89.150425    109.34395    90.672009 
  181000    246.22784   -9701.4807   -8715.7745   -9701.4807            0    4088.7517    18.204346    46.318881     19.23754   -0.3563654   -6.8364795   0.20439515    16221.188    3296.6845    4028.9973    4940.5733   -411.38378    264.33809    320.64971    18.204346    46.320252    20.417203    89.278815    109.56276     90.44081 
  181500    249.24711   -9682.9507   -8685.1577   -9682.9507            0    4038.5825    17.987767    46.093769    19.590716 -0.062578604   -6.3928773  -0.13331795    16243.132    4337.4261    3631.0318    4147.2896   -208.95543   -167.50806    336.70869    17.987767    46.093812    20.607834    90.346534    108.07224    90.077787 
  182000    254.16825   -9688.0896   -8670.5962   -9688.0896            0     3252.281    18.244165    45.892225    19.494721  0.066825137   -6.3621342   0.10624101    16322.254    3326.5258    3027.6139    3402.7034    247.21229   -696.34592    -734.6128    18.244165    45.892274    20.506882    89.729048    108.07393     89.91657 
  182500    249.57319   -9681.6497   -8682.5513   -9681.6497            0    4198.4373    18.061752    45.969935    19.476828  -0.41916519   -6.4738157    0.1693572    16171.563    4946.5176    3486.5841    4162.2103    745.73037   -577.88493    814.80952    18.061752    45.971846    20.525248    89.362476    108.38541    90.522423 
  183000    250.43081   -9707.3815   -8704.8499   -9707.3815            0    4514.3225    18.057146    46.051868    19.432541  -0.41452765   -6.6589666   0.14202519    16159.427    5397.6251    4540.7772    3604.5652   -154.56346    405.74964   -504.54125    18.057146    46.053733     20.54229    89.436701    108.91463    90.515724 
  183500    251.00254   -9696.4632   -8691.6429   -9696.4632            0    4401.1773    18.272147    45.566777    19.441566    0.2957231   -6.8402449   0.06427479    16187.104    4483.7581    4439.3041    4280.4696   -712.52126    374.91528   -39.665114    18.272147    45.567737     20.60989    89.944728    109.38362    89.628162 
  184000     241.6111   -9671.7095   -8704.4852   -9671.7095            0    4613.7573    18.030218    46.018757    19.496172   -0.2808035   -6.4581814  0.021528585    16176.524    5062.6244    4354.0849    4424.5626   -32.234307     -137.143    715.40254    18.030218    46.019614    20.537996    89.830007    108.32764    90.349611 
  184500    248.59191   -9651.2299   -8656.0599   -9651.2299            0    5050.8095    17.993808     46.29793    19.353781  -0.68961724   -6.2662862   0.16662826    16123.172    4522.1851     5054.791    5575.4525    789.23425   -77.989745   -5.0205944    17.993808    46.303066    20.343621    89.267893    107.94008    90.853369 
  185000    255.94321   -9686.3764   -8661.7774   -9686.3764            0     5544.148    18.145748    45.570171    19.498992  -0.21655817   -6.5527399   0.14994144    16123.811    5548.2173    5563.8121    5520.4146   -391.88177    95.831696   -873.78089    18.145748    45.570686    20.571135    89.495642    108.57468    90.272278 
  185500    251.08173   -9689.6135   -8684.4761   -9689.6135            0    4652.1239    18.221594    45.422671     19.52525  -0.14597047   -6.8776794 -0.062896282    16160.531    4472.6091    5499.5582    3984.2043   -241.81871    533.52299   -172.81757    18.221594    45.422906    20.701252    90.112907    109.40448    90.184125 
  186000     251.5167   -9632.3457    -8625.467   -9632.3457            0    4170.9459    18.101014    46.226544    19.361245  -0.36447952   -6.7842657   0.16422398    16200.469     3523.009    4201.6525    4788.1762   -171.47957    435.97688   -403.25902    18.101014    46.227981    20.516116    89.391989    109.31004    90.451747 
  186500    242.41121   -9693.0649   -8722.6375   -9693.0649            0    5221.5583    18.051441    46.124278    19.407359  -0.50753033   -6.4896522   0.11634891    16158.755    4645.6223    5131.5359    5887.5167    479.15926   -220.50397     481.4894    18.051441     46.12707    20.463985    89.474333    108.48918    90.630431 
  187000     244.7522   -9714.3519   -8734.5531   -9714.3519            0    3106.6096    18.178983     45.76694    19.567065  -0.15931189   -6.2962971  0.022408426    16279.728    3252.4493    2947.1002    3120.2793   -517.22864   -1422.2638    863.43688    18.178983    45.767218    20.555143    89.876447    107.83714    90.199442 
  187500    250.67418   -9699.9654   -8696.4595   -9699.9654            0    2277.2809    18.159919    45.891952    19.552785  -0.13603111    -6.467264 -0.041784792    16295.177    2535.6138    2634.5222    1661.7068    190.21708   -438.33782    1227.1937    18.159919    45.892154    20.594627    90.062916    108.30207    90.169833 
  188000    253.80323   -9693.2183   -8677.1862   -9693.2183            0    4377.5377    18.046543    46.369827    19.317714  -0.21751891   -6.8386789   0.11423791    16165.354    4221.3671    3503.3361    5407.9097    848.07408    290.18332    640.53653    18.046543    46.370338    20.492795    89.590911     109.4942     90.26877 
  188500     254.1156   -9660.2065   -8642.9239   -9660.2065            0    5233.5366    18.169893    45.940581     19.34644  -0.21370163   -6.8053348   0.13231404     16149.16    4997.3221    4792.0038    5911.2839   -912.70472    90.509975   -397.50788    18.169893    45.941078    20.508897    89.541915    109.37949    90.266521 
  189000    248.14076   -9735.2618   -8741.8978   -9735.2618            0    4734.2945    18.183004    45.429179    19.537242  -0.22287315    -6.403611   0.08404706    16138.522    4944.9363    5541.8276    3716.1198     443.4994    98.567954   -298.76845    18.183004    45.429725    20.560085    89.678236    108.14714    90.281088 
  189500    251.99325   -9690.7446   -8681.9582   -9690.7446            0    4106.2864    18.120582    45.974788    19.467646  -0.16957715   -6.3457876    0.1161929    16218.299    5139.6253    2881.4285    4297.8054   -622.21328   -736.99435   -163.03522    18.120582    45.975101    20.476126    89.609377     108.0539    90.211333 
  190000    257.22746   -9667.2209   -8637.4808   -9667.2209            0     3575.917    18.036183    46.546342    19.360954  -0.48442685    -6.781776  0.081691085    16253.876    4323.5849    3479.4018    2924.7643    129.84726    524.93762   -337.07489    18.036183    46.548863    20.514524    89.574734    109.30423    90.596279 
  190500    251.76213   -9663.6261   -8655.7649   -9663.6261            0    2878.4356     18.26386    45.849721    19.506313  -0.44346411   -7.1345006   0.10933941    16334.448    3012.3364    2561.6088    3061.3616   -76.353186     295.0533    422.36436     18.26386    45.851865    20.770395    89.508046    110.08988    90.554155 
  191000    264.22876   -9713.8932   -8656.1253   -9713.8932            0    3594.3083    18.346701    45.331441    19.521226  -0.16709216   -6.8340301   0.17314498     16235.46    2087.6988    4980.2258    3715.0003   -992.96596    784.63549   -1589.5406    18.346701    45.331749    20.683622    89.450586    109.29353    90.211192 
  191500    238.67945   -9621.8075   -8666.3193   -9621.8075            0     3542.546    18.032712    46.053106    19.521476  -0.29475237   -6.4560226  0.034694275    16211.851    2852.0567    4036.2791    3739.3022    697.61347    329.99473    1116.8908    18.032712    46.054049    20.561358    89.788184    108.29974    90.366704 
  192000    243.12597   -9645.1964   -8671.9078   -9645.1964            0    3940.6074     18.13606    46.168741    19.351308  -0.16337621   -6.4660207   0.16006547    16203.219    3645.4623    3686.7819    4489.5779    -314.7151    91.939661   -53.456441     18.13606     46.16903    20.403631    89.486261    108.47588     90.20275 
  192500    249.98805    -9639.431   -8638.6719    -9639.431            0    2565.3658    18.253233    45.851442    19.513386  -0.29926102    -6.803012   0.04821497    16331.476    1863.1804    3071.1942     2761.723    563.80723    737.79778    1376.7929    18.253233    45.852418    20.665322     89.74322    109.22019     90.37395 
  193000    243.32775   -9668.4052   -8694.3088   -9668.4052            0    4986.7474    18.184078    45.580639    19.562715  -0.21524432   -6.9128259   0.09392717    16214.397    4505.1333    6023.8892    4431.2197   -134.33121    992.55367   -509.80108    18.184078    45.581147    20.748393     89.65048    109.46154    90.270564 
  193500    255.01639   -9688.2792   -8667.3905   -9688.2792            0    4226.5538    18.154389    46.342119    19.226328  -0.26647763    -6.520276    0.1024652    16175.357    4397.2463    3426.1051    4856.3099    184.83215    319.67561    75.253112    18.154389    46.342885    20.302123    89.605019    108.73323     90.32946 
  194000     243.1054   -9665.1972   -8691.9909   -9665.1972            0    4472.3291    17.984172    46.080735    19.559457  -0.18773949   -6.3159144  0.091730843    16209.388    4338.4885    4270.7331    4807.7656    272.50468    -268.7195   -484.49926    17.984172    46.081117    20.554112    89.672567    107.89552     90.23343 
  194500     246.2772   -9666.4108    -8680.507   -9666.4108            0     3727.149    18.238496    45.643305    19.483227  -0.22471316    -6.573687  0.098925882    16219.109    3643.4588    3120.2839    4417.7043   -373.13334   -475.31921   -872.82189    18.238496    45.643858     20.56257    89.634175    108.64429    90.282079 
  195000    253.50706   -9698.4076    -8683.561   -9698.4076            0    4204.1854    18.153314    45.697681    19.490252  -0.34991304   -6.8269991  0.036209309    16168.418    3903.3849    4574.0855    4135.0858   -273.16044    112.04854    1359.6782    18.153314    45.699021    20.651371    89.754512    109.30419    90.438713 
  195500    251.82282   -9651.0627   -8642.9585   -9651.0627            0    4699.1518    18.028863    46.360455    19.364441  -0.14223711   -6.7949064   0.22466509    16185.309    4237.6973     4829.145    5030.6132   -800.68724     554.0917   -26.384028    18.028863    46.360673    20.523226    89.314577    109.33457    90.175787 
  196000    251.64273    -9676.587   -8669.2038    -9676.587            0    4615.5482    18.156203    46.252354    19.248736  0.050408886   -6.2578987 -0.023850886    16164.457    3397.8082    5341.7232    5107.1131   -293.38348    244.58442    277.87215    18.156203    46.252381    20.240448    90.086823    108.00969    89.937555 
  196500    254.64827   -9626.4637   -8607.0486   -9626.4637            0    5773.8173    18.059599    45.722219    19.565811 -0.078577358   -6.1304018 -0.012827653    16155.978    5320.4375    6488.4933    5512.5213   -538.00208   -819.76357    467.55402    18.059599    45.722287     20.50373    90.006405    107.39693    90.098467 
  197000    247.11738   -9673.0799   -8683.8127   -9673.0799            0    5184.0711    18.138486    45.843183    19.420754  -0.32959325    -6.475983   0.21154014     16148.86    6077.4584    4282.2459    5192.5089   -10.775716   -266.02103    1064.5365    18.138486    45.844367    20.473123    89.277685     108.4403    90.411926 
  197500    255.76388   -9695.7645   -8671.8834   -9695.7645            0    4326.7034    18.105677    45.987418    19.437886  -0.43420156   -6.7836077   0.14257259    16184.631    3381.8887    5202.9982    4395.2234    477.26277    933.25079   -30.387828    18.105677    45.989467    20.588081    89.424996    109.23794    90.540956 
  198000    253.38581   -9681.8679   -8667.5067   -9681.8679            0    3877.7317    18.170557    46.091879    19.402573 -0.0093721473   -6.8908086  0.060664841    16249.948    4324.0321    3362.0674    3947.0956   -384.76904    641.71474   -225.36169    18.170557     46.09188    20.589968    89.827288    109.55237     90.01165 
  198500    245.40515   -9678.1333   -8695.7206   -9678.1333            0     4271.351     18.18878    45.927612    19.407654  0.029528123   -6.3786364  0.004426248    16212.518     4591.363    4296.1232    3926.5668   -628.62153   -797.09083    1120.8267     18.18878    45.927621       20.429    89.999088    108.19394    89.963163 
  199000    249.35516   -9661.3793   -8663.1537   -9661.3793            0    3683.7297    18.037663    46.091141    19.584789  -0.38516214   -6.0854818   0.14677691    16282.332    5103.0843    3197.3401    2750.7646    1106.7297   -526.39085    472.87001    18.037663     46.09275    20.508988    89.447892    107.26087    90.478783 
  199500    253.10116    -9640.781   -8627.5593    -9640.781            0    3405.1294    18.210161    46.118119    19.389331  -0.21537331   -6.4984929  0.090918162    16283.516    3187.5812     2901.215    4126.5919    345.14911    110.50617   -700.80323    18.210161    46.118622    20.449568    89.660237    108.52881    90.267571 
  200000    253.59003   -9686.1492   -8670.9705   -9686.1492            0     3831.723    18.153104    45.886903    19.515902  -0.17894361   -6.8803753  0.032630613    16256.545     4407.914    4294.9187    2792.3364   -388.15908    600.78687    381.92831    18.153104    45.887251    20.693261    89.835362    109.42019    90.223433 
  200500    248.84805   -9739.5647   -8743.3693   -9739.5647            0    4065.0502    18.149148    45.982796    19.412518  -0.40589592   -6.6572541   0.12243939     16200.69    3523.2262    4587.2606    4084.6639   -284.24795    791.61238    269.78768    18.149148    45.984588    20.522668    89.494123    108.92834    90.505744 
  201000    247.36306   -9673.1715   -8682.9208   -9673.1715            0    3974.4782    18.025506    46.082772    19.523421  -0.40827331   -6.0713293   0.21070925    16217.428    4319.5361    4022.4613    3581.4373   -418.54456    131.68862   -753.73975    18.025506     46.08458    20.446745    89.258832    107.27353    90.507602 
  201500    257.53172   -9690.2873   -8659.3292   -9690.2873            0    5324.5692    18.204594    45.595411    19.438548  -0.44366645    -6.173948  0.016144144    16134.888    4431.7515    5800.3416    5741.6146    570.04899   -580.75766   -348.09748    18.204594     45.59757    20.395466     89.78589    107.62055    90.557499 
  202000    250.31299   -9671.0511   -8668.9911   -9671.0511            0    4584.2519    18.232757    45.656209    19.466977   -0.1257895   -6.8596831 -0.0065412634    16205.062    5145.9478    4669.6439     3937.164   -569.53176    599.10657    36.296402    18.232757    45.656382    20.640215    89.965695     109.4112    90.157858 
  202500    252.24267   -9695.9311   -8686.1462   -9695.9311            0    4273.5322    18.157182     45.92861    19.445717  -0.11306799   -6.9054687   0.12510589    16216.447    4056.9943    4531.0741    4232.5281    -1290.078    270.23096   -725.66495    18.157182    45.928749     20.63582    89.605438    109.55035    90.141052 
  203000    243.31475   -9747.1994    -8773.155   -9747.1994            0    3976.9652    18.094776     46.00937    19.450791  -0.53108965   -6.4948584  0.028924679    16193.353    3345.7649     3714.696    4870.4347    208.25997   -1010.6936    311.07546    18.094776    46.012435    20.506518    89.709732    108.46478     90.66134 
  203500    248.74636   -9679.6603   -8683.8719   -9679.6603            0    4738.0081    18.114612    45.882312    19.483671  -0.16650236   -6.3519576   0.25136819    16193.663    4867.4336    4422.2227    4924.3679    151.29996   -388.89025   -268.14416    18.114612    45.882614    20.494486    89.232798    108.05531     90.20792 
  204000    240.92178   -9656.4128   -8691.9481   -9656.4128            0    4698.1247    18.171605    45.759018      19.4761  -0.35026546   -6.6652222  0.058858536    16194.665     3831.426    5487.1272    4775.8209   -393.76952    634.24094   -271.38858    18.171605    45.760359    20.585119    89.694178    108.89219    90.438566 
  204500    252.00201   -9719.2158   -8710.3943   -9719.2158            0    4533.7223    18.084183     46.09277    19.374031  -0.28944256   -6.9531884 -0.084691486    16149.225    4184.1874    4614.9121    4802.0673    387.94918   -59.471221    809.28093    18.084183    46.093679    20.584146      90.1142    109.74249    90.359788 
  205000    252.75032    -9727.469   -8715.6519    -9727.469            0    4149.3573    18.061592    46.245309    19.369031 -0.010380522   -6.6984993    0.3312563    16178.253    3980.0807    4335.3628    4132.6282    -967.8095    508.60108   -2208.1001    18.061592     46.24531    20.497292      89.0698    109.07462    90.012861 
  205500    237.25659    -9605.993   -8656.2008    -9605.993            0    4189.0465    18.169125    46.021219    19.503116  -0.64950115   -6.4650985   0.11318595    16307.829    4323.4026    4130.6364    4113.1005   -106.54867   -168.95719    182.25286    18.169125    46.025802    20.547064    89.429996    108.33958    90.808566 
  206000    244.26435   -9715.5119   -8737.6661   -9715.5119            0    3262.5834    18.111661    45.958337    19.462862  -0.15420506     -6.52529  0.054220132    16200.533    2893.2237    3622.4214    3272.1052   -659.42403   -353.74156   -85.033575    18.111661    45.958596    20.527672    89.787554    108.53463    90.192245 
  206500     251.9054   -9684.1473   -8675.7126   -9684.1473            0    2654.2515    18.224752    46.003293    19.436918 -0.022570508    -6.855157  0.057906512    16295.886    2107.4695    3336.7504    2518.5345    209.65457    333.63436    903.94185    18.224752    46.003299    20.610442    89.829673    109.42703    90.028111 
  207000    254.20686   -9687.4673   -8669.8193   -9687.4673            0    2676.5866    18.158707    45.828138    19.562083  -0.66792311   -6.8231893   0.11468026    16279.169    3320.2356    3117.6786    1591.8457    653.10902    720.22848    362.30908    18.158707    45.833005    20.718208    89.407894     109.2283    90.834999 
  207500    244.00498   -9705.5333   -8728.7258   -9705.5333            0    4981.6077    18.121684    45.848754    19.419835  -0.38020284   -6.4185871    0.3460398    16135.099    2717.4507    6115.7338    6111.6386   -722.68765    336.15165   -1038.2198    18.121684     45.85033    20.456002    88.881652    108.28689    90.475117 
  208000    246.06533   -9681.5437   -8696.4881   -9681.5437            0    5705.0363    18.093639    45.985153    19.359936  -0.17989201   -6.2792005 -0.064072325    16108.217    5395.4115     5396.248    6323.4493    162.33088   -288.82659    195.46547    18.093639    45.985505    20.352876     90.11122    107.96986    90.224138 
  208500     242.1725   -9706.5697    -8737.098   -9706.5697            0    4720.2289    18.070764    45.890818    19.463982 0.0048038523   -6.5962087 -0.0041412926    16141.132    4461.7734    4410.9592     5287.954    1514.7778   -53.893946    1132.4604    18.070764    45.890818    20.551316    90.013471    108.72116    89.994002 
  209000     253.1437   -9685.0871   -8671.6952   -9685.0871            0    4095.1221    18.214233    45.734223    19.452207  -0.49401193   -6.9260387   0.21808277    16203.957    2868.6105    4932.7643    4483.9914    -361.9457    212.08291    -1110.325    18.214233    45.736891    20.649599     89.18733    109.59734    90.618873 
  209500    243.32111   -9676.9608    -8702.891   -9676.9608            0    4216.1446    18.039217    46.256106    19.442742  -0.86633484   -6.6679395   0.09092234     16223.49    5648.2081    3619.4018    3380.8239    667.52565    99.984211    345.89994    18.039217    46.264218     20.55456    89.398534    108.92935    91.072972 
  210000    246.97668   -9674.4995   -8685.7955   -9674.4995            0    2880.2122    18.079909    46.230246    19.428876   0.19710118   -6.3244814 -0.069843357    16239.406    2816.4321    3195.5324     2628.672   -365.98569   -543.00324   -349.43551    18.079909    46.230666    20.432454    90.271462    108.03098    89.755723 
  210500    260.81648   -9684.1125   -8640.0047   -9684.1125            0    2577.0608    18.183789    45.866681    19.535574   0.14208708   -6.3468401 -0.0098098644    16293.256    3119.7838    2463.8845    2147.5142   -324.12245   -877.09555    597.92233    18.183789    45.866901    20.540719    90.082206    107.99827    89.822508 
  211000    249.06731    -9701.037   -8703.9638    -9701.037            0    3684.4901    18.126272     45.90175    19.505422  -0.47210658   -6.6583518   0.11491344     16229.05    2646.7235     4480.459    3926.2877    511.85843    559.82344   -12.037164    18.126272    45.904178     20.61088    89.490202     108.8475    90.589275 
  211500    254.15909   -9711.5773   -8694.1205   -9711.5773            0    3742.5643    18.104405    46.219185    19.345736  -0.43350765   -6.7704532   0.23045449    16187.948    3492.6737    3410.2721    4324.7471    463.19167    386.11179   -756.26328    18.104405    46.221218    20.497552    89.178324    109.28732    90.537384 
  212000    243.99449    -9714.638   -8737.8725    -9714.638            0     3950.536    18.129618      45.7877    19.550721 -0.071189983   -6.6466903  0.068130998    16229.318    3604.4763    4697.8965    3549.2353   -742.93405    396.63588   -86.462186    18.129618    45.787755     20.64979    89.782287    108.77647    90.089082 
  212500    254.19897   -9664.3038   -8646.6874   -9664.3038            0    4462.0329    18.287928    45.441613    19.470975  0.030276793   -6.2641052 -0.032805756    16181.022    3909.2187    4587.1948    4889.6851    975.41716   -234.17877    532.56514    18.287928    45.441623    20.453825    90.103588    107.83374    89.961825 
  213000    250.31197   -9679.6668   -8677.6109   -9679.6668            0    3930.0268      17.9916    46.088159    19.520306  -0.39814065   -6.1627906   0.17527889    16186.232    4681.2626    4333.7992    2775.0187    561.97255   -392.24237    65.796286      17.9916    46.089879    20.470785    89.360413    107.52086    90.494947 
  213500    255.08312    -9685.195   -8664.0391    -9685.195            0    3754.5803    18.056201    46.297345    19.398349  -0.57959317   -6.6155283   0.26636173    16216.131    3782.9529      3458.35    4022.4379    1130.9653    511.69592   -915.69159    18.056201    46.300973    20.497124    89.023961    108.82956    90.717244 
  214000    248.80486   -9679.4128   -8683.3903   -9679.4128            0    4697.4955    18.218123    45.844446     19.44402  -0.22378698    -6.905159  0.031122441    16239.641    3888.1625    4676.1149     5528.209   -19.575777    991.94058    1147.3899    18.218123    45.844993    20.633761    89.819983    109.55146    90.279684 
  214500    243.29561   -9672.6379   -8698.6701   -9672.6379            0    2731.2951    18.182319    45.803291    19.572075 -0.037492275    -6.738835   0.03316426    16299.821    3208.2516    3283.6555    1701.9783   -487.45519    529.53501    266.89288    18.182319    45.803306    20.699737    89.892935      108.999    90.046899 
  215000    248.67935   -9744.1076   -8748.5875   -9744.1076            0    2929.4107    18.110571    46.331836    19.361522  -0.28381574   -6.4284671   0.13033856    16246.176    3488.4088    2779.4386    2520.3849    167.35818   -870.45296    84.531204    18.110571    46.332705    20.401243    89.523361    108.36696    90.350973 
  215500     249.1387   -9668.4828   -8671.1238   -9668.4828            0     3254.755    18.029061    46.188015    19.526447  -0.33311475   -6.3681069   0.27139367    16260.191    4893.0483    2719.5806    2151.6361    79.498941   -1205.2048    -10.89021    18.029061    46.189217    20.540413    89.114846    108.06093    90.413218 
  216000    244.03113   -9706.5728   -8729.6605   -9706.5728            0    4236.2925    18.259578    45.484342     19.48202  -0.29080329    -6.694187 -0.036835429    16180.302    4929.4818    3883.1847    3896.2109    -390.8056   -799.20809    836.38407    18.259578    45.485272    20.600063    89.983413    108.96312    90.366314 
  216500     245.4314   -9685.4502   -8702.9324   -9685.4502            0    4782.2024    18.128447    45.867214     19.44938 -0.075129912   -6.8349808    0.0475224    16172.186    4440.1086    5761.8504     4144.648    554.56046    1468.2107    1108.3669    18.128447    45.867275     20.61547    89.836807    109.36265     90.09385 
  217000    244.27239   -9664.4791   -8686.6011   -9664.4791            0    5441.2726    17.972556    46.390653    19.369026  -0.40672001   -6.6040439   0.28944212    16149.092    6771.6519    4515.1827    5036.9831   -1086.1446    286.47982   -613.52912    17.972556    46.392436     20.46598    89.027586    108.82532    90.502315 
  217500    250.55238   -9654.1183   -8651.1001   -9654.1183            0    4004.6118    18.210849    45.885727     19.44817  -0.65052045   -6.5301753  0.070627705    16251.242    3503.8022    4125.8623    4384.1709    2215.5029   -154.36222    1525.3808    18.210849    45.890338    20.515348    89.544236    108.56056    90.812226 
  218000    251.46824   -9667.7927   -8661.1081   -9667.7927            0     3929.086    18.126958    45.727382    19.549273  -0.02418547   -6.4962289   0.10025662     16204.36    5050.5798    3572.4906    3164.1876   -812.57314   -336.82234    -1140.756    18.126958    45.727388     20.60061    89.711602    108.38144    90.030304 
  218500     253.1501   -9643.3448   -8629.9272   -9643.3448            0    4186.9376     18.12223    46.125472    19.404502  -0.13343955   -6.6391425  0.062382972    16220.153    3565.0138    4559.8271    4435.9719   -836.66996    355.70328   -284.27493     18.12223    46.125665    20.508944    89.772063    108.88801    90.165754 
  219000    250.01692   -9698.7026   -8697.8279   -9698.7026            0    4303.0242    18.098924    45.937781    19.462702  -0.66128152    -6.711193   0.13802574    16181.765    4607.7807    4537.4596    3763.8321    1056.5509     365.1583    493.93701    18.098924     45.94254    20.587762    89.347066    109.02494    90.824725 
  219500     247.0981   -9670.2751   -8681.0851   -9670.2751            0     3614.761    18.291985    45.388803    19.573922  -0.18741896    -6.621706   0.34903463    16251.274    3110.8251     4742.662     2990.796   -849.76711    -288.9026   -750.76915    18.291985    45.389189    20.666573    88.956488    108.68751    90.236584 
  220000    243.35183   -9698.7399   -8724.5471   -9698.7399            0    3431.5954    18.178234    45.970444    19.442028  0.020846894   -6.4208967    -0.171694    16246.955    2446.9511    3624.6602     4223.175    425.50788   -288.77586    1544.6708    18.178234    45.970449    20.475592    90.488596    108.27558    89.974017 
  220500    240.55435    -9721.655   -8758.6611    -9721.655            0    2781.2169    18.028346    46.252501     19.46227  0.089158077   -6.5166559 -0.0063307186    16228.733    3345.9993    2686.2702    2311.3812   -944.54684   -391.21447   -58.192318    18.028346    46.252587    20.524298     90.05274    108.51237    89.889555 
  221000    245.61862    -9686.083   -8702.8157    -9686.083            0    2712.2403    18.189506    46.142336    19.436022  -0.57239968   -6.7771505   0.27396836    16312.775    3123.3882    1858.2372    3155.0956    178.02562     505.8638   -664.20857    18.189506    46.145886    20.585523    89.003493    109.22139    90.710723 
  221500    243.05115   -9741.2181   -8768.2289   -9741.2181            0    3825.2459    18.200647    45.748804    19.476843  -0.55289835    -6.704853  0.050856995    16217.546    4021.0177    4552.9973    2901.7228   -74.813246    -214.6946    425.44622    18.200647    45.752145    20.598666    89.633172    108.99583    90.692416 
  222000    250.06386   -9724.1678   -8723.1052   -9724.1678            0     3521.308    18.103509    46.010535    19.479579   0.37315433   -6.4546968 -0.0093553109    16225.557    4471.7936    3155.1978    2936.9327   -1374.9323    64.943039    701.20589    18.103509    46.012048     20.52114    90.172275    108.33298     89.53533 
  222500    250.93533   -9646.1461   -8641.5948   -9646.1461            0    3657.6165    18.074997    46.246541    19.441175  -0.50454568   -6.4877493 -0.017759374    16250.997    3572.6549    4263.0103    3137.1842   -570.71903    170.44142   -42.972965    18.074997    46.249293    20.495134    89.851783    108.45445    90.625067 
  223000    250.23063    -9701.935   -8700.2047    -9701.935            0    3111.3312    18.185497    46.060101    19.407642  -0.89305982   -6.8075249   0.39848545    16256.343    2412.0331    3187.1006    3734.8599   -213.26197    190.69718   -1588.9399    18.185497    46.068758    20.570799    88.522579    109.32532    91.110769 
  223500    260.50046   -9694.9328   -8652.0901   -9694.9328            0    4101.1326    18.051479    45.839111    19.562184  -0.22411863   -6.7477024   0.20360352    16186.997    6435.8695    3924.3401    1943.1883   -183.11621    310.79402   -1330.2497    18.051479    45.839659     20.69425    89.344938     109.0302    90.280131 
  224000    264.69779   -9684.2867   -8624.6411   -9684.2867            0     4358.559    18.212905    45.947905    19.387392 -0.081935612   -6.6109473   -0.1055851    16224.239    3993.5226    4274.9227    4807.2318   -292.69644   -444.88569    835.86401    18.212905    45.947978    20.483817     90.26236    108.82871    90.102171 
  224500    244.43686    -9718.054   -8739.5175    -9718.054            0    3232.1662     18.12076    45.960897    19.498068  -0.27670938    -6.559663   0.21609323    16238.896    2706.1468    3038.5937    3951.7582    68.401241     348.8957   -368.49326     18.12076     45.96173    20.573054     89.28819    108.59323    90.344947 
  225000    245.94568   -9683.7413   -8699.1646   -9683.7413            0    3833.5505    18.174165    45.820818    19.461735  -0.69017926   -6.6117061   0.18802064    16206.859    2883.2638    4537.5871    4079.8006    342.97226    703.12124    532.95458    18.174165    45.826016    20.555027    89.198371    108.76327    90.862956 
  225500    259.30601   -9670.8572   -8632.7961   -9670.8572            0    4321.3809    18.199232    46.228435    19.316555 0.0046497348   -6.7689783   0.06323488    16251.443     3767.624    3999.1825    5197.3363   -19.629414    224.39749   -628.27323    18.199232    46.228436    20.468326    89.824896    109.31157    89.994237 
  226000    253.29365   -9720.6703    -8706.678   -9720.6703            0     2994.652    18.030264    46.172326    19.565611   0.24023228   -6.7886642 -0.043274767    16288.355    4204.6428    1704.1043    3075.2088    -216.7066    167.80745    529.20074    18.030264    46.172951    20.709924     90.21744    109.13516    89.701896 
  226500    248.03951   -9684.9912   -8692.0325   -9684.9912            0    3003.5698    18.296186    45.708435    19.455273  -0.77711107   -6.6219596   0.23981777     16270.25    2628.5222    3187.9454    3194.2419    821.24154   -723.12867     67.84394    18.296186     45.71504    20.552749    89.017691    108.79562    90.974019 
  227000     256.7928   -9677.6703   -8649.6703   -9677.6703            0     3154.668    18.104931    45.979235    19.514231  -0.57385175   -6.5031886   0.19360379    16244.639    3760.3622    3007.6588    2695.9829    595.95945   -448.76228   -427.97427    18.104931    45.982816    20.570225    89.234705    108.42999    90.715053 
  227500     255.5172   -9733.3868   -8710.4932   -9733.3868            0    3435.2597    18.014189    46.256526    19.416292   0.16679996   -6.5823212 -0.023113698    16179.087    2755.4775     3989.655    3560.6467   -4.7401022    496.40169    651.90786    18.014189    46.256827    20.501704    90.130929    108.72717    89.793394 
  228000    251.55031   -9665.9782   -8658.9649   -9665.9782            0     4464.379    18.214153     45.95423    19.373046 -0.0042321559    -6.726225 0.0032254802    16215.576     3401.765    4381.5654    5609.8066    107.59923   -27.026222      413.261    18.214153     45.95423    20.507487    89.989258    109.14675    90.005277 
  228500    261.45722   -9705.4733   -8658.8004   -9705.4733            0    3970.4681    18.183633    45.489203    19.630764  -0.86316853   -6.7196586   0.23079969    16237.763    3424.0851    4243.5738    4243.7454    1046.6001    -97.07253   -357.04003    18.183633    45.497392    20.750276     89.01077    108.89499    91.087071 
  229000    247.00548   -9684.9874   -8696.1682   -9684.9874            0    3106.0562    18.120094    46.240705    19.401906  -0.44533855   -6.5403723   0.29548065    16256.584    3635.4121    2414.5877    3268.1687   -993.05982    99.950938   -699.12087    18.120094     46.24285    20.476761    88.996964    108.62692    90.551792 
  229500    255.72841   -9695.2754   -8671.5362   -9695.2754            0    2980.4831    18.052692    46.357838    19.384535  0.064930023   -6.4044971  -0.10436179    16222.603    2898.4497    2867.8071    3175.1925   -1053.1768   -247.79681    224.54354    18.052692    46.357884    20.415403    90.318068     108.2829     89.91975 
  230000    244.71373   -9638.6511   -8659.0063   -9638.6511            0     3239.514    18.116902    45.799364    19.608142  -0.13702437   -6.5110274  0.052679181    16269.711    3603.0895    3052.7345     3062.718    304.32102    -610.8524    749.38483    18.116902    45.799569    20.660965    89.799893    108.36906    90.171419 
  230500    253.24679   -9693.4988   -8679.6942   -9693.4988            0    3151.4674    18.273646    45.772364    19.470888   -0.4800089   -6.6498285   0.22900892    16285.996    3387.2187    2746.1005    3321.0829    438.40525    234.50022   -780.50388    18.273646    45.774881    20.576398     89.16815     108.8552    90.600831 
  231000    253.32549   -9672.4062   -8658.2865   -9672.4062            0    3664.6343     18.04018    46.144887    19.504719   -0.3734313   -6.6289219 0.0028900897    16236.938    4703.2694     3584.987    2705.6466    999.73175   -201.53558    -500.3729     18.04018    46.146398    20.600404    89.842764    108.77097    90.463661 
  231500    252.38339   -9713.1802    -8702.832   -9713.1802            0    5295.0574    18.046356    46.050767      19.3964    0.2439692   -6.6430484  0.016047471     16119.35    5783.1863    5723.3944    4378.5915   -1667.1367    391.11315    474.82459    18.046356    46.051413    20.502455    90.053505    108.90575    89.696459 
  232000    252.89916   -9694.3069   -8681.8939   -9694.3069            0    5336.9161    18.224055    45.747487    19.320592  -0.24654432   -6.6000757   0.15732431    16107.668    4548.4176    5146.5318    6315.7989   -53.890675   -592.60727   -27.501447    18.224055    45.748151    20.417419    89.458698    108.86002    90.308778 
  232500    249.94933   -9680.4022    -8679.798   -9680.4022            0    5192.0366    17.991006    45.927434    19.520849  -0.86654238   -6.4576524  0.068913929    16129.702    5132.0985    4781.4094     5662.602    824.33042   -359.07301    562.72554    17.991006    45.935608    20.561361    89.468535    108.30452    91.080908 
  233000    250.72371   -9670.6469   -8666.9427   -9670.6469            0     4978.378    18.077568    46.197593    19.321523 -0.019506104   -6.5021949   0.15012819    16136.179    4216.0541    4383.8556    6335.2242    115.43998   -208.92667   -633.30696    18.077568    46.197597    20.386818    89.570355     108.5989    90.024192 
  233500    249.57812   -9677.6319   -8678.5138   -9677.6319            0    4712.4525    18.161052      45.8599    19.415561 -0.074380803   -6.5697555 -0.076273117    16170.522    3158.7113    4870.8922     6107.754    44.335169    231.38505    817.75695    18.161052     45.85996     20.49711    90.183421    108.69444    90.092929 
  234000    256.13886   -9689.4948   -8664.1126   -9689.4948            0    4961.0176    18.077684     45.60786    19.607897   -0.4759874   -6.6195221  0.093674722    16166.407    5683.9397    5531.6945    3667.4186    363.03266    23.239861   -392.97741    18.077684    45.610344    20.695325    89.549414    108.65421    90.597947 
  234500    254.77361   -9691.8936   -8671.9768   -9691.8936            0    3810.1992    18.123698    46.215183    19.345167  -0.34702544   -6.6477988   0.24298802    16203.319    3509.0287    3736.4082    4185.1608    1120.4336    65.750644    56.390104    18.123698    46.216486    20.456973    89.179626    108.96345    90.430221 
  235000     249.6344   -9708.4173   -8709.0739   -9708.4173            0    2737.0724    18.069782    46.270163    19.482693 -0.057350319   -6.5838843  0.055955025    16289.319    3158.8301    2264.6437    2787.7434    286.63666   -321.60736    536.71518    18.069782    46.270199    20.565164     89.82137    108.67184    90.071016 
  235500     249.4386   -9686.6214   -8688.0618   -9686.6214            0    3165.8486    18.284544    45.782125    19.481596  -0.03730847   -6.5458602 -0.032727271    16308.147     3020.729    2507.8308    3968.9859    -108.2144    -624.5331    1304.0602    18.284544     45.78214    20.551933    90.076368    108.57244    90.046691 
  236000    254.60991   -9701.9603   -8682.6988   -9701.9603            0    3236.6943     18.20585    45.615174    19.587281  -0.39845189   -6.5034437   0.35564522    16266.513    2841.2623    3644.6891    3224.1315   -277.25956   -489.18501    -709.6253     18.20585    45.616914    20.641775    88.855113    108.36457     90.50047 
  236500    253.75488   -9712.6129   -8696.7743   -9712.6129            0    3773.0152    18.043255    46.338307    19.402288   -1.0345017   -6.5210323   0.16634296    16222.134    4860.9564    3376.2908    3081.7984    1057.0647    38.002029     1717.198    18.043255    46.349853    20.469497    89.127081    108.57666    91.278915 
  237000    248.64572   -9712.7534    -8717.368   -9712.7534            0    4210.1287    18.109669    46.165135    19.348434   0.18177017   -6.5300758   0.02363656    16175.975    4759.7773    4221.1694    3649.4393   -1142.0762    72.564985   -259.03055    18.109669    46.165492    20.420685    90.005822    108.64947    89.774405 
  237500    249.74156   -9730.3531   -8730.5807   -9730.3531            0    3386.5203    18.108268    45.862308    19.524596   0.20284686   -6.5422254 0.0035694123    16214.922    3611.3082    3774.1146    2774.1382   -995.46554   -818.12342    432.26621    18.108268    45.862757    20.591517    90.070582    108.52477    89.746585 
  238000     263.0218   -9684.2333   -8631.2971   -9684.2333            0    3947.9145    18.191477    46.019591    19.448062  -0.71808809   -6.6781669   0.11072929    16281.224    5538.4016    2716.3464    3588.9957    1140.1535    125.83617   -250.61566    18.191477    46.025193    20.563008    89.401177     108.9514    90.893969 
  238500    251.18998   -9670.3447   -8664.7739   -9670.3447            0    2999.4904    18.136702    46.134226    19.466971  -0.44697564   -6.7467138   0.32990197    16288.457    3924.4733    2476.5648    2597.4331    374.20931   -314.76354   -799.62535    18.136702    46.136391     20.60558    88.900904    109.11236    90.555098 
  239000    248.64985   -9707.7424   -8712.3403   -9707.7424            0    2962.6148      18.0505    46.185027     19.47364   0.31571247   -6.6235965   -0.1022653     16234.45    3406.8435    2559.9697    2921.0312   -16.916088   -990.89316    576.53324      18.0505    46.186106     20.56952    90.410971    108.78454    89.608343 
  239500    256.36045   -9672.7041   -8646.4348   -9672.7041            0    3669.2719    18.144525    46.048982    19.399244    0.2696912   -6.4573903  -0.14094605    16208.784    2425.4489     4210.129    4372.2377   -34.947822    81.351564    212.56844    18.144525    46.049772    20.446232    90.500943     108.4105    89.664444 
  240000    249.88523   -9652.3514   -8652.0039   -9652.3514            0    4193.6005    18.056988    45.905585    19.540624  -0.62877574   -6.4036183   0.25507659    16197.547    4809.8685    3646.1332    4124.7998    500.12366   -1070.5368    651.21723    18.056988    45.909891    20.564712    89.044997    108.14294     90.78474 
  240500    261.50217   -9681.4762   -8634.6234   -9681.4762            0    5138.2956    18.145991    45.871377    19.436983  -0.44687616   -6.5988139   0.19974313    16178.988    5103.4554    4576.8598    5734.5715   -1153.9865   -576.89524    292.83912    18.145991    45.873553    20.527556    89.263068    108.75132    90.558154 
  241000    253.75776   -9702.2633   -8686.4132   -9702.2633            0    4872.7657    18.181293    46.027019    19.371181   0.11915773   -6.7927715 0.0072142549      16210.4    4559.3538    5105.3356    4953.6076   -203.70914    21.933626     1032.975    18.181293    46.027173    20.527651    90.028948    109.32392    89.851669 
  241500    251.74274   -9667.1514   -8659.3679   -9667.1514            0     3972.488     17.98286    46.050196    19.624063   0.11199403   -6.6331275 -0.081030628    16250.966    5047.8246    3646.1696    3223.4698   -1272.2458   -153.75849    184.40096     17.98286    46.050332    20.714941    90.268743    108.67561    89.860657 
  242000    256.17774   -9667.8762   -8642.3383   -9667.8762            0    2843.5008    18.295623    45.977995     19.39228  -0.73450497   -6.4989515   0.17585609    16312.709    1971.6732    3390.7484    3168.0807    398.40505   -982.35551    -268.1716    18.295623    45.983862    20.453063    89.216606    108.52688     90.91523 
  242500    255.71542   -9644.3009   -8620.6138   -9644.3009            0    5107.7985    18.058384    45.888846    19.573918  -0.50703206   -6.5020476   0.21757263    16220.483    5305.1199    5345.5347     4672.741    670.28349    465.91381   -1048.7463    18.058384    45.891647    20.626735    89.196103    108.37435    90.633043 
  243000    252.81884    -9684.466   -8672.3745    -9684.466            0    4214.5276     18.13384    46.082147    19.369717  -0.20075205   -6.6982887 -0.041736645    16186.232    4573.3646    2940.8312    5129.3871   -283.30516   -576.88583    2079.5007     18.13384    46.082584    20.495238    90.035101    109.07598    90.249601 
  243500    251.49794   -9712.9481   -8706.1445   -9712.9481            0    3564.6574    18.180278    45.829464    19.449015 -0.014993992   -6.7302514    0.1369608    16204.772    3479.2816    4178.2701    3036.4206   -539.54409    590.92211    51.222769    18.180278    45.829466    20.581041     89.61258    109.08753    90.018745 
  244000    238.22939   -9696.8197   -8743.1332   -9696.8197            0    2990.6456    18.095652    45.939322    19.613315  -0.65247242   -6.5364788    0.1976328    16304.587    3574.0083    2472.5161    2925.4123    683.82035   -709.52519   -197.05682    18.095652    45.943955    20.674785    89.195079    108.43068    90.813713 
  244500    258.97602   -9666.9317   -8630.1917   -9666.9317            0    4107.2782     18.18774    46.223237    19.338075  -0.77104479   -6.2927734  0.027159497    16257.447    3160.1968    3331.0145    5830.6233    938.21591   -1147.7245    544.11032     18.18774    46.229668    20.336197    89.627786    108.02531    90.955656 
  245000    253.88628   -9682.4091   -8666.0444   -9682.4091            0    4113.3916    18.094384    46.200634     19.38367    0.3962722   -6.4063122  0.081283976    16204.206     4520.374    3184.4328     4635.368   -598.66292   -299.11958    150.08966    18.094384    46.202334    20.415046     89.92609    108.28859    89.508575 
  245500    247.91378   -9687.4909   -8695.0356   -9687.4909            0      4274.91     18.09978    45.843926    19.529042  -0.32942918   -6.6649809   0.02684151    16204.516    5039.2193    4417.8605    3367.6501    1027.1462    135.97332    384.33404     18.09978     45.84511    20.635072    89.792493    108.84402    90.411714 
  246000     249.9861   -9701.1055   -8700.3542   -9701.1055            0    5176.6742     18.19354    45.872772    19.340384  -0.52902949   -6.7401389   0.10733877    16141.254    4854.1291    4513.5999    6162.2936    752.13138   -592.45217   -390.14972     18.19354    45.875822     20.48149    89.482306    109.21321    90.660736 
  246500    251.54551   -9691.6592   -8684.6652   -9691.6592            0    4931.4227    18.049387    45.938256    19.447733  0.033791396   -6.6019203   0.17629395    16125.231    4113.5355    5584.5962    5096.1365   -865.51962    561.46623    -1400.177    18.049387    45.938269    20.538519    89.521739    108.75009    89.957854 
  247000     241.4502   -9631.0754   -8664.4952   -9631.0754            0    4686.9927    18.143387    45.853847    19.432023  -0.37239814   -6.4695507   -0.1739324    16166.357    4846.9346    4545.2242    4668.8194    460.44688   -30.582985    629.06368    18.143387    45.855359    20.481427    90.339575    108.41359    90.465313 
  247500    249.93059   -9670.7095   -8670.1804   -9670.7095            0    5908.2802    18.146567    45.659785    19.464573  -0.28121623   -6.5374186   0.21994104    16127.729    5284.2356    6498.6409    5941.9641   -60.060302    -109.9253   -131.35272    18.146567    45.660651    20.534259    89.273958    108.56416    90.352877 
  248000    246.41129   -9681.5181   -8695.0776   -9681.5181            0    3583.5115    18.072491    46.094118    19.520765   -0.2388952    -6.596782   0.19471241     16261.49     3345.368    4387.5828    3017.5837    434.23643    344.47783   -358.26556    18.072491    46.094738    20.606205    89.363531    108.67113    90.296948 
  248500    244.10912   -9713.7183   -8736.4939   -9713.7183            0    3608.9171    18.154923    46.076267    19.375207  -0.17861833   -6.6385854  -0.11061582    16207.576     3100.256     3291.856    4434.6392    285.64768   -1295.5622   -157.72527    18.154923    46.076613    20.481253    90.237451    108.91287    90.222111 
  249000    240.52724   -9686.6001   -8723.7147   -9686.6001            0    4087.0215    18.108514    45.809657     19.56359  0.093847245   -6.5120836   0.19421028    16228.874    3337.4412    5022.1198    3901.5036    258.59013    633.66282     515.1576    18.108514    45.809753    20.619869    89.497419    108.41008    89.882622 
  249500    246.79047    -9696.479   -8708.5205    -9696.479            0    2954.9173    18.210132     45.95288    19.487858  -0.65797734   -6.4296316   0.10387731    16307.596    1999.8474    3526.2829    3338.6216    958.56769   -187.25431    33.104008    18.210132     45.95759    20.521393    89.452982    108.25904    90.820335 
  250000    253.83367   -9683.3505   -8667.1965   -9683.3505            0     2508.994    18.153078    46.267062    19.448947  -0.62676862   -6.5489459 0.0090340029    16334.968    2238.4876    2495.5209    2792.9734   -103.79511    -229.9531    1127.0915    18.153078    46.271307    20.521947     89.72711    108.60966    90.776124 
  250500     240.2189   -9636.9796   -8675.3286   -9636.9796            0    3692.0628    18.063425     46.00451    19.532764   0.31361703   -6.7023049   0.14503679    16231.708    4388.6352    3314.6431      3372.91    -1335.485   -88.571846    345.24735    18.063425    46.005579    20.651169    89.724373    108.93822    89.609415 
  251000    255.89855   -9699.2074   -8674.7872   -9699.2074            0    3140.9089    18.254945    45.868357     19.45653  -0.40142584   -6.7250046  0.053335584    16291.427    1965.5082    4787.7316    2669.4869    777.23558    639.81505    442.19853    18.254945    45.870114    20.586042    89.687757    109.06726    90.501422 
  251500    243.60964     -9700.71   -8725.4851     -9700.71            0    3249.1563    18.100815    45.980072    19.508619  -0.38519961   -6.5637689   0.20350984     16236.57    2534.4981    3434.7707    3778.2002    498.62665   -625.56101    48.806961    18.100815    45.981685    20.584234    89.280483    108.59482    90.479986 
  252000    256.22763   -9749.7419   -8724.0043   -9749.7419            0    4145.5851     18.05643    46.003064    19.447535 -0.043071119   -6.4445016  0.055593748    16154.117    6108.8768    3630.9033    2696.9753   0.19605516   -615.25153    695.14233     18.05643    46.003084    20.487589    89.827652    108.33403    90.053644 
  252500    250.91837    -9671.639   -8667.1555    -9671.639            0    3877.0691    18.253022    46.072102    19.295896 -0.070772635   -6.4574462  -0.15445214    16226.982    2071.3389    3608.5158    5951.3525    749.52654   -182.85509    1174.3567    18.253022    46.072156    20.348318    90.406971    108.50246    90.088014 
  253000    246.04995   -9682.5868   -8697.5928   -9682.5868            0    2801.5286    18.045437    45.693563    19.724965 -0.027842877   -6.6586518   0.31282894    16264.423    4034.7315    3073.1776    1296.6768   -1054.0653   -397.10709   -1503.6479    18.045437    45.693571    20.820897    89.127946     108.6512    90.034913 
  253500     253.6046   -9640.9001   -8625.6631   -9640.9001            0    3696.3377    18.212655    46.104572    19.389547   -0.4075879   -6.7157179   0.14581704    16281.145    3258.5964    3838.7002    3991.7166     710.6126    861.26594    404.35156    18.212655    46.106373    20.520153    89.427094    109.10342    90.506511 
  254000    241.73584   -9696.6237   -8728.9001   -9696.6237            0    3596.7267    18.094629    46.025123    19.495465  -0.21335411   -6.5310706  0.081590042     16235.97    3886.7714    3714.0378    3189.3708   -596.14559     349.3908    -122.4241    18.094629    46.025617    20.560513    89.688267    108.52094    90.265598 
  254500     256.1752   -9651.4257    -8625.898   -9651.4257            0    3304.1935    18.063856    46.084238     19.51908 -0.099919996   -6.3860041  0.063583136    16248.834    3347.9963    3186.5153    3378.0687   -484.21553   -521.74808    661.60137    18.063856    46.084346    20.537273    89.783984    108.11631    90.124229 
  255000    249.35099   -9699.2573   -8701.0484   -9699.2573            0    3962.1927    18.230097    45.915388     19.32363  -0.44709551   -6.5762438   0.15608973    16174.689    3779.2539    3932.9601    4174.3642    222.10882    53.520215    -331.0199    18.230097    45.917564    20.412595    89.382152    108.79397    90.557893 
  255500    244.63668   -9688.0484    -8708.712   -9688.0484            0    5134.5988    18.034886    45.702297    19.546889  -0.68324244   -6.8756009   0.27182951    16111.244    5430.2273    5416.9978    4556.5711   -467.13686    1034.1973    -104.9208    18.034886    45.707404     20.72266    88.964282    109.37754    90.856499 
  256000     249.8366   -9636.3619    -8636.209   -9636.3619            0    4980.9325    18.123561    46.177407    19.285378 -0.059307772    -6.696325   0.13284518    16139.915    4734.9003    4938.2656    5269.6314     89.97693    282.61019    409.43211    18.123561    46.177445    20.415294    89.603028    109.14775    90.073588 
  256500    253.17998   -9646.4847   -8632.9476   -9646.4847            0    4474.1086    18.087516     46.07416    19.432132   0.09252002   -6.4020342  -0.06502647    16194.099    4776.4135    4714.8769    3931.0353    42.945657   -73.366572    1002.1848    18.087516    46.074253    20.459668    90.218103    108.23469    89.884946 
  257000    243.07879   -9622.1988    -8649.099   -9622.1988            0    3333.0562    18.169845    45.810761    19.547846  -0.57418269   -6.4406627  0.079448249    16271.127    2292.4892    4482.7945    3223.8849    838.25454    833.62909   -214.26117    18.169845    45.814359    20.581708    89.554134    108.23598    90.718096 
  257500    253.09701   -9703.6083   -8690.4033   -9703.6083            0    4193.2424    18.221336    45.989904    19.382368  -0.39055015   -6.6488896   0.24892158    16242.376    3090.7997    4603.9013    4885.0262    230.93392   -88.005912   -423.87378    18.221336    45.991562    20.492581    89.146166    108.93247    90.486549 
  258000    252.47594   -9701.3409   -8690.6222   -9701.3409            0    3815.2326    18.016547    46.226799    19.460569   0.11341332   -6.8342373 -0.021398696    16207.683    4829.0281    3440.9074    3175.7622    417.97233    966.08257    194.77538    18.016547    46.226938    20.625737     90.10602    109.35044     89.85943 
  258500    247.57089   -9689.0272   -8697.9445   -9689.0272            0    4315.2764       18.155    45.842263    19.455994  0.034276411   -6.7316917  -0.16019564    16192.568    4086.9718    4416.3726    4442.4848   -827.43567     234.8901    447.84986       18.155    45.842276    20.588274    90.459826     109.0848     89.95716 
  259000    239.84417   -9703.2326   -8743.0817   -9703.2326            0    4630.1141    18.266353    45.340253     19.53069  -0.35922154   -6.3394899   0.30297217    16175.339    3895.5915    4905.3028     5089.448   -79.821366    -923.2393    2.3518134    18.266353    45.341676    20.536036    89.014554    107.98095    90.453933 
  259500    249.65446   -9713.7864   -8714.3627   -9713.7864            0     5122.659    18.048297    45.864516     19.50264  -0.45230914   -6.4398779   0.12462391    16143.825    5517.8921    4728.2207    5121.8643   -154.78099   -47.863703   -636.24627    18.048297    45.866747    20.538756    89.475194    108.27316    90.565024 
  260000    242.95273   -9731.1841    -8758.589   -9731.1841            0    3452.1818     18.18389     46.00205    19.375326 -0.030566072   -6.7277388  0.042341095    16207.387    2035.9275    3821.6813    4498.9367   -1193.3197    212.73836   -147.54284     18.18389     46.00206    20.510181    89.869231    109.14861     90.03807 
  260500    244.59658   -9671.0839    -8691.908   -9671.0839            0    3129.6633    18.193489    45.850673    19.518863  -0.36560797   -6.8084512  0.082237664    16282.318    3362.7722    3586.5532    2439.6645    106.60912     705.8276    445.79353    18.193489     45.85213    20.672392    89.621609    109.22932     90.45686 
  261000    256.22861   -9715.6744   -8689.9329   -9715.6744            0     3138.977     18.22116    45.875115    19.496373  -0.88180541   -6.6403041   0.26400422    16296.975    2846.9445    3347.0896     3222.897    732.45874   -39.633142   -548.39794     18.22116    45.883589    20.597862    88.910726    108.80682    91.101196 
  261500    250.64014   -9684.1592   -8680.7896   -9684.1592            0    3863.9273    18.012407    46.284188    19.482712  -0.34156298   -6.4079031   0.14386308    16242.535    4037.0656    3720.9246    3833.7918   -565.32027   -551.64865   -139.82328    18.012407    46.285448    20.509949    89.466014    108.20568    90.422817 
  262000     253.6185   -9716.3898   -8701.0971   -9716.3898            0    3734.9062     18.11054    46.204891    19.412942   0.52925435    -6.544575 -0.070025491    16244.663    3573.3132    3604.4289    4026.9765   -369.47089   -479.98918    1961.0423     18.11054    46.207922    20.486549    90.405479     108.6301    89.343734 
  262500    251.92328   -9702.1663     -8693.66   -9702.1663            0    3668.2925    18.289304     45.67483    19.511676  -0.32274044   -6.7645612 -0.019101659     16299.29     3739.332    4297.2371    2968.3083    1185.5109    35.605682    1121.8462    18.289304    45.675971    20.651033    89.920383    109.12106    90.404848 
  263000    246.27972   -9641.7084   -8655.7946   -9641.7084            0    3946.3236    18.179007     45.82323    19.568989  -0.82898085    -6.697971    0.2244699    16301.375    4308.5627    3591.0849    3939.3232     112.2924    534.41046   -248.53899    18.179007    45.830728    20.684741      89.0427    108.89363    91.036416 
  263500    246.44139   -9616.6949   -8630.1339   -9616.6949            0    4295.5317    18.058099    46.326788    19.412848  -0.10710542   -6.4540316   0.19979337    16240.279     3417.631    4078.4297    5390.5345   -612.23691   -350.41719   -1281.9987    18.058099    46.326912     20.45857    89.398665    108.38909    90.132465 
  264000    247.05713   -9707.8173   -8718.7913   -9707.8173            0    3990.2343    18.137641    45.967417    19.406564  -0.02751822   -6.4490202 -0.077486161    16180.038    4508.4012    4073.2204    3389.0814   -458.57659   -216.90446   -161.17509    18.137641    45.967425    20.450198    90.206279    108.38209      90.0343 
  264500     245.2648   -9718.2799    -8736.429   -9718.2799            0    5261.7043    18.106809    45.572841    19.548972  -0.32850077   -6.5709829   0.16456461    16131.395    4890.5091    4962.0785    5932.5252    641.38351   -557.60684    1106.2279    18.106809    45.574024    20.624432    89.411252    108.57839    90.412996 
  265000    256.22685   -9721.3728   -8695.6384   -9721.3728            0    3773.8518    18.279763    45.885499    19.319876  -0.60446572   -6.7680658   0.21860151    16205.049    2902.6877    3401.4914    5017.3765   -498.59138    149.82555    -1740.944    18.279763     45.88948    20.472228    89.138713    109.30504    90.754734 
  265500    248.21043   -9719.9872   -8726.3442   -9719.9872            0    4855.9781    18.004005    46.084549    19.488349  -0.26991707   -6.7101289 -0.072679028    16169.609      5980.29    4875.8071    3711.8371    319.95112    486.33439    468.53569    18.004005     46.08534    20.611329    90.092783    108.99923    90.335577 
  266000    240.78289   -9691.3291   -8727.4203   -9691.3291            0     4606.396    18.109668    45.913187     19.43147   0.31240205   -6.6246537  0.085647161    16156.734    4612.8067    4852.8481    4353.5333   -935.93389    69.450544   -1343.9072    18.109668    45.914249    20.529866    89.886773     108.8253    89.610155 
  266500    247.38299   -9638.6051   -8648.2746   -9638.6051            0    3811.5714     18.16095    45.843441    19.509474  -0.57079533   -6.4850584  0.095597882    16242.817    1677.2671    4939.2331    4818.2141    865.92294    270.15407    1025.6975     18.16095    45.846994    20.559297    89.508589    108.38689    90.713351 
  267000    250.42724     -9700.91   -8698.3926     -9700.91            0    2544.1488    18.119163    45.956417    19.515792  -0.43013146    -6.491283   0.15805301     16250.64    1084.0773    3436.5563    3111.8129    792.13952    380.29918   -1024.9027    18.119163     45.95843    20.567641    89.390475    108.39744    90.536247 
  267500    261.25324   -9720.5724   -8674.7161   -9720.5724            0    3452.5042    18.176523    46.105113    19.386444   0.29197195   -6.7578896 -0.051432181    16246.434    3044.8914    3363.7518    3948.8693   -761.61382    219.81634    136.48861    18.176523    46.106038    20.530609    90.262963     109.2179    89.637165 
  268000    249.48147   -9690.4266   -8691.6954   -9690.4266            0    3055.1244    18.117979    46.089137    19.551908  -0.14169066   -6.7801997 -0.042731584    16326.665    3661.7398     2740.346    2763.2875   -358.81712   -101.45848    524.14014    18.117979    46.089355    20.694203    90.060599    109.12545    90.176142 
  268500    245.95528   -9693.9072   -8709.2921   -9693.9072            0    3496.8145    18.215311     45.91118    19.443523   -0.7061317   -6.5642489   0.36792093    16260.354    3660.3854    3691.3401     3138.718    377.19498   -48.498532   -805.47776    18.215311     45.91661    20.524993    88.691152    108.65188    90.881162 
  269000    246.73102   -9694.5024   -8706.7819   -9694.5024            0    2853.3526    18.165626     46.00709    19.497051   -0.5270589   -6.4420832   0.06163591    16294.613    3478.0821    2737.8686    2344.1072     737.9077   -181.49788    951.95798    18.165626    46.010109    20.533856    89.622112    108.28415    90.656354 
  269500    259.61453   -9689.1475   -8649.8514   -9689.1475            0    2864.0638    18.099378    46.064853    19.566741   0.17826679   -6.5459118 -0.0028099535    16313.676    3551.8825    2262.2153    2778.0936   -856.93987   -425.48997    757.30656    18.099378    46.065198    20.632652    90.078148    108.49729    89.778272 
  270000    252.57712    -9702.991   -8691.8673    -9702.991            0     3344.187    18.160524    46.020297    19.459637  -0.29956297   -6.7039502   0.17804327    16263.445    3860.6744    2757.4622    3414.4245    1003.4459    297.37979   -671.48789    18.160524    46.021272    20.582811    89.382912    109.00837    90.372954 
  270500    254.57662    -9701.931   -8682.8027    -9701.931            0    3061.5679    18.197716    45.846131    19.500862   -1.1412049   -6.8487316    0.2512508    16269.469    3293.0024    2918.3112    2973.3899   -35.129023    1.6422255   -584.12642    18.197716    45.860332    20.670071     88.83128    109.34986    91.425916 
  271000    241.80721   -9705.6755   -8737.6661   -9705.6755            0    3783.2089    18.051196    46.045506    19.485584   0.25983092   -6.6364243   0.16701146    16195.959    4358.8382    4235.3465    2755.4421    575.14878    60.428904    435.16555    18.051196    46.046239    20.585383    89.639389    108.80724    89.676688 
  271500     250.4506   -9652.8576   -8650.2467   -9652.8576            0    3670.9879    18.176825    46.114192    19.361753   0.36097874   -6.5026913  -0.06564172    16229.207    3345.1397    3861.4056    3806.4184   -889.60706   -439.66853    634.43753    18.176825    46.115604    20.424661    90.326925    108.56465    89.551502 
  272000    259.57175   -9685.5311   -8646.4062   -9685.5311            0    4397.6173    18.049679    45.852941    19.522713  -0.71395364    -6.467519  0.058382478      16157.6    3804.9882    4643.1531    4744.7107    296.34009    560.05901    252.83193    18.049679    45.858499    20.566199    89.556851    108.32902    90.892052 
  272500    258.40473   -9678.8982   -8644.4451   -9678.8982            0    4692.0309    18.214645    45.898427    19.366868  -0.52038998   -6.5934634   0.22654678    16191.158    4792.9672    4702.1872    4580.9384    816.57361    258.02347   -1320.4692    18.214645    45.901377    20.459733    89.156251    108.79998    90.649584 
  273000    249.74376   -9680.1291   -8680.3479   -9680.1291            0    3986.6671    18.103899    45.865251    19.508871   0.01922159   -6.7167716  0.024002126    16198.994    4752.4465    4616.5469    2591.0078    174.57865    378.22093    1195.3477    18.103899    45.865255     20.63278    89.941165    108.99822    89.975988 
  273500     253.1488   -9688.7462   -8675.3339   -9688.7462            0    4431.7596     18.08374    45.806117    19.538778   0.10662335   -6.6082735  0.016483615    16184.867    5394.8985    4014.1742     3886.206    61.390967    166.13629     265.6778     18.08374    45.806241    20.626037     89.99694    108.68621    89.866632 
  274000    256.26702   -9632.1501   -8606.2548   -9632.1501            0    4274.4528    18.236821    45.927448    19.376314  -0.55028834   -6.4754491    0.1749987    16229.032     4145.791    4441.7849    4235.7826    250.40444    26.104109   -760.86023    18.236821    45.930744    20.430458    89.291675    108.47862    90.686467 
  274500    255.69977   -9685.5516   -8661.9272   -9685.5516            0     3662.167    18.050905    45.990399    19.542222  -0.33513899   -6.5045034   0.12583057    16223.334    4087.9841    4176.4108     2722.106    171.44994    258.13829    200.55953    18.050905    45.991621    20.596671    89.518117    108.40934    90.417516 
  275000    247.36768   -9656.8586   -8666.5894   -9656.8586            0     3715.755    18.219109     46.11955     19.33147  0.053307027   -6.6853817 -0.0017306239    16243.405    2974.7431    3371.8037    4800.7181   -827.08371   -245.20146    433.12753    18.219109    46.119581     20.45483    90.026492    109.07687    89.933775 
  275500    247.09963   -9716.5918   -8727.3957   -9716.5918            0    3870.4888    18.017865    45.706765    19.660946 -0.085045732    -6.640648   0.23181952    16191.542    4793.4564    4267.4969    2550.5131   -359.96865    710.29036   -30.701734    18.017865    45.706844    20.753427    89.325869    108.66162    90.106609 
  276000     254.5903   -9649.0953   -8629.9123   -9649.0953            0    3761.7608    18.240004    45.635563    19.516758   -1.1413163   -6.5398524   0.27251428     16245.61    3655.7907    4123.8172    3505.6743    1742.3684    -477.6312   -495.66966    18.240004    45.649833    20.585135    88.786545    108.52376    91.432632 
  276500    249.63619   -9677.2197   -8677.8692   -9677.2197            0    4431.7403    18.121352    46.151044    19.374875  -0.27980314   -6.4846722  0.094742738    16203.582    4971.7251    3505.5775    4817.9185   -89.398803   -636.63387   -188.61445    18.121352    46.151892    20.431489    89.624067    108.50493    90.347367 
  277000    250.54842   -9690.9639   -8687.9615   -9690.9639            0    4722.1626    17.954415    46.090416    19.522373   0.22026238   -6.5301999 0.0048360435     16155.28    6822.7094    4466.5676    2877.2109   -893.92959   -251.59731    1474.0395    17.954415    46.090942    20.585591    90.073398      108.495     89.72619 
  277500    248.66952   -9696.8903   -8701.4095   -9696.8903            0    4668.6924     18.24429    45.742953    19.386033  -0.62846209   -6.5966178  0.096360126    16178.569     4908.767     5093.732    4003.5782     631.0709    506.55206   -288.31924     18.24429     45.74727    20.477864    89.476853    108.79203    90.787137 
  278000    248.05423   -9692.6931   -8699.6755   -9692.6931            0    3453.6934    18.138372    45.680697    19.567701  -0.47908294   -6.5565392   0.32773411    16213.278    2856.7792    4437.3628    3066.9382   -121.78079    320.28203   -196.79343    18.138372    45.683209    20.639539     88.89931    108.52201    90.600876 
  278500    243.10846   -9672.2272   -8699.0086   -9672.2272            0    3488.3307    18.029704    46.319739    19.448104  0.070992419   -6.6077287  0.029073543    16241.718    4246.2529    3158.8774    3059.8619   -434.04236   -61.124463   -777.79699    18.029704    46.319793    20.540002     89.94715    108.76579    89.912185 
  279000     246.1094    -9687.888    -8702.656    -9687.888            0    3931.8311    18.122072    46.168861    19.325555   -0.1610552   -6.6235062  -0.15016237    16169.218    3309.4524    2876.6355    5609.4055    989.60753   -82.869172    884.95191    18.122072    46.169142    20.429647    90.356337    108.91775    90.199869 
  279500    242.00756   -9650.0357   -8681.2242   -9650.0357            0    5722.2617    18.169968    45.365219    19.597303   -0.3163893     -6.60841   0.22116556    16153.755    5378.3464    6202.9996     5585.439    634.60018    947.48739    610.55928    18.169968    45.366322    20.682705    89.259642    108.63353     90.39959 
  280000    253.41138   -9673.9397   -8659.4762   -9673.9397            0    4394.4321    18.194119    45.895123    19.396307   -0.4045136   -6.5863075   0.13931794     16196.33    3945.9449    3417.8676    5819.4837   -172.04163   -538.45126    4.0481738    18.194119    45.896906     20.48452    89.447967    108.75524    90.504984 
  280500    251.54305   -9676.9368   -8669.9526   -9676.9368            0    4247.2079    18.076594    46.130344    19.441367  -0.37849497   -6.5978472  -0.01012951    16211.758    4688.2649    4386.4055    3666.9533   -74.339205    404.20786    982.03656    18.076594    46.131897    20.530427    89.877196    108.74575    90.470096 
  281000    259.67489   -9700.1885   -8660.6507   -9700.1885            0    2781.8543    18.203949    45.959163    19.499762  0.035039755   -6.6633405   0.11356155    16314.247     3180.952    2680.1778    2484.4329   -614.29544    343.46702   -1319.8823    18.203949    45.959176    20.607128    89.698379    108.86572    89.956317 
  281500    251.43452   -9653.4019   -8646.8522   -9653.4019            0    3102.8314    18.345447    45.478647    19.585133  -0.56365116    -6.721455  0.076802236    16340.388    2300.4644    3185.7554    3822.2745    286.94388   -142.47211   -575.08427    18.345447     45.48214    20.706552     89.55701    108.94166    90.710073 
  282000    248.10543   -9678.5687   -8685.3461   -9678.5687            0    3282.7372    18.096071    46.085997    19.556668  -0.75320769   -6.5875074  0.060161548    16309.782    4137.8652     2674.197    3036.1494    845.62343   -350.83074    127.40717    18.096071    46.092151    20.636428    89.534102     108.6156    90.936332 
  282500    246.72408   -9657.2936   -8669.6009   -9657.2936            0    4297.2707    18.046397    46.475392    19.297523 -0.004433044   -6.5181233   0.19356405     16185.09    4447.3546    3045.6576    5398.7999   -452.45619   -260.18461   -460.68075    18.046397    46.475393    20.369531    89.453783    108.66255    90.005465 
  283000    253.16938   -9685.4287    -8671.934   -9685.4287            0    4461.8711    18.138659    45.667667    19.496999  -0.31800912   -6.5143175  0.042673603    16150.343    2978.3833     5025.454    5381.7759   -740.07274     189.0705   -121.60609    18.138659    45.668774    20.556534    89.754628    108.47541    90.398976 
  283500    236.10601   -9674.7804   -8729.5943   -9674.7804            0    5204.6924    18.121746    45.650077    19.513259  -0.38428852   -6.5383225  0.051057891    16142.521    3932.8376    5610.7993    6070.4403    334.19524     10.61281   -75.068754    18.121746    45.651695     20.57959     89.70462    108.52444    90.482312 
  284000    254.13475   -9687.0826   -8669.7233   -9687.0826            0    3901.3312    18.131281    46.201778    19.334138 -0.050508363   -6.5975633    0.2038689    16196.158    4073.0717    4240.4735    3390.4483   -529.53497    1013.7562   -312.59942    18.131281    46.201806    20.429838    89.408009    108.84067    90.062636 
  284500    262.96607   -9606.7813   -8554.0682   -9606.7813            0    4304.1099    18.009741    46.342503    19.451308  -0.42266048   -6.6232882 -0.040129417    16234.382    5871.3405    3542.7995    3498.1896    68.006905   -153.39866    289.84806    18.009741     46.34443    20.548064    89.943461    108.80398    90.522544 
  285000    251.74725   -9697.0591   -8689.2575   -9697.0591            0    4413.6213    18.238469    45.499553    19.558732  -0.15755238   -6.6364802  0.019729494    16230.661    3386.6874    5091.9033    4762.2732    542.52702    795.21477    925.07081    18.238469    45.499826    20.653989     89.88152     108.7426    90.198399 
  285500    244.44257   -9678.8372   -8700.2779   -9678.8372            0    3313.6985    18.252268    45.768424    19.528043 -0.011893141   -6.5379304   0.24169891    16313.289    3487.6591    4035.2897    2418.1467    -1854.665   -430.27289   -1037.3373    18.252268    45.768425     20.59484     89.32284    108.50907    90.014889 
  286000    246.89324    -9713.065   -8724.6951    -9713.065            0    3388.0541    18.038707    46.422695    19.412737   -0.6137446   -6.5132721  0.032346594     16256.33    3968.0504    2860.7616    3335.3502    1363.4275   -76.336119    995.92118    18.038707    46.426752    20.476281    89.668566    108.54737    90.757451 
  286500    265.94692   -9704.1413   -8639.4951   -9704.1413            0    2712.9715    18.196687     46.07807    19.434055  0.049630421   -6.7257114  0.088731083    16294.837    3697.2392    2235.3432    2206.3323   -591.95861   -129.45822    173.31165    18.196687    46.078097    20.565154    89.772972    109.08946    89.938287 
  287000    252.34803   -9730.0262   -8719.8195   -9730.0262            0    4268.9211    18.144492    45.645151    19.549645 0.0092317874   -6.7032969  0.059423591    16191.174    4015.9538    4774.9501    4015.8594    112.67783    505.29095     1388.827    18.144492    45.645152    20.667035    89.839017    108.92604    89.988412 
  287500    257.93195   -9681.2735   -8648.7132   -9681.2735            0    4015.3753    18.145126      45.9931    19.352159  -0.96624835   -6.5003969   0.13723022    16150.356    4153.2502    3621.5149    4271.3607     1519.595   -417.17356   -219.12418    18.145126    46.003249    20.415192    89.231736    108.56678    91.203524 
  288000    244.47629   -9730.5273    -8751.833   -9730.5273            0    4657.4702    18.019388    46.138864    19.388422  -0.47934962    -6.233259   0.26019488     16119.42    4554.3389    4711.1545    4706.9171      687.324    190.09881   -1226.9428    18.019388    46.141354    20.367429     89.08588    107.82078    90.595241 
  288500    240.34618   -9714.7659   -8752.6054   -9714.7659            0    3422.5573    18.122363    45.826559    19.517983   0.34261893   -6.4192564 -0.033555072    16209.403    3802.0374    3560.1411    2905.4934   -1822.9039   -276.86351    561.10023    18.122363    45.827839    20.546524    90.227398    108.20546     89.57164 
  289000    258.19983   -9651.1799   -8617.5472   -9651.1799            0    3613.5683    18.196281    45.894946    19.503023  -0.27878436   -6.6959236 0.0021836769    16287.313    3775.8247    3981.9567    3082.9237   -282.21549    748.29532   -331.92457    18.196281    45.895792    20.620459    89.880919    108.94875    90.348033 
  289500    255.26235   -9748.7082   -8726.8348   -9748.7082            0    3927.3564    18.140249    46.006407    19.425035  -0.72707543    -6.711075   0.35525375    16211.507    2837.4032    4165.2627    4779.4031    100.53149   -208.28331   -466.99538    18.140249    46.012152    20.554725    88.714151    109.05635    90.905415 
  290000    257.71823   -9690.8897   -8659.1849   -9690.8897            0    4433.5982    18.071464    46.010243    19.466336  -0.32772386   -6.5662064  0.080766575    16185.721    4342.7242    4467.4298    4490.6406    132.89745     162.4126   -24.643832    18.071464     46.01141    20.544094    89.644318    108.63966    90.408102 
  290500    247.19213   -9665.9806   -8676.4142   -9665.9806            0    3697.1589    18.165452    45.890467    19.442968   0.49639135   -6.4661459  -0.22985459    16208.068    3547.7596    4243.9437    3299.7735   -325.09801     -235.621    141.49556    18.165452    45.893152    20.491288    90.838248    108.39437    89.380263 
  291000     256.3955   -9670.9745   -8644.5649   -9670.9745            0     4173.235    18.088323    45.911206    19.547419  -0.22238717   -6.4815138   0.15080857    16233.285    3091.1841    5450.6421    3977.8786   -278.28785    914.70489    -424.2572    18.088323    45.911745    20.594522    89.493091    108.34393     90.27753 
  291500    249.29025   -9640.0798   -8642.1142   -9640.0798            0    4345.8187    18.149581     45.91626    19.417726  -0.85483888   -6.6100546   0.27781923    16181.973    3955.0635    4712.4779    4369.9147    248.53282   -121.57499   -753.14823    18.149581    45.924217    20.513851    88.880451    108.79747    91.066572 
  292000     252.6594   -9723.0389   -8711.5858   -9723.0389            0    3987.6047    18.219085    45.717795    19.438228 -0.073720593   -6.7231535  0.076405119    16190.807    3827.8396    4225.5018    3909.4727   -238.28127    107.32823    896.26805    18.219085    45.717854    20.568212    89.756962    109.07897     90.09239 
  292500    246.52339   -9701.0464   -8714.1571   -9701.0464            0    3300.3419    18.055617    45.906255    19.579521   0.14863858   -6.5613775  -0.07628319    16228.794     3756.681    3356.2944    2788.0504   -81.534339   -185.07762    -234.4433    18.055617    45.906495    20.649821    90.270605    108.52661    89.814484 
  293000    243.60121   -9744.8807   -8769.6895   -9744.8807            0    3067.2803    18.169211    46.193383    19.329324   -0.7320945   -6.4952179   0.25484521     16223.05    3461.4113     2187.655    3552.7746    1118.3995   -1460.7828   -933.42243    18.169211    46.199183    20.393028    88.994852    108.57235    90.907975 
  293500    254.87665   -9685.3414   -8665.0121   -9685.3414            0    3946.7642    18.153613    45.897706     19.48749  -0.93463492   -6.6479227   0.35773891    16237.156    3509.2576    4466.3205    3864.7146    688.11109    227.41874   -14.853994    18.153613    45.907221    20.593327    88.628189    108.83351    91.166578 
  294000    261.02085   -9695.3507   -8650.4247   -9695.3507            0    3492.9989    18.145292    45.769806    19.555931  -0.12675745   -6.7033782 -0.027169386    16241.328    3560.7318    3844.1144    3074.1503     -229.196    613.18467    918.54156    18.145292    45.769981     20.67294    90.023848    108.92066    90.158678 
  294500    254.67963   -9674.0634   -8654.5228   -9674.0634            0    4351.6024    18.151032      46.0006    19.403157    0.1096927   -6.6345483   0.05375539    16200.828    4970.7901    3658.0606    4425.9564    99.890411    122.54724    1268.4675    18.151032    46.000731    20.506161    89.894008     108.8771    89.863373 
  295000    248.90057    -9655.151   -8658.7453    -9655.151            0    4406.6422    18.042885    46.101942    19.479513  -0.66855688   -6.4945922   0.19753484    16203.293    5008.5498    4314.4186    3896.9582   -304.42835   -2.6781937   -494.97541    18.042885    46.106789    20.534609    89.186106    108.43783    90.830828 
  295500    248.61415   -9676.3762   -8681.1171   -9676.3762            0    3893.9179     18.13549    46.063574    19.375186   -0.5135231   -6.3827832   0.18489382    16185.749    3588.4488    2601.8255    5491.4793   -55.916869   -539.44639    -767.5062     18.13549    46.066436    20.400293     89.28089     108.2327    90.638715 
  296000    241.81616   -9660.5382    -8692.493   -9660.5382            0     3293.522    18.160888    45.910528     19.50804   0.92772623   -6.4370012 -0.045277484    16265.335    2768.8812    3027.2535    4084.4313   -1612.9745    344.14606    739.27667    18.160888    45.919901    20.542654    90.488982    108.26112    88.842367 
  296500    250.01202   -9727.4109   -8726.5558   -9727.4109            0    4656.7101    18.090975    45.700538    19.535903 -0.010551602   -6.6000143  -0.10256197    16151.646    4244.4356    5042.3596    4683.3352    410.49986    565.49784     1169.163    18.090975    45.700539    20.620917    90.280738     108.6668    90.013229 
  297000    248.05018   -9718.9734    -8725.972   -9718.9734            0    3378.2238    18.127389    45.995693    19.433078  -0.83411677   -6.7155674   0.27332022    16202.947    3017.5427    3269.9101    3847.2187    729.98036    479.02607   -895.68953    18.127389    46.003255     20.56254    88.899187    109.06207    91.038926 
  297500    259.73274   -9658.8493     -8619.08   -9658.8493            0    4590.0567      18.1321    46.060997    19.400281  -0.34000215   -6.5220799   0.18906597    16202.777    3737.5817    5462.4984      4570.09    334.30501    432.25893   -532.40044      18.1321    46.062252    20.468126    89.335991    108.58104    90.422925 
  298000    253.52445   -9697.8062     -8682.89   -9697.8062            0    4881.1849    18.097976    45.927741    19.467826   0.01002732   -6.3700701  -0.15790047     16181.64    4696.9571     4718.757    5227.8405    -108.8345   -631.18575    -526.2609    18.097976    45.927742    20.484115    90.445555    108.11806    89.987491 
  298500    250.21498    -9701.192   -8699.5244    -9701.192            0     4009.804    18.143426    45.885081    19.427095 -0.060592846   -6.6042424   0.23707305    16173.301    3318.2914     4832.189    3878.9315   -302.31051     383.6004   -540.70581    18.143426    45.885121    20.520338    89.313691    108.77417    90.075661 
  299000     247.0171   -9661.3632   -8672.4974   -9661.3632            0    4679.6418    18.122392    45.996892    19.421842  -0.66756269   -6.8459301   0.18516102    16189.537     5177.124    4738.5419    4123.2595    274.78213    539.11726    45.426195    18.122392    46.001736    20.593907    89.208482    109.41603    90.831487 
  299500    247.54687   -9653.7756    -8662.789   -9653.7756            0     4359.464     18.11336    45.938906    19.463298  -0.36256894   -6.7197751 -0.015399883    16195.565    5658.9509    3550.8643    3868.5767    958.61558   -390.83856    2651.8901     18.11336    45.940337    20.590667    89.895279    109.04742    90.452193 
  300000    251.08071   -9749.0336   -8743.9003   -9749.0336            0    3956.9693    18.196986    45.772402    19.442806   0.54305632   -6.4284299  0.090181041    16194.297    2362.3801    4278.0608     5230.467   -994.20532    299.70617    276.42551    18.196986    45.775623    20.478172    89.961077     108.2954    89.320259 
  300500    260.23599   -9705.3826   -8663.5986   -9705.3826            0    3688.9116    18.069497    45.973181    19.466446  -0.55845406   -6.3149409 -0.043499173    16171.015    3172.2545    3287.5104    4606.9698    1191.4918   -876.94765    1444.9045    18.069497    45.976573    20.465163    89.907027    107.97309     90.69596 
  301000    252.43248   -9714.6348   -8704.0901   -9714.6348            0     4617.753    18.029283    46.076042    19.431181  -0.79366242    -6.561382   0.22474716    16141.832    5682.3239    3871.9136    4299.0215    1500.9955   -869.89642   -951.72598    18.029283    46.082877    20.510315    89.056541    108.65727    90.986825 
  301500    251.74854   -9708.0277    -8700.221   -9708.0277            0    4346.5278    18.124058     45.92584    19.444506  -0.17904936   -6.7173194   0.16299414     16184.88    3838.7367    4949.1013    4251.7454   -385.56482    927.55644   -377.21297    18.124058    45.926189    20.572743    89.473116    109.05742    90.223376 
  302000    248.01839   -9674.8195   -8681.9453   -9674.8195            0    4500.3112    18.156884    45.805727    19.465688  -0.19310154   -6.5865654 -0.064500917    16189.404    5034.6353    4047.4765    4418.8217   -273.02255   -556.14514    221.36023    18.156884    45.806134    20.549939    90.102419    108.69408    90.241538 
  302500    249.78498    -9760.962   -8761.0157    -9760.962            0    3426.8649    18.160062    45.879392    19.472142  -0.19749263   -6.4511831   0.16745447    16223.656     4435.823    3218.0143    2626.7574    1271.9992   -111.66901    1343.2112    18.160062    45.879817    20.513657    89.454725    108.32957    90.246634 
  303000    258.77943   -9704.6901    -8668.737   -9704.6901            0    2280.0645     18.10549     46.38778    19.504744  -0.70792899   -6.4816118   0.29064196    16381.517    2572.5855    2053.9529    2213.6549    597.64053   -222.51747   -183.23245     18.10549    46.393181    20.555554    88.914221    108.38023    90.874329 
  303500    245.67118   -9693.7787    -8710.301   -9693.7787            0    2186.0707    18.209235    46.225112    19.430836  -0.40824911   -6.7300624 -0.0033476786      16355.4    482.13463     2386.802    3689.2756    850.92859    10.272483     441.3678    18.209235    46.226914    20.563345     89.84372    109.10403    90.506009 
  304000    246.13414   -9731.3227   -8745.9917   -9731.3227            0    2460.4972    18.179027    45.924429    19.542465   0.22899462   -6.7173695 -0.034115209     16315.25    2094.6742    3241.9473    2044.8702   -467.41523    262.79162   -424.90542    18.179027       45.925    20.664756    90.187456    108.96946    89.714306 
  304500    247.65145   -9665.5017   -8674.0965   -9665.5017            0    4064.1272    18.130274    46.072823    19.468023  -0.35332702   -6.5860081  0.082093462     16261.89    5042.2787    3937.3856    3212.7174    149.98789    918.23139    1285.1986    18.130274    46.074177    20.552035    89.630339    108.69046    90.439386 
  305000    242.72445   -9680.6562   -8708.9749   -9680.6562            0    3980.7864    18.106862    46.139306    19.387769  -0.63107778   -6.4355592    0.2319321     16197.28    3994.6642    3766.7743    4180.9206     750.8912   -297.95996   -1048.4725    18.106862    46.143622    20.429288    89.102703     108.3618    90.783623 
  305500    256.39423   -9720.8843   -8694.4798   -9720.8843            0    4342.9365    18.130867    45.537526    19.560874  0.046295285   -6.5448348   0.11823066    16150.139    4141.4391    5684.2027    3203.1678   -446.13673    518.77947    193.80201    18.130867     45.53755    20.627085    89.690072    108.49931    89.941751 
  306000    259.38236   -9707.9389   -8669.5722   -9707.9389            0     4213.716    18.192253    45.837895     19.40586 -0.059658452    -6.666382  -0.23073528    16182.441    3142.7762    4508.2633    4990.1087    235.52068    663.92921    1053.2858    18.192253    45.837934    20.520265    90.620035    108.95759    90.074571 
  306500    259.97089   -9683.7973   -8643.0746   -9683.7973            0    3750.4019    18.057335    46.339278    19.424337  -0.32952417   -6.7269606   0.24307816    16253.583    5592.4199    2818.7264    2840.0594   -516.37915   -373.70364   -1765.8122    18.057335     46.34045    20.557625    89.189191    109.10041     90.40743 
  307000    254.71592   -9670.5411   -8650.8552   -9670.5411            0    3386.0949    18.167351    45.939486    19.499449   -0.6324958   -6.7117903   0.18915419    16274.216    2452.4708    4248.2194    3457.5945    834.09163    940.33742     860.3704    18.167351     45.94384    20.623104    89.217804    108.99284      90.7888 
  307500    252.73409    -9708.198   -8696.4459    -9708.198            0    3494.2176    18.291956    45.588471    19.479857  -0.39212837   -6.5768162  0.029840092    16244.297    3677.5946    3029.3266    3775.7316    1041.0397   -613.05129    1090.6659    18.291956    45.590157    20.560161    89.759205    108.65576    90.492816 
  308000    250.32813   -9709.4215    -8707.301   -9709.4215            0      3027.86    18.045071    46.155707    19.508722   0.28503285   -6.4781616   0.15605348    16248.483    4163.9788    3046.9736    1872.6277   -708.14084    156.68475   -686.73364    18.045071    46.156587    20.556779    89.676556    108.36897    89.646177 
  308500    257.95406   -9730.5222   -8697.8733   -9730.5222            0    3407.3295    18.121341    46.355346    19.324245  -0.41040444    -6.552203  0.020872587    16232.772    2558.2538    2970.5113    4693.2233    265.86063   -75.595128     484.4788    18.121341    46.357163    20.404858    89.778511    108.73006    90.507252 
  309000    250.53653   -9667.6129    -8664.658   -9667.6129            0    4876.3024    18.164068    45.672866    19.553219  -0.62959507   -6.6928893   0.15059856    16221.449     6160.709    4560.6708    3907.5273    883.78802    299.77795    1101.0394    18.164068    45.677205    20.667506    89.326779    108.89509    90.789766 
  309500    259.79595   -9657.5794   -8617.5571   -9657.5794            0    4554.6897    18.173381    45.736589    19.509923  0.063531429   -6.6825947   0.26494141    16216.422    3435.8283    5651.6765    4576.5643   -325.89545    485.46741   -1806.8197    18.173381    45.736633    20.624363    89.289746    108.90589    89.920412 
  310000     259.3751   -9721.9469   -8683.6092   -9721.9469            0    4566.4557    18.057422    46.346524    19.301799  -0.22310016   -6.5375945  -0.24089305    16153.651     5810.206    3630.2785    4258.8825    1071.0504   -415.85565    2012.2314    18.057422    46.347061    20.380325     90.58876    108.71008    90.275805 
  310500    251.11642   -9623.1547   -8617.8784   -9623.1547            0    5233.7125    18.058073    45.972456    19.495143   -0.1186707   -6.5303264   0.11746154     16184.36    6442.6112     5016.849    4241.6774    190.31365    357.10133    698.20489    18.058073    45.972609    20.560145    89.625688    108.51909      90.1479 
  311000    248.98156    -9661.545   -8664.8151    -9661.545            0    4659.7995    18.189394    45.670686     19.50551  -0.44273861    -6.547927   0.16852683    16203.658    5347.9632    4576.5721     4054.863    87.849635    90.191346   -775.05858    18.189394    45.672832    20.575924    89.353979    108.55606    90.555417 
  311500    245.82594   -9680.0632    -8695.966   -9680.0632            0    4467.0849     18.10724    46.072352    19.421735  -0.33353836   -6.5498268 0.0023003099    16202.449    4284.3216    4273.3333    4843.5999   -228.40148    187.90521    -288.5483     18.10724    46.073559    20.496439    89.861023    108.63627    90.414783 
  312000     243.3199   -9681.2536   -8707.1886   -9681.2536            0    3823.8785    18.054794    46.335331    19.443651   0.14032494   -6.6005416   0.13374133     16266.07    4159.6812    3561.9392     3750.015   -737.87222    1069.0938   -923.84424    18.054794    46.335544    20.533889    89.682598    108.75041    89.826482 
  312500    247.00075   -9698.4022   -8709.6019   -9698.4022            0    2949.9986     18.37389    45.461773    19.503022  -0.77506756   -6.9024753   0.10045047    16291.062    1978.0892    4027.9951    2843.9116    912.55925    244.84314    301.50018     18.37389    45.468379    20.688696    89.395984    109.48956    90.976728 
  313000    256.68648   -9714.0352   -8686.4608   -9714.0352            0    3369.5616    18.236147    45.621716    19.554871   -0.4691553   -6.7968933   0.22150457    16268.955    3564.8522    3815.4573    2728.3754   -147.56496   -328.44042   -722.83116    18.236147    45.624129    20.703618    89.193584    109.16532    90.589186 
  313500    243.11964   -9678.2387   -8704.9753   -9678.2387            0    3156.0183    18.098122    46.312272     19.38321  0.096762382   -6.5430589   0.06166436    16246.331    3346.7016    3234.1934    2887.1601   -492.67169   -66.183649    973.09868    18.098122    46.312373    20.457865    89.865586     108.6527    89.880289 
  314000    249.52125   -9669.9761   -8671.0856   -9669.9761            0    2281.9678    18.102192    46.352692    19.460988  -0.36213261   -6.4598361  -0.01975158    16329.429    2887.6135    2130.9082    1827.3816    332.32591   -194.67289    629.09339    18.102192    46.354106    20.505119    89.914175    108.36294    90.447617 
  314500    250.40619   -9687.9279   -8685.4949   -9687.9279            0    2334.2679    18.176792    45.817364    19.604314  -0.42237616   -6.5363665   0.31074871    16326.722    3444.5279    3092.8292    465.44671   -360.83907    41.020336    -128.8085    18.176792     45.81931    20.667603    88.971468    108.43698    90.528177 
  315000    241.93942   -9674.0703   -8705.5317   -9674.0703            0    3622.1101    18.205375    46.005125    19.404414  -0.31269384   -6.6158704  0.070040241    16251.983    4125.2733     3799.696    2941.3611    512.55708   -93.032909    439.61817    18.205375    46.006188    20.501364     89.67859    108.82653     90.38943 
  315500    253.51467   -9645.4965   -8630.6195   -9645.4965            0    3931.3008    18.037424    46.287467    19.464826  -0.07399705   -6.6457213 -0.026675674    16251.314    4634.4157    3615.0926    3544.3942     447.9351    775.65065    74.677692    18.037424    46.287526    20.568077    90.044714    108.85102    90.091595 
  316000    255.48922   -9694.4641   -8671.6825   -9694.4641            0    3935.9801    18.186702    45.826047    19.407716 -0.035768475   -6.6480324   0.25400199     16174.87    3483.4295    4797.5352    3526.9755   -99.228426    48.429736   -693.05113    18.186702    45.826061    20.516343    89.276141    108.90718    90.044721 
  316500    257.65659   -9682.5964   -8651.1384   -9682.5964            0     3827.801    18.169826     45.64197    19.549959    -0.681405   -6.5494946   0.18011789     16212.91    4083.2465    4482.5938    2917.5627    1217.2932    273.71667   -520.59892    18.169826    45.647056    20.618662    89.227832     108.5208    90.855325 
  317000    251.72267   -9735.8668   -8728.1636   -9735.8668            0    3335.5504    18.006906    46.187198    19.484039  -0.11522748   -6.3826015  0.067699934    16204.651    3465.8326    3026.2494    3514.5692    360.42604   -684.91068   -2.3934824    18.006906    46.187342    20.502925    89.766314    108.13771    90.142941 
  317500    232.80634   -9671.3351   -8739.3582   -9671.3351            0    4753.6145    18.145273    46.307347    19.245936   0.12621787   -6.5060461 0.0032358258    16171.579    3894.3558    4468.4471    5898.0405    590.66996    20.582805   -487.55885    18.145273    46.307519    20.315873    90.040886    108.67771    89.843832 
  318000    243.48821   -9673.1559   -8698.4171   -9673.1559            0     4278.092    18.115631    45.657327      19.6106   -0.7406587   -6.7637013   0.14307324    16220.149     5303.924    4196.9239     3333.428      356.707    295.67506    243.38066    18.115631    45.663334    20.744729    89.301869    109.02886    90.929378 
  318500    241.73496   -9671.3067   -8703.5866   -9671.3067            0    4099.4402    18.258602    45.677256     19.41395  -0.49484559   -6.8007431   0.22691529    16191.289    2394.1185    4623.2058    5280.9963    276.84859    85.685083   -734.70467    18.258602    45.679937    20.571899    89.162828    109.30423    90.620691 
  319000    250.07915   -9630.4822   -8629.3584   -9630.4822            0    4026.7133    18.051112    46.379191    19.378232  0.082540115   -6.4839221  0.004932047    16223.378    3716.4711    4175.8408    4187.8281    559.09431   -714.41273    562.35101    18.051112    46.379264    20.434215    90.018526    108.50015    89.898032 
  319500    257.47937   -9722.5045   -8691.7559   -9722.5045            0    3874.1771    18.054354    46.103536    19.498788 -0.067540064   -6.4949597 -0.036586028    16230.198    5061.0432    2765.4725    3796.0156    494.56879   -445.21213    1044.3376    18.054354    46.103585    20.552094     90.07547    108.42266    90.083936 
  320000    248.37937    -9698.658   -8704.3388    -9698.658            0    3773.3393    18.312837    45.673735    19.394733  -0.49777242   -6.7198311   0.30184166    16222.058    2034.5687     4426.164    4859.2851    316.37364    107.65842    96.733948    18.312837    45.676447    20.528101    88.953129    109.10788     90.62441 
  320500    243.77362   -9723.0197   -8747.1384   -9723.0197            0    3314.1291    18.038454    46.014101    19.564768  -0.43465411   -6.7347327  0.058736664    16239.213    3774.9169    3593.8216    2573.6488   -485.14519    951.27281   -382.54982    18.038454    46.016154     20.69155    89.661211     108.9948    90.541206 
  321000     251.1035   -9712.1905    -8706.966   -9712.1905            0     3818.649    18.135864    46.131062    19.368545   0.18471102   -6.6132665 -0.014075621    16204.241      3050.79    4221.7892     4183.368   -882.22493    994.33794    462.35402    18.135864    46.131432    20.466461    90.113534    108.85214    89.770586 
  321500    244.37529   -9686.7094   -8708.4194   -9686.7094            0    3558.1569    18.132509     45.87602    19.500448  -0.21837057   -6.4360586   0.13170765    16221.395    3152.9172    3546.4616    3975.0921    159.27773   -295.62064   -1353.5169    18.132509     45.87654    20.535522    89.547049    108.26491    90.272727 
  322000    243.40806   -9657.6617   -8683.2438   -9657.6617            0    4707.2192    18.112438    45.720061    19.567977  -0.77937871   -6.5452282   0.11303135    16204.277    3514.9645    5844.4506    4762.2425    1205.4224    33.089381    1263.9587    18.112438    45.726704    20.633916    89.376397    108.49412    90.976613 
  322500    252.62782   -9706.7257   -8695.3989   -9706.7257            0    4209.2905    18.127628    46.217244     19.29023  -0.14119757   -6.8139901   0.12920085    16161.529     5037.964    3625.0201    3964.8873   -533.74622    286.61701   -731.93357    18.127628     46.21746    20.458742    89.579864    109.45462    90.175043 
  323000    266.23412   -9712.7491   -8646.9533   -9712.7491            0    4335.2957    18.000772    46.205145    19.432907   0.23722773   -6.7514014  0.075288355    16162.898    4612.2629    4316.7904    4076.8338    349.01096     483.5897    1059.5951    18.000772    46.205754    20.572432    89.886857    109.15817    89.705833 
  323500    257.62793   -9694.0317   -8662.6884   -9694.0317            0    3794.8325    18.140578    45.627835    19.574925  -0.62408969   -6.4477681  0.023006166    16202.464    2469.7206    4389.4302    4525.3467    629.13179   -199.04647    21.416862    18.140578    45.632103     20.60951    89.690891    108.23131    90.783633 
  324000    243.21952   -9689.6148   -8715.9517   -9689.6148            0     4694.027    18.203192    45.781892    19.399973  -0.56997725   -6.4464387   0.17185457    16167.484    4402.3221    4718.0568     4961.702    527.23653   -421.76361    134.49599    18.203192     45.78544    20.443705    89.293465    108.38052    90.713286 
  324500    251.16945   -9670.1893   -8664.7008   -9670.1893            0    2872.4634     18.07131    46.222211    19.507059 -0.094506943   -6.6928424   0.15774017    16294.166    3853.8653    2703.0246    2060.5004   -541.73918     198.6346   -1031.1122     18.07131    46.222308    20.623878    89.523756    108.93644    90.117148 
  325000      249.024   -9647.8315   -8650.9317   -9647.8315            0    2942.5246    18.202639    46.276201    19.371762  -0.12796931   -6.7772908 -0.074389807    16317.784    2199.4631    2757.2825    3870.8284    224.46721    735.27407    1024.8525    18.202639    46.276378    20.523216    90.155356    109.28247    90.158442 
  325500    252.95011   -9662.9786   -8650.3617   -9662.9786            0    2170.9914    18.197654    45.980499    19.597502  -0.31933751   -6.5224893  0.097276348    16397.959    2535.3344    2044.2111    1933.4288    280.41105    106.09469   -38.401637    18.197654    45.981608    20.654646    89.604504    108.40839    90.397916 
  326000    251.43385    -9705.256    -8698.709    -9705.256            0    4286.9523    18.137822    45.763519    19.556943  -0.32478311   -6.4640923   0.20826064    16233.251    4125.3095    4380.3681    4355.1794    1045.7045    541.40994    510.48602    18.137822    45.764671    20.598589     89.29311    108.28913    90.406621 
  326500    246.23694    -9667.057   -8681.3145    -9667.057            0    4250.8922    18.106385    46.062318    19.429606  -0.31962663   -6.5945954  0.080839753     16204.72    3612.3404    4659.0946    4481.2418    33.666556    938.83698    228.80204    18.106385    46.063427    20.518402    89.646488    108.74756    90.397569 
  327000    250.79514    -9644.446   -8640.4559    -9644.446            0    4962.6728    18.121132    45.871655    19.422972  -0.19023364   -6.7009198 -0.020727218    16145.274    3889.0602    5674.9859    5323.9723   -208.18867    1009.4059   -769.47521    18.121132     45.87205    20.546401    89.980307    109.03441    90.237609 
  327500     260.5598   -9735.3133   -8692.2331   -9735.3133            0    4725.7508    18.152309    45.432883     19.54154 -0.037666067   -6.6253675   0.23131007    16116.137    4518.9433    4584.5213    5073.7878   -326.41712   -771.99113   -976.21761    18.152309    45.432899    20.635425    89.342485     108.7275    90.047501 
  328000    251.42698   -9702.1911   -8695.6716   -9702.1911            0     4676.619    18.252639    45.721308    19.340937  -0.80679631   -6.5214676  0.083876197     16140.68    3271.9364      4755.41    6002.5106    1361.6291   -787.46737    1436.9111    18.252639    45.728426    20.410988    89.441594    108.63315    91.010934 
  328500    265.43651   -9678.8171   -8616.2142   -9678.8171            0    5287.5274    17.938058    46.263921    19.442348  -0.43610776   -6.4927134   0.17243851    16134.911    5334.9055    5051.9834    5475.6934     173.0313    186.96214   -112.63136    17.938058    46.265976    20.498536    89.346958    108.46591    90.540084 
  329000    249.06621   -9677.7548    -8680.686   -9677.7548            0    5302.3868    18.124241    45.956693    19.388571   0.22242403   -6.6653657   0.11116099    16149.326    6090.1018    5259.0698    4557.9889   -1432.3651    541.84803   -1281.1314    18.124241    45.957231    20.502588    89.779507    108.97156    89.722699 
  329500    245.26309   -9671.0839   -8689.2398   -9671.0839            0    4756.1571    18.271337    45.560723    19.451689   -0.3413943   -6.6525402 -0.0095831008    16192.662    4087.6609    5565.8467    4614.9638   -457.50044    245.56983   -91.091326    18.271337    45.562002    20.557836    89.887781    108.88085    90.429319 
  330000    256.43377   -9658.2702   -8631.7073   -9658.2702            0     3824.558    18.056608    46.030787    19.502177  -0.42989434   -6.5832119   0.17379502    16209.427       3992.9    4100.6042    3380.1697     217.2392    -282.4192    721.08042    18.056608    46.032795    20.584066    89.345119    108.65209    90.535086 
  330500     250.9312   -9672.2583   -8667.7235   -9672.2583            0    4001.9851    18.126708    46.559944    19.222074  -0.22150506   -6.6462305   0.14228946    16223.018    2782.1288    3298.3704     5925.456    173.79166   -79.781103    681.30614    18.126708    46.560471    20.339144    89.510096    109.07287    90.272578 
  331000    244.12135   -9693.0629   -8715.7895   -9693.0629            0    4606.0688    18.172983    45.608302    19.533415   0.17643402   -6.6678739  -0.14662919    16190.055    4661.1243    4729.4524    4427.6295      343.238     -246.219    543.12407    18.172983    45.608644    20.640648    90.478628    108.84722    89.778355 
  331500    255.10888   -9687.2302   -8665.9712   -9687.2302            0    5450.2506    18.204671    45.412378    19.554118   -0.1106892    -6.629217   0.11936956    16165.729    5178.9443    6416.8653    4754.9423   -376.08561    521.41082   -232.11545    18.204671    45.412513    20.647622    89.623918    108.72731    90.139654 
  332000    251.76825   -9653.9443   -8646.0586   -9653.9443            0    4265.2086    18.119477    46.259162     19.33379  -0.72650758   -6.5555274   0.21489606    16205.425    3957.0929    4442.8974    4395.6356     118.3743    242.00155   -1173.8494    18.119477    46.264867    20.416086    89.108054    108.72923    90.899765 
  332500    260.45752     -9666.24   -8623.5692     -9666.24            0    3292.4691    18.050733    46.192164    19.519281  -0.34592269   -6.5314555  0.099717063    16275.224    3243.6656    3482.6928     3151.049   -124.81384   -293.74759   -428.09492    18.050733     46.19346    20.583299    89.586282    108.50082    90.429067 
  333000    249.47218   -9716.5662   -8717.8723   -9716.5662            0    3320.9703    18.217585    45.714649    19.476015   0.55966896   -6.5941996  0.073381547    16219.829    2927.0735    3209.5605    3826.2769   -1045.8775    380.21782    203.28061    18.217585    45.718074    20.562198    90.020476    108.70498    89.298582 
  333500    260.88223   -9692.4305   -8648.0595   -9692.4305            0    2792.4902     18.18622    46.032931    19.482044  -0.56183393   -6.6355111 -0.00040193624    16309.685    1436.7392    2779.5019    4161.2295    837.95853   -17.965438    251.69829     18.18622    46.036359     20.58106    89.775676    108.80865    90.699263 
  334000    243.98454    -9686.587   -8709.8613    -9686.587            0    3021.2484    18.095844    46.219895    19.461506  -0.48258761   -6.6408339   0.23715295     16277.37    2591.7605    3322.7978     3149.187     539.5601   -361.51475   -276.00252    18.095844    46.222414    20.564706    89.146094    108.83984    90.598211 
  334500     256.5574   -9683.9965   -8656.9388   -9683.9965            0    4317.5551    18.199919    45.953007    19.407737   0.14842022   -6.5824497   0.08970904    16231.486    3903.7671    4788.9222    4259.9759    627.80565    576.06254     1223.246    18.199919    45.953246    20.493827    89.808634    108.73502    89.814945 
  335000    254.21918   -9740.8908   -8723.1935   -9740.8908            0     3722.192    18.114766    45.576568    19.625549  -0.17536299   -6.4635678  -0.21462546    16203.027    4072.3126    4449.9428    2644.3206    355.11386   -395.58407    1735.9206    18.114766    45.576906    20.663638    90.526155      108.228    90.220453 
  335500    255.62647   -9657.9704   -8634.6393   -9657.9704            0    3844.2404    18.082079    46.154605     19.42954  -0.18980676   -6.4733864   0.26551687    16215.335     4749.776    3526.5619    3256.3835   -114.69024   -322.78931   -1031.1199    18.082079    46.154995    20.481266    89.182731    108.42505    90.235623 
  336000    251.20264   -9637.0012   -8631.3798   -9637.0012            0    3692.0281    18.138162    46.174309    19.372413  -0.32373709   -6.5871744    0.2080269    16224.727    3587.9013    4081.0788    3407.1041   -789.48393   -212.41288   -930.76483    18.138162    46.175444    20.462759    89.288208     108.7785    90.401705 
  336500    246.32681   -9646.1274   -8660.0251   -9646.1274            0    3785.1611    18.110252     45.69538    19.620089  -0.32939319   -6.6868414  -0.14406187      16236.7    3852.3109    4208.2967    3294.8757    144.12891    244.62177     1422.531    18.110252    45.696568    20.728784    90.264958    108.81946    90.413007 
  337000    251.43691   -9680.9498   -8674.3906   -9680.9498            0    3903.0746    18.129819    46.223797    19.353216   0.43425801    -6.619608   0.11690225    16218.558    3877.1708    4043.4073    3788.6458   -1775.3028   -75.104275   -500.27511    18.129819    46.225837    20.454336    89.846747    108.88251     89.46174 
  337500    253.62514   -9680.1612   -8664.8419   -9680.1612            0    3987.8954    18.017947    46.366255    19.361516  -0.36042158   -6.3993147   0.19330575    16175.089    5374.3699    2834.0548    3755.2613   -311.87309   -697.92896   -411.15442    18.017947    46.367655     20.39257    89.317122    108.28876    90.445372 
  338000    245.71831   -9689.3613   -8705.6949   -9689.3613            0    3554.3309     18.11821    45.801623    19.573136  -0.67595095   -6.4739265   0.16181634    16242.638    3638.7633    3707.1643     3317.065   -398.71186    232.82681   -304.70302     18.11821     45.80661    20.616633    89.284829    108.30134    90.845523 
  338500    256.55402   -9707.9698   -8680.9255   -9707.9698            0    3416.6787    18.258638    45.636146    19.509871  -0.04268864   -6.6865909   0.10367686    16256.675    3137.2725    3041.6358    4071.1277   -600.16108    238.71775   -269.31741    18.258638    45.636166    20.624168    89.694599    108.91781    90.053595 
  339000    253.66168   -9688.5071   -8673.0416   -9688.5071            0    3185.5635    18.126776    46.218402    19.415574 -0.081775536   -6.7138168 -0.052131985    16266.186    2692.1799    3256.7301    3607.7806    220.11201     1157.354   -34.540261    18.126776    46.218474    20.543674    90.112265    109.07509    90.101375 
  339500     245.5901   -9654.1647   -8671.0116   -9654.1647            0    3424.5944    18.147894    46.095392    19.446523  -0.39920495   -6.5395208   0.22755592    16267.683    3324.2803    3455.4196    3494.0833    270.62448   -157.39062   -286.16947    18.147894    46.097121    20.517904    89.206408    108.58569    90.496192 
  340000    252.31901   -9658.9148   -8648.8243   -9658.9148            0    3350.3882    18.261661    45.496845    19.630244  -0.41098551   -6.3935191   0.36265476    16309.748    2688.6129    4093.9429    3268.6088   -458.58642   -22.055119    -1689.333    18.261661    45.498701    20.648367    88.833402    108.03742    90.517554 
  340500    266.53419   -9653.6178   -8586.6207   -9653.6178            0    3931.1258    18.187898    45.983167     19.48034  -0.26822312   -6.5261859  -0.21918232    16292.132     4593.415    3691.4848    3508.4777    940.87542   -11.407215    2560.0855    18.187898    45.983949    20.545627    90.505074    108.52048    90.334207 
  341000    255.83245   -9710.2153   -8686.0597   -9710.2153            0    3410.0491    18.098016    46.206896    19.398875   0.03338702   -6.6384357  0.050861191    16222.371    3442.8637    3072.6109    3714.6726   -458.02376   -420.31362    391.90018    18.098016    46.206908     20.50336    89.871274    108.89126    89.958601 
  341500    239.28526    -9729.711   -8771.7976    -9729.711            0    4214.7983    18.104372    45.832944    19.462356  -0.37745784   -6.6014532   0.15027835     16149.41    4437.4464    4562.8164     3644.132   -381.75476   -129.18947    145.16828    18.104372    45.834498    20.552009    89.429493    108.73595     90.47185 
  342000    246.90042   -9657.8044   -8669.4058   -9657.8044            0    4389.8645    18.204288    45.682186    19.445736  -0.72086915   -6.4848587   0.10591243    16171.301    3727.7799    4930.5837      4511.23    151.18964   -213.36577   -1112.2197    18.204288    45.687873    20.498811    89.418004    108.44251    90.904058 
  342500    248.93894   -9659.3733    -8662.814   -9659.3733            0    5285.3832    18.065031    46.120338    19.412977   0.28333664   -6.4488707  0.077074496     16174.22    4616.2051    5795.6546      5444.29   -732.15493    191.66192    905.58358    18.065031    46.121208    20.456235    89.895091    108.37603    89.648012 
  343000    248.73126   -9667.7974   -8672.0695   -9667.7974            0    4757.0427    18.042071    46.313878    19.358314   -0.2095228   -6.6227697 -0.014450651    16175.773    5441.9986    4501.1111    4328.0183   -160.04218    146.63579     1463.867    18.042071    46.314352    20.459854    89.956565    108.88658    90.259203 
  343500    251.79522   -9734.8236     -8726.83   -9734.8236            0    3737.2078    18.247321    45.719727    19.470411  -0.82372694   -6.7538675   0.24645213    16243.434    3216.5726    3179.3156    4815.7353    161.37407    -153.0276   -79.396614    18.247321    45.727147    20.610006    88.976695    109.12914     91.03218 
  344000    252.35968   -9707.8937   -8697.6404   -9707.8937            0    2979.7284    18.236516    45.638628    19.542744  -0.32884787   -6.6814011   0.19835248    16265.222    3039.3309    3356.6396    2543.2148   -276.21728   -356.85103   -1008.1188    18.236516    45.639813     20.65428    89.316214    108.87396    90.412836 
  344500     238.9718   -9718.6733   -8762.0147   -9718.6733            0    3686.2328    18.147753    46.061273    19.403283   0.19950734   -6.5197698  -0.11092727    16219.372    3849.5455    2967.9345    4241.2184    133.58759    252.39487    857.68999    18.147753    46.061706    20.469663    90.389535    108.57277    89.751834 
  345000    244.18132   -9706.3736   -8728.8601   -9706.3736            0    3428.1983    18.064138     46.14493    19.424256  -0.21603974   -6.3828806  0.054782894    16191.446    4340.8592    2752.9633    3190.7724    151.90303    348.69791   -64.267429    18.064138    46.145435    20.446171    89.762744    108.19064    90.268243 
  345500     248.0144   -9691.4675   -8698.6093   -9691.4675            0    3922.7045     18.17851    45.682648    19.466958  -0.90542574   -6.4623702   0.26301399    16166.188    3680.7093    4742.3122    3345.0919    670.82438   -203.51655   -464.42091     18.17851     45.69162     20.51326     88.90777    108.36285    91.135448 
  346000    242.77089    -9671.587   -8699.7198    -9671.587            0    4699.2404    18.136356    45.805187    19.478879 -0.076710868   -6.7051894    0.1775031    16181.868    4618.8783    4716.6795    4762.1635    422.13105    227.91926   -232.05068    18.136356    45.805251    20.601403    89.475099     108.9942    90.095954 
  346500    234.97345    -9707.678   -8767.0258    -9707.678            0    3729.3914    18.084223    46.269011    19.374074   0.34076412   -6.8077652  -0.13358384    16211.045    5048.0533    3184.4451    2955.6759   -1773.7921    310.40221    953.95405    18.084223    46.270265     20.53578    90.512586     109.3603    89.578033 
  347000     259.6103   -9753.4453   -8714.1661   -9753.4453            0    3864.6415    18.141733    46.005258    19.431032   -0.5151351   -6.6375713  0.014471533    16217.433    3964.6365    3435.5663    4193.7216    1081.9376   -18.666726    770.11737    18.141733    46.008142     20.53345    89.752246    108.85998    90.641532 
  347500    250.03496   -9642.1026   -8641.1557   -9642.1026            0     3997.796    18.177182     45.90974    19.487411  -0.38377774    -6.524935   0.25863972    16262.433    3720.1865    4102.8464     4170.355    303.65284    337.29498   -1152.5367    18.177182    45.911344    20.552393    89.126904    108.51048    90.478947 
  348000    239.46381   -9687.9639   -8729.3357   -9687.9639            0    2982.0332    18.218005    46.027844    19.475992 -0.076101989   -6.4945582 0.00024336359     16331.31    1614.6712    3147.9327    4183.4956   -112.14908    7.7058568    360.93806    18.218005    46.027907    20.530308    89.969353    108.44173    90.094732 
  348500    240.44846   -9664.9952   -8702.4252   -9664.9952            0    3539.3803    18.132502     46.03833    19.522391   0.10179536     -6.70093 -0.056931948    16297.099    3369.6263    4751.4713    2497.0432    223.68884     765.6939    226.31646    18.132502    46.038442    20.640481    90.199166    108.94437    89.873313 
  349000    244.61395   -9736.4362   -8757.1908   -9736.4362            0    3628.2655    18.169014    46.034867    19.377437   -0.6058448   -6.8580321    0.2315807    16207.446    4598.4571    3164.2508    3122.0887   -320.59967    -440.4764   -107.09117    18.169014    46.038853    20.556539     89.10301    109.48852    90.754001 
  349500    260.98519   -9701.5999   -8656.8167   -9701.5999            0    4740.4944    18.154922    45.672147    19.483228  -0.78775803   -6.6018891   0.28287469    16154.992    3986.4218    5621.9455    4613.1161    298.85643    9.1390363   -1267.8303    18.154922    45.678941    20.573311    88.895179    108.71711    90.988146 
  350000    262.27877   -9712.1756   -8662.2139   -9712.1756            0    5379.9224     18.08433    45.883918    19.421822 -0.017089024   -6.3397839  0.092036023    16115.838    6275.8509    4258.1281    5605.7883   -1144.8176   -1103.6554   -1424.0561     18.08433    45.883921    20.430577     89.73527    108.07783    90.021339 
  350500    258.14388   -9657.7382   -8624.3294   -9657.7382            0    4634.7111    18.037328    46.246267    19.378996  0.047112995   -6.4651541 -0.049543288    16165.166    4223.9076    5066.4155    4613.8101   -774.80777    63.887961    701.12345    18.037328    46.246291    20.429052    90.157422     108.4495     89.94163 
  351000    251.48758   -9685.6165   -8678.8544   -9685.6165            0    5748.3315     18.07853    45.775391    19.452905  -0.50706996   -6.8179063   0.15013628    16098.286    3987.0148    6187.7183    7070.2616   -516.86072    512.66339   -26.331449     18.07853    45.778199    20.613634      89.3728    109.31415    90.634659 
  351500    257.51001   -9712.5278   -8681.6566   -9712.5278            0    4739.8937    18.176235    45.751792    19.422212  -0.49721198   -6.7805223    0.2268615     16151.42     4441.942    5262.4722    4515.2668    880.25969   -438.12151   -866.51928    18.176235    45.754494    20.573022    89.162991    109.24348    90.622643 
  352000    248.28975   -9658.8908   -8664.9303   -9658.8908            0     4337.038     18.06952    46.193589    19.359527   -0.1096224   -6.4104468 -0.0046137681    16159.319    5176.1483    2820.2313    5014.7344    125.47698   -811.63981   -375.86513     18.06952    46.193719    20.393262    89.970222    108.32106    90.135969 
  352500    247.36246   -9719.3777   -8729.1294   -9719.3777            0    4844.9606    18.053711    45.866939    19.463023  0.044178268    -6.390158  0.054212099    16116.716    4510.8606    5019.2769    5004.7442   -632.78853    86.838073    175.82727    18.053711     45.86696    20.485271    89.865588    108.17613    89.944814 
  353000    239.64729   -9653.4675   -8694.1048   -9653.4675            0     4868.503    18.229393    45.503342    19.502511  -0.49454737    -6.778499   0.17371935      16177.3    4168.3255    5375.7695    5061.4139     815.6701    447.38314    58.591097    18.229393     45.50603    20.647668    89.313533    109.16524    90.622687 
  353500     239.8327   -9739.6193   -8779.5143   -9739.6193            0    3425.0749    18.064269    46.076061      19.5034  -0.79454101   -6.9648345   0.10604929    16233.272     3408.849    2736.1451    4130.2307    604.88548    351.47592    276.84467    18.064269    46.082911    20.709968    89.374414    109.65182    90.987917 
  354000    244.98594   -9674.7718   -8694.0373   -9674.7718            0    3290.6781    18.115152    46.647176     19.23762   0.23029782   -6.6268827  0.075039115    16256.187    2812.0937    3093.4985    3966.4422   -911.47568    233.27915    296.06254    18.115152    46.647745    20.347168    89.880826    109.00742    89.717132 
  354500    250.84461   -9662.9602   -8658.7721   -9662.9602            0    3492.2016    18.148941    45.985507    19.484897 -0.0037666828   -6.4537927 -0.019278141    16261.866    3120.7909    3754.1717    3601.6422   -133.85949   -401.62148   -161.25136    18.148941    45.985507    20.525911    90.052337    108.32591    90.004693 
  355000    252.49125   -9667.7938   -8657.0138   -9667.7938            0    4048.3785    18.182463    45.782077    19.489644  -0.20895105   -6.5491586   0.11861299    16223.783    4981.2208    3730.0143    3433.9003   -265.51723   -331.65844   -634.44078    18.182463    45.782554    20.560928    89.586176    108.57371    90.261498 
  355500    244.58128    -9703.787   -8724.6724    -9703.787            0    3525.2481    18.133407    46.124518    19.446754  -0.28516175   -6.7473036   0.25102534    16265.162    3105.3313    3799.2288    3671.1841    337.69385    362.98505   -981.97969    18.133407      46.1254    20.585562    89.185205     109.1334    90.354223 
  356000    252.88329   -9723.3448   -8710.9954   -9723.3448            0    1857.8529    18.112131    46.383725    19.472683  -0.56927115    -6.774451 -0.042387602    16359.159    2226.1135    1496.4702    1850.9749     1266.443    531.04255    1108.5846    18.112131    46.387218    20.617477    89.886749    109.18249     90.70316 
  356500    243.99823   -9698.2391   -8721.4585   -9698.2391            0    2630.0865    18.270395    45.722584    19.505884  0.087655324   -6.5975995  0.045945495    16294.624    1592.8573    2491.1954    3806.2068   -1058.3769   -1380.5391    489.28686    18.270395    45.722668    20.591502    89.907351    108.68736    89.890158 
  357000    257.35587    -9706.459   -8676.2048    -9706.459            0      3888.48    18.093788    45.806929    19.545943  -0.12941319    -6.465108   0.10097709    16200.085    3744.8105    4345.0029    3575.6265   -313.08487    788.60893   -791.56792    18.093788    45.807112    20.587659    89.668146    108.30216    90.161871 
  357500    261.15484   -9649.6621   -8604.1998   -9649.6621            0    3780.5012    17.994246    46.450934    19.376292  -0.55011242   -6.4238823  0.028549407    16195.665    3233.7888    3527.5438    4580.1709   -170.49652   -693.18664    222.98634    17.994246    46.454191    20.413422    89.706356    108.34205    90.678515 
  358000    248.74933   -9678.1839   -8682.3836   -9678.1839            0    4627.7348    18.138684    45.811713    19.419357  0.024083295   -6.6679612   0.15998255    16136.791    4359.3938    5419.0529    4104.7578   -757.36684    458.04388   -419.87335    18.138684     45.81172     20.53287    89.563355    108.95017     89.96988 
  358500    259.29495   -9703.5468     -8665.53   -9703.5468            0    5308.9349    18.157533    45.452699    19.525435  -0.19909377   -6.7515837   0.02052492    16114.515    4922.0106    6015.0738    4989.7204   -226.67121    713.60475    294.13399    18.157533    45.453135     20.65979    89.861063    109.07456    90.250968 
  359000    252.05203   -9724.5588   -8715.5371   -9724.5588            0    4152.6491    18.091698    46.100364    19.371446  -0.78961813   -6.6305721  0.079428316    16156.442    2866.4088    4167.1401    5424.3985   -90.948897    306.52871   -762.85509    18.091698    46.107126    20.474954    89.459997     108.8952     90.98128 
  359500    249.09518   -9656.3611   -8659.1763   -9656.3611            0    4268.0326    17.993441    46.373982    19.375002  -0.13360595   -6.4321706   0.31440793    16167.034    4155.2624      3827.67    4821.1654   -611.89035   -299.81824   -1162.6112    17.993441    46.374174    20.417208    89.065652    108.36303    90.165072 
  360000    255.82736   -9662.0158   -8637.8806   -9662.0158            0    4264.4035    18.235481    45.784018     19.44669  -0.12464234   -6.4945199 -0.082025208    16235.917     3056.868    4962.6028    4773.7398     770.9764   -91.637521    593.64871    18.235481    45.784187    20.502665    90.179814    108.46738    90.155982 
  360500    249.20613   -9695.5377   -8697.9087   -9695.5377            0    3014.4211    18.166019    45.661773    19.589485  -0.21658067   -6.6476372  0.043867762    16249.334    3916.9019    3060.8828    2065.4785    791.49762   -129.68793   -303.05349    18.166019    45.662286    20.686733    89.791172    108.74446     90.27176 
  361000    256.09861   -9708.0341    -8682.813   -9708.0341            0    4128.5166    18.078597    46.262518    19.365971  -0.53577167   -6.7385549   0.27453907    16196.951    4948.8642    3362.6688    4074.0167   -672.44328   -153.41369   -1247.0599    18.078597     46.26562     20.50669     89.01491    109.18399     90.66352 
  361500    253.19627   -9704.1909   -8690.5886   -9704.1909            0    3250.1965    18.181599     46.31176    19.326441  -0.36665277   -6.6054264  0.082679927    16273.286     2477.011    3074.6785       4198.9    -294.9705    1007.4783    388.99091    18.181599    46.313211    20.424246    89.621365    108.86934    90.453604 
  362000    243.57774   -9656.8892    -8681.792   -9656.8892            0    3126.7791    18.131262    45.606044    19.689403   0.28880776   -6.4395489 -0.019344801    16281.072    3414.1392    4056.8123    1909.3859   -815.17928   -462.46461    774.85805    18.131262    45.606959    20.715713    90.166289    108.11067     89.63717 
  362500    252.63694   -9681.3475   -8669.9843   -9681.3475            0    4266.2046    18.246151    45.839104    19.408521  -0.27756692   -6.5558436   0.10290517    16233.039    3901.3049    4502.8656    4394.4434    340.16602    483.78836    715.32477    18.246151    45.839945    20.486102    89.601172    108.66378    90.346936 
  363000    238.61776   -9702.2907   -8747.0494   -9702.2907            0    3602.0888    18.090487    46.012086    19.406199  -0.48645542   -6.6901598   0.16808008    16153.353    3794.1705    3285.5537    3726.5424    62.257298    81.917594    443.34849    18.090487    46.014657    20.527715    89.333467    109.02063    90.605728 
  363500    254.07195   -9653.6886   -8636.5807   -9653.6886            0    4757.8343    18.059829    45.979149    19.517795    -0.122083   -6.7374886    0.1359299      16207.1    4468.3683    4772.9794    5032.1551   -927.54557     458.1321   -355.89829    18.059829    45.979311    20.648403    89.573176     109.0441     90.15213 
  364000    248.05148   -9659.7593   -8666.7527   -9659.7593            0    3818.0522    18.262532    45.815733    19.441675  0.022117488   -6.5284113  0.085562228    16267.069    3939.0498    3562.3072    3952.7995   -488.46578   -643.39704    410.29282    18.262532    45.815738    20.508686    89.769766    108.56161    89.972341 
  364500    253.90386   -9662.4946   -8646.0596   -9662.4946            0    3600.5378    18.094837    45.835842    19.622022  -0.44822406   -6.3174789   0.20601159     16274.35    4249.3012    2830.5994    3721.7129    -503.7923   -553.14221    247.32188    18.094837    45.838034    20.614964    89.255739    107.84549    90.560272 
  365000    253.52239   -9697.3837   -8682.4758   -9697.3837            0    5054.0807    18.114869    46.002855    19.376782   -0.3820188   -6.6193716   0.19257234    16147.365    5349.2414    5141.0667    4671.9338   -47.372983    631.93545   -367.43407    18.114869    46.004441     20.47713    89.307377       108.86    90.475787 
  365500    251.09374   -9687.2048   -8682.0193   -9687.2048            0    5122.0887    18.104925    45.955085    19.357819 -0.072153226   -6.8019871 -0.052319444    16105.964    5133.6763    5653.1424    4579.4474   -1213.5845    1362.9844    919.81902    18.104925    45.955141    20.518161    90.116277    109.36049    90.089959 
  366000    256.45929   -9694.4948   -8667.8298   -9694.4948            0    3676.0742    18.093113    45.802309    19.511286  -0.19734631   -6.6044188  0.096138143    16169.127    3924.1307    4400.9511    2703.1408    462.46783    394.97922    -805.9803    18.093113    45.802735    20.598977    89.653444    108.70035    90.246866 
  366500    254.64242     -9703.32   -8683.9284     -9703.32            0    4190.8003    18.189937    45.901313    19.367496   -0.4229389   -6.3865828   0.10219988    16170.735    3316.8884    4432.6107    4822.9017    124.48917   -694.71383    -475.1646    18.189937    45.903261    20.393597    89.547555    108.25014    90.527914 
  367000    240.75571   -9645.0366   -8681.2366   -9645.0366            0    4073.0649    18.033366    45.974483    19.574707  -0.19193642   -6.3491896  0.031732347    16228.894    4901.1322    3573.0107    3745.0518    146.24165    -717.2001    655.37778    18.033366    45.974884    20.578687     89.83785     107.9708      90.2392 
  367500    254.53175   -9688.7726    -8669.824   -9688.7726            0    2322.0661    18.116493    46.204575      19.4949   0.39113344   -6.7431708 -0.013429403    16318.495    3234.4269    1997.3654     1734.406   -937.28334    -271.8266    572.25803    18.116493    46.206231    20.628176    90.195844     109.0802    89.514988 
  368000    250.53556   -9664.9618   -8662.0108   -9664.9618            0    4343.6596    18.235269    46.152214    19.308665  -0.37974987   -6.9596997  0.099153953    16250.135    3514.7631    4187.5715    5328.6441   -56.322269    537.28468    746.68257    18.235269    46.153777    20.524907    89.563361    109.82117    90.471431 
  368500    248.78867    -9693.856   -8697.8982    -9693.856            0     4820.669    18.068556    45.752231    19.535376    -0.551941   -6.6392401   0.32622294    16149.441    4674.5964    5078.0827    4709.3279   -512.33421    -492.0478   -664.91384    18.068556     45.75556     20.63533    88.871836    108.76827    90.691165 
  369000    249.09322    -9678.777   -8681.6001    -9678.777            0    4233.8528    18.166053    45.958948    19.409589  -0.33292081   -6.4051326  0.035697715    16204.924    4586.5363    4380.9597    3734.0624   -442.04182    303.94507   -340.17168    18.166053    45.960154    20.439157    89.769872    108.26278    90.415036 
  369500    245.25545   -9652.7636   -8670.9501   -9652.7636            0    3530.4786    18.089572    46.120744    19.477138  0.076626811   -6.4234929 -0.030596494    16249.865    2857.7333    3927.7587    3805.9439   -481.64985   -83.829983    129.32324    18.089572    46.120808     20.50905    90.115292    108.25236    89.904807 
  370000    257.03431   -9660.7179    -8631.751   -9660.7179            0    3518.1443    18.203746    46.058858     19.47154  -0.27022304   -6.6720798   0.12213212    16325.791    3886.8032    2721.3111    3946.3187    178.98842    308.24306   -873.92245    18.203746    46.059651    20.583305    89.551073    108.91409    90.336145 
  370500    244.81782   -9697.1602   -8717.0987   -9697.1602            0    2851.9134    18.208721    45.895097     19.49487  -0.55889071   -6.8633256   0.23824432    16291.688    1739.2652    3427.9658    3388.5092    113.88513    265.93672   -609.31685    18.208721      45.8985    20.669106    89.107921    109.39369    90.697689 
  371000    249.33866   -9703.5006   -8705.3411   -9703.5006            0    2381.3066    18.087474    46.292549    19.483511  0.019024031   -6.7290863  0.062087983    16313.842    3875.7869    1413.0753    1855.0576   -995.69703   -1041.5389   -103.14766    18.087474    46.292553    20.612901    89.835106    109.05346    89.976454 
  371500    256.12545   -9731.2992   -8705.9706   -9731.2992            0     4154.956    18.131995    46.061233    19.419481  0.029341046   -6.4306457 -0.058695602    16218.802    4664.6379     3786.491    4013.7391   -969.47607    128.43198   -154.75315    18.131995    46.061243     20.45661    90.175871     108.3219    89.963503 
  372000    246.07406   -9652.5375   -8667.4469   -9652.5375            0    4550.6731    18.149568    45.810401    19.478612  -0.56252077   -6.4534438   0.14500845    16195.278    3805.7121    4976.8592    4869.4481    244.88673   -1121.4858   -615.43386    18.149568    45.813855    20.520339    89.373889    108.33004    90.703518 
  372500    251.79422   -9721.0316    -8713.042   -9721.0316            0    3206.4732     18.11184    46.028122    19.457576  -0.34282366    -6.703792   0.26375384    16220.886    2995.3556    3572.0968    3051.9672   -245.48785   -161.74435   -13.140072     18.11184    46.029399    20.581731     89.12675    109.00894    90.426739 
  373000    240.17809   -9731.0423   -8769.5547   -9731.0423            0    4245.3947    18.153565    46.175731    19.352293  0.089032446    -6.946205 -0.069517567    16222.139    4957.0548    3199.6548    4579.4746    537.54079   -478.42016    1045.2973    18.153565    46.175817     20.56127    90.231038    109.74469    89.889527 
  373500    247.94465   -9693.1381   -8700.5592   -9693.1381            0    3765.1666    18.152497    45.807419    19.532047   0.17994545   -6.6809957 -0.066385369    16241.269    4538.5351    4474.1329    2282.8318   -694.97343    479.21963   -241.57903    18.152497    45.807772    20.643182    90.257097    108.88331    89.774926 
  374000    255.41481   -9677.9448   -8655.4611   -9677.9448            0    3877.2163    18.199772    45.668041    19.523908  -0.67704754   -6.2400995   0.29371451    16227.256    2991.1853    4254.2468    4386.2167     363.6844   -1106.7524   -1592.5745    18.199772    45.673059    20.498978     88.92053    107.72269    90.849371 
  374500    255.46387    -9655.711   -8633.0309    -9655.711            0     3803.375    18.080382    46.168886    19.409847  -0.65128253   -6.4223507   0.14021158    16202.391    3632.2121    3588.2676    4189.6452    172.65878   -796.18717   -928.74047    18.080382    46.173479    20.445254    89.353232    108.30796    90.808191 
  375000    257.31092   -9675.6635   -8645.5893   -9675.6635            0    4369.8887    18.059609    46.165807    19.408903 -0.017269168   -6.7665033  0.037804986     16181.91     4339.373    4013.5913    4756.7018   -151.46256   -370.72519   -386.21607    18.059609    46.165811    20.554623    89.887563    109.21999    90.021433 
  375500    256.75506   -9736.6503   -8708.8013   -9736.6503            0    4463.7689    18.141891    45.660734     19.47963 -0.056910728   -6.9423141  0.042073812    16136.382    4547.1311    5020.9445    3823.2312    549.40106    1009.9539    460.33931    18.141891     45.66077    20.679784    89.859456    109.61544    90.071412 
  376000    245.32527   -9630.9322   -8648.8393   -9630.9322            0    5276.9631    18.206616    45.625006     19.43392  -0.77538683   -6.5731823   0.18490833    16143.309    5166.9903    5183.9639     5479.935    743.65406   -334.04912   -235.91789    18.206616    45.631594     20.51629    89.171726    108.68642    90.973635 
  376500    253.58811   -9647.9426   -8632.7716   -9647.9426            0    5196.3258    18.000177    46.111437     19.49334  -0.42496492   -6.1943072   0.21526202    16179.746    7174.9004    5220.8057    3193.2712   -354.39669    185.97047   -1104.1548    18.000177    46.113395    20.454977    89.237142    107.62744    90.528025 
  377000    243.50428   -9719.9566   -8745.1535   -9719.9566            0    4094.6429    18.096481    46.097702    19.389094    0.1465966    -6.432478 0.0075519995    16174.502    4821.4091    3873.9553    3588.5645   -739.24862   -351.32977    1404.2187    18.096481    46.097935    20.428259    90.036192    108.35365    89.817793 
  377500    247.19982   -9696.1873   -8706.5901   -9696.1873            0    4413.4329    18.159699    45.730804    19.548797 -0.069499621   -6.8677058 -0.028938568    16234.448    4318.0134     4222.809    4699.4763     519.1188    216.18048    761.26654    18.159699    45.730857     20.72008     90.05116    109.35691    90.087075 
  378000    241.95499   -9646.7731   -8678.1721   -9646.7731            0    2652.2688    18.245169    45.896353    19.449197  -0.53464499   -6.8598245   0.20595061    16286.499    2628.3177    3024.3716     2304.117    334.93173    63.897634    269.07776    18.245169    45.899467    20.624521    89.205896    109.42698    90.667406 
  378500    245.10641   -9718.4527   -8737.2359   -9718.4527            0     3490.935    18.045648    46.388365    19.431427  -0.32111118   -6.3443091   0.18133707    16266.205     3042.834    3226.5564    4203.4144   -589.63198   -440.74289    -1493.908    18.045648    46.389477     20.44171    89.368641    108.08099    90.396609 
  379000    250.38068   -9693.3816   -8691.0507   -9693.3816            0    3202.9212    18.079028    46.231623    19.498109   0.15282515   -6.2324184 -0.024977325    16296.964    3506.3572    2733.5348    3368.8715   -660.71153   -920.01167    67.206186    18.079028    46.231875    20.469976    90.127577    107.72606    89.810601 
  379500     253.8655   -9697.1773   -8680.8959   -9697.1773            0    3643.4623    18.217397    45.771395    19.460662 -0.098380402   -6.5714064  0.097321322    16226.994    2424.4921     3456.783    5049.1117   -88.437739   -529.83406   -541.12791    18.217397    45.771501    20.540453    89.689131    108.65839    90.123151 
  380000     243.5873   -9694.9758   -8719.8403   -9694.9758            0    3807.8419     18.18931    45.872881    19.458139  -0.45256117    -6.750952  0.086115116    16235.794    3585.4366    4394.5142    3443.5748   -1013.8608     505.3945   -1032.1219     18.18931    45.875113    20.596163    89.575179    109.13391    90.565236 
  380500    247.23872   -9684.0096   -8694.2567   -9684.0096            0    3732.4595    18.149499     46.15268    19.362553  -0.29834178   -6.8190125   0.03405278    16219.004    4475.1871    2891.8693    3830.3221    -178.0984   -16.659543     360.9045    18.149499    46.153644    20.528238    89.781931    109.40098    90.370368 
  381000     247.4013   -9721.2145   -8730.8107   -9721.2145            0    4169.0164    18.086905     45.85942    19.476518    0.1879733   -6.5246828   0.22439295    16154.894    4153.7754    4684.7166    3668.5572   -1223.5488    216.22196    391.72324    18.086905    45.859805    20.541582    89.448702    108.51983    89.765151 
  381500    260.22939   -9667.6858   -8625.9282   -9667.6858            0    3391.6136    18.199796    45.810377    19.537542  -0.69540455    -6.218595 -0.0081414929    16289.221    2936.7976    4000.8364    3237.2068    975.94671   -540.39496   -284.01134    18.199796    45.815655     20.50333    89.758985    107.65573    90.869687 
  382000    247.80159   -9697.9123   -8705.9061   -9697.9123            0    3385.9343    18.119608    46.164724    19.483546  -0.13434705   -6.3170163  0.093273627    16297.727    3591.6306      3527.03    3039.1422   -13.690732    76.627864     223.6994    18.119608    46.164919    20.482235    89.687657     107.9637     90.16674 
  382500    250.65266   -9625.4316   -8622.0119   -9625.4316            0    3337.1614     18.09214    46.363269    19.483434  0.040640125   -6.6385271   0.10340586    16342.914    3825.7489    2963.7388    3221.9965   -159.99121   -433.23208   -103.47851     18.09214    46.363287    20.583609     89.72836     108.8151    89.949777 
  383000    252.17566   -9679.7271   -8670.2105   -9679.7271            0    3357.7516    18.148786    45.957044    19.460708  -0.47761689   -6.7861994 -0.019499865    16231.487    3456.7635    3308.7238    3307.7674    314.95563    -647.8323    739.47534    18.148786    45.959526    20.609998    89.858153    109.22431    90.595435 
  383500    260.65197   -9679.0711   -8635.6219   -9679.0711            0    4431.3389    18.194815    45.755503    19.471015  -0.20576392   -6.5707896   0.27713858    16209.871    5325.3566    4375.0165    3593.6434    -730.0542    197.34128   -441.12859    18.194815    45.755965    20.551703    89.144967    108.64599    90.257659 
  384000    248.09196   -9711.1313   -8717.9627   -9711.1313            0    4920.7447     18.03871    45.789465    19.502244  -0.32236439   -6.0516965   0.10744585     16108.52    4312.2164    5284.2085    5165.8093    38.194841   -1213.1999    239.81339     18.03871    45.790599    20.419895    89.578982    107.23927    90.403364 
  384500    252.68174   -9698.4672   -8686.9246   -9698.4672            0    4444.9434    18.083588    46.189087    19.370949  -0.36742813   -6.1701177  -0.07986046    16179.865    4025.8554    4244.6646    5064.3101    832.83971    -571.5885    2338.9139    18.083588    46.190548    20.330037    90.086738     107.6678    90.455771 
  385000    239.74947   -9691.3408   -8731.5691   -9691.3408            0    3873.2613    18.135993    46.185542    19.404088   0.10151373   -6.7253523   0.25042724    16253.266    4658.2763    3174.7809    3786.7269   -532.04427   -197.40863   -367.44128    18.135993    46.185654    20.538056    89.342599    109.11456    89.874067 
  385500    244.31572   -9717.5406   -8739.4891   -9717.5406            0    3872.5436    18.170576    45.798648     19.51488  -0.37438814   -6.7897936  0.072305831    16240.045    4169.7358    4055.1528    3392.7421    37.757851    131.40336   -237.35119    18.170576    45.800178    20.662455      89.6456    109.18415    90.468363 
  386000    246.38967   -9699.4267   -8713.0727   -9699.4267            0    3473.1782    18.230324    45.969814    19.430207  -0.22537583   -6.5699407  0.066315404     16283.38    2301.8191    3543.2429    4574.4727    451.27106   -425.60281    612.85826    18.230324    45.970367    20.511008    89.724779    108.68185    90.280901 
  386500    247.33029   -9657.0303   -8666.9108   -9657.0303            0    3844.8628    18.064535    46.061865     19.57764 -0.054753972   -6.2950735   0.22598264    16290.284    4065.4079    3840.2818    3628.8988    240.27223    41.710984    -496.7033    18.064535    46.061897    20.566065    89.349566    107.82377    90.068108 
  387000    247.73283   -9683.0499    -8691.319   -9683.0499            0    4079.3287    18.218344    46.040839      19.3539  -0.64065737   -6.4670054  0.068894436    16233.817    2911.1247    4491.2552    4835.6064    404.79135    288.40189    336.59972    18.218344    46.045297     20.40589    89.553927    108.47667    90.797218 
  387500    251.50109   -9698.6481   -8691.8319   -9698.6481            0    4300.9959    18.078315    45.827084    19.503593  -0.17130304   -6.8186779    0.1853662    16158.268    4495.2061    4327.4355     4080.346    502.38133   -30.886591    207.07767    18.078315    45.827404    20.662015    89.415294     109.2694    90.214172 
  388000    245.75216   -9727.5481   -8743.7462   -9727.5481            0    3961.3851    18.178361    45.671024    19.461544  -0.15082535   -6.8082249 0.0053022798    16157.449    3231.0134    4831.8986    3821.2432   -548.38385    164.06078    801.03788    18.178361    45.671273    20.618042    89.922786    109.28135    90.189215 
  388500    242.86152   -9721.9545   -8749.7245   -9721.9545            0    3667.7873    18.180535    46.089122    19.348006   -0.2827196   -6.5002386  0.067191922    16212.176    3322.4692    3194.5323    4486.3604    229.66003    189.20081    276.08049    18.180535    46.089989    20.410853    89.699458     108.5704    90.351459 
  389000     245.1343   -9685.1551   -8703.8266   -9685.1551            0    3816.7142    17.981166    46.077722    19.551204    -0.167679   -6.3223011   0.26817991    16198.782    4925.6952    2915.8754    3608.5719   -684.78933    344.31849   -1474.4882    17.981166    46.078027    20.549769    89.188106    107.91815    90.208501 
  389500    244.06444   -9694.1304   -8717.0848   -9694.1304            0    4240.2135    18.263384    45.708711    19.348358  -0.38350227   -6.5310774 -0.055182465    16151.927    3519.8797    4356.8983    4843.8624    508.89703    616.26339    453.19823    18.263384     45.71032    20.420994    90.001083    108.65214    90.480708 
  390000    247.09912   -9714.6993   -8725.5052   -9714.6993            0    5076.3902    18.042888    45.646753    19.549491  -0.13944364   -6.7708084    0.1233433    16100.946    5789.1555    5396.7362    4043.2788    487.43928   -50.990996   -363.10061    18.042888    45.646966    20.689168    89.601136    109.10276    90.175029 
  390500    259.22008    -9689.258    -8651.541    -9689.258            0    4643.9399    18.115243    46.194439    19.387274  -0.21327906    -6.811099   0.20715265    16223.726    5061.0691    4441.0092    4429.7414   -234.02975    721.95062    218.29516    18.115243    46.194932    20.549948    89.334748    109.35627    90.264532 
  391000    250.25966   -9648.6502   -8646.8037   -9648.6502            0    3367.9778    18.187596    46.146466    19.404064  -0.39351609   -6.6080305   0.11055319    16285.701    3020.0383     2584.173    4499.7223   -438.08058   -360.48187    -143.3725    18.187596    46.148144    20.498683    89.533501    108.80593    90.488581 
  391500    257.13205    -9619.299   -8589.9408    -9619.299            0    3618.8007    18.205515    45.737186    19.598321  0.014353068    -6.491997  0.081912171    16318.915    3417.5344    3786.5323    3652.3355    103.14802     540.7655   -639.11919    18.205515    45.737188    20.645748    89.778332    108.32744     89.98202 
  392000    237.54787   -9735.9626   -8785.0043   -9735.9626            0    3579.4936    18.134864    46.007888    19.415736 -0.056119396   -6.5238147  0.068791735    16199.457    2878.9936    3169.9683     4689.519   -643.16036   -310.62412    191.40784    18.134864    46.007923     20.48257    89.785309    108.57258    90.069888 
  392500    240.94535   -9697.7082   -8733.1491   -9697.7082            0    3153.0347    18.003731    46.690983    19.343588  -0.88663159   -6.7160732  0.078697051    16260.451    2838.2593    2587.6271    4033.2179    394.51539    264.75114    1429.5728    18.003731    46.699401     20.47648    89.423034     109.1468    91.087879 
  393000    247.82658   -9692.9787   -8700.8725   -9692.9787            0    3696.4438    18.123471     46.08206    19.467752  -0.44930603   -6.7816073   0.38172161    16258.821    4704.6867     4023.432    2361.2128    615.43842    553.48444   -703.46735    18.123471    46.084251    20.618663    88.755481     109.2024    90.558624 
  393500    259.00676   -9667.1623   -8630.2992   -9667.1623            0     3987.741    18.297648    45.541606     19.52883  0.020239151   -6.6948226  0.057349552    16273.457    3781.2074    4430.8114    3751.2042   -576.14359   -220.98562   -1082.5758    18.297648    45.541611    20.644591    89.849093    108.92253    89.974537 
  394000     245.0576   -9698.8939   -8717.8724   -9698.8939            0    3279.7258    18.088742    46.047198    19.470357  -0.17276536   -6.5317592  0.017794072    16217.559    3379.4017    3455.7299    3004.0459    51.902438   -299.50671   -635.09292    18.088742    46.047522    20.536772    89.881986    108.54515    90.214968 
  394500    245.53059   -9690.6243   -8707.7093   -9690.6243            0    3526.0539    18.103857    46.273303     19.35177  -0.36314619    -6.486091   0.23512749    16211.467    3483.0813    3097.4703      3997.61    107.13661    622.03623   -666.04408    18.103857    46.274727    20.411165    89.197091    108.52822     90.44964 
  395000    251.12999   -9684.7581   -8679.4275   -9684.7581            0    5205.3195    18.145214    45.574461    19.491127  -0.38743767   -6.5691356   0.26705988     16118.35    4605.6948    5354.5891    5655.6746    602.92359    163.61953    145.73563    18.145214    45.576108    20.570097    89.100577    108.62384    90.487071 
  395500    241.35384   -9699.8362   -8733.6418   -9699.8362            0    4623.3002    18.157217     45.45189    19.580959 -0.049217582   -6.6547483  0.021360123     16159.77    4596.6848      4947.41    4325.8057   -287.34462   -917.47226   -196.90919    18.157217    45.451916    20.680911    89.920858    108.77074    90.062043 
  396000    244.29062   -9703.9046   -8725.9535   -9703.9046            0    4153.7557    18.200621    46.167794    19.323354 -0.0079788776   -6.6982003 -0.045791551    16237.077    2759.1492    4009.8696    5692.2483   -318.93012      693.001    960.36877    18.200621    46.167795    20.451406    90.125045    109.11819    90.009902 
  396500    241.06769   -9686.2879    -8721.239   -9686.2879            0    4317.9635    17.905451    46.302309     19.51108   -0.4227307   -6.5262994   0.19536867    16175.928     5599.502    3104.4862    4249.9022      238.356   -654.59469   -595.98984    17.905451    46.304238    20.574571    89.290023    108.49381    90.523084 
  397000    247.46734   -9669.9439   -8679.2758   -9669.9439            0    4600.8711    18.310879    45.628692    19.390987  -0.73925914    -6.588299   0.19099204    16201.198    2547.1118    4948.9914    6306.5102    535.63803    489.50742    857.66243    18.310879     45.63468     20.48054     89.16715    108.76491    90.928204 
  397500    246.70199   -9668.0109   -8680.4066   -9668.0109            0    4252.7152    18.113303    45.605674    19.600616 -0.070543417   -6.5783372  0.081526605    16191.469    4680.2622    5113.3154    2964.5679   -1171.2572     196.8657   -218.19265    18.113303    45.605728    20.675235    89.745872    108.55258    90.088626 
  398000    259.90985    -9746.009   -8705.5306    -9746.009            0    3821.3549    18.053658    46.116145    19.424641 -0.065331364   -6.6558993  0.041392861    16172.279      5295.78    3358.5971    2809.6875    249.88582    339.03987     335.2951    18.053658    46.116192    20.533373    89.858187    108.91411    90.081169 
  398500    248.67932   -9642.2625   -8646.7425   -9642.2625            0    4936.4715    18.163688    46.168023    19.317085  -0.61403529   -6.6532831   0.19420697    16198.951    5393.4855     4659.659      4756.27    804.84086   -33.161456   -897.49598    18.163688    46.172106    20.431683    89.207292    109.00409     90.76199 
  399000    239.87639   -9743.5911   -8783.3112   -9743.5911            0    4614.5421     17.99753    45.697122    19.588917  -0.35098885   -6.3290899   0.25535589    16110.617    5561.9143    4223.7233    4057.9886    595.61965   -363.29485   -509.66423     17.99753     45.69847    20.587575    89.154043    107.90398    90.440067 
  399500    256.36826   -9722.8052   -8696.5046   -9722.8052            0    3697.7696    18.268744    45.768753    19.395009   0.21423701   -6.3484306  -0.15575672    16216.896    2856.1948    3741.1981    4495.9159   -48.172956   -238.78852    1950.1474    18.268744    45.769254    20.408165    90.520715    108.12391    89.731809 
  400000    243.03291   -9723.9187   -8751.0026   -9723.9187            0    4260.8727    18.067901    46.141825     19.38359 -0.050692343   -6.6027246 -0.008401834    16159.827     4652.825    4239.2224    3890.5708   -446.46015    733.17444    60.739584    18.067901    46.141853    20.477295    90.003212    108.81063    90.062946 
  400500    242.99367   -9677.3619   -8704.6029   -9677.3619            0    4030.8284    18.061112    46.042163    19.460711  -0.46874003   -6.7806569   0.16698364    16182.996    3104.9029    4558.5794    4429.0029    800.37694    971.74572    423.77424    18.061112    46.044549    20.608845    89.343861    109.20911    90.583289 
  401000    243.24325   -9705.6474   -8731.8893   -9705.6474            0    4299.4847    18.227293    45.708942    19.396683  -0.32131734   -6.6690913   0.13952651    16160.352    3785.3741    4346.2158    4766.8643   -237.10057    351.97939   -275.67544    18.227293    45.710072    20.511644    89.479307    108.97387    90.402762 
  401500    260.64927   -9709.1486   -8665.7102   -9709.1486            0    4285.6228    18.070545    45.859879    19.510406 -0.088695351   -6.2911553 -0.012983585    16168.527    5008.5206    4388.8758    3459.4722    445.78545    49.352929    1127.2515    18.070545    45.859965    20.499628    90.002281    107.87198    90.110813 
  402000    257.06485    -9670.741   -8641.6518    -9670.741            0    4555.9319    17.973443    46.322938    19.352604   0.18118434   -6.1442415   0.11919513    16112.643    4459.3928    4204.6346    5003.7683   -920.98285   -1015.6204    240.15487    17.973443    46.323292    20.304905    89.731473    107.61376    89.775898 
  402500    245.49829   -9686.2118   -8703.4262   -9686.2118            0    4543.0077    18.185708    46.032482    19.296366  -0.65822576   -6.6982235   0.29446692     16153.63    2717.6279    5457.9061    5453.4891    1081.8985   -127.60065    47.342771    18.185708    46.037188    20.427987    88.905496    109.14103    90.819226 
  403000     245.0002   -9680.9945   -8700.2029   -9680.9945            0    4172.5838    18.122671    45.709015    19.535219  -0.67772572    -6.901705  0.084996169    16182.379    4198.5786    4978.7192    3340.4537    786.17505    363.66209    143.99886    18.122671    45.714039    20.718725    89.482013    109.45791     90.84946 
  403500    254.68187   -9671.1278   -8651.5783   -9671.1278            0    4807.5098    18.147408    46.031489    19.409988 -0.0085001674   -6.6279489  0.080915328    16214.177    6023.2207    4007.6064    4391.7024    60.785697   -581.14695    409.14387    18.147408    46.031489     20.51058    89.770546     108.8534     90.01058 
  404000    251.00125   -9741.6588   -8736.8436   -9741.6588            0    4178.9975    18.052247    45.928315    19.481105 -0.053092562    -6.336074 0.0057496269    16151.965    3911.1356    4432.0399     4193.817    1037.7249    1.6743988    726.40134    18.052247    45.928346    20.485588    89.963433     108.0167    90.066233 
  404500    243.66184   -9714.6139   -8739.1801   -9714.6139            0    4256.0215    18.146286     45.70886    19.454511  -0.50142931   -6.3866369   0.18522397    16136.467    3778.0459    5196.4584    3793.5602   -606.41997    117.61924    327.71503    18.146286     45.71161    20.476851    89.285715     108.1735    90.628513 
  405000    249.10421   -9672.4671   -8675.2462   -9672.4671            0    4324.5405    18.205783    45.850492    19.414956  -0.44946853   -6.8570057   0.29135617     16206.52      4368.68    3978.3771    4626.5646   -235.22035    137.36121   -703.86307    18.205783    45.852695    20.592327    89.002304    109.45026    90.561648 
  405500    258.01572   -9702.1392   -8669.2435   -9702.1392            0    4383.5304    18.048089    46.165976    19.464947 -0.082842705    -7.001158 -0.030838639    16218.342    4276.8513    4967.2085    3906.5313    -730.0791    978.88155    277.86673    18.048089     46.16605    20.685776    90.050619    109.78264    90.102815 
  406000    252.84462   -9680.6281   -8668.4334   -9680.6281            0      5038.88     18.20877    46.009592    19.323045  0.052668825   -6.5915759 -0.026112996    16188.423    3928.4435     4893.563    6294.6335   -316.83062    309.52149   -10.284082     18.20877    46.009623    20.416406    90.094458    108.83578    89.934412 
  406500    252.05096    -9681.656   -8672.6386    -9681.656            0    3746.8397    18.132044    45.823424    19.544846  -0.25443678   -6.3334386   0.10985044    16239.272     3548.226     4187.369     3504.924    57.040482    290.66023   -1229.9614    18.132044    45.824131    20.545694    89.595593    107.95447    90.318134 
  407000    248.20967   -9716.2964   -8722.6565   -9716.2964            0    3033.9758    18.151006    45.931323    19.510526  -0.35809091   -6.5393241   0.16031641     16265.92    2979.8364    3035.7602    3086.3307   -262.79272    147.61652    138.52332    18.151006    45.932718    20.577879    89.411681    108.52897    90.446682 
  407500    245.73595    -9661.514    -8677.777    -9661.514            0    2649.8674    18.133165    46.417443    19.448782  -0.23213431    -6.936014  0.090468779    16369.945    3010.7349    2362.1259    2576.7416    317.74844    652.96551    932.34618    18.133165    46.418024    20.648767    89.652722    109.62755    90.286535 
  408000    246.00228   -9663.6469   -8678.8437   -9663.6469            0    2955.6969    18.196083    46.299931    19.402641  0.027478201   -7.1250267 -0.037007424    16346.286     2548.788    2624.1838    3694.1189   -744.42399    1274.4278    -106.6611    18.196083    46.299939    20.669539    90.114306    110.16418    89.965996 
  408500    249.14014   -9705.6367    -8708.272   -9705.6367            0    4530.5277    18.276483    45.335631    19.556905 -0.098057424   -6.6402608   0.16798381     16204.38    5400.8994    5129.7292    3060.9544   -536.31456    245.59546   -300.50373    18.276483    45.335737    20.654147    89.494156    108.75352    90.123926 
  409000     252.1213   -9658.5424   -8649.2434   -9658.5424            0    5065.2174    18.185849    45.787035    19.460312  -0.38999102   -6.4052252   0.18747339    16204.137    4192.8257    5615.3992    5387.4273   -349.46519    218.80949    -620.0015    18.185849    45.788696    20.488187    89.323166    108.21781    90.488005 
  409500     249.1904   -9662.5389    -8664.973   -9662.5389            0    4343.0554    17.995333    46.430765    19.398947  -0.38826996   -6.4319661  0.076529807     16208.54    5968.0979    3438.4681    3622.6002    12.637318   -1004.7084   -562.74103    17.995333    46.432389    20.437593    89.634676    108.34346    90.479116 
  410000    255.20943   -9675.3172   -8653.6557   -9675.3172            0    4463.7776    18.138824     45.95977    19.450772   0.18763289   -6.7714632  0.031914791    16215.256    4288.0092    4324.1287    4779.1948   -406.00362    194.67624    322.08567    18.138824    45.960153    20.595783    89.988121    109.19469    89.766089 
  410500     249.4296   -9681.9008   -8683.3773   -9681.9008            0    4653.4133    18.217021    45.441492    19.578568  -0.11219113   -6.8370888  0.042919978    16207.308    4549.9626    4825.3871      4584.89   -519.57756    633.31472    827.81857    18.217021     45.44163     20.73808    89.834783    109.24982    90.141458 
  411000    256.47281      -9681.4   -8654.6808      -9681.4            0    4655.2745    18.138983    45.981502    19.373503   -0.7665779   -6.5853499   0.22716841    16158.619    3858.1879    4425.8758    5681.7598    1229.0146    480.40321    922.71226    18.138983    45.987891    20.463408    89.056642    108.77248    90.955115 
  411500    262.59642   -9700.5281   -8649.2948   -9700.5281            0    4596.9044    18.099211    46.039111    19.332439  -0.40980878   -6.3844902   0.11887633    16109.172    4077.9921    4728.6818    4984.0393   -207.89093   -780.81076   -53.471912    18.099211    46.040935    20.359741    89.505545    108.27536    90.509995 
  412000    259.23003   -9694.2957   -8656.5389   -9694.2957            0    4425.9354    18.108082    45.809257    19.524914   0.15453347   -6.5193119  0.019954098    16196.263    4193.3069    5081.0803    4003.4191    63.626875    1220.1126    354.81081    18.108082    45.809518    20.584559    90.005673    108.46401    89.806719 
  412500    255.58566   -9673.5273   -8650.3597   -9673.5273            0    4345.9026    18.122129    45.956185    19.450547  -0.22049984   -6.6056332  0.056278467    16198.881    3346.4067    4875.0902    4816.2109    144.70962   -97.935332   -695.85548    18.122129    45.956714    20.541698    89.754625    108.75801    90.274906 
  413000    235.06894   -9689.9119   -8748.8773   -9689.9119            0    5284.9047    18.065376    46.127869     19.35721  -0.88107791   -6.6185031   0.21583808    16130.699    5532.3177    4557.0261    5765.3703    878.01537    406.73903    615.32956    18.065376    46.136283    20.458562    89.041614    108.87519    91.094261 
  413500    248.21988   -9671.2539   -8677.5732   -9671.2539            0    4889.8218    18.211742    45.394668    19.567061  -0.30765237   -6.7494624   0.34725566    16176.402    4042.5263    6259.3509    4367.5884   -1007.6443    966.84781   -1442.3345    18.211742    45.395711    20.701346    88.912245    109.02858    90.388304 
  414000    249.93635   -9699.6834   -8699.1312   -9699.6834            0    4449.7869    18.271901    45.393945    19.491186   0.13820335   -6.5938389  -0.17372021    16166.646    3358.5455    5834.9553    4155.8599   -28.278364   -28.314921    180.73294    18.271901    45.394155    20.577055    90.539619    108.68991    89.825562 
  414500    255.27474   -9731.1583   -8709.2354   -9731.1583            0    5011.7311    18.028489    46.272685    19.361769 -0.035300558   -6.4221686 -0.015462505    16152.102    6278.2904     3841.957     4914.946   -183.27261   -339.16535    521.42006    18.028489    46.272699    20.399083    90.029669    108.35033     90.04371 
  415000    245.52149   -9695.6896   -8712.8111   -9695.6896            0    4300.9436    18.120885    46.025177    19.472057  -0.40557503   -6.5452794   0.23945672    16240.025    3631.3661    4417.2241    4854.2405    24.313519     1071.605   -893.16458    18.120885    46.026964    20.544075    89.171321    108.57809    90.504879 
  415500    248.89068   -9687.4477   -8691.0816   -9687.4477            0    4897.9692    18.230372     45.52018    19.526337  -0.67893408   -6.6472555   0.09298772    16203.928    5098.1927    5091.9135    4503.8014     1779.676   -700.52516    791.64036    18.230372    45.525243    20.626985    89.466366    108.79967    90.854504 
  416000    257.34034   -9696.0914   -8665.8994   -9696.0914            0    4110.5026    18.130669    46.098917    19.340384   0.46212845   -6.6597428  0.026649654    16164.774    3982.8043    3680.4319    4668.2715   -1368.8925    607.24541   -140.26701    18.130669    46.101233     20.45491    90.112352    109.00082    89.425645 
  416500    242.63063   -9651.1633   -8679.8576   -9651.1633            0    4760.0467      17.9961    46.458715    19.373821   0.24134757   -6.5708351 -0.046357182     16197.98    5607.6779    4486.1003    4186.3618   -1149.7146    678.88224     546.5686      17.9961    46.459342    20.457833    90.225429    108.73486    89.702358 
  417000    244.49074   -9655.8323   -8677.0802   -9655.8323            0    4696.9827    18.180441    45.842357     19.44381  -0.89032148   -6.5244033   0.11775857    16205.138    5138.9843    4248.1552    4703.8088    1258.9542   -756.18961    1144.5944    18.180441    45.851002    20.509594    89.317155    108.54895    91.112623 
  417500    246.64796   -9626.9395   -8639.5515   -9626.9395            0    4026.1164    18.161571    45.800285    19.504481  -0.41310667   -6.5610712   0.24325608    16223.928    4616.5661    3995.8885    3465.8947    289.61334   -259.33967   -1102.4426    18.161571    45.802148    20.579884    89.158004    108.59097    90.516779 
  418000    249.32497   -9693.9889   -8695.8842   -9693.9889            0    4205.6268    18.140378      46.0235    19.416165  0.082604946    -6.724058  -0.12684004     16210.24    2378.6623    5005.4365    5232.7815   -977.50508     980.9466    1128.2632    18.140378    46.023574    20.547908    90.387335    109.10122    89.897163 
  418500    254.65762   -9648.1159   -8628.6634   -9648.1159            0    3915.6794    18.093709    45.938924     19.52009  -0.20860069   -6.7703526  0.038264506    16225.206     4807.334    4055.6533    2884.0507    330.45177    168.18948    926.89824    18.093709    45.939397    20.660906    89.808633    109.12857    90.260168 
  419000    256.42689   -9684.3016   -8657.7664   -9684.3016            0    4063.4505    18.227031    45.788686    19.448316  -0.49824225   -6.6853438   0.47436316    16231.405    3452.0862    5035.1694    3703.0959   -180.81419    32.329427   -723.85776    18.227031    45.791396    20.570752    88.476047    108.96513     90.62343 
  419500    253.88363   -9672.9229   -8656.5689   -9672.9229            0    4333.8891    18.136981    46.022694    19.478301  -0.51837553   -6.4394374 -0.037382357    16258.786    3338.5812    4712.0136    4951.0726    793.31616    98.874479    896.07578    18.136981    46.025613    20.515164    89.901843    108.29362    90.645322 
  420000    246.96626   -9694.9057   -8706.2435   -9694.9057            0    3491.4362    18.097527    46.056637    19.518275   0.11578419   -6.3980882  0.014086551    16268.701    3389.0355    3721.8283    3363.4447    65.690062   -64.225237    223.15206    18.097527    46.056782    20.540175    90.005573    108.14913    89.855961 
  420500    246.25902   -9698.9239   -8713.0929   -9698.9239            0     2941.745    18.183573     46.05314     19.43541  -0.11330975   -6.6783174   0.25835377    16275.419    3462.8341    2559.4097    2802.9911   -205.52378    547.52209   -668.72869    18.183573    46.053279    20.552417    89.233937    108.96198    90.140971 
  421000    259.20826   -9651.3923   -8613.7225   -9651.3923            0    4890.1263    18.116637    45.930595    19.463175  -0.82264568   -6.8260645   0.11239206    16195.462     5119.755    5069.7908     4480.833    1176.5234    536.93401    1006.2963    18.116637    45.937961    20.625784     89.34826    109.32633    91.026094 
  421500    255.50446   -9706.9296    -8684.087   -9706.9296            0    4865.6941    18.028366    45.974258    19.447536  0.035134761   -6.6023842   0.20114833     16118.91    6354.8379    3848.9726    4393.2717   -546.06723   -1039.2991   -2106.5518    18.028366    45.974272     20.53871    89.452935    108.75127    89.956213 
  422000    258.37043   -9685.8848   -8651.5691   -9685.8848            0    5160.8507    18.126798    45.989026    19.364168  0.031685227   -6.3376645 -0.014669187    16142.625    4454.0896    4992.4794     6035.983   -377.73798   -129.40165   -521.99666    18.126798    45.989037    20.374916     90.05353    108.12266    89.960525 
  422500    248.77153   -9691.8906   -8696.0014   -9691.8906            0    5310.3522    18.054359    45.801528    19.509893  -0.54926719   -6.4381283  0.046999182    16133.067     5772.978    5640.9324    4517.1462    994.95283   -460.70245    1467.6916    18.054359    45.804821    20.544772     89.65363    108.26248    90.687077 
  423000    250.48687   -9667.2294   -8664.4734   -9667.2294            0    4231.2829     18.14892    46.029892    19.426952  -0.40478883   -6.7011635   0.35366026    16229.137    3173.5559    4221.4833    5298.8096   -341.14367   -551.06594   -2274.0858     18.14892    46.031672    20.553275      88.8498    109.02852    90.503849 
  423500    254.77549   -9693.5362   -8673.6118   -9693.5362            0    3490.9107    18.171484    46.039145    19.466406  -0.49850048   -6.7599659  0.024290151    16285.587    2909.8815    4041.7036    3521.1469    779.30606    315.34337    1460.2902    18.171484    46.041844    20.606763    89.728963    109.15022     90.62036 
  424000     248.3321   -9719.3039   -8725.1739   -9719.3039            0    2916.9807     18.11416    45.900302    19.561438 -0.067581176   -6.6289811  0.080358481    16264.267    3194.4302    2889.7941     2666.718    45.611468   -365.51891    710.18453     18.11416    45.900351     20.65429    89.750007    108.72035    90.084359 
  424500    262.82094   -9726.8696   -8674.7375   -9726.8696            0     3052.719      18.1613    46.278516    19.336418  0.040621191   -6.3692037   0.13365441    16251.835    1515.1162    3538.7865    4104.2545     524.7508    -199.1637    393.08248      18.1613    46.278534    20.358823    89.639588    108.23091    89.949708 
  425000    257.22472   -9676.1448   -8646.4156   -9676.1448            0     4832.139    17.984525    46.073952    19.523495  -0.35174017   -6.3032279  -0.13697419    16177.521    5814.8067    4486.2461    4195.3643    48.959393    436.24039    535.43151    17.984525    46.075294    20.516245    90.248136    107.89244    90.437402 
  425500    250.16661   -9653.9277   -8652.4537   -9653.9277            0    4399.3854    18.273163      45.5165    19.480177   -0.2380206   -6.7435746   0.23393685    16202.256    4680.4213    4382.6251    4135.1098    256.85723    597.64644    311.63237    18.273163    45.517122    20.615718    89.251817    109.09336    90.299616 
  426000    258.35774   -9741.7826   -8707.5177   -9741.7826            0    4272.2551    18.167758    45.819902     19.44309  -0.39771788    -6.767734   0.15349618    16185.301    3263.6888    5183.1647    4369.9119     385.6043    508.77326    -643.9591    18.167758    45.821628     20.58785    89.409349    109.19139    90.497316 
  426500    246.00021   -9672.1184   -8687.3235   -9672.1184            0     4251.205    18.026633    46.330931    19.417742  -0.24478072   -6.5116724 -0.041706447    16217.517     4699.929    4125.5967    3928.0894    470.01305    756.45116    37.643093    18.026633    46.331577    20.480535    90.020431    108.53866    90.302709 
  427000    246.66398   -9692.7429   -8705.2907   -9692.7429            0     3834.561    18.197167    45.851449    19.427675   0.21339958   -6.4625263   0.15810334    16209.801    3122.2362    3970.3597     4411.087   -645.95154   -129.13059   -808.94277    18.197167    45.851946    20.474955    89.641743     108.3989    89.733339 
  427500    253.19847   -9682.1228   -8668.5116   -9682.1228            0    3840.0966    18.231349    45.343482     19.68504  -0.67644469   -6.6140359   0.11596699    16273.088    4224.1705    4734.3388    2561.7805    775.00125   -159.29214   -794.15775    18.231349    45.348528    20.766793    89.407871    108.57169    90.854688 
  428000    253.85279   -9686.2226    -8669.992   -9686.2226            0    3588.7038    18.188414    46.125263    19.390567  -0.73875746   -6.7396594   0.05959203    16267.627    2308.2769    3101.1785    5356.6561    309.55715   -321.96724    829.01015    18.188414    46.131178    20.528532    89.532455    109.16605     90.91759 
  428500    260.07153   -9692.5334   -8651.4078   -9692.5334            0    3386.0514    18.127349    46.298175     19.35938  -0.05381301   -6.6785545    0.1701137    16247.615    3704.9764    3446.3841    3006.7937   -424.36838    492.75149    53.565407    18.127349    46.298207    20.479688    89.502352    109.03261    90.066596 
  429000     248.4714   -9685.3198   -8690.6322   -9685.3198            0    3588.2891     18.16912    45.832396    19.505335  -0.34871548   -6.5956312 0.0013056197    16242.761    3316.5499    4169.1268    3279.1906    1009.9552    371.19267    890.63628     18.16912    45.833722      20.5903    89.856729    108.68271    90.435926 
  429500    258.12255   -9695.6571   -8662.3337   -9695.6571            0    3456.2736    18.186493    45.903609    19.474257  -0.36114179   -6.6194366  0.045304888     16257.61     4422.874    3457.9383    2488.0084    879.93136   -214.35077    494.37276    18.186493    45.905029    20.568561    89.728738    108.77321    90.450759 
  430000    253.22036   -9712.5229   -8698.8241   -9712.5229            0    3652.7368    17.904004    46.717542    19.409808  -0.19267539   -6.5368062   0.17433138    16234.966    5687.0598    2202.3216     3068.829    378.32165   -324.36944    683.40404    17.904004    46.717939    20.481721    89.436903    108.61172    90.236301 
  430500    248.32516   -9709.9894   -8715.8871   -9709.9894            0    3384.8584    18.124705    46.203393    19.359253  -0.30526643   -6.5480851  0.065957649    16211.882      3843.29    2241.1667    4070.1183    782.14039    345.91642   -351.77324    18.124705    46.204402    20.436792    89.693798    108.68752    90.378548 
  431000     250.9573   -9649.6195   -8644.9802   -9649.6195            0    3813.2055    18.310784    45.397551     19.58581  -0.13879838   -6.5944891  0.073519859    16280.994    3571.5352     4251.209    3616.8724   -256.68512   -45.157487   -54.883713    18.310784    45.397763    20.666317    89.740275    108.60812    90.175175 
  431500     255.4576   -9683.8541   -8661.1991   -9683.8541            0    3313.4763      18.1023    46.051559     19.49629  -0.21686789    -6.503425   0.19099801     16252.87    2877.4478    4219.5526    2843.4284    886.04852    588.18028    285.79877      18.1023     46.05207    20.553256    89.382179    108.44645    90.269818 
  432000     253.7236   -9705.9207   -8690.2073   -9705.9207            0    3628.6875    18.064591    46.363428    19.347339  -0.34427417   -6.5262873  0.092936045      16204.1    3748.2967    3050.1568    4087.6091   -448.67568   -722.24733   -201.49891    18.064591    46.364706    20.418633    89.603239    108.64019    90.425445 
  432500    251.94291   -9717.6514   -8709.0665   -9717.6514            0    3941.9287     18.21273    45.458505    19.622111  -0.30633464   -6.7429427  0.077798882    16245.606    3884.1419     5210.255    2731.3893   -618.51362    335.98555    957.38323     18.21273    45.459538    20.748507    89.659691    108.96463    90.386098 
  433000    252.92685   -9684.6658    -8672.142   -9684.6658            0    3550.2283    18.280742    45.767676    19.421372  -0.23630365   -6.7799294   0.18828885    16249.222    2758.1869    3825.0845    4067.4133   -7.7960979    51.813481   -1095.3707    18.280742    45.768286    20.571645    89.378081    109.24307    90.295822 
  433500    251.90566   -9725.9936   -8717.5578   -9725.9936            0    4131.4117    17.935123    46.652242    19.273287  -0.38506679   -6.5742087    0.1086263    16126.223    5256.7218    2983.6809    4153.8325     485.6765   -202.38384   -762.14255    17.935123    46.653831    20.363978    89.541707    108.83447    90.472908 
  434000    245.92366   -9649.7931   -8665.3047   -9649.7931            0     5588.726    18.034119    45.871262    19.489571  -0.19139109   -6.4080469  0.036305243    16122.705    5844.6286    5516.5972    5404.9522   -93.837859    198.17055    151.79804    18.034119    45.871661    20.516037    89.823942    108.20051    90.239057 
  434500    255.71575   -9641.4458   -8617.7573   -9641.4458            0    4581.1557    18.246043    45.484767    19.502858   -0.1502098   -6.5458163   0.12012335    16185.753    3072.4555     5468.946    5202.0657    453.30107   -118.34468   -935.02109    18.246043    45.485015    20.572399    89.605241    108.55316    90.189214 
  435000    246.73713    -9686.571    -8698.826    -9686.571            0    4521.3792    18.061576    46.055777    19.391584  -0.39555292   -6.5908924   0.11105639    16130.694    5673.2499    4062.1756     3828.712    354.62162    545.27223    183.91536    18.061576    46.057475    20.481351    89.530982     108.7718    90.492076 
  435500    241.72343   -9716.6919   -8749.0179   -9716.6919            0    5015.9827    17.975496     46.36112    19.312742  -0.22832022   -6.5917542   0.11896764    16094.547    4331.2137    5209.3593     5507.375    154.96639   -164.47575   -923.97258    17.975496    46.361683    20.407043    89.574837    108.84528    90.282169 
  436000    249.26878   -9721.3342   -8723.4545   -9721.3342            0    5337.6904    18.159559     45.15562    19.624457   0.22030879   -6.6836368 -0.033845126    16092.175    5421.4914    6220.2152    4371.3647   -34.986075    -1249.882   -228.34241    18.159559    45.156158    20.731412    90.183658    108.80763    89.720463 
  436500    256.67088   -9697.7863   -8670.2742   -9697.7863            0    3561.4985    18.285298    45.401605    19.499084  -0.17172636   -6.6795276  0.025362423    16187.786    3401.5537    4076.7827    3206.1591   -96.762885   -485.17512   -591.30222    18.285298     45.40193    20.611429    89.859268    108.90919    90.216714 
  437000     251.0005   -9708.0182    -8703.206   -9708.0182            0    3925.1337    17.971591    46.430418    19.408116  -0.45213386   -6.5161818   0.17959999    16194.684    4783.8184    3474.3671    3517.2155    1028.2918    112.16255    569.61298    17.971591    46.432619    20.473589    89.319825    108.55849    90.557922 
  437500    252.22648   -9671.5692   -8661.8491   -9671.5692            0    4311.5893    18.135086    46.065896    19.394281  -0.29993044    -6.566274   0.10348894    16202.157    3834.0871     4510.763    4589.9178     146.7292    -74.96179   -273.31241    18.135086    46.066873    20.475956    89.590793    108.70418    90.373042 
  438000    251.85237   -9756.4675    -8748.245   -9756.4675            0    3767.7696     18.19238    45.337689    19.622344  -0.14595909   -6.6078389 -0.025021591    16184.518    3635.3445     4446.981    3220.9832   -102.48108     -965.947    533.23495     18.19238    45.337924    20.705085    90.010373    108.61098    90.184456 
  438500    252.41143   -9686.6189   -8676.1584   -9686.6189            0    3585.5307    18.114857    46.157853    19.417893  0.031131703   -6.6492398   0.18883349    16236.133    3361.6684    2915.1329    4479.7906   -538.84982   -156.43747    422.20234    18.114857    46.157863    20.525658    89.485398    108.90183    89.961356 
  439000    251.01434   -9666.3528   -8661.4852   -9666.3528            0    2918.2993    18.050096    46.647541     19.34068  -0.51846312   -6.6435286   0.14830964    16284.709    4030.4273    2154.5278    2569.9428     447.6516   -593.20235   -118.88841    18.050096    46.650422    20.450437    89.377634    108.95709    90.636787 
  439500    254.42998   -9701.3248   -8682.7836   -9701.3248            0    3145.8179    18.145927    45.729809    19.579329  -0.41051697   -6.6874407 -0.088668641    16247.119    2649.7273    3578.2058    3209.5204    528.93347   -136.58742    1340.9682    18.145927    45.731651     20.69009    90.079295    108.85774    90.514331 
  440000    254.57921   -9702.2507   -8683.1121   -9702.2507            0    4192.5015    18.213196    45.682291    19.499984   0.11255604   -6.6032032  0.087777825    16224.388    2964.1817     4758.165    4855.1578   -1331.9629    37.648159    220.70093    18.213196     45.68243    20.587846    89.800993    108.70726     89.85883 
  440500    244.52718   -9745.2837   -8766.3857   -9745.2837            0    3377.1577    18.125722    46.136486    19.382746  -0.50218272   -6.5412044   0.10278076    16208.959    3420.2627    2935.5223     3775.688     597.8936   -201.30297    437.65697    18.125722    46.139219    20.456997    89.512741    108.64804    90.623624 
  441000    252.19067   -9747.0253   -8737.4486   -9747.0253            0    3507.7963    17.994783    46.143345    19.550524  -0.68558157   -6.6305938   0.22205894    16233.572    4622.2462    3094.1868    2806.9559    564.59315    57.436588    1092.0882    17.994783    46.148438    20.645509      89.1104    108.73333    90.851218 
  441500    236.86074   -9729.3034   -8781.0959   -9729.3034            0    4811.9018    18.275436    45.403059    19.486188   0.18954427    -6.877964   0.10677653    16168.873    5124.5596    5157.0527    4154.0932    -520.8258     368.3446   -523.00969    18.275436    45.403455    20.664688     89.78356    109.44103    89.760809 
  442000    244.13771   -9676.6665   -8699.3276   -9676.6665            0    3684.6447    18.204295    45.826462    19.445059  -0.11470466   -6.7690128  -0.15397492    16221.815     3408.903    3443.7008    4201.3302   -86.787952    237.42239    583.75587    18.204295    45.826605    20.590132    90.381318    109.19294    90.143412 
  442500    258.09349    -9670.258    -8637.051    -9670.258            0     3998.872    18.000282    46.116892    19.493122  -0.39905616   -6.5217978   0.17010295    16181.573    5568.3982    3617.3736     2810.844    572.94764   -576.34125   -741.56426    18.000282    46.118619     20.55589     89.36858      108.498    90.495776 
  443000     252.2763   -9675.6912   -8665.7717   -9675.6912            0    4682.1158    18.202831    45.933395    19.364167  -0.32917779   -6.4843226   0.18161463    16190.725     4638.169    4026.8419    5381.3366    842.58307   -142.00079   -362.76319    18.202831    45.934575    20.421812    89.360087    108.51298    90.410598 
  443500    247.32281   -9649.1379   -8659.0483   -9649.1379            0    4500.8784     18.16675    45.526084    19.579562  -0.18530078   -6.5484794 -0.0093307188    16193.492    5706.2354    5106.8906    2689.5091     175.8045   -95.112138   -507.85293     18.16675    45.526461    20.645627    89.951926    108.49276    90.233205 
  444000    256.95875   -9739.8378   -8711.1734   -9739.8378            0    3205.7276     18.10584    46.263224    19.343965  -0.13540163   -6.7276696  0.017293577    16203.173    3649.6931    2887.1214    3080.3683    88.944721   -74.452129    513.02865     18.10584    46.263422    20.480498    89.896535    109.17724    90.167691 
  444500    237.16501   -9683.4208   -8733.9952   -9683.4208            0    4186.2885    17.991725    46.485976    19.361966  -0.40095557   -6.7699475   0.20389494     16193.63    4457.3049    3893.8327     4207.728   -178.16563    1175.6841   -618.04898    17.991725    46.487705    20.512423    89.267379    109.27128    90.494181 
  445000     240.9958   -9700.2632   -8735.5021   -9700.2632            0    2988.2535    18.176462    45.839632    19.550279  -0.42692596   -6.5480177    0.1666362    16289.338     4180.782    2474.9589    2309.0195    291.20356   -537.42132   -449.52789    18.176462     45.84162    20.618383    89.367486    108.51673    90.533607 
  445500    243.72256   -9661.7758   -8686.0988   -9661.7758            0    2519.0915    18.288267    45.766023    19.493559  -0.22719339   -6.4652303  0.049994306    16315.743    1075.6382    3118.7138    3362.9224   -267.77236    165.60475    698.34472    18.288267    45.766587    20.537783    89.770992    108.34855    90.284428 
  446000    251.49381   -9671.9431   -8665.1561   -9671.9431            0    3201.9862     18.08322    46.213922    19.513659  -0.30351565   -6.5909928  0.011900276    16307.497    3188.0695    3772.5328    2645.3562    25.528516    428.79382    1035.9745     18.08322    46.214919    20.596704    89.846483    108.66306    90.376292 
  446500    246.13671   -9679.2746   -8693.9332   -9679.2746            0    3461.2136    18.205934    46.033231    19.396706   -0.1790283   -6.6823808   0.17270765    16255.952    2573.6394    3027.6627    4782.3385   -466.70818   -752.92818   -610.72148    18.205934    46.033579    20.516243    89.445096     109.0087    90.222828 
  447000    249.15879   -9637.6713   -8640.2319   -9637.6713            0    3834.4164    18.237474    45.625816    19.569415  -0.73775078   -6.6691742   0.17834181    16283.704    4592.2849    3470.5033    3440.4609    1135.7768   -717.09283   -552.49493    18.237474     45.63178    20.675389    89.207015    108.81817    90.926369 
  447500    252.44613   -9665.4805   -8654.8811   -9665.4805            0    3270.4149    18.100094    45.915884    19.629532   -0.2541362   -6.4811663  0.059662698    16313.747     4155.936    3028.8908    2626.4178    810.24894   -408.10705    40.638349    18.100094    45.916587    20.671904    89.735212    108.27181    90.317119 
  448000    250.19267   -9683.1262   -8681.5479   -9683.1262            0    3844.2352     18.13662    46.364515     19.28944   0.22543474   -6.4911408 0.0006912708    16220.405    4374.6934    2316.6803     4841.332   -1142.7091   -288.22052   -303.88461     18.13662    46.365063    20.352332    90.086904    108.59874    89.721417 
  448500     246.9034   -9730.3816    -8741.971   -9730.3816            0    3568.9257    18.126996    45.870263    19.466431  -0.57913492   -6.6480807 -0.027101019    16186.144    3153.9269    3844.1227    3708.7275    408.83397    169.61838    800.16865    18.126996    45.873918    20.570358    89.841709     108.8558    90.723349 
  449000    248.42118   -9694.6414   -8700.1548   -9694.6414            0    4089.0578    18.247261    45.578136    19.521598  -0.32292433   -6.7634024   0.36019293    16235.647    3821.8641     4771.696    3673.6133    642.64222    458.42233   -1655.1276    18.247261     45.57928    20.663159    88.868322    109.10601    90.405938 
  449500    254.67536   -9676.6293   -8657.1058   -9676.6293            0    4006.3947    18.132859    46.269342    19.354469  -0.29601446   -6.6256592 -0.058119943    16238.312     3379.743    4020.0729    4619.3684   -452.14787    165.27351    303.12902    18.132859    46.270289    20.457229    90.044059    108.89765    90.366553 
  450000    251.46923   -9694.6128   -8687.9242   -9694.6128            0    2983.6771    18.053308     46.10926     19.47944  -0.10642574   -6.5105017 0.0098891125    16215.167    3872.4942    2592.8154    2485.7218    -964.2791   -352.04174    -443.1334    18.053308    46.109383     20.53863    89.930493    108.48088    90.132245 
  450500    249.63851   -9679.3533   -8679.9935   -9679.3533            0    4713.2013     18.20137     45.61363    19.470186  -0.20081524   -6.5981605   0.20139305    16164.743    4767.6695    4676.4771    4695.4574   -665.51791    208.39715   -291.19447     18.20137    45.614072    20.558804     89.35777    108.71983    90.252245 
  451000    261.09567   -9716.4188   -8671.1933   -9716.4188            0    4771.9299    18.152393    45.952158    19.410547  -0.80237497   -6.6624991 -0.030892254    16191.146    4945.6213    4587.1478    4783.0205    1753.2116   -519.20727    2343.7419    18.152393    45.959163    20.522163     89.76149    108.94431    91.000345 
  451500    250.71934   -9684.8972   -8681.2105   -9684.8972            0    4022.9505    17.936076    46.535775    19.461373     0.077122   -6.5114552   0.12988013    16243.809    4571.2315    3765.3782    3732.2417   -385.63302    359.15795   -800.52751    17.936076    46.535839    20.522206    89.667515    108.49901    89.905046 
  452000     248.4766   -9675.2008   -8680.4924   -9675.2008            0    3704.3855    18.270528    45.965586    19.384799  0.073948812   -6.4932028 0.0061283251    16279.655    3124.5393     4405.408    3583.2092   -452.72506    871.65167   -430.12776    18.270528    45.965645    20.443389    90.012101    108.51898    89.907823 
  452500    253.07427   -9677.0602   -8663.9462   -9677.0602            0    3764.4019    18.161183    45.611464    19.585706  -0.40365595   -6.5128964  0.019028027    16223.979    4235.8792    4399.2159    2658.1106   -264.93307    53.667584    -108.5849    18.161183     45.61325    20.640205    89.787187    108.39367    90.507047 
  453000    243.24559   -9712.1025   -8738.3349   -9712.1025            0    4507.9068    18.129928    45.938952    19.404193   -0.2445405    -6.632245   0.20953752    16161.168    3644.8418    4657.9015     5220.977   -357.25908   -15.514144   -674.95425    18.129928    45.939602    20.507396    89.315927    108.86912    90.304992 
  453500    252.03695   -9692.5275   -8683.5662   -9692.5275            0    4217.7678    18.035214    46.202513    19.428454  -0.28457325    -6.673527  0.072486735    16189.191    3641.4434    4085.6819    4926.1782     119.3725    143.20403    580.57462    18.035214     46.20339    20.542786    89.683189    108.95709    90.352895 
  454000    257.19487   -9641.9045   -8612.2948   -9641.9045            0    5146.4321    18.258322    45.512556    19.438295  -0.18989239   -6.7210229    0.1962968    16152.891    3448.2018    6424.5345      5566.56    600.90014     275.1083    758.50264    18.258322    45.512952    20.568374    89.375069    109.07254    90.239054 
  454500    260.10931   -9699.5153   -8658.2384   -9699.5153            0    5309.9743    18.233236    45.373561    19.521841  -0.48465069   -6.6777126  0.064786094    16150.552     3736.793    6180.6771    6012.4528    568.10783    581.04308    270.97609    18.233236    45.376149    20.632458    89.622037    108.88386    90.611973 
  455000    246.10189   -9693.4655   -8708.2636   -9693.4655            0    3069.7185    17.981076    46.485209    19.439166  -0.14974592   -6.5587094 -0.0033403684    16248.307    3368.0269    2748.1192    3093.0094    929.98519    91.304498    850.73127    17.981076    46.485451    20.515795    89.950324    108.64422     90.18457 
  455500    239.07652    -9697.452   -8740.3743    -9697.452            0    3039.6226    18.187181     46.28252    19.337389 -0.076380156    -6.532172   0.22771546    16277.219    2395.7469    2986.8384    3736.2826   -537.53413   -553.10967   -979.55703    18.187181    46.282583    20.412146    89.330542    108.66377    90.094555 
  456000    254.75461    -9723.365   -8703.5243    -9723.365            0    3591.2208    18.188554    45.647342    19.562727  -0.49472149   -6.5887303  0.051433324    16242.133    4240.9216    3868.8791    2663.8618   -332.46158    83.109486    410.28867    18.188554    45.650023    20.642536    89.659057    108.61348    90.620942 
  456500    247.69417   -9667.4131   -8675.8369   -9667.4131            0    3992.2277    18.145434    46.035728    19.460217  -0.21313923   -6.6440255   0.10487836    16255.865    3646.4418    3966.9951    4363.2463   -189.27476   -135.39161   -346.27537    18.145434    46.036222    20.563417     89.62207    108.85046     90.26527 
  457000     248.4848    -9718.882   -8724.1407    -9718.882            0    3995.2208     18.06697    46.329974    19.342757   -0.0530044   -6.5486055   0.18372411    16190.705    4021.2872    3841.5871    4122.7882    586.74247   -435.38629    1039.8933     18.06697    46.330005    20.422053     89.46352    108.70305     90.06555 
  457500    242.33636   -9669.1975   -8699.0698   -9669.1975            0    3964.2917    18.108932    45.868496     19.56508   -0.5913554   -6.5857852  -0.10622189    16251.333    4000.3439    4300.1402    3592.3911   -74.569329 -0.076292813     1200.153    18.108932    45.872308    20.644036    90.059154    108.60345     90.73864 
  458000    241.69734   -9722.2026   -8754.6331   -9722.2026            0    4315.7252    18.324113    45.275652    19.544471  -0.22578645   -6.7465185   0.12550411      16214.8    4195.8047    4454.7669     4296.604   -1365.9862    60.023796   -577.30082    18.324113    45.276215    20.676499    89.558991     109.0437    90.285728 
  458500    244.18811   -9664.9468   -8687.4062   -9664.9468            0    3566.1107    18.111559    46.250948    19.405559  -0.21656285   -6.6687459    0.1839789    16255.586    5264.6697    3175.7034     2257.959   -41.939094    483.61498    8.7534014    18.111559    46.251455    20.520276    89.399112    108.96456    90.268277 
  459000    256.70464   -9685.3713   -8657.7241   -9685.3713            0     3976.996    18.019896    46.327269    19.452135   -0.3569186   -6.5171613   0.02471565    16238.886    4295.7666    3359.0005    4276.2208    417.60076    1.9478067    370.08574    18.019896    46.328644    20.514862    89.790746    108.52268    90.441414 
  459500    240.71745   -9719.7296   -8756.0828   -9719.7296            0    4418.7468    18.209067    45.651152    19.487473   0.12756789   -6.5833571   0.14048285    16199.252     4424.656    4699.3196    4132.2649    100.29792   -219.71433   -232.56958    18.209067     45.65133    20.569928    89.659938    108.66581    89.839893 
  460000    251.20814   -9643.7371   -8638.0937   -9643.7371            0    3956.3158    18.149539    45.824517    19.526093  -0.40883453   -6.6442495 -0.099887607    16239.732    4438.7902    3804.8203     3625.337    1085.5513    617.66248    1909.3065    18.149539    45.826341    20.625817    90.112803    108.79195    90.511165 
  460500    249.99263   -9657.0589   -8656.2814   -9657.0589            0    4155.3369     18.00786    46.355293    19.377041  -0.61003686   -6.6416064    0.2252237    16175.171    5080.8294    2791.2176    4593.9637    1260.2654   -411.40989    624.59082     18.00786    46.359307    20.484906    89.125631     108.9183     90.75397 
  461000    249.52682   -9700.9878   -8702.0751   -9700.9878            0    3309.3871    18.140692    46.041451    19.439698  -0.21268142   -6.5994258   0.34316568    16236.498     3226.813    3265.1265    3436.2217   -1480.4513   -281.17827   -846.40375    18.140692    46.041942     20.53222     88.95727     108.7487    90.264667 
  461500    251.25407   -9692.3536   -8686.5263   -9692.3536            0    4282.5169    18.197135    45.648991    19.549303  -0.45576788   -6.5992629 -0.013757153    16239.231    3747.2508    4842.4527    4257.8472    216.94138    44.418899   -276.79968    18.197135    45.651266    20.633121    89.855245    108.65315    90.572033 
  462000      260.614   -9687.0348   -8643.7376   -9687.0348            0    4188.6785    18.142901    45.935122     19.44274  -0.10359672   -6.5769133  0.082898959    16203.509    5085.8757    3299.1771    4180.9828   -1108.8913    261.94395   -403.71633    18.142901    45.935238    20.525175    89.727183    108.68902    90.129218 
  462500    254.93015   -9660.8331   -8640.2896   -9660.8331            0    4167.9929    18.036672    46.133283    19.465361  -0.26763786   -6.5147841  0.068159993    16196.949    4168.9005    4174.2092     4160.869   -1034.7208    91.435528   -711.34667    18.036672    46.134059    20.526747    89.704255    108.50457    90.332392 
  463000      245.948   -9668.2767   -8683.6908   -9668.2767            0    4883.9333    18.199883      45.7371    19.398196  -0.73102509   -6.4746251  0.017985411     16147.25     4207.946    4825.7175    5618.1366    1368.3244   -420.30474   -296.10355    18.199883    45.742942     20.45021    89.659715    108.45769    90.915692 
  463500    258.42692   -9679.5725   -8645.0306   -9679.5725            0    3964.3964    18.257504    45.201102       19.645  -0.31866633   -6.5626337   0.34662514    16212.218    2468.0365     5045.091    4380.0619    498.99973    378.70873   -1002.4126    18.257504    45.202225    20.715075    88.913264     108.4698    90.403927 
  464000    249.91885    -9677.134   -8676.6519    -9677.134            0    2927.9711    18.074364    46.189202    19.505012  -0.33497928   -6.6175145 -0.041028761    16283.573    3223.8288    2481.3155    3078.7688    585.48788   -240.86081    22.611607    18.074364    46.190417    20.597055    89.980629    108.74062    90.415521 
  464500    252.08315    -9751.577   -8742.4307    -9751.577            0    4368.2042    18.108726    46.239363    19.306903  -0.17738223   -6.5507373   0.11586913    16166.364      4050.56    3800.1428    5253.9098   -160.48183   -243.87835   -70.240263    18.108726    46.239703    20.388283     89.60376    108.74151    90.219795 
  465000    249.90972   -9707.8966   -8707.4511   -9707.8966            0    4874.1034    18.120768    45.691394    19.507827  -0.16000428   -6.4627141   0.29263755    16151.762    5441.7132    4846.0001    4334.5968   -538.60547   -644.35839   -1002.1959    18.120768    45.691675    20.552558    89.121074     108.3275     90.20064 
  465500    248.28756   -9688.6712   -8694.7195   -9688.6712            0    4085.0087    18.181114    45.790428    19.496427  -0.53665391   -6.5115842 -0.059095735    16231.185    3813.1182    4196.9049     4245.003    1047.2687    1100.3976    485.63003    18.181114    45.793572    20.555167    89.952008    108.46865    90.671463 
  466000    247.59992   -9702.1556   -8710.9567   -9702.1556            0    3691.6017    18.071727    46.468198     19.34242   0.11680977   -6.7026656   0.12412248    16243.002    4132.4673    2980.4747    3961.8632   -303.67541    423.91923    613.44511    18.071727    46.468345    20.471208    89.699757     109.1122    89.855973 
  466500    251.96377   -9716.1755   -8707.5071   -9716.1755            0    4225.8454    18.144654    45.879335    19.461676  -0.16085829   -6.8354026   0.13163266    16201.158    4546.0777    3796.0462    4335.4121    -206.7628    43.842231   -818.84511    18.144654    45.879617    20.627576    89.567804    109.35208    90.200885 
  467000    259.66474   -9647.1659   -8607.6688   -9647.1659            0    4278.5406    18.235386    45.531564    19.573439   -0.5230937   -6.6237809   0.10207403    16251.546     3741.484    4472.8944    4621.2433    144.13875   -742.75812   -650.02873    18.235386    45.534569    20.664085    89.506005    108.69592    90.658219 
  467500    245.45809   -9661.1419   -8678.5173   -9661.1419            0    4424.3429    18.153384    46.198277    19.387809 -0.058327416   -6.4279243   0.15169528    16259.684     4010.519    3782.4345    5480.0753    -1647.577   -540.49634    66.586233    18.153384    46.198314    20.426168    89.551723    108.34214    90.072338 
  468000    250.12894   -9703.9739   -8702.6507   -9703.9739            0    3725.0328    18.028091    46.298224    19.428206  -0.28019863   -6.5656665  0.057004194    16216.114    4906.1796    2810.5511    3458.3677    -187.1943    37.633556   -547.34669    18.028091    46.299072    20.507716    89.729726    108.67235    90.346752 
  468500    249.56083   -9734.8751   -8735.8263   -9734.8751            0    4071.6819    18.219556    45.665027     19.44484   -0.4459146   -6.8645704   0.14495403    16178.039    4756.3836    3653.3135    3805.3488   -125.58101    -89.25105   -1494.1537    18.219556    45.667204    20.621473    89.411025    109.44395     90.55947 
  469000    258.69145   -9671.9813   -8636.3805   -9671.9813            0    4140.0066      18.2828    45.351592    19.600181  -0.40947096   -6.9280997   0.22989987     16251.57    2732.7695    5045.3623    4641.8879   -11.684482    160.79273   -1329.3694      18.2828    45.353441    20.789865    89.194023     109.4658    90.517299 
  469500    261.00484    -9710.819   -8665.9571    -9710.819            0    4098.3305      18.0414    46.439276    19.364355  -0.14907707   -6.3679228 0.0074109803    16224.029    3714.2687    3794.7205    4786.0021   -558.25571   -525.32568   -663.61418      18.0414    46.439516    20.384522    89.921713    108.20333    90.183927 
  470000    252.66474   -9686.2299   -8674.7553   -9686.2299            0     3536.176    18.040172    46.215868    19.420942 -0.029703894   -6.2950765  0.025284381     16192.06    3323.5385    2732.6328    4552.3569   -801.65471   -515.12742   -977.77377    18.040172    46.215877     20.41572    89.917686    107.95949    90.036825 
  470500    245.41864    -9685.499   -8703.0322    -9685.499            0    5208.3787    18.225198     45.30083    19.563308  -0.58679348   -6.6257924  0.017678747    16151.792    5405.1234      5391.84    4828.1726    1569.7144   -667.41147    689.04749    18.225198    45.304631    20.654889    89.712906    108.71045    90.742126 
  471000    254.15215   -9675.3653   -8657.9364   -9675.3653            0    5733.1163    18.164305    45.751706    19.416481  -0.36935959   -6.7738855   0.19322338    16136.026    4180.2848    6075.6384    6943.4257    -699.4691    656.75012   -871.73847    18.164305    45.753197    20.565081    89.309311    109.23162    90.462546 
  471500    258.54625   -9673.8654   -8638.8459   -9673.8654            0    4807.5228    18.018375      46.2558    19.415971  -0.21462224   -6.6333677  0.096308238    16182.326    4395.0928     4983.269    5044.2065    303.13118    702.25908   -250.56015    18.018375    46.256298     20.51806    89.645118    108.86226    90.265845 
  472000    259.32991    -9612.206   -8574.0493    -9612.206            0    5112.6655    18.177431    45.798119    19.428392  -0.15294054   -6.3871447 -0.00069660042    16173.984    4706.4412    4688.3747    5943.1806    450.20217   -442.62264    126.21172    18.177431    45.798374    20.451358    89.942196    108.19844    90.191336 
  472500    262.41241   -9697.6865   -8647.1898   -9697.6865            0    4170.7327    18.127307    45.475219    19.603586  -0.18456246   -6.1960274 -0.023087479    16160.084    4454.1938     4517.307    3540.6974    382.33473    -387.8413    965.36429    18.127307    45.475593    20.559472    89.994261    107.53996    90.232535 
  473000     250.6254   -9673.7233   -8670.4127   -9673.7233            0    5505.4641    18.014097    46.235491    19.316798  -0.21874491    -6.554401   0.27016432     16088.78    6885.7148    4884.7236    4745.9537   -161.56965    623.33104   -218.81002    18.014097    46.236008     20.40029    89.154109    108.74093     90.27107 
  473500    251.71011   -9645.4765   -8637.8235   -9645.4765            0     4561.881    18.099994    46.211187    19.345918  -0.38325501   -6.8363406   0.18996376    16181.356    4133.8099     4209.366    5342.4671    382.07993   -1194.7482    633.89047    18.099994    46.212776    20.519167    89.311253    109.46121    90.475175 
  474000     238.7127   -9697.2466   -8741.6252   -9697.2466            0    5203.7247    18.170152    45.672872    19.477111   -0.2626253   -6.6710488  0.018124413    16163.724    3127.2259    5918.6429    6565.3054    394.30158    367.64142    1229.9381    18.170152    45.673628    20.587886    89.842809    108.90669    90.329455 
  474500    249.41385   -9680.6329   -8682.1724   -9680.6329            0    3412.1652    18.193577    45.863213    19.466122 0.0090580052   -6.4912031   0.17930939    16242.841    5314.7954    2069.1205    2852.5797   -150.63984   -166.45058    49.185131    18.193577    45.863214    20.520667    89.502923    108.44083    89.988684 
  475000     257.9261    -9681.325   -8648.7881    -9681.325            0    3757.5787     18.10168    46.169174     19.41449  -0.80979399   -6.5145948  0.047873033    16225.459     4955.039    3722.5841    2595.1131     1266.974     109.6033     1141.894     18.10168    46.176276    20.478395    89.546427    108.54929    91.004848 
  475500    245.06433   -9739.1939   -8758.1456   -9739.1939            0    3258.2427    18.063345     46.22806    19.420163  -0.56958934   -6.6863534   0.17052089    16216.485    3076.3493     3172.072    3526.3069    516.83469    399.01394    39.413006    18.063345    46.231569    20.539696    89.294552    108.99788    90.705922 
  476000    251.43297   -9676.2468   -8669.7034   -9676.2468            0    4055.5912    18.250281    45.822206    19.406456   0.23035949   -6.7974514   0.17103881    16229.001    2726.1703    4560.2204    4880.3829   -574.69798    1004.5611   -187.83228    18.250281    45.822785    20.563199    89.618648    109.30301    89.711962 
  476500    242.35301    -9721.103   -8750.9087    -9721.103            0    3540.0106    18.126109    45.803933    19.530664  -0.33746094   -6.4844402 -0.021370299    16215.278    3188.0689     4137.692    3294.2708    294.06043   -450.16944   -187.64289    18.126109    45.805176    20.579001    89.926489    108.36684     90.42212 
  477000    255.38835    -9661.815   -8639.4372    -9661.815            0    3580.1509    18.118395    46.288519    19.397241  -0.49766191   -6.3754206   0.30761178    16267.956    2672.3621    3356.1015    4711.9891    138.00363    71.315119   -1014.8947    18.118395    46.291195     20.42042     88.94458    108.19235    90.615981 
  477500    245.73217   -9653.3739    -8669.652   -9653.3739            0    3743.6452    18.179387     45.99418    19.491351  -0.24744866   -6.5665492  0.097099065    16297.615    3323.6912    4231.3898    3675.8546    249.11229    319.20014   -71.144785    18.179387    45.994845    20.567979    89.631103    108.61823    90.308248 
  478000    253.21761   -9682.8213   -8669.1335   -9682.8213            0     3259.657    18.262624    45.735049    19.516171   0.25663393   -6.8309947 -0.093707627    16300.725    3455.3059    3396.2616    2927.4035   -346.56051    302.98552    216.36092    18.262624    45.735769    20.677336    90.365868    109.29072    89.678499 
  478500    252.15469   -9694.7652   -8685.3325   -9694.7652            0    3687.0515    18.068346    46.113064    19.473136 -0.072147354    -6.657339   0.23634637     16224.76    3725.5863    3213.5802    4121.9879   -856.96156   -184.39267    -1429.201    18.068346    46.113121    20.581036     89.31302    108.87288    90.089643 
  479000    246.29664   -9690.3495   -8704.3679   -9690.3495            0    4144.4604    18.085902    46.134494    19.394547  -0.84061429   -6.4514563   0.16307297    16182.499    3267.7573    4493.4602    4672.1637    173.16975   -165.14119    180.48897    18.085902    46.142152    20.440067    89.213484    108.39873    91.043868 
  479500    242.29154   -9763.4003   -8793.4521   -9763.4003            0    4371.6361    18.198724     45.71935    19.439234  -0.24790117   -6.5199671   0.17724826    16174.101    3255.4627    5139.2698    4720.1757   -29.561116   -29.626142     46.98602    18.198724    45.720022    20.504273     89.40592    108.54086    90.310668 
  480000    250.27667   -9700.4781   -8698.5636   -9700.4781            0    3863.5278    18.098212    45.738698    19.577271   0.20138151   -6.7792801  -0.11303272    16205.842    4231.9327    4588.3614    2770.2892   -243.88326    1000.0281    895.46141    18.098212    45.739142    20.718131    90.395135    109.09982    89.747736 
  480500    258.00505   -9655.0962   -8622.2432   -9655.0962            0    3779.5527    18.108181    46.465508    19.243002  -0.40487905    -6.768709 -0.0017892464    16191.175    3415.1733    3796.2887    4127.1962    151.43673    1101.1033    93.608401    18.108181    46.467272    20.398739    89.839371    109.37928    90.499236 
  481000    242.31476   -9710.5625   -8740.5213   -9710.5625            0     4370.579     18.07562    46.146804    19.403759  -0.42627983   -6.5236698   0.33845153    16185.299    4074.4399    4454.1555    4583.1414    635.66204    533.17161   -1156.7012     18.07562    46.148773    20.473854    88.884182    108.58035    90.529253 
  481500    248.27972   -9736.3455   -8742.4252   -9736.3455            0    3346.1285    18.135603    45.675093    19.584814   -0.3353298   -6.5239245  0.065702838    16222.989     2563.073    3755.4447    3719.8678    -225.6661   -238.73594    707.35501    18.135603    45.676324    20.642937    89.684705    108.42341    90.420637 
  482000     240.5551   -9716.9177   -8753.9208   -9716.9177            0     2881.844     18.14563     46.08819    19.445395  -0.11146565   -6.5386228  0.004953748    16262.169    3183.4646    2893.8988    2568.1687   -67.580992    -583.1306    1524.0693     18.14563    46.088324    20.515287       89.942    108.58551    90.138571 
  482500    255.07331   -9671.1929   -8650.0763   -9671.1929            0    2537.6407    18.037965    46.620417    19.392704  -0.24806446    -6.574924   0.22773623    16308.052    3150.1221    1698.3619    2764.4381   -730.01776    283.19649   -353.61422    18.037965    46.621077    20.478244    89.264927    108.72757    90.304865 
  483000    244.87466   -9718.7783   -8738.4893   -9718.7783            0    4070.4476    18.178752    45.697595    19.499205  -0.58174522   -6.7007031  0.027041821    16198.482    3785.4044    4950.2858    3475.6526    66.632302    1122.9864    300.27742    18.178752    45.701298    20.618418    89.687835    108.96474    90.729354 
  483500     248.1856   -9675.1885   -8681.6449   -9675.1885            0    4268.4889    18.205548    45.491008     19.52758  0.038206675   -6.6235658  0.082381273    16172.521    4916.3645    4410.0178    3479.0844   -190.21735     49.02533   -88.366774    18.205548    45.491024    20.620494    89.786553    108.73628    89.951879 
  484000    245.31069   -9655.6629   -8673.6283   -9655.6629            0    4293.7789    17.899297     46.62373    19.384732 -0.059683441   -6.3659235  0.017738257    16177.178    4895.9287     3740.156    4245.2521    40.009114   -687.49954   -198.93468    17.899297    46.623768    20.403263    89.927304    108.18011    90.073345 
  484500     245.3339   -9641.6634   -8659.5359   -9641.6634            0    4885.3574    18.073119    46.384279    19.292332  -0.42791738    -6.453123  0.036009158    16172.928    3678.7605    4612.9365     6364.375    450.84969   -378.06551   -545.09008    18.073119    46.386253    20.343013    89.730917    108.49463    90.528566 
  485000    250.38833   -9702.5163   -8700.1547   -9702.5163            0    3827.0371    18.151912    45.754632    19.525904  -0.18141618    -6.602341   0.16938258    16216.927    3504.0815    4723.7356    3253.2942    447.90677    791.69476   -374.76593    18.151912    45.754992     20.61263    89.456407    108.68141    90.227175 
  485500    255.19514   -9654.0087   -8632.4044   -9654.0087            0     3753.836    18.214148     45.96793    19.462344  -0.30501515   -6.6258519 -0.029620182    16295.172    3574.4688    3718.4651    3968.5741   -21.425294   -78.015215    1219.4512    18.214148    45.968942     20.55932    89.960024    108.80085    90.380174 
  486000    239.75852   -9678.1687   -8718.3608   -9678.1687            0     2667.379    18.098183    46.036981    19.520677  -0.42336488   -6.4909373  0.097427795     16264.35    3507.0723    2411.0471    2084.0175    939.05389   -357.34799    1023.1957    18.098183    46.038928    20.571791     89.56241    108.39258    90.526888 
  486500    248.99372   -9730.9863   -8734.2077   -9730.9863            0    4092.3975     18.15633    45.921672    19.407089  -0.22768381   -6.5113405    0.2017968     16181.03    3281.3332    4134.5482    4861.3111   -45.751046     341.9551   -1074.5323     18.15633    45.922236    20.471282     89.34484    108.54636    90.284075 
  487000    249.51389   -9680.3232   -8681.4622   -9680.3232            0    4471.4656       18.079    45.804953    19.510894  -0.32495034   -6.5807109   0.04038557    16157.122    4799.6311    4324.3844    4290.3812    381.70731    314.63679    478.24785       18.079    45.806105    20.590832    89.757724    108.63839    90.406462 
  487500    248.10444   -9703.1864   -8709.9677   -9703.1864            0    5040.3814    18.167941     45.71407    19.380611  -0.16269496   -6.6733419   0.19640638    16096.189    4637.0791    5133.6653    5350.3998    134.68868   -303.81704    5.7897891    18.167941    45.714359    20.498296    89.384622    108.99926    90.203913 
  488000    262.03061   -9690.5603   -8641.5921   -9690.5603            0    5748.4153    18.020644    46.234209    19.287827  -0.75173384   -6.7129387  0.029298667    16070.043     6568.956    5148.9793    5527.3106   -195.61117  -0.70061509   -27.446549    18.020644     46.24032    20.422651    89.611638    109.18993    90.931505 
  488500    259.06479   -9677.8099   -8640.7145   -9677.8099            0    5288.5081    17.988507    46.133596    19.426042  -0.42156918   -6.5759944   0.10621214    16121.177    4877.0854    4785.2743    6203.1647   -403.90295   -314.10294    1464.3257    17.988507    46.135522    20.509171    89.535417    108.70144    90.523555 
  489000    242.26543   -9670.5995   -8700.7558   -9670.5995            0    4242.7092    18.254595    45.630778     19.45758   0.17367053   -6.5175332   0.14911766    16207.607    4027.3448    4248.7504    4452.0323   -1315.3445   -1295.6267   -1271.0426    18.254595    45.631108     20.52067    89.652909    108.51834    89.781934 
  489500     246.8763   -9625.4313   -8637.1292   -9625.4313            0    4257.4076    18.152457    45.889636    19.472352  -0.50587608   -6.5745721   -0.1125397    16220.656     5165.624    3491.9201    4114.6787     797.6636   -381.15149    712.65403    18.152457    45.892424    20.552619     90.11168    108.65626    90.631589 
  490000    260.54605   -9687.7121   -8644.6869   -9687.7121            0     3614.871    18.019273    46.367585    19.414642  -0.38467654   -6.7020934   0.19235987    16221.131    4068.9595    3118.0983    3657.5552   -223.83966    756.35443    236.14026    18.019273     46.36918      20.5398    89.308317    109.04423    90.475329 
  490500    251.18628   -9682.4843   -8676.9284   -9682.4843            0    4420.3295    18.178311    45.833739    19.386299 -0.055527042   -6.6652538   0.22179356    16152.276    4701.5533    3973.4594    4585.9758   -557.24628   -8.5556298   -303.61889    18.178311    45.833773    20.501302    89.357565    108.97246    90.069413 
  491000    254.14111   -9677.1784   -8659.7936   -9677.1784            0    4049.4103    18.147726    45.681243    19.521676  -0.25938629   -6.4765397 -0.060318791    16183.677    4214.3141    4285.7136    3648.2031    440.68752   -379.14723    1199.1134    18.147726    45.681979    20.568058    90.065584    108.35377    90.325332 
  491500     243.9751   -9659.5867   -8682.8988   -9659.5867            0    4647.7672     18.09094    46.237316    19.340092   -0.4581167   -6.4080142   0.21514223    16177.532    4709.6083    4056.5459    5177.1473    156.09603   -116.73477   -498.37384     18.09094    46.239585    20.375183    89.216489    108.33069    90.567665 
  492000    257.31175   -9658.6539   -8628.5763   -9658.6539            0    4568.4605    18.053281    46.252292    19.403259  -0.54924776   -6.7471306   0.24024498    16201.831    5062.1438    4357.3167    4285.9211   -486.13742    558.08778   -91.831335    18.053281    46.255553    20.544293    89.106557    109.17283    90.680358 
  492500    238.62336   -9668.7795   -8713.5158   -9668.7795            0    3854.9006    18.225488     45.58477    19.547676  -0.20784469   -6.9305286 0.0025453625      16240.3    3756.6833    4653.6487    3154.3699   -442.15617    994.26458    -451.5348    18.225488    45.585243     20.73991    89.905672     109.5217    90.261239 
  493000    242.75431    -9694.235   -8722.4342    -9694.235            0    2964.4234    18.240676    45.749937    19.459884   0.06498484   -6.6073014   0.11116282    16239.463    2300.3211    2938.7348    3654.2142   -371.11096   -406.95994    295.43434    18.240676    45.749983    20.551298    89.716249    108.75384    89.918615 
  493500    250.14879    -9700.344   -8698.9414    -9700.344            0    3648.0791    18.014458    46.337612    19.480136  -0.30460751   -6.3062559   0.15794993    16260.985    5157.6556    3303.6218    2482.9598     335.1544   -36.288189    127.92493    18.014458    46.338613    20.476072    89.442031    107.93764    90.376637 
  494000    249.32748   -9673.5492   -8675.4345   -9673.5492            0    4715.5773    18.108003    46.022706    19.405877  -0.45175352   -6.5229973   0.14763963    16172.457    4156.9425    4429.8007    5559.9886   -594.08756    772.49437   -509.50315    18.108003    46.024924    20.473382    89.407653    108.57881    90.562391 
  494500    250.04209   -9662.5925   -8661.6171   -9662.5925            0    5283.1688    18.222125    45.422416    19.523067  -0.10313107     -7.07292  0.021936157    16159.105    5481.9827    5486.4121    4881.1115   -357.98392    681.45249    81.879241    18.222125    45.422533    20.764797    89.895161     109.9147    90.130089 
  495000     246.7226   -9677.5654   -8689.8786   -9677.5654            0    4468.1767     18.15718    45.893021    19.400656 -0.021808106   -7.0057321  -0.02718844     16166.33    4426.8632    3817.9286    5159.7382   -418.95589     728.3799    258.40635     18.15718    45.893026    20.626838    90.066275    109.85504    90.027227 
  495500    253.50231   -9745.0264   -8730.1989   -9745.0264            0    4519.1955    18.064235    46.200892    19.289989  -0.30480524   -6.5038185   0.15252323    16099.111    4194.9873    3679.4528    5683.1466    51.960001   -152.80366    341.61132    18.064235    46.201897     20.35747    89.449965    108.63152    90.377997 
  496000    248.29286   -9639.9204   -8645.9475   -9639.9204            0    5181.9275    18.049553    45.988561    19.450621  -0.26039162   -6.3290126   0.20145953    16145.435    5156.3143    6042.3459    4347.1223    178.28284   -304.25248   -262.73517    18.049553    45.989298    20.455406     89.33533     108.0234    90.324411 
  496500    247.24058   -9633.9272   -8644.1668   -9633.9272            0    4931.4766    18.182207    45.730247    19.475206  -0.23716593   -6.5132341  0.028968684    16193.182    5815.8061    5055.8468    3922.7769   -270.96158   -117.49231    1289.6553    18.182207    45.730862    20.535499    89.824931    108.49183    90.297144 
  497000    252.77634   -9693.8167   -8681.8954   -9693.8167            0    5048.2974    18.150553    45.700394    19.484246  -0.25422146   -6.7634162  0.075093066    16161.937     4883.175    5871.1488    4390.5684   -63.568812    1175.5599   -902.11899    18.150553    45.701101     20.62487    89.686877     109.1429    90.318721 
  497500    251.44177   -9730.3562   -8723.7775   -9730.3562            0    3807.7771    18.054225    46.266312    19.409209  -0.39032024      -6.7907   0.30120479    16212.558    4868.8807    3637.5713    2916.8794     57.54953    117.22308   -651.25465    18.054225    46.267959     20.56506    89.001195    109.28126    90.483358 
  498000    246.07005   -9705.8666   -8720.7922   -9705.8666            0    3933.7206    18.204674    46.103437    19.314974  -0.40775606   -6.5672755  0.011461567    16211.019    2797.8994    3952.9137    5050.3487    1213.3762   -445.71925   -830.88231    18.204674     46.10524    20.400918    89.804691    108.77852    90.506732 
  498500    247.94698   -9660.9767   -8668.3884   -9660.9767            0    3912.7397    18.107564    45.670907    19.609386  0.099620259   -6.4216802 -0.058733857    16216.745    4778.9982    3946.4733    3012.7477   -79.930458    -818.2792   -294.36136    18.107564    45.671016    20.634182    90.201983    108.13251    89.875023 
  499000    252.73482   -9704.0535   -8692.2984   -9704.0535            0    4810.7914     18.27367    45.790702    19.331235  -0.22556856   -6.6650643   0.18194779    16175.685    2943.5081    5194.6305    6294.2357   -400.56366   -68.715393    371.67396     18.27367    45.791258    20.448785      89.3982     109.0225    90.282241 
  499500    260.54077   -9691.3797   -8648.3756   -9691.3797            0    4141.5889    18.048548      46.0809    19.494681   -0.6268554   -6.8024007   0.13546872    16213.596    5668.7703    4378.8468    2377.1496    645.60637     1157.905    714.49211    18.048548    46.085164    20.647847    89.367356     109.2353    90.779367 
  500000    249.25686   -9715.8376   -8718.0056   -9715.8376            0    3715.0524    18.081442      45.9728    19.526429  -0.16127584   -6.6531049   0.10066177    16231.433    4859.4077    3765.4827    2520.2668    98.064401   -387.21465    424.14538    18.081442    45.973083    20.628993    89.655594    108.81493    90.200997 
Loop time of 5560.91 on 42 procs for 500000 steps with 2016 atoms

Performance: 7.769 ns/day, 3.089 hours/ns, 89.913 timesteps/s
96.1% CPU use with 42 MPI tasks x 1 OpenMP threads

MPI task timing breakdown:
Section |  min time  |  avg time  |  max time  |%varavg| %total
---------------------------------------------------------------
Pair    | 194.55     | 214.36     | 251.74     | 106.0 |  3.85
Bond    | 0.60856    | 0.64983    | 0.8013     |   5.8 |  0.01
Kspace  | 3068.2     | 3109.7     | 3154.2     |  35.5 | 55.92
Neigh   | 38.086     | 39.098     | 39.737     |   6.7 |  0.70
Comm    | 473.72     | 538.22     | 609.44     | 134.7 |  9.68
Output  | 34.149     | 34.206     | 34.543     |   1.1 |  0.62
Modify  | 1369       | 1414.5     | 1443.8     |  47.5 | 25.44
Other   |            | 210.2      |            |       |  3.78

Nlocal:        48.0000 ave          53 max          41 min
Histogram: 1 3 1 1 5 12 4 6 7 2
Nghost:        3085.48 ave        3151 max        3013 min
Histogram: 7 2 3 1 1 3 10 11 1 3
Neighs:        15721.1 ave       17334 max       13357 min
Histogram: 1 2 2 2 6 8 6 7 6 2

Total # of neighbors = 660286
Ave neighs/atom = 327.52282
Ave special neighs/atom = 2.0000000
Neighbor list builds = 11622
Dangerous builds = 0


write_restart   restart.equil
System init for write_restart ...
PPPM initialization ...
  extracting TIP4P info from pair style
  using 12-bit tables for long-range coulomb (../kspace.cpp:340)
  G vector (1/distance) = 0.37785414
  grid = 25 48 36
  stencil order = 5
  estimated absolute RMS force accuracy = 0.0026155818
  estimated relative force accuracy = 7.8767469e-06
  using double precision FFTW3
  3d grid and FFT values/proc = 6615 1092
Last active /omp style is kspace_style pppm/tip4p/omp
write_data   	water.equil.data nocoeff
System init for write_data ...
PPPM initialization ...
  extracting TIP4P info from pair style
  using 12-bit tables for long-range coulomb (../kspace.cpp:340)
  G vector (1/distance) = 0.37785414
  grid = 25 48 36
  stencil order = 5
  estimated absolute RMS force accuracy = 0.0026155818
  estimated relative force accuracy = 7.8767469e-06
  using double precision FFTW3
  3d grid and FFT values/proc = 6615 1092
Last active /omp style is kspace_style pppm/tip4p/omp
Total wall time: 1:32:42
