LAMMPS (30 Jul 2021)
Processor partition = 0
  using 4 OpenMP thread(s) per MPI task
using multi-threaded neighbor list subroutines
variable        pid world 0 1
variable        phase world IceIh Liquid

shell cd ${phase}
shell cd IceIh
include Restart.lmp
echo both
log log.lammps
#include		in.partitions
include		in.temp
variable        temperature equal 278.56
variable	tempDamp equal 100.0
include		in.pressure
variable        pressure equal -1750.0
variable        pressureDamp equal 1000.0 # This is 1 ps
include		in.seed
variable        seed equal 745823

units		real
atom_style	full
#include		in.box
read_restart	restart.lmp.${pid}
read_restart	restart.lmp.0
Reading restart file ...
  restart file = 30 Jul 2021, LAMMPS = 30 Jul 2021
  restoring atom style full from restart
  orthogonal box = (0.00030946139 -0.13910219 -0.015987917) to (18.207263 23.768280 22.229184)
  2 by 4 by 2 MPI processor grid
  restoring pair style lj/cut/tip4p/long/omp from restart
  restoring bond style harmonic/omp from restart
  restoring angle style harmonic/omp from restart
  864 atoms
  576 bonds
  288 angles
Finding 1-2 1-3 1-4 neighbors ...
  special bond factors lj:    0        0        0       
  special bond factors coul:  0        0        0       
     2 = max # of 1-2 neighbors
     1 = max # of 1-3 neighbors
     1 = max # of 1-4 neighbors
     2 = max # of special neighbors
  special bonds CPU = 0.001 seconds
  read_restart CPU = 0.004 seconds
include 	in.setup
variable	out_freq equal 1000
variable	out_freq2 equal 10000
variable	out_freq3 equal 1000

timestep	2.0

neigh_modify    delay 7 every 1

include		in.tip4p
# This is TIP4P/Ice

# create groups ###
group ox type 2
288 atoms in group ox
group hy type 1
576 atoms in group hy

# set charges - beside manually ###
set group ox charge -1.1794
Setting atom values ...
  288 settings made for charge
set group hy charge 0.5897
Setting atom values ...
  576 settings made for charge

# ### TIP3P Potential Parameters ###
pair_style lj/cut/tip4p/long/omp 2 1 1 1 0.1577 8.5
pair_coeff 1 1*2 0.000 0.000
pair_coeff 2 2 0.21084 3.1668
bond_style  harmonic
bond_coeff  1 450 0.9572
angle_style harmonic
angle_coeff 1 55 104.52
kspace_style pppm/tip4p/omp 1.0e-5
pair_modify tail yes

thermo          ${out_freq}
thermo          1000
thermo_style    custom step temp pe etotal epair emol press lx ly lz vol pxx pyy pzz pxy pxz pyz enthalpy

restart 	${out_freq3} restart.lmp.${pid} restart2.lmp.${pid}
restart 	1000 restart.lmp.${pid} restart2.lmp.${pid}
restart 	1000 restart.lmp.0 restart2.lmp.${pid}
restart 	1000 restart.lmp.0 restart2.lmp.0


include         in.dump
dump            myDump all atom ${out_freq2} dump.water.${pid}
dump            myDump all atom 10000 dump.water.${pid}
dump            myDump all atom 10000 dump.water.0
dump            myDump2 all dcd ${out_freq2} dump.dcd
dump            myDump2 all dcd 10000 dump.dcd
dump_modify     myDump append yes
dump_modify     myDump2 append yes


variable natoms 	equal  "count(all)"                        # NUMBER ATOMS
variable H      	equal  "enthalpy/v_natoms"                 # ENTHALPY-per-atom
variable Vol      	equal  "vol/v_natoms"                 # volume-per-atom
fix AVG all 		ave/time ${out_freq} 1 ${out_freq} v_Vol v_H file vol_enthalpy.dat
fix AVG all 		ave/time 1000 1 ${out_freq} v_Vol v_H file vol_enthalpy.dat
fix AVG all 		ave/time 1000 1 1000 v_Vol v_H file vol_enthalpy.dat


timer           timeout 23:50:00 every 1000
New timer settings: style=normal  mode=nosync  timeout=23:50:00

fix 		1 all shake 1e-6 200 0 b 1 a 1
Finding SHAKE clusters ...
       0 = # of size 2 clusters
       0 = # of size 3 clusters
       0 = # of size 4 clusters
     288 = # of frozen angles
  find clusters CPU = 0.000 seconds
fix             2 all nph aniso ${pressure} ${pressure} ${pressureDamp}
fix             2 all nph aniso -1750 ${pressure} ${pressureDamp}
fix             2 all nph aniso -1750 -1750 ${pressureDamp}
fix             2 all nph aniso -1750 -1750 1000
fix             3 all temp/csvr ${temperature} ${temperature} ${tempDamp} ${seed}
fix             3 all temp/csvr 278.56 ${temperature} ${tempDamp} ${seed}
fix             3 all temp/csvr 278.56 278.56 ${tempDamp} ${seed}
fix             3 all temp/csvr 278.56 278.56 100 ${seed}
fix             3 all temp/csvr 278.56 278.56 100 745823


run             250000
PPPM initialization ...
  extracting TIP4P info from pair style
  using 12-bit tables for long-range coulomb (../kspace.cpp:340)
  G vector (1/distance) = 0.37049539
  grid = 24 27 25
  stencil order = 5
  estimated absolute RMS force accuracy = 0.0032987902
  estimated relative force accuracy = 9.9342088e-06
  using double precision FFTW3
  3d grid and FFT values/proc = 6300 1296
Last active /omp style is kspace_style pppm/tip4p/omp
Neighbor list info ...
  update every 1 steps, delay 7 steps, check yes
  max neighbors/atom: 2000, page size: 100000
  master list distance cutoff = 10.8154
  ghost atom cutoff = 10.8154
  binsize = 5.4077, bins = 4 5 5
  1 neighbor lists, perpetual/occasional/extra = 1 0 0
  (1) pair lj/cut/tip4p/long/omp, perpetual
      attributes: half, newton on, omp
      pair build: half/bin/newton/omp
      stencil: half/bin/3d
      bin: standard
Setting up Verlet run ...
  Unit style    : real
  Current step  : 7000000
  Time step     : 2
  Walltime left : 23:49:59.96
Per MPI rank memory allocation (min/avg/max) = 12.25 | 12.28 | 12.30 Mbytes
Step Temp PotEng TotEng E_pair E_mol Press Lx Ly Lz Volume Pxx Pyy Pzz Pxy Pxz Pyz Enthalpy 
 7000000    297.54176   -4152.9956   -3643.0192   -4152.9956            0   -1672.3362    18.206953    23.907382    22.245172    9682.8916   -1208.4712   -2528.3639   -1280.1736    845.82436   -181.07122    294.76054   -3879.1782 
 7001000    272.26364   -4146.1328   -3679.4822   -4146.1328            0    -2978.117    18.134626    23.763106    22.666466    9767.7743   -2837.0829   -3986.2139   -2111.0541    706.11197    481.56484    288.06391   -4103.7238 
 7002000    271.78154   -4132.0575   -3666.2332   -4132.0575            0   -3545.8287    18.503597    23.708285     22.47068      9857.63   -3456.9757    -4083.454   -3097.0562    611.59174    571.24212   -488.26028   -4175.9937 
 7003000    273.14517   -4146.9232   -3678.7617   -4146.9232            0   -2426.8024    18.464725    23.613085    22.361284    9749.7237   -2899.6369   -1922.0957   -2458.6745   -549.26845    174.58303   -419.93816   -4023.8281 
 7004000    266.96634   -4170.3925   -3712.8213   -4170.3925            0   -2315.7818    18.406649     23.51728    22.492174     9736.284   -1358.4369   -2903.4821   -2685.4265   -116.63246    91.016713    298.72934   -4041.6478 
 7005000    287.88449   -4145.0537   -3651.6295   -4145.0537            0   -344.48923    18.390221    23.100813    22.579824    9592.5652   -116.50194    608.92634   -1525.8921    10.748582   -429.28145    112.97288   -3699.8228 
 7006000    281.69145   -4139.7588   -3656.9493   -4139.7588            0   -612.79167    18.438677    23.516094    22.171772    9613.8064   -1514.9371   -444.02917    120.59122    152.03629    471.73067     55.62575   -3742.8673 
 7007000    284.21758   -4165.3246   -3678.1854   -4165.3246            0   -615.01603    18.149807    23.693345    22.288675    9584.7907   -1534.8053   -577.34358    267.10086   -401.49254    702.94595   -271.54705    -3764.155 
 7008000    287.71539   -4166.1874   -3673.0531   -4166.1874            0   -668.46206    18.072001     23.69699    22.432537    9606.7797    481.32753   -466.77037   -2019.9434   -12.817625   -233.08542   -106.87308    -3766.708 
 7009000    298.72952   -4157.0155   -3645.0033   -4157.0155            0   -599.51732    18.309873    23.650126    22.105999    9572.5787   -1106.6562    16.423566   -708.31936   -362.38464   -325.45656    524.78395   -3728.6997 
 7010000    279.96029   -4149.1683   -3669.3259   -4149.1683            0   -712.92444    18.215962    23.549887    22.373165    9597.7267   -913.91196    1072.9266   -2297.7879    420.09763   -421.67586    718.07873   -3769.1161 
 7011000    280.23934   -4160.7874   -3680.4668   -4160.7874            0   -1261.3666    18.291883    23.443696    22.503643    9650.2224   -976.13423   -1631.9352   -1176.0303    -861.6427    607.78127   -757.59998   -3857.9898 
 7012000    289.79724   -4122.0391   -3625.3365   -4122.0391            0   -298.71588     18.44512    23.710209    22.008157     9624.996    1588.7603   -934.17576   -1550.7322    496.28886    215.18346    439.72213   -3667.2675 
 7013000    278.55358   -4134.6649   -3657.2336   -4134.6649            0   -767.51984    18.186169    23.528519    22.373633    9573.5347   -2525.5056    367.80329   -144.85727   -480.84032    418.02984    -481.5945   -3764.3948 
 7014000    272.09105   -4178.0441   -3711.6894   -4178.0441            0   -1607.4208    18.210819    23.709953    22.342752    9647.1012   -462.76391   -1944.0543   -2415.4442   -811.16115   -244.21753   -173.21015   -3937.8423 
 7015000    272.59669   -4140.4377   -3673.2163   -4140.4377            0   -2251.1075    18.474564    23.832103    22.243766    9793.6569   -2888.7207   -2820.6037   -1043.9982   -672.36879     482.5891    555.89873    -3994.743 
 7016000    272.56631   -4142.6553   -3675.4859   -4142.6553            0    -1242.029    18.285476    23.408306    22.606557    9676.3301    -486.6635   -2009.9594    -1229.464    69.782657    491.15564    211.98549   -3850.7603 
 7017000    282.07816   -4159.4906   -3676.0183   -4159.4906            0   -1414.1082    18.425225    23.655926    22.204319    9678.1019   -1689.8999   -149.19793   -2403.2267    571.94145    -225.0541   -198.06451   -3875.6128 
 7018000    280.66442   -4195.9417   -3714.8924   -4195.9417            0    -1911.362    18.332549    23.680068    22.369224    9710.8385   -1946.6283   -2828.6911   -958.76666    930.88212    174.79495    137.57984   -3985.5845 
 7019000    275.23162   -4144.4303   -3672.6927   -4144.4303            0   -3197.8942    18.388506    23.540792    22.659437     9808.817    -3693.493   -2170.9278   -3729.2616    269.22925    609.89015   -72.144228   -4130.1564 
 7020000    276.82235   -4175.3831    -3700.919   -4175.3831            0   -3761.7856    18.489842    23.693523    22.352145    9792.2403   -4825.2397   -3205.4622    -3254.655    93.263649    303.71166    50.189887   -4238.1388 
 7021000    261.72933   -4147.0208   -3698.4257   -4147.0208            0   -2728.9998     18.28595    24.003321    22.234456     9759.226   -3805.0821   -2204.9231   -2176.9942   -743.25217   -427.55553   -108.56977   -4086.8396 
 7022000    290.77399   -4154.7203   -3656.3436   -4154.7203            0   -1945.0626    18.226626    23.739343    22.480279    9726.9495    -1195.272   -1757.7244   -2882.1914    310.04628    13.603392     103.7045   -3932.2655 
 7023000    267.98645   -4171.6559   -3712.3363   -4171.6559            0   -1801.8093    18.307928    23.671958    22.313877    9670.4883   -2397.7048   -2407.4275   -600.29556   -487.40883    -924.6571    458.70964   -3966.4529 
 7024000     292.0192   -4117.0101   -3616.4992   -4117.0101            0   -956.59976     18.41676    23.396537    22.389089     9647.199   -372.63292   -786.56305   -1710.6033   -1090.0995    892.00923   -81.861413   -3751.0875 
 7025000    290.89623   -4170.5692    -3671.983   -4170.5692            0   -898.46391    18.320646    23.578064    22.178815    9580.4801   -1384.4276   -1617.8746    306.91056    1191.5816    626.89965    877.33234   -3797.5177 
 7026000    302.58528   -4160.9765   -3642.3557   -4160.9765            0    -1431.378    18.220128    23.715771    22.324954    9646.7101   -1427.0282   -2628.5535   -238.55235    188.49089    450.85944    363.02494   -3843.7325 
 7027000    284.11613   -4148.2829   -3661.3176   -4148.2829            0   -1046.6532    18.041813    23.690637    22.452633    9596.7504   -1002.4356   -1812.5911   -324.93274   -949.24346    981.86099     448.5822   -3807.8059 
 7028000    264.72857   -4152.3821   -3698.6464   -4152.3821            0   -2052.2956     18.47428    23.715154    22.058927    9664.4659   -2700.5429   -2132.2022   -1324.1417    181.21934   -139.19723    635.51289   -3987.9099 
 7029000    261.78696   -4168.6824   -3719.9885   -4168.6824            0   -941.47887    18.349256     23.45392    22.297671      9596.07   -2162.4195   -1489.6857    827.66863   -30.008378    240.69795    762.56186   -3851.7474 
 7030000    281.91762   -4132.1649   -3648.9678   -4132.1649            0   -2150.0329    18.377088    23.517287    22.511741    9729.1075   -2524.3024   -877.96021   -3047.8361    1041.3739   -620.55811   -823.18185   -3954.0339 
 7031000     277.6203   -4122.6063   -3646.7746   -4122.6063            0   -2505.6316    18.337197    23.914602    22.222363    9745.1011   -1988.6866   -3189.0536   -2339.1546    2.5380769   -631.14555   -81.392854   -4002.8808 
 7032000    287.40732   -4165.3902   -3672.7839   -4165.3902            0   -1736.2013    18.190597    23.643904    22.490152     9672.941   -349.42252   -3841.8465   -1017.3348   -135.67508    848.25851    434.60939   -3917.7096 
 7033000    296.42061   -4185.8656   -3677.8108   -4185.8656            0   -1638.9059    18.373963    23.701714    22.075063    9613.5667   -1701.0239   -1667.4772   -1548.2165   0.62822206     408.0035    405.31884    -3907.592 
 7034000    268.67311   -4167.4701   -3706.9736   -4167.4701            0   -530.07227    18.339076    23.569817    22.219567    9604.3778   -1085.4738     280.0413   -784.78437   -1170.6248    234.76983   -270.81326   -3781.2208 
 7035000    264.14343   -4190.3927   -3737.6599   -4190.3927            0   -840.07802    18.186456    23.508547    22.520229    9628.2345   -1257.0637    431.35404   -1694.5244   -725.98714    40.248823    291.52058   -3855.6219 
 7036000    280.58261   -4199.7343   -3718.8253   -4199.7343            0   -2084.9137     18.33045    23.978824    22.055946    9694.5287   -2157.3658   -4931.0354    833.66029     760.0165    28.301029     149.0014   -4013.6003 
 7037000    277.28737   -4154.4881    -3679.227   -4154.4881            0   -2339.4313    18.176819     23.85385     22.37178    9700.1159   -939.56923   -4035.7271   -2042.9976   -905.06383    161.34837   -319.65516   -4010.1776 
 7038000    266.15604   -4152.1907   -3696.0084   -4152.1907            0   -1926.0182    18.237374    23.679274    22.483176    9709.3098   -1183.0768   -1656.8707    -2938.107    551.16842   -1195.2901    434.87075   -3968.7332 
 7039000    290.85591   -4187.5748   -3689.0578   -4187.5748            0   -1447.1958    18.509048    23.614457    22.110412    9664.0433   -2887.3275   -2091.5117    637.25192   -187.62428     743.5848    125.36209   -3893.0258 
 7040000     264.4045   -4156.0032   -3702.8229   -4156.0032            0   -827.72047    18.331988    23.442108     22.47374    9657.8747   -1858.2638   -197.66932   -427.22825     731.3669   -242.22486    1647.7797   -3819.4075 
 7041000    273.93228   -4157.9043   -3688.3937   -4157.9043            0   -1768.8307    18.150728    23.785734    22.469073    9700.5366   -2489.2908   -1467.7609   -1349.4405   -1108.2409   -1242.2804    838.38411   -3938.6344 
 7042000    284.88001   -4188.2388   -3699.9642   -4188.2388            0   -1715.8721    18.192221    23.999816    22.179551    9683.8126   -1305.2633   -2713.4986   -1128.8542   -542.69723    -125.5947    289.58672   -3942.2942 
 7043000    282.32665   -4164.0665   -3680.1683   -4164.0665            0   -1803.6914     18.20146    23.698442    22.511632    9710.3081   -2004.4717   -697.24236   -2709.3603   -488.03084   -505.63863   -28.926886   -3935.5978 
 7044000    293.40362   -4191.1435   -3688.2598   -4191.1435            0    -1807.814    18.408218     23.50664     22.28885    9644.7276   -2819.9095   -1271.1201   -1332.4125   -2.4254962    -496.8092    417.62887   -3942.5441 
 7045000    268.96465   -4214.1788   -3753.1825   -4214.1788            0   -1196.9503    18.527737    23.576983    22.095376    9651.8822   -1353.4849   -1770.0907   -467.27526   -436.89613    130.09021   -549.86165   -3921.6686 
 7046000     301.7572   -4189.4608   -3672.2592   -4189.4608            0   -1472.1044    18.095472    23.725383    22.534943    9674.7466   -277.78941   -1063.2278   -3075.2958   -543.06401    686.99006   -814.54708   -3879.9677 
 7047000    262.40372   -4154.3598   -3704.6088   -4154.3598            0   -1491.7207       18.149    24.189635     22.08223    9694.4899   -536.78612   -2647.5714   -1290.8046    -689.9604    360.07637    17.482959   -3915.5145 
 7048000    284.05537   -4173.9779   -3687.1167   -4173.9779            0    -213.3686    18.177344    23.756018     22.33323    9643.9645    1524.9414   -1001.0868   -1163.9605   -510.18896    441.07334    701.18095   -3717.1264 
 7049000    296.25203   -4178.5178    -3670.752   -4178.5178            0   -2685.8819    18.566984    23.466847    22.374022     9748.553   -3360.4696   -2001.2322   -2695.9439   -603.97977    584.15817   -909.12204   -4052.6109 
 7050000    277.82178   -4179.3436   -3703.1666   -4179.3436            0   -1166.1712    18.409762    23.584096     22.27238    9670.1683   -1530.4995    250.24102   -2218.2551   -710.20462   -112.33542   -108.42546   -3867.6311 
 7051000    282.09487    -4130.409    -3646.908    -4130.409            0   -2958.0623    18.121709    23.854485    22.583009    9762.2742   -903.59626   -3510.2093   -4460.3814   -29.926552    611.22281    602.64328   -4068.0555 
 7052000    275.31018   -4164.6015   -3692.7293   -4164.6015            0   -1616.1172    18.262316    23.931324     22.20447    9704.2727   -118.15535   -1898.4741   -2831.7223    402.30759   -903.50023    250.67912   -3921.4533 
 7053000    263.00255   -4156.9185   -3706.1411   -4156.9185            0   -1198.5369    18.173837    23.673521    22.471266    9668.0082   -789.25903   -96.048532   -2710.3032    390.75671    -54.93719    -4.388654   -3875.1324 
 7054000    292.11312   -4153.6377   -3652.9659   -4153.6377            0   -2678.1352    18.404873    23.577057    22.477235    9753.6085   -2464.4336    -2341.999   -3227.9731   -186.29801    531.74538   -158.19804   -4033.9209 
 7055000    268.60834   -4146.2742   -3685.8887   -4146.2742            0   -1631.3211    18.547428    23.669194    22.099533    9701.7539   -1862.1219    -1551.032   -1480.8096    456.66537    341.99672    437.60169   -3916.7045 
 7056000    288.96642   -4146.4072   -3651.1286   -4146.4072            0   -907.68759    18.198668    23.740598    22.488868    9716.2538   -1661.4497   -336.60665   -725.00639   -228.78892    830.31322    692.95308   -3779.7494 
 7057000    284.62888   -4179.8791   -3692.0349   -4179.8791            0   -528.55645    18.201939      23.8534    22.223862    9649.1148   -329.36649   -1027.2687   -229.03412   -281.56123     -551.186    168.39421   -3766.4147 
 7058000    272.76514   -4159.1245   -3691.6144   -4159.1245            0   -2201.3325    18.358886    23.805221    22.345738    9765.9217   -2701.9388   -1249.6488   -2652.4098    945.50513    651.42441    522.13409   -4005.1412 
 7059000    282.84736   -4173.8278   -3689.0371   -4173.8278            0   -2191.9577     18.24651     23.63374    22.484923    9696.2469   -2351.2124   -2109.9437   -2114.7172    -478.0765   -175.43737    681.32214   -3999.0014 
 7060000    273.20245   -4197.0982   -3728.8386   -4197.0982            0   -2971.0014    18.427152     23.88847     22.07763    9718.4946   -3264.0101   -2533.7894   -3115.2046     282.7666   -215.25887    115.32974   -4149.9313 
 7061000    285.18027   -4177.9961   -3689.2069   -4177.9961            0   -2032.9621     18.29942    23.688928    22.388714    9705.3649   -4083.4993   -772.76388    -1242.623    280.12634    120.38142   -660.79533    -3976.958 
 7062000    283.21746   -4144.8165   -3659.3915   -4144.8165            0   -2382.4777    18.195891    23.727567    22.720326    9809.3695   -2003.9596   -1459.7312   -3683.7424   -730.48328    995.51676    793.92638   -4000.2277 
 7063000    279.81786   -4128.1254   -3648.5272   -4128.1254            0   -1432.2173    18.318594    23.937669    22.193622    9732.0016   -3316.8869   -2507.8056    1528.0405     115.5368   -841.51081    616.30422   -3851.8036 
 7064000    289.74072   -4197.8618   -3701.2561   -4197.8618            0   -1532.0923    18.264599    23.669487    22.363667     9668.119   -2089.4258   -1339.4895   -1167.3617    377.82444   -483.11855   -282.20747   -3917.2805 
 7065000     270.6486   -4188.3319   -3724.4494   -4188.3319            0   -2619.3513     18.28359     23.59998    22.390594    9661.3705   -2962.8366   -2811.9394   -2083.2779   -945.39744    431.21233    -67.15612   -4093.5191 
 7066000    297.65484   -4161.5793    -3651.409   -4161.5793            0   -1861.0586     18.36739    23.864686    22.191786    9727.3695   -2409.5057   -2483.1428   -690.52726   -62.290622    264.93105   -730.71286   -3915.4257 
 7067000     267.9116   -4191.7454   -3732.5541   -4191.7454            0   -2496.1533    18.087222    23.969071    22.486884    9748.8267   -2616.1828   -3082.3488   -1789.9282    345.24022   -106.87427     411.0338   -4087.4487 
 7068000    269.98492   -4161.6081   -3698.8632   -4161.6081            0   -1799.5829    18.184985    23.872571    22.345743    9700.7867   -1275.4761   -3756.4619   -366.81083   -576.40586    210.64354   -364.08713    -3953.461 
 7069000    257.89641   -4183.8674   -3741.8418   -4183.8674            0   -1396.1195    18.427179    23.808882    22.028131    9664.4136   -1092.4623   -2117.6912   -978.20507   -671.95406    438.97131   -399.65596   -3938.6186 
 7070000    275.95481   -4161.4811    -3688.504   -4161.4811            0     -1871.16    18.362971    23.413052    22.510432    9677.9814    -890.9665    -658.8926   -4063.6207   -507.21863    333.46203    711.89084    -3952.606 
 7071000    277.61313   -4157.9157   -3682.0962   -4157.9157            0   -2832.7033    18.583034    23.655007    22.089822    9710.2837   -3772.0519   -3476.3053   -1249.7528    156.29541   -214.85416    375.52294   -4083.2482 
 7072000    309.77623   -4161.6528   -3630.7069   -4161.6528            0   -1431.0532    18.162511    23.884339    22.310015    9678.0746    -1936.106    -2369.505    12.451499    811.97944    248.47191    688.99548   -3832.6926 
 7073000    267.71075   -4182.2729   -3723.4259   -4182.2729            0   -2197.2344    17.983503    24.001656    22.501813    9712.5443   -1136.4993   -3358.0921   -2097.1118   -439.59265    865.36071   -163.99992   -4034.6586 
 7074000    304.68538   -4226.8298   -3704.6095   -4226.8298            0     -2119.75    18.328702    23.758617    22.234383    9682.2867   -3005.3359   -2702.6743   -651.23987   -377.11906    58.351228    361.78909   -4003.9314 
 7075000    287.21547   -4189.4866   -3697.2092   -4189.4866            0   -1812.1536     18.53205    23.480294    22.265241    9688.4521   -2546.1004   -1544.2752   -1346.0851   -421.06752   -158.29612    61.727001   -3953.2594 
 7076000    270.16924   -4163.0764   -3700.0156   -4163.0764            0   -1939.8172    18.276249    23.656376    22.488157    9722.7504   -2497.3685   -790.71576   -2531.3672    139.62107    77.390608   -434.39257   -3975.0745 
 7077000    273.80959   -4186.5596   -3717.2593   -4186.5596            0   -696.57479    18.218748    23.843468    22.236135    9659.3358    537.01212   -821.79122   -1804.9453   -553.51737   -188.62815   -89.249904   -3815.3868 
 7078000    297.26199   -4158.1022   -3648.6053   -4158.1022            0   -438.11713    18.130959    23.794803    22.317045    9628.0776     932.7907    -2107.517   -139.62507    407.91249    193.29862     66.61906   -3710.1238 
 7079000    291.46498   -4202.0052   -3702.4442   -4202.0052            0    -2191.213     18.36181    23.545272    22.466514    9713.0337   -2800.1674   -618.07506   -3155.3964   -601.63182   -186.61402    539.27203   -4012.8396 
 7080000    294.52293    -4149.939   -3645.1368    -4149.939            0   -2518.9555    18.613801    23.637032    22.152231    9746.4281    -2901.591   -2950.3917   -1704.8837   -159.52184   -923.32895  -0.51828901   -4003.1853 
 7081000    271.30973   -4159.3938   -3694.3782   -4159.3938            0   -1464.7201    18.320141    23.727831     22.38893    9732.4058   -2491.8238   -2574.5918    672.25516    111.43227    50.746453   -75.215971   -3902.2764 
 7082000    273.99588   -4200.1848   -3730.5652   -4200.1848            0   -169.98019    18.005511    23.969725     22.25402    9604.5491    835.70942   -250.82575   -1094.8243    409.39587   -491.62963   -642.05759   -3754.3748 
 7083000    257.10258   -4154.4716   -3713.8065   -4154.4716            0   -678.54639    18.145025    23.766105    22.295078     9614.453    -512.6682   -2078.9319    555.96099    159.99944    83.356867    558.54971   -3808.9502 
 7084000    300.85556   -4162.2609   -3646.6048   -4162.2609            0   -315.43936    18.308047    23.584897    22.354617    9652.5762   -6.0782098   -232.15314   -708.08673    925.08753   -339.22796   -9.0364527   -3691.0101 
 7085000    288.21589   -4192.3883   -3698.3962   -4192.3883            0   -942.23724    18.599913    23.353767    22.161988    9626.6811   -2951.7584   -613.67878    738.72547   -174.19926    356.21789   -165.80461   -3830.6818 
 7086000    284.95166   -4184.3938   -3695.9964   -4184.3938            0   -753.36639    18.137519    23.659924    22.398376    9611.8671    300.72252   -756.82743   -1803.9943   -24.681991    297.72124    63.746591   -3801.6027 
 7087000     272.1185   -4177.3141   -3710.9123   -4177.3141            0   -963.59475     18.09131     23.87391    22.237347    9604.5391   -697.42867   -1347.6054   -845.75019    1610.0888   -735.95251    529.46687   -3845.8853 
 7088000    284.65911   -4150.4163   -3662.5203   -4150.4163            0    123.06137    18.133659    23.854653    22.090848    9555.8855    939.34466   -720.74594    150.58539   -537.95581    34.985733    108.91078   -3645.3702 
 7089000    263.60274   -4185.6782   -3733.8721   -4185.6782            0   -1522.4595    18.270475    23.678708    22.270699    9634.7774   -716.47701   -1762.4298   -2088.4717    1338.0821   -1389.8937      77.4852    -3947.798 
 7090000    277.92754   -4157.9831   -3681.6249   -4157.9831            0    13.808663    18.474267     23.09148    22.557095    9622.8151     235.3973    1593.4309   -1787.4023   -2277.7897    553.67204    306.74588    -3679.687 
 7091000    270.41069   -4190.6359   -3727.1612   -4190.6359            0   -1019.0748    18.304283    23.636585    22.198604    9604.2425   -1367.9619    1089.3379   -2778.6004    45.509377    427.85746     96.10895    -3869.901 
 7092000     285.0322   -4159.0027   -3670.4673   -4159.0027            0   -893.74659    18.050633    24.028715    22.245607    9648.6653   -17.848158   -2906.8225    243.43086    298.43211   -453.59888     81.45053   -3796.2316 
 7093000    266.45762   -4180.8061   -3724.1069   -4180.8061            0    -1848.299     18.11988    23.822855    22.374804    9658.4708   -1837.7375    -2159.301   -1547.8585   -25.252307    -111.4524   -75.246237   -3984.4562 
 7094000    268.04064   -4162.8344   -3703.4219   -4162.8344            0   -210.30193    18.436554    23.639132    22.028944    9600.7451    135.60797    1014.7567   -1781.2705   -786.15507    164.15537    118.07251   -3732.8678 
 7095000    268.16288   -4182.1988   -3722.5768   -4182.1988            0   -416.76961    18.270053    23.578661    22.225642    9574.4378    -247.3212   -813.24263     -189.745    -196.6499    284.72938    512.05942   -3780.7717 
 7096000    286.12927   -4170.6867   -3680.2709   -4170.6867            0   -756.65749    18.180567    23.547688    22.351908    9569.0824    -1607.768   -867.30034    205.09583    171.80753   -517.21171    163.42702   -3785.8664 
 7097000    269.67744    -4150.415   -3688.1971    -4150.415            0   -2171.2268     18.28278     23.94133    22.178649    9707.9068   -2328.0629   -3270.9952   -914.62231   -980.95493    -398.5207    295.84573   -3995.5991 
 7098000    266.25251   -4180.7151   -3724.3674   -4180.7151            0   -3429.6298    18.316268    23.855632     22.63349    9889.6159   -3844.2667   -1916.4528   -4528.1699   -77.308536   -899.35822    -653.7033   -4219.0225 
 7099000    276.96953   -4154.9306   -3680.2143   -4154.9306            0    -2648.059    18.374511    23.750072    22.320318    9740.4963   -2774.0968      -3246.3   -1923.7801   -67.210954     266.4769   -453.01312   -4056.3848 
 7100000    270.44646   -4179.2454   -3715.7095   -4179.2454            0   -824.14744    18.359588    23.629709    22.205899    9633.6236   -1521.2368   -1336.1681    384.96257   -1743.7619    897.76281   -61.697187   -3831.4993 
 7101000    272.48189   -4199.3082   -3732.2836   -4199.3082            0    -500.6047    18.024987    23.432735    22.660292    9571.1353    294.91992   -878.04732   -918.68672   -645.59124   -351.46352   -287.71052   -3802.1606 
 7102000    286.91528   -4164.8618   -3673.0988   -4164.8618            0   -2512.7934     18.31655    24.042191    22.253156    9799.6223   -2506.5735   -2623.5337   -2408.2731    421.21365    887.50296    987.09492   -4032.2208 
 7103000     290.0723   -4166.6698   -3669.4958   -4166.6698            0   -3669.8388    18.418809    23.913932    22.459345    9892.5811   -3256.4499   -3701.6304    -4051.436   -1335.5905    37.746603    360.01037    -4198.955 
 7104000    274.27394   -4160.3058   -3690.2096   -4160.3058            0   -3261.5566    18.395234    23.741207    22.381719    9774.6579   -3195.7697   -2636.3726   -3952.5274    767.28039   -695.34378   -761.19099   -4155.1555 
 7105000    295.17906    -4168.439   -3662.5122    -4168.439            0   -2151.3192    18.223366    23.582097     22.66436    9739.8998   -1760.6931   -1418.8097   -3274.4547    144.35761   -317.26574    255.02922   -3968.0995 
 7106000    261.49608   -4168.8285   -3720.6332   -4168.8285            0   -2019.9532    18.464501    23.729501    22.218532    9735.1253    -1932.333   -1713.6411   -2413.8855     71.47224   -742.77721   -516.81542   -4007.4197 
 7107000    274.58533   -4186.0907   -3715.4608   -4186.0907            0   -2598.4699    18.372928    23.807663     22.26977    9741.1644   -3448.3122   -1790.6106   -2556.4869    -62.70779    217.51847   -464.93996   -4084.6122 
 7108000    279.33504   -4159.1792   -3680.4085   -4159.1792            0   -4094.7284     18.25051      23.8022    22.674275    9849.7567    -2357.713   -4380.9131    -5545.559    421.99553     281.0088   -499.18337   -4268.6105 
 7109000    279.68945   -4187.7289   -3708.3508   -4187.7289            0   -2586.2361    18.345688    23.779087    22.268651    9714.5585   -2883.6045   -2724.2356    -2150.868    81.606448   -522.50381    -568.1891   -4074.7606 
 7110000    276.93212   -4179.7499   -3705.0977   -4179.7499            0   -2109.1835    18.253208    23.990238    22.173067     9709.559   -2018.7436   -2526.4867   -1782.3203    157.68878    43.502249    264.48605   -4003.7665 
 7111000    287.02648   -4183.2615    -3691.308   -4183.2615            0   -1993.5449    18.178763    23.687703    22.578577    9722.6323   -1381.8198   -1085.4021   -3513.4128   -1126.0912   -12.367134    482.69643   -3973.9819 
 7112000    287.11703   -4180.6992   -3688.5904   -4180.6992            0   -2626.6313     18.54151    23.697999     22.11703    9718.1497   -2614.4978   -2934.9254   -2330.4706    58.173821    317.78961    536.75985   -4060.8609 
 7113000    273.51508   -4168.8939   -3700.0984   -4168.8939            0    -3195.501     18.26243    23.588249    22.588669    9730.7186   -3279.9016   -3009.6927   -3296.9088   -29.283249   -332.17912   -110.30531   -4153.5801 
 7114000    285.02737   -4138.1279   -3649.6007   -4138.1279            0   -2204.7861    18.374143    23.759731    22.250975    9713.9905    -3719.708   -1776.0745   -1118.5759    409.32408   -138.06419    266.19694   -3961.9497 
 7115000    280.47291   -4141.5193   -3660.7983   -4141.5193            0   -1133.7231    18.225144    24.065555    22.110758    9697.7387   -98.230153   -1954.8491   -1348.0899   -429.26384    50.319067    537.05988   -3821.1425 
 7116000    265.97926   -4166.4569   -3710.5775   -4166.4569            0   -882.29327    17.982365    23.836597     22.44812    9622.1258   -1149.6552   -1131.1851   -366.03947    315.65505   -398.73448   -136.03507   -3834.3887 
 7117000    259.51695   -4176.3696   -3731.5664   -4176.3696            0   -1363.3607     18.34052    23.606876     22.24414     9630.876   -30.021079   -1653.8118   -2406.2493    41.413605    57.878951    118.59846   -3923.0592 
 7118000    265.35083   -4176.8984   -3722.0962   -4176.8984            0    -1545.576    18.619418    23.382455    22.269167    9695.2762   -2677.8686   -625.47732   -1333.3819    388.99582    268.27786   -642.25704   -3940.6339 
 7119000    279.85513    -4160.266   -3680.6039    -4160.266            0   -1334.3252    18.213504    23.854164    22.280069    9679.9747   -1533.2459   -2869.4278    399.69811    597.15703    -142.3418    131.17237    -3868.974 
 7120000    277.34446   -4181.4694   -3706.1105   -4181.4694            0   -1304.1527    17.930282      23.9396    22.344147    9591.0862   -535.61862   -358.04111   -3018.7982   -373.35883    540.02787     81.43434   -3888.5304 
 7121000    282.99173   -4202.2102   -3717.1721   -4202.2102            0   -1448.2544    18.216787    23.690441    22.264248    9608.4417    -1563.772   -1708.5006   -1072.4906    205.73022    185.26557    225.17202   -3920.1149 
 7122000    294.60227   -4163.6623   -3658.7241   -4163.6623            0   -1105.9445    18.461809    23.359111    22.350504    9638.6869    -1700.981    833.85758   -2450.7101    259.98121    148.36003    549.50467   -3814.1872 
 7123000    268.74633   -4194.0613   -3733.4393   -4194.0613            0   -1089.2858    18.420907    23.527133    22.287392    9659.1577   -1617.0807   -1408.9243   -241.85245   -1008.6809    604.83528    445.58487   -3886.8858 
 7124000    283.24557   -4153.8284   -3668.3552   -4153.8284            0   -475.79551    18.143997    23.898423    22.295475    9667.6059   -302.46983   -791.40319   -333.51351   -585.70871    267.99513    230.84475   -3735.4386 
 7125000    284.03998   -4136.9027   -3650.0679   -4136.9027            0   -804.65186    18.065584    23.841065    22.424749    9658.4012    289.23093   -1285.0808   -1418.1057    385.27316    425.30563    313.08661   -3763.4095 
 7126000    281.74486   -4174.2358   -3691.3348   -4174.2358            0     210.4872    18.355366    23.678426     22.13868    9622.0497   -81.090258   -699.92868    1412.4805    953.40385   -8.2497166   -723.79052   -3661.7976 
 7127000    286.23769   -4174.9394   -3684.3378   -4174.9394            0   -652.73398    18.394829    23.525926    22.345639    9670.1956    633.94342   -71.720569   -2520.4248    445.86861    -110.9681   -32.579626   -3776.3928 
 7128000    295.98517   -4197.5958   -3690.2873   -4197.5958            0   -1994.3176    18.392296    23.424973    22.545861     9713.637    -2683.748   -841.65186   -2457.5528     264.0752    238.47784    78.278569   -3972.8092 
 7129000    288.38697   -4146.6728   -3652.3874   -4146.6728            0    -1940.777    18.449674    23.967762    22.189248    9812.0275   -1942.8323   -2655.1976   -1224.3013   -32.135418    468.83984    449.48098   -3930.1094 
 7130000    254.94592   -4157.7599   -3720.7913   -4157.7599            0   -2341.4414    18.213837    23.964258    22.421249    9786.4512   -3261.4624   -1638.0342   -2124.8275   -113.47386    -84.16609   -895.95216   -4054.9743 
 7131000    276.02654   -4200.6268   -3727.5268   -4200.6268            0   -2333.8308    18.248521    23.693419    22.538149    9744.8163   -1951.5899   -2002.6243    -3047.278   -1032.8324    1037.0828   -264.01846   -4059.2065 
 7132000    288.23737   -4149.1863   -3655.1573   -4149.1863            0   -1979.4609    18.574964    23.742927    22.053427    9726.0909   -3771.1077   -1182.5468    -984.7282    423.91948   -219.49113    288.87733   -3935.9341 
 7133000    279.67391   -4174.3566    -3695.005   -4174.3566            0   -1979.3603    18.292632     23.71667    22.446287    9738.1038   -2276.3679   -28.053011   -3633.6601     315.8782   -877.34522   -22.932716   -3976.1143 
 7134000    262.95409   -4177.2082   -3726.5139   -4177.2082            0   -1807.4262    18.175689    23.880032    22.258926     9661.176   -2133.3366   -2604.3126   -684.62951    760.56678   -194.86146    239.77183   -3981.1772 
 7135000     276.4022   -4214.2122   -3740.4683   -4214.2122            0   -1951.0809    18.207007    23.817074    22.105968    9585.9797   -614.40717   -3440.9426   -1797.8931   -733.97966   -302.01081    161.68361   -4013.2327 
 7136000    273.45381   -4156.1324   -3687.4419   -4156.1324            0    -1666.586    18.208585    23.559527    22.624082    9705.4061        -2359   -100.17954   -2540.5784   -178.05299    161.94384   -102.56748   -3923.3361 
 7137000    286.32593   -4212.7987   -3722.0458   -4212.7987            0   -2167.0516    18.490363    23.593762     22.26838    9714.7417   -4954.3781   -620.70397   -926.07284    415.46857    39.885041   -197.01376   -4029.0727 
 7138000    275.56151   -4160.3991   -3688.0961   -4160.3991            0   -1148.3051    18.468673    23.558318    22.091102    9611.6369   -2605.6114     242.1431   -1081.4469   -489.50118   -43.971377   -290.15259   -3849.0608 
 7139000    269.40185   -4216.4531   -3754.7076   -4216.4531            0   -1449.5418    18.170049    23.565932    22.471755     9622.274   -1284.8694   -1202.8988   -1860.8572    238.17596   -117.44623    530.56235   -3958.1232 
 7140000    288.15228   -4190.4713   -3696.5881   -4190.4713            0    -1442.792    18.294169    23.857693     22.11966    9654.2729   -2368.3159   -1479.3889    -480.6714    -526.1947   -1107.4064    226.31008   -3899.7299 
 7141000    271.78976   -4197.1735   -3731.3352   -4197.1735            0   -1113.8915    18.078174     23.86388    22.277654    9610.9222   -1460.6379   -1074.3896   -806.64711   -186.59594   -319.14639    -773.8729   -3887.4643 
 7142000    270.11939   -4180.4718   -3717.4964   -4180.4718            0   -1165.2759    18.203749    23.597704    22.486784    9659.5733   -1036.1011   -2558.2426    98.515958   -90.833039   -963.82516    20.611801   -3881.6546 
 7143000    280.20394   -4187.6346   -3707.3747   -4187.6346            0   -1470.6089    18.493699    23.716287    22.026163    9660.7167   -2201.4743   -1344.9245   -865.42776   -153.52221   -39.819288    215.65885   -3914.5712 
 7144000    287.83041   -4196.2666   -3702.9351   -4196.2666            0   -2383.0638    18.312692    23.641064    22.436933    9713.6555    -688.5033   -2529.0762   -3931.6119   -80.166538   -744.80784   -251.58108   -4040.5287 
 7145000    270.87555   -4121.6835   -3657.4121   -4121.6835            0   -2971.0431    18.402491    23.793761    22.450788    9830.4023   -2503.1242   -2048.6377   -4361.3673    264.91997    39.759772    419.81638   -4083.3596 
 7146000    274.38261   -4180.5366   -3710.2542   -4180.5366            0   -1989.5372    18.386902    23.766064    22.285249    9738.3038   -2707.7853   -2388.6296   -872.19672    133.21468   -679.43028     782.3884   -3992.8146 
 7147000     277.3042   -4202.7194   -3727.4294   -4202.7194            0   -2727.0229    18.211695    23.730423    22.534475    9738.7522   -2099.7988   -2529.5737   -3551.6961    340.78621   -306.05027    187.01781   -4114.7477 
 7148000    269.70875   -4202.4557   -3740.1842   -4202.4557            0   -2377.9099    18.223937    23.777662    22.368392    9692.7303   -2344.6119   -2966.0097   -1823.1081    10.571853    72.268649    33.793119    -4076.322 
 7149000    275.08495   -4116.1066   -3644.6204   -4116.1066            0   -699.49327    18.250124    24.041488    22.011502    9657.7693   -138.68002    267.29981   -2227.0996   -536.21827    -758.6668    346.93247   -3743.1431 
 7150000    276.93182   -4177.4312   -3702.7795   -4177.4312            0   -2084.0784    18.222557    23.670194    22.545933    9724.7701   -2214.8204   -555.55974   -3481.8551     347.8193   -81.368167   -828.04628   -3998.3556 
 7151000    273.80883    -4140.366    -3671.067    -4140.366            0   -1431.0159     18.47862    23.732354    22.189743    9731.1155   -1286.2565    -2446.851    -559.9402   -227.46059   -65.226724   -36.912712   -3874.1544 
 7152000    264.05872   -4184.7813   -3732.1937   -4184.7813            0   -2735.2787     18.38256    23.675788    22.342755    9724.0493   -1502.8777   -3142.5636   -3560.3947   -76.053938    254.69419    638.49461    -4120.098 
 7153000    290.00827   -4171.4578   -3674.3936   -4171.4578            0    -3235.938    18.281013    23.676405    22.695037    9823.0626   -3364.1887   -2712.3006   -3631.3246   -883.15416   -104.92395   -167.33582   -4137.9718 
 7154000     270.4564   -4186.2766   -3722.7236   -4186.2766            0   -1964.7936    18.386978    23.842122    22.145481    9708.2373   -1899.5273    -3366.166   -628.68762    281.79224   -139.81453   -627.62225   -4000.9083 
 7155000    283.19646   -4186.8984   -3701.5094   -4186.8984            0    -2489.354    18.143989     23.81425    22.425123    9689.5702   -1579.0351    -3039.513   -2849.5138    -480.1137   -75.848246    701.46845   -4053.2861 
 7156000    264.67332   -4201.4793   -3747.8382   -4201.4793            0   -3281.8226    18.261846    23.706177     22.63764    9800.2542   -3533.1913   -2906.1894    -3406.087   -298.71252   -550.00621   -279.35469   -4216.8982 
 7157000     280.6336   -4189.7944   -3708.7981   -4189.7944            0   -1411.0949    18.348895    23.685281    22.188146    9642.9401    298.13631   -1222.2267   -3309.1942   -472.28378    154.35222    185.76166   -3907.2437 
 7158000    281.10852   -4190.4802   -3708.6698   -4190.4802            0   -1367.3504    18.258829    23.677191    22.328045    9652.8111   -1867.4045   -2733.4042    498.75753    552.75204     158.3565   -946.69697   -3901.1604 
 7159000    276.89203   -4178.9549   -3704.3715   -4178.9549            0   -1739.3508    18.425843    23.628565    22.291017    9704.9789   -1918.5825   -994.36972   -2305.1003   -397.08232    120.61131    338.33784   -3950.5543 
 7160000    299.26941   -4172.1702   -3659.2326   -4172.1702            0   -2091.9574    18.388366    23.788274    22.181536    9702.8134   -3101.1738   -1387.5751   -1787.1234   -84.603902   -276.58775    124.94511   -3955.2563 
 7161000    258.62141   -4175.7792    -3732.511   -4175.7792            0   -2307.8626    18.056967    23.734163    22.570512    9672.9763   -861.94326   -2826.6681   -3234.9765    394.35767   -1004.2229    -185.2661   -4058.0821 
 7162000    277.48302   -4180.0972   -3704.5008   -4180.0972            0   -1751.0253    18.252031    24.000115    22.114034    9687.0712   -1109.5718   -2590.9147   -1552.5893   -951.70137   -325.23462    84.652003   -3951.8787 
 7163000    273.64928   -4156.8537   -3687.8282   -4156.8537            0   -1909.7394    18.326491    23.692414    22.211123    9644.0433   -3531.8262   -1812.8614   -384.53066    -441.1469    -534.3936    1180.0173   -3956.4301 
 7164000    274.82703   -4180.8254   -3709.7813   -4180.8254            0   -475.48937    18.464785    23.318322    22.337228    9617.6911     -1312.83    652.87139   -766.50949   -400.36843   -1636.0426    385.60175   -3776.4754 
 7165000    257.07269   -4136.4522   -3695.8384   -4136.4522            0   -1646.3062     18.25019    23.691592     22.33848    9658.6234   -1679.5354   -1014.2804   -2245.1027   -711.28861    120.58096    260.58346    -3927.739 
 7166000    282.94413   -4168.2931   -3683.3365   -4168.2931            0    -549.8694     18.07296      23.9918    22.200436    9626.1723   -515.57569   -2018.6046    884.57205     690.6668   -137.36575    128.11799   -3760.5315 
 7167000    265.89637   -4183.8504   -3728.1132   -4183.8504            0   -2937.7313    18.145631    24.054684    22.344286    9752.9993   -1676.0431   -4082.2392   -3054.9115    78.617506    74.684073   -589.36044   -4145.9687 
 7168000    292.56298   -4156.5496   -3655.1066   -4156.5496            0   -2040.2186    18.289311    23.582581     22.56678     9733.259    -1855.826    -1895.351    -2369.479   -764.28655   -290.35403    213.12822   -3944.7148 
 7169000    289.18984    -4164.684   -3669.0225    -4164.684            0    -2333.854    18.548815    23.548312    22.248769    9718.1132   -4076.5886   -1352.7682   -1572.2052    575.88937   -341.18521   -697.13087   -3999.7966 
 7170000    276.99073   -4164.3785   -3689.6259   -4164.3785            0   -2196.3152    18.375256    23.636507    22.411916    9734.0969   -1879.2796   -1308.5096   -3401.1562   -883.84751   -69.812744   -111.04503   -4001.4188 
 7171000    273.43588   -4164.3402   -3695.6804   -4164.3402            0   -2272.7112    18.140837    23.877422    22.524814    9756.7682   -2345.4668   -2142.3434   -2330.3232   -349.22721    757.60244    157.67019   -4019.0701 
 7172000    276.44386   -4186.3413    -3712.526   -4186.3413            0   -1782.5928      18.1563     23.98559    22.211588    9672.9147   -1697.5938   -2234.5936    -1415.591    323.47234   -435.01504   -467.32566   -3963.9956 
 7173000    274.21144   -4174.5466   -3704.5576   -4174.5466            0   -2751.9361    18.379989    23.830015    22.335278    9782.7495   -2142.0537   -2952.6071   -3161.1476    -335.7626   -75.003687    63.145957   -4097.1801 
 7174000     271.8462   -4179.5394   -3713.6043   -4179.5394            0   -3196.6812    18.360217    23.572937    22.550553    9759.9748    -3096.422    -3029.225   -3464.3966   -417.68016   -565.34541   -367.65545   -4168.6174 
 7175000     284.5529   -4159.9572   -3672.2433   -4159.9572            0   -3347.9794    18.343651    23.787952     22.36807     9760.484   -3662.8728   -3259.2229   -3121.8424   -798.45403   -131.46495    404.05213   -4148.8169 
 7176000    266.00044   -4166.0404   -3710.1248   -4166.0404            0   -2177.6465    18.285115    23.788235    22.252948    9679.3783   -1504.8809   -2947.0836    -2080.975    660.76307   -510.11382   -531.40477   -4017.5296 
 7177000     289.1501   -4159.0087   -3663.4153   -4159.0087            0   -576.31529    18.252456    23.671243    22.302128    9635.8198    483.00535   -797.42088   -1414.5303    400.98501   -663.42546   -1048.5163   -3744.4041 
 7178000    284.64291   -4168.9617   -3681.0935   -4168.9617            0   -1442.7519    18.343317    23.559858    22.312519     9642.711     -1469.18   -1255.9487   -1603.1269   -456.42795   -715.57541     121.8132   -3883.9863 
 7179000    276.84747   -4171.8571     -3697.35   -4171.8571            0   -1989.9484    18.327113    23.593307    22.320834    9651.4664   -1885.5695   -1073.2633   -3011.0123   -618.87566    1285.1106    548.65482   -3977.4486 
 7180000    271.11836   -4168.9238   -3704.2362   -4168.9238            0   -2652.7089    18.160194    24.085831    22.327925    9766.3093   -2180.8861   -3725.5405   -2051.7002    140.14004   -682.38972    241.41481   -4082.0658 
 7181000    286.20827   -4162.4474   -3671.8963   -4162.4474            0   -1877.4952    18.179814    24.048213    22.434926    9808.3713    -1825.792   -3083.5627   -723.13082    1076.6178    70.836695   -271.20542   -3940.4626 
 7182000    279.37065   -4137.5598   -3658.7281   -4137.5598            0   -1823.2251    18.498301    23.584057    22.236469    9700.9925   -2058.4588   -609.12686   -2802.0895    619.05895   -495.95034   -208.89627   -3916.6762 
 7183000    268.54733    -4177.859   -3717.5781    -4177.859            0   -1228.5527    18.422909    23.430591    22.455164    9692.9882   -2778.0353   -64.645905   -842.97694    476.88688    3.9470149    1371.7702   -3891.2491 
 7184000    268.53342   -4188.0422   -3727.7851   -4188.0422            0   -2319.9073    18.225853    23.885073    22.426208    9762.7074   -2123.2367   -1138.0612   -3698.4241    581.48228    392.59324    1259.1227   -4058.0914 
 7185000    278.31805   -4146.9306    -3669.903   -4146.9306            0   -2166.3854    18.028645    24.146589     22.34155    9725.9534   -351.52788   -3955.0978   -2192.5306   -133.07389   -175.87154    212.50965   -3977.1898 
 7186000    274.92549   -4150.5218   -3679.3089   -4150.5218            0   -1445.2145    18.246821    23.834036    22.220071    9663.4067   -1753.0826   -1767.0465    -815.5144    561.07835     -880.453   -331.86087   -3882.9843 
 7187000    271.26547   -4169.2021   -3704.2624   -4169.2021            0   -1283.4298    18.387554     23.54142     22.30394    9654.6872   -2104.8349   -1182.9917   -562.46287   -515.17423    502.46064    192.41754   -3884.9741 
 7188000    300.68517   -4179.4888   -3664.1247   -4179.4888            0    -407.6437    18.303256    23.467553    22.217373    9543.0865   -939.28493   -958.93699    675.29081    649.89101    592.39286   -592.92418    -3720.859 
 7189000    278.46636   -4209.3429   -3732.0611   -4209.3429            0   -2090.5965    18.275776    23.748688    22.191982    9631.8907   -3157.8104   -1292.5995   -1821.3796    148.06898    352.61467    1156.9903   -4025.7298 
 7190000    290.26983   -4140.2918   -3642.7793   -4140.2918            0   -229.95532    18.111965    23.572623    22.493919    9603.7008    544.58385   -248.49695   -985.95288   -381.84173    622.69331   -100.20981   -3674.9869 
 7191000      287.606   -4178.7406   -3685.7937   -4178.7406            0   -889.68417    18.276716    23.804634     22.11582     9621.942   -1717.2541    -1750.365    798.56655   -248.66642   -195.91053   -489.77257   -3810.6397 
 7192000    280.14994   -4163.7515   -3683.5841   -4163.7515            0    355.36301    18.141936    23.581038    22.299073    9539.6706    676.00867    455.31781   -65.237452    940.83761    404.86103   -381.43026   -3634.1437 
 7193000    282.53676   -4180.9242   -3696.6659   -4180.9242            0   -1902.4738    18.286822    23.689587    22.298099    9659.6985   -1397.6773   -539.31075   -3770.4333   -140.86726      218.919    898.47846   -3964.6803 
 7194000    273.89608   -4132.3837   -3662.9352   -4132.3837            0   -2782.8647    18.580596    23.635184    22.327406    9805.2101   -2820.3927   -1871.0137   -3657.1877     343.2668    99.470129   -27.732397   -4060.8819 
 7195000    274.49727   -4162.9942   -3692.5153   -4162.9942            0   -2196.9658    18.202785    23.822636    22.537955    9773.3212   -1856.5564   -2277.9884   -2456.3527   -120.56613    889.54229    473.44319   -4005.6573 
 7196000    285.83851   -4180.8644    -3690.947   -4180.8644            0   -2646.2434    18.146967    24.044555    22.341213    9748.2698    -2934.282   -3581.7226   -1422.7257    358.71891    93.424984   -752.76205   -4067.1595 
 7197000    280.36656   -4169.6334   -3689.0947   -4169.6334            0   -1914.4029    18.210682    23.797312    22.305197    9666.2978   -622.29092   -3058.0677   -2062.8501     322.9659   -39.890559    17.609274   -3958.9739 
 7198000    278.86153   -4161.9051    -3683.946   -4161.9051            0   -2203.8307    18.398877    23.372863    22.502337    9676.7801   -3595.1611    -1846.172   -1170.1591    1262.8922   -145.20126    275.84199   -3994.9636 
 7199000    292.97053   -4167.6321   -3665.4906   -4167.6321            0   -2653.1347    18.481279    23.645484    22.299859    9745.0116   -1932.8824   -3169.0554   -2857.4662    589.81518   -308.46365    387.44918   -4042.5567 
 7200000    277.48976   -4180.0015   -3704.3936   -4180.0015            0   -2482.1314    18.101471      24.1357    22.251199    9721.3638   -1753.6362   -2981.6684   -2711.0897   -285.23878    -290.9146    585.75047   -4056.3005 
 7201000    280.43129    -4178.022   -3697.3724    -4178.022            0   -2210.5897    18.114599    23.890234    22.443896     9712.866     -655.604   -2859.9963    -3116.169    -165.9137    179.18454   -46.739151   -4010.5073 
 7202000    276.51187   -4141.4484   -3667.5165   -4141.4484            0   -3050.4057    18.469944    23.741756    22.403097    9823.9577    -2273.056   -3118.6041   -3759.5569    491.66138    492.31852    111.63057   -4104.5552 
 7203000    268.83487   -4174.5117   -3713.7379   -4174.5117            0   -2581.4194    18.527869    23.499757    22.442532    9771.4878   -2281.6312   -1692.9479   -3769.6792   -349.69567   -180.19489   -585.34654   -4081.6086 
 7204000    266.51764   -4174.0318   -3717.2297   -4174.0318            0   -3076.6997    18.335217    23.654062    22.407256    9718.0799   -3419.3283   -2607.8385   -3202.9322   -374.26225    213.39938    405.26429   -4153.2849 
 7205000    268.71538    -4195.065    -3734.496    -4195.065            0   -1906.0372    18.086392    23.945713    22.354965    9681.7467   -1010.3646   -1984.4221   -2723.3249   -913.58729   -315.40534   -55.270656   -4003.6253 
 7206000    276.49291    -4191.178   -3717.2786    -4191.178            0   -2149.3563    18.186207    23.953485    22.236641    9686.7931   -1620.3305   -3508.5017   -1319.2367   -742.30023   -216.55325     520.8729   -4020.9224 
 7207000    256.96241   -4144.5068    -3704.082   -4144.5068            0   -2637.2739    18.452351    23.550781    22.417033    9741.7089   -1814.8016   -2344.4346   -3752.5856    409.44937   -681.45581   -283.49376    -4078.767 
 7208000    279.89069   -4169.8915   -3690.1684   -4169.8915            0   -1989.7169    18.309533    23.683055    22.252153     9649.105   -2677.4877   -562.31224   -2729.3507    710.73943    -196.3054    155.89138   -3970.1659 
 7209000    278.87538   -4176.8173   -3698.8344   -4176.8173            0   -1556.8461    18.409955    23.551969    22.201573    9626.3951   -2227.9441   -2005.0949   -437.49918    590.19011    -692.0805   -619.47688   -3917.4017 
 7210000    287.01054   -4155.0013    -3663.075   -4155.0013            0    -1838.964     18.23492    23.669944    22.500968    9711.8576   -1678.9617   -542.69836   -3295.2318    9.9889351    343.47149     300.0644   -3923.5413 
 7211000    273.93215   -4174.3716   -3704.8613   -4174.3716            0   -2634.3909    18.373981    24.021302     22.15553    9778.7188   -3182.3143   -3469.2235   -1251.6349   -1143.0281   -609.42664    235.62185   -4080.5586 
 7212000    269.77276   -4152.6782   -3690.2969   -4152.6782            0   -2086.6383    18.250212    23.822239    22.470375    9769.2406   -1635.6955   -1366.9088   -3257.3105   -139.62632    309.43886    50.796786   -3987.5893 
 7213000    282.88647   -4156.6266   -3671.7689   -4156.6266            0    -1437.619    18.177129    23.553989    22.718539    9726.8039   -1505.9649   -937.37228   -1869.5199   -692.10902    -82.10025   -61.752594    -3875.703 
 7214000    287.51124    -4194.484   -3701.6996    -4194.484            0   -1689.7509    18.480015    23.723221    22.122757    9698.7375   -2340.1875   -1550.2217   -1178.8435   -872.21298    -48.62572    25.580624   -3940.7084 
 7215000    265.40278   -4219.6998   -3764.8085   -4219.6998            0   -1506.4011    18.298436    23.580082    22.501081    9708.7353   -2463.4768   -702.08763    -1353.639   -1014.4489    1306.7603    174.24199   -3978.1028 
 7216000    279.15594   -4182.8497    -3704.386   -4182.8497            0   -2800.6184    18.195287    23.995925    22.446348    9800.3616   -2066.4748   -4001.1574    -2334.223   -136.20547    -350.6244    446.15964   -4104.6734 
 7217000    270.50133   -4182.2739   -3718.6439   -4182.2739            0   -2081.1579      18.1588    23.999017    22.289933    9713.8045    -1882.754   -1627.3677   -2733.3518    569.45934   -111.63977     912.8286    -4013.473 
 7218000    289.00783    -4188.273   -3692.9235    -4188.273            0   -2993.2175    18.223209    23.623893      22.6877    9767.1259   -2865.6178    -3354.396   -2759.6387    139.98002   -95.091753    546.49136   -4119.2879 
 7219000    283.77138    -4159.997   -3673.6226    -4159.997            0   -2065.8029    18.469767    23.519169    22.299592    9686.7992   -3157.1421   -1121.5633   -1918.7032    -206.0065   -264.68087    1142.5299   -3965.4628 
 7220000    269.59374   -4183.7491   -3721.6747   -4183.7491            0   -1543.8514    18.382966    23.456901     22.34283    9634.3942   -1739.2628    -88.68819   -2803.6034     811.5824   -132.75374    379.03605   -3938.5978 
 7221000    283.83721   -4192.3686   -3705.8813   -4192.3686            0   -1100.2886    18.140275    23.670044    22.350848    9597.0319    95.637432   -1107.5972   -2288.9062   -194.99898   -360.69772     152.9923   -3859.8809 
 7222000    267.23141   -4173.3525    -3715.327   -4173.3525            0   -1259.0007    18.231267    24.007259    22.048777    9650.3691   -1011.7651   -2807.9598    42.722852    222.56863   -236.58417   -330.13259   -3892.5197 
 7223000    265.59168   -4164.2161   -3709.0011   -4164.2161            0   -1806.6592    18.279928    23.775903    22.304061     9693.831   -1822.9183   -1561.1678   -2035.8916    2.9614333   -331.10432   -73.953396   -3964.4167 
 7224000    285.88398   -4184.5128   -3694.5175   -4184.5128            0   -2273.9697    18.321257    23.545339    22.507675    9709.3651    -2602.435    -928.8325   -3290.6417   -764.95448   -25.002801    448.34976   -4016.5142 
 7225000    262.12598   -4164.5205   -3715.2455   -4164.5205            0   -999.82423    18.373239    23.620204    22.155723    9615.1328   -2252.0358   -1662.3604    914.92355    1010.2812   -565.55806    117.49159   -3855.4477 
 7226000    281.31612    -4165.383   -3683.2168    -4165.383            0   -2547.7033    18.349242    23.950035    22.338747    9817.0974   -3684.0512   -2900.3914   -1058.6673   -120.88747    -86.58217    176.59755   -4047.9774 
 7227000    305.48359   -4135.0343   -3611.4459   -4135.0343            0   -2196.7135    18.101999    24.046533    22.568718    9823.9447   -1077.5246   -1582.9402   -3929.6758   -236.96594    326.75376   -436.03338   -3926.1738 
 7228000    273.05615    -4129.381   -3661.3721    -4129.381            0   -1932.2474    18.248484    23.964939    22.254381    9732.3703   -1623.9706   -1896.1953   -2276.5762    553.76414    616.50458    -139.3528   -3935.6288 
 7229000    278.43279   -4152.6468   -3675.4225   -4152.6468            0   -2384.2189    18.570987    23.467574    22.425459    9773.3742   -4208.0665   -1930.9338   -1013.6565   -448.91548    444.96504    138.94131   -4015.2563 
 7230000    275.36181   -4117.5454   -3645.5847   -4117.5454            0   -2476.7419    18.410521    23.661987    22.421876    9767.6305   -2110.3892   -2583.7891   -2736.0475   -168.17279   -357.33387    508.44666   -3998.3987 
 7231000    284.53942   -4166.9144   -3679.2236   -4166.9144            0   -2729.5679    18.261153    23.818107    22.540295    9803.8135   -2785.9798     -3621.43   -1781.2937    366.42282   -361.05346   -236.19502   -4069.4933 
 7232000    280.35882   -4169.7673   -3689.2419   -4169.7673            0   -3230.8987    18.215973    24.087267    22.212629    9746.3017   -3454.4085   -5485.5832   -752.70451   -182.90697    209.49917    320.00094   -4148.4812 
 7233000     279.3835   -4185.9528    -3707.099   -4185.9528            0   -1934.5009    18.272244    23.900459    22.199721    9694.9513   -127.97772   -4488.2606   -1187.2645    804.56738    10.249788   -557.33566   -3980.6199 
 7234000    272.75171   -4139.9468   -3672.4597   -4139.9468            0   -1843.9975    18.342693     23.55804    22.493655    9719.9107   -1826.8555   -699.05158   -3006.0854    506.51404   -565.43142    137.05598   -3933.8554 
 7235000    270.29416   -4182.8781   -3719.6032   -4182.8781            0   -1771.7307    18.508816    23.551627    22.161432    9660.4501   -2771.2018   -1619.5318   -924.45835   -971.48284    36.096595    366.66491   -3969.2183 
 7236000     276.5842   -4181.7625   -3707.7067   -4181.7625            0   -1765.9178    18.185334    23.906973    22.345966    9715.0491   -1573.5752   -3045.3513   -678.82685   -233.27192   -461.08963    449.17532    -3957.909 
 7237000    286.51301   -4189.2476   -3698.1741   -4189.2476            0   -2577.2888    18.034661    24.003137    22.432628    9710.8255    -2052.976   -3082.2653    -2596.625    177.21124   -156.65785    209.65693    -4063.176 
 7238000    274.15043   -4144.1081   -3674.2236   -4144.1081            0   -1232.8254    18.301214    23.841496    22.250632    9708.5809   -1343.6267   -1714.5403   -640.30915   -8.9285532     403.6636   -733.15375    -3848.779 
 7239000    284.22513   -4175.6115   -3688.4593   -4175.6115            0   -2006.1001    18.496948    23.344483    22.436244    9688.0086   -2753.5789   -1066.2362   -2198.4853   -112.81637   -508.30191    499.14823   -3971.9006 
 7240000    275.14544   -4157.6353   -3686.0454   -4157.6353            0   -1399.3847    18.450688     23.59843    22.353402    9732.8339   -2989.0173    -521.7946   -687.34229    454.02385    85.120301     180.5574   -3884.6789 
 7241000    263.32988   -4169.7785   -3718.4401   -4169.7785            0   -2044.5067    18.169055    23.995058    22.239709    9695.7915   -1012.1986   -3310.1759   -1811.1458   -19.685756    251.59393    170.75589   -4007.5399 
 7242000    271.92336   -4152.1405   -3686.0731   -4152.1405            0   -3126.9886    17.997626    24.075032    22.572616    9780.5658   -1561.8911   -4026.7784   -3792.2965   -1089.5024   -190.64362    67.124872   -4132.1053 
 7243000    293.44676   -4172.1917    -3669.234   -4172.1917            0   -2265.7022    18.311624    23.757881    22.303441    9703.0089   -3376.4493   -1939.0374     -1481.62   -335.34315   -41.233444    284.94366     -3989.85 
 7244000    279.78748   -4154.8381   -3675.2919   -4154.8381            0   -1779.9687    18.728478    23.178395    22.364152    9708.1901   -2444.4899   -764.44433    -2130.972     12.59435    91.189931   -871.57956    -3927.307 
 7245000    283.93181   -4143.5989   -3656.9495   -4143.5989            0    -2812.909    18.411369    23.677872    22.500464    9808.8984   -1716.3333   -2887.0357    -3835.358    6.3082179    4.4334994   -440.69232   -4059.3438 
 7246000    278.00271   -4180.1746   -3703.6874   -4180.1746            0   -3038.0515    18.204281     24.00804    22.309468    9750.3331   -3101.7957   -4294.9648    -1717.394   -16.631991    111.29092    306.04417   -4135.6941 
 7247000    273.53195   -4166.2829   -3697.4585   -4166.2829            0   -2134.3982    17.885392    24.145712    22.441861     9691.642     549.3284   -3348.3509   -3604.1722   -838.31823   -528.17397   -878.62666     -3999.14 
 7248000    290.49928    -4159.138   -3661.2322    -4159.138            0    -1336.452    18.309316    23.681045    22.317239    9676.3917   -963.86837   -775.44867   -2270.0389   -1569.6764   -669.38049    591.27324   -3849.8326 
 7249000    266.50725    -4171.445   -3714.6606    -4171.445            0   -1832.0859    18.592694    23.422466    22.300999    9711.7898   -2906.5151    74.245261   -2663.9878    316.82569   -663.52899    769.41744   -3974.1509 
 7250000    293.46759   -4145.4952   -3642.5018   -4145.4952            0   -2006.4284    18.287493    23.630702    22.446462    9700.1554   -1457.8711   -2446.5919   -2114.8221   -503.09148    755.62943    191.25514   -3926.3449 
Loop time of 359.109 on 64 procs for 250000 steps with 864 atoms

Performance: 120.298 ns/day, 0.200 hours/ns, 696.167 timesteps/s
376.5% CPU use with 16 MPI tasks x 4 OpenMP threads

MPI task timing breakdown:
Section |  min time  |  avg time  |  max time  |%varavg| %total
---------------------------------------------------------------
Pair    | 23.686     | 27.083     | 33.722     |  43.9 |  7.54
Bond    | 1.6779     | 1.9393     | 2.7824     |  24.5 |  0.54
Kspace  | 182.71     | 191.7      | 195.43     |  20.6 | 53.38
Neigh   | 1.7781     | 1.8943     | 2.0159     |   5.5 |  0.53
Comm    | 47.79      | 52.394     | 55.897     |  24.6 | 14.59
Output  | 0.66081    | 0.66128    | 0.66348    |   0.1 |  0.18
Modify  | 56.879     | 63.302     | 70.362     |  57.3 | 17.63
Other   |            | 20.13      |            |       |  5.61

Nlocal:        54.0000 ave          61 max          46 min
Histogram: 3 1 3 1 0 0 0 0 5 3
Nghost:        2472.31 ave        2494 max        2453 min
Histogram: 1 2 2 2 2 3 1 0 2 1
Neighs:        12569.1 ave       14245 max       10786 min
Histogram: 3 1 3 1 0 0 0 1 5 2

Total # of neighbors = 201106
Ave neighs/atom = 232.76157
Ave special neighs/atom = 2.0000000
Neighbor list builds = 7656
Dangerous builds = 1

unfix		3
unfix		2
unfix		1

write_data	data.final.${pid} nocoeff
write_data	data.final.0 nocoeff
System init for write_data ...
PPPM initialization ...
  extracting TIP4P info from pair style
  using 12-bit tables for long-range coulomb (../kspace.cpp:340)
  G vector (1/distance) = 0.37305536
  grid = 24 27 27
  stencil order = 5
  estimated absolute RMS force accuracy = 0.0028695302
  estimated relative force accuracy = 8.6415048e-06
  using double precision FFTW3
  3d grid and FFT values/proc = 6615 1296
Last active /omp style is kspace_style pppm/tip4p/omp

write_restart   restart.lmp.${pid}
write_restart   restart.lmp.0
System init for write_restart ...
PPPM initialization ...
  extracting TIP4P info from pair style
  using 12-bit tables for long-range coulomb (../kspace.cpp:340)
  G vector (1/distance) = 0.37305536
  grid = 24 27 27
  stencil order = 5
  estimated absolute RMS force accuracy = 0.0028695302
  estimated relative force accuracy = 8.6415048e-06
  using double precision FFTW3
  3d grid and FFT values/proc = 6615 1296
Last active /omp style is kspace_style pppm/tip4p/omp
Total wall time: 0:05:59
