LAMMPS (30 Jul 2021)
Processor partition = 0
  using 2 OpenMP thread(s) per MPI task
using multi-threaded neighbor list subroutines
variable        pid world 0 1
variable        phase world IceVI Liquid

shell cd ${phase}
shell cd IceVI
include Restart.lmp
echo both
log log.lammps
#include		in.partitions
include		in.temp
variable        temperature equal 259.50
variable	tempDamp equal 100.0
include		in.pressure
variable        pressure equal 7875.0
variable        pressureDamp equal 1000.0 # This is 1 ps
include		in.seed
variable        seed equal 745823

units		real
atom_style	full
read_restart	restart.lmp.${pid}
read_restart	restart.lmp.0
Reading restart file ...
  restart file = 30 Jul 2021, LAMMPS = 30 Jul 2021
  restoring atom style full from restart
  orthogonal box = (-0.055930369 -0.17276993 -0.13338535) to (24.785931 24.902771 22.943385)
  4 by 4 by 2 MPI processor grid
  restoring pair style lj/cut/tip4p/long/omp from restart
  restoring bond style harmonic/omp from restart
  restoring angle style harmonic/omp from restart
  1920 atoms
  1280 bonds
  640 angles
Finding 1-2 1-3 1-4 neighbors ...
  special bond factors lj:    0        0        0       
  special bond factors coul:  0        0        0       
     2 = max # of 1-2 neighbors
     1 = max # of 1-3 neighbors
     1 = max # of 1-4 neighbors
     2 = max # of special neighbors
  special bonds CPU = 0.002 seconds
  read_restart CPU = 0.009 seconds
include 	in.setup
variable	out_freq equal 1000
variable	out_freq2 equal 10000
variable	out_freq3 equal 1000

timestep	2.0

neigh_modify    delay 7 every 1

include		in.tip4p
# This is TIP4P/Ice

# create groups ###
group ox type 2
640 atoms in group ox
group hy type 1
1280 atoms in group hy

# set charges - beside manually ###
set group ox charge -1.1794
Setting atom values ...
  640 settings made for charge
set group hy charge 0.5897
Setting atom values ...
  1280 settings made for charge

# ### TIP3P Potential Parameters ###
pair_style lj/cut/tip4p/long/omp 2 1 1 1 0.1577 8.5
pair_coeff 1 1*2 0.000 0.000
pair_coeff 2 2 0.21084 3.1668
bond_style  harmonic
bond_coeff  1 450 0.9572
angle_style harmonic
angle_coeff 1 55 104.52
kspace_style pppm/tip4p/omp 1.0e-5
pair_modify tail yes

thermo          ${out_freq}
thermo          1000
thermo_style    custom step temp pe etotal epair emol press lx ly lz vol pxx pyy pzz pxy pxz pyz enthalpy

restart 	${out_freq3} restart.lmp.${pid} restart2.lmp.${pid}
restart 	1000 restart.lmp.${pid} restart2.lmp.${pid}
restart 	1000 restart.lmp.0 restart2.lmp.${pid}
restart 	1000 restart.lmp.0 restart2.lmp.0


include         in.dump
dump            myDump all atom ${out_freq2} dump.water.${pid}
dump            myDump all atom 10000 dump.water.${pid}
dump            myDump all atom 10000 dump.water.0
dump            myDump2 all dcd ${out_freq2} dump.dcd
dump            myDump2 all dcd 10000 dump.dcd
dump_modify     myDump append yes
dump_modify     myDump2 append yes


variable natoms 	equal  "count(all)"                        # NUMBER ATOMS
variable H      	equal  "enthalpy/v_natoms"                 # ENTHALPY-per-atom
variable Vol      	equal  "vol/v_natoms"                 # volume-per-atom
fix AVG all 		ave/time ${out_freq} 1 ${out_freq} v_Vol v_H file vol_enthalpy.dat
fix AVG all 		ave/time 1000 1 ${out_freq} v_Vol v_H file vol_enthalpy.dat
fix AVG all 		ave/time 1000 1 1000 v_Vol v_H file vol_enthalpy.dat




fix 		1 all shake 1e-6 200 0 b 1 a 1
Finding SHAKE clusters ...
       0 = # of size 2 clusters
       0 = # of size 3 clusters
       0 = # of size 4 clusters
     640 = # of frozen angles
  find clusters CPU = 0.001 seconds
fix             2 all nph aniso ${pressure} ${pressure} ${pressureDamp}
fix             2 all nph aniso 7875 ${pressure} ${pressureDamp}
fix             2 all nph aniso 7875 7875 ${pressureDamp}
fix             2 all nph aniso 7875 7875 1000
fix             3 all temp/csvr ${temperature} ${temperature} ${tempDamp} ${seed}
fix             3 all temp/csvr 259.5 ${temperature} ${tempDamp} ${seed}
fix             3 all temp/csvr 259.5 259.5 ${tempDamp} ${seed}
fix             3 all temp/csvr 259.5 259.5 100 ${seed}
fix             3 all temp/csvr 259.5 259.5 100 745823


run             250000
PPPM initialization ...
  extracting TIP4P info from pair style
  using 12-bit tables for long-range coulomb (../kspace.cpp:340)
  G vector (1/distance) = 0.37430993
  grid = 30 30 30
  stencil order = 5
  estimated absolute RMS force accuracy = 0.0032870436
  estimated relative force accuracy = 9.8988341e-06
  using double precision FFTW3
  3d grid and FFT values/proc = 5400 960
Last active /omp style is kspace_style pppm/tip4p/omp
Neighbor list info ...
  update every 1 steps, delay 7 steps, check yes
  max neighbors/atom: 2000, page size: 100000
  master list distance cutoff = 10.8154
  ghost atom cutoff = 10.8154
  binsize = 5.4077, bins = 5 5 5
  1 neighbor lists, perpetual/occasional/extra = 1 0 0
  (1) pair lj/cut/tip4p/long/omp, perpetual
      attributes: half, newton on, omp
      pair build: half/bin/newton/omp
      stencil: half/bin/3d
      bin: standard
Setting up Verlet run ...
  Unit style    : real
  Current step  : 8500000
  Time step     : 2
Per MPI rank memory allocation (min/avg/max) = 10.54 | 10.54 | 10.55 Mbytes
Step Temp PotEng TotEng E_pair E_mol Press Lx Ly Lz Volume Pxx Pyy Pzz Pxy Pxz Pyz Enthalpy 
 8500000    263.93594   -9085.5878   -8079.3436   -9085.5878            0    7695.6539    24.841862    25.075541    23.076771    14375.054    8980.6012    6407.9317    7698.4289    342.09946    745.73405    431.28654   -6465.9851 
 8501000    257.28486    -9107.451   -8126.5638    -9107.451            0    7933.2424    24.891608    25.203029    22.875335    14350.703    8043.1118    6547.5061    9209.1095    59.795973    1212.7294    524.01176   -6466.2133 
 8502000    260.24389   -9113.1815   -8121.0131   -9113.1815            0    7566.9775     24.97606    25.033039    23.028572    14398.078    7215.3163    8685.1091    6800.5072    333.31263   -317.51019    412.92968   -6532.0901 
 8503000    269.02839   -9136.7344   -8111.0755   -9136.7344            0    7912.2787     24.84513    25.049762    23.122692    14390.745    8322.7203    7434.0108    7980.1051   -387.28935   -541.65402   -76.362167   -6450.4919 
 8504000    254.14256   -9137.9288   -8169.0215   -9137.9288            0    7137.1555    24.920237    25.070237     23.03775    14392.978    8099.9651    5849.8893     7461.612   -4.2732105   -416.18559    1478.8889   -6670.8838 
 8505000    260.61145   -9093.9605   -8100.3908   -9093.9605            0    7428.7059     24.91064    25.261224    22.897036    14408.493    8652.2763    6214.1345    7419.7069   -449.42302   -770.62784    629.32851   -6539.3739 
 8506000    261.40162   -9074.7489   -8078.1667   -9074.7489            0    7373.1087    24.952101    25.139509    23.006735    14431.747    7557.2449    6025.7359    8536.3453   -258.14821   -366.28739    6.4364708    -6526.332 
 8507000    259.61799   -9133.5872    -8143.805   -9133.5872            0    6515.0736    24.953512    25.088369    22.995242    14396.008    7262.7387    5953.0813    6329.4008    373.99137    48.644195    522.69284   -6775.9587 
 8508000    265.80605   -9147.7723   -8134.3984   -9147.7723            0    7496.8559     24.91663    24.972347    23.138605    14397.459     8047.499    7361.2036    7081.8651    217.15823     419.1139    1094.4347   -6560.2673 
 8509000    265.33025   -9080.3594   -8068.7995   -9080.3594            0    7498.1198    24.950626    24.987073    23.141474    14427.393    6652.3627    7599.1585    8242.8382   -374.76174    564.64332    518.55435   -6491.1297 
 8510000    258.51061   -9081.5023    -8095.942   -9081.5023            0    8213.6821    25.037355    25.011484    22.947158    14370.001     7613.082    8127.6635    8900.3007    231.82396   -1348.9037    59.802516   -6374.5864 
 8511000    255.08418   -9093.8013   -8121.3041   -9093.8013            0    8660.6793    24.946662    25.007098    22.980968     14336.53    8984.0997    7935.4293     9062.509   -402.78363    760.17146     -190.627   -6310.4982 
 8512000    260.65089   -9069.5557   -8075.8357   -9069.5557            0    7359.7629    24.844608     25.07209    23.181439    14439.863    8180.3865     7231.418    6667.4842    85.491922    244.18702    267.58221   -6525.9388 
 8513000    258.93876   -9088.7834   -8101.5908   -9088.7834            0    7544.3516    24.925446    25.182012    22.967973    14416.374    8676.2094    6143.5069    7813.3385    341.98796    -597.8296    777.74057   -6515.4057 
 8514000    254.72351   -9125.5787   -8154.4565   -9125.5787            0     8887.755    24.931744    25.124943    22.858169    14318.555    9267.6827    8560.8826    8834.6996    -188.1589     347.3162    437.67524   -6298.5027 
 8515000     258.4007   -9106.6413      -8121.5   -9106.6413            0    8018.4964    24.919205    25.010858    23.049388    14365.547    8390.8773    8430.0058    7234.6062    337.10672    377.27587    170.02322   -6441.5707 
 8516000    255.67565   -9082.9985   -8108.2463   -9082.9985            0     7876.951     24.97741    24.941429    23.075446    14375.363    8257.9569    7177.6093    8195.2867   -836.43154   -981.75301   -601.01573   -6456.8441 
 8517000    259.06954   -9092.9166   -8105.2254   -9092.9166            0    8436.3126    25.043332    25.006196    22.915321    14350.456    8161.0843    8297.1556    8850.6977   -117.30486   -665.13324    401.60151   -6339.6176 
 8518000    253.76115   -9130.6798   -8163.2266   -9130.6798            0    6726.8577    25.045017    24.890397    23.138094    14423.835    5726.4294    7899.9045    6554.2391   -180.23496    548.25124    78.578252   -6748.1861 
 8519000    255.71919   -9098.1439   -8123.2257   -9098.1439            0    9044.0708    24.971269    24.881404    23.044237    14317.851    9512.5874    9493.8647    8125.7602   -1039.9921    468.21289   -298.88272   -6234.7227 
 8520000    258.52179   -9119.0093   -8133.4064   -9119.0093            0     8550.782    25.092811    24.923101    22.879869    14308.857    7189.7255    7822.4457    10640.175   -339.03691   -165.97221     1667.687   -6349.0292 
 8521000    256.08596   -9100.6404   -8124.3239   -9100.6404            0    8780.3266    24.970089    24.826314    23.093145    14315.793    8342.0569    11125.784    6873.1387    622.51925   -18.028308   -783.54531   -6291.1572 
 8522000    262.17016   -9082.7637   -8083.2515   -9082.7637            0     8538.175    25.169576     24.89015     22.95052    14377.917    7077.5509    9128.6049    9408.3691   -113.12741    474.55592   -45.830328   -6292.9058 
 8523000    255.33785   -9143.5154   -8170.0511   -9143.5154            0    7691.4598    24.925502     24.97664    23.011206    14325.748    7951.0355    7969.5679     7153.776   -925.64626    442.24764    598.42313   -6563.1025 
 8524000    270.32856   -9085.5504   -8054.9347   -9085.5504            0    6936.9699    25.020306    24.921084    23.168093    14446.074    6026.9449     7455.803     7328.162    448.36188     909.4319    670.84943   -6593.4457 
 8525000    257.52308   -9095.4272   -8113.6317   -9095.4272            0    7064.5114     25.09538    24.979394    23.045042    14446.185    6624.5605     7341.907    7227.0665     655.1521   -100.57477    573.34199   -6625.2608 
 8526000    260.07641   -9078.7212   -8087.1913   -9078.7212            0    6539.9988    25.130881    24.875517    23.158191    14477.196     5313.714    8022.7232    6283.5591    104.66921   -796.76996    482.70177   -6706.3683 
 8527000    262.45951   -9111.4903   -8110.8749   -9111.4903            0    6238.4007    25.126511    24.969514     23.04373    14457.562    5743.0192    6277.4991    6694.6836   -724.56579    316.92081     -738.045   -6795.5162 
 8528000    254.69501   -9110.7127   -8139.6992   -9110.7127            0    7868.9962    24.969848    24.976009    23.060089    14381.359    7579.2089    8503.5878    7524.1919    887.04885   -409.75559     593.2114   -6489.2766 
 8529000    253.42609   -9119.1947   -8153.0189   -9119.1947            0    5567.0735    25.110268    25.066126    23.016137    14486.751    5322.8633    5619.1413     5759.216   -400.19853    609.86544    192.61804   -6976.8388 
 8530000    264.44215   -9099.0346   -8090.8605   -9099.0346            0    5324.3402    25.134955    25.197466    22.941202    14529.516     5971.524    3912.0903    6089.4065   -19.320686   -562.57925    348.34626    -6962.643 
 8531000    264.35592   -9077.7914    -8069.946   -9077.7914            0    6532.1676    24.993959    24.991081    23.165326    14469.666    6204.7345    7619.2731    5772.4954   -1042.6203    315.22625    170.00483   -6691.4938 
 8532000    261.84482    -9076.043   -8077.7711    -9076.043            0    7134.4882    25.123622     25.06425     22.91198    14427.783    6553.7492    7579.2806    7270.4347    595.65082    757.63822   -749.49193    -6576.572 
 8533000    263.40349   -9105.7245   -8101.5103   -9105.7245            0    7131.2235    25.034593     25.01621    23.003957    14406.703    6109.8974     7384.675    7899.0982   -514.05088   -1434.4222    185.29458   -6603.1904 
 8534000    244.96995   -9104.4233   -8170.4861   -9104.4233            0    7427.3445    24.899378    24.936544    23.237162    14428.057    7983.7515    7380.8491     6917.433    611.78561   -8.2040364   -869.70169   -6607.6361 
 8535000    255.18768   -9153.2087   -8180.3169   -9153.2087            0    7529.4066    24.971249    24.999134    23.017332     14368.79    7544.3189    7420.2266    7623.6742   -431.49659     -232.958    1298.7026   -6602.4991 
 8536000    263.17633   -9120.9963   -8117.6481   -9120.9963            0    7983.9449    24.944413    25.204987    22.824628    14350.382    8405.9839    6299.7564    9246.0944   -1136.7679    179.81048   -941.61171   -6446.7234 
 8537000    254.72527     -9090.09   -8118.9611     -9090.09            0    8758.0801    24.931065    25.020277    22.999012    14346.373    8201.2979    8322.0002    9750.9423   -826.42947    140.78166    475.25179   -6286.5331 
 8538000    268.93577   -9115.5098    -8090.204   -9115.5098            0    9098.7713     24.86772    24.932908    23.091088    14317.042    9539.1419    9326.1872     8430.985    1015.9498    428.70424    692.15849   -6190.3862 
 8539000    259.37284   -9129.6779   -8140.8303   -9129.6779            0     8044.931    25.085087    25.067534    22.787915    14329.526    6737.9653    7129.5292    10267.298    702.50875    8.5383322   -2428.4768   -6459.5891 
 8540000    258.78239   -9120.1043   -8133.5078   -9120.1043            0    8293.3227    24.929131    24.989891    23.020231    14341.058    8573.6731    8478.0143    7828.2809   -720.35975     305.5356    1081.9208   -6398.9625 
 8541000    250.39655   -9120.8806   -8166.2548   -9120.8806            0    8813.1285    24.922088    25.033485       22.917    14297.612    8494.9048    8472.9615    9471.5191     560.2297     746.2091   -753.41316   -6328.5764 
 8542000    259.09332   -9114.2556   -8126.4737   -9114.2556            0    7344.7126    24.858939    24.964708    23.174396    14381.941    7861.9411    6953.7042    7218.4925    879.19011      827.952    862.32769   -6585.9507 
 8543000    261.47362   -9094.4658   -8097.6092   -9094.4658            0    8634.4127    24.892186    24.987416    23.031231    14325.228    7810.2895    8728.9705    9363.9781   -689.39876   -1186.9115   -68.549244   -6293.7185 
 8544000    259.15772   -9110.3533   -8122.3259   -9110.3533            0    8561.7406    25.012929    25.074397    22.843306    14326.958    7844.6811    7107.5189    10733.022    177.51856    903.68572    639.12826   -6333.4016 
 8545000    246.26264   -9122.5981   -8183.7326   -9122.5981            0    7930.3144    24.926725    24.987035    23.039648    14350.129    7787.1956    8013.4059    7990.3419    354.17979   -841.49259    717.10833   -6524.0613 
 8546000    261.49354   -9067.3277   -8070.3951   -9067.3277            0    8668.7172    24.839228    24.920673    23.203937    14363.476    7971.5601    10085.801    7948.7901    801.70215   -280.72108   -219.13048    -6254.502 
 8547000    263.31384   -9145.2829   -8141.4104   -9145.2829            0    8435.0311     24.91917    24.922901    23.061209    14322.349    8391.0266     8692.337    8221.7298    91.827685   -936.18009   -363.14525   -6379.5284 
 8548000    256.06052   -9112.3706   -8136.1511   -9112.3706            0    7392.3535    25.128893    24.998357    22.958148    14421.873    6977.3278    6477.6201    8722.1127    523.55692    386.84649   -197.29034   -6581.3305 
 8549000    262.98948   -9104.0584   -8101.4226   -9104.0584            0    6981.5112    25.097798    25.014815    22.950863    14408.937     6641.021    7249.9643    7053.5484    1178.6472   -132.28354   -241.91957   -6634.3308 
 8550000    267.31211   -9099.4432   -8080.3276   -9099.4432            0    8861.5838    24.854981    24.922607    23.151001    14340.909    9229.1615    9343.8288    8011.7612   -38.096428   -585.36864   -450.56876   -6226.9499 
 8551000    262.81782   -9111.8962   -8109.9148   -9111.8962            0    7340.7909    25.009454    25.028733    23.032294    14417.178    7006.7981    8079.6926    6935.8821    268.42113    1049.1726   -329.07377   -6566.4419 
 8552000    248.19536   -9070.6729    -8124.439   -9070.6729            0    8391.7818      25.0056    25.074957    22.875706    14343.396    8871.7293    8019.8933    8283.7227   -527.90039    117.71495   -595.60472    -6369.015 
 8553000    252.79315   -9097.1254   -8133.3626   -9097.1254            0    8162.2989    25.072681    24.889324    23.006568    14357.066    7932.0246    7831.3526    8723.5193    831.40741    711.10242    422.00795   -6424.3153 
 8554000    259.73645   -9098.8619   -8108.6281   -9098.8619            0    6923.5074    24.958157    25.015027    23.120598    14434.859    7653.0425    7049.1362    6068.3434    570.71707   -286.73546    81.862193   -6651.1079 
 8555000    265.94933   -9110.1316   -8096.2115   -9110.1316            0    7121.0378    25.009155    25.085628    23.019011    14441.445    7209.4053    6783.4674    7370.2406    147.29551   -48.064335   -314.30097   -6596.4236 
 8556000     257.2964   -9067.4334   -8086.5022   -9067.4334            0    7038.1941    25.099156    25.075771    22.926137    14429.268    7150.2991    6114.4224    7849.8606    631.38586     -229.771   -239.40058   -6605.4123 
 8557000    262.18017   -9114.8561   -8115.3057   -9114.8561            0    7026.6934     24.96334    24.991232    23.098071    14410.069    7180.0474     7161.491    6738.5419   -297.20375    716.52061    -62.44475   -6638.6033 
 8558000    256.26075   -9107.7823   -8130.7994   -9107.7823            0    6114.7204    24.872807     25.04953    23.169688    14435.923    7522.5024    6034.0416    4787.6171    1060.3012   -321.95788    915.79237   -6843.4482 
 8559000    257.16399    -9097.787   -8117.3606    -9097.787            0    8100.7671    24.911643    25.138903    22.938077    14365.002     8950.815    7480.7849    7870.7014   -833.57217   -184.24135    39.631016   -6420.2594 
 8560000    260.02315   -9144.7573   -8153.4304   -9144.7573            0    8646.5532    24.795016    25.092506    23.020764    14322.807    10450.901    7766.0036     7722.755   -864.71156     336.0514   -188.06942   -6347.3085 
 8561000    250.82963   -9097.6259    -8141.349   -9097.6259            0    7426.2023    24.815732    25.169899     23.04618    14394.861    8699.1084    5434.7168    8144.7818   -542.76911    255.21452    93.152437   -6582.3345 
 8562000    266.12766   -9132.1384   -8117.5384   -9132.1384            0    6627.9886    24.988491    25.073043    23.013465    14418.799    7047.0527    6867.7567    5969.1564    628.60169   -853.44679    206.09253   -6723.7825 
 8563000    270.21495   -9097.4796    -8067.297   -9097.4796            0    7780.6874      24.9494    24.984424    23.114698    14408.463    7320.0218    7718.0486    8303.9917    901.99248    388.51608    294.10245   -6432.3205 
 8564000    265.14332   -9115.2425   -8104.3953   -9115.2425            0    8543.2103    24.835545     25.02435     23.11306    14364.614    9257.6165    8011.3264    8360.6881    -786.4728   -618.66237    210.00558   -6314.6512 
 8565000    254.20561   -9141.6649   -8172.5172   -9141.6649            0    7167.0286    25.020682    25.098817    22.928351    14398.765    7667.4806    5833.8966    7999.7085      161.538   -445.06172    1203.1528   -6667.5042 
 8566000     274.4948   -9097.6118   -8051.1124   -9097.6118            0    7327.6238     24.86697     25.11657     23.05975    14402.498    8676.8926    6469.9802    6835.9987   -949.01022    115.95549   -590.98074   -6511.9769 
 8567000    256.55102   -9140.5956   -8162.5061   -9140.5956            0    7535.7979    24.859407    25.060321    23.019983    14341.098     8698.173    6620.5808      7288.64   -39.946402    609.89148    597.50602   -6586.3925 
 8568000    255.03973   -9114.9094   -8142.5817   -9114.9094            0     8783.928    24.936938    25.068481    22.922557    14329.605    8998.2635    7267.0555    10086.465   -21.080211    -506.8584    80.750117   -6306.8937 
 8569000    260.77761   -9141.7221   -8147.5189   -9141.7221            0    8922.7506    24.898207    25.028393    22.945618     14298.84    9444.4939    7510.1862    9813.5717   -182.74463    1469.1284   -884.22916   -6286.8228 
 8570000    255.64544   -9116.6226   -8141.9856   -9116.6226            0    8572.2192     24.85073    24.992116    23.077448    14332.764    9279.5516    8420.5083    8016.5977    349.02695    937.42587    -403.4639    -6350.146 
 8571000    256.78758   -9093.7331   -8114.7417   -9093.7331            0    7593.2223     24.90746    24.993132    23.117857    14391.222    8348.9725    7794.2134     6636.481   -1037.1744   -1172.6135   -271.68542    -6521.067 
 8572000    262.34848   -9074.8474   -8074.6554   -9074.8474            0    8858.9149    24.878753    24.970786    23.060914    14326.408    10692.412    8041.0188    7843.3134    630.52326   -605.90852    1060.8547   -6223.7094 
 8573000    249.46779   -9142.1121   -8191.0271   -9142.1121            0    7685.3865    25.031888    25.018563    22.957662    14377.508    6590.1156    7718.3477    8747.6962    81.492471    -800.5134   -719.73454    -6579.546 
 8574000    262.27696   -9095.2667   -8095.3473   -9095.2667            0     7226.672    24.905673    24.984312    23.156696     14409.28    7402.5126    7195.5322    7081.9713   -1053.7215   -544.51335    -904.6643   -6576.7015 
 8575000    268.51859    -9098.508   -8074.7926    -9098.508            0      7618.08    24.968643    25.021603    22.999273    14368.921    9219.2591    6510.4292    7124.5518   -336.06026   -618.99949   -177.33258   -6478.3784 
 8576000    258.32597   -9109.3557   -8124.4993   -9109.3557            0    8742.5886    24.990852    25.023506    22.935814    14343.111     8233.682     7723.311    10270.773    373.41708   -211.72739   -251.46747   -6295.7284 
 8577000    250.95501   -9131.2922   -8174.5373   -9131.2922            0    7337.5052    24.840165    24.999407    23.191948    14401.954    8973.2693    6497.9361    6541.3104    688.44071    883.57711    237.73499   -6633.3844 
 8578000    260.07789    -9077.213   -8085.6775    -9077.213            0    8334.6146    25.017798    24.938207    23.081485    14400.516    6969.2377    9766.3812    8268.2249   -539.84402   -1002.5803    200.13536   -6335.2688 
 8579000     251.6661   -9103.3904   -8143.9245   -9103.3904            0    7586.3618    25.063842    25.044932    22.914002    14383.628    7514.6359      7034.37    8210.0795   -256.30231    107.75667    905.23906   -6552.5299 
 8580000    256.50273   -9096.8971   -8118.9917   -9096.8971            0    7569.1469    24.980881    24.959766    23.050858    14372.601    7326.2859    7780.6067    7600.5482   -569.79939   -42.480424    347.56439   -6532.4255 
 8581000    271.12324   -9114.2814    -8080.636   -9114.2814            0    7450.4594    24.956319    24.878169    23.144485    14369.659     8010.046    7807.4926    6533.8397    579.81209   -2069.3358    168.95319   -6519.2675 
 8582000    258.13093   -9117.9065   -8133.7936   -9117.9065            0    7365.6477    25.024604    24.953723    23.056487    14397.786    6471.2397    8167.1999    7458.5037   -583.51683    529.02344   -241.25369   -6587.1775 
 8583000    257.68236    -9161.666   -8179.2634    -9161.666            0    6800.8038    25.110179     24.93731    22.980302    14389.813    6434.6519    6860.9463    7106.8133    -421.3125    543.32059    -1263.291   -6752.0422 
 8584000    272.75296   -9109.9537    -8070.095   -9109.9537            0    8137.8878    25.178845    24.809896     23.01808    14379.038    6636.5425    8990.2659    8786.8549    805.93646   -801.92628   -568.13993   -6363.5512 
 8585000    253.89994   -9100.0085   -8132.0261   -9100.0085            0    8202.2414    25.005083    24.954785    23.020088    14364.454    7983.1613    7945.6019    8677.9609    174.80132    269.70627    615.04101   -6413.7318 
 8586000    259.70284   -9097.8724   -8107.7667   -9097.8724            0    7909.5626    25.052195    24.900363     23.01606     14357.62    6405.0453    9070.9847    8252.6577   -36.141221    426.22257    1745.4146   -6451.5743 
 8587000    257.26642   -9100.4104   -8119.5934   -9100.4104            0    9090.7421    25.003649     24.89737    22.998821    14317.343     8964.726    10120.368    8187.1326    341.89379   -268.55751   -736.38678   -6221.4123 
 8588000    267.16585   -9082.8367   -8064.2787   -9082.8367            0    8614.6773    25.099542    24.898035    22.960142    14348.465    6544.1882    8649.0488    10650.795    -376.6317    499.59654    818.84513   -6261.5916 
 8589000    249.28188   -9116.3496   -8165.9734   -9116.3496            0    10056.978    24.895932      24.8522    23.034874    14252.107    9244.9016    11310.995    9615.0377    99.260203    258.22411   -202.52419   -6075.6068 
 8590000    264.59313   -9112.1493   -8103.3996   -9112.1493            0    9057.4639    24.970693    24.812362    23.137325    14335.467    8955.0923    8833.7664    9383.5332     39.39883    -74.71321    1165.3878   -6209.7731 
 8591000    257.60933   -9137.6002    -8155.476   -9137.6002            0    7640.4607     24.99678    25.006509    22.953053    14347.545    7915.9987    8433.2431    6572.1403    1157.3757   -1562.6042   -709.22035   -6556.7538 
 8592000    266.38124    -9126.882   -8111.3153    -9126.882            0    7362.9367    25.053545    25.037445      22.9414    14390.607    7577.3123    7017.4825    7494.0153    210.52555    390.44345    143.65603   -6566.0393 
 8593000    258.42215   -9087.6432   -8102.4201   -9087.6432            0    7902.9384    24.963994    24.898261    23.129577    14376.421    9289.8334    6901.1662    7517.8157    647.20157   -350.38163    253.30764   -6445.4477 
 8594000    260.10159   -9115.7586   -8124.1327   -9115.7586            0    7876.7148    25.123241    24.927067    22.925738    14357.214    6499.6806    8029.5652    9100.8985   -220.36665    569.95879   -148.62706   -6474.8649 
 8595000    251.69848   -9150.4348   -8190.8455   -9150.4348            0    8554.1869     25.11713    24.891624    22.880675    14305.139    7356.9737    9050.6878    9254.8991   -164.35884    69.684457   -736.39022   -6406.2216 
 8596000     256.5766    -9104.717     -8126.53    -9104.717            0    7711.1089    25.025736    24.905348    23.089499      14391.1     7077.085     8755.154    7301.0877    -258.2252   -248.67798   -121.20149   -6508.1269 
 8597000    254.26629   -9080.1205   -8110.7415   -9080.1205            0     6546.828    25.055203    24.982312    23.058577    14433.214    6070.0979    7320.8061    6249.5801    54.646062   -323.54923    262.79772   -6732.6759 
 8598000    249.90493   -9146.2761   -8193.5246   -9146.2761            0    6448.6629    25.166406    24.971874    22.938072    14415.485    3817.6051    8772.4128    6755.9708    262.40654    90.352078   -225.94078   -6837.7896 
 8599000    259.17921   -9093.2476   -8105.1382   -9093.2476            0    7075.0765    25.059049    24.970058    23.056503    14427.051    6524.2522    7775.1812    6925.7962    486.58344    80.385317    382.86483   -6616.5156 
 8600000    248.31429   -9104.0975   -8157.4102   -9104.0975            0     7750.242    25.010015    24.901531    23.059069    14360.904    9376.4982     8128.288    5745.9399   -204.53166    613.80456    278.72457   -6534.2068 
 8601000    260.48121   -9135.6167   -8142.5435   -9135.6167            0    7525.9476    24.970731    24.894814    23.132143    14379.905     7851.728    8310.4745    6415.6403   -229.25208    612.59622   -1224.7323   -6564.2307 
 8602000    264.25827   -9084.2076   -8076.7346   -9084.2076            0    7215.0971    25.099102    25.069353    22.947544    14439.013    5973.5987    7330.1539    8341.5388    252.97667   -1318.7207   -100.60341   -6557.3925 
 8603000    257.57299   -9094.5468    -8112.561   -9094.5468            0    7107.5383    25.098504    25.022476    22.925399    14397.763    6864.7255    7111.2084    7346.6812    30.652961   -221.08819    784.89613   -6620.1443 
 8604000    252.97955   -9094.9877   -8130.5142   -9094.9877            0    7414.9107     25.08171    24.837102    23.142339    14416.681    7267.8021    6974.5723    8002.3579    465.24779   -1085.8622   -705.45562   -6571.5107 
 8605000    257.79462    -9091.788   -8108.9574    -9091.788            0    6845.3443    25.048862    24.991694    23.083947    14450.863    7007.9912    6629.2758    6898.7659   -577.79773   -336.05901    383.75259   -6666.2941 
 8606000    260.88726   -9139.5639   -8144.9427   -9139.5639            0    8456.1508    25.073606    24.950337     22.93036    14345.117    7187.2862     8274.408    9906.7583   -852.38133   -1269.7782    1378.6584   -6375.8414 
 8607000    256.78014   -9098.8014   -8119.8384   -9098.8014            0    8757.8452    25.020063    24.921874    22.994377    14338.071    8743.7491    9412.9633    8116.8234    151.83677    1250.8228   -130.71981   -6288.5198 
 8608000     264.2476   -9116.6657   -8109.2333   -9116.6657            0    8407.8694    24.928138     24.89005    23.111775    14339.992    9080.0009    8344.1071    7799.5002   -37.643579   -221.53139    202.84938   -6350.8613 
 8609000    254.91724   -9099.2141   -8127.3533   -9099.2141            0    7649.9726    25.066585    24.954005    22.974062    14370.544    7332.2107    7856.4778    7761.2291   -588.48714   -624.96465    316.33514   -6524.0747 
 8610000    260.20766   -9131.6109   -8139.5807   -9131.6109            0    7740.8647    25.043249    25.000768     22.89173    14332.523    7908.6432    8457.3335    6856.6174   -1533.7428   -512.58708    662.59425   -6521.5453 
 8611000    262.69641   -9109.1844   -8107.6659   -9109.1844            0    7985.1249    24.991642    24.880919     23.04301     14328.49    6607.1564      9488.37    7859.8483    309.76521   -758.08529    546.27798   -6439.0437 
 8612000    263.34613   -9114.7134   -8110.7178   -9114.7134            0    8408.5632    24.962329    24.894791    23.097863    14353.751    7829.0799    9711.0911    7685.5187    1252.3982   -481.86575    -57.90585   -6350.5135 
 8613000    252.82645    -9086.208   -8122.3182    -9086.208            0    7608.2083    25.077747    24.916636    23.037825    14395.257    6380.6331    9077.0315    7366.9603   -1294.1589   -672.92341   -1107.1089   -6525.0506 
 8614000    258.71766   -9050.9408   -8064.5911   -9050.9408            0    7975.0896    25.151869    24.947293    22.975053     14416.18    6737.1699    8471.6839    8716.4149   -790.23648   -426.53305    282.21073   -6387.8668 
 8615000    262.75068   -9074.0211   -8072.2957   -9074.0211            0    7558.1352    25.042756    24.908378    23.087033    14401.101    7916.6415    8439.5991     6318.165   -262.50404   -522.66454   -428.74562   -6484.8962 
 8616000     259.9751   -9130.0903   -8138.9466   -9130.0903            0    9136.5885    24.859086    24.864216    23.138885    14302.184    10037.961    8988.6743    8383.1305   -160.83892    444.82479    -134.8094   -6233.2125 
 8617000     249.4676   -9133.2914   -8182.2071   -9133.2914            0    7600.9529    24.978651    25.002532    22.999445    14363.833    7086.9118    7979.4026    7736.5442   -431.96152   -539.00871   -365.46603   -6589.9461 
 8618000    252.11828   -9138.1632   -8176.9733   -9138.1632            0    8405.3792    24.957363    25.118135    22.902492     14357.17    9421.9032    6519.9739    9274.2604   -1106.9101   -627.10889    401.30559   -6417.0164 
 8619000    255.88485   -9095.5984   -8120.0486   -9095.5984            0    7307.3636    24.940039    25.091175    23.019964    14405.316    8317.1117    6661.2472    6943.7317   -321.23295    225.50592    127.15034   -6584.8684 
 8620000    258.90882   -9121.7321   -8134.6536   -9121.7321            0    8161.0491    24.964184    24.900161    23.122158    14373.015     8574.411    8527.2139    7381.5223    494.48117   -1126.4574   -140.84908   -6423.9697 
 8621000    257.34093   -9108.5666   -8127.4656   -9108.5666            0    8705.9294    25.183168    24.993798    22.740928    14313.664    7459.1112    8381.5492    10277.128    -142.6843    88.672969    1024.5726   -6310.1019 
 8622000    254.56927   -9064.3699   -8093.8358   -9064.3699            0    8885.7873    25.021561    24.925482    23.057057    14380.098    7917.6796    9886.8781    8852.8042    543.59233   -13.366133    147.06989   -6230.3175 
 8623000    249.99101   -9111.2004   -8158.1206   -9111.2004            0    7134.2936    24.967248    24.964128    23.160898    14435.853     8100.912    7215.0876    6086.8811   -301.11039    517.26666   -705.44301   -6656.1227 
 8624000     262.0993   -9086.1691   -8086.9271   -9086.1691            0    7884.9119    24.984227    25.060821    22.956989    14373.951    9878.1129    5902.6461    7873.9768   -283.56669    801.71903    307.78253   -6434.0183 
 8625000    261.85435   -9082.2216   -8083.9134   -9082.2216            0    8095.3382    25.013447    25.024011    22.942859    14360.779     8583.344    8240.3083    7462.3624   -195.31421    -269.2698   -45.254358   -6388.4481 
 8626000     258.8902   -9111.9157   -8124.9082   -9111.9157            0    8619.6191    24.954548    24.903207    23.083417    14345.149    8006.9721    10645.363    7206.5225    320.46139   -701.99097    270.23621   -6321.6038 
 8627000    261.89571   -9097.4952   -8099.0293   -9097.4952            0    8868.3945    24.986018    24.896537    23.046677    14336.539    9085.6153    9168.3477    8351.2206    731.65239   -788.34712   -724.88588   -6244.7924 
 8628000     251.7338   -9102.2517   -8142.5277   -9102.2517            0    8323.1136    25.082653    25.012931    22.868605    14347.549     6792.795    8507.0029    9669.5428    636.14954    632.66333   -31.618032   -6400.9637 
 8629000    255.77616   -9082.3428   -8107.2074   -9082.3428            0    8140.3106    24.979267    24.976283     23.02623    14365.817    7202.0088    8525.5729    8693.3502    15.554134   -1040.4999   -534.38284   -6401.7252 
 8630000    261.23719   -9158.3119   -8162.3566   -9158.3119            0    9605.9683     24.77471    24.907903    23.160155    14291.809    10933.185    9607.6675    8277.0527    119.71911   -70.566255   -960.32042   -6160.1714 
 8631000    250.27656   -9116.3765   -8162.2081   -9116.3765            0    9179.3619    24.953188     24.96463    22.903526    14267.685    9628.0066    8238.4623    9671.6166   -775.76479   -171.81488   -364.64694   -6252.1706 
 8632000    255.68289   -9095.9086   -8121.1289   -9095.9086            0    7308.7884    24.955744    25.044857    23.066983    14417.165    7951.7026    6757.6326      7217.03   -1067.3425    1071.0519   -79.044401   -6584.3862 
 8633000    260.41796   -9131.6353   -8138.8033   -9131.6353            0     5809.666    25.001209    25.007775    23.101753    14443.785    5232.5437    5643.7089    6552.7455    105.14183    481.36504    902.64522     -6915.01 
 8634000    257.22795   -9156.3393   -8175.6691   -9156.3393            0    5658.3708    25.028192    25.060388    23.071541    14470.845    5471.0464    6172.4084    5331.6576    -132.6719    542.99193   -215.81755   -6981.5128 
 8635000    250.02274   -9144.1721   -8190.9714   -9144.1721            0    6541.2532    24.956053    25.086185    23.052335    14431.964    7633.3135    6033.5768    5956.8693    28.769817   -28.611909    448.85104   -6814.1985 
 8636000    258.39644   -9107.4368   -8122.3117   -9107.4368            0    6674.1487    24.983244    25.117092    22.994223    14429.023    5688.9512    7101.6963    7231.7986   -537.11811    1385.2711    776.41522   -6717.8539 
 8637000    261.31234   -9149.2063   -8152.9644   -9149.2063            0    7383.0807    24.981087    24.965321    23.029378    14362.522    7838.4173    7629.7115    6681.1133    748.83775   -124.80655    681.25889   -6606.4848 
 8638000     254.2546     -9088.54   -8119.2055     -9088.54            0    8310.4251    24.958435    24.922386    23.095433    14365.908     7938.036    8600.2937    8392.9457   -194.54204    719.08537    721.70682   -6378.0715 
 8639000    260.88263   -9154.0451   -8159.4416   -9154.0451            0    7447.8784    25.098431    24.986667    22.901368    14362.047    6593.8947    7494.7844     8254.956   -323.56547     -546.421   -507.65112   -6599.4409 
 8640000    263.02031   -9123.6665   -8120.9132   -9123.6665            0    6840.0221    25.082111    25.032705    22.975838     14425.91    6217.9641    6368.4956    7933.6066   -719.76502    308.34564    69.951615   -6681.8608 
 8641000    252.32324   -9129.5799   -8167.6086   -9129.5799            0    6729.1512     25.06158    24.906427    23.106109    14422.704    5968.2721    6914.3852    7304.7964   -917.32598   -348.75277    508.75386   -6752.1966 
 8642000    246.85342   -9104.2413   -8163.1235   -9104.2413            0    8188.8869    25.159477    24.854527    22.983383    14372.128     7801.732    8887.0347     7877.894    362.72189    895.38066   -650.82069   -6446.7103 
 8643000    261.05814   -9113.6023   -8118.3296   -9113.6023            0    7145.7339    25.051442    24.983804    23.003455     14397.41    6969.2404    6908.8852    7559.0761   -461.74906    88.000649    1510.3666   -6617.9295 
 8644000    257.49935   -9105.3677   -8123.6627   -9105.3677            0      7348.63    25.005132    24.891229    23.111908    14385.048    7423.9955    7356.6494    7265.2452    223.80383    239.15415    405.87102   -6581.9851 
 8645000    274.74004    -9110.186   -8062.7516    -9110.186            0    8245.9733    25.014966    24.853589    23.124444    14376.737    7373.3718    9381.2492    7983.2989    869.84274   -123.78526    -236.6936   -6333.8188 
 8646000    264.36498   -9156.0709    -8148.191   -9156.0709            0    7489.7777    25.059054    24.988351    22.999285    14401.795    7365.8965    7078.5782    8024.8585    426.42644    1205.8295    -380.1347   -6575.0725 
 8647000     256.4948   -9112.8614   -8134.9862   -9112.8614            0    8574.1211    24.974653    25.050279    22.900061    14326.782    8230.5015    8459.0673    9032.7944     30.90565    293.23377    619.96495   -6343.4971 
 8648000    257.06346   -9146.1814   -8166.1383   -9146.1814            0    7567.5929    24.968198    24.914599    23.046706    14336.725    8120.6145    7490.7402    7091.4239   -754.08038    664.01324   -175.39439   -6583.8573 
 8649000    262.13185    -9116.575   -8117.2089    -9116.575            0    7602.0155    24.999214    25.002236    23.009231    14381.603    8646.6111    6487.5974    7671.8379    1.5657827    484.92581   -621.10612   -6522.7551 
 8650000    255.64043   -9118.7608   -8144.1429   -9118.7608            0    8723.7075    24.825529    24.951621    23.110422    14315.455     9934.998    9230.7322    7005.3923    211.47872    762.93188    -165.9844   -6322.8402 
 8651000    262.35777   -9115.8355    -8115.608   -9115.8355            0    8487.8356    24.921323    25.019581    23.012606    14348.844    9067.3932    7912.5774    8483.5363   -195.81538   -86.301771   -1192.0575   -6339.4166 
 8652000    259.66553   -9150.7163   -8160.7529   -9150.7163            0    6345.5124    25.080903    25.107915    22.910164    14427.199     5423.457    5718.3075    7894.7726    109.26251    -721.3749    482.99075   -6825.6196 
 8653000    262.22383   -9116.6968   -8116.9799   -9116.6968            0    6698.5209    25.006656    24.939646     23.11476    14415.686    6518.8297    7617.9575    5958.7755   -555.40478   -52.063782    500.86067   -6708.6964 
 8654000    251.32673   -9126.0883   -8167.9162   -9126.0883            0    7084.2318    24.987223     24.91527    23.133698    14402.194    7095.9081    7637.1958    6519.5916   -1147.6066   -398.48476   -441.39893   -6679.9355 
 8655000    257.38636   -9109.8233   -8128.5491   -9109.8233            0    8088.5982    25.098683    25.025931    22.835753    14343.545    7862.6645    7476.7534    8926.3769    507.23019   -320.70044   -103.25993   -6436.5285 
 8656000    250.24935   -9172.3748   -8218.3102   -9172.3748            0    8138.8873    24.893761    24.928903    23.072692    14318.317      8353.93    8574.8652    7487.8665    374.11246   -67.665475    793.29043   -6518.7643 
 8657000    257.47434   -9131.5222   -8149.9126   -9131.5222            0    7829.3881    25.007068    25.041535    22.988607    14395.819    7637.5231      7328.41    8522.2312   -200.52541    -591.0408    359.78814   -6506.1462 
 8658000    260.45273   -9115.8005   -8122.8359   -9115.8005            0    7562.6954     24.90601    25.039812    23.081879    14394.825    8238.9305    7858.0474    6591.1084   -42.885139    432.80636    42.992423   -6535.1708 
 8659000    257.16029   -9086.0093    -8105.597   -9086.0093            0    7121.1013    25.021031    24.982519    23.091609    14434.296     6776.644    8086.0199      6500.64   -860.45266    187.21734     227.0608   -6606.5381 
 8660000    263.38075   -9135.0239   -8130.8964   -9135.0239            0    7753.3058    24.982295    24.976213    23.027161    14368.099    6951.5769    8392.3858    7915.9546     462.8809    839.80636   -193.91642   -6506.2378 
 8661000    253.65712   -9133.7435   -8166.6868   -9133.7435            0    9092.5221    24.873715    24.893711    23.039695    14266.158    9432.2071    9281.5526    8563.8065   -168.06388    173.50808    519.66139   -6274.9215 
 8662000    260.42846   -9120.8244   -8127.9523   -9120.8244            0    7617.6674    24.948258    25.045168    22.972806    14354.175    7820.3382    7227.2613    7805.4028   -264.23096    -339.0759   -654.74823   -6533.2628 
 8663000    266.09029   -9117.0923   -8102.6347   -9117.0923            0     8578.819    24.842368    25.083123    22.969334    14312.748    9188.0487    7964.2734    8584.1348    412.95122   -454.33459   -667.39885     -6311.92 
 8664000    253.08729   -9112.0798   -8147.1957   -9112.0798            0     8839.269    24.917988    25.051819    22.922273    14309.021    9324.7935    8777.7974     8415.216   -241.58127   -464.36676    362.05663   -6302.5959 
 8665000    263.40546   -9115.9587   -8111.7369   -9115.9587            0    10086.995    24.840497    24.949472    23.005559    14257.863    10648.946    9051.4498    10560.588    343.98149    312.60047    1496.3978   -6014.2845 
 8666000    260.65244   -9083.4496   -8089.7236   -9083.4496            0    8309.1857    24.915133    25.024093    23.046973    14369.294    8849.6948    7990.8826    8086.9798    -634.0528    282.56372   -1529.1041   -6348.4389 
 8667000    255.21855   -9163.9056    -8190.896   -9163.9056            0    5882.4738    24.986408    25.175407    22.926204    14421.568    5507.9888    6220.2849    5919.1476    361.18271   -164.81553   -1510.5274    -6953.672 
 8668000    259.46173    -9069.452   -8080.2655    -9069.452            0    7410.3067    24.966205    25.060995    23.115176    14462.656    8250.2535    6424.1133    7556.5533    596.84915   -77.698334   -177.15606   -6517.2614 
 8669000    254.44077   -9100.5531   -8130.5088   -9100.5531            0    6939.5071    24.943528     25.02757     23.09816    14419.625     5423.358    8705.3585    6689.8047   -542.60304    1614.5878   -87.583913   -6671.1621 
 8670000    265.22744   -9139.0382   -8127.8702   -9139.0382            0    8130.7541    24.991202    25.122053    22.842375    14341.135    8471.3919    6490.4891    9430.3812    106.28631   -675.89117    39.285596   -6427.3169 
 8671000    252.55543   -9103.9078   -8141.0513   -9103.9078            0    8205.5339    24.936357    24.997817    23.011753    14344.479    9425.3615    8552.7835    6638.4567   -321.07502   0.44360521    618.31445   -6424.4575 
 8672000    257.65302   -9113.3224   -8131.0316   -9113.3224            0    7640.3218    24.859542    24.983312    23.139582    14371.386    9509.0982    7205.1189    6206.7483    -4.669928    262.36842    367.82463   -6529.6819 
 8673000    260.72461   -9122.1669   -8128.1658   -9122.1669            0    9136.9192    24.892239    25.071579    22.959427    14328.697    11136.964    6483.6937    9790.1001   -238.56567   -227.32914    76.821123   -6218.8298 
 8674000    254.38369   -9124.1801   -8154.3534   -9124.1801            0    8170.9721    24.954628    25.109112    22.890474    14342.908     7606.494     7947.516    8958.9062   -1203.8718   -562.80198     860.3917   -6445.1772 
 8675000     256.2223   -9121.4662   -8144.6299   -9121.4662            0    6916.9602    24.908228    25.008646    23.099933    14389.434    7401.5874    7058.0193    6291.2738    414.75509   -150.78517   -15.348189   -6693.0703 
 8676000    259.74741   -9149.5864   -8159.3108   -9149.5864            0    8337.8213    24.905008    25.025057    22.965702    14313.356    9074.4066    7668.6597    8270.3977   -284.14764   -740.64646    361.11723   -6418.8271 
 8677000    254.01692   -9086.3339   -8117.9056   -9086.3339            0    8739.3668    24.868448    25.107136    22.978731    14347.357    9763.8005    7029.0797    9425.2201    359.48619    265.40965   -197.94815   -6289.2675 
 8678000    253.28852   -9111.7562   -8146.1048   -9111.7562            0    6974.7433     25.03997    25.064951    22.982451    14424.375    6019.2981     6617.146    8287.7858   -618.58421    186.32212   -100.87523   -6678.8649 
 8679000    253.40011   -9105.5574   -8139.4807   -9105.5574            0    6430.4825    24.952669    25.046865     23.14186    14463.342    6233.4949    6414.6758    6643.2767    50.086836   -768.19319    235.50718   -6783.0797 
 8680000    261.13886   -9156.5383   -8160.9579   -9156.5383            0    5153.1596    25.066618     25.13129    22.944887     14454.28    5629.3508    4065.9884    5764.1396    192.53284    748.10413   -58.538431   -7074.6675 
 8681000    260.20631   -9122.3653   -8130.3401   -9122.3653            0     8464.347     25.04278     24.98636     22.93287    14349.737    7616.0495    8551.5471    9225.4444   -411.03931    996.65104    119.04846   -6358.9538 
 8682000    259.70111   -9073.7011    -8083.602   -9073.7011            0    9105.3663    24.945223    24.886112    23.058364    14314.393    8553.0638    10444.216    8318.8197    274.63172    543.29448   -44.702719   -6182.7591 
 8683000    262.44873   -9124.5716   -8123.9973   -9124.5716            0    7558.3576    24.976275    24.991762    22.987049    14348.542    7450.5359    7894.4477    7330.0893    -462.9504   -210.82924    174.89603   -6542.3447 
 8684000    263.01681    -9106.781   -8104.0409    -9106.781            0    9302.6587    24.921216    24.988107    22.949869    14291.664    10251.168       8134.2    9522.6079    82.353147    955.39584    1722.2649   -6165.0946 
 8685000    262.49015   -9062.8219   -8062.0897   -9062.8219            0    10545.472    24.821495    24.956873    23.031814    14267.447    11381.661    10877.117    9377.6375   -960.89321    1079.5016    1237.1124   -5867.8293 
 8686000    266.15504   -9093.8871   -8079.1827   -9093.8871            0    7954.2014    24.998732    25.047318    22.899794    14338.733    7091.5524    7784.0204    8987.0313    716.68289   -267.84369    629.33046   -6415.8342 
 8687000     248.8625   -9135.5357   -8186.7584   -9135.5357            0    7368.3011    24.931741    25.032389    23.030582     14373.41    8300.1725    6238.5839    7566.1468    593.32052   -869.14133   -238.27503   -6642.2044 
 8688000    259.05792   -9076.2791   -8088.6322   -9076.2791            0    8602.9054    24.808684    25.035868     23.09045    14341.638    9431.9217    8593.8115    7782.9829   -630.22382   -1631.5457    166.40505    -6289.265 
 8689000     249.0619   -9126.0206    -8176.483   -9126.0206            0    7926.7782    24.841881    25.206514      22.8885    14332.258    8854.5348    5842.8272    9082.9728    12.631534   -1836.6833   -451.12157   -6519.6177 
 8690000    270.11692   -9105.3413   -8075.5324   -9105.3413            0    7843.7878    24.856629    25.113953    23.026995     14374.56    8374.0263    7234.6555    7922.6815    712.32266   -918.14129   -56.571731   -6431.1747 
 8691000    265.64958   -9132.3379   -8119.5606   -9132.3379            0    7530.9231    24.911143    25.004338    23.076458    14374.018    9216.6213    6374.1521    7001.9959     786.5891   -344.08163    1152.6075   -6540.8508 
 8692000     269.7178   -9126.8793    -8098.592   -9126.8793            0    7664.3706    24.849815    25.218162    22.940868    14376.277    8411.8175    7150.5629    7430.7314   -286.94486    789.55486   -98.349903   -6491.6551 
 8693000    258.38643   -9117.8546   -8132.7677   -9117.8546            0    7739.1364    24.852276    25.095015    23.064407    14384.538    8299.8985    6882.1556    8035.3551   -1778.1476    810.97461    395.00717   -6509.2227 
 8694000    255.83639   -9109.4236   -8134.0586   -9109.4236            0    7019.1512    24.895847    25.163947    23.014318    14417.959    7843.9022    5684.8664    7528.6851    270.70337    220.94573    233.63734   -6658.1336 
 8695000    252.35127    -9086.081   -8124.0028    -9086.081            0    7635.1468    24.953436    25.065314    23.031041    14405.127    7114.7657    7234.9829    8555.6917   -230.75466   -737.52728   -231.79925   -6519.9807 
 8696000    262.49177   -9104.4009   -8103.6626   -9104.4009            0    8049.6359    24.967703    25.101892    22.876908    14337.795     10323.47    6003.2935    7822.1446    22.525507    606.58626    443.32385   -6420.4674 
 8697000    258.91255   -9112.1152   -8125.0225   -9112.1152            0    7179.0883    24.931929    25.004248    23.091996    14395.646    7699.2474    7121.9851    6716.0323   -420.83278   -930.15722   -264.12933   -6617.8035 
 8698000    262.84098   -9103.2794   -8101.2097   -9103.2794            0    7519.3869    24.976956    25.034116    23.025197    14397.104    8235.6692    6351.9051    7970.5863    1022.6272    680.18711   -327.92365   -6522.3867 
 8699000    260.81523   -9076.6068   -8082.2602   -9076.6068            0    8379.3422    24.945426    25.056975    22.944922    14341.882    9504.4301    8082.7783    7550.8183    -717.6105   -285.78016    143.16071   -6329.6232 
 8700000    259.16853   -9109.8872   -8121.8186   -9109.8872            0     9421.589    24.844297    24.946233    23.084484    14307.108    11017.888    8269.4685    8977.4107   -153.21961    865.18368   -934.21821   -6155.9617 
 8701000    272.83425   -9112.7461   -8072.5775   -9112.7461            0    10892.494    24.922611    24.850459    22.981346    14233.228    9329.1846    11906.545    11441.753    773.71834   -933.89937    827.94356   -5811.5459 
 8702000    260.22048   -9118.4412   -8126.3621   -9118.4412            0    9491.9465    24.953266    24.942133    22.943249    14279.595      9446.75    8886.8371    10142.252   -255.14958   -647.61607     840.3291   -6149.6334 
 8703000    255.86762   -9154.9927   -8179.5086   -9154.9927            0    9084.5981    24.947793    24.860471    23.032216      14284.9     8695.143    10254.387    8304.2646   -1021.4051    93.573142    68.795996   -6286.9087 
 8704000    265.21895   -9118.6742   -8107.5386   -9118.6742            0    7782.1137     25.13636    24.948595    22.925909    14377.224    6577.1159    8832.3527    7936.8726    62.809549   -44.687248    385.07554   -6475.8078 
 8705000    261.71392   -9153.4647   -8155.6919   -9153.4647            0    8026.6621    25.060921    24.855917    22.995316    14324.063    6589.1896    9912.6656     7578.131   -361.06974   -1257.1874    1341.3776   -6478.9081 
 8706000    248.94986   -9157.8117   -8208.7013   -9157.8117            0    6959.5346    25.151049    24.791156    23.061713    14379.522    5898.7333    8173.9608    6805.9096     404.0538   -196.27962   -935.07511   -6749.2133 
 8707000    257.10344   -9099.6642   -8119.4686   -9099.6642            0    8791.5355     25.03807    24.908527    22.982936    14333.571    8581.4703    9103.0915    8690.0448    1297.9821   -142.99424    646.84143   -6281.6823 
 8708000    256.78795   -9103.4643   -8124.4715   -9103.4643            0    8197.1158    25.096661    24.875661     22.99993    14358.766    7999.4185    9098.4738    7493.4553    130.14748   -432.26094    202.30033   -6407.9309 
 8709000    261.19309   -9092.1563   -8096.3691   -9092.1563            0    6827.1295    25.054732    25.016606    23.010911    14422.879    6927.8106    7119.4753    6434.1028    277.07535   -1201.6142     502.2527   -6660.3309 
 8710000    265.57528   -9125.4647   -8112.9706   -9125.4647            0    7389.6044     25.01742    24.981959    23.037086    14397.814    6815.3189    7692.6157    7660.8785     824.2905    1123.6433    598.06241   -6561.3211 
 8711000    253.26516   -9067.8004   -8102.2381   -9067.8004            0    6940.7635    24.935335    25.054349    23.137531    14454.908    7067.1159    7061.1295    6694.0451   -123.67522   -1070.2989   -61.241768   -6639.0557 
 8712000    258.75667   -9132.0879   -8145.5895   -9132.0879            0    7621.3675    24.927917    25.045072    23.031782    14379.236     9193.686     6107.934    7562.4825   -489.86724    197.95943     148.4518   -6547.3399 
 8713000    253.32262   -9107.0739   -8141.2926   -9107.0739            0    7188.1488    24.965269    24.962612    23.107996    14400.865    6521.4712    7742.8919    7300.0833   -1056.7352   -351.73124    765.86626   -6631.6244 
 8714000    259.75518   -9103.8431   -8113.5379   -9103.8431            0    6968.4318    25.014097    25.076479    22.950107     14395.81    7870.4716    5238.5352    7796.2887   -613.45874   -1108.9874    -77.59781   -6650.5287 
 8715000    258.25414   -9126.7768   -8142.1942   -9126.7768            0    7360.5582    25.001079    24.976299    23.015774    14371.842    6681.5169    7354.1276      8046.03    1096.1799    358.11572    10.785196   -6599.4317 
 8716000     257.0054   -9142.7932   -8162.9715   -9142.7932            0    6497.5574    25.036858     24.91381    23.122872    14423.204    6188.5357    6788.9784    6515.1581   -9.8454161   -861.54551   -152.18715   -6796.2256 
 8717000    262.67484   -9102.9592   -8101.5229   -9102.9592            0    7900.9587    25.055086    24.880974    23.068511    14380.793    5915.8193    9990.3149    7796.7419   -73.744018   -284.93892    721.88274   -6444.4618 
 8718000    255.94629   -9089.4602   -8113.6762   -9089.4602            0    7475.6813    25.116987     25.02944    22.865043    14374.432     6513.225    7392.6676    8521.1512    -1328.986    1194.6414   -1121.1953   -6546.5016 
 8719000    252.51493   -9116.6879   -8153.9858   -9116.6879            0    8403.6014    25.016219    24.902298    23.036569    14350.892    9399.2102    8855.2241      6956.37   -39.491605    -1406.603    515.79927   -6395.1705 
 8720000    255.12684   -9108.8619   -8136.2021   -9108.8619            0    7778.0134    25.045848    24.921747    23.024846    14371.793    6668.7852    8629.0536    8036.2015   -69.433889   -788.29335    237.99659   -6505.9471 
 8721000    251.60386   -9087.1635   -8127.9349   -9087.1635            0    9038.8328    25.065251    24.806698    23.055694     14335.71     8008.308    9712.9233     9395.267    93.627968   -14.924232   -170.97801   -6238.1714 
 8722000    257.84886   -9131.5603   -8148.5228   -9131.5603            0    8576.7476    25.027437    24.897244    22.962644     14308.35     7849.818    8882.7065    8997.7183   0.83757927    824.35773   -849.56616   -6358.7906 
 8723000    255.84096   -9107.4979   -8132.1155   -9107.4979            0    8828.4268     25.01975    24.829147    23.077743    14336.333    8652.3136    9973.8633    7859.1035   -174.01472   -607.05791    1491.3572   -6286.2617 
 8724000    270.08633   -9094.0825   -8064.3902   -9094.0825            0    8470.6422    25.038834    24.913569    23.031181    14367.006    8491.5764    7975.8537    8944.4963     21.27451   -306.52232   -968.27458   -6289.5532 
 8725000    255.34596   -9130.5671   -8157.0718   -9130.5671            0    6915.2719    25.021998    24.969325    23.069594    14413.476    7744.4023    7198.0573    5803.3562    51.359567     -121.994    373.80491   -6703.4418 
 8726000     260.8678   -9121.1432   -8126.5961   -9121.1432            0    7863.7223    25.124953    24.972589    22.873144    14351.414    6513.1099    8744.2717    8333.7852     -775.291   -1584.7127   -148.55247   -6480.7139 
 8727000    246.77508     -9040.71   -8099.8908     -9040.71            0     6528.843    25.105159    24.959021    23.114621    14483.626    6038.6561    7757.9048    5789.9682   -675.40808    353.26931    1112.7461    -6720.811 
 8728000     263.4412   -9105.9671   -8101.6091   -9105.9671            0    6378.0076    25.106651    25.061401    23.025161    14487.612    7015.7314    5147.0312    6971.2601   -529.05046    278.70044    1134.1236   -6754.0193 
 8729000    260.65732   -9136.0613   -8142.3167   -9136.0613            0    8424.1866    25.019217    24.939646    22.980089    14338.896     8419.678    7664.6779    9188.2038   -197.81109   -431.91397    512.91707    -6380.667 
 8730000    262.00082   -9104.8949   -8106.0283   -9104.8949            0    7775.6932    25.092485    24.848086    23.040345     14365.66    6370.3116    8393.7708    8562.9973   -700.11029    583.83102    569.13117   -6476.9551 
 8731000    263.24723   -9083.4648   -8079.8463   -9083.4648            0    8871.9784    25.232008    24.777348    22.940516    14342.003    7157.9706    10397.374    9060.5907   -162.10659    702.42604   -818.04651   -6224.1531 
 8732000    259.73415   -9106.6687   -8116.4436   -9106.6687            0    7661.7264    25.064092    24.910862    23.026569    14377.056    6075.9249     8808.452    8100.8022   -274.23011   -461.78143    -26.41491   -6509.9741 
 8733000    263.94668    -9100.225   -8093.9399    -9100.225            0    7483.6214    25.012741    24.976999    22.999884    14369.022    7846.5842    6638.8468    7965.4333     327.1302    215.95445   -189.68112   -6525.6913 
 8734000    273.09488   -9155.2728   -8114.1105   -9155.2728            0    6915.8996    25.012885    24.926037    23.108091     14407.25    6298.1677    7803.6592    6645.8717   -270.58693   -281.64026    543.38759   -6660.9766 
 8735000    251.45341   -9124.4471    -8165.792   -9124.4471            0    7490.8932    24.977633    24.985145    23.023005    14367.962    8516.8003    7128.9695      6826.91    440.36837  0.070510227    969.17634   -6596.1353 
 8736000    265.66294   -9119.7669   -8106.9386   -9119.7669            0    8942.9117    24.917974    25.056236    22.905482    14301.052    7861.1414    8950.5264    10017.067   -955.77557    691.03498    671.59644   -6241.7497 
 8737000    253.95967   -9111.0643   -8142.8542   -9111.0643            0    8791.0554    24.915431    24.974217    23.008891    14317.129    8194.0972    10395.342    7783.7267    501.95224   -263.12516    1927.9354   -6307.2762 
 8738000    269.95654    -9094.706   -8065.5085    -9094.706            0    6810.3701    24.930844    25.032883    23.119868    14428.899     6691.078    6792.4894    6947.5428    554.29245   -506.25612   -476.19438   -6632.3976 
 8739000    260.90538   -9115.5627   -8120.8724   -9115.5627            0    7063.9531    25.078559     25.14526    22.914253    14449.886    7415.2024    6139.6308    7637.0261    167.32058    510.79179    591.88435   -6632.2378 
 8740000    261.43041   -9083.4864   -8086.7944   -9083.4864            0    7058.4041    24.956357     25.13634    22.976802    14413.612    8330.3572    5781.3816    7063.4734   -551.89624    -621.4663   -650.48793   -6603.0632 
 8741000    257.93543   -9100.9728   -8117.6053   -9100.9728            0    6841.6129    24.936486    25.062606    23.068863    14417.424     7242.007    6476.0268    6806.8049    6.9945252   -410.46355   -441.29242   -6679.0649 
 8742000    263.08186   -9093.8497   -8090.8617   -9093.8497            0    8040.0851    24.938786    25.024585    23.042574    14380.474    7723.1203    8861.9363    7535.1988    214.16445   -165.11177   -15.382179   -6404.6591 
 8743000    260.72196   -9120.1576   -8126.1666   -9120.1576            0    7972.3315    24.987715     25.08082    22.907539    14356.438    8071.9595    6908.4442    8936.5909    589.06233    369.02761    138.68531   -6456.9683 
 8744000    248.92829   -9097.8745   -8148.8463   -9097.8745            0    8043.2629     24.91796    24.976552    23.106354     14380.58    7908.8572     8390.995    7829.9366   -223.97721   -196.60054   -414.86439   -6461.9649 
 8745000    256.64536   -9090.1753   -8111.7261   -9090.1753            0    8136.1749    25.060303    24.936659    23.027652    14390.445    8505.0792    7954.1177    7949.3278    -166.9813   -1172.6623   -479.35339    -6404.188 
 8746000    253.77435   -9108.8881   -8141.3845   -9108.8881            0    7675.5769    25.046032    25.028617    22.922625     14369.45     8409.239    8061.9438    6555.5479   -849.20419   -1099.9664   -506.41375   -6532.8623 
 8747000    265.27519   -9078.7703   -8067.4203   -9078.7703            0    8201.5475    24.949289    24.964336    23.114086    14396.434    8635.7041    8053.9779    7914.9606    149.11949    195.77021    21.185697   -6345.4461 
 8748000    259.22981   -9158.4158   -8170.1136   -9158.4158            0    6261.2294    24.877047    25.056252    23.146408    14427.748    5992.0972    5944.8803    6846.7107    105.41405    -19.89859   -649.88465   -6852.6639 
 8749000    251.03723   -9138.7325   -8181.6641   -9138.7325            0    8239.5924    24.920369    25.016026    22.965299    14316.765    9047.5343    7060.1227    8611.1201   -605.82553   -1249.1235    -366.7052   -6461.2757 
 8750000    256.70992   -9070.0575   -8091.3622   -9070.0575            0     7869.844    24.891347    25.038087    23.121525    14410.068    8279.2294     7200.642    8129.6606   -358.38622    -964.4431    -416.9655   -6437.4668 
Loop time of 530.332 on 64 procs for 250000 steps with 1920 atoms

Performance: 81.458 ns/day, 0.295 hours/ns, 471.402 timesteps/s
190.7% CPU use with 32 MPI tasks x 2 OpenMP threads

MPI task timing breakdown:
Section |  min time  |  avg time  |  max time  |%varavg| %total
---------------------------------------------------------------
Pair    | 68.769     | 72.987     | 77.768     |  27.6 | 13.76
Bond    | 0.52528    | 0.82584    | 1.2819     |  18.2 |  0.16
Kspace  | 236.82     | 243.09     | 251.16     |  20.2 | 45.84
Neigh   | 4.6161     | 5.1198     | 5.8063     |  12.5 |  0.97
Comm    | 84.759     | 92.077     | 100.3      |  44.0 | 17.36
Output  | 0.53236    | 0.53278    | 0.53447    |   0.0 |  0.10
Modify  | 87.581     | 94.554     | 100.43     |  31.0 | 17.83
Other   |            | 21.15      |            |       |  3.99

Nlocal:        60.0000 ave          64 max          55 min
Histogram: 1 3 1 5 3 5 4 3 5 2
Nghost:        3347.69 ave        3368 max        3323 min
Histogram: 1 1 3 5 2 6 5 4 1 4
Neighs:        21072.1 ave       22540 max       19226 min
Histogram: 3 1 3 4 2 1 7 3 5 3

Total # of neighbors = 674306
Ave neighs/atom = 351.20104
Ave special neighs/atom = 2.0000000
Neighbor list builds = 10926
Dangerous builds = 0

unfix		3
unfix		2
unfix		1

write_data	data.final.${pid}
write_data	data.final.0
System init for write_data ...
PPPM initialization ...
  extracting TIP4P info from pair style
  using 12-bit tables for long-range coulomb (../kspace.cpp:340)
  G vector (1/distance) = 0.37426004
  grid = 30 30 30
  stencil order = 5
  estimated absolute RMS force accuracy = 0.0032919379
  estimated relative force accuracy = 9.9135732e-06
  using double precision FFTW3
  3d grid and FFT values/proc = 5400 960
Last active /omp style is kspace_style pppm/tip4p/omp
WARNING: Not all mixed pair coeffs generated from mixing. Use write_data with 'pair ij' option to store all pair coeffs. (../write_data.cpp:312)

write_restart   restart.lmp.${pid}
write_restart   restart.lmp.0
System init for write_restart ...
PPPM initialization ...
  extracting TIP4P info from pair style
  using 12-bit tables for long-range coulomb (../kspace.cpp:340)
  G vector (1/distance) = 0.37426004
  grid = 30 30 30
  stencil order = 5
  estimated absolute RMS force accuracy = 0.0032919379
  estimated relative force accuracy = 9.9135732e-06
  using double precision FFTW3
  3d grid and FFT values/proc = 5400 960
Last active /omp style is kspace_style pppm/tip4p/omp
Total wall time: 0:08:50
