LAMMPS (30 Jul 2021)
Processor partition = 1
  using 2 OpenMP thread(s) per MPI task
using multi-threaded neighbor list subroutines
variable        pid world 0 1
variable        phase world IceIh IceIII

shell cd ${phase}
shell cd IceIII
include Restart.lmp
echo both
log log.lammps
#include		in.partitions
include		in.temp
variable        temperature equal 245.22
variable	tempDamp equal 100.0
include		in.pressure
variable        pressure equal 1456.8
variable        pressureDamp equal 1000.0 # This is 1 ps
include		in.seed
variable        seed equal 745823

units		real
atom_style	full

read_restart	restart.lmp.${pid}
read_restart	restart.lmp.1
Reading restart file ...
  restart file = 30 Jul 2021, LAMMPS = 30 Jul 2021
  restoring atom style full from restart
  orthogonal box = (-0.068632571 -0.035882603 -0.18823498) to (20.068634 20.035884 20.888233)
  4 by 2 by 4 MPI processor grid
  restoring pair style lj/cut/tip4p/long/omp from restart
  restoring bond style harmonic/omp from restart
  restoring angle style harmonic/omp from restart
  972 atoms
  648 bonds
  324 angles
Finding 1-2 1-3 1-4 neighbors ...
  special bond factors lj:    0        0        0       
  special bond factors coul:  0        0        0       
     2 = max # of 1-2 neighbors
     1 = max # of 1-3 neighbors
     1 = max # of 1-4 neighbors
     2 = max # of special neighbors
  special bonds CPU = 0.002 seconds
  read_restart CPU = 0.007 seconds
include 	in.setup
variable	out_freq equal 1000
variable	out_freq2 equal 10000
variable	out_freq3 equal 1000

timestep	2.0

neigh_modify    delay 7 every 1

include		in.tip4p
# This is TIP4P/Ice

# create groups ###
group ox type 2
324 atoms in group ox
group hy type 1
648 atoms in group hy

# set charges - beside manually ###
set group ox charge -1.1794
Setting atom values ...
  324 settings made for charge
set group hy charge 0.5897
Setting atom values ...
  648 settings made for charge

# ### TIP3P Potential Parameters ###
pair_style lj/cut/tip4p/long/omp 2 1 1 1 0.1577 8.5
pair_coeff 1 1*2 0.000 0.000
pair_coeff 2 2 0.21084 3.1668
bond_style  harmonic
bond_coeff  1 450 0.9572
angle_style harmonic
angle_coeff 1 55 104.52
kspace_style pppm/tip4p/omp 1.0e-5
pair_modify tail yes

thermo          ${out_freq}
thermo          1000
thermo_style    custom step temp pe etotal epair emol press lx ly lz vol pxx pyy pzz pxy pxz pyz enthalpy

restart 	${out_freq3} restart.lmp.${pid} restart2.lmp.${pid}
restart 	1000 restart.lmp.${pid} restart2.lmp.${pid}
restart 	1000 restart.lmp.1 restart2.lmp.${pid}
restart 	1000 restart.lmp.1 restart2.lmp.1


include         in.dump
dump            myDump all atom ${out_freq2} dump.water.${pid}
dump            myDump all atom 10000 dump.water.${pid}
dump            myDump all atom 10000 dump.water.1
dump            myDump2 all dcd ${out_freq2} dump.dcd
dump            myDump2 all dcd 10000 dump.dcd
dump_modify     myDump append yes
dump_modify     myDump2 append yes


variable natoms 	equal  "count(all)"                        # NUMBER ATOMS
variable H      	equal  "enthalpy/v_natoms"                 # ENTHALPY-per-atom
variable Vol      	equal  "vol/v_natoms"                 # volume-per-atom
fix AVG all 		ave/time ${out_freq} 1 ${out_freq} v_Vol v_H file vol_enthalpy.dat
fix AVG all 		ave/time 1000 1 ${out_freq} v_Vol v_H file vol_enthalpy.dat
fix AVG all 		ave/time 1000 1 1000 v_Vol v_H file vol_enthalpy.dat


timer           timeout 02:55:00 every 1000
New timer settings: style=normal  mode=nosync  timeout=02:55:00

fix 		1 all shake 1e-6 200 0 b 1 a 1
Finding SHAKE clusters ...
       0 = # of size 2 clusters
       0 = # of size 3 clusters
       0 = # of size 4 clusters
     324 = # of frozen angles
  find clusters CPU = 0.001 seconds
fix             2 all nph aniso ${pressure} ${pressure} ${pressureDamp}
fix             2 all nph aniso 1456.8 ${pressure} ${pressureDamp}
fix             2 all nph aniso 1456.8 1456.8 ${pressureDamp}
fix             2 all nph aniso 1456.8 1456.8 1000
fix             3 all temp/csvr ${temperature} ${temperature} ${tempDamp} ${seed}
fix             3 all temp/csvr 245.22 ${temperature} ${tempDamp} ${seed}
fix             3 all temp/csvr 245.22 245.22 ${tempDamp} ${seed}
fix             3 all temp/csvr 245.22 245.22 100 ${seed}
fix             3 all temp/csvr 245.22 245.22 100 745823


run             250000
PPPM initialization ...
  extracting TIP4P info from pair style
  using 12-bit tables for long-range coulomb (../kspace.cpp:340)
  G vector (1/distance) = 0.37175124
  grid = 24 24 25
  stencil order = 5
  estimated absolute RMS force accuracy = 0.00348798
  estimated relative force accuracy = 1.0503948e-05
  using double precision FFTW3
  3d grid and FFT values/proc = 3458 576
Last active /omp style is kspace_style pppm/tip4p/omp
Neighbor list info ...
  update every 1 steps, delay 7 steps, check yes
  max neighbors/atom: 2000, page size: 100000
  master list distance cutoff = 10.8154
  ghost atom cutoff = 10.8154
  binsize = 5.4077, bins = 4 4 4
  1 neighbor lists, perpetual/occasional/extra = 1 0 0
  (1) pair lj/cut/tip4p/long/omp, perpetual
      attributes: half, newton on, omp
      pair build: half/bin/newton/omp
      stencil: half/bin/3d
      bin: standard
Setting up Verlet run ...
  Unit style    : real
  Current step  : 1500000
  Time step     : 2
  Walltime left : 2:54:59.94
Per MPI rank memory allocation (min/avg/max) = 10.19 | 10.19 | 10.20 Mbytes
Step Temp PotEng TotEng E_pair E_mol Press Lx Ly Lz Volume Pxx Pyy Pzz Pxy Pxz Pyz Enthalpy 
 1500000    255.02595   -4687.8567   -4196.0177   -4687.8567            0    1499.2626    20.137266    20.071766    21.076468    8518.9081   -556.37421    3841.4479    1212.7141    534.54537   -1104.6041    382.29393     -4009.75 
 1501000    247.30506   -4727.9455   -4250.9969   -4727.9455            0    2368.2551    20.025501    20.341555    20.960603    8538.2978    1977.3562    1905.6226    3221.7865   -924.70443   -84.311107    139.53169   -3956.0963 
 1502000    235.11213   -4697.4797   -4244.0462   -4697.4797            0    457.79217    20.144068    20.084048     21.30168    8618.1149    1450.1433   -655.25242    578.48567   -117.42113    -842.2095     742.8407    -4186.508 
 1503000    245.27551   -4718.6154   -4245.5809   -4718.6154            0    2260.5474    20.084935    20.059513    21.150613    8521.4555    4685.0476    387.76358     1708.831    -74.04937    532.04406    1122.8719   -3964.6476 
 1504000    244.92577   -4755.9539    -4283.594   -4755.9539            0    1035.8558    20.075328    20.240989     20.90683    8495.3751    940.38614    841.62934    1325.5518    527.46303    717.94805    508.18984   -4155.2552 
 1505000    232.31287   -4688.6538   -4240.6189   -4688.6538            0     1061.654    20.282216    20.428209     20.70253    8577.6658     371.6564   -1430.8706    4244.1761   -3.5475539    1113.5794    937.41409   -4107.8097 
 1506000    255.73316   -4728.2152   -4235.0123   -4728.2152            0    1405.1504    20.123333    20.163289    21.131995    8574.3611    1903.6189      1204.16    1107.6724   -254.70988    1376.4444    792.52082   -4059.3007 
 1507000    243.05598   -4703.9165   -4235.1626   -4703.9165            0     2373.536    19.949259     19.94686    21.261136    8460.3392    2758.7806    2627.7499    1734.0773   -857.54092    1018.1884    18.926882    -3942.303 
 1508000    240.20787   -4702.6192   -4239.3581   -4702.6192            0    1359.2999     20.21611    20.129297    21.237345    8642.2419    2292.1496    1053.8574    731.89273   -566.28307    1459.3333    147.00582   -4068.0344 
 1509000    255.11704   -4707.8763   -4215.8616   -4707.8763            0    1791.9101    20.213402    20.057429    21.004931    8516.0055     1060.715    2496.1528    1818.8626   -574.53877    334.87397    1440.4359   -3993.3114 
 1510000    247.47475    -4700.313   -4223.0371    -4700.313            0    806.45804    20.106911    20.327204    21.124283    8633.8597    1463.7829     1162.937   -207.34581   -227.49112   -1237.8821   -541.14741   -4121.4911 
 1511000    239.72602    -4717.102   -4254.7702    -4717.102            0     1146.857    20.049065    20.049662    21.341135    8578.6446    1142.4428    1631.2746    666.85375    337.46504    136.74145     224.5486   -4111.2861 
 1512000    247.52847   -4681.8429   -4204.4635   -4681.8429            0    766.60849    20.185292    20.094651    21.155996    8581.2191    449.06188    1907.7493   -56.985738    349.76361   -525.25424    1218.5504   -4108.5237 
 1513000    246.23297   -4682.5778   -4207.6968   -4682.5778            0    2380.1877     20.11244    20.271887    20.945793    8539.9582    2747.0024     1134.405    3259.1556    44.954376   -206.81267    229.56215   -3911.2527 
 1514000     239.6837   -4719.4204   -4257.1703   -4719.4204            0    3069.0607    20.098151    19.975737    21.033992    8444.6295    4555.1742    1506.3461    3145.6617   -80.555669    1164.8784    422.93321   -3879.1962 
 1515000    243.80292   -4723.4855    -4253.291   -4723.4855            0    250.31172    20.336737      20.1969    21.245939    8726.5362   -293.46721     6.630916    1037.7715   -1276.9971    476.54326    206.37446   -4221.4345 
 1516000    246.88605   -4718.8884   -4242.7479   -4718.8884            0    2506.5626    20.196705    20.037235    20.988383    8493.7075    1408.2117    3514.0598    2597.4164   -29.408679   -21.103619    1159.0618   -3932.2549 
 1517000    257.71452   -4740.7153   -4243.6912   -4740.7153            0    2436.9734    20.193498    20.271772    20.952142    8576.9269    2148.0718    2837.1342    2325.7143    336.08747   -498.38285    1081.8909   -3938.8607 
 1518000    238.43715   -4730.4943   -4270.6482   -4730.4943            0     3633.551    20.021443    20.161894    20.969367    8464.7087    5580.5252     1910.021    3410.1067    182.97883   -283.83142   -1219.8078   -3822.0896 
 1519000    252.09229   -4733.8526   -4247.6714   -4733.8526            0    2184.8758    20.250293    20.019457    21.150592    8574.4472    2289.1999    2012.8983    2252.5293   -240.40952    1405.6888   -87.042971   -3974.4537 
 1520000    238.01084   -4709.0293   -4250.0054   -4709.0293            0    1654.4027    20.101356    19.898812    21.219903    8487.8147    1868.0343    2259.6369    835.53707   -243.78608     413.1004    292.84067   -4045.2134 
 1521000    239.57332   -4738.0156   -4275.9783   -4738.0156            0    1094.2758    20.241841    20.217246    20.973778     8583.189    1576.8305    901.92329    804.07363    -126.2195   -360.31958    887.14412   -4139.0001 
 1522000    244.06299   -4714.8346   -4244.1386   -4714.8346            0   -455.20686    20.404799    19.980891    21.059486    8586.0802   -1991.5392    1170.2249   -544.30622   -552.98132    -248.9403   -1507.4362   -4301.1393 
 1523000    239.41925    -4733.401   -4271.6608    -4733.401            0    817.20107    20.146921     19.99333    21.326641    8590.4571    1580.6959   -415.76282    1286.6701   0.99146222   -1376.6634   -541.68226   -4169.2794 
 1524000    255.72361   -4691.6201   -4198.4356   -4691.6201            0    552.52046    20.234086    20.082189    21.334718    8669.2507   -466.39408    1179.1355    944.81992    -451.1802   -1175.9787    388.35272   -4128.5792 
 1525000    249.58189   -4693.2796   -4211.9399   -4693.2796            0    1318.0474    20.069638    20.234788    21.096538    8567.4068    2556.6673    107.14463    1290.3304    178.45314    888.50118   -98.795332   -4047.2541 
 1526000    255.88909   -4699.6262   -4206.1225   -4699.6262            0    1175.2679    20.172547    20.218787    21.177967    8637.7398    813.21151    989.15865    1723.4336   -188.87881    1714.0245   -311.48443    -4058.071 
 1527000    256.45642   -4704.8561   -4210.2583   -4704.8561            0    2929.3558    20.243005    19.976359    20.952993    8473.0032    3003.8473    2794.8602    2989.3598    334.50528    1062.7275   -857.85353   -3848.2776 
 1528000    244.72535   -4736.5985   -4264.6251   -4736.5985            0    444.15348    20.181059    20.255568    21.125347    8635.5944    1954.7123   -1089.6779    467.42607    708.10815   -566.33788    393.55408   -4208.6878 
 1529000     256.8976   -4727.1206   -4231.6719   -4727.1206            0    1130.2151    20.208083    20.117535    20.967237     8523.954   -438.43062    2181.6017    1647.4741    82.917813    1144.7394   -1197.6472   -4091.1714 
 1530000    255.15017   -4714.1697   -4222.0911   -4714.1697            0    1168.5706    20.067118    19.976012     21.31821    8545.6386   -137.83323    3643.6124 -0.067359615     340.6718    1072.4253    1034.8052   -4076.4529 
 1531000    250.29231   -4702.2358    -4219.526   -4702.2358            0   -256.79001    19.967725     20.33729    21.304558    8651.5558    1375.7736   -459.56035   -1686.5833   -491.41411    624.41851    237.79081   -4251.9262 
 1532000    248.10621   -4714.4705   -4235.9768   -4714.4705            0    3043.3005    20.112258    20.052198    20.994939    8467.1536    4987.9019    1385.8502    2756.1495   -901.91647   -262.68387   -661.36954   -3860.1756 
 1533000    257.14238   -4737.8189   -4241.8982   -4737.8189            0    2752.3567    20.220431    20.154184    20.838128    8492.0849     2453.834     1722.118    4081.1179   -1106.6801   -213.22244   -456.83253   -3901.0234 
 1534000    240.18801   -4725.4031   -4262.1804   -4725.4031            0    1574.3823    20.210158     20.03987    21.152336    8566.8854    450.50056    2093.1117    2179.5345    40.609364   -125.98368   -257.23433   -4065.4783 
 1535000    230.53487     -4733.09   -4288.4841     -4733.09            0    1071.9787     20.15414    20.000905    21.149452    8525.3661    274.76929    2308.5432    632.62349    -863.9087    347.14156     964.1925    -4155.201 
 1536000    240.03516    -4735.137    -4272.209    -4735.137            0    3066.6115     20.12763    20.073339    21.086329    8519.4825    3291.2712    2597.8577    3310.7057    583.34851    103.62179    8.0181601   -3891.1889 
 1537000    244.23842   -4724.1738   -4253.1394   -4724.1738            0    3217.9222     20.40924    20.130858    20.729985    8517.0287    2800.9336    1805.0654    5047.7674    92.240352    -2145.007   -1056.1951   -3853.4345 
 1538000    253.76835   -4720.1032   -4230.6896   -4720.1032            0    405.26944    20.244321    20.260469    20.931312     8585.175      258.946   -633.69013    1590.5525   -782.80258     1006.585   -891.66156   -4179.9474 
 1539000    235.51772   -4717.2487   -4263.0329   -4717.2487            0    1216.4725    20.167904    20.041726     21.22641    8579.7066     1544.414    1083.0098    1021.9938   -229.64009    1011.2248    1360.4866   -4110.8203 
 1540000    244.49082   -4723.3377   -4251.8166   -4723.3377            0     2324.179    19.967557    20.182967    21.262036    8568.6969    2003.8498    3093.8327    1874.8544   -169.89378    454.52113   -380.42663    -3961.374 
 1541000    257.15985   -4737.5558   -4241.6014   -4737.5558            0    1513.6815     20.18512    20.088719    21.117335    8562.9361    3122.8222    376.48226    1041.7399   -748.24476    184.24553    312.51982   -4052.5703 
 1542000    240.14728   -4721.5611   -4258.4169   -4721.5611            0    1797.0914    20.180687     20.25599    20.762989      8487.49    315.47925    1527.1496    3548.6455     94.30363    619.64053   -17.898215   -4035.9705 
 1543000    251.75297    -4714.438   -4228.9113    -4714.438            0    1076.6255    20.323799    19.982676    21.014456    8534.4725    1482.7243     1124.246    622.90615   -568.01761   -191.47821   -699.78052   -4094.9074 
 1544000    240.09673   -4737.9628    -4274.916   -4737.9628            0    1350.6479    20.029005    20.246368    21.054897    8538.0681    121.75485    1022.8478     2907.341    651.23104    1069.3906    1425.7583   -4106.7347 
 1545000      238.702   -4741.3068   -4280.9499   -4741.3068            0    2749.3891    20.145461    19.948755    21.109176    8483.2892    2267.2829    2835.6236    3145.2607    169.15311    358.93672    330.06673   -3940.7953 
 1546000    231.20268   -4715.8849   -4269.9911   -4715.8849            0    2159.9262    20.069696     20.02116      21.2508    8538.9669    2624.5436    1945.7836    1909.4515    923.33397    373.78516   -554.06373    -4001.011 
 1547000    248.85612   -4722.7414   -4242.8015   -4722.7414            0    2599.9872    19.939072    20.227389    21.089228    8505.6099     2211.405    3801.1119    1787.4446   -523.72994   -313.50839    1666.7841   -3920.2845 
 1548000    238.95341   -4735.8863   -4275.0445   -4735.8863            0     1988.374    20.144481    20.210418     20.88007     8500.869     3405.285    418.98485    2140.8521   -782.19471    314.09665   -231.65258    -4028.533 
 1549000    255.74355   -4731.6738   -4238.4508   -4731.6738            0    373.42707    20.275546    20.154695    21.006582    8584.2858   -1901.6308    2606.9779    414.93415    417.25621    712.19962    1559.8541   -4191.7004 
 1550000    245.33662   -4732.9721   -4259.8197   -4732.9721            0    1288.8999    19.951213    20.103261    21.554661     8645.239    1467.6548    2710.0932   -311.04829    -514.9522    91.289953   -362.15936   -4097.3127 
 1551000    245.06001   -4650.2934   -4177.6746   -4650.2934            0    2654.7759    20.126501    20.109324    21.125888    8550.2878    2989.3009    1967.0249     3008.002   -24.514362   -9.4724071   -1057.5473   -3846.6315 
 1552000    231.17397   -4715.3404    -4269.502   -4715.3404            0    3498.0345    20.106759    20.186876     20.75151    8422.8851    2354.3158    3159.2289    4980.5588    1002.4136    876.06029   -149.46401   -3839.8065 
 1553000    229.48697   -4724.3021   -4281.7172   -4724.3021            0    647.92254    20.236349    20.114788    21.324501    8680.1356   -1118.3287    2403.9643    658.13208   -158.84507    571.85994   -51.053557   -4199.6961 
 1554000     257.1062   -4722.3376   -4226.4867   -4722.3376            0    2118.6544    19.947103    20.205907    21.116235    8510.8842    3174.2028    1767.2402    1414.5201   -505.02014    73.180794   -1909.6444    -3963.514 
 1555000    246.45446   -4717.2788   -4241.9706   -4717.2788            0    1532.5836    20.358469    19.992228    21.040229    8563.6081   -1353.5117    3633.0648    2318.1977    707.62136    1183.0045   -935.29419    -4050.564 
 1556000    255.77123   -4699.5763   -4206.2999   -4699.5763            0    1933.3322    20.243084    20.248319    20.785091    8519.5685    1201.3396    1443.2772    3155.3797   -268.07661   -806.53189    190.00952    -3966.085 
 1557000    231.22566   -4719.6234   -4273.6852   -4719.6234            0    2010.5392    20.070528     20.29073    20.791907    8467.4139    1970.4597    1622.1931    2438.9649   -2.1525886   -448.85613    81.685226   -4025.4067 
 1558000    250.43266   -4736.5791   -4253.5987   -4736.5791            0     1480.561    20.144538    20.172435     21.10863    8577.7955    1584.5803    1517.4743    1339.6285    683.09263   -1750.4272    143.40513    -4068.383 
 1559000    241.58748   -4710.5256   -4244.6039   -4710.5256            0    2308.6943     20.00608    20.026416    21.280465    8526.0203    5808.2548    418.11267    699.71535   -594.50193   -981.13784    356.81013   -3957.5333 
 1560000    255.07925   -4745.6571   -4253.7153   -4745.6571            0    2845.5216    20.086762     20.15935    21.097624    8543.1891    3612.5945    2661.8414    2262.1288    164.14071    1046.2449    1181.2943   -3899.1814 
 1561000     238.7688   -4693.7467    -4233.261   -4693.7467            0    2707.3174    20.045142    20.153865    21.056361     8506.498    2586.9257    3338.0499    2196.9765    421.71018     1890.087   -904.43317   -3897.3952 
 1562000    258.55715   -4704.9498   -4206.3006   -4704.9498            0    1622.7054    20.343905    20.040331    21.216445    8649.9149    931.70792    3447.6756    488.73281    464.81296    640.33934    1089.8344   -4001.5961 
 1563000    251.20469     -4701.83   -4217.3607     -4701.83            0    1906.6088    20.188843    20.140743    21.083225    8572.8246    1344.5405    3051.4592    1323.8266   -174.89235    654.46005    561.29109   -3978.9853 
 1564000    238.25434   -4706.6646   -4247.1711   -4706.6646            0    336.26446     20.27794    20.091925    21.165589    8623.3448   -1775.0229    1765.2038    1018.6125   -0.3804808   -836.54728    1298.1091   -4204.8816 
 1565000    246.43222   -4721.2832   -4246.0179   -4721.2832            0    2483.0792    19.885415    19.934206     21.40281    8484.0726    2872.3856    3683.2966    893.55536   -697.05093    245.36728    210.58483   -3938.7828 
 1566000    251.54534   -4688.0587   -4202.9324   -4688.0587            0    2190.3124    20.049972    20.152926    21.084785    8519.6362    2308.9834    2633.4408     1628.513   -391.83305     -165.164   -957.06778   -3930.7857 
 1567000    239.01577   -4719.3994   -4258.4374   -4719.3994            0    451.35874    20.222661    20.149158    20.889828    8511.9694    1065.5048    341.40022   -52.828786    40.284296    25.091861   -20.892727   -4202.4065 
 1568000    245.29774   -4717.9091   -4244.8318   -4717.9091            0    503.03412    20.324183    20.221217    20.941994    8606.7344    -2231.576    2381.4438    1359.2345   -356.35434    924.87834   -1388.2984   -4181.6908 
 1569000    237.03318   -4732.0457   -4274.9073   -4732.0457            0    3447.5601    20.158406    19.864983    21.008205    8412.6597    4147.3892    2629.4408    3565.8503    373.11903    1010.5849    325.35867   -3851.9261 
 1570000    253.04009   -4722.6752   -4234.6661   -4722.6752            0    1514.0825    20.168169    20.053152    21.266346    8600.8619    3521.2709    697.79662    323.18007   -164.94684    1092.3442     412.0467   -4044.7475 
 1571000    243.95656    -4707.733   -4237.2423    -4707.733            0    1698.4794    20.084795    20.078918    21.345871     8608.383    3344.3693    594.08924    1156.9797    250.59689    1391.7396   -434.44378   -4024.0076 
 1572000    258.26018   -4692.0912   -4194.0147   -4692.0912            0    2813.7242    20.244271    20.185044    20.926287    8551.1399     1515.024     4001.617    2924.5318    -358.5817    1016.3089   -5.1391481   -3843.1163 
 1573000    239.87507   -4741.0072    -4278.388   -4741.0072            0    1455.3312    20.262574    20.140202    20.825594    8498.7649   -861.22815    3214.5019    2012.7198   -292.15025   -352.86351   -365.73656   -4098.0058 
 1574000    235.43125   -4721.8971   -4267.8482   -4721.8971            0    1112.9504    20.174344     20.14678    20.990424    8531.5171    1916.1102    1064.1933    358.54766   -89.525296    1191.0209   -532.55818    -4129.371 
 1575000    250.06605   -4739.1162   -4256.8428   -4739.1162            0     908.0691    20.075943    19.986725    21.386044    8581.2006    1126.7786    1702.5762   -105.14748    188.84646   -749.09928   -103.33133   -4143.1998 
 1576000    245.62061   -4720.3457   -4246.6457   -4720.3457            0    2090.3147    20.087311    20.065167    21.127527    8515.5603     1333.378    4278.6105    658.95557   -31.780367   -93.162095   -971.90432    -3987.048 
 1577000    234.98318   -4748.3541   -4295.1693   -4748.3541            0    1423.3307     20.23085    20.191498    20.744066    8473.7679    876.31579    2219.4014    1174.2749   -205.16102    1254.9393   -341.94786   -4119.2724 
 1578000    263.77032   -4719.6327   -4210.9295   -4719.6327            0    2351.2354    20.139995    20.250476    20.862742    8508.7543    1345.4815    3262.2598    2445.9647   -220.39586     1012.413    516.39137   -3919.1613 
 1579000     242.0646   -4734.9679   -4268.1259   -4734.9679            0    1715.0916    20.116489    20.070567    21.284624    8593.6529    2217.0341     1369.675    1558.5656   -228.38647     -217.932   -442.74904   -4053.1742 
 1580000    242.23901   -4689.3473    -4222.169   -4689.3473            0    2898.5689    19.964702    20.157151     21.22796       8542.8    4339.2598    2170.0787    2186.3681    427.34439   -1138.0924    1005.2204   -3861.0421 
 1581000    246.41311   -4712.3403   -4237.1119   -4712.3403            0    1013.2361    20.301669    20.170864    20.855872    8540.5255    635.17688     170.2521    2234.2793   -183.71292    1347.4194    1029.1968   -4110.9085 
 1582000    237.38106   -4730.4982   -4272.6889   -4730.4982            0    581.25137    20.370405     20.15262     20.88774    8574.7729    251.92584   -430.32789    1922.1562    114.76697    360.56049   -626.68668   -4200.0009 
 1583000    245.24962   -4699.4814   -4226.4969   -4699.4814            0    2704.2489    20.183102    19.944316    21.302722    8575.1586     2010.337      3120.42    2981.9896    -1344.551    464.36386   -888.37025   -3888.3038 
 1584000    258.74834   -4705.8154   -4206.7975   -4705.8154            0    994.63384    20.317589    20.017502    21.177741    8613.1433   -1066.9301    3311.9489    738.88267   -9.6131069   -286.10716    54.671328   -4081.8577 
 1585000    239.65818   -4726.7056   -4264.5047   -4726.7056            0    2406.3757       20.055    20.262647    20.785281    8446.4607    1833.0021     1985.697     3400.428    441.12084    476.17156    507.39804   -3968.0802 
 1586000    243.09767   -4726.5978   -4257.7635   -4726.5978            0    1302.1064    20.029585    20.204813    21.132727     8552.288    1982.5353    1546.1941    377.58984    -471.4574     -147.294    785.91016   -4095.3565 
 1587000    240.64858   -4723.3613   -4259.2502   -4723.3613            0    1427.3762    20.178974    20.022833    21.137365    8540.3458    469.05225    1898.6116    1914.4646    -392.2874   -1749.7405    1133.1712   -4081.4674 
 1588000    252.36687   -4733.6747    -4246.964   -4733.6747            0    12.452473    20.091183    20.071168    21.384033    8623.1861   -305.72383    1260.7858    -917.7046    -205.3607   -838.73304    453.36139   -4245.3979 
 1589000    235.28696   -4748.3411   -4294.5704   -4748.3411            0    47.401077    20.266867    20.211629    21.031983    8615.2551   -36.702696     257.2888   -78.382872    306.67808   -45.665649   -891.30169   -4288.6147 
 1590000    237.41255   -4716.4693   -4258.5992   -4716.4693            0    3812.3877    20.103038    20.129505    20.824671    8426.9989    4636.8781    3772.1977    3028.0873   -561.34272     -937.956   -944.73206   -3790.0601 
 1591000    242.08095   -4726.4646   -4259.5911   -4726.4646            0    1409.1361    20.168015    20.072217    21.197084    8580.9351    576.19847    2241.1318    1410.0779   -789.50487   -418.12422    1209.4401    -4083.246 
 1592000    252.63635   -4747.9117   -4260.6812   -4747.9117            0     575.9502    20.184429    20.049697    21.261173    8604.2202    603.61736     730.1704    394.06284   -649.69434   -84.293033   -410.67488   -4188.4088 
 1593000     249.7043   -4703.4869   -4221.9111   -4703.4869            0   -602.08083    20.257901    20.330561    20.847607    8586.1809   -1089.7596   -423.74372   -292.73919   -135.39384    120.80207    49.661653   -4297.3041 
 1594000     250.7719   -4732.5356   -4248.9009   -4732.5356            0    3516.8933    20.121191    20.215538    20.794933    8458.5617     3856.696     2517.807     4176.177   -383.19344    342.23111    565.31912   -3815.0589 
 1595000    236.88545   -4745.3877   -4288.5342   -4745.3877            0    3289.0316    19.945249    20.282337      20.9135    8460.2693    3143.5718    3531.6454    3191.8776   -258.26097    1165.6645    368.08906   -3882.7192 
 1596000    247.68066   -4717.3996   -4239.7266   -4717.3996            0    914.36827    20.161387    20.017177     21.16226    8540.5394    868.35574    282.80473    1591.9444   -413.43292   -355.99653    571.36413   -4125.8374 
 1597000        242.7   -4705.3485   -4237.2811   -4705.3485            0    1084.1457    19.952991     20.15711    21.196442    8525.0952    726.58322    1340.6746    1185.1793   -1516.7042   -467.16614    991.75406   -4102.4895 
 1598000    254.86165   -4739.1145   -4247.5923   -4739.1145            0     1827.251    20.216576    20.171944    20.867223    8509.8131    1892.2472    1084.1047     2505.401   -483.66278   -842.93088    -167.5221   -4020.8179 
 1599000    240.04772   -4718.7735   -4255.8213   -4718.7735            0    2340.2724    20.183334    20.230051    20.795653    8491.0707    1586.4155    2527.7244    2906.6773    37.917387    336.40271     26.88512    -3966.017 
 1600000    240.55502   -4709.7924   -4245.8619   -4709.7924            0     2991.091    20.135735    20.054025    21.256699    8583.5088    2027.4151    5330.0976    1615.7604   -143.91014    202.82878     -536.929   -3871.4321 
 1601000    232.65816   -4732.4957   -4283.7949   -4732.4957            0    1348.5194    20.195098     20.16457    21.213278    8638.5871    1585.6382    1239.0183    1220.9017   -20.906151    60.514134   -609.72938   -4113.9017 
 1602000    239.43411   -4710.3714   -4248.6026   -4710.3714            0     1121.838    20.147884    20.137353    21.103111    8562.0611    525.02081    1619.2899    1221.2033    85.968672    124.75593    937.37366   -4108.5199 
 1603000    242.56731   -4699.3065    -4231.495   -4699.3065            0    2824.2751     20.14574     20.05224    21.076666    8514.2825    2447.4969    3898.3677    2126.9608   -442.31432    465.83073    77.550114   -3880.7989 
 1604000    257.30138   -4732.4289   -4236.2016   -4732.4289            0    48.675473    20.291603    20.137372    20.952884    8561.7584    11.749489    68.767379    65.509552   -602.74413    -438.2295     606.6708   -4230.1238 
 1605000    239.94445   -4661.2629   -4198.5098   -4661.2629            0    2343.9976     20.17302    20.197479    20.980172     8548.248     3234.413     1545.788    2251.7917   -1013.1408   -514.80657   -400.29073   -3906.2897 
 1606000    234.04205    -4728.671   -4277.3013    -4728.671            0    1970.3702    20.286986     20.21237    20.865488    8555.8531    776.32341    2754.2961    2380.4911   -350.71721   -323.24047    23.675867   -4031.4417 
 1607000    239.97633   -4711.8179   -4249.0033   -4711.8179            0    2444.9381    20.074381    20.119431    21.148775    8541.6758     4731.802    1461.1056    1141.9066    477.15737   -567.84122    832.69426   -3944.4335 
 1608000    253.71771   -4714.7346   -4225.4187   -4714.7346            0    1486.3838    20.040602    20.114009    21.273716    8575.3681    2891.1402    839.86003    728.15107    520.14168    194.82706    343.15375   -4039.5271 
 1609000    248.23499   -4720.9651   -4242.2231   -4720.9651            0    406.57655    20.323957    20.167056    20.948442    8586.2297   -530.76406    783.65683    966.83687    585.19964    1221.6387    10.064168    -4191.311 
 1610000    247.10666   -4690.4604   -4213.8945   -4690.4604            0     1993.928    20.180768    20.166905    20.955668    8528.6136    1588.5891    1757.7929     2635.402   -362.29242    -912.2148   -647.35476   -3965.8875 
 1611000    251.28852   -4697.6726   -4213.0415   -4697.6726            0    2163.9574    20.086384    20.026247    21.363794    8593.6906    3500.9314     2135.335     855.6058   -224.45932   -684.99363   -576.11079   -3941.8324 
 1612000    244.45157     -4702.52   -4231.0746     -4702.52            0    1322.5167    20.087217    20.076448    21.253273    8571.0193    1931.5665    1222.4592    813.52431     118.5847    459.57352    1103.5939   -4065.7606 
 1613000    247.61851    -4748.653   -4271.0998    -4748.653            0    2384.9247    20.177165    20.198722    20.787963    8472.1954    2431.9514    1636.1062    3086.7164   -188.29769   -746.31299   -803.06738   -3976.4227 
 1614000     239.3484   -4694.9086   -4233.3051   -4694.9086            0    993.68199    20.178206    20.116594    20.938901    8499.4511     2988.254   -730.77831    723.57031   -84.416994   -67.287027    287.69386   -4110.1325 
 1615000    246.10547   -4725.0726   -4250.4375   -4725.0726            0    758.82653     19.84689    20.322973    21.384155     8625.252    1300.3136    1607.3122   -631.14615    176.22466    132.14899    375.55445   -4154.9844 
 1616000    240.60095   -4736.6491     -4272.63   -4736.6491            0     2553.972    20.033159    20.075728     21.02962    8457.6979    3753.9198     2049.419    1858.5771   -276.50912    464.58928    103.00824   -3957.6056 
 1617000    219.54315   -4703.9233   -4280.5159   -4703.9233            0    1369.7497    20.154416    20.332726    20.975661    8595.7047    274.50076    1706.7838    2127.9646    431.79901   -163.80511   -203.42539   -4108.8047 
 1618000    243.74585   -4740.2548   -4270.1704   -4740.2548            0    705.05519     20.24805    20.058502    20.975292     8519.022    4.9270094    1035.9441    1074.2944    339.80609    -1031.127    146.27586   -4182.5735 
 1619000    250.35075   -4749.1186   -4266.2961   -4749.1186            0     2026.608    20.130833    20.245575     20.83786     8492.684    2951.7421    529.33387    2598.7479   -83.891779    457.55885   -63.558933   -4015.2864 
 1620000    236.74854   -4696.7232   -4240.1337   -4696.7232            0    1520.1598    20.228786    20.342245    20.744458     8536.322    1984.4519   -511.25797    3087.2854   -486.96267    710.65316     816.8548   -4050.8837 
 1621000    243.13734   -4755.6133   -4286.7025   -4755.6133            0    1147.1328    20.259133    20.176021    21.032045    8596.8211    1552.3798    449.21603    1439.8025    512.74416   -931.94106    15.623404   -4142.8798 
 1622000    252.90912   -4704.8918   -4217.1353   -4704.8918            0    2012.1476    20.128846    19.918711    21.355044    8562.1054    1522.0641    2697.9681    1816.4107   -201.77543    -348.6678    971.21025   -3965.8794 
 1623000    246.12082   -4719.0135   -4244.3488   -4719.0135            0    1266.2386    20.112608    20.008614    21.226215     8541.968    1267.5491    1384.1352    1147.0315   -674.26916   -642.62038    8.1774502    -4086.606 
 1624000    250.25356   -4722.2856   -4239.6506   -4722.2856            0    2361.1848     20.18356    20.126402    20.904897    8492.0381     1708.709    1427.0252    3947.8202   -435.95425   -954.45669    495.73079   -3947.2233 
 1625000    261.78413   -4715.6778   -4210.8051   -4715.6778            0    610.92114    20.274832    20.341755    20.977819    8651.7909    637.22499    580.31983     615.2186   -21.174976    1967.8925   -1018.5942   -4133.7206 
 1626000    225.84931   -4717.0527   -4281.4833   -4717.0527            0     896.5064    20.302884    20.038841    21.179681    8616.8742    1820.8253     279.5892    589.10472   -81.953315    355.79683    212.83741   -4168.8208 
 1627000    249.72537   -4736.0877   -4254.4714   -4736.0877            0    909.03028    20.103474    20.191082    21.306259    8648.4429    2406.3924    244.33866    76.359736   -481.61622   -925.96671   -696.25644   -4139.8166 
 1628000    232.12753   -4717.8667   -4270.1893   -4717.8667            0    -78.13342    20.277385    20.102765    21.165869    8627.8749    606.16877   -105.33774    -735.2313    987.29985    202.83659    537.08566   -4280.0207 
 1629000    263.00851   -4708.1592   -4200.9252   -4708.1592            0   -397.64004    20.256414    20.331891    20.975559    8638.8092    160.01936   -629.18105   -723.75843    -180.9584    308.66529    511.46923   -4251.0231 
 1630000      235.289   -4743.3209   -4289.5463   -4743.3209            0    2720.4732    19.963292    20.204935    21.144113    8528.6265    4015.9994    1156.8986    2988.5217   -187.57847    1345.4543    338.09209   -3951.1703 
 1631000    240.79994   -4754.4241   -4290.0212   -4754.4241            0    754.41339    20.088113    20.108262    21.195217    8561.5336    620.10783    1765.4699   -122.33759   -605.37158    872.17916   -461.25715   -4195.8242 
 1632000    238.13968   -4667.3729   -4208.1005   -4667.3729            0    1247.3762    20.115466    20.438566    20.889126     8588.173    491.65264    1092.4685    2158.0075    135.69781    1520.5941   -355.75019    -4051.867 
 1633000    255.76826   -4708.3645   -4215.0939   -4708.3645            0    516.35622    20.247443    20.285327    20.958083    8608.0296    792.31882   -109.85385    866.60369   -80.740194   -9.5194466    260.89105   -4150.2709 
 1634000    253.28491   -4754.7684   -4266.2872   -4754.7684            0    1840.6432    20.125861    20.083177    20.976787    8478.6336    4050.1844   -203.15201    1674.8973   -540.95688   -638.03545   -191.84618   -4038.6877 
 1635000    243.36847   -4722.4636    -4253.107   -4722.4636            0    1778.7856    20.241623    19.939082    21.171855     8544.948    41.504558    4044.5437    1250.3087    235.24205    547.68616    78.759687    -4031.436 
 1636000    258.04752   -4739.2366   -4241.5702   -4739.2366            0    683.01838    20.149094    20.019783     21.39345    8629.7001    751.75965    812.24531    485.05019   -482.86433   -499.47053    638.81009   -4155.6087 
 1637000    241.90883   -4729.2499   -4262.7084   -4729.2499            0    3515.9682    20.073394    20.170458    20.961014    8486.8953    6241.7014    1767.6584    2538.5449   -195.01225    1237.2638    769.73207   -3827.5276 
 1638000    244.62755   -4728.5083   -4256.7235   -4728.5083            0    755.49441    20.243622    20.239861    20.877459    8554.0815   -990.12163    1888.3075    1368.2974   -454.22145   -54.832604   -669.09671   -4162.4737 
 1639000    231.73441   -4747.8154   -4300.8961   -4747.8154            0    1527.1435    20.006499    20.246022    21.199515    8586.9065    1879.5929    899.70851     1802.129     694.3376    76.091623    185.82618     -4109.65 
 1640000    241.73055   -4697.8179   -4231.6202   -4697.8179            0    4111.2198    19.928481    20.068512    21.109508    8442.4301    4143.5089    3916.3903    4273.7601    106.99119   -515.34151    1281.5479   -3725.4296 
 1641000    240.23954   -4724.7937   -4261.4715   -4724.7937            0    1310.0514    20.080635    20.306852    21.109068    8607.7396    1196.0022    1682.3381    1051.8139    304.61225     868.2566    611.70369   -4097.0142 
 1642000    241.93846   -4716.9733   -4250.3747   -4716.9733            0     1868.282    20.073571    20.167982    21.039335    8517.6365    3065.6381    1245.6658    1293.5422    112.87112    290.81091   -904.53922   -4018.2948 
 1643000    243.28488   -4728.0046   -4258.8092   -4728.0046            0    1955.2454    20.309348     19.91442    21.097163    8532.7241    475.07966    3550.9158    1839.7408   -381.70549   -125.96055   -898.50732   -4015.4965 
 1644000    245.40029   -4716.7511    -4243.476   -4716.7511            0     1184.121    20.333989    20.036022    20.903977    8516.5361    47.014561    1167.0139    2338.3346   -18.670607    124.21739   -379.87802   -4096.4023 
 1645000    250.58497   -4744.7263   -4261.4521   -4744.7263            0    2885.8507    20.110361     20.17342    21.035127    8533.8409    4133.9598    1786.2747    2737.3177   -92.787458    1295.3538    456.83205   -3902.2869 
 1646000    239.01291   -4725.2141   -4264.2576   -4725.2141            0    1414.5952    19.959901    19.928086    21.293068    8469.5869     2155.945    2333.0543   -245.21371   -371.31139   -105.92151   -528.24824   -4089.5265 
 1647000    243.87122   -4749.4601   -4279.1339   -4749.4601            0    2042.4474    20.288238    19.904261     21.11616     8527.178    969.30689    2888.6813     2269.354    323.08975    328.59386   -575.57777   -4025.1348 
 1648000    240.88833    -4735.708   -4271.1346    -4735.708            0    2023.2326     20.30565     20.22063    20.883171    8574.4846     634.4989     2562.742    2872.4568   -335.03815   -801.92056   -825.66908   -4018.1292 
 1649000    249.19959   -4703.8769   -4223.2745   -4703.8769            0    809.14177    20.096317    20.299856    20.998553     8566.409    1630.9543   -193.96947    990.44046    129.31057    187.93853    1597.0323   -4122.1866 
 1650000    224.91764   -4697.1505   -4263.3779   -4697.1505            0    2282.0526    20.228517     20.08426    21.183195    8606.1985    1694.7512    2936.3486    2215.0581    167.04367    50.024062    719.52981   -3976.9516 
 1651000    248.37334   -4685.5332   -4206.5243   -4685.5332            0    2292.8505    20.116523    20.053918      21.2668    8579.3483     3348.671    2217.0486    1312.8319   -122.54236    96.069508   -504.87002   -3919.6406 
 1652000    251.14695   -4710.7802   -4226.4221   -4710.7802            0    3152.6262    20.033363    20.180437    20.942918    8466.8454    4180.9472    2724.2132    2552.7181    899.15498    682.89128   -1469.4713   -3837.1351 
 1653000    243.76327   -4730.0061   -4259.8881   -4730.0061            0    1954.8555    20.265212    20.151501    20.835372     8508.633    1441.2181    1378.5703    3044.7781   -451.92497     113.0709     987.0355   -4017.3107 
 1654000    240.12359   -4707.7519   -4244.6534   -4707.7519            0     1487.739    20.139792     20.08545    21.051562      8515.71    1178.4232    1185.0938    2099.6999    143.98197    948.24747   -239.69671   -4059.8868 
 1655000    236.03375   -4715.8297   -4260.6187   -4715.8297            0    2317.2725    20.085577    20.089155     21.20282    8555.3858     2356.874    3308.5486    1286.3949    41.798821   -29.068259   -925.15189   -3971.4891 
 1656000    237.16583   -4723.4361   -4266.0419   -4723.4361            0    3349.0823    20.035437    20.027773    21.239871    8522.8208    3223.6475    3526.1502    3297.4492    226.33482     296.4004   -507.86489   -3849.7623 
 1657000    248.13678    -4724.308   -4245.7553    -4724.308            0    366.15332    20.226912     20.40046    20.847471    8602.4652    1218.4171   -1301.5473    1181.5901   -48.411204    252.53004    -359.4127   -4199.8184 
 1658000    233.72925   -4733.0203   -4282.2538   -4733.0203            0    1367.7177    20.265374    20.080399    20.966906    8532.2055    1551.1488    727.27653    1824.7278   -717.75478   -989.49909   -609.16977    -4112.064 
 1659000    225.39019   -4707.0547   -4272.3707   -4707.0547            0   -12.433701    20.063739    20.278139    21.320093    8674.1923    674.25102   -837.96562    126.41349    -8.609482   -180.77409     1066.277   -4273.9436 
 1660000    243.39932   -4714.5893   -4245.1732   -4714.5893            0    2065.9152    20.118557    19.978536     21.24741    8540.1695       2744.5     2876.504    576.74164   -361.32774     346.5402   -420.08423   -3987.8643 
 1661000    242.14111    -4737.264   -4270.2745    -4737.264            0    1852.6825    20.026443    20.351701     20.84545    8496.0257    2385.5907    1218.5295    1953.9274    15.277792    -792.5601   -540.51476   -4040.7164 
 1662000    247.70644   -4715.8311   -4238.1084   -4715.8311            0    3231.1709    20.061294    19.978383    21.046837     8435.408    4374.5983    1677.9267    3640.9877    245.96237    424.09073    1307.6498   -3840.6041 
 1663000    241.53719    -4696.691   -4230.8662    -4696.691            0    1095.3379     20.13613     19.92832    21.446354    8605.9766    2297.3907    949.24088    39.382021   -340.46549    476.05348   -420.36084   -4093.3911 
 1664000     243.3409   -4731.4062   -4262.1028   -4731.4062            0    1653.3668    20.010309    20.135764    21.137993    8516.9807    3080.8482    1785.2132    94.038947   -22.456542   -210.57311    332.43661   -4056.7357 
 1665000     242.3594    -4718.522   -4251.1115    -4718.522            0    1798.5428    20.268782    20.142443    20.971968    8562.0745    2476.0705    862.15941    2057.3984   -234.01684    988.63079     -764.655   -4026.5291 
 1666000    248.55469   -4715.2262   -4235.8675   -4715.2262            0    1625.3117    20.191458    20.142522    20.931005    8512.7838    1503.7037    2301.8266    1070.4048   -767.91578    692.58483      580.022   -4034.0847 
 1667000    248.45613    -4723.981   -4244.8125    -4723.981            0    1096.1457    20.065279    20.209784    21.261705    8621.9393    103.40189    1725.4698    1459.5653    395.67296   -2098.6622    581.76295   -4106.9808 
 1668000    236.57066    -4675.576   -4219.3296    -4675.576            0    3781.7094    20.112118    19.962412    21.220718    8519.8294    4473.8493    4043.6209     2827.658    944.51846    740.82312    550.25388   -3749.4409 
 1669000    255.08766   -4714.8086   -4222.8506   -4714.8086            0    1427.5709     20.11805    20.117233    21.199281    8579.7622    2194.0142   -29.340802    2118.0392    192.70836   -796.65962     213.3863   -4044.2229 
 1670000    257.41976   -4727.2611   -4230.8054   -4727.2611            0    2289.9506    20.082588    20.165309    21.097945    8544.0683    1109.8085     3232.379    2527.6642   -131.62128     313.5512    143.27006   -3945.4628 
 1671000     248.7452   -4710.4212   -4230.6952   -4710.4212            0    994.82403    20.220814    20.049798    21.107309    8557.3937    2040.6473    423.07716    520.74765    182.64741    324.82144   -67.417663   -4106.5403 
 1672000    229.52839   -4702.7089   -4260.0441   -4702.7089            0    3034.3961    20.318802    20.257511    20.742183    8537.6557    2156.1374    2589.8299     4357.221    1075.1623    428.93878    241.73682   -3882.2225 
 1673000    229.50137   -4717.4716   -4274.8589   -4717.4716            0    2208.4301    19.948079    20.437068    20.946371    8539.4219    3109.1839    954.16458    2561.9419    132.65438   -894.31558    1176.4589   -3999.8239 
 1674000    253.61917   -4742.6622   -4253.5363   -4742.6622            0    2487.3547    20.123825    20.022065    21.148731    8521.2582    2459.2498    2531.0848    2471.7296    296.02233   -504.51281    192.25834   -3944.4233 
 1675000    243.25799   -4721.4876   -4252.3441   -4721.4876            0    2430.3549    19.986537    20.225954     21.28027    8602.4804    2950.3292    1409.6581    2931.0774   -121.61777    1201.5242    407.18452   -3947.4358 
 1676000    250.82714   -4763.3135   -4279.5723   -4763.3135            0    2563.7795    20.102679    19.999346    21.022777    8452.0065    2802.3126     2952.723    1936.3028    223.99632   -1058.3232    98.607511    -3963.551 
 1677000    241.09112   -4709.0886    -4244.124   -4709.0886            0    1491.8878    20.265636    20.109377    21.065329    8584.7392    200.31462    2571.9337    1703.4152   -136.29306    532.47122    251.75573   -4057.3403 
 1678000     242.6065   -4719.7816   -4251.8946   -4719.7816            0      1411.28    20.027679     20.08293    21.321484    8575.8095    1576.1031    1585.0078     1072.729    520.74898    847.60173   -242.77555   -4075.3867 
 1679000    249.37871   -4701.8059   -4220.8581   -4701.8059            0    1522.3363    19.950074    20.175889    21.269746    8561.2957    1883.7998    1738.9554    944.25363   -221.79861    815.20742    1591.7295   -4030.7827 
 1680000     253.1247   -4717.4666   -4229.2943   -4717.4666            0    26.765672    20.406358    20.161471    20.762322    8542.0801    98.415717   -866.01926    847.90056    110.78878    296.52669   -104.10495   -4225.9599 
 1681000    240.98067   -4721.2946   -4256.5431   -4721.2946            0    1335.2735    20.147617    20.225022    21.092388    8594.8525    1825.5628    945.20262    1235.0549    10.680132    773.92909    873.77933   -4089.1704 
 1682000    239.75398   -4707.5211   -4245.1354   -4707.5211            0    1215.3025    20.523705    19.954366    20.895918    8557.6628    51.644605    3138.8418      455.421   -483.97736    535.04773   -395.08334   -4093.4599 
 1683000    234.61518   -4727.2968   -4274.8217   -4727.2968            0    673.17957    20.050832    20.248872    21.135233     8581.047    931.25974    481.48889    606.79006   -427.40403    315.87038     628.6491   -4190.5761 
 1684000    233.67819    -4726.642   -4275.9739    -4726.642            0    1780.2704    20.101442    20.230526    21.016224    8546.5153    1989.4027    1189.7588    2161.6498   -959.51157   -404.64654    897.62568   -4054.0772 
 1685000     239.5223   -4680.9222   -4218.9833   -4680.9222            0     1190.011    20.342229    20.417346     20.72917     8609.536    642.26407     858.1452    2069.6239    93.429557   -185.66669    743.95629    -4069.564 
 1686000    243.83987   -4694.6657      -4224.4   -4694.6657            0    4808.4968    20.226875     19.95221    20.998431    8474.3552    5346.9852    3926.4975    5152.0076   -179.06903   -646.81307   -161.48955   -3630.1189 
 1687000      236.492   -4715.1866   -4259.0919   -4715.1866            0    2562.6464    19.988085    20.089279    21.169796    8500.6517    1857.7292    4305.7563    1524.4536    84.696775   -1131.2459    636.78652   -3941.3922 
 1688000    250.38608   -4722.9059   -4240.0153   -4722.9059            0    2178.5384    20.142299    20.094003    20.980426    8491.6053    3826.7956    999.46681    1709.3529   -366.25869    1589.3753   -958.37349   -3970.2221 
 1689000    233.98989   -4731.5462    -4280.277   -4731.5462            0    1586.0498     20.31326    20.108086    20.870331    8524.7117    872.87021     2323.205    1562.0741   -306.18709    549.23417    1309.4668   -4083.0927 
 1690000    253.79221   -4706.2638   -4216.8042   -4706.2638            0    2543.2336    20.051001    20.116562    21.061285    8495.2207    3564.6797    1246.6472     2818.374   -421.05512    -716.8096     185.8963   -3901.7126 
 1691000    239.25245   -4703.3404    -4241.922   -4703.3404            0    813.34877    20.082092    19.987147    21.396158    8588.0695    1302.5974    1177.0516   -39.602719   -65.785048   -867.24359    200.86067   -4140.0515 
 1692000    249.96548   -4719.5491   -4237.4696   -4719.5491            0    5.5284936    20.147846    20.223308     21.18203    8630.7471    878.98984   -687.37179   -175.03257   -267.57531    332.84335   -98.256591   -4236.7737 
 1693000    243.36676   -4711.2956   -4241.9424   -4711.2956            0    140.22143    20.156888    20.366634    20.885265     8573.985    894.46813   -1114.8799    641.07602    206.26159    940.88373    184.24433   -4224.4087 
 1694000     253.8279   -4722.1038   -4232.5754   -4722.1038            0    1382.3945    20.130503     20.19024    21.062879      8560.79    2097.9488    966.35708    1082.8777   -67.071337    375.15297    -842.5761    -4059.983 
 1695000    240.44406   -4711.4611   -4247.7445   -4711.4611            0    692.82723    19.951847      20.1569    21.352142     8587.135    3498.8735   -2133.9634    713.57149   -672.87283     112.7674   -61.774954   -4160.9786 
 1696000    246.28292   -4731.7875   -4256.8102   -4731.7875            0    1642.6893    20.216402     20.07817    21.144045    8582.5442    1557.6109    987.49767    2382.9593     -520.295     1409.923   -1115.1889   -4051.1987 
 1697000    237.12196   -4708.0239   -4250.7142   -4708.0239            0    957.56327    20.250275    20.269294    20.902078    8579.4411    437.08127    296.21123    2139.3973   -404.21996   -59.179469    1451.8039   -4130.9017 
 1698000     235.7633      -4691.5   -4236.8106      -4691.5            0    2240.2542    20.124461    20.197475    20.919815    8503.1369    1207.9543     3381.661    2131.1473   -81.126318    496.87167    245.51539   -3958.9978 
 1699000    249.00556   -4698.7903   -4218.5621   -4698.7903            0    740.02227    20.140998    20.198659    21.156486     8606.906     397.1028    451.42193    1371.5421    254.47516    746.55106   -319.76467   -4125.6724 
 1700000    240.81125   -4721.1107   -4256.6859   -4721.1107            0    1602.5094    20.094162    20.030415    21.342803    8590.3586    1170.8038    2765.4498    871.27464   -137.53607    420.99136    268.49736    -4055.921 
 1701000    235.67551   -4714.9831   -4260.4631   -4714.9831            0    935.85621    20.033773    20.347063    21.280149    8674.3937    1626.4787    202.79129    978.29866    -268.9462   -1924.2655   -371.93468   -4142.0706 
 1702000    259.68324   -4738.9913   -4238.1703   -4738.9913            0      953.687    20.177321    20.091953    21.075987    8544.2431    896.11691     1106.525    858.41904    645.76096    454.31113   -1280.8806   -4119.3323 
 1703000    240.37332   -4736.3391   -4272.7589   -4736.3391            0    1159.2047    20.315855    20.043742    21.150228    8612.4948   -444.09068    2056.3383    1865.3665    164.05166    435.78996   -6.8797105   -4127.1577 
 1704000    248.71574   -4749.9706   -4270.3014   -4749.9706            0    1657.2192    20.074055    20.255747    21.054868    8561.2248     2346.232    1716.2548    909.17082    -393.2653    149.74092    922.11695   -4063.3865 
 1705000    225.47851   -4721.2528   -4286.3985   -4721.2528            0    1189.9717    20.065829    19.949501    21.306177    8528.9326    1667.6383    1600.1501    302.12664   -531.05913   -732.91915     316.7801    -4138.383 
 1706000    236.43108   -4736.5563    -4280.579   -4736.5563            0   -67.018914    20.268693    20.113771    21.093138    8599.2473   -1396.0159    220.92362    974.03553   -287.64065    43.919494    99.173989    -4288.984 
 1707000    238.47203    -4706.243   -4246.3297    -4706.243            0    2117.2556    20.123244    20.241576    20.835374    8486.7933    1259.4148    3182.6122    1909.7397   -739.00805    30.775759    76.943094   -3984.2745 
 1708000    243.83796    -4709.832     -4239.57    -4709.832            0    1682.8921    20.070764    20.203308    21.037886    8530.7747    1962.0452    2131.7446    954.88638   -416.94169   -321.62199   -540.27943    -4030.197 
 1709000    242.72113    -4717.585   -4249.4769    -4717.585            0    1868.8399    20.287566    19.860851    21.161007    8526.3693    1626.3491    2127.5707    1852.5999   -35.088707    755.66786    -309.3765   -4017.0897 
 1710000    253.72791    -4712.061   -4222.7254    -4712.061            0    1579.2646     20.14713    20.188901    20.970314    8529.6418    1342.4755    1503.2064     1892.112   -598.10678   -223.83653    116.32395    -4026.271 
 1711000    248.35394   -4726.1784    -4247.207   -4726.1784            0    2952.2089     20.14435    20.234395    20.902697    8520.1222    3310.2074    1791.2526    3755.1666    142.93451   -633.73963    706.58525   -3880.3736 
 1712000    243.02765   -4715.5763    -4246.877   -4715.5763            0    2097.3088    20.066528    19.980899    21.264034    8525.7564    2948.3958    1781.3498    1562.1808    157.74842    268.02932    -14.58964   -3986.0989 
 1713000    254.46966   -4708.7212   -4217.9551   -4708.7212            0    1532.5635    20.115187    20.070131    21.438073    8654.8591    4511.7203   -280.36499    366.33511   -684.37412   -840.98589   -469.58086   -4024.5115 
 1714000    253.73379   -4730.2186   -4240.8716   -4730.2186            0     723.6495    20.384762    20.034066    21.093157    8614.2274    -436.8022    1191.7478    1416.0029   -707.45883    343.68645   -616.72869   -4149.9598 
 1715000    235.99029   -4745.8997   -4290.7726   -4745.8997            0    1248.0983     20.16279    20.241733    20.895583    8528.1108    2295.0088   -670.09994     2119.386    -620.7895    907.58472    677.40001   -4135.5419 
 1716000    244.28541   -4730.1196   -4258.9947   -4730.1196            0    2038.8275    20.252445    20.162213    20.848847    8513.2952    1046.2038    2365.0965    2705.1821   -49.537746    36.362971    412.04289   -4005.8586 
 1717000    247.20864   -4761.9166   -4285.1539   -4761.9166            0    660.28994    20.287779    20.118963    21.088275    8607.5815    856.83898    478.42623    645.60463   -610.03852   -697.51715   -171.40723   -4202.2659 
 1718000    262.97618   -4738.9802   -4231.8085   -4738.9802            0    1923.8844    20.249321    19.914088    21.171129     8537.189    2022.8197    2439.2276    1309.6058    117.02926    1466.2894    839.82573   -3992.2731 
 1719000    241.71196   -4703.8421   -4237.6803   -4703.8421            0     461.3337    20.149183    20.064781    21.363438     8637.002    1957.9282   -142.77566   -431.15147   -17.495232    346.87513   -73.582402   -4179.5699 
 1720000    246.38577   -4755.0204   -4279.8447   -4755.0204            0    1004.1421    20.334189    19.859946    21.218148    8568.6497    553.40892    1464.5092    994.50805   -380.79824    17.767176   -1639.3168   -4154.3621 
 1721000    244.83797   -4726.7383   -4254.5477   -4726.7383            0    2088.2636    20.294538    20.147428     20.86824    8532.6633   -132.23443     3676.574    2720.4513   -436.92078    621.61546   -1039.9814   -3994.6839 
 1722000     236.8673   -4729.1652   -4272.3467   -4729.1652            0    2083.2636    20.257478     20.24257    20.853554    8551.2799     938.8569    2618.0243    2692.9095   -98.326426    755.01334   -1344.2989   -4012.5395 
 1723000    242.27678   -4726.7064   -4259.4553   -4726.7064            0    2370.2007    20.048447    19.867195    21.516607    8570.2027     1292.261    4545.1932    1273.1478   -465.51355   -587.87588   -1145.3226   -3963.2095 
 1724000    237.31458   -4704.0518   -4246.3707   -4704.0518            0    243.33596     20.20949    20.048954      21.2453    8608.1521    950.39215    346.43233    -566.8166    56.234196   -333.57796    197.07603    -4215.822 
 1725000    236.38782   -4734.3198    -4278.426   -4734.3198            0    1800.9371    20.078982    20.253291    20.928984    8511.0949    2751.8887    451.09923    2199.8233    175.91551    650.32012    1391.8229   -4054.8836 
 1726000    239.29828   -4714.6829   -4253.1761   -4714.6829            0    949.31992    20.166075    20.300556    21.006167    8599.5576    2311.5369   -1261.2451    1797.6679   -114.36978   -22.835903    451.60948   -4134.1164 
 1727000     246.2613   -4661.6952   -4186.7595   -4661.6952            0    979.84895    20.337102    19.981646    21.153067    8595.9459    145.81516    1823.2846    970.44711    546.85639   -760.97631   -623.04789   -4063.9227 
 1728000    251.69466   -4714.4413   -4229.0269   -4714.4413            0    1532.1877    20.025871    20.002875    21.327548    8543.2822    1463.4378    2418.2393    714.88598   -137.49218   -385.89772   -605.16577    -4038.124 
 1729000    251.77406   -4718.7875   -4233.2201   -4718.7875            0   -729.02794    20.096432    20.367403    21.188917    8672.8808   -1330.5721   -885.09563    28.583908   -175.54277   -360.07306   -580.82836   -4325.4312 
 1730000    250.47534   -4691.5119   -4208.4491   -4691.5119            0    1007.7848    20.189471    20.197505    21.101191    8604.5793    722.22413    991.82251    1309.3077    123.23651    31.472733   -1435.2382   -4081.9833 
 1731000    249.29442   -4710.3833   -4229.5981   -4710.3833            0    2482.2554    20.205834    20.004004    21.169225    8556.5497    1626.0666    4127.5739    1693.1256     9.669969    -914.2166    204.25346   -3919.8411 
 1732000     241.7229   -4713.6034   -4247.4204   -4713.6034            0   -2842.2252    20.215324    20.440978    21.261922    8785.8723   -2825.1077   -3833.2516   -1868.3162    61.790907    242.80631   -884.14558   -4611.6031 
 1733000    252.91629   -4749.9986   -4262.2283   -4749.9986            0    839.12008    20.154371    20.206291    21.031897    8565.1368    1033.3427   -140.92825    1624.9458   -96.531863   -538.78698   -1832.7055   -4157.4106 
 1734000    249.19883   -4711.2289    -4230.628   -4711.2289            0    1191.8181    20.280524    20.102991    21.039888     8577.945    850.72586    1250.4925    1474.2359    398.71681     427.8409   -250.74116    -4081.531 
 1735000    222.62321   -4701.9198   -4272.5722   -4701.9198            0     2118.827    19.901909    20.203356    21.086815    8478.6991    2588.4881    2624.8685    1143.1243    -654.4077    14.226571   -764.39947   -4010.5726 
 1736000    240.54622     -4735.59   -4271.6763     -4735.59            0    1934.9833    20.263342    20.103361    21.017848    8561.8578    1462.0346    1777.0333    2565.8821    317.33996   -629.54691   -495.01767   -4030.0629 
 1737000    242.33168   -4706.8534   -4239.4964   -4706.8534            0    1057.8145    20.193344    20.231801    20.964948    8565.1816    1677.2874    849.88391    646.27216   -342.49406   -117.93716    639.30024   -4107.3602 
 1738000    255.93328    -4723.777   -4230.1882    -4723.777            0    1647.5013    20.126369    19.986558    21.284318    8561.7625    1345.3554    1354.9389    2242.2097   -100.53676    283.22521   -278.38673   -4024.4737 
 1739000    231.66019   -4697.2686   -4250.4924   -4697.2686            0    3404.0975    20.205938    19.987399    21.220487    8570.1939    3809.1755    3801.5999    2601.5171     37.64884   -169.38069   -133.79326   -3825.0228 
 1740000    256.33899   -4723.5722   -4229.2009   -4723.5722            0   -561.12559    20.212236    20.294943    21.024979    8624.5761   -731.68173   -864.31095   -87.384095   -356.37454    290.38102     446.6486   -4299.7797 
 1741000    236.20161   -4734.9362   -4279.4015   -4734.9362            0    1468.7401    20.100893    20.184197    21.129425    8572.6387    1455.6495    1630.7259    1319.8448    63.519696    1185.0484   -590.54996    -4095.775 
 1742000    244.20281   -4717.7309   -4246.7652   -4717.7309            0    1436.1993    19.910103    20.038389    21.352828    8519.0608    1439.8759    2272.7336     595.9886   -680.82807   -70.271536    1096.5472   -4068.3293 
 1743000    246.82466   -4703.1391    -4227.117   -4703.1391            0   -813.06978    20.150007    20.371021    21.002794    8621.1477   -56.961094   -1402.7062   -979.54201   -408.57008    349.18131    240.18756   -4329.3447 
 1744000    247.76407   -4712.6718    -4234.838   -4712.6718            0    2295.2859    20.199458    20.145223    21.009907     8549.406    2177.2736    2440.2165    2268.3675    22.735753   -106.28784    414.82424   -3948.6518 
 1745000    267.27292   -4722.7504   -4207.2921   -4722.7504            0     2644.975     20.05771    20.103879    21.244342    8566.5217     1351.682    4059.7302    2523.5127   -422.09004   -259.24366   -458.23087    -3876.845 
 1746000    244.29683   -4701.0029   -4229.8559   -4701.0029            0    165.49466    20.192446    20.107831    21.294902    8646.2902   -1471.1233    585.88048    1381.7268   -788.32157   -1181.7252    222.46991   -4208.9875 
 1747000    243.13484    -4720.914    -4252.008    -4720.914            0    2314.4867    19.913343    20.255423    21.087576    8505.7406    3671.3415   -126.86924    3398.9879    9.0961665    232.96492   -1778.3305   -3964.9017 
 1748000    253.17738   -4714.4624   -4226.1885   -4714.4624            0    2645.7068    20.179661    20.143312    20.964492    8521.7559    982.00984     3573.431    3381.6794   -2.1028115   -753.01766    240.02503   -3897.3772 
 1749000    245.99759   -4742.7181   -4268.2911   -4742.7181            0     534.5112    20.345178    20.225512    20.864954    8585.7539    303.79955    348.99518    950.73888   -534.14996   -213.50055   -692.82377   -4201.3626 
 1750000    258.08585   -4703.9595   -4206.2192   -4703.9595            0    1250.6677    20.149885    20.287736    21.027647    8596.0087    1485.4171      173.979     2092.607    158.28343    662.14722   -626.26217   -4049.4305 
Loop time of 362.613 on 64 procs for 250000 steps with 972 atoms

Performance: 119.135 ns/day, 0.201 hours/ns, 689.441 timesteps/s
195.2% CPU use with 32 MPI tasks x 2 OpenMP threads

MPI task timing breakdown:
Section |  min time  |  avg time  |  max time  |%varavg| %total
---------------------------------------------------------------
Pair    | 24.548     | 34.728     | 45.115     |  82.5 |  9.58
Bond    | 1.0219     | 1.2333     | 1.7445     |  14.8 |  0.34
Kspace  | 161.9      | 173.14     | 184.19     |  37.8 | 47.75
Neigh   | 2.27       | 2.3969     | 2.5482     |   5.6 |  0.66
Comm    | 63.651     | 66.684     | 69.347     |  15.0 | 18.39
Output  | 0.62204    | 0.62265    | 0.62423    |   0.0 |  0.17
Modify  | 67.655     | 69.974     | 75.441     |  19.1 | 19.30
Other   |            | 13.84      |            |       |  3.82

Nlocal:        30.3750 ave          36 max          25 min
Histogram: 5 0 4 3 4 4 3 5 2 2
Nghost:        2530.84 ave        2583 max        2481 min
Histogram: 2 4 3 3 4 4 6 3 0 3
Neighs:        9177.28 ave       12017 max        6984 min
Histogram: 2 5 2 5 5 5 6 0 1 1

Total # of neighbors = 293673
Ave neighs/atom = 302.13272
Ave special neighs/atom = 2.0000000
Neighbor list builds = 7337
Dangerous builds = 0

unfix		3
unfix		2
unfix		1

write_data	data.final.${pid}
write_data	data.final.1
System init for write_data ...
PPPM initialization ...
  extracting TIP4P info from pair style
  using 12-bit tables for long-range coulomb (../kspace.cpp:340)
  G vector (1/distance) = 0.37148926
  grid = 24 24 25
  stencil order = 5
  estimated absolute RMS force accuracy = 0.0035215668
  estimated relative force accuracy = 1.0605094e-05
  using double precision FFTW3
  3d grid and FFT values/proc = 3458 576
Last active /omp style is kspace_style pppm/tip4p/omp
WARNING: Not all mixed pair coeffs generated from mixing. Use write_data with 'pair ij' option to store all pair coeffs. (../write_data.cpp:312)

write_restart   restart.lmp.${pid}
write_restart   restart.lmp.1
System init for write_restart ...
PPPM initialization ...
  extracting TIP4P info from pair style
  using 12-bit tables for long-range coulomb (../kspace.cpp:340)
  G vector (1/distance) = 0.37148926
  grid = 24 24 25
  stencil order = 5
  estimated absolute RMS force accuracy = 0.0035215668
  estimated relative force accuracy = 1.0605094e-05
  using double precision FFTW3
  3d grid and FFT values/proc = 3458 576
Last active /omp style is kspace_style pppm/tip4p/omp
Total wall time: 0:06:02
