LAMMPS (30 Jul 2021)
Processor partition = 1
  using 2 OpenMP thread(s) per MPI task
using multi-threaded neighbor list subroutines
variable        pid world 0 1
variable        phase world IceIh IceIII

shell cd ${phase}
shell cd IceIII
include Restart.lmp
echo both
log log.lammps
#include		in.partitions
include		in.temp
variable        temperature equal 217.72
variable	tempDamp equal 100.0
include		in.pressure
variable        pressure equal 1615.0
variable        pressureDamp equal 1000.0 # This is 1 ps
include		in.seed
variable        seed equal 745823

units		real
atom_style	full

read_restart	restart.lmp.${pid}
read_restart	restart.lmp.1
Reading restart file ...
  restart file = 30 Jul 2021, LAMMPS = 30 Jul 2021
  restoring atom style full from restart
  orthogonal box = (0.017191406 0.028354212 -0.26523677) to (19.982810 19.971647 20.965235)
  4 by 2 by 4 MPI processor grid
  restoring pair style lj/cut/tip4p/long/omp from restart
  restoring bond style harmonic/omp from restart
  restoring angle style harmonic/omp from restart
  972 atoms
  648 bonds
  324 angles
Finding 1-2 1-3 1-4 neighbors ...
  special bond factors lj:    0        0        0       
  special bond factors coul:  0        0        0       
     2 = max # of 1-2 neighbors
     1 = max # of 1-3 neighbors
     1 = max # of 1-4 neighbors
     2 = max # of special neighbors
  special bonds CPU = 0.002 seconds
  read_restart CPU = 0.008 seconds
include 	in.setup
variable	out_freq equal 1000
variable	out_freq2 equal 10000
variable	out_freq3 equal 1000

timestep	2.0

neigh_modify    delay 7 every 1

include		in.tip4p
# This is TIP4P/Ice

# create groups ###
group ox type 2
324 atoms in group ox
group hy type 1
648 atoms in group hy

# set charges - beside manually ###
set group ox charge -1.1794
Setting atom values ...
  324 settings made for charge
set group hy charge 0.5897
Setting atom values ...
  648 settings made for charge

# ### TIP3P Potential Parameters ###
pair_style lj/cut/tip4p/long/omp 2 1 1 1 0.1577 8.5
pair_coeff 1 1*2 0.000 0.000
pair_coeff 2 2 0.21084 3.1668
bond_style  harmonic
bond_coeff  1 450 0.9572
angle_style harmonic
angle_coeff 1 55 104.52
kspace_style pppm/tip4p/omp 1.0e-5
pair_modify tail yes

thermo          ${out_freq}
thermo          1000
thermo_style    custom step temp pe etotal epair emol press lx ly lz vol pxx pyy pzz pxy pxz pyz enthalpy

restart 	${out_freq3} restart.lmp.${pid} restart2.lmp.${pid}
restart 	1000 restart.lmp.${pid} restart2.lmp.${pid}
restart 	1000 restart.lmp.1 restart2.lmp.${pid}
restart 	1000 restart.lmp.1 restart2.lmp.1


include         in.dump
dump            myDump all atom ${out_freq2} dump.water.${pid}
dump            myDump all atom 10000 dump.water.${pid}
dump            myDump all atom 10000 dump.water.1
dump            myDump2 all dcd ${out_freq2} dump.dcd
dump            myDump2 all dcd 10000 dump.dcd
dump_modify     myDump append yes
dump_modify     myDump2 append yes


variable natoms 	equal  "count(all)"                        # NUMBER ATOMS
variable H      	equal  "enthalpy/v_natoms"                 # ENTHALPY-per-atom
variable Vol      	equal  "vol/v_natoms"                 # volume-per-atom
fix AVG all 		ave/time ${out_freq} 1 ${out_freq} v_Vol v_H file vol_enthalpy.dat
fix AVG all 		ave/time 1000 1 ${out_freq} v_Vol v_H file vol_enthalpy.dat
fix AVG all 		ave/time 1000 1 1000 v_Vol v_H file vol_enthalpy.dat


timer           timeout 02:55:00 every 1000
New timer settings: style=normal  mode=nosync  timeout=02:55:00

fix 		1 all shake 1e-6 200 0 b 1 a 1
Finding SHAKE clusters ...
       0 = # of size 2 clusters
       0 = # of size 3 clusters
       0 = # of size 4 clusters
     324 = # of frozen angles
  find clusters CPU = 0.000 seconds
fix             2 all nph aniso ${pressure} ${pressure} ${pressureDamp}
fix             2 all nph aniso 1615 ${pressure} ${pressureDamp}
fix             2 all nph aniso 1615 1615 ${pressureDamp}
fix             2 all nph aniso 1615 1615 1000
fix             3 all temp/csvr ${temperature} ${temperature} ${tempDamp} ${seed}
fix             3 all temp/csvr 217.72 ${temperature} ${tempDamp} ${seed}
fix             3 all temp/csvr 217.72 217.72 ${tempDamp} ${seed}
fix             3 all temp/csvr 217.72 217.72 100 ${seed}
fix             3 all temp/csvr 217.72 217.72 100 745823


run             250000
PPPM initialization ...
  extracting TIP4P info from pair style
  using 12-bit tables for long-range coulomb (../kspace.cpp:340)
  G vector (1/distance) = 0.37196392
  grid = 24 24 25
  stencil order = 5
  estimated absolute RMS force accuracy = 0.0034615899
  estimated relative force accuracy = 1.0424475e-05
  using double precision FFTW3
  3d grid and FFT values/proc = 3458 576
Last active /omp style is kspace_style pppm/tip4p/omp
Neighbor list info ...
  update every 1 steps, delay 7 steps, check yes
  max neighbors/atom: 2000, page size: 100000
  master list distance cutoff = 10.8154
  ghost atom cutoff = 10.8154
  binsize = 5.4077, bins = 4 4 4
  1 neighbor lists, perpetual/occasional/extra = 1 0 0
  (1) pair lj/cut/tip4p/long/omp, perpetual
      attributes: half, newton on, omp
      pair build: half/bin/newton/omp
      stencil: half/bin/3d
      bin: standard
Setting up Verlet run ...
  Unit style    : real
  Current step  : 7250000
  Time step     : 2
  Walltime left : 2:54:59.93
Per MPI rank memory allocation (min/avg/max) = 10.19 | 10.20 | 10.21 Mbytes
Step Temp PotEng TotEng E_pair E_mol Press Lx Ly Lz Volume Pxx Pyy Pzz Pxy Pxz Pyz Enthalpy 
 7250000    225.92638   -4767.0396   -4331.3215   -4767.0396            0     2456.835    19.965618    19.943293    21.230472    8453.5527    2860.4415    1938.6633    2571.4002    -340.7789    589.32533   -1245.1752   -4028.4272 
 7251000    209.06966   -4775.7949   -4372.5865   -4775.7949            0    1748.6745    20.261534    20.057617    21.047192    8553.5384    293.71748    2441.3804    2510.9255   -362.69523    347.17027   -65.949257   -4154.4488 
 7252000    225.35954   -4794.6969   -4360.0721   -4794.6969            0     3941.453    20.168123    19.771781    20.892279    8330.9992    3344.8292    4796.3785    3683.1513   -4.4625649   -320.34928    502.76412   -3881.1892 
 7253000    221.04736   -4794.9378   -4368.6294   -4794.9378            0   -196.19469    20.178944    20.215829    20.902419    8526.8092     947.2975   -1724.2654    188.38386   -418.27726    211.80221    15.203343   -4393.0271 
 7254000    206.79543   -4796.1105   -4397.2881   -4796.1105            0    145.57378    20.191596    20.041652    21.122608    8547.7479    692.52478   -157.91027   -97.893166   -499.46662     4.675282    171.64147   -4379.1409 
 7255000    222.61066   -4794.7111   -4365.3878   -4794.7111            0    582.91695    20.291032    20.080119    20.858869    8498.8695    309.60951    711.32061    727.82072    220.98637    906.69361   -769.61788   -4293.1368 
 7256000    229.05429   -4794.0431   -4352.2926   -4794.0431            0     609.9384    20.159062    20.172498    20.927891    8510.5074    134.15412    784.85271    910.80836   -116.14284    292.57184   -1127.4564   -4276.5889 
 7257000    213.52228   -4778.7745   -4366.9789   -4778.7745            0    2143.3765    20.016389    19.961891    21.348741     8530.209     3093.824     3502.916    -166.6106   -89.826948    397.91048    166.00211   -4100.3335 
 7258000    221.09421   -4787.3883   -4360.9896   -4787.3883            0    2674.3636    20.067245    20.173639    20.901081     8461.371    4099.1551    1390.8916     2533.044    -1287.738   -789.53581    505.29312    -4030.972 
 7259000    221.42109   -4770.6801   -4343.6509   -4770.6801            0    3213.7199    20.003547    20.161836    20.995347    8467.5959    3016.1054    3663.9485    2961.1058   -443.17416    111.76614    256.00458   -3946.7847 
 7260000    227.62022   -4794.7645   -4355.7798   -4794.7645            0    831.01291    20.187466    20.003784    21.159643    8544.8076    1450.7632   -342.42317    1384.6987   -112.51558    -139.3558   -101.71596   -4252.2212 
 7261000    217.36168   -4792.8367   -4373.6364   -4792.8367            0    1498.4868    20.132025    20.020162    20.960832    8448.1874    1631.8015    1411.3022    1452.3568    7.1575984    1506.1953   -259.23568   -4189.0107 
 7262000    210.74772   -4730.4625   -4324.0178   -4730.4625            0    2789.9154    20.138901    20.142667    20.809275    8441.3067    3239.1579    2336.3033    2794.2851   -1143.3958    280.18311    2008.0199   -3980.5575 
 7263000    224.93035   -4763.6605   -4329.8634   -4763.6605            0    4000.3186     19.91804    19.991311    21.024864    8371.8428    6376.5472    1431.9358    4192.4727   -1090.5137   -346.83478   -1451.1315   -3841.4455 
 7264000     210.6508   -4789.9775   -4383.7197   -4789.9775            0    2085.8431    19.978642     20.14395    20.949684    8431.1746    2813.1586    1521.7098    1922.6607    770.98248   -48.593919    -513.0783   -4127.2443 
 7265000    228.97387   -4809.4424    -4367.847   -4809.4424            0    1709.2291    20.059661     20.10198    21.009053    8471.6675    1450.9833    1122.4748    2554.2291    135.09727    1160.7415   -1239.9079   -4156.6707 
 7266000    217.69795   -4789.3256   -4369.4768   -4789.3256            0    1682.5285     20.12659    20.047606    20.999067    8472.9122    3091.4315    1211.3791      744.775    30.307993    -620.9963   -1074.6796   -4161.5689 
 7267000    222.33442   -4795.0566   -4366.2659   -4795.0566            0    3501.3916    20.029248    20.065728    21.126113    8490.6154    3627.6242    3469.1234    3407.4272    454.15368   -300.48978    1080.1779   -3932.6994 
 7268000     209.9145   -4791.4596   -4386.6218   -4791.4596            0    2446.9285    19.968365    20.055954    21.098702    8449.7053    1201.3326    3549.6303    2589.8226   -589.88577    403.57271   -693.20009   -4085.0861 
 7269000    215.22641   -4788.5738   -4373.4915   -4788.5738            0     703.0527    20.462285     20.18875    20.774445    8582.0885    151.59995    657.64642    1299.9117    752.63688   -239.93373    324.56922   -4285.4968 
 7270000    214.33453   -4785.9034   -4372.5413   -4785.9034            0    1979.0607    20.200128    20.027117    20.920536    8463.4098    1273.2208    2753.5375     1910.424    934.15939    -152.1803   -892.99483   -4128.2655 
 7271000    218.70395   -4816.5234   -4394.7345   -4816.5234            0    1337.6821    19.979754    20.003714    21.339762    8528.8476    3387.3923    383.70261    241.95133    289.78282   -363.50249   -478.39529   -4228.3476 
 7272000    210.87023    -4775.307    -4368.626    -4775.307            0    3016.7888    20.083508    20.109351    20.858694    8424.1237    2832.4437    4054.0865    2163.8361    283.75224   -570.43504     -1238.38   -3997.9918 
 7273000    208.81015   -4783.5754   -4380.8675   -4783.5754            0    693.71091    20.212317    20.154087    20.909534    8517.7247    1682.9196   -8.0819356    406.29508    -84.58023   -358.86119    193.30172   -4294.6932 
 7274000    223.01837    -4758.923   -4328.8133    -4758.923            0    1044.9297    20.218678    20.011296     21.13994    8553.2613    2128.9761    945.77182    60.041092    164.19975    1068.0011    721.76434   -4198.4682 
 7275000    235.69917   -4800.1146   -4345.5489   -4800.1146            0    1276.1564    20.336051    19.889322    21.084107    8527.8944    556.87398    1429.9719    1841.6233   -17.243966    585.46306   -192.79306   -4186.8326 
 7276000    219.04539   -4767.3614   -4344.9139   -4767.3614            0    989.26864     20.19653    20.076665    20.972586    8503.9422    1178.7914    715.97684    1073.0377    49.524356    27.561643   -216.14447   -4222.2236 
 7277000    221.25776   -4766.4285   -4339.7143   -4766.4285            0    2443.9492    20.230394    19.805277    21.016122    8420.4993    2448.4371    3214.5936    1668.8169    254.78935    295.28905   -305.09802   -4039.5867 
 7278000    220.34788   -4805.0161   -4380.0566   -4805.0161            0     1201.171    20.213721    20.150938    20.902691    8514.1979    2086.3331    476.47573    1040.7043   -248.80632    759.46565   -1035.0435   -4230.9062 
 7279000    229.36241   -4803.3624   -4361.0177   -4803.3624            0    1821.4628    20.091057    20.088824    21.123956     8525.749    2175.6013    899.49422    2389.2928   -605.15542    473.12116    1752.6059   -4134.5383 
 7280000    221.92661   -4776.1192   -4348.1151   -4776.1192            0     3246.641    20.102712    19.912229    21.113821    8451.6475    4273.6685    3665.9246    1800.3299   -46.429678   -172.94247   -55.375753   -3947.9387 
 7281000    217.74076    -4763.711   -4343.7796    -4763.711            0    1080.0195    20.200058    20.140606    20.952901    8524.5078    526.12994     1382.699    1331.2295    203.82302   -632.87165    -1005.729   -4209.5103 
 7282000    205.23197   -4748.3065   -4352.4994   -4748.3065            0    674.82855    20.121429     20.21891    21.041105    8560.2234    585.97258    659.75193    778.76113    544.61973     451.8149    570.31835   -4268.2524 
 7283000    219.62606   -4784.2191   -4360.6518   -4784.2191            0    1372.8022    20.138718    20.079442    21.066402    8518.7098    1240.5471    2080.9902    796.86933    216.46743   -65.525897    209.27264   -4190.0995 
 7284000    213.11949   -4793.2105   -4382.1917   -4793.2105            0    1364.8329    20.105126    20.288253    20.782771    8477.2484    804.91562    1654.0509    1635.5321    170.99956    449.21064    1324.7454   -4213.4547 
 7285000     218.0904   -4828.7854   -4408.1797   -4828.7854            0    2382.5189    20.064381    20.060712    21.045268    8470.8415    3903.4409    1518.5675    1725.5485   -613.31713    681.44676   -127.96642   -4113.8468 
 7286000    213.80902   -4802.9835   -4390.6348   -4802.9835            0    1516.4741    20.140033    20.193465    20.899786    8499.8816    3212.5222    291.13321    1045.7669    391.58987    448.84438   -510.99779   -4202.6496 
 7287000    223.68347   -4803.1884    -4371.796   -4803.1884            0    2410.7225    20.249817    20.054198    20.827991    8458.1187    1774.4593     2199.668    3258.0402   -80.711534    854.38149   -174.73604   -4074.4262 
 7288000    223.79479   -4783.0224   -4351.4153   -4783.0224            0    3466.7106    20.012618    20.076937    21.210691    8522.2875    4555.7335    2954.6598    2889.7384   -813.91479   -548.97987   -266.93824    -3920.542 
 7289000    204.80513   -4781.3239     -4386.34   -4781.3239            0    1618.3838    20.069718    20.102462    21.081435    8505.3208    1821.8916    2694.6517    338.60807    70.372574   -208.62694     222.3915   -4185.5934 
 7290000    220.61683   -4796.0902   -4370.6121   -4796.0902            0    1332.9699    20.392464    19.993366    20.911689    8525.9882     643.2092    1096.7864    2258.9142    536.03911    662.49655   -125.77429   -4204.8669 
 7291000    211.99695   -4776.0243   -4367.1703   -4776.0243            0    -25.97764    20.205651    20.154473    21.044923    8570.2135   -685.23625   -201.09715    808.40049   -266.58244   -128.42742   -290.22543   -4370.4172 
 7292000    211.62251   -4784.3659    -4376.234   -4784.3659            0    414.11537    20.013062     20.20594    21.165727    8559.0545    803.84457    478.03989   -39.538355    50.146488    184.04617    1351.8826   -4324.5421 
 7293000    216.67192   -4762.8692   -4344.9992   -4762.8692            0    328.22925    20.151022    20.135306    20.941667    8497.0185    665.17067    96.871708    222.64537   -713.52972   -107.47005     85.61854   -4304.3249 
 7294000    212.35133   -4796.6424    -4387.105   -4796.6424            0    2010.5475    20.284679    19.914962    20.809249    8406.2835    1044.1567    2324.5421    2662.9436   -381.26374    218.16986   -56.384813   -4140.6179 
 7295000    208.49381   -4804.0529    -4401.955   -4804.0529            0     1305.081    20.245894    20.059844    21.015817    8535.1424    1276.4298    1627.7637    1011.0494    -108.0927   -10.032651    345.45178   -4239.5034 
 7296000    218.85805   -4806.7397   -4384.6536   -4806.7397            0    1627.1117    20.137625    20.090131      20.8958    8453.7621    -314.4299    3100.2055    2095.5594   -554.16929    315.15141   -253.85135   -4184.0479 
 7297000    208.76172   -4775.1966    -4372.582   -4775.1966            0    2801.3864    20.009485    20.072728    21.168789    8502.3373    4386.4551    2272.7595    1744.9447   -181.80449    274.77003   -490.95305   -4025.2161 
 7298000    211.71894    -4798.331   -4390.0132    -4798.331            0    1548.4377    20.231537    20.013652    20.924978    8472.6689   -1199.4783    2386.4009    3458.3905    410.84903   -1271.8337    490.30722   -4198.6802 
 7299000    222.26829   -4785.7548   -4357.0917   -4785.7548            0    1831.9009    20.020399    20.118842    21.244725     8557.104    2734.6295     1923.331    837.74207   -956.52107    176.29874    486.34267   -4128.4767 
 7300000    212.77414   -4806.2373   -4395.8845   -4806.2373            0     1388.721    20.179507    20.136852    20.847853    8471.5616    888.79938    1097.4002    2179.9635   -146.99082    1474.3392   -50.755476   -4224.3094 
 7301000    233.73407   -4761.6821   -4310.9062   -4761.6821            0    2238.2374    20.024118    20.019784    21.103134    8459.7933    2869.2798    2358.8904     1486.542    235.63923    532.04968   -245.22896   -4034.7583 
 7302000    220.22606    -4812.983   -4388.2585    -4812.983            0    1243.7989    20.161764    20.046016    21.292545    8605.6603    1834.0231    542.71835    1354.6552   -697.00781   -505.52106   -385.36062   -4232.1558 
 7303000    211.84396   -4805.7722   -4397.2133   -4805.7722            0    1475.6538    20.301129    20.095698    20.912972    8531.7681    2042.8546    1293.4424    1090.6643   -400.42522    176.74712   -875.20178    -4213.602 
 7304000    226.25877   -4782.6519   -4346.2928   -4782.6519            0    2647.7264    20.092664    20.060033    20.936464    8438.6407    2894.3944    3123.6348    1925.1498    366.57043    747.22447     -758.714     -4020.44 
 7305000    226.67394   -4800.6211   -4363.4614   -4800.6211            0    624.07761    20.075739    20.025545    21.262526    8548.1225   -592.72748    2282.8414     182.1189   -108.62875    548.80062    283.87741   -4285.6604 
 7306000    228.88703   -4770.8336   -4329.4057   -4770.8336            0    1836.3391    20.013391    20.311854    20.980153    8528.6224    1896.4972    1247.5547    2364.9652    593.86718   -346.78184   -1126.1147   -4100.9996 
 7307000    216.74469   -4815.7151   -4397.7047   -4815.7151            0    2586.0235    20.075056    20.151035    20.788623     8409.687    1491.6933     2804.111    3462.2662   -522.13338    1852.5924    438.91546   -4080.5376 
 7308000    217.98692   -4786.6597   -4366.2536   -4786.6597            0    608.11844    20.133215     19.94961    21.242877    8532.1972    1088.8436    1167.7326   -432.22091   -270.47813    120.73161    946.78534   -4290.5834 
 7309000    216.37003   -4791.1843   -4373.8965   -4791.1843            0    3074.5595     20.27319    19.947184    20.940757     8468.297    2156.9462    3292.3949    3774.3373    585.81618    427.02016   -53.348904    -3994.184 
 7310000    220.74942   -4796.6839   -4370.9501   -4796.6839            0    886.57707    20.212253    19.975793    21.048464    8498.4388   -528.35064    1474.3137    1713.7682    -446.0012   -916.55695    899.95167   -4261.0669 
 7311000    213.59738   -4771.9603   -4360.0198   -4771.9603            0    1580.2577    20.161127    20.094729    20.944852     8485.438    1758.2245    1350.2574    1632.2912    321.40541   -313.78683     99.00064   -4164.4607 
 7312000     222.0851   -4755.7144   -4327.4046   -4755.7144            0    1512.3344    20.024423    20.160353     21.19045    8554.5729    1345.3719    2428.6271    763.00422    -684.4721   -407.47327    212.22877   -4138.7263 
 7313000    229.13443   -4784.1777   -4342.2727   -4784.1777            0    2606.5559    20.192625    20.139822    20.883809    8492.9408    1850.6202    2270.8796     3698.168    133.70227    836.15898    277.34027   -4019.4225 
 7314000    222.19276   -4791.0622   -4362.5448   -4791.0622            0    2257.0097    20.154502    20.018983    20.998642    8472.3776    2395.8018    1622.1773    2753.0501   -144.68311    551.95075     1526.239   -4083.6665 
 7315000     219.2884   -4802.6243   -4379.7082   -4802.6243            0   -141.06745    20.256496    20.463911    20.610109     8543.449   -1274.7451   -1452.4249    2303.9676    281.83723    256.36669     816.3897   -4397.2848 
 7316000    219.55979   -4756.0643   -4332.6248   -4756.0643            0    2421.4255    19.978644    20.015346    21.213558    8482.8664     1970.642    3729.2998    1564.3347    -519.6931    1015.0964    201.61134   -4033.0608 
 7317000    222.73773   -4810.3572   -4380.7888   -4810.3572            0    1667.0486    20.019675    20.127454    21.012893    8467.0419    1812.5546    1358.9783    1829.6128    57.174808    1194.5365    21.926651   -4174.9364 
 7318000    217.46612   -4792.5794   -4373.1777   -4792.5794            0    2583.3187    20.265547    20.158536    20.669481    8443.9739    1522.1195    2673.4117    3554.4248    375.75968     592.9744    181.39297   -4055.0506 
 7319000    210.98446   -4809.4484   -4402.5471   -4809.4484            0    1909.5451    19.985623    19.999936    21.103884    8435.4579    2993.8665      1897.77    836.99874   -610.62378    53.412842     102.4218   -4167.6301 
 7320000    216.58006   -4779.1337   -4361.4408   -4779.1337            0    1499.0551    20.090878    20.106503    21.171214    8552.2665    2210.6993    539.14791    1747.3179    354.41322    337.36873    120.48121   -4174.4696 
 7321000    218.27294   -4779.2892   -4358.3314   -4779.2892            0    1980.0872    20.225854    20.027737    20.924919    8476.2258    462.20028      3942.28    1535.7815   -163.28254    745.86855   -759.30738   -4113.5589 
 7322000    224.69638   -4750.7719    -4317.426   -4750.7719            0    938.04144    20.250805    20.166395    20.949507    8555.4798    2423.1628   -1157.6943    1548.6558   -140.64947     376.6267   -1257.6338   -4200.3839 
 7323000    216.05276   -4817.3182   -4400.6422   -4817.3182            0    2130.5926    19.936239    19.999027      21.3599    8516.3073    2611.1391    2761.1471    1019.4917    263.93729   -184.61799    576.64384   -4136.0192 
 7324000    211.69514   -4796.3433   -4388.0714   -4796.3433            0    1260.9668    20.099695    20.113202    21.023454    8499.1356    1847.3939    246.41898    1689.0874   -541.45727   -215.36672    1032.2709   -4231.7731 
 7325000    218.06377   -4801.6274   -4381.0731   -4801.6274            0    1510.2753    20.033636    20.292265    20.737311    8430.2942    1777.8787    236.14582    2516.8014    211.23209    878.20486    3.1639378    -4195.389 
 7326000    218.48933   -4797.8896   -4376.5146   -4797.8896            0    2101.4058    20.097689    20.078636    21.055515    8496.6199    1015.2286    2720.8592    2568.1298   -309.70228    846.06176   -253.12946     -4116.12 
 7327000    200.60748   -4789.8873   -4402.9989   -4789.8873            0    1688.0097    20.235197    19.876726    20.981555    8438.9801    1181.3645    3427.1689    455.49574   -312.88212    382.57342    1793.4506    -4195.249 
 7328000    221.90959    -4761.002   -4333.0307    -4761.002            0    1946.3884    20.245689    20.124161    20.979611    8547.6706   -455.74304    3513.8233    2781.0848    314.08848   -718.30083    12.243572   -4090.3959 
 7329000    216.68232   -4804.7679   -4386.8778   -4804.7679            0    1013.4587    20.031997    20.144252    21.134949    8528.5777    1192.2177    251.82679    1596.3317   -214.18509   -847.92431   -627.79145   -4260.8233 
 7330000    226.07144   -4778.6889   -4342.6911   -4778.6889            0    895.46558    20.162671    19.976907    21.258805    8562.7876    2638.4347    1196.3968   -1148.4348   -648.69295    435.11577    820.02916   -4230.8658 
 7331000    223.28942   -4793.8854    -4363.253   -4793.8854            0    1584.6211    20.145963    20.045141    20.906259    8442.5466    1187.3118    1531.7111    2034.8403   -295.07389   -555.58078    1205.0489   -4168.1452 
 7332000    212.78853   -4796.9672   -4386.5866   -4796.9672            0    2353.7499    19.952135    20.052873    21.100955     8442.442    4196.0753    1202.5679    1662.6064   -820.78017     292.2632    1833.5203   -4096.7827 
 7333000    214.67209   -4772.0571   -4358.0439   -4772.0571            0     998.4634     20.08004    20.163043    21.154242    8564.8175    1152.8879    1994.8922    -152.3899    760.05484     321.3929    -538.5153   -4233.3268 
 7334000    226.21562   -4769.9144   -4333.6386   -4769.9144            0    254.00669    20.189654    20.227135    20.949157    8555.1927   -1347.6302    1507.7843      601.866    89.132437    499.16076   -324.20581   -4301.9465 
 7335000    213.73569   -4798.2564   -4386.0491   -4798.2564            0    537.89525    20.195936    20.027494    21.013046    8499.2303   -69.931664    470.16454    1213.4529   -191.12931    483.09119    252.59479   -4319.3757 
 7336000    216.13678    -4800.197    -4383.359    -4800.197            0    1345.2636    20.113925    19.892569     21.19288    8479.6446    2746.5227    662.17179    627.09628    328.12609    1032.4929     512.6892   -4216.9944 
 7337000     205.9147   -4775.4837   -4378.3599   -4775.4837            0    1596.0887    20.174573    20.166544    20.795659    8460.7431    -1020.511    3016.0248    2792.7522    302.93908    -656.9199    172.30614   -4181.4165 
 7338000    218.41223   -4791.5131   -4370.2868   -4791.5131            0    1288.5297    20.110798    20.171325    20.990789    8515.1535    1548.2093    1231.3518    1086.0281    283.62564    22.975213     209.9789    -4210.271 
 7339000    207.54545   -4809.8555   -4409.5866   -4809.8555            0    1590.3779    20.131516    20.079019    21.127438    8540.1562    2354.3939    1034.8502    1381.8895   -245.87357   -186.58751    916.58826    -4211.506 
 7340000    215.81819   -4799.4051   -4383.1815   -4799.4051            0    2515.4049    20.323778    19.988054    20.830842    8462.1707    688.03917    4210.0897     2648.086   -495.94841    337.68048   -481.44072   -4072.7502 
 7341000    220.94019   -4804.8443   -4378.7425   -4804.8443            0    1962.1509    20.018528    20.005798    21.158911    8473.8612    1217.4637    3956.1084    712.88073    230.21232    43.051912    309.42709   -4136.2549 
 7342000    215.02204    -4785.553   -4370.8649    -4785.553            0    1565.9056    19.933125    20.211173    21.016696    8467.0348     2829.855    1417.6321    450.22965   -228.67248    -544.3451    969.49882   -4177.5021 
 7343000    220.19713   -4779.0289   -4354.3602   -4779.0289            0    1169.5174    20.123511    20.153375    21.020835    8525.1398    1568.9015    571.90924    1367.7415   -335.68685   -1148.6592    526.73369   -4208.9536 
 7344000    217.26434   -4785.1731   -4366.1605   -4785.1731            0    596.30168    20.071162    20.165023    21.087375    8534.8077    1413.0979   -233.01126    608.81836    360.10058   -806.81097    400.49605    -4291.938 
 7345000    212.51742   -4818.1513   -4408.2936   -4818.1513            0    1014.8325     20.00318    20.262343    21.080673    8544.2351    1539.3354    92.363053    1412.7991   -17.806746    1169.6871    80.539839   -4281.8364 
 7346000    222.90885   -4791.0841   -4361.1857   -4791.0841            0    1944.4674    20.279553     19.99189    20.904934    8475.4161    2792.3452    1322.3884    1718.6687    295.37291    454.06325    19.625677   -4120.8393 
 7347000    222.03113   -4791.2426   -4363.0369   -4791.2426            0     1348.319    20.097062    20.106744    20.916049    8451.8926    2740.7418    48.926575    1255.2887    -404.3479    1857.4828   -176.26806   -4196.8402 
 7348000    222.04298   -4794.1799   -4365.9513   -4794.1799            0    3601.4036    20.024231     20.26481    20.734895    8413.9561    4062.4874     3157.078    3584.6455    124.51751    401.12635   -1692.8293    -3924.027 
 7349000    211.07251   -4777.7652   -4370.6941   -4777.7652            0    1356.4364    20.028434    20.188355     21.16672    8558.5756    2055.2377    1097.1236    916.94794    101.58338    1048.2395    391.41687   -4201.3863 
 7350000    215.78186   -4786.8116   -4370.6582   -4786.8116            0    2490.5324    20.313577    19.979043    20.839125    8457.4719    1510.0364    3259.6958    2701.8651    47.692297    169.45328   -1026.5517   -4063.4671 
 7351000    210.63496   -4817.7877   -4411.5605   -4817.7877            0    1252.0232    20.058481    20.140435    21.060438    8508.1333    3458.8037   -42.179788    339.44557   -484.25778    24.193434    1200.2369   -4256.2065 
 7352000    210.09202    -4770.199   -4365.0189    -4770.199            0    1159.6822    20.063454    20.124126    20.996945    8477.7157    1441.7042    930.84877    1106.4937   -730.41403   -703.37036    318.92862   -4221.6372 
 7353000    226.24823   -4790.7888     -4354.45   -4790.7888            0    1677.9362    20.013178    20.225795    20.859067     8443.384    1410.7284    1973.4985    1649.5817    13.224001    350.25515     1426.948   -4147.8321 
 7354000    214.51005   -4769.9791   -4356.2784   -4769.9791            0    2372.9591    19.987279    20.037375    21.198587    8489.8776    2433.8664    2463.9738     2221.037   -565.37456    436.70947    73.147203   -4062.4678 
 7355000    228.13595   -4766.7958   -4326.8164   -4766.7958            0     2527.515    20.187441    20.027194    21.120218    8538.8574    1850.4432    1859.7666    3872.3351    67.627989   -166.28234   -1110.6206   -4012.0638 
 7356000    211.21647   -4798.2571   -4390.9084   -4798.2571            0    815.82442    20.137574    20.264072    20.839877    8504.1129    561.33059    339.32066     1546.822     625.5047    1062.3656   -1628.9657   -4289.7267 
 7357000    214.23473   -4780.1524   -4366.9827   -4780.1524            0    2269.6807    19.980006    20.032224    21.119588    8452.9871    3478.2138    1851.0998    1479.7285    -363.9023   -1054.8957   -825.56537   -4087.1807 
 7358000    221.43261   -4774.1515   -4347.1001   -4774.1515            0    2153.1966    20.161887    19.918018    21.124623     8483.328     710.8952    3850.3914    1898.3031   -417.93172    -169.2766    773.03681   -4080.7052 
 7359000    228.04592   -4804.5117    -4364.706   -4804.5117            0    808.89413    20.242527    20.120728    20.885032    8506.3559    1203.4952    713.70311    509.48413    68.054144   -102.26325   -900.55007   -4264.3574 
 7360000    212.98205   -4756.4046   -4345.6508   -4756.4046            0    2168.8975     19.92836    20.191438    21.009875    8454.0006     3091.043   -177.73611    3593.3858    355.40106   -292.25894    550.89956   -4078.2411 
 7361000    226.46722   -4781.9432   -4345.1821   -4781.9432            0     1472.971    19.934439    20.130032    21.243265    8524.5166    3757.2474   -538.76088    1200.4264   -455.18638    677.29988     189.8114   -4162.0604 
 7362000    217.11445   -4774.9279   -4356.2044   -4774.9279            0    1166.6833    20.236764    20.206811     20.94055    8563.0198    634.47754    565.43802    2300.1344   -535.66681   -337.42068   -705.89546   -4210.5057 
 7363000    210.61089   -4801.3301   -4395.1493   -4801.3301            0    2741.9651    19.962361    20.204829    20.959589    8453.7587    3429.3115    1859.5895    2936.9945    43.158857    414.40746    701.19068    -4057.094 
 7364000    212.26681   -4769.4457   -4360.0713   -4769.4457            0     2060.497    20.156358    20.051011    20.929983    8458.9644   -423.08938    3344.3869    3260.1936    177.17757   -196.87227   -632.55881   -4105.8775 
 7365000    218.89908   -4792.0061   -4369.8408   -4792.0061            0    2253.5823    19.986657    19.913995    21.224096    8447.4911    3422.8244    2978.1399     359.7825   -446.46853    289.07613   -433.84124    -4092.204 
 7366000    203.35971   -4793.3137   -4401.1174   -4793.3137            0      525.225    20.062167    20.232782    21.024021     8533.933   -195.62745     721.0487    1050.2538   -608.77882    682.76593    758.17641   -4335.7486 
 7367000    210.13626   -4801.6645   -4396.3991   -4801.6645            0    2149.4921    20.121763    20.031415    21.053003    8485.7791    2655.5186    1915.4282    1877.5295   -533.30322   -211.74647   -957.51815   -4130.3857 
 7368000    208.40105   -4785.0516   -4383.1326   -4785.0516            0     3131.308    20.018947    20.038485    21.009146    8427.8055    4838.9549     956.3268    3598.6424   -427.90301   -504.51845    1591.3646   -3998.2608 
 7369000    214.18376   -4804.3475   -4391.2761   -4804.3475            0    1749.6129    20.251932    19.871417    21.200877    8531.9663     606.4385    1947.8819    2694.5182   -364.04167    19.128803   -474.04473   -4173.5719 
 7370000    219.09808   -4788.8957   -4366.3466   -4788.8957            0    807.90663    19.951305    20.215466    21.234216    8564.2889    1136.4995    788.14791    499.07251    62.762064    755.41833    -1165.893    -4265.438 
 7371000    215.82112   -4816.3022    -4400.073   -4816.3022            0    1080.3616    20.134701    20.242837    20.822698    8486.9872    763.92492    1997.7518    479.40804   -872.94479   -323.31091   -28.671475   -4266.3523 
 7372000    223.55272    -4778.452   -4347.3118    -4778.452            0    708.03408    20.154478    20.111239    21.018577    8519.4918    90.712431    787.60686     1245.783   -522.87758    428.31947    291.31851   -4259.3399 
 7373000    218.63964   -4786.7604   -4365.0955   -4786.7604            0    68.397448    19.999235    20.158438    21.277134    8577.9477   -1143.8069    1335.8858    13.113379   -441.67037    -184.9686    219.85108   -4356.5389 
 7374000    229.54172   -4801.5999   -4358.9094   -4801.5999            0    2399.3445    20.090992    20.087762    20.858922    8418.3074     1222.367    2274.8649    3700.8017   -165.27932     73.02864   -734.43557   -4064.3361 
 7375000    224.87134   -4782.4488   -4348.7655   -4782.4488            0    2039.0706    20.067565    20.228101    20.973028    8513.5547    1766.7075    1730.9961    2619.5083    107.01871   -360.04414   -52.104709   -4095.5915 
 7376000    210.01078   -4802.0359   -4397.0124   -4802.0359            0    533.42687    20.178621    20.009631    21.375366    8630.6622    -530.8174    2416.2624   -285.16439   -1160.8009    162.13114     464.4604   -4329.8703 
 7377000    217.95728   -4796.4024   -4376.0535   -4796.4024            0    444.48264    20.217253    20.117837    20.921253    8509.2467   -709.30515    546.49787    1496.2552   -152.55587    362.39274   -596.18692   -4320.8938 
 7378000    215.69509   -4799.5171    -4383.531   -4799.5171            0    1975.4007    20.153599    20.206843    20.847928     8490.123    3970.2417   -639.69655    2595.6569    230.21065    443.23918   -847.50119   -4138.9374 
 7379000     225.3469   -4761.1691   -4326.5687   -4761.1691            0    1515.4779    20.155355    20.027127    21.125874    8527.5404   -54.345736     4179.262    421.51745   -155.92743    589.64683   -277.87636   -4138.0956 
 7380000     208.8732   -4808.9138   -4406.0843   -4808.9138            0     2484.177    19.911282    20.085547    20.987755    8393.6117    2815.0292     2689.732    1947.7699   -155.95062    239.30205     305.1561   -4101.9906 
 7381000     209.5679   -4803.9463    -4399.777   -4803.9463            0     912.8326    20.132435    20.137441    21.022698    8522.9323    2064.0017   -551.13296    1225.6291   -482.94882    1000.0308   -1200.3269   -4286.3135 
 7382000    218.89647   -4761.5836   -4339.4233   -4761.5836            0    2801.7274    20.132665    20.092449    21.002853    8495.9591    3969.6736    2399.8573    2035.6514   -270.62141   -5.3518228   -960.25391   -3992.2757 
 7383000    227.23636   -4782.7189   -4344.4745   -4782.7189            0    2841.7631    19.943481     20.22525    21.112456    8515.9604    3255.9161    2758.3302     2511.043   -565.16868    14.403219     628.6754   -3991.5373 
 7384000    209.90783    -4791.946   -4387.1211    -4791.946            0    1363.5135    20.112261    20.043909    21.165464    8532.3986    2651.0326    901.01056    538.49725    304.91038    880.12799   -1044.6219   -4217.4506 
 7385000    217.11618   -4800.5199   -4381.7931   -4800.5199            0    1450.2091    20.077593    20.236436     20.92598    8502.2028    2342.0826    225.41692    1783.1278    265.56532   -328.14984    989.00198   -4201.9731 
 7386000    223.72307   -4795.7861   -4364.3173   -4795.7861            0    2232.0548    20.130405    20.024771    20.944511    8442.8735    2094.4834     2899.574    1702.1069   -261.63517   -148.45019    10.174802    -4089.483 
 7387000    212.93486   -4799.6247   -4388.9619   -4799.6247            0    925.43795    20.091984    20.130011    21.075294     8523.942      297.487    1508.2899    970.53701    180.41245    -172.1481   -560.45707    -4273.918 
 7388000    210.73989   -4785.7447   -4379.3151   -4785.7447            0    2237.6993    20.096569    20.206843    20.696136    8404.4565    3704.7397    90.188742    2918.1696   -203.34395    219.27121    473.19222   -4105.0394 
 7389000    200.35898   -4790.4447   -4404.0355   -4790.4447            0    3154.7699    20.094848    20.089585    21.006978    8480.4572    3518.1287    4411.6445    1534.5366   -89.905897   -49.438017    15.386486   -4013.8575 
 7390000    222.69597   -4789.0214   -4359.5335   -4789.0214            0     1068.826     20.18887    20.010315    21.103056    8525.3314     612.0165    2181.1938    413.26778   -460.50786   -310.29083    703.92657   -4226.6429 
 7391000    217.23805   -4799.1156   -4380.1537   -4799.1156            0    1287.8939    20.181287    20.209359    20.880542    8516.1475    1230.2373    840.91448    1792.5298   -59.222105    695.74055   -154.05062   -4220.1983 
 7392000    217.59516   -4791.4841   -4371.8336   -4791.4841            0     651.3077    20.045315    20.184416    21.064584    8522.7935    1333.4032   -311.70063    932.22055   -136.02807   -519.28637    46.774436   -4290.8785 
 7393000    211.03515   -4784.0651    -4377.066   -4784.0651            0    1824.0122    20.071802    20.137188    20.904727    8449.4746    3498.3519    312.85312    1660.8317    140.96594    658.60762    38.325854   -4152.2986 
 7394000     218.1104   -4785.4538   -4364.8096   -4785.4538            0    2803.7047    20.131843    19.950575    20.994396    8432.2281    1066.3398    4316.3678    3028.4065   -427.91626    232.17949    309.22126   -4020.0229 
 7395000    218.11273   -4795.5208    -4374.872   -4795.5208            0    1065.5431    20.375025    19.889819    20.933961    8483.6043    2050.8796    576.70429    569.04522    289.10623    788.43444   -73.767245   -4243.0381 
 7396000    211.48225   -4794.2009   -4386.3396   -4794.2009            0    1808.2735    20.142446    20.033482    20.950564    8454.0417    1821.0482     2434.991    1168.7813   -514.79011   -323.37324    861.23095   -4163.3912 
 7397000    207.31963   -4794.6905   -4394.8572   -4794.6905            0    887.86191    20.160664    20.263615     20.91195    8543.1159    1339.2077   -300.44286    1624.8209   -554.85274   -737.65828   -292.77061   -4284.2362 
 7398000    212.43777   -4796.2767   -4386.5726   -4796.2767            0    379.82036     20.05229    20.160642     21.05481    8511.7657    1660.0174    86.308438   -606.86474   -328.09131    236.27864    299.07175   -4339.4235 
 7399000    214.54583   -4769.9472   -4356.1775   -4769.9472            0    3055.5933    20.032862    19.829029    21.214647    8427.1408    2311.4184    4723.2623    2132.0991   -524.53481    770.66028   -752.87176   -3980.6414 
 7400000      213.974   -4789.0922   -4376.4253   -4789.0922            0    1401.5913    20.165212    19.999062    21.075562    8499.4646    1356.4616    1719.1517    1129.1606     316.5764   -1126.8734   -1504.1156   -4202.6897 
 7401000     224.1928   -4771.3458   -4338.9711   -4771.3458            0    1350.7619    20.023123    20.194584    20.998411    8490.8887    1816.2893     1448.172    787.82454   -128.65396   -300.10524    1199.7278   -4171.7051 
 7402000    228.17745   -4795.7365   -4355.6771   -4795.7365            0    2054.8773     20.05263    19.945525    21.186029    8473.5689    3234.8913     1958.601    971.13972   -159.83667   -135.02305   -284.36841   -4101.7388 
 7403000     219.2584   -4794.2342   -4371.3759   -4794.2342            0    2919.4396    20.047243     19.98675    20.974802    8404.1675    3862.8315    3110.8303    1784.6568   -310.86892    250.85211    32.474289   -4013.5514 
 7404000     213.2355   -4777.3847   -4366.1421   -4777.3847            0    1004.4463    20.270126    20.140982    20.729852    8463.1746    548.63721     692.3646    1772.3372   -740.59225     958.2932   -903.86961   -4242.1666 
 7405000    217.52929    -4796.386   -4376.8625    -4796.386            0    474.48147    20.085018    20.037773    21.153892     8513.575    1761.8412    90.012885   -428.40964   -311.21398   -407.68894      1440.53     -4317.95 
 7406000    203.74202   -4781.3266    -4388.393   -4781.3266            0    1238.8838    20.130916    20.024515    21.210925    8550.3748    2820.9714    636.09605    259.58389   -76.356183    600.77509    564.36268   -4233.9061 
 7407000    233.27255   -4815.0021   -4365.1163   -4815.0021            0    1618.1114    20.311059    20.160377    20.702187    8477.1026    2156.6537    587.76003    2109.9204   -17.778714     1347.453    296.53777   -4165.0695 
 7408000     195.7781   -4764.9438   -4387.3693   -4764.9438            0     398.3273    20.344813      19.9788    20.956373    8518.0309    845.93095    53.228613    295.82234   -348.75784    107.70602    149.66778   -4337.8864 
 7409000    214.72386   -4801.6369   -4387.5238   -4801.6369            0    2018.5932    20.209092     19.87012    21.071948    8461.5899    2060.7959    2082.5182    1912.4656   -212.25332   -832.66309    150.27261   -4138.4222 
 7410000    215.94203   -4775.6286   -4359.1663   -4775.6286            0    1470.9859    20.121526    20.160417    20.836509    8452.5038    1365.8225    1228.2218    1818.9134    139.44801    1506.5085     352.0979   -4177.8362 
 7411000    217.24408   -4805.1375    -4386.164   -4805.1375            0    1548.1546    20.221188    20.037752    21.020051    8517.0545    104.02612    1987.8788    2552.5587    275.82193    676.15097    438.79567   -4193.8639 
 7412000    230.96603   -4813.6988   -4368.2614   -4813.6988            0    792.85437    20.034513    20.000075    21.204667    8496.5352    825.25717    368.34188    1184.9641    15.958116    1031.3143    -41.64134   -4270.0162 
 7413000    225.02979   -4802.4276   -4368.4387   -4802.4276            0    1530.5295    20.211306    20.067665    20.923375    8486.3893   -336.38133    2281.2968    2646.6731   -27.782955    109.22207    -376.2175   -4179.0123 
 7414000     210.6767   -4790.0887   -4383.7809   -4790.0887            0    2174.1596    20.201888    20.049866    20.885435    8459.5443    1351.3453    2854.8438    2316.2898    -423.9929    199.51303      473.651   -4115.5466 
 7415000    208.11137   -4777.2221   -4375.8618   -4777.2221            0    1223.3034    20.052649    20.039901    21.194876    8517.2264    1218.7912    2753.2264   -302.10734    610.91963    1146.1315   -167.81296   -4223.9092 
 7416000    210.04389   -4754.8696   -4349.7823   -4754.8696            0    1537.7382    19.998208    20.186104    21.123655    8527.3216    1010.5649    1476.0005    2126.6491   -606.92978    774.77889   -123.41731   -4158.5458 
 7417000    231.40838   -4811.5268   -4365.2362   -4811.5268            0    3227.8101    20.148079    20.104651    20.673029     8374.026    2690.1287    1979.2949    5014.0068   -549.39045   -151.97301    1226.3507   -3971.0348 
 7418000    216.93711   -4754.6234   -4336.2419   -4754.6234            0    3016.7974     20.11075    19.963719    20.883632    8384.4727    2281.5722     3542.672    3226.1481      176.734     412.0015   -1439.0806   -3967.3512 
 7419000    233.45505   -4796.2248   -4345.9871   -4796.2248            0    822.83236      20.0238    20.121734    21.116931    8508.2985    876.07323    244.25961    1348.1643   -183.61118   -116.74781    991.59022   -4243.8861 
 7420000    222.98367   -4793.9337    -4363.891   -4793.9337            0    1301.9717    20.103602    20.282437    20.793246    8478.4469    2023.6162    31.153367    1851.1455   -74.504524   -858.19905   -339.04379   -4202.9029 
 7421000    218.99859   -4781.7174   -4359.3602   -4781.7174            0    435.83096    20.099065    20.002118    21.152323    8503.7383    606.44594    817.38268   -116.33575    -411.6756    670.08997   -285.01754   -4305.3092 
 7422000    215.03209   -4787.8215    -4373.114   -4787.8215            0    1976.8588    20.217738    19.897935    21.122273    8497.3053     1502.343    3086.8552    1341.3781    528.10597    218.95702      -41.542   -4128.1329 
 7423000    210.40586   -4797.9932   -4392.2078   -4797.9932            0    1048.7485    19.980903    19.957882    21.465365    8559.8835    1685.4601    1516.1662   -55.380702    88.820695     1553.326   -149.99066    -4261.285 
 7424000    216.35977   -4788.2839   -4371.0159   -4788.2839            0    2329.2797    20.102802    20.196441    20.802232    8445.8116    2026.7989    2089.1206    2871.9195     280.9675    456.63034   -480.94825   -4084.1104 
 7425000    219.27859   -4797.2828   -4374.3856   -4797.2828            0    2369.4483    19.873609    20.148376    21.149076    8468.5329    4078.6386    1523.4116    1506.2947   -28.298724    703.01355   -1158.5257   -4081.7472 
 7426000    208.70244   -4797.5074   -4395.0072   -4797.5074            0    1310.7558    20.202417    20.065202    20.990041    8508.6402    371.42119    1850.7671    1710.0791    49.522043    563.09225     841.0005   -4232.3558 
 7427000    215.33401   -4775.6223   -4360.3326   -4775.6223            0    109.65182    20.040827     20.05697     21.38556    8596.1029    573.02226    845.16434   -1089.2311   -406.14272   -57.660582     188.7886    -4346.586 
 7428000    220.60075   -4795.6942   -4370.2471   -4795.6942            0    1452.3779    20.218458    20.023175    20.902678    8462.1922    1214.6417    1693.8482    1448.6439   -870.28778    -26.33786   -306.00788   -4191.0057 
 7429000    225.46471   -4784.3096    -4349.482   -4784.3096            0    61.501532     19.99422     20.11441    21.265029    8552.1979    1539.6315   -51.183775   -1303.9432    140.35067    76.292047    24.673204   -4341.8112 
 7430000    217.35858    -4781.895   -4362.7007    -4781.895            0     557.0655    20.095726    20.312474    20.906544     8533.924    510.30591    275.94776    884.94283    274.82642     674.4167   -466.92609   -4293.3692 
 7431000    201.10048   -4767.0903   -4379.2511   -4767.0903            0   -135.91745    20.283208    20.093804    21.036178     8573.648    726.30115   -499.55351       -634.5   -497.14484   -549.01391   -549.41459    -4396.246 
 7432000    219.77262   -4796.0327   -4372.1827   -4796.0327            0   -19.861332    20.137153    20.125967    21.086087    8545.7625    1353.4056   -1267.0463   -145.94329   -240.28337     579.0519   -579.73017    -4374.658 
 7433000    208.06547   -4793.6683   -4392.3965   -4793.6683            0    2494.3923    20.124594    19.736834    21.249726    8440.3014    2607.0128    3848.0867    1028.0774    480.17072   -566.45616   -920.21355    -4085.354 
 7434000    214.57354    -4807.533   -4393.7099    -4807.533            0    2431.3479    20.095654    20.045805    21.039773    8475.5266    2934.1369    1290.8015    3069.1053    197.91922    377.57426    594.53244   -4093.1786 
 7435000    217.87551   -4772.2094   -4352.0181   -4772.2094            0    665.95978    20.343368    20.224121    20.745236    8535.1447    44.109368   -239.01731    2192.7873   -1060.8081   -748.85764   -1047.9418   -4269.1219 
 7436000    228.55492   -4787.6132   -4346.8258   -4787.6132            0    1713.8651    20.133979    20.052871    20.998707    8478.1038    2097.6736    1949.2713    1094.6504   -439.92815   -111.27335    919.20534   -4134.9159 
 7437000    217.79048   -4798.4115   -4378.3843   -4798.4115            0     558.5753    20.075764    19.947413    21.300656    8530.0515    65.397785    442.53236    1167.7957   -304.51723    351.54391   -244.81608   -4308.8964 
 7438000    222.93144   -4788.1512   -4358.2092   -4788.1512            0    1132.4122    20.302507    20.012768    20.850963    8471.9414    1706.5989    334.29283     1356.345    95.709679    359.10279    621.71878   -4218.2944 
 7439000    211.31871   -4800.2014   -4392.6555   -4800.2014            0    1023.3038    20.175077    20.000881    20.896439    8432.1166    1667.9725    1636.5252   -234.58625    86.905068    27.941043    1286.7683   -4266.8159 
 7440000    226.48461   -4768.6535   -4331.8589   -4768.6535            0    2162.7282    19.960257    20.087949    21.183732    8493.8421     1588.154    3260.8051    1639.2257   -977.86891   -884.03835    849.90294   -4063.9532 
 7441000    209.37164    -4766.241   -4362.4501    -4766.241            0    913.79071    20.022532    20.300789    20.939565    8511.3718    142.02913    1207.3415    1392.0016    92.365239    1042.8721   -762.79216   -4249.0216 
 7442000    219.02035   -4775.2172   -4352.8181   -4775.2172            0    2134.9561    20.031097    20.110211    20.912446    8424.1517     1589.241     3296.457    1519.1702   -240.65358    1163.6192   -299.83056   -4090.5224 
 7443000    221.23095   -4790.4213   -4363.7588   -4790.4213            0    2092.7636    20.219137    20.026061    21.121021    8552.1058     571.2089    4834.2865    872.79531   -182.47043    370.50977   -475.98448   -4102.7416 
 7444000    228.55625   -4784.4394   -4343.6495   -4784.4394            0    2499.7033    20.068215    20.003047    20.967293     8416.805    1523.4623    3551.3472    2424.3003    526.47852   -705.15968   -69.323997   -4036.8097 
 7445000    217.78995   -4787.5797   -4367.5535   -4787.5797            0       2057.1    20.004238    20.116532    20.884656    8404.3176    2118.1932    2563.0722    1490.0344    593.73611   -1064.9143   -1075.8754   -4115.4181 
 7446000    218.38339   -4793.7117   -4372.5409   -4793.7117            0    162.92094    20.026832    20.202037    21.237161    8592.1903    745.36124    566.89543   -823.49386    90.709242   -200.41533   -449.91865   -4352.1256 
 7447000    213.80135   -4781.9015   -4369.5676   -4781.9015            0    1753.3594    19.968603    20.265018    21.033918    8511.6713    1963.5902    1877.8551    1418.6328    263.60866   -52.054688   -41.793744   -4151.9161 
 7448000    211.53735   -4773.3055    -4365.338   -4773.3055            0    553.50665    20.393874    20.073604    20.884273    8549.5739    1877.2268   -324.28925    107.58235   -7.5732808    -622.4124    164.73356    -4296.323 
 7449000    230.86207   -4794.2348   -4348.9979   -4794.2348            0    921.42057    20.243847    20.073534    21.092428    8571.2361    -549.1659    1804.7846     1508.643   -219.14482   -1683.0438    1016.7206   -4233.8178 
 7450000    220.08526   -4803.3027   -4378.8497   -4803.3027            0    1365.6521    20.097976    20.204834     20.98828    8522.8425    1965.2876   -254.51478    2386.1835   -123.86876    135.20851    450.42873   -4209.1034 
 7451000    216.56158   -4793.8961   -4376.2388   -4793.8961            0      1014.44    20.046748    20.211685    21.074119    8538.7812    1952.9949    145.98545    944.33962    190.83906    391.44826   -60.094178   -4249.9113 
 7452000    222.40306   -4796.2715   -4367.3484   -4796.2715            0     1071.372    20.109217    20.221083    21.000446    8539.4145     2212.776    79.244726    922.09526    -298.7559    151.70893   -138.75265   -4233.9213 
 7453000    210.33473   -4793.6527   -4388.0045   -4793.6527            0    2228.0987    20.140128    20.056455    20.982534    8475.6757    1590.9621    2828.9491     2264.385   -67.092789   -147.82809     1057.248   -4112.5914 
 7454000    209.92363   -4793.0417   -4388.1864   -4793.0417            0    3122.0158    20.097886    19.938019    21.011713    8419.6465    4000.3432    2532.7731    2832.9311    18.727086    941.66898    896.58942   -4004.8281 
 7455000    213.46761    -4810.023   -4398.3328    -4810.023            0    1064.7797    19.985514    20.205547    21.098193    8519.8351   -11.175261    1624.4335    1581.0807   -127.54602    948.00903   -394.69454   -4266.0306 
 7456000    215.47053   -4807.0184   -4391.4654   -4807.0184            0    468.87604    20.194237    20.117309    21.160412    8596.4961    1076.4664   -240.78722     570.9489   -141.02251    231.50592    764.02783   -4332.6819 
 7457000    210.77069   -4780.7472   -4374.2582   -4780.7472            0    1846.6494    20.283406    20.094411    20.770205    8465.5846    1335.2081    1332.8851    2871.8551      -205.77    652.72038    1543.1602   -4146.2674 
 7458000    229.27398   -4805.7744   -4363.6002   -4805.7744            0    1934.1925    20.085631    19.947327    21.039406    8429.5361    1737.8338    2264.8462    1799.8975     566.2477    652.11382    714.87696   -4125.8181 
 7459000    216.46911   -4788.2888   -4370.8099   -4788.2888            0    2693.0614    20.005003    20.061888    20.935907    8402.3778     2179.806    2622.6936    3276.6846   -283.06331   -735.51748   -1283.8072    -4040.802 
 7460000    222.86792   -4771.9623   -4342.1427   -4771.9623            0    472.66274    20.151478     20.20337    21.001585    8550.3286      -204.59    380.10485    1242.4734   -7.0544257    493.90231    -544.3572   -4283.2027 
 7461000    209.04194   -4776.4525   -4373.2976   -4776.4525            0    1750.3759    20.115601    20.108341    21.141272    8551.4623    2164.4203    685.54876    2401.1586   -599.81253    686.98667     1201.362   -4155.0007 
 7462000    221.55068   -4794.9119   -4367.6328   -4794.9119            0    1366.5271    20.018159    20.089705    21.027314    8456.3214    2156.0748    832.78559     1110.721   -361.61455    344.74964   -482.11934   -4199.1034 
 7463000    223.38746   -4781.4108   -4350.5893   -4781.4108            0     769.6837      20.0889    20.314775    20.925664    8539.7944    1342.8138    630.50217     335.7351    370.98011   -667.10074   -634.08363   -4254.7297 
 7464000    217.41174   -4778.9962   -4359.6993   -4778.9962            0    71.110083    20.055654    20.235502    21.188921    8599.2317    2837.9998   -1581.4848   -1043.1848   -665.41033    845.59505    -821.3878   -4350.7814 
 7465000    203.09132   -4808.0619   -4416.3832   -4808.0619            0    2071.8696    20.011323    20.235099     20.91023    8467.2023    1621.1709    1997.2524    2597.1855   -786.32669    685.10476   -920.64605   -4160.5374 
 7466000    215.47777   -4799.1389   -4383.5719   -4799.1389            0    1413.3457    20.209013    20.110691    20.970906     8522.937    1344.1184    1591.7704    1304.1482    172.50332   -100.73735   -58.282688   -4207.8954 
 7467000    210.41501   -4809.3893   -4403.5863   -4809.3893            0    1523.4648    20.156975    20.028583    20.939939    8453.7813    1218.0326    2415.1858    937.17586   -63.897296    773.70335   -37.279952   -4215.7587 
 7468000    222.73882    -4782.455   -4352.8845    -4782.455            0    1569.5258    20.183862    19.852471    21.179959       8486.8    595.69085    3363.9546    748.93178   -493.60796     -859.148   -556.31698   -4158.6223 
 7469000    222.60591   -4787.2185   -4357.9043   -4787.2185            0    1341.8763    20.324888    20.097274    20.962403    8562.6141     1109.121    1040.8329     1875.675   -313.29071    1120.2084    396.88082   -4190.3349 
 7470000    214.69568   -4809.8556   -4395.7969   -4809.8556            0    1313.1529     20.20293     19.92804    21.122015    8503.8244    400.49762    2626.6897     912.2713    663.55632      90.5662   -556.88883   -4232.9403 
 7471000    217.91459   -4794.5748   -4374.3082   -4794.5748            0    1520.6461    20.190305    19.878385    21.137065    8483.3748    150.08795    2463.5837    1948.2665   -40.471203    397.89432   -132.34375   -4186.1718 
 7472000    209.98314   -4793.2856   -4388.3154   -4793.2856            0    963.02431    20.151658    20.184848    20.856554    8483.5734    862.18356    626.66214    1400.2272   -110.97195   -553.76201   -639.43472    -4269.166 
 7473000    206.78313   -4787.8569   -4389.0582   -4787.8569            0    1497.9798    20.160485    20.069906    21.069562    8525.1457     1305.635    1460.7512    1727.5532   -641.30375    1473.6351    305.35725   -4202.8137 
 7474000    219.48835   -4797.0774   -4373.7757   -4797.0774            0    618.57641      20.1518    20.021414    21.090455    8509.3137   -802.10677    2015.4404     642.3956    240.81649   -1065.4902   -310.38868   -4297.0106 
 7475000    214.01296   -4799.9289   -4387.1869   -4799.9289            0    511.69731    20.020148    20.108155    21.294582    8572.5221    2258.5155   -360.08788   -363.33566   -203.96614    1139.6142    1058.7747   -4323.2138 
 7476000    212.21793   -4775.9776   -4366.6974   -4775.9776            0    2034.1048    20.111542    20.290426    20.755103    8469.5716     2319.313    1015.2251    2767.7763   -202.77325    815.21813   -104.17558   -4115.4448 
 7477000    229.50273   -4757.8657   -4315.2503   -4757.8657            0    1009.0913     20.11027    20.241423    21.073026    8577.9959   -169.06251    2177.0245    1019.3119    249.24845    394.46349   -424.71932   -4189.0117 
 7478000    228.48756   -4785.9571   -4345.2996   -4785.9571            0    1181.9923    20.132194    20.144905     21.08016    8549.2937    932.25924    908.59831    1705.1192    282.12106    1077.1194    20.635308   -4197.9256 
 7479000     228.6153   -4795.1657   -4354.2619   -4795.1657            0    1771.0951    20.058218    20.176385    20.988167    8493.9601    3094.7455    309.60881    1908.9309    42.595429    852.65712   -456.52794   -4134.8663 
 7480000    230.68017   -4777.9932   -4333.1071   -4777.9932            0    1971.3421     19.89896    20.115944    21.222357    8495.0198    3201.5385    777.94363    1934.5442   -198.33951    15.865692   -316.07558   -4088.8753 
 7481000    236.63493   -4803.7347   -4347.3643   -4803.7347            0    2750.6185     20.17785    19.923594     20.98811    8437.5412    1754.0122    2738.0988    3759.7445   -13.558139   -349.83499   -1055.0455   -4008.8928 
 7482000    217.16188   -4780.5958   -4361.7809   -4780.5958            0     1963.769     20.31244     20.03153    20.747516    8441.9416    214.82016     3398.843    2277.6437    543.24293    369.30802   -313.10917   -4120.0074 
 7483000    208.86851   -4789.4613   -4386.6408   -4789.4613            0    1661.5369    20.150176    20.032643    21.056495     8499.692    709.79158    3156.5278    1118.2915    -409.5928   -88.292562   -534.14214   -4180.6779 
 7484000    220.65089   -4781.0767   -4355.5329   -4781.0767            0    3183.5399    20.155882    19.892113    20.964966    8405.7579    2942.4391    3894.0864    2714.0941    625.10382    35.112723   -357.97691   -3965.2648 
 7485000    214.14763   -4810.0576   -4397.0559   -4810.0576            0    363.02019    20.202748     20.18471    20.912714    8527.9247    428.65298   -375.10285    1035.5104    11.917039    358.55359   -1459.9945   -4351.9067 
 7486000    210.61292   -4800.8596   -4394.6749   -4800.8596            0    340.11139    20.171051    20.012815     21.23956    8573.9751    1731.7322   -607.46497   -103.93309    114.90822     419.9417    1091.2819   -4352.1465 
 7487000    212.79271    -4779.393   -4369.0044    -4779.393            0    1089.4807    20.177773    19.940373    20.890708    8405.4252     1460.131    1201.0634    607.24771   -66.983241   -204.41363   -158.90498   -4235.4509 
 7488000    216.77719   -4776.0626   -4357.9896   -4776.0626            0    944.05148    20.237966    20.082253     20.95774    8517.7275    617.95848    1058.4269     1155.769    263.20079   -669.28711    1654.1776   -4240.7173 
 7489000    226.36315   -4813.6457   -4377.0853   -4813.6457            0     1138.782    20.000667     20.10531    21.098022    8483.9286    1021.4375    1292.7449    1102.1636    189.48533   -321.14836    1084.8137   -4236.1845 
 7490000    224.80873    -4799.924   -4366.3614    -4799.924            0    1225.4773    20.024827    19.985075    21.174621     8474.034     2257.475    1265.2301    153.72669    40.451335    366.05839   -167.69195   -4214.9107 
 7491000    209.03463   -4791.2585   -4388.1176   -4791.2585            0    928.04637    20.132297    19.972254    21.041268    8460.4274    2034.8297   -165.00535    914.31478    314.13078    1368.8279    829.99357   -4273.6091 
 7492000    220.47569   -4797.2246   -4372.0187   -4797.2246            0    1254.9372    20.136626    20.097984    21.070462    8527.3336    1778.7246    644.59273    1341.4942   -98.546867   -414.95305    269.90241   -4215.9517 
 7493000    224.21187   -4783.2493   -4350.8379   -4783.2493            0    723.03969    20.240792    20.186701    20.994185    8578.1154    1090.8802   -1224.6321     2302.871   -668.47689    765.26817    446.19081   -4260.3834 
 7494000    222.44082   -4780.5287   -4351.5329   -4780.5287            0    1721.0461    20.167473    20.187984    20.854988    8490.9128    1594.4697     914.4249    2654.2438   -58.261432   -363.23803    639.23001   -4138.4136 
 7495000    230.66947   -4776.6263   -4331.7609   -4776.6263            0    1021.6365    20.281125     20.06687    21.022745    8555.8098   -393.73446    1119.5001    2339.1439   -235.71418    440.81867   -905.51955   -4204.2834 
 7496000    228.86311   -4791.4675   -4350.0858   -4791.4675            0    1115.5327    20.200883     19.94827    20.934559     8436.055    1143.5253    1519.6951    683.37758   -62.936895   -468.64052    48.425263   -4212.8404 
 7497000     214.7359   -4790.2654   -4376.1291   -4790.2654            0    763.73821    20.178106     20.22099    20.888573    8522.9824    1563.7263   -561.75798    1289.2463   -327.18183     558.9347    358.69528   -4281.1973 
 7498000    219.36219   -4767.1574   -4344.0989   -4767.1574            0    1230.3914    20.213733    20.191723    20.901087    8530.7807    1506.2557    291.39343     1893.525    100.48558    1272.4516    643.24849   -4191.0226 
 7499000     208.2019    -4793.823   -4392.2881    -4793.823            0    1426.0363    20.172829    19.890064    21.272448    8535.3327    750.95868    2347.8743    1179.2759   -486.04557    97.944259     1141.566   -4214.7764 
 7500000    229.09963   -4772.5636   -4330.7257   -4772.5636            0    1918.9854    20.190877    20.034069      21.0569    8517.6305    1533.2052    1765.9064    2457.8445    377.83907    719.63013   -648.75082   -4092.3476 
Loop time of 352.542 on 64 procs for 250000 steps with 972 atoms

Performance: 122.539 ns/day, 0.196 hours/ns, 709.135 timesteps/s
195.4% CPU use with 32 MPI tasks x 2 OpenMP threads

MPI task timing breakdown:
Section |  min time  |  avg time  |  max time  |%varavg| %total
---------------------------------------------------------------
Pair    | 26.848     | 34.956     | 43.006     |  77.0 |  9.92
Bond    | 1.041      | 1.2325     | 1.5025     |   9.6 |  0.35
Kspace  | 155.28     | 166.01     | 175.71     |  38.8 | 47.09
Neigh   | 1.7941     | 1.9185     | 2.0425     |   5.8 |  0.54
Comm    | 61.989     | 65.368     | 68.44      |  25.1 | 18.54
Output  | 0.58863    | 0.58889    | 0.59032    |   0.0 |  0.17
Modify  | 68.264     | 70.022     | 72.686     |  12.1 | 19.86
Other   |            | 12.45      |            |       |  3.53

Nlocal:        30.3750 ave          37 max          24 min
Histogram: 3 2 1 4 2 6 12 1 0 1
Nghost:        2532.94 ave        2562 max        2509 min
Histogram: 3 2 3 9 4 1 4 3 1 2
Neighs:        9257.19 ave       11532 max        6388 min
Histogram: 1 2 2 4 3 4 7 2 5 2

Total # of neighbors = 296230
Ave neighs/atom = 304.76337
Ave special neighs/atom = 2.0000000
Neighbor list builds = 5886
Dangerous builds = 0

unfix		3
unfix		2
unfix		1

write_data	data.final.${pid}
write_data	data.final.1
System init for write_data ...
PPPM initialization ...
  extracting TIP4P info from pair style
  using 12-bit tables for long-range coulomb (../kspace.cpp:340)
  G vector (1/distance) = 0.37175172
  grid = 24 24 25
  stencil order = 5
  estimated absolute RMS force accuracy = 0.0034881528
  estimated relative force accuracy = 1.0504469e-05
  using double precision FFTW3
  3d grid and FFT values/proc = 3458 576
Last active /omp style is kspace_style pppm/tip4p/omp
WARNING: Not all mixed pair coeffs generated from mixing. Use write_data with 'pair ij' option to store all pair coeffs. (../write_data.cpp:312)

write_restart   restart.lmp.${pid}
write_restart   restart.lmp.1
System init for write_restart ...
PPPM initialization ...
  extracting TIP4P info from pair style
  using 12-bit tables for long-range coulomb (../kspace.cpp:340)
  G vector (1/distance) = 0.37175172
  grid = 24 24 25
  stencil order = 5
  estimated absolute RMS force accuracy = 0.0034881528
  estimated relative force accuracy = 1.0504469e-05
  using double precision FFTW3
  3d grid and FFT values/proc = 3458 576
Last active /omp style is kspace_style pppm/tip4p/omp
Total wall time: 0:05:52
