LAMMPS (30 Jul 2021)
  using 1 OpenMP thread(s) per MPI task
package omp 0
using multi-threaded neighbor list subroutines
echo both

include		in.partitions
variable        pid world 0
include		in.temp
variable        temperature equal 238.31
variable	tempDamp equal 100.0
include		in.pressure
variable        pressure equal 250.0
variable        pressureDamp equal 1000.0 # This is 1 ps
include		in.seed
variable        seed world 745823

units		real
atom_style	full
read_restart	restart.lmp.${pid}
read_restart	restart.lmp.0
Reading restart file ...
  restart file = 30 Jul 2021, LAMMPS = 30 Jul 2021
  restoring atom style full from restart
  orthogonal box = (0.022439067 1.1179615 0.027375609) to (18.185133 22.511216 22.185820)
  4 by 4 by 4 MPI processor grid
  restoring pair style lj/cut/tip4p/long/omp from restart
  restoring bond style harmonic/omp from restart
  restoring angle style harmonic/omp from restart
  864 atoms
  576 bonds
  288 angles
Finding 1-2 1-3 1-4 neighbors ...
  special bond factors lj:    0        0        0       
  special bond factors coul:  0        0        0       
     2 = max # of 1-2 neighbors
     1 = max # of 1-3 neighbors
     1 = max # of 1-4 neighbors
     2 = max # of special neighbors
  special bonds CPU = 1.229 seconds
  read_restart CPU = 1.482 seconds
include 	in.setup
variable	out_freq equal 1000
variable	out_freq2 equal 10000
variable	out_freq3 equal 1000

timestep	2.0

neigh_modify    delay 7 every 1

include		in.tip4p
# This is TIP4P/Ice

# create groups ###
group ox type 2
288 atoms in group ox
group hy type 1
576 atoms in group hy

# set charges - beside manually ###
set group ox charge -1.1794
Setting atom values ...
  288 settings made for charge
set group hy charge 0.5897
Setting atom values ...
  576 settings made for charge

# ### TIP3P Potential Parameters ###
pair_style lj/cut/tip4p/long/omp 2 1 1 1 0.1577 8.5
pair_coeff 1 1*2 0.000 0.000
pair_coeff 2 2 0.21084 3.1668
bond_style  harmonic
bond_coeff  1 450 0.9572
angle_style harmonic
angle_coeff 1 55 104.52
kspace_style pppm/tip4p/omp 1.0e-5
pair_modify tail yes

thermo          ${out_freq}
thermo          1000
thermo_style    custom step temp pe etotal epair emol press lx ly lz vol pxx pyy pzz pxy pxz pyz enthalpy

restart 	${out_freq3} restart.lmp.${pid} restart2.lmp.${pid}
restart 	1000 restart.lmp.${pid} restart2.lmp.${pid}
restart 	1000 restart.lmp.0 restart2.lmp.${pid}
restart 	1000 restart.lmp.0 restart2.lmp.0


include         in.dump
dump            myDump all atom ${out_freq2} dump.water.${pid}
dump            myDump all atom 10000 dump.water.${pid}
dump            myDump all atom 10000 dump.water.0
dump            myDump2 all dcd ${out_freq2} dump.dcd
dump            myDump2 all dcd 10000 dump.dcd
dump_modify     myDump append yes
dump_modify     myDump2 append yes


variable natoms 	equal  "count(all)"                        # NUMBER ATOMS
variable H      	equal  "enthalpy/v_natoms"                 # ENTHALPY-per-atom
variable Vol      	equal  "vol/v_natoms"                 # volume-per-atom
fix AVG all 		ave/time ${out_freq} 1 ${out_freq} v_Vol v_H file vol_enthalpy.dat
fix AVG all 		ave/time 1000 1 ${out_freq} v_Vol v_H file vol_enthalpy.dat
fix AVG all 		ave/time 1000 1 1000 v_Vol v_H file vol_enthalpy.dat


timer           timeout 23:50:00 every 1000
New timer settings: style=normal  mode=nosync  timeout=23:50:00

fix 		1 all shake 1e-6 200 0 b 1 a 1
       0 = # of size 2 clusters
       0 = # of size 3 clusters
       0 = # of size 4 clusters
     288 = # of frozen angles
  find clusters CPU = 0.487 seconds
fix             2 all nph iso ${pressure} ${pressure} ${pressureDamp}
fix             2 all nph iso 250 ${pressure} ${pressureDamp}
fix             2 all nph iso 250 250 ${pressureDamp}
fix             2 all nph iso 250 250 1000
fix             3 all temp/csvr ${temperature} ${temperature} ${tempDamp} ${seed}
fix             3 all temp/csvr 238.31 ${temperature} ${tempDamp} ${seed}
fix             3 all temp/csvr 238.31 238.31 ${tempDamp} ${seed}
fix             3 all temp/csvr 238.31 238.31 100 ${seed}
fix             3 all temp/csvr 238.31 238.31 100 745823

run             250000
PPPM initialization ...
  extracting TIP4P info from pair style
  using 12-bit tables for long-range coulomb (../kspace.cpp:340)
  G vector (1/distance) = 0.37165385
  grid = 24 25 25
  stencil order = 5
  estimated absolute RMS force accuracy = 0.0032876012
  estimated relative force accuracy = 9.9005134e-06
  using double precision FFTW3
  3d grid and FFT values/proc = 2940 384
Last active /omp style is kspace_style pppm/tip4p/omp
Neighbor list info ...
  update every 1 steps, delay 7 steps, check yes
  max neighbors/atom: 2000, page size: 100000
  master list distance cutoff = 10.8154
  ghost atom cutoff = 10.8154
  binsize = 5.4077, bins = 4 4 5
  1 neighbor lists, perpetual/occasional/extra = 1 0 0
  (1) pair lj/cut/tip4p/long/omp, perpetual
      attributes: half, newton on, omp
      pair build: half/bin/newton/omp
      stencil: half/bin/3d
      bin: standard
Per MPI rank memory allocation (min/avg/max) = 9.230 | 9.238 | 9.249 Mbytes
Step Temp PotEng TotEng E_pair E_mol Press Lx Ly Lz Volume Pxx Pyy Pzz Pxy Pxz Pyz Enthalpy 
15000000     248.3634   -3953.3403   -3527.6539   -3953.3403            0     22.26438    18.162694    21.393255    22.158445    8609.8663    226.31789   -627.82167    468.29692    973.90515   -297.79112   -1673.2972   -3524.8583 
15001000    242.57509    -3980.817   -3565.0516    -3980.817            0   -617.13662    18.164512    21.395396    22.160662    8612.4515    281.20431   -1527.0633   -605.55084    270.33082   -378.83967    158.56105   -3642.5663 
15002000    241.62954   -3989.8461   -3575.7013   -3989.8461            0   -271.84105    18.203249    21.441023    22.207922    8667.6695    507.68823   -1093.7859   -229.42552    556.73458    -1132.956    1.5269879   -3610.0645 
15003000    241.07918   -3984.2383   -3571.0368   -3984.2383            0   -94.914249    18.165765    21.396872    22.162191    8614.2341    319.19039   -884.52946    280.59633    167.68943     456.8135   -667.15498   -3582.9609 
15004000    219.24817   -3995.3662   -3619.5823   -3995.3662            0     221.5211    18.204641    21.442663     22.20962    8669.6581   -565.64062    2064.3217   -834.11778    528.91391   -1399.8246   -139.50372   -3591.5736 
15005000    246.31272   -3994.4056    -3572.234   -3994.4056            0   -1205.5411    18.166703    21.397977    22.163336     8615.569   -1569.9404   -1495.8435   -550.83937   -229.63726   -511.43347   -1064.5611   -3723.7093 
15006000    244.61942   -3968.8668   -3549.5975   -3968.8668            0   -702.86728    18.158562    21.388387    22.153403    8603.9906   -703.69274   -147.27735   -1257.6318   -1721.0766   -943.58543    674.41255   -3637.7935 
15007000    237.59168    -3977.712   -3570.4879    -3977.712            0   -232.16682    18.152873    21.381686    22.146462    8595.9062    -1352.774   -155.48687    811.76047   -823.67927     -935.102   -866.63213    -3599.593 
15008000    243.50944   -3972.4678   -3555.1009   -3972.4678            0   -1001.7099    18.221883    21.462971    22.230654    8694.3143   -2485.0085    224.33806   -744.45934    199.33721    762.10408   -521.00777   -3682.1154 
15009000    245.98112   -3950.0088   -3528.4056   -3950.0088            0   -360.26669    18.210237    21.449254    22.216447    8677.6554   -1124.9653    164.00144   -119.83625    130.18918     983.9442   -369.29182    -3573.999 
15010000    239.62141   -3956.3447   -3545.6418   -3956.3447            0    617.47465    18.100316    21.319782    22.082344    8521.4615   -137.27154    2314.0166   -324.32113    281.40336    658.50462   -379.66887   -3468.9041 
15011000    248.77422   -3973.7883   -3547.3978   -3973.7883            0    568.22795    18.128702    21.353216    22.116974    8561.6151    -431.6823     1921.508    214.85817   -60.495099     323.4524   -13.187267   -3476.4475 
15012000    246.55887   -3938.7325   -3516.1391   -3938.7325            0    112.85449    18.064387    21.277462     22.03851    8470.8169   -152.41263    846.49201   -355.51591     1352.704   -227.38938   -1211.1823   -3502.1972 
15013000    249.33693   -3964.0962   -3536.7413   -3964.0962            0    1182.8567    18.047571    21.257655    22.017994    8447.1821    2712.4825    204.56353    631.52408   -637.77198     1149.738   -544.07358    -3391.021 
15014000      234.442   -3979.5449   -3577.7193   -3979.5449            0   -185.44339    18.126243     21.35032    22.113974     8558.132    62.196694   -531.13969   -87.387167    525.64881    1112.1795     -95.1944   -3600.8648 
15015000    249.15506   -3982.1229   -3555.0797   -3982.1229            0    1062.7648    18.117217    21.339688    22.102962    8545.3532    877.56515    1884.0477    426.68162    259.70372   -964.79113    746.85896   -3422.6324 
15016000    238.27227   -3965.0787   -3556.6882   -3965.0787            0   -387.09065    18.161097    21.391373    22.156496    8607.5946   -902.24018     421.5256   -680.55735   -562.44941    547.60225    89.863329   -3605.2808 
15017000    236.69365   -3970.5186   -3564.8338   -3970.5186            0    255.67161    18.177705    21.410936    22.176758    8631.2315     1444.017   -426.02672   -250.97545    317.63813    508.00379    449.15541   -3532.6505 
15018000    226.11164   -3974.7661   -3587.2185   -3974.7661            0   -876.68352    18.252567    21.499112    22.268089    8738.3092    52.731289   -393.25905   -2289.5228    589.42357   -83.753866    219.57167   -3698.9424 
15019000    231.83468   -3957.5311   -3560.1744   -3957.5311            0   -372.70118    18.193098    21.429066    22.195537    8653.1764    899.65506   -1288.2883    -729.4703    513.16943    705.15126    785.67528   -3607.2084 
15020000     234.2514   -3989.6237   -3588.1248   -3989.6237            0    416.89049    18.078727    21.294353    22.056005    8491.0061    1339.3681   -581.36642    492.66984   -464.11597    195.64158    757.43814   -3536.5001 
15021000    240.37469   -3997.0043   -3585.0103   -3997.0043            0    169.49185    18.110152    21.331367    22.094343    8535.3602   -182.57229    537.94399    153.10384     779.5763   -716.10744   -202.98295    -3563.912 
15022000    238.81696   -3948.4628   -3539.1387   -3948.4628            0    1289.8623    18.091395    21.309274     22.07146    8508.8674   -105.17656    2861.0496     1113.714    193.78414   -549.80677   -389.64331   -3379.0757 
15023000    227.71559   -3982.2114   -3591.9147   -3982.2114            0    347.42786    18.084109    21.300692    22.062571    8498.5915    383.97568    1307.1474   -648.83955   -643.66282   -208.36614   -344.35863   -3548.8533 
15024000    243.63292   -3927.7598   -3510.1813   -3927.7598            0   -231.02143    18.185768    21.420432    22.186594    8642.7216   -1478.0741    1066.3394   -281.32958   -1401.1363    316.18331    26.533957   -3539.3005 
15025000    237.63732   -3969.0384   -3561.7362   -3969.0384            0    577.50528    18.124523    21.348294    22.111875    8555.6956    821.34868    1778.5333   -867.36613   -1090.7414    -38.55153   -421.03115   -3489.6773 
15026000    253.53349    -3961.438   -3526.8902    -3961.438            0   -1111.0616    18.143628    21.370798    22.135184    8582.7806   -591.56061   -1361.7759   -1379.8481    716.59607    503.21868   -811.42309    -3665.963 
15027000    245.49298   -3976.6697   -3555.9031   -3976.6697            0    1467.2774    18.033995    21.241664    22.001432    8428.1336    518.13879    1607.8824    2275.8109   -898.35448   -653.23636    337.30091   -3375.5517 
15028000    236.43772   -4001.9356   -3596.6895   -4001.9356            0   -1250.5645    18.225396    21.467109    22.234941    8699.3442    -696.2976   -1333.0918   -1722.3041    131.36881   -654.44798    616.73677   -3755.3499 
15029000    232.10056   -3999.6587   -3601.8463   -3999.6587            0    622.80744    18.117869    21.340457    22.103758    8546.2766    438.62874    527.70884    902.08474   -1775.8298    1536.5518   -364.40218   -3524.2204 
15030000    245.82887    -3978.429   -3557.0868    -3978.429            0    1846.7848     17.98645    21.185662    21.943427    8361.6493    646.44159    3393.5697    1500.3429    382.85582    731.07124   -767.85182   -3331.8786 
15031000    236.31002   -3946.7398   -3541.7125   -3946.7398            0    704.38499    18.136481    21.362379    22.126464    8572.6414    845.53746    370.40828    897.20922    1351.3923   -5.6928082   -839.44905   -3453.6481 
15032000    227.02778   -3945.6666   -3556.5488   -3945.6666            0    140.87809    18.084096    21.300676    22.062555    8498.5729    46.938861   -716.67549    1092.3709    739.45612   -1221.2196    145.00206   -3539.0879 
15033000    247.62201   -3992.6628   -3568.2472   -3992.6628            0    334.50373    18.121884    21.345186    22.108656    8551.9597   -38.259922   -738.85744    1780.6285   -48.188335   -66.632569   -1785.3929   -3526.5273 
15034000    234.91234   -4008.9319   -3606.3002   -4008.9319            0    339.28932     18.09446    21.312883    22.075199    8513.1924   -1382.3734    1454.9626    945.27875    435.20954   -362.03614   -15.547713   -3564.1754 
15035000    230.13375   -4021.9808   -3627.5395   -4021.9808            0    283.88277     18.10738    21.328102    22.090962    8531.4424   -565.68804    1081.9687    335.36759    31.929499   -80.336253   -1189.7083   -3592.2181 
15036000    234.04884   -4003.4243   -3602.2726   -4003.4243            0    306.59322    18.120188    21.343188    22.106587    8549.5584   -431.60493    876.66886    474.71574     155.7152   -158.73174    1722.9152   -3564.0445 
15037000    239.88326   -3993.5669   -3582.4152   -3993.5669            0   -127.95779    18.175428    21.408253     22.17398    8627.9877     708.8143   -987.57207   -105.11559   -184.78577   -320.44263   -577.18788   -3598.5162 
15038000    238.97837   -3997.7999   -3588.1992   -3997.7999            0   -10.330911    18.131516    21.356531    22.120407    8565.6032     607.2006   -119.53245   -518.66089   -689.77896   -651.78698    167.37867   -3589.4897 
15039000    245.80584   -4020.5088    -3599.206   -4020.5088            0    1435.8914    18.086525    21.303538    22.065519    8501.9985    2136.8239    1523.5247    647.32546    537.22211    252.39242   -333.33774   -3421.1656 
15040000    238.30282   -4010.5589    -3602.116   -4010.5589            0    271.68665    18.202995    21.440723    22.207611    8667.3059   -905.70303     1151.994    568.76896   -257.07548   -1850.0182   -12.389036   -3567.7738 
15041000    230.84343   -3998.9322   -3603.2745   -3998.9322            0    468.39985    18.211548    21.450798    22.218046    8679.5293   -530.00309    634.07038    1301.1323    1103.8925    -164.3383    494.76562   -3543.9835 
15042000    233.96914   -4005.0788   -3604.0637   -4005.0788            0    1542.5021     18.16798    21.399481    22.164893    8617.3853    2670.9389    868.26464    1088.3028     562.3517    -581.0693   -229.16373   -3410.2087 
15043000    237.14024   -3994.6324   -3588.1821   -3994.6324            0    1497.1715    18.210626    21.449712    22.216921    8678.2114    949.34417    1356.0314    2186.1388   -476.41761   -1213.0113   -849.32022   -3398.6959 
15044000    244.07165   -4013.0789   -3594.7485   -4013.0789            0   -482.97858    18.233998    21.477241    22.245434     8711.667   -1200.0514   -401.78822    152.90393    952.25329   -720.71646   -128.26959   -3656.1113 
15045000    224.38314   -4041.1446   -3656.5596   -4041.1446            0    713.05427    18.174537    21.407204    22.172893    8626.7196    -75.65434   -15.719801     2230.537    512.95646   -571.07287    -709.4029   -3566.8489 
15046000    249.03075   -4026.0459   -3599.2157   -4026.0459            0    231.76568    18.196555    21.433138    22.199755    8658.1105   -438.17932    190.88058    942.59577   -595.72524   -774.05866   -371.00366   -3569.9507 
15047000     239.7256    -4019.706   -3608.8245    -4019.706            0   -768.50991    18.215185    21.455082    22.222483    8684.7309   -1637.3789   -1102.7983    434.64747    1613.8219   -1451.2576   -1081.6646   -3706.1623 
15048000    232.50008    -3999.357   -3600.8598    -3999.357            0    844.45663     18.20368    21.441531    22.208447    8668.2849    795.44784   -891.13764    2629.0597    623.54523   -241.62847    104.21279   -3494.1053 
15049000    247.29536   -4002.1665   -3578.3107   -4002.1665            0    715.59378    18.198544    21.435481    22.202181    8660.9498    869.80907    -340.1709    1617.1432    420.56003    140.47849   -873.18911   -3487.9233 
15050000    236.76814   -4017.7421   -3611.9296   -4017.7421            0    -169.8666    18.179297     21.41281    22.178699    8633.4985    358.45146   -688.61269   -179.43856    -528.5229   -906.99642    1240.5463   -3633.3176 
15051000    250.08879   -4013.1319   -3584.4883   -4013.1319            0    361.08117     18.18285    21.416995    22.183034    8638.5616    257.07706   -845.75063    1671.9171   -309.58412   -1856.9999    150.05234   -3538.9976 
15052000    240.85615    -4029.153   -3616.3338    -4029.153            0    1052.6647     18.16451    21.395393    22.160659    8612.4481    572.20131    356.92933    2228.8635    -906.0868   -608.03867     387.3036   -3484.1152 
15053000    237.63944   -4044.3876   -3637.0817   -4044.3876            0    558.29894    18.212392    21.451792    22.219076    8680.7366    1152.5031    111.11524    411.27847   -439.91455   -529.12231     179.4398   -3566.4013 
15054000     239.5436   -3993.2102   -3582.6407   -3993.2102            0    176.83882    18.272253    21.522301    22.292106    8766.6143    208.60117    295.49088    26.424432   -660.11363   -462.86534   -241.80388   -3560.0315 
15055000    239.52453   -4015.0419    -3604.505   -4015.0419            0    63.415658     18.23257    21.475559    22.243693     8709.621   -442.24201    448.29486    184.19412    -175.6565    652.92688    989.31698   -3596.4499 
15056000    253.53153   -4014.0877   -3579.5433   -4014.0877            0   -1706.4512    18.363343    21.629592    22.403235    8898.3774   -458.87593    -1615.157   -3045.3205   -100.31597   -311.36156   -1208.0992   -3800.9958 
15057000    246.74721   -4021.9158   -3598.9995   -4021.9158            0    1298.6848    18.179489    21.413037    22.178934     8633.773    1033.7768    1027.3261    1834.9514   -382.48672    314.82672    1863.9272    -3435.476 
15058000    240.92899   -4008.9522   -3596.0081   -4008.9522            0    1212.7965    18.125978    21.350008    22.113651    8557.7572    1518.2455     -27.5629    2147.7068   -33.230124   -1108.8113   -673.84984   -3444.6437 
15059000    241.05988   -4014.8294   -3601.6611   -4014.8294            0     274.2343    18.255917    21.503059    22.272176    8743.1226    583.14531   -1502.6371    1742.1946   -922.15559   -300.54276   -128.74265   -3566.6936 
15060000    225.96736    -4018.727   -3631.4267    -4018.727            0    1106.3838    18.150055    21.378368    22.143025    8591.9047    2266.7455    334.83638    717.56942    151.78879   -660.71223   -202.60322   -3492.7923 
15061000    246.98937   -4013.7654   -3590.4341   -4013.7654            0    31.625412    18.205624     21.44382    22.210819    8671.0619    1965.3634   -1510.1138   -360.37336     320.4635       208.02   -587.04176   -3586.4348 
15062000    240.42491   -3991.1098   -3579.0297   -3991.1098            0    686.96767    18.170151    21.402038    22.167542    8620.4756   -149.99119    350.55936    1860.3349   -150.69936   -227.00352    894.68114   -3492.6636 
15063000    244.77509   -3961.0599   -3541.5238   -3961.0599            0   -387.29845    18.203693    21.441545    22.208462    8668.3026    556.50505   -1153.8013   -564.59913    512.59955    80.058702    475.85633   -3590.4854 
15064000    230.87978   -3989.4317   -3593.7116   -3989.4317            0     1182.957    18.156061    21.385442    22.150352    8600.4364    1490.4467    216.48092    1841.9433     220.1344   -134.35472   -266.43476   -3445.3351 
15065000    232.49256   -4026.9482   -3628.4639   -4026.9482            0   -1294.2527    18.252756    21.499335    22.268319    8738.5811   -971.55403   -1785.6051    -1125.599   -402.79795   -285.70027    -59.72206   -3793.4076 
15066000     238.9506   -3961.4716   -3551.9185   -3961.4716            0   -164.04601    18.206569    21.444934    22.211972    8672.4129    142.96405   -450.06946   -185.03261     199.7532   -149.62087    616.16405   -3572.6667 
15067000    231.16807   -4005.6202    -3609.406   -4005.6202            0   -68.079353    18.248089    21.493839    22.262627    8731.8807   -525.71771   -711.84341    1033.3231     -739.138   -584.81457   -508.17005   -3618.0756 
15068000    242.62661   -4022.2078   -3606.3541   -4022.2078            0   -314.73921    18.232462    21.475432    22.243561    8709.4658    105.46112   -647.69079   -401.98796   -327.05093   -1338.7386   -1081.1411   -3646.3318 
15069000    219.96738   -4025.9701   -3648.9535   -4025.9701            0    834.59721    18.146695     21.37441    22.138926    8587.1338    1620.0733   -40.619201    924.33749    -282.9695   -784.91319   -35.176006   -3544.4331 
15070000    228.76647   -3988.6468   -3596.5489   -3988.6468            0     255.5758    18.257037    21.504378    22.273542    8744.7311    149.41438    -87.64759    704.96059   -973.62983   -172.36192    959.34519   -3563.9546 
15071000    230.77083    -4000.227   -3604.6937    -4000.227            0    -447.3582    18.268628    21.518031    22.287683    8761.3974   -155.95312   -1167.6267   -18.494802    585.56915    1036.1602    23.210713   -3661.8553 
15072000    257.63118   -3986.9517   -3545.3807   -3986.9517            0    1076.6034    18.204168    21.442105    22.209042    8668.9815    1493.8337    372.77356    1363.2031   -1092.2596   -65.982128    81.571567   -3409.2676 
15073000    230.04164   -4022.1403   -3627.8568   -4022.1403            0    1183.9802    18.209359     21.44822    22.215376    8676.4002    1442.4448    374.68767     1734.808    146.18867   -465.06494    52.155237   -3478.0402 
15074000    238.15228   -4034.3419   -3626.1571   -4034.3419            0    189.09264    18.166352    21.397563    22.162907    8615.0688    409.38566   -1640.5896    1798.4819    734.76169   -792.48115    -960.0531   -3602.3991 
15075000    236.16361    -4000.245   -3595.4686    -4000.245            0     459.4768    18.225214    21.466895    22.234719    8699.0836    602.13248   -546.52425    1322.8222    198.74643     482.6001    591.86082   -3537.1761 
15076000    232.88307   -4002.6424   -3603.4888   -4002.6424            0   -614.81008    18.296862    21.551286    22.322129    8802.0819   -1029.6293   -539.53433   -275.26656    -88.55775    -386.3307    409.85348   -3682.4115 
15077000    239.32143   -4029.4049   -3619.2162   -4029.4049            0    1132.7582    18.137944    21.364102    22.128249    8574.7158    1457.3598    1129.2989    811.61591   -111.75635    833.96798    457.81389   -3477.5609 
15078000    248.97825    -3975.495   -3548.7548    -3975.495            0   -32.358815    18.164549     21.39544    22.160708    8612.5046    -580.6037   -397.60595     881.1332   -334.07748   -261.70147    1230.9992   -3552.8192 
15079000    232.55197   -4003.4204   -3604.8343   -4003.4204            0   -656.73997    18.234531    21.477868    22.246085     8712.431     13.00748     223.0653   -2206.2927   -484.17273   -640.22986   -130.83533   -3688.2809 
15080000     253.7622   -3994.6398   -3559.7001   -3994.6398            0   -36.847418    18.130466    21.355294    22.119127    8564.1154   -931.61604   -44.766971    865.84075    512.43229    248.60998    10.366847   -3564.3023 
15081000    242.55303   -4010.7217   -3594.9942   -4010.7217            0    643.60727    18.126252     21.35033    22.113985    8558.1446     799.6755   -333.09249    1464.2388    141.10238   -293.33996    154.30273   -3514.6644 
15082000     238.0168   -4022.0082   -3614.0556   -4022.0082            0   -424.28087    18.202937    21.440656    22.207541    8667.2239   -95.687286   -928.84878   -248.30654   -726.28853     691.8049    304.51559   -3667.6858 
15083000    225.94381   -3986.9813   -3599.7214   -3986.9813            0    886.60049    18.274555    21.525011    22.294914    8769.9272    1201.2919    1419.7281    38.781563   -503.97792    298.52958    75.732945   -3486.3248 
15084000    244.82497   -3948.0735   -3528.4519   -3948.0735            0    797.16929    18.243632    21.488589    22.257189    8725.4841    194.54533    261.27141    1935.6911    690.98791   -284.85622   -159.76985   -3427.0103 
15085000     240.4711   -3987.3739   -3575.2146   -3987.3739            0    730.03436    18.239109    21.483261     22.25167    8718.9951    92.407539    1764.7341     332.9614   -719.38121   -331.73106    536.53388   -3482.3852 
15086000    242.27378   -3978.3903   -3563.1413   -3978.3903            0    857.63709    18.125378    21.349301    22.112919    8556.9066   -647.06897    690.19092    2529.7893    540.12164   -964.31155    567.32202   -3456.1136 
15087000    236.16778   -3991.0672   -3586.2837   -3991.0672            0   -1406.1077    18.186169    21.420905    22.187083    8643.2932   -485.11311   -1569.9103   -2163.2997    689.73422   -1091.3251   -1145.7711   -3763.5286 
15088000    248.53486   -3972.9382    -3546.958   -3972.9382            0    1250.1725    18.102973    21.322911    22.085585    8525.2139    409.27197    1990.9619    1350.2837    58.064937   -1295.8038    1572.8984   -3391.5222 
15089000    235.03432   -4006.0879   -3603.2471   -4006.0879            0    1909.1185    18.026799    21.233188    21.992653    8418.0491    1567.6141    2682.3291    1477.4123    1162.1573   -612.19348    24.733943   -3368.8673 
15090000    239.61561   -3974.6654   -3563.9725   -3974.6654            0    2156.6137    17.982062    21.180494    21.938074    8355.5313    2999.0878    1013.8092    2456.9441    814.49002    1689.3008     717.0449   -3301.1743 
15091000    230.67229   -3986.6133   -3591.2489   -3986.6133            0    208.50209    18.045576    21.255305    22.015561    8444.3815   -1014.0441    1913.9636   -274.41317    197.31205   -37.196011    143.35637   -3565.5713 
15092000    243.68961   -3976.2349   -3558.5592   -3976.2349            0     448.7047    18.106386    21.326931    22.089748    8530.0368   -743.53839    1851.6626    237.98987    127.84735   -624.64452   -546.34911   -3502.7395 
15093000    232.26456   -4001.9486   -3603.8551   -4001.9486            0    790.81323    18.120827    21.343941    22.107367    8550.4631    130.02476    7.6603412    2234.7546   -295.44665   -118.42595    1191.0687   -3505.2409 
15094000     235.5311   -3985.1377   -3581.4455   -3985.1377            0    320.16709    18.135873    21.361662    22.125722     8571.779    -73.26381   -308.48774    1342.2528     763.6135    451.45153   -170.16543   -3541.4212 
15095000    227.78503   -3984.8862   -3594.4704   -3984.8862            0    206.96818    18.187853    21.422888    22.189138     8645.694   -307.62585   -788.11345    1716.6438   -77.457752   -305.26105     622.2904   -3568.3741 
15096000    244.54876   -3980.5653   -3561.4171   -3980.5653            0       -383.3    18.094455    21.312878    22.075193     8513.186    -828.2914    15.127699   -336.73629    -1577.117   -504.57463    -714.8263   -3609.0061 
15097000    231.86374   -3968.7558   -3571.3493   -3968.7558            0    272.78095    18.112843    21.334536    22.097626    8539.1658    1556.7326    244.82676   -983.21648    588.24464    403.18801    485.96033   -3537.3785 
15098000    235.42849   -4007.8614    -3604.345   -4007.8614            0    556.16598    18.093629    21.311905    22.074185    8512.0197   -4.8290712   -688.79512    2362.1221    1508.6602   -201.45201   -957.01905   -3535.3031 
15099000    247.40154   -3994.7832   -3570.7455   -3994.7832            0   -1446.8647     18.16483     21.39577     22.16105    8612.9037   -1483.7581   -1114.5902   -1742.2459    1618.7444   -192.60798   -583.61781   -3752.4867 
15100000     240.6358   -4007.5779   -3595.1364   -4007.5779            0   -634.01385    18.089284    21.306787    22.068884    8505.8886   -1538.3729   -576.28225    212.61365   -401.92604   -595.60403   -1560.4993   -3673.7856 
15101000    232.48502   -4007.3428   -3608.8714   -4007.3428            0     888.3034     18.03008    21.237053    21.996655    8422.6459     181.7188    2092.6592    390.53221    145.73914   -113.41323   -799.20927   -3499.7561 
15102000    237.58446   -3955.4558   -3548.2441   -3955.4558            0   -150.18965    18.141662    21.368482    22.132786    8579.9907    1104.1669    -1022.938   -531.79791    933.36273   -1336.7221    1270.2695   -3567.0374 
15103000    245.72834   -3964.3213   -3543.1514   -3964.3213            0    269.34141    18.111025    21.332396    22.095409    8536.5957   -573.90752    708.74633    673.18543    -611.2981    318.10648   -44.726487    -3509.619 
15104000    241.74848   -3962.8271   -3548.4785   -3962.8271            0    791.91052    18.053659    21.264825    22.025421     8455.733    1396.3801    380.50304    598.84837   -789.64809    -1678.503    488.94097   -3450.8216 
15105000    244.22111   -3948.4716   -3529.8849   -3948.4716            0   -157.53214     18.05713    21.268915    22.029657    8460.6123   -1097.0761    208.80441    415.67526     890.0545   -232.91479    643.64224   -3549.3227 
15106000    228.40966   -3971.7753    -3580.289   -3971.7753            0    1616.5961    18.075251    21.290258    22.051764    8486.1091    2625.5338    2217.9365    6.3179775   -144.91388    261.32341    9.8718246   -3380.2171 
15107000    229.74181   -3963.5593   -3569.7897   -3963.5593            0   -572.06941    18.264983    21.513737    22.283236     8756.154   -278.38954   -180.80233   -1257.0163   -285.15356    802.08974    185.78693   -3642.8427 
15108000    237.82071   -3967.9873   -3560.3707   -3967.9873            0   -1077.3068    18.307688    21.564038    22.335337    8817.7161   -102.24907   -74.023758   -3055.6476   -978.43695    269.87034    887.25109   -3698.9095 
15109000    244.38737   -3994.0782   -3575.2066   -3994.0782            0    978.20892    18.244339    21.489422    22.258051     8726.498    793.16962    569.64801    1571.8091    622.20593    751.40606     827.9021   -3450.7129 
15110000    240.41938   -3976.9874   -3564.9168   -3976.9874            0    -579.6867    18.285068    21.537395    22.307741    8785.0727    75.697617   -731.79736   -1082.9604   -359.40785    858.72147    77.133402    -3639.187 
15111000    235.56094    -3960.654   -3556.9106    -3960.654            0   -19.939587    18.291182    21.544597      22.3152    8793.8878   -631.68239   -528.76583    1100.6295   -194.35198   -258.52345    906.12684   -3559.4678 
15112000    240.86169   -3990.9738   -3578.1451   -3990.9738            0   -561.67334    18.322665    21.581679    22.353608     8839.374   -561.47137   -1510.7289    387.18029    479.02145    696.49611    340.05647   -3650.5522 
15113000    232.96067   -3998.1014   -3598.8148   -3998.1014            0   -150.81491    18.325517    21.585038    22.357088    8843.5023   -1143.1512    81.303985    609.40253   -1515.0654   -707.57398    539.32654   -3618.2659 
15114000     239.7142   -3958.2134   -3547.3515   -3958.2134            0   -363.46913    18.399406     21.67207    22.447233    8950.9067   -926.67462    -1466.457    1302.7242   -830.38571   -103.58358   -75.422833   -3594.7987 
15115000    239.77261   -3976.3953   -3565.4332   -3976.3953            0   -23.127322      18.2976    21.552156    22.323029    8803.1475   -665.73072      678.434   -82.085242   -397.03373   -12.249428    352.86937   -3568.4024 
15116000    233.94874    -4006.625   -3605.6448    -4006.625            0    286.58902    18.225469    21.467195     22.23503    8699.4487    988.97598    1333.5022   -1462.7111    674.34898    136.04426   -551.17114   -3569.2846 
15117000     234.3139   -4019.1188   -3617.5128   -4019.1188            0     1788.509    18.146509    21.374191    22.138699    8586.8694    1775.5524    1034.3324    2555.6422     916.6354     -359.171   -1223.7072   -3393.5366 
15118000    231.29058   -4001.9164   -3605.4923   -4001.9164            0   -1744.9928    18.317833    21.575987    22.347713    8832.3819   -704.58804   -1475.1323    -3055.258    22.860078    774.19199   0.38562917   -3830.2669 
15119000    247.99338   -4009.7753   -3584.7231   -4009.7753            0    1022.3322    18.183902    21.418235    22.184318    8640.0621    954.92366    1898.2503     213.8227     37.12577     661.1356   -1114.0753   -3455.9026 
15120000    230.26177   -3994.2875   -3599.6267   -3994.2875            0     599.6255     18.20996    21.448927    22.216109     8677.259    510.57002    646.79323    641.51326    406.69882   -858.46683    738.78055   -3523.7447 
15121000    236.92138   -4003.0426   -3596.9675   -4003.0426            0   -946.73958    18.270324    21.520029    22.289753    8763.8386   -567.64363   -1154.0089   -1118.5663   -599.15737    256.04809     1199.976   -3717.9718 
15122000    247.09034    -3974.821   -3551.3166    -3974.821            0   -287.11991    18.263678    21.512201    22.281645     8754.278    367.06229   -1488.4087    259.98664   -1093.6118    278.78446    793.97675   -3587.9738 
15123000    226.60362   -4014.9767   -3626.5859   -4014.9767            0   -27.879101    18.309818    21.566547    22.337935    8820.7935    417.98266   -1125.1619    623.54192   -325.58643    116.09251    1226.8101   -3630.1723 
15124000    234.84203   -3974.8668   -3572.3556   -3974.8668            0    1423.5812    18.240464    21.484857    22.253324     8720.939    2721.4608    940.86589    608.41701    -1155.652    1402.2715    1062.7146    -3391.296 
15125000    239.35955   -3956.7886   -3546.5345   -3956.7886            0     -498.727    18.328485    21.588535    22.360709    8847.8003   -945.65825   -899.03451    348.51175    295.15281    683.95551    671.38102   -3610.8883 
15126000    246.37643   -3997.2537   -3574.9729   -3997.2537            0    -564.7195    18.236627    21.480338    22.248642    8715.4364   -977.62312   -900.84248    184.30711   -1538.7203   -613.75773    727.78314    -3646.752 
15127000    237.76389   -3989.6686   -3582.1495   -3989.6686            0    222.99269    18.176626    21.409664    22.175441    8629.6938    341.90744    637.46851   -310.39788   -867.55147    1291.5971    747.25792   -3554.0847 
15128000    252.14398   -4021.2277   -3589.0616   -4021.2277            0    1564.4855    18.156702    21.386196    22.151134    8601.3468    1471.4922    1539.4298    1682.5346   -649.13193    951.06995    1029.7891   -3392.8097 
15129000    244.02271   -3968.1141   -3549.8675   -3968.1141            0    387.47735    18.206933    21.445363    22.212416    8672.9331    1413.5053   -19.906711   -231.16659   -1207.7002   -520.68512   -285.96027   -3500.8571 
15130000    230.52745   -3992.6164   -3597.5002   -3992.6164            0    1039.3725    18.120893    21.344018    22.107447    8550.5557    1316.3992    404.01308    1397.7054   -1062.8889    74.871567   -324.80959   -3467.8893 
15131000    234.04668    -4007.675    -3606.527    -4007.675            0   -1170.7752    18.311688     21.56875    22.340217    8823.4968   -741.74114   -1824.6499   -945.93464   -880.20752   -1468.3831    135.16355   -3757.1842 
15132000     238.2774   -3951.3251   -3542.9258   -3951.3251            0    -1083.775    18.299617    21.554532     22.32549     8806.059   -851.60268   -797.33355   -1602.3888   -14.628169    -100.8174   -52.906331   -3682.1121 
15133000    223.64486   -3975.3446   -3592.0249   -3975.3446            0    207.21118    18.211381    21.450601    22.217842    8679.2903      -181.06   -72.375478    875.06903   -923.83161    535.10031    -444.7768   -3565.7964 
15134000    235.53768   -4028.0816   -3624.3781   -4028.0816            0    534.54116    18.230347    21.472941    22.240981    8706.4355    1345.1968    623.10085   -364.67414    58.271667    493.14823   -407.70607   -3556.5051 
15135000    218.95557   -3996.0041   -3620.7217   -3996.0041            0    436.57097    18.235541    21.479059    22.247318    8713.8801    1748.4987   -1252.6912    813.90546    569.72784     1100.673   -289.75906    -3565.241 
15136000    239.54865   -3990.5952    -3580.017   -3990.5952            0   -1437.6154    18.291789    21.545311     22.31594    8794.7631   -310.45712   -2119.7314   -1882.6576    331.27416   -1354.2501   -2.9769255   -3764.4093 
15137000    235.36069   -4013.3599   -3609.9597   -4013.3599            0    445.56716    18.148869     21.37697    22.141578      8590.22    773.43231    420.37687     142.8923    -426.4882   -893.45767    112.20784   -3554.1393 
15138000    237.72282   -3985.5739   -3578.1251   -3985.5739            0   -921.13963    18.155316    21.384564    22.149443    8599.3774   -994.86488    -2065.818    297.26396   -1236.4532   -421.06301    410.03424   -3693.6481 
15139000    215.15809   -4007.1524   -3638.3788   -4007.1524            0    471.06432    18.180732    21.414501    22.180451    8635.5441    48.637063    398.90884    965.64707   -523.60487    135.15496     677.4674   -3579.0527 
15140000    248.28995   -4023.7712   -3598.2107   -4023.7712            0   -4.3861621    18.246495    21.491961    22.260681    8729.5917    -234.6759   -297.87812    519.39553     310.4975   -110.46719    1151.4844   -3598.7691 
15141000    230.12349   -4014.0954   -3619.6716   -4014.0954            0     488.1336    18.230023     21.47256    22.240586     8705.972    620.27293    15.393935    828.73392   -779.43426   -311.69503    324.31215   -3557.6944 
15142000    239.03171   -4020.4763   -3610.7841   -4020.4763            0    744.47663    18.165226    21.396237    22.161533    8613.4669    450.03373    183.00799    1600.3882   -452.60188    626.40449    1147.5834    -3517.264 
15143000     233.9606   -3995.1266   -3594.1261   -3995.1266            0   -922.63702    18.326138     21.58577    22.357846    8844.4015   -1404.9601   -1449.1596    86.208634   -983.77646     79.22678   -659.65611   -3713.1339 
15144000    235.55458   -3997.1771   -3593.4446   -3997.1771            0   -194.71532    18.269886    21.519512    22.289218    8763.2074   -171.70055   -111.60135   -300.84406   -1007.2229   -997.15212   -784.32694   -3618.3297 
15145000    241.60746   -3976.1188   -3562.0118   -3976.1188            0    1012.5937    18.286687    21.539302    22.309715    8787.4055    1560.7677    1134.2546    342.75892    475.49912   -77.791429    204.73048   -3432.2426 
15146000    223.94024   -3987.4564   -3603.6305   -3987.4564            0   -1485.4852    18.375144    21.643492    22.417633    8915.5438   -2118.4095   -386.13027   -1951.9158   -387.46586    221.96773    178.21037   -3796.7793 
15147000    239.31856   -4033.6507   -3623.4669   -4033.6507            0    1164.5505     18.16822    21.399764    22.165186    8617.7272    1236.2079    2029.5028    227.94072    -389.0392    110.19417    245.50486   -3477.1054 
15148000    227.14246   -4021.7572   -3632.4428   -4021.7572            0    827.69546    18.180151    21.413817    22.179742    8634.7162    1636.1945    -607.8746    1454.7665    427.32468    953.77853    101.66635   -3528.2124 
15149000    244.43371   -3977.6456   -3558.6946   -3977.6456            0   -76.088249    18.206662    21.445043    22.212085    8672.5449    1242.9072    -747.2135   -723.95844   -227.50556    626.17834   -341.13503   -3568.3182 
15150000    238.37657   -4016.4413    -3607.872   -4016.4413            0    308.36489    18.238494    21.482537     22.25092    8718.1134    862.03977    676.04976   -612.99486   -866.75376    1160.0574    124.54027    -3568.665 
15151000    247.72109   -3993.1951   -3568.6097   -3993.1951            0   -2168.9622    18.283291    21.535301    22.305572    8782.5105   -2513.8042   -2606.8446   -1386.2379    290.69001   -1156.3677   -38.846352   -3846.4188 
15152000    239.21376   -4042.0562    -3632.052   -4042.0562            0   -155.66891    18.223487    21.464861    22.232612    8696.6112   -831.41122   -363.22399    727.62849   -903.42745   -275.52249    1135.7467   -3651.7956 
15153000    231.59044   -3979.8347   -3582.8966   -3979.8347            0    203.74955     18.28538    21.537762     22.30812    8785.5211   -224.65927     1176.718   -340.81009   -899.41053    505.54305   -680.44183   -3556.7906 
15154000    226.09659   -3978.3698    -3590.848   -3978.3698            0   -81.984299    18.234187    21.477464    22.245666    8711.9391    339.19222   -744.76599    159.62087   -378.07908   -116.20011   -394.57875   -3601.2645 
15155000    223.83373   -3977.6605   -3594.0171   -3977.6605            0    685.34782    18.213984    21.453667    22.221017    8683.0122    1499.4977   -127.15573    683.70143   -1035.9454   -373.18535    599.57416   -3507.2296 
15156000    225.57867   -4009.6098   -3622.9757   -4009.6098            0    596.72254    18.209713    21.448636    22.215807    8676.9053    459.92665     200.9724    1129.2686   -758.96669   -159.46466    299.57157   -3547.4642 
15157000    236.22281   -3999.4074   -3594.5296   -3999.4074            0   -258.46527    18.208594    21.447319    22.214442    8675.3064    190.07902   -799.46779   -166.00705   -250.31155    553.80328    354.66335   -3627.2307 
15158000    229.51693   -3999.4693   -3606.0852   -3999.4693            0    334.34201     18.23707     21.48086    22.249183     8716.072   -896.21644    1294.2537    604.98873   -967.88937    161.41969     14.08371   -3563.5853 
15159000     230.4698   -3994.8334   -3599.8161   -3994.8334            0    390.94591    18.239484    21.483703    22.252128    8719.5337    304.47012    644.45189    223.91572   -769.66061   -274.02754   -196.52729   -3550.1013 
15160000    240.07358   -3976.5128   -3565.0349   -3976.5128            0    1469.1621    18.191433    21.427106    22.193506    8650.8016    1151.3581    944.36796    2311.7601    255.10889    1515.6287   -113.02061   -3379.6809 
15161000    237.02286   -4030.1078   -3623.8587   -4030.1078            0    151.75365    18.186059    21.420775    22.186949    8643.1364    1017.1079    530.45642   -1092.3033   -973.57759    572.55262   -594.90318     -3604.73 
15162000    234.54082   -4009.5084   -3607.5135   -4009.5084            0     1217.628    18.173251    21.405689    22.171324    8624.8883    1203.9242     985.8371    1463.1229   -137.81207    -474.5854    284.64128   -3454.3539 
15163000    246.26156   -4011.0599    -3588.976   -4011.0599            0   -25.384964    18.189641    21.424994    22.191319    8648.2446   -662.54603    971.44952   -385.05838    1.0663412    206.13555   -440.03347   -3592.1777 
15164000    242.98974   -4023.0341    -3606.558   -4023.0341            0   -299.64372    18.201919    21.439456    22.206299    8665.7695   -939.53937   -47.789749    88.397974    94.580012    449.90101   -39.637627   -3644.4273 
15165000    241.46741   -4013.6838   -3599.8169   -4013.6838            0   -213.45561    18.338919    21.600824    22.373439    8862.9194    584.85494   -860.31205    -364.9097    1286.4933    558.53631    129.01142   -3627.4074 
15166000    248.87969   -4008.5825   -3582.0112   -4008.5825            0   -474.47742    18.317619    21.575736    22.347453    8832.0736   -519.97689   -628.27139   -275.18397   -31.682212   -635.55392    259.92501   -3643.1271 
15167000    231.32374   -4024.8272   -3628.3462   -4024.8272            0    1200.2711     18.25419    21.501025    22.270069    8740.6413    862.13305    603.56148    2135.1188    1056.6357    60.995689   -638.44775   -3475.3437 
15168000    243.03654   -3980.6171   -3564.0608   -3980.6171            0     12.10119    18.354726    21.619443    22.392723    8885.8573    332.16565   -689.85536    393.99328    777.13556   -536.99208   -131.16884   -3562.4926 
15169000    253.33978   -3999.3528   -3565.1371   -3999.3528            0    1169.4119    18.375947    21.644439    22.418613    8916.7133    532.58299    1279.7454    1695.9073    353.61287    294.84632    435.79488   -3413.0655 
15170000    239.60717   -4005.5342   -3594.8557   -4005.5342            0    486.04676    18.351926    21.616145    22.389307    8881.7906    -846.8792    2227.5618      77.4577   -205.74432   -37.557086    360.48837   -3531.8972 
15171000    234.16067    -3992.238   -3590.8946    -3992.238            0    456.37125    18.257635    21.505082    22.274272    8745.5903    1110.3654   -655.39945    914.14779    726.08632   -1157.3991   -210.46127   -3532.6865 
15172000    238.29943   -4004.3833   -3595.9463   -4004.3833            0   -125.94077    18.294075    21.548004    22.318729    8798.0604    1102.2732   -311.72864   -1168.3669    701.51501   -1035.1421    720.08831   -3612.1058 
15173000     234.2112    -4006.387    -3604.957    -4006.387            0    884.95984    18.220484    21.461323    22.228948    8692.3121   -494.29711    676.04769    2473.1289   -872.05181   -39.200905    -249.0819    -3492.772 
15174000    218.36345   -4001.6283   -3627.3608   -4001.6283            0    40.968407    18.363182    21.629402    22.403039     8898.143   -464.53387     1643.684   -1056.2449     579.5404   -146.69314    403.04154   -3622.0443 
15175000      245.085   -4017.5228   -3597.4555   -4017.5228            0   -453.49168    18.335353    21.596624    22.369088    8857.7502   -56.610908   -922.28236   -381.58178   -64.122465   -988.73586    413.65214   -3656.0381 
15176000    238.12704   -4025.6814   -3617.5398   -4025.6814            0    1329.6938    18.301727    21.557017    22.328064    8809.1054   -229.93184    2673.8835    1545.1298    59.430177   -1672.8082   -54.772633   -3446.7117 
15177000    254.52798   -4021.7228   -3585.4705   -4021.7228            0   -336.12831    18.370665    21.638216    22.412168    8909.0255   -1405.1308    1051.1054    -654.3595   -174.59136   -219.91763   -110.41112   -3629.1434 
15178000    236.46587    -3992.697   -3587.4026    -3992.697            0   -216.62845     18.33746    21.599106    22.371658     8860.804   -1000.3917    996.27478   -645.76845    234.11992    394.16582    657.29876   -3615.3966 
15179000    234.22397   -4012.1161   -3610.6642   -4012.1161            0    701.93383    18.320469    21.579092    22.350929    8836.1956    1424.9372     808.1965   -127.33226   -99.689807   -234.96833    390.70742   -3520.2082 
15180000    231.03334   -4010.4173   -3614.4341   -4010.4173            0    1.8457053    18.285021    21.537339    22.307682    8785.0037    967.53709   -10.525589   -951.47439   -1001.7257    469.70427   -325.32277   -3614.1976 
15181000    237.00466   -3999.1886   -3592.9707   -3999.1886            0    -318.4291    18.313024    21.570323    22.341846    8825.4278   -219.56701   -396.57654   -339.14376    781.64641    624.12598    76.190857   -3633.9557 
15182000     253.6065   -4012.5795   -3577.9066   -4012.5795            0    1927.0068    18.221241    21.462215    22.229871     8693.395    1214.2922    2630.6558    1936.0723   -1655.4399   -810.35465    366.10874   -3333.5925 
15183000    232.14431   -4011.2631   -3613.3756   -4011.2631            0    563.77909    18.268149    21.517466    22.287099     8760.708   -213.11391    -56.10651    1960.5577    825.43883   -634.52984   -48.501583   -3541.3439 
15184000    233.20588   -4016.9609    -3617.254   -4016.9609            0    776.43827    18.327437      21.5873    22.359431    8846.2827    1123.6242    144.56892    1061.1217   -485.21548    240.87793   -373.99353   -3517.0826 
15185000    244.88311   -4007.6869   -3587.9656   -4007.6869            0    992.97383    18.291113    21.544515    22.315115     8793.788    1118.4358    1388.1837    472.30194   -37.369876   -446.10894   -543.02348   -3460.6183 
15186000    239.08011   -3988.2009   -3578.4258   -3988.2009            0   -201.52074    18.314615    21.572197    22.343787    8827.7281   -47.064894   -581.99212    24.494778   -398.62483   -932.12182    88.120837   -3604.3702 
15187000    233.33277   -4013.6537   -3613.7293   -4013.6537            0    934.33022    18.333445    21.594377    22.366761    8854.9857   -189.02343    1026.1041      1965.91    236.85581   -40.676736    378.51512   -3493.0691 
15188000    252.27155   -3993.0917   -3560.7069   -3993.0917            0    2034.9672    18.264211    21.512828    22.282295    8755.0445    1877.7898    1413.5492    2813.5624   -639.55037    224.79989   -519.84077   -3300.8755 
15189000    234.27579   -4037.4327    -3635.892   -4037.4327            0   -34.122252    18.387067    21.657537    22.432179    8932.9107   -633.51886    1549.1774   -1018.0253   -519.44186    -659.1191    796.80479   -3640.3373 
15190000    233.53009   -3968.3776    -3568.115   -3968.3776            0   -696.39567    18.456518     21.73934    22.516909    9034.5163   -419.70111   -993.79935   -675.68656   -518.08463     307.7936    568.13221   -3659.8715 
15191000     234.6847   -4007.7508   -3605.5093   -4007.7508            0    211.36262     18.34151    21.603876    22.376599    8866.6759    48.512215    1013.0218   -427.44619   -264.44788   -880.23039    181.38783   -3578.1777 
15192000    247.94313   -4020.9433   -3595.9773   -4020.9433            0    507.00815    18.353826    21.618383    22.391625      8884.55     1999.345   -113.09132    -365.2292   -217.38928    253.26756   -484.33224   -3530.2832 
15193000    232.50713   -3995.7319   -3597.2227   -3995.7319            0    877.20025     18.36829    21.635419    22.409271    8905.5707    2692.4624    583.18133   -644.04304   -65.633922    650.23806   -381.48441   -3483.2931 
15194000    248.81158   -4016.8201   -3590.3655   -4016.8201            0   -144.22844    18.363623    21.629922    22.403577     8898.784   -889.51043    683.11135   -226.28625    510.54798   -342.11154    347.27393   -3609.0834 
15195000    240.86237   -4030.8412   -3618.0114   -4030.8412            0    801.60142    18.389562    21.660475    22.435222    8936.5466     617.4293    942.06227     845.3127    541.61097    337.98146     1212.521   -3513.5384 
15196000    233.42712   -4019.5407   -3619.4546   -4019.5407            0   -232.33859    18.378654    21.647627    22.421915    8920.6542   -478.02052   -573.86416     354.8689   -688.48952    478.62163    190.13275   -3649.6815 
15197000    232.51986   -4007.2282   -3608.6971   -4007.2282            0    766.06282    18.292587    21.546251    22.316913    8795.9141    918.84981    1084.8561    294.48251    204.73379   -432.16787    179.83489    -3510.427 
15198000    243.96851    -4024.652   -3606.4983    -4024.652            0    848.65481    18.336975    21.598535    22.371067    8860.1014    1886.7218    798.73902   -139.49641    204.14517   -1005.3791   -693.15466   -3496.8389 
15199000    246.14723    -4015.151   -3593.2631    -4015.151            0   -61.520564    18.393205    21.664766    22.439667    8941.8587    100.09194   -1425.3413    1140.6877    585.61189   -837.74772    544.24263   -3601.2858 
15200000    238.86282   -4029.1871   -3619.7844   -4029.1871            0    -63.95168    18.382067    21.651647    22.426079    8925.6245    1158.9525   -1820.0403    469.23283   -77.909429   -1757.5652   -79.665728   -3628.1091 
15201000    242.47333   -4024.9813   -3609.3903   -4024.9813            0    1234.5009     18.32615    21.585784     22.35786    8844.4184    2004.4244     942.2981    756.78013   -619.34876    390.68582   -747.46996   -3450.1561 
15202000    242.75077   -4019.6377   -3603.5712   -4019.6377            0     224.4376    18.384427    21.654427    22.428958    8929.0633    770.97896   -1141.9685    1044.3024      367.742   -1417.6717    708.77978   -3574.3447 
15203000    240.27444   -4050.4994   -3638.6772   -4050.4994            0    1426.9699    18.337475    21.599123    22.371676    8860.8252    1140.0766    2552.0732       588.76   -1082.9796    -29.22657    14.101616   -3454.2755 
15204000    225.28605    -4021.563   -3635.4304    -4021.563            0    38.211462    18.426272    21.703714    22.480008     8990.172    843.62884     881.6788   -1610.6733   -455.44105    245.59855    1442.0497   -3630.4204 
15205000    237.01111   -4049.6193   -3643.3904   -4049.6193            0    641.93593    18.318388    21.576641     22.34839     8833.185    2372.2223    213.66238   -660.07687    166.51319   -306.02837    133.18343   -3560.6943 
15206000    234.46275   -4033.2477   -3631.3866   -4033.2477            0     1068.049    18.265515    21.514364    22.283886    8756.9194    1236.9017    457.60992    1509.6355    -150.0513   -874.72869   -522.01111   -3494.9853 
15207000    240.49507   -4033.0554    -3620.855   -4033.0554            0    306.38599    18.377246    21.645968    22.420197     8918.604    87.307859    -62.20868    894.05879   -720.20878   -202.09884    1645.9339   -3581.0038 
15208000     244.3201   -4017.7848   -3599.0285   -4017.7848            0    826.27124    18.306286    21.562387    22.333627    8815.6909    1002.8714    1079.1284     396.8139    391.35242    18.057635    52.756761   -3492.7966 
15209000      240.619   -4032.4423   -3620.0296   -4032.4423            0   -1376.8111    18.411523    21.686343    22.462016    8968.6023   -2177.3992    507.72969   -2460.7638    337.81877   -137.30482    685.09377   -3800.1135 
15210000     248.3739   -4011.0226   -3585.3183   -4011.0226            0    573.69801    18.329917    21.590221    22.362456    8849.8735    -415.6876    1403.5378    733.24382      701.656    308.43182   -395.99054   -3511.2732 
15211000    233.32072   -4029.2763   -3629.3726   -4029.2763            0    835.73985    18.367179     21.63411    22.407915    8903.9549    1557.1072     359.3147    590.79762   -647.79603   -509.39849    995.19603   -3520.8475 
15212000    248.66515   -4043.0828   -3616.8792   -4043.0828            0   -453.61694    18.399164    21.671785    22.446937    8950.5533   -532.95419     37.43101   -865.32764    -507.1164   -313.07885   -67.367949   -3676.0919 
15213000    241.80416    -4015.193   -3600.7489    -4015.193            0    237.59117    18.348756    21.612411     22.38544     8877.189    68.179532   -60.863594    705.45758   -197.46406   -1008.7058     174.9741   -3569.9893 
15214000    232.05922   -4007.9147   -3610.1731   -4007.9147            0   -42.081953    18.407888     21.68206     22.45758    8963.2904   -390.66146    1137.2312   -872.81558   -241.72562   -269.41949   -222.10054   -3615.6741 
15215000    220.25737     -4052.08   -3674.5664     -4052.08            0   -287.36184    18.393335    21.664919    22.439826    8942.0486   -84.034291   -543.94131   -234.10992   -428.77617    536.44479   -398.38103   -3712.0414 
15216000    242.60387   -4041.3741   -3625.5593   -4041.3741            0    873.54435    18.327298    21.587136    22.359261    8846.0812    99.535089    1880.7944     640.3036    649.23877   -352.87944   -841.16836   -3512.8625 
15217000    235.09675   -4036.4805   -3633.5327   -4036.4805            0    249.55241     18.39905     21.67165    22.446797    8950.3858    1453.0682    428.35462   -1132.7656    599.72807   -592.76456   -399.59091   -3600.9581 
15218000    244.54382   -4024.4314   -3605.2916   -4024.4314            0   -357.93339    18.418205    21.694212    22.470167    8978.3696   -1440.5705    232.90282     133.8675   -1089.9479   -449.88951   -387.93634   -3652.1595 
15219000    244.16248    -4012.509   -3594.0229    -4012.509            0   -900.41903    18.363395    21.629654    22.403299    8898.4535   -1355.4289   -357.60611    -988.2221     821.4325    24.439044    750.87172   -3710.8746 
15220000    225.55434   -4031.3623   -3644.7698   -4031.3623            0     710.1635    18.324972    21.584397    22.356423    8842.7138    443.37578    1591.9529    95.161829    375.71855    80.027871    281.77464   -3553.1858 
15221000    243.68193   -4034.3088   -3616.6463   -4034.3088            0    1057.3877    18.326998    21.586782    22.358894     8845.646    137.95404    1631.1687    1403.0404     107.9763    61.928199    183.48241   -3480.2383 
15222000    235.13251   -4029.7698   -3626.7607   -4029.7698            0   -148.82687    18.393571    21.665197    22.440113    8942.3926   -192.47589    507.21856   -761.22327   -532.64571   -765.06159    1332.3158     -3646.17 
15223000    214.77361    -4005.642   -3637.5274    -4005.642            0   -411.93511    18.426867    21.704416    22.480735    8991.0439   -451.70175   -86.769085   -697.33449   -662.76476   -711.13716    222.30451   -3691.5425 
15224000    237.93664   -4026.8126   -3618.9973   -4026.8126            0    166.47386    18.413637    21.688833    22.464595    8971.6919    188.69163    692.09108   -381.36114   -399.23388   -1640.6176    216.24706   -3597.2154 
15225000    237.01339    -4059.856   -3653.6231    -4059.856            0    609.72886    18.375494    21.643905     22.41806    8916.0538    1226.8856    918.23112   -315.93009    397.07952   -1285.2467    281.61887   -3574.3392 
15226000    239.04715   -4036.4367   -3626.7181   -4036.4367            0    593.17474    18.425157    21.702401    22.478649    8988.5405    401.51095    1439.1471   -61.133848   -1.9759456   -538.61876    416.32935   -3548.9596 
15227000    245.47009   -3996.4613   -3575.7339   -3996.4613            0   -603.55579    18.464523    21.748769    22.526675    9046.2769   -295.03145   -982.43645   -533.19945    21.422593    671.31742   -530.80539   -3655.3614 
15228000    234.24898     -4006.09   -3604.5952     -4006.09            0   -271.59127    18.415211    21.690686    22.466514    8973.9917    542.87529   -1732.2847    374.63561   -265.07389    13.422713    325.55926   -3640.1401 
15229000    250.19425   -4038.6248   -3609.8004   -4038.6248            0    202.85687    18.455409    21.738034    22.515556    9032.8875    305.95744    1218.1912   -915.57804    294.11729   -291.56152    7.5082823   -3583.0769 
15230000    243.21366   -3991.6676   -3574.8077   -3991.6676            0     95.97456     18.41001     21.68456    22.460169    8966.3904    544.74454   -271.48957    14.668714    196.07075   -1501.2097    -790.3603   -3562.2576 
15231000    244.16516   -4014.0859   -3595.5952   -4014.0859            0    1360.1161    18.290335    21.543599    22.314167    8792.6665    1057.5529    1003.2138    2019.5815   -1595.4757   -1078.5059    102.70443   -3421.1848 
15232000    249.20808   -4052.6702   -3625.5361   -4052.6702            0    630.70441    18.369676    21.637052    22.410962     8907.587    -634.4303    1861.7819     664.7616   -334.74727   -208.01674   -1528.4787   -3543.6025 
15233000    238.42016   -4047.9535   -3639.3095   -4047.9535            0    329.88937    18.349093    21.612808     22.38585    8877.6778    654.63626    1314.1895   -979.15766    454.51431   -1055.9767   -462.14792   -3596.5982 
15234000    239.93464   -4020.2418    -3609.002   -4020.2418            0    26.499242    18.381891     21.65144    22.425864    8925.3683   -276.03404    373.05214   -17.520372   -133.97983   -1112.9339   -1035.9487   -3605.5526 
15235000     227.8437     -4033.75   -3643.2337     -4033.75            0   -533.15395    18.353119     21.61755    22.390762    8883.5228    -736.3823    537.16341   -1400.2429   -292.52525   -483.95144   -1225.3436   -3712.3076 
15236000    242.59922   -4048.2481   -3632.4414   -4048.2481            0    676.14883    18.349349    21.613109    22.386163    8878.0496    935.68421    1465.7589   -372.99665    -133.6585    301.04303   -519.02435   -3544.8955 
15237000     242.5807    -4033.162    -3617.387    -4033.162            0    632.07053    18.393179    21.664735    22.439636    8941.8214    45.757541    1311.6186    538.83541   -42.680704   -24.491562   -187.85847   -3534.9604 
15238000    241.91198   -4023.6764   -3609.0476   -4023.6764            0    803.93036    18.313742    21.571168    22.342722    8826.4655    69.364693    655.40076    1687.0256   -192.83354    262.54307   -55.007451   -3505.5617 
15239000    244.13079   -4034.3177   -3615.8859   -4034.3177            0   -1145.3157     18.38301    21.652758     22.42723    8926.9987   -4.6754545   -1052.2004   -2379.0714   -486.47362    199.18616   -1559.9292   -3764.9958 
15240000    243.26008   -4020.6017   -3603.6622   -4020.6017            0    112.62692    18.301994    21.557332     22.32839    8809.4913     267.6116    371.01149   -300.74234    42.108912   -3.7629853   -58.225506   -3589.1922 
15241000    227.15282   -4034.7898   -3645.4577   -4034.7898            0    1094.7029    18.302755    21.558228    22.329318    8810.5898    283.13889    2169.0167    831.95307    1494.9499    1236.7927    840.88703   -3504.7956 
15242000    237.39338   -4003.8495   -3596.9654   -4003.8495            0    71.892334    18.390902    21.662053    22.436858    8938.5008    61.255616    -381.2958    535.71719    -1286.632   -989.39224    277.91682   -3587.5936 
15243000    248.12273   -4009.1622   -3583.8884   -4009.1622            0    1109.3089    18.328491    21.588541    22.360716    8847.8087    1376.2314    386.78118    1564.9141   -1115.6728    334.33354   -651.99511   -3440.7473 
15244000    242.73082   -4021.3645   -3605.3322   -4021.3645            0    242.57099    18.338445    21.600266     22.37286    8862.2321   -1045.7377    1391.6495    381.80114   -243.68756    272.25505   -211.10868   -3573.9807 
15245000     243.9445   -4006.1671   -3588.0546   -4006.1671            0    1208.4004    18.369213    21.636507    22.410397    8906.9142    1122.6446    1021.9983    1480.5584    -216.4734    1063.7548   -262.07486   -3431.0856 
15246000     234.0677    -4014.384   -3613.1999    -4014.384            0    471.08606    18.383869    21.653769    22.428277    8928.2495   -468.04431    1136.2278    745.07468    343.11873   -233.63419   -204.06529   -3551.8601 
15247000    232.12955   -4016.7963   -3618.9342   -4016.7963            0    1208.4418    18.419094     21.69526    22.471252    8979.6708   -225.29686       1207.9    2642.7222   -1170.7047    -581.6213   -443.51066   -3460.6775 
15248000    244.15066   -4000.3021   -3581.8362   -4000.3021            0    1073.6195    18.379979    21.649187    22.423531    8922.5831    803.21897    1254.1504     1163.489   -380.68636    1098.9583    313.43983   -3442.1296 
15249000    247.25462   -4052.2473   -3628.4614   -4052.2473            0    161.89248    18.316453    21.574362     22.34603    8830.3863    351.82941    900.98494   -767.13691    1110.1925    238.71685    592.44827   -3607.6125 
15250000    247.68722   -3986.1548   -3561.6274   -3986.1548            0    1430.3082    18.319808    21.578314    22.350122    8835.2393    2571.5679    452.38729    1266.9694   -336.67053    206.52745   -381.26589    -3377.328 
Loop time of 400.678 on 64 procs for 250000 steps with 864 atoms

Performance: 107.817 ns/day, 0.223 hours/ns, 623.943 timesteps/s
99.1% CPU use with 64 MPI tasks x 1 OpenMP threads

MPI task timing breakdown:
Section |  min time  |  avg time  |  max time  |%varavg| %total
---------------------------------------------------------------
Pair    | 15.863     | 21.333     | 26.086     |  41.8 |  5.32
Bond    | 0.26904    | 0.2775     | 0.28663    |   0.8 |  0.07
Kspace  | 188.96     | 196.42     | 210.15     |  31.8 | 49.02
Neigh   | 3.0421     | 3.5735     | 4.3176     |  17.8 |  0.89
Comm    | 73.139     | 82.721     | 89.551     |  45.1 | 20.65
Output  | 1.2775     | 1.2792     | 1.2851     |   0.1 |  0.32
Modify  | 83.769     | 85.775     | 91.953     |  17.8 | 21.41
Other   |            | 9.303      |            |       |  2.32

Nlocal:        13.5000 ave          19 max           9 min
Histogram: 3 2 8 12 10 5 10 9 1 4
Nghost:        1857.11 ave        1903 max        1809 min
Histogram: 1 1 2 13 12 15 13 5 1 1
Neighs:        3488.34 ave        4811 max        2261 min
Histogram: 2 8 7 13 4 8 6 9 3 4

Total # of neighbors = 223254
Ave neighs/atom = 258.39583
Ave special neighs/atom = 2.0000000
Neighbor list builds = 9725
Dangerous builds = 0

unfix		3
unfix		2
unfix		1

write_data	data.final.${pid}
write_data	data.final.0
System init for write_data ...
PPPM initialization ...
  extracting TIP4P info from pair style
  using 12-bit tables for long-range coulomb (../kspace.cpp:340)
  G vector (1/distance) = 0.37340017
  grid = 24 25 27
  stencil order = 5
  estimated absolute RMS force accuracy = 0.0029521658
  estimated relative force accuracy = 8.8903596e-06
  using double precision FFTW3
  3d grid and FFT values/proc = 3150 384
Last active /omp style is kspace_style pppm/tip4p/omp
WARNING: Not all mixed pair coeffs generated from mixing. Use write_data with 'pair ij' option to store all pair coeffs. (../write_data.cpp:312)

write_restart   restart.lmp.${pid}
write_restart   restart.lmp.0
System init for write_restart ...
PPPM initialization ...
  extracting TIP4P info from pair style
  using 12-bit tables for long-range coulomb (../kspace.cpp:340)
  G vector (1/distance) = 0.37340017
  grid = 24 25 27
  stencil order = 5
  estimated absolute RMS force accuracy = 0.0029521658
  estimated relative force accuracy = 8.8903596e-06
  using double precision FFTW3
  3d grid and FFT values/proc = 3150 384
Last active /omp style is kspace_style pppm/tip4p/omp
Total wall time: 0:06:43
