LAMMPS (30 Jul 2021)
Processor partition = 1
  using 2 OpenMP thread(s) per MPI task
using multi-threaded neighbor list subroutines
variable        pid world 0 1
variable        phase world IceV IceIII

shell cd ${phase}
shell cd IceIII
include Restart.lmp
echo both
log log.lammps
#include		in.partitions
include		in.temp
variable        temperature equal 256.47
variable	tempDamp equal 100.0
include		in.pressure
variable        pressure equal 7736.5
variable        pressureDamp equal 1000.0 # This is 1 ps
include		in.seed
variable        seed equal 745823

units		real
atom_style	full

read_restart	restart.lmp.${pid}
read_restart	restart.lmp.1
Reading restart file ...
  restart file = 30 Jul 2021, LAMMPS = 30 Jul 2021
  restoring atom style full from restart
  orthogonal box = (-0.037780724 0.12991134 0.20839488) to (20.037782 19.870090 20.491603)
  4 by 2 by 4 MPI processor grid
  restoring pair style lj/cut/tip4p/long/omp from restart
  restoring bond style harmonic/omp from restart
  restoring angle style harmonic/omp from restart
  972 atoms
  648 bonds
  324 angles
Finding 1-2 1-3 1-4 neighbors ...
  special bond factors lj:    0        0        0       
  special bond factors coul:  0        0        0       
     2 = max # of 1-2 neighbors
     1 = max # of 1-3 neighbors
     1 = max # of 1-4 neighbors
     2 = max # of special neighbors
  special bonds CPU = 0.002 seconds
  read_restart CPU = 0.007 seconds
include 	in.setup
variable	out_freq equal 1000
variable	out_freq2 equal 10000
variable	out_freq3 equal 1000

timestep	2.0

neigh_modify    delay 7 every 1

include		in.tip4p
# This is TIP4P/Ice

# create groups ###
group ox type 2
324 atoms in group ox
group hy type 1
648 atoms in group hy

# set charges - beside manually ###
set group ox charge -1.1794
Setting atom values ...
  324 settings made for charge
set group hy charge 0.5897
Setting atom values ...
  648 settings made for charge

# ### TIP3P Potential Parameters ###
pair_style lj/cut/tip4p/long/omp 2 1 1 1 0.1577 8.5
pair_coeff 1 1*2 0.000 0.000
pair_coeff 2 2 0.21084 3.1668
bond_style  harmonic
bond_coeff  1 450 0.9572
angle_style harmonic
angle_coeff 1 55 104.52
kspace_style pppm/tip4p/omp 1.0e-5
pair_modify tail yes

thermo          ${out_freq}
thermo          1000
thermo_style    custom step temp pe etotal epair emol press lx ly lz vol pxx pyy pzz pxy pxz pyz enthalpy

restart 	${out_freq3} restart.lmp.${pid} restart2.lmp.${pid}
restart 	1000 restart.lmp.${pid} restart2.lmp.${pid}
restart 	1000 restart.lmp.1 restart2.lmp.${pid}
restart 	1000 restart.lmp.1 restart2.lmp.1


include         in.dump
dump            myDump all atom ${out_freq2} dump.water.${pid}
dump            myDump all atom 10000 dump.water.${pid}
dump            myDump all atom 10000 dump.water.1
dump            myDump2 all dcd ${out_freq2} dump.dcd
dump            myDump2 all dcd 10000 dump.dcd
dump_modify     myDump append yes
dump_modify     myDump2 append yes


variable natoms 	equal  "count(all)"                        # NUMBER ATOMS
variable H      	equal  "enthalpy/v_natoms"                 # ENTHALPY-per-atom
variable Vol      	equal  "vol/v_natoms"                 # volume-per-atom
fix AVG all 		ave/time ${out_freq} 1 ${out_freq} v_Vol v_H file vol_enthalpy.dat
fix AVG all 		ave/time 1000 1 ${out_freq} v_Vol v_H file vol_enthalpy.dat
fix AVG all 		ave/time 1000 1 1000 v_Vol v_H file vol_enthalpy.dat


timer           timeout 02:55:00 every 1000
New timer settings: style=normal  mode=nosync  timeout=02:55:00

fix 		1 all shake 1e-6 200 0 b 1 a 1
Finding SHAKE clusters ...
       0 = # of size 2 clusters
       0 = # of size 3 clusters
       0 = # of size 4 clusters
     324 = # of frozen angles
  find clusters CPU = 0.000 seconds
fix             2 all nph aniso ${pressure} ${pressure} ${pressureDamp}
fix             2 all nph aniso 7736.5 ${pressure} ${pressureDamp}
fix             2 all nph aniso 7736.5 7736.5 ${pressureDamp}
fix             2 all nph aniso 7736.5 7736.5 1000
fix             3 all temp/csvr ${temperature} ${temperature} ${tempDamp} ${seed}
fix             3 all temp/csvr 256.47 ${temperature} ${tempDamp} ${seed}
fix             3 all temp/csvr 256.47 256.47 ${tempDamp} ${seed}
fix             3 all temp/csvr 256.47 256.47 100 ${seed}
fix             3 all temp/csvr 256.47 256.47 100 745823


run             250000
PPPM initialization ...
  extracting TIP4P info from pair style
  using 12-bit tables for long-range coulomb (../kspace.cpp:340)
  G vector (1/distance) = 0.37219919
  grid = 24 24 24
  stencil order = 5
  estimated absolute RMS force accuracy = 0.0035054063
  estimated relative force accuracy = 1.0556427e-05
  using double precision FFTW3
  3d grid and FFT values/proc = 3211 432
Last active /omp style is kspace_style pppm/tip4p/omp
Neighbor list info ...
  update every 1 steps, delay 7 steps, check yes
  max neighbors/atom: 2000, page size: 100000
  master list distance cutoff = 10.8154
  ghost atom cutoff = 10.8154
  binsize = 5.4077, bins = 4 4 4
  1 neighbor lists, perpetual/occasional/extra = 1 0 0
  (1) pair lj/cut/tip4p/long/omp, perpetual
      attributes: half, newton on, omp
      pair build: half/bin/newton/omp
      stencil: half/bin/3d
      bin: standard
Setting up Verlet run ...
  Unit style    : real
  Current step  : 1000000
  Time step     : 2
  Walltime left : 2:54:59.94
Per MPI rank memory allocation (min/avg/max) = 10.18 | 10.18 | 10.19 Mbytes
Step Temp PotEng TotEng E_pair E_mol Press Lx Ly Lz Volume Pxx Pyy Pzz Pxy Pxz Pyz Enthalpy 
 1000000    266.32769   -4650.8388   -4137.2034   -4650.8388            0    7990.5667    20.075562    19.740178    20.283208    8038.1377    8807.6035     6117.172    9046.9246    290.59209   -18.984269     427.6579   -3200.4853 
 1001000    254.43645   -4704.0357   -4213.3336   -4704.0357            0    7230.1779    19.625467    20.136014    20.684071    8173.9038    9160.8171    6260.8308    6268.8859    439.72751    104.73216     1786.046   -3351.4386 
 1002000    264.75038   -4706.6268   -4196.0334   -4706.6268            0    7323.6843    19.932857    19.705784    20.652912    8112.3103    6443.7664    8035.9956     7491.291    359.05606    64.110225    528.27249   -3329.5703 
 1003000     262.6741   -4705.5839   -4198.9948   -4705.5839            0     8825.126     19.80457     19.82391     20.57777    8078.9147    8361.0248    9619.4937    8494.8594    47.394289    -913.5782    599.67632   -3159.1948 
 1004000    247.83497   -4715.9914   -4238.0208   -4715.9914            0    6402.1464    19.868195    19.989654    20.516087     8148.135    7231.2401    7093.6422     4881.557   -1045.0369    1406.6646    296.46583   -3477.2398 
 1005000    244.84533   -4664.8043   -4192.5995   -4664.8043            0    8628.5439    20.053547    19.630101    20.591507    8105.9119    6562.2526    8558.0431    10765.336    403.87215    1254.6129   -238.44482    -3172.564 
 1006000    256.12243   -4695.2922   -4201.3386   -4695.2922            0    7121.7451    19.948361    20.108139    20.455358    8205.1435    8204.4439    5267.2349    7893.5565    1120.7207   -764.15664   -2102.4733   -3349.1249 
 1007000    264.08311    -4701.582   -4192.2755    -4701.582            0    9224.8381      19.8721    19.850703    20.435858     8061.438    9226.5841     8855.921    9592.0092   -85.473035    -827.7642   -129.94092   -3107.7316 
 1008000    248.26256   -4673.6371   -4194.8419   -4673.6371            0    8276.6285    19.997083    19.685975    20.576909    8100.3487    5946.1034    9553.7075    9330.0747   -474.92689   -194.95526   -1237.7335   -3217.0801 
 1009000    271.08203   -4685.7477   -4162.9432   -4685.7477            0    9511.5605    19.870173    19.802807     20.52996    8078.2356    10098.116    9527.5626    8909.0024    279.92437   -991.02553   -197.21635   -3042.3598 
 1010000    253.93754   -4673.0165   -4183.2766   -4673.0165            0    6654.9286    19.973225    19.735363    20.748332    8178.5537    7234.5549    6343.0548    6387.1761     100.8301   -985.69019   -1942.6354   -3389.5045 
 1011000    251.84404   -4691.0704   -4205.3679   -4691.0704            0    7479.8247    19.992833     19.76667    20.472291    8090.4803    7365.6083    7744.0209    7329.8449    482.23898   -426.30841   -1503.8334   -3322.8133 
 1012000    260.02958    -4655.397    -4153.908    -4655.397            0    8845.2273    20.095933    19.824245    20.292844    8084.3992    9011.8067     7633.856    9890.0192   -148.03602   -45.328423   -1225.9427   -3111.0321 
 1013000    262.38996   -4665.9033   -4159.8622   -4665.9033            0    7915.7372    19.820492    19.870132    20.590325    8109.2071    10146.892    4715.6827    8884.6364    592.54714    -658.5524   -930.93163   -3223.7117 
 1014000    257.97095   -4710.2226    -4212.704   -4710.2226            0    7508.2992    19.999778     19.80223    20.563728    8144.0633    6526.5045    8585.5324    7412.8606    273.85139   -794.18873   -42.699807   -3320.9222 
 1015000    267.56711   -4726.7319   -4210.7062   -4726.7319            0    7492.8658    19.652937    20.069346    20.556892    8108.0819    8201.7379    6730.4066     7546.453    117.82055    -200.4927   -877.86203   -3324.6894 
 1016000    246.94471   -4678.6601   -4202.4065   -4678.6601            0    7940.1723    20.019557    19.808062    20.474016    8118.9431    7764.6211    9656.4217    6399.4742   -463.83671    1132.1618    54.981552   -3262.2388 
 1017000    247.79338   -4683.3268   -4205.4364   -4683.3268            0    7248.6931    20.040183    20.044186    20.364475    8180.1888    6828.6326    5702.1206    9215.3262    -916.7493   -683.12831   -820.81048   -3340.6698 
 1018000    253.97721   -4730.2025   -4240.3861   -4730.2025            0    5052.2211    19.841483    19.998149    20.602382    8174.8797    4927.0679    5454.5186    4775.0768   -235.75917    97.534956    440.48133    -3638.049 
 1019000    247.73025   -4685.2717    -4207.503   -4685.2717            0    7729.8923    20.019523    19.986609    20.388161    8157.7594    6825.3665    7250.9933    9113.3172   -5.9702142   -872.06522   -1641.1816    -3287.858 
 1020000      249.498   -4688.7819    -4207.604   -4688.7819            0    8054.9785    19.760254    19.822854    20.670599    8096.7693    9214.9191    7178.9965    7771.0199   -1340.5839    650.18123    1091.0405   -3256.4474 
 1021000    264.58174   -4737.4355   -4227.1673   -4737.4355            0    9436.6678    19.712866    19.967457    20.508614    8072.5148    8726.1966    8188.1369     11395.67   -490.41781   -113.45032    522.53129   -3116.1946 
 1022000    254.16288    -4684.915   -4194.7405    -4684.915            0    9016.8304    19.892267    19.819165     20.50334    8083.4035    7675.0999    10300.656    9074.7356   -146.89705     622.3593   -597.33509   -3131.7631 
 1023000    259.07657   -4728.6054   -4228.9544   -4728.6054            0    7482.4859     19.78103    19.818079    20.683691    8108.4622    9164.7971     5793.885    7488.7756   -44.017229    558.21104   -510.76605   -3344.1235 
 1024000    271.92549   -4683.3757   -4158.9445   -4683.3757            0    7231.4382    19.882659    19.906904      20.6002    8153.6037    8342.0275    6092.7642    7259.5229    964.90922    109.18201   -8.1101615   -3299.0401 
 1025000    264.31537   -4688.9598   -4179.2054   -4688.9598            0    7820.1245    19.764874    20.085196    20.551175    8158.4333    7404.9596    7949.1393    8106.2748   -88.042888   -888.93385    491.01158   -3248.7484 
 1026000    271.89355   -4692.5562   -4168.1866   -4692.5562            0    8214.3264    19.926588    19.684817    20.641551     8096.674    6011.6658    11361.452    7269.8611     630.9952    1224.6494    27.782832   -3198.2251 
 1027000    268.83525   -4680.6758   -4162.2044   -4680.6758            0    9040.5635    19.860773     20.00054    20.449558    8123.1002    8851.3833       9314.3    8956.0072   -1241.0791   -703.22105    208.59649   -3091.1952 
 1028000    239.17867   -4685.0357   -4223.7595   -4685.0357            0    8000.6181    20.069987    19.857555    20.503853    8171.6232      7444.16    8291.4517    8266.2425    68.846998    187.11559    184.82406   -3270.2879 
 1029000    264.38954   -4707.3025    -4197.405   -4707.3025            0    6128.7018    19.856613    20.168193      20.5087    8213.1605    9040.5155    3567.8212    5777.7686   -660.96414    324.16091   -331.21177   -3463.3059 
 1030000    261.02638   -4687.0426   -4183.6313   -4687.0426            0    7837.2438    20.022197    19.774247    20.568627    8143.6104    7659.7879    8937.5013    6914.4422   -969.88531     67.14845     171.3388   -3252.8316 
 1031000    267.04397   -4673.9553   -4158.9385   -4673.9553            0    8047.1332    19.896683    19.867626     20.53198    8116.2888    9857.0895    8515.1967    5769.1134    436.72767   -660.94039    1.8029072   -3206.4175 
 1032000    258.47869   -4687.4664   -4188.9686   -4687.4664            0    9256.8837    20.132474    19.726842    20.390174      8097.96    8104.5196    9856.3026    9809.8289      543.272   -1578.6728     77.98259   -3095.7265 
 1033000    249.03709   -4672.6229   -4192.3339   -4672.6229            0    9939.4436    19.606537    20.009822    20.574842      8071.99    9340.6363     10955.35     9522.344   -689.92185    169.90514   -192.85827   -3022.2458 
 1034000    262.68222   -4722.5867    -4215.982   -4722.5867            0    8289.7818    19.827443    19.690509    20.750514    8101.2589    9691.8921    6693.2658    8484.1876    464.72468   -186.50527   -444.76019   -3236.5563 
 1035000     245.6162   -4724.0805    -4250.389   -4724.0805            0    8692.6513    19.678509     19.89654    20.649238    8084.8836    9509.9175    8676.1962    7891.8404    332.55191    1212.7905     1443.252   -3225.4408 
 1036000    256.77298   -4725.5177   -4230.3094   -4725.5177            0    6740.1358    20.027456    19.700549    20.534329    8101.8578    7548.1733    6171.6694    6500.5646   -210.91299    317.80084    -492.0562   -3433.9132 
 1037000    269.13335     -4722.07   -4203.0237     -4722.07            0    8702.1515     19.58665    19.965555    20.612968    8060.8729    9215.5688    8493.7956    8397.0901   -345.49841     1047.128     545.4979   -3180.0026 
 1038000    263.90219   -4695.6395   -4186.6819   -4695.6395            0    8430.5178    20.203656    19.799348    20.461013    8184.7982    7568.1974    9347.4566    8375.8994   -647.31699   -621.06429    980.57214   -3180.3573 
 1039000    247.42922   -4702.3899   -4225.2019   -4702.3899            0    7850.5577    19.776713    19.875183    20.607398    8100.0635    7539.3806    7963.8002    8048.4924   -793.27143    225.61087   -1084.0281   -3297.8067 
 1040000    249.12226   -4690.6476   -4210.1944   -4690.6476            0    8217.3735    20.052128    19.940891    20.298489    8116.4994    7213.0383    7998.7218    9440.3604     504.0577    355.11273    1044.1134   -3237.4971 
 1041000    254.99938   -4692.1868    -4200.399   -4692.1868            0    9015.5307    19.755088    19.776038    20.742109    8103.4725    8229.0998    10853.712    7963.7797   -408.65335   -252.11518      1690.97   -3134.9361 
 1042000    261.26801    -4699.129   -4195.2517    -4699.129            0    9246.7237    19.967284    19.621902    20.479213    8023.6757    10475.953    8810.7691    8453.4493   -542.79423    -1086.739    486.67563    -3113.227 
 1043000    262.26118   -4684.2297   -4178.4369   -4684.2297            0    10036.166     19.81179    19.982092    20.365085    8062.1507    10851.613     9537.459    9719.4243     284.9048    848.64445   -270.48225   -2998.4027 
 1044000     257.4273   -4717.0108   -4220.5406   -4717.0108            0    9899.6415    19.757844    19.887458    20.434317    8029.3236    9113.1294    9409.9514    11175.844   -375.64236    214.21286   -507.81707    -3061.298 
 1045000    252.38211   -4737.0639   -4250.3238   -4737.0639            0    8099.7248    19.890158    19.849877    20.577926    8124.5188    9833.4904    7191.1193    7274.5646    627.16461    583.26376    193.51274   -3290.6055 
 1046000     256.1944   -4700.3487   -4206.2562   -4700.3487            0    8981.7166    19.788333    19.490716    20.864097    8047.0481    9472.8994    10150.343    7321.9074    588.88433    240.72247    475.53634   -3152.1804 
 1047000    255.39924   -4698.2112   -4205.6522   -4698.2112            0    8090.4274    19.830136    19.937787    20.483291    8098.4591    8675.0494    7139.8798    8456.3531   -404.19306    265.64737    -74.14475   -3250.1103 
 1048000    257.06113   -4728.3031   -4232.5391   -4728.3031            0    7677.8936    19.847266    19.795217    20.600458    8093.5272    7062.9457    7964.4987    8006.2363   -721.63967    140.51184    208.34099   -3326.2728 
 1049000    257.22734   -4692.2352   -4196.1506   -4692.2352            0    8691.3322    19.681047    19.958704    20.676505    8121.9006    9057.2785    7759.1308    9257.5874    183.56075    3408.1996   -612.66721   -3166.6659 
 1050000    253.30166   -4722.1553   -4233.6417   -4722.1553            0    8464.1587    19.923158    19.801127    20.617368    8133.5721    7329.2614    9285.3594    8777.8552    266.05356    1182.3832    153.69016   -3229.6249 
 1051000    271.25315   -4654.4821   -4131.3476   -4654.4821            0    7431.7278    19.764952    20.109729    20.470703    8136.4457     8926.581    5410.9015     7957.701    226.50228    109.34293   -952.96753    -3249.486 
 1052000    253.54389   -4725.4481   -4236.4674   -4725.4481            0    7055.4625    19.816976    19.832743    20.705299       8137.7    8297.8853    5475.3285    7393.1736   -132.33088   -99.869223    290.65829    -3399.125 
 1053000    244.67194   -4705.3524    -4233.482   -4705.3524            0    8062.4219    20.095357    19.627353    20.541524    8101.9608    5134.8587    10603.623    8448.7845   -101.37534    1550.9325    689.15652    -3280.836 
 1054000     264.8165   -4694.1204   -4183.3995   -4694.1204            0    7414.6313    19.887974    20.127303    20.442266    8182.8606     8724.243    6261.3644    7258.2866   -886.77881   -526.36994    921.32042   -3298.5475 
 1055000    247.83066   -4678.1281   -4200.1658   -4678.1281            0    7365.6902     19.85451    19.801815    20.796476    8176.2458    7355.5337    6384.1315    8357.4054    -1097.973    507.90028    288.83887    -3321.865 
 1056000    281.43906   -4707.4289     -4164.65   -4707.4289            0    6824.9198    19.761959      20.0334    20.553798    8137.2326    6976.6282    6817.3211      6680.81   -215.56586    738.52437   -97.481171    -3354.715 
 1057000    243.22102   -4712.3315   -4243.2593   -4712.3315            0     6342.039    19.931282    19.888514    20.524626    8136.0352    7856.9596    4533.0402    6636.1172   -788.34907   -854.01676    609.43568   -3490.7401 
 1058000    267.90303   -4717.9691   -4201.2956   -4717.9691            0     6048.479    19.952145    19.868332    20.563353    8151.6388    5353.1018    6562.7576    6229.5777    652.28418    732.36882   -712.72516   -3482.2325 
 1059000    260.71932   -4730.6752   -4227.8561   -4730.6752            0    5907.0618    19.981383    19.843013    20.833476    8260.2823    4564.8953    7896.5572    5259.7327   -42.148227     -185.296   -480.44615   -3516.2457 
 1060000    266.37473   -4720.5328   -4206.8067   -4720.5328            0    6549.4547    19.920094    20.027701    20.470661    8166.8458    6917.1291    4778.9017    7952.3332   -508.04709    103.89655      235.268   -3426.7335 
 1061000    268.41486   -4717.9529   -4200.2923   -4717.9529            0    7812.1825    20.092237     19.99137     20.29561    8152.1646    5625.9229     9032.919    8777.7057   -194.79299   -287.09121    -1230.929   -3271.4944 
 1062000    258.91399   -4669.9357   -4170.5983   -4669.9357            0    6097.0701    19.828765    19.989656    20.796202    8242.9946    5425.4047    7781.9486    5083.8569    37.693461    1058.4782   -1083.2338   -3437.6352 
 1063000    269.71709   -4692.8773   -4172.7052   -4692.8773            0    7397.6346    19.759697    19.805442     20.76159    8125.0385    6586.6447    9198.7387    6407.5205    -1327.952   -174.15649    2374.9254   -3296.1199 
 1064000    250.12785    -4685.411   -4203.0184    -4685.411            0    8735.1498    19.788978    19.854203     20.63401    8106.9864    9802.8264    8288.9635    8113.6595     624.2942    -68.01789     917.6928   -3170.2434 
 1065000       265.13   -4735.7749   -4224.4494   -4735.7749            0    8109.2696    19.937255    20.004673    20.500529     8176.395    9385.2858    6587.8918    8354.6312   -510.80152    441.80682   -247.34819    -3257.465 
 1066000    264.22259   -4671.4845    -4161.909   -4671.4845            0     7359.053    19.738741     20.15598     20.45779    8139.2065    7922.2253    6335.5554    7819.3783   -267.25153    926.33753   -125.46944   -3288.3748 
 1067000    254.45332   -4710.7067   -4219.9721   -4710.7067            0    7455.5131    19.953674    19.783253    20.638954    8147.1978    5690.4806    9506.3856    7169.6731   -378.75633    418.45198    852.00528    -3334.119 
 1068000    258.33074   -4702.2146   -4204.0021   -4702.2146            0    5079.5646    19.807285    19.958198    20.678179    8174.4504    4134.0063    5475.6655     5629.022   -80.830521    1470.5797    -444.3719   -3598.4368 
 1069000    240.70647   -4698.0543   -4233.8316   -4698.0543            0    7664.0011    19.710021    19.855501    20.628561    8073.0357    8487.0789    7484.7584    7020.1658     222.4888    -230.9335    2851.8872   -3331.4955 
 1070000    264.18805   -4708.1765   -4198.6677   -4708.1765            0    8367.9609     19.83982    19.883736    20.708237     8169.187    7515.5666    9514.9957    8073.3205   -533.87302    1361.5912   -822.04102   -3201.7154 
 1071000    263.14739   -4698.6106   -4191.1087   -4698.6106            0    7897.1555    19.763281    20.032419    20.435944    8090.7197    10785.672    5675.0523    7230.7417   -408.94056     748.6943     675.4367   -3259.2851 
 1072000    278.86793   -4694.2795   -4156.4592   -4694.2795            0    6809.5953    19.987183    20.006016    20.455917    8179.5827    6961.2466    4429.1213    9038.4181   -983.25341   -1642.4861     504.0554    -3344.137 
 1073000     238.7114    -4704.361   -4243.9859    -4704.361            0    6731.7102    19.948182     20.03555    20.511502    8197.8895    7414.0583    5095.2023    7685.8699   -994.67033    140.92839    424.39024   -3439.1574 
 1074000    251.56822     -4709.53   -4224.3595     -4709.53            0     9692.275    19.762111    19.784416    20.741178    8109.4235    10239.967     9415.173    9421.6855   -954.53244    49.056374    914.20475   -3078.0772 
 1075000     246.3757   -4699.6429   -4224.4866   -4699.6429            0    5700.2786      20.0862     19.91044    20.506356    8201.0058    5702.4236    4891.9919    6506.4202    38.260658   -828.29248     1164.887   -3542.7147 
 1076000    246.10166   -4682.3871   -4207.7594   -4682.3871            0    7004.7632    19.989415    19.962409    20.413867     8145.886    8496.1497    5259.8884    7258.2515    676.18105   -976.40177    516.50935   -3375.5977 
 1077000    240.37419   -4718.8933   -4255.3115   -4718.8933            0    7749.5755     19.86923    19.831867    20.573924    8107.0295    7246.2826    7791.5108     8210.933   -1044.4299    761.63304   -1121.0379   -3339.0582 
 1078000    271.27383   -4686.8465   -4163.6721   -4686.8465            0    7347.3407    19.759401     19.86887    20.742817    8143.5671    7550.2495    7407.9439    7083.8286    350.59302    307.40818    157.10742    -3291.061 
 1079000    260.78836   -4730.8521   -4227.8999   -4730.8521            0    8624.2618    19.800388    19.946312    20.555157    8118.1503    8462.0369    8329.6913    9081.0573    40.220027    452.72118    1105.6142   -3206.8313 
 1080000    272.12825   -4706.3377   -4181.5155   -4706.3377            0    8262.3167    20.061731    20.124796    20.139173    8130.9543    9957.1105    6590.6329    8239.2066    423.63263     21.58468   -272.12529   -3201.7566 
 1081000    253.17717    -4674.372   -4186.0986    -4674.372            0     7456.708     20.02754    19.826914    20.574328    8169.7428    7218.8334    7813.8897     7337.401   -410.82183   -947.16119   -652.07902   -3297.6518 
 1082000    255.20474   -4736.7479   -4244.5641   -4736.7479            0     5800.862    19.853852    19.938467    20.764157    8219.6036    8241.4716     4425.498    4735.6165    662.65086    1669.4492    376.51042   -3549.1887 
 1083000    263.39197   -4695.8208   -4187.8473   -4695.8208            0    8415.8502    19.870295    19.714024    20.702256    8109.5596      8437.36     9053.634    7756.5566   -673.58085   -839.94615    1402.9034   -3192.5079 
 1084000    263.93951    -4673.579   -4164.5494    -4673.579            0    7625.5963    19.823488    19.971412    20.455457    8098.3779    5168.2217    8707.8223     9000.745   -433.46099    -432.6596    270.58727   -3263.9167 
 1085000     255.9626   -4714.3303   -4220.6849   -4714.3303            0     8268.576    19.715398    19.924716    20.510133    8056.8663    8441.8351     7960.391    8403.5019    -153.0183   -273.28524    138.54903   -3249.1179 
 1086000    248.96197   -4709.9389   -4229.7948   -4709.9389            0     8111.956    19.853241    19.829109    20.664475    8135.0265    7178.8915    8555.3807    8601.5957    154.62468   -710.02299    422.35967   -3267.3841 
 1087000    243.80232   -4678.7232   -4208.5299   -4678.7232            0     9175.402    19.756557    19.813623    20.662008    8088.1219     8093.421    9973.1853    9459.5995    7.0479276   -399.51488    -602.8548   -3126.2273 
 1088000    260.77447   -4712.8802   -4209.9547   -4712.8802            0    8144.8113    20.063481    19.785604    20.520322     8145.913     7401.654    8468.5475    8564.2325   -246.78618    1584.2406   -844.79859   -3242.3528 
 1089000     240.8222    -4718.495   -4254.0491    -4718.495            0    7048.0536    19.736704    20.002813    20.593877    8130.2485    8023.9598    6283.7267    6836.4742   -564.80299   -1086.3109    415.25217    -3418.352 
 1090000    256.38831   -4717.3347   -4222.8683   -4717.3347            0    6489.4683    19.719687     19.89565    20.798201    8159.8829    9032.6093    5553.1389    4882.6566   -459.84584    517.19318    -285.1734   -3450.5987 
 1091000    252.79008   -4711.9233   -4224.3964   -4711.9233            0    8141.1871    20.105284    19.706833    20.379864    8074.7362    6724.4359    9600.2842    8098.8413    140.46858   -741.13596    39.949591    -3265.676 
 1092000    260.24833   -4718.0579   -4216.1471   -4718.0579            0    7120.5895    19.989267    19.864637    20.559772    8163.8648    6375.3323    7477.2692    7509.1669    598.17916    -209.4691   -160.37249   -3368.3584 
 1093000    271.07634   -4701.4606   -4178.6671   -4701.4606            0    8858.6926    19.919162    20.086323    20.356873    8144.8403     8714.368    7446.6162    10415.093    730.70968    174.11728    485.19054   -3126.3949 
 1094000    253.29153   -4698.6726   -4210.1786   -4698.6726            0    8268.8586     19.85434    20.109323    20.436522    8159.4312    7620.6943    8971.6095     8214.272    56.013162    797.24632    448.11136   -3226.2098 
 1095000    244.98858   -4717.0398   -4244.5588   -4717.0398            0     7414.961    19.718782    19.807654    20.595829    8044.3764    7256.7614    7498.5796    7489.5419   -827.57631   -57.100784   -179.78784   -3374.6431 
 1096000    257.78277   -4695.1359   -4197.9801   -4695.1359            0    7061.5759    19.732874     19.92539    20.792959    8175.4838    9365.5453    4921.3488    6897.8335    876.07933   -759.91752    938.92421   -3356.0211 
 1097000    261.46622   -4709.7389   -4205.4793   -4709.7389            0    8412.6758    19.514752    20.016765    20.745313    8103.5799     9336.369    8669.9996    7231.6589   -634.49086    -386.8075   -483.07831   -3211.2491 
 1098000    265.26164   -4717.6274    -4206.048   -4717.6274            0     7595.234    19.934486    19.835054     20.43064    8078.3075    8644.4082    7740.3401    6400.9537   -65.167414   -1686.2085    1338.3487   -3311.2244 
 1099000    248.43619    -4706.241   -4227.1109    -4706.241            0    5719.7693    19.886349    20.203066    20.372591    8184.9986    5982.5245    5506.6142    5670.1694    462.03142    992.61697    152.18076   -3544.3432 
 1100000    262.68871   -4715.8131   -4209.1959   -4715.8131            0    10295.502    19.929988    19.827602    20.434142    8074.8348    10351.397    10123.334    10411.776    107.14505    -249.6388   -208.62323   -2996.7648 
 1101000    242.42305   -4715.3091   -4247.7759   -4715.3091            0    7453.6573    19.881806    19.738011    20.755826    8145.1528    7151.6971    8844.9626    6364.3121   -654.65569   -1155.0978    39.157746   -3362.3656 
 1102000    255.56546   -4702.1048   -4209.2253   -4702.1048            0    7123.7945    19.915014    20.027725    20.539532    8192.2421    7172.5541    6253.3797    7945.4495     406.0902    408.02963   -242.38145   -3358.1067 
 1103000    253.76748   -4678.2342   -4188.8223   -4678.2342            0    7889.2999    19.801827    19.908705    20.666749    8147.4264    8009.3723    7181.7594    8476.7682      152.816    628.55676   -870.88506    -3251.401 
 1104000    250.92137   -4671.5425   -4187.6195   -4671.5425            0    8893.9738    20.001211    19.757729    20.566123    8127.2895    8002.4344    9967.7209     8711.766   -1986.4766    1637.8841   -289.56944    -3133.433 
 1105000    267.00424   -4666.8221    -4151.882   -4666.8221            0    9223.4056    19.635987    20.218637     20.47507    8128.8668    10381.878    7397.1048    9891.2339     16.15222    86.470856   -111.11631   -3058.4363 
 1106000    251.56677    -4704.567   -4219.3994    -4704.567            0    9116.1819    19.811519    19.693936    20.606164    8039.8409    10046.937    8119.3417    9182.2671   -380.52297   -1158.0193   -275.94343   -3150.5012 
 1107000    249.18821   -4677.1523   -4196.5719   -4677.1523            0    6709.1604    19.648749    20.079929    20.703092    8168.3114    8254.7008    7101.3859    4771.3946    720.50979   -195.17085    180.99637   -3397.3335 
 1108000    255.50724   -4688.7986   -4196.0314   -4688.7986            0    6967.3928    20.015987    19.984932    20.532745    8213.4701    5559.6961    8186.5985    7155.8837    -252.4091     244.2691   -263.86792    -3361.442 
 1109000    250.80924   -4683.8576   -4200.1509   -4683.8576            0    7656.4854    19.754278    19.904311    20.765293    8164.8157    8228.1755    7831.6001    6909.6807   -355.92701    507.89127      130.798   -3288.4514 
 1110000    265.90135    -4683.337   -4170.5239    -4683.337            0    8190.9508    19.720971    19.800796    20.777548    8113.4438    8519.3647    9662.2645    6391.2231   -892.44528   -536.69615    804.68829   -3201.3194 
 1111000    264.58503   -4678.0997   -4167.8252   -4678.0997            0    8988.7615    19.728138    19.965303    20.468737    8062.1901    10478.607    7154.4379      9333.24   -409.72633   -4.1100417    1436.9956   -3110.9377 
 1112000    270.90333   -4717.2218   -4194.7619   -4717.2218            0    8538.2778    19.855771    19.887076    20.549061     8114.274     8174.754    8836.3653    8603.7141    478.92324    986.03747    461.12496   -3184.3561 
 1113000    251.08314   -4722.5254   -4238.2904   -4722.5254            0    6552.0357    20.054723    19.974338    20.308813    8135.3006    6189.2052    6000.7223    7466.1796   -438.22071   -292.16597     638.4939    -3460.924 
 1114000    253.60984   -4690.3003   -4201.1924   -4690.3003            0    7467.0617    19.953695    19.899984    20.546055    8158.3905    6256.3385    8724.4872    7420.3594   0.58364594    453.70076    404.08571   -3312.7482 
 1115000    262.04643   -4706.9064   -4201.5278   -4706.9064            0     7664.543     19.79515    19.774622    20.658859    8086.7366    7753.7849    8713.1488    6526.6955   -376.63127    636.05897    214.52773   -3297.5964 
 1116000    250.32762   -4719.5858   -4236.8079   -4719.5858            0    6419.9756    19.911902    19.925879    20.523931    8143.1192    6267.0199    4911.1455    8081.7615    170.54798    615.75757   -354.84758   -3474.3778 
 1117000    249.95288   -4723.9671    -4241.912   -4723.9671            0    8988.0155    19.791369    19.994626    20.380526    8065.0025    8506.1798    9867.1562    8590.7106    495.28489   -110.20763   -14.011971   -3184.7435 
 1118000    249.32479   -4697.3532   -4216.5094   -4697.3532            0      8810.13    19.818217    19.679137    20.732279    8085.7007     7655.185    11800.485    6974.7197     341.2725   -857.22916   -645.55116   -3177.6044 
 1119000    249.68331   -4701.5088   -4219.9735   -4701.5088            0    9199.3857    19.639839    19.837005    20.620089    8033.4958    10075.205    9334.8593    8188.0928   -394.95843    982.58495    150.30512   -3142.1708 
 1120000    254.80278   -4691.2602   -4199.8516   -4691.2602            0    7543.1171    20.037779    19.918729    20.398675    8141.6637    5906.8191    8049.8427    8672.6896   -381.91681   -743.15214   -1065.7677   -3304.1984 
 1121000    251.70037   -4714.2482   -4228.8229   -4714.2482            0    8363.5798    19.808648    19.903629     20.41693    8049.6601    8842.9957    8270.0064    7977.7373   -470.89427    657.72451    773.18093   -3246.9718 
 1122000    258.81118    -4680.787   -4181.6478    -4680.787            0    6700.8227    19.757139    20.019107    20.501413    8108.7247    7612.4284    5507.8017     6982.238    150.43322    1202.5994   -203.78397   -3389.2258 
 1123000    252.09459   -4681.8643   -4195.6787   -4681.8643            0    9494.2813    19.749351    20.091575     20.31658    8061.5293    10475.331    8871.8119    9135.7012   -595.31486    979.42141   -378.17183   -3079.4442 
 1124000    263.08115     -4710.41   -4203.0359     -4710.41            0    7133.1222    20.004774    19.710716    20.581163    8115.3259    6635.3714    8124.1111     6639.884   -730.85246    652.11614   -1969.2813   -3358.8045 
 1125000    262.04191   -4675.2818    -4169.912   -4675.2818            0    7804.6137    19.955263    19.763858    20.635594    8138.5338     8660.326    7093.8375    7659.6778    244.13961   -492.36646    450.67119   -3243.5654 
 1126000    237.66505   -4698.8716   -4240.5145   -4698.8716            0    7610.0037    19.873263    19.782118    20.738704    8153.1149    9677.3364    6980.0421    6172.6325    -418.5695    163.32612    582.51594   -3335.6484 
 1127000    256.26908   -4716.5579   -4222.3214   -4716.5579            0    7023.6677    19.715681     20.06683     20.72258    8198.4997    7331.0337    6206.1825    7533.7869    -673.8735    -206.5971   -1627.8033   -3382.5246 
 1128000    256.19147    -4716.839   -4222.7522    -4716.839            0    6925.0834    20.040982    19.732561    20.585461    8140.7242    7900.2615    6020.0939    6854.8948   -539.54852   -593.28167    637.14759   -3400.5778 
 1129000    275.72503   -4700.3888   -4168.6299   -4700.3888            0     7593.119    20.087348    19.887877    20.422526    8158.6913    8034.2706    6574.6967    8170.3897    1046.4903    131.34153   -142.92648   -3265.1539 
 1130000    248.70704   -4727.9504    -4248.298   -4727.9504            0    8143.0505    19.878698    19.790006    20.617243    8110.8142    7673.9049    9589.6363    7165.6103   -452.63762    1219.6254    1497.1801   -3285.0736 
 1131000    244.07472   -4718.3062   -4247.5875   -4718.3062            0    7267.9564    19.708068    19.869001    20.736742    8120.0857    6471.5314    9284.4968    6047.8409    312.67635   -860.71201   -195.33941   -3386.8935 
 1132000       256.63   -4670.7759   -4175.8433   -4670.7759            0    7553.8238     19.89916    19.733374    20.839077    8183.0382    8039.7698     7344.826    7276.8757    794.52887    132.64151   -368.36394   -3274.3608 
 1133000    265.99092   -4681.6329    -4168.647   -4681.6329            0    9117.1396    19.984439    19.717872    20.520919    8086.2808    8213.6212    10156.486    8981.3116     351.2427    1105.5386    350.03357   -3093.4617 
 1134000    252.18229    -4716.823   -4230.4682    -4716.823            0    8339.7995    19.900822    19.736238    20.655615    8112.8515    9793.3511     6609.182    8616.8654   -1123.9133    421.20546    95.301238    -3243.723 
 1135000    270.68055   -4720.2401   -4198.2099   -4720.2401            0    8368.4448    19.815452    19.697419    20.673201    8069.0244     8899.784    8652.1155    7553.4348   -61.839276   -1251.0246   -791.28702   -3213.4243 
 1136000    258.03503    -4699.589   -4201.9467    -4699.589            0    8146.0584     20.04844    19.898005    20.366966    8124.8709    7011.2147    7847.1992    9579.7614   -382.46416    730.07071    2641.1734   -3236.6966 
 1137000    242.92672   -4699.4063   -4230.9016   -4699.4063            0    6979.0735    19.934866    19.970111    20.567559    8187.9756    6492.4799    6252.9722    8191.7684   -180.30296   -956.07956   -1588.1215    -3397.508 
 1138000    257.65974   -4714.1262   -4217.2077   -4714.1262            0    8145.4387    19.972012    19.882048    20.354813    8082.5807    7252.0296    8352.0744    8832.2122   -125.35658   -185.60533   -577.67944   -3257.0548 
 1139000    237.14527   -4705.7231   -4248.3685   -4705.7231            0    9918.4187    19.642771    19.935535    20.657219    8089.1424    11608.128    10309.569    7837.5593    97.744821   -807.53958    -1140.733   -3078.2743 
 1140000    260.77209    -4694.824   -4191.9031    -4694.824            0    8450.9413     20.10491    19.754112    20.434219    8115.5451    6086.8478    9642.0599    9623.9162    141.50919     -216.804    16.728879   -3191.6759 
 1141000    252.08537   -4695.5343   -4209.3665   -4695.5343            0    8911.8814    19.734732    20.044781    20.452123    8090.4175    10188.624    7528.0236    9018.9962    -187.7612   -357.32636   -534.63052   -3157.8497 
 1142000    257.15183    -4692.258   -4196.3191    -4692.258            0    9921.3329    19.945844    19.691017    20.410525    8016.3144    7059.5076    12404.108    10300.383   -96.349294   -80.217025    295.83468   -3036.4188 
 1143000    251.79303   -4702.9409   -4217.3369   -4702.9409            0     6588.447    20.029527    19.876835    20.488399     8156.915    6627.6687    4665.3496    8472.3227    158.63858    1005.5451   -1229.0805   -3433.5737 
 1144000    247.84533   -4682.9918   -4205.0012   -4682.9918            0    5971.1571    19.837268    19.903217    20.591781    8130.1593    7045.9541    3510.0088    7357.5085   -38.994265    936.01577   -1291.9474   -3497.0009 
 1145000    255.63818   -4703.7976   -4210.7779   -4703.7976            0    7982.1931    20.244409    19.569444    20.602169    8161.9988    6292.7962     8158.005    9495.7783    33.742243   -1576.9603    299.84968   -3260.6224 
 1146000    258.83847   -4720.4323   -4221.2405   -4720.4323            0    7993.6983    19.636632    19.999332    20.564663    8076.1443    6944.3732    8799.5095     8237.212    -280.9163    17.511111    574.44126   -3279.7245 
 1147000    251.53436   -4731.2431    -4246.138   -4731.2431            0    6254.5763    20.070671    19.808929    20.590651    8186.4003    4629.0029    7138.9273    6995.7988    11.174979    -104.7339    1253.1841   -3499.4025 
 1148000    247.40837    -4696.657   -4219.5091    -4696.657            0    9670.9085    19.687565    19.674489    20.739823    8033.4205    12523.568    8365.0282     8124.129   -23.765197    775.93454     397.9279   -3086.4732 
 1149000    260.51345   -4671.8582   -4169.4362   -4671.8582            0    8277.1782    19.700999    19.944036    20.572534    8083.3071    7940.6938    7877.7905    9013.0504    1013.8878    368.01246    668.23979   -3193.6666 
 1150000    255.74998   -4717.0115   -4223.7762   -4717.0115            0    7617.5296    20.015648    20.016308     20.44787    8192.2217    7944.4318    6950.9445    7957.2125    25.040934   -505.43643    1206.5479   -3313.6707 
 1151000    266.79801   -4678.7686   -4164.2262   -4678.7686            0    9593.2424     20.02651    19.916398     20.37613    8127.1406    9509.8125    9623.8911    9646.0237    431.97461    267.94802    1113.6523   -3027.1774 
 1152000    253.20577   -4672.9262   -4184.5976   -4672.9262            0    8798.9576    19.864577    19.983502    20.476322     8128.359    8904.9732     7566.683    9925.2167   -526.72116   -221.80131     865.3713   -3141.5359 
 1153000    255.46672   -4714.9028   -4222.2138   -4714.9028            0    6797.8287    20.090147     19.89268    20.482067    8185.5938    7404.0798    6325.2392    6664.1672   -230.89212   -676.81437   -27.127766   -3410.6992 
 1154000     252.1359   -4685.8145   -4199.5493   -4685.8145            0    8170.4171    19.778277    19.865789    20.557022    8077.0815    6880.3142    10456.221    7174.7159   -511.47208    372.05844    -1319.937   -3237.1072 
 1155000    252.33289   -4693.6826   -4207.0374   -4693.6826            0    7895.2433    19.786558     19.76352    20.657315    8078.0852    9655.1118    5527.0284    8503.5896   -77.775742    803.42421    1242.4522   -3276.8941 
 1156000    254.93762   -4722.9962   -4231.3276   -4722.9962            0     6235.179    19.736987    19.944428    20.761412     8172.583    7382.3113    6178.2821    5144.9435    37.103956    23.946874    543.96315   -3488.1644 
 1157000    267.08418   -4713.4459   -4198.3516   -4713.4459            0    6824.8675     19.98255    19.895392    20.616678    8196.3802    6293.6737    7796.9764    6383.9523    -455.1222     167.8833    1305.1347   -3382.5357 
 1158000    252.09652   -4728.2467   -4242.0574   -4728.2467            0    6845.0985    20.032672    19.958523     20.30368    8117.8695    5241.8263    7146.0782     8147.391   -160.64126    979.66824   -424.79129   -3431.6607 
 1159000    257.30142   -4728.9449   -4232.7175   -4728.9449            0    8744.1871    19.742395    19.828842    20.657083    8086.6039    7639.1521    9035.6115    9557.7975    234.55791    1621.2639    632.42254   -3201.4733 
 1160000    255.90894   -4696.0852   -4202.5432   -4696.0852            0    9143.4117     19.92727    19.758272    20.675072    8140.3634    10260.273     7386.668    9783.2939   -1272.3908     331.2936   -1009.8327   -3117.0479 
 1161000    253.47942   -4717.8452   -4228.9888   -4717.8452            0    7188.6181    20.014651    19.792506    20.495969     8119.275    7945.9437    6161.8396     7458.071   -318.19659   -421.07006   -363.24928   -3377.7752 
 1162000    251.97777   -4693.0457   -4207.0854   -4693.0457            0    6040.9049     19.83449    20.020614    20.606168    8182.6819    6489.2192    6495.9683    5137.5273   -113.82066    765.24469   -322.94185   -3486.1878 
 1163000    254.66415   -4698.6203   -4207.4791   -4698.6203            0     6311.827    19.981978    19.965551    20.543104     8195.696    6451.0756    6105.6062    6378.7994   -81.733092    1186.4476    334.06498   -3453.0528 
 1164000    251.58184   -4715.0613   -4229.8645   -4715.0613            0    6664.2138    19.989672    20.064662    20.458078    8205.4489    6382.6529    6114.6293    7495.3591   -138.76014    1216.6484   -376.89343    -3432.371 
 1165000    253.73438   -4689.7027   -4200.3546   -4689.7027            0    8686.8685     19.97937    19.664842     20.63297    8106.5109    8372.1113    9486.2706    8202.2236    462.17396   -1949.3469   -412.27788   -3173.3483 
 1166000    261.07398   -4690.9767   -4187.4736   -4690.9767            0    9096.1865     19.59392    19.888406     20.75347    8087.4578    8844.8668    9658.3786    8785.3141    64.756574    930.79717    -370.7863   -3114.6032 
 1167000    252.27122   -4684.1994   -4197.6732   -4684.1994            0    8259.8817     19.96263    20.005965    20.423331    8156.4996      9952.53    7698.5082    7128.6069   -321.09473    1530.6459   -892.88292   -3215.1257 
 1168000    254.02911   -4670.2044   -4180.2879   -4670.2044            0    7184.4661    20.000935    19.868464    20.526054    8156.8046    6743.5174    8582.0526    6227.8282    45.029342    714.75628   -1575.1698   -3325.6336 
 1169000    269.13812   -4693.6646   -4174.6091   -4693.6646            0    7203.7606    19.956523    20.088385    20.413502    8183.6571    7410.6497    7131.5224    7069.1096    328.79841    -246.8238    290.43358   -3314.8385 
 1170000    261.66145   -4711.5519   -4206.9158   -4711.5519            0    7806.2099    20.028628    19.727332    20.693726    8176.3268    6380.8155    9159.1455    7878.6687   -548.74147   -415.81863   -1730.9088   -3276.0772 
 1171000    256.17006   -4683.1783   -4189.1327   -4683.1783            0    7184.3846    19.731813    19.700039    20.902306    8125.0922    6860.6911    8413.4024    6279.0604     112.3088    -252.6327    616.13775   -3337.8109 
 1172000    243.71083   -4683.6138   -4213.5969   -4683.6138            0    10746.111    19.738901    19.817488     20.64957    8077.6046    10936.848    11219.288    10082.196    432.47962    452.17958   -878.31935   -2947.6667 
 1173000    246.89493   -4703.9022   -4227.7445   -4703.9022            0    7223.1649    19.948187    19.938321    20.446431    8132.2274    6185.6424    7209.0447    8274.8074   -713.90135    1469.3593   -480.93545   -3371.0758 
 1174000    255.65546   -4700.9615   -4207.9085   -4700.9615            0    8040.0993    19.890832     19.91859    20.566509    8148.3958    7306.2213    9177.5162    7636.5604   -112.78093   -1857.9665   -1832.4084   -3252.4553 
 1175000    252.61177   -4712.4651    -4225.282   -4712.4651            0    6164.5038    20.002514    19.890345    20.599321    8195.5823    4304.1345     6500.554    7688.8227    223.16739    532.33186     661.8543   -3488.4749 
 1176000    254.67603   -4737.6909   -4246.5268   -4737.6909            0    7925.6992    19.677297    19.924581    20.787977    8150.1734    9774.4216     6341.662     7661.014   -216.37865   -215.27312    155.07227   -3304.4629 
 1177000    251.23076   -4688.4234   -4203.9037   -4688.4234            0    8129.4254    19.981932    19.836786    20.500864    8126.0771     8242.243    9081.7114    7064.3218    576.57311    557.23338   -243.28849   -3240.4815 
 1178000    264.19151   -4714.5699   -4205.0544   -4714.5699            0    8634.0306     19.90795    19.782775    20.459177      8057.53    9936.9293     8063.277    7901.8853   -1416.8901    264.02419   -598.16525   -3190.4624 
 1179000    258.09998   -4683.2638   -4185.4963   -4683.2638            0    6215.6335    19.855292    19.827953    20.848902    8208.0002    7774.1011    6227.7313    4645.0681    437.34683   -188.30126    243.43553   -3441.4522 
 1180000    258.52276    -4695.392   -4196.8091    -4695.392            0    7823.5953    19.909131    19.898658    20.587498    8156.0458     9500.255    6269.9424    7700.5884   -941.69111   -438.21943      533.613   -3266.2115 
 1181000    261.23118   -4720.8777   -4217.0714   -4720.8777            0    8157.2206    19.932761    19.847909    20.546785    8128.7936    8436.7628    8200.1374    7834.7617    524.89559    798.53045   -524.50279    -3250.032 
 1182000    266.48418   -4716.5901   -4202.6529   -4716.5901            0    8711.8441    19.955253    19.698402    20.589404    8093.4189    7630.4001    8817.7934    9687.3388    934.83434    237.30547    547.56454   -3174.3573 
 1183000    234.91645   -4685.1341    -4232.078   -4685.1341            0      8449.97    19.918934     19.81069    20.607277    8131.7931    10079.359     7610.087    7660.4644    469.48827    608.27178    6.5012933   -3229.9634 
 1184000    247.66181   -4717.8353   -4240.1987   -4717.8353            0    7931.1501    19.982783    19.671073    20.676422    8127.5451    6433.0326    9031.6379    8328.7798     61.02047    399.53971    848.59377   -3300.1043 
 1185000    261.85809   -4689.6789   -4184.6636   -4689.6789            0     6623.935    19.913113    19.846925    20.675339    8171.1851    8142.8579    4829.8972      6899.05    344.05815   -400.53775    1577.8871   -3395.3001 
 1186000    253.36183    -4670.579   -4181.9494    -4670.579            0    7276.3116    19.952091    19.805062    20.626029     8150.425    5481.8028    8400.2635    7946.8686    151.31556    1553.0266    1809.3771   -3317.0464 
 1187000     256.7012   -4707.1358   -4212.0659   -4707.1358            0    6909.5737    19.666817    19.933017    20.689955    8110.8554     10770.59    4773.9173    5184.2137   -256.86838    978.17141    384.25254   -3394.7428 
 1188000    253.26923   -4674.7877   -4186.3366   -4674.7877            0     9455.344    20.001925    19.696141    20.485775    8070.5911     10057.67    8162.7098    10145.652   -133.02051   -275.05745   -1975.4975   -3073.4304 
 1189000    244.41337   -4712.1652   -4240.7935   -4712.1652            0    8277.2219    19.751586    20.000242    20.624456    8147.4127    7869.1033    8896.5931    8065.9694    259.10234   -64.753952     -1454.22   -3257.2802 
 1190000    262.56696   -4677.9552   -4171.5727   -4677.9552            0      8370.57    20.023428    19.723195    20.617262    8142.2925    7153.5348    9144.9891     8813.186    161.62457    1393.9108   -933.67556   -3177.5928 
 1191000    252.17138   -4695.7599   -4209.4262   -4695.7599            0     7123.392    20.045585    19.925636     20.48757    8183.1665     8051.128    6046.3323    7272.7157   -1174.5595     448.7919   -592.14493   -3359.2986 
 1192000    257.11139   -4687.6337   -4191.7727   -4687.6337            0    7818.0505    20.061448    19.607044    20.612739    8107.9321    7667.1597    8187.2119    7599.7798   -162.19697     1474.578    1023.4231   -3267.3205 
 1193000    261.49806    -4707.906    -4203.585    -4707.906            0      8824.96    19.866043    19.957531    20.585422    8161.6498     8048.686    10287.567     8138.627   -517.95491     1051.947   -184.15401   -3153.1563 
 1194000    256.41397   -4677.9372   -4183.4213   -4677.9372            0    7592.3108     19.97453     19.95618    20.391666    8128.4302    8384.1652     6637.459    7755.3081   -634.42383   -1012.3897     525.2231   -3283.3922 
 1195000    254.81366   -4699.3291   -4207.8995   -4699.3291            0    8118.9121     19.89643    19.954158    20.502959    8140.0128      8927.27    6972.1229    8457.3435   -73.133591    70.462904   -486.17807   -3244.0731 
 1196000    253.69317   -4702.3657    -4213.097   -4702.3657            0    6428.7816    20.082093    19.670667    20.709303    8180.7582    5764.2667     8936.877    4585.2013    168.34598    897.64117   -2124.5224   -3446.0922 
 1197000    253.41379   -4690.0592   -4201.3294   -4690.0592            0     8246.973    19.827941    19.811281    20.641415    8108.2972    8686.7581    7972.5158     8081.645     471.3159    1059.2992   -620.74196    -3226.115 
 1198000    260.43192   -4705.2392   -4202.9743   -4705.2392            0    7724.0302    19.876666    19.955788    20.536428    8145.8673    7408.4742    7705.1261    8058.4905   -39.955107   -15.671524    675.03559   -3285.3664 
 1199000    264.41777   -4696.8131   -4186.8612   -4696.8131            0    6108.8271    19.953391    20.144546    20.529037    8251.6878    4133.7202    7772.9722    6419.7891    116.11284    481.93558    703.98364   -3451.7102 
 1200000    254.59888   -4710.6257   -4219.6103   -4710.6257            0    8556.1251    20.073599    19.702569    20.511563    8112.3529    6852.5674    8828.2488    9987.5589   -196.41725    1221.4869    2240.3918   -3207.3322 
 1201000    252.75363   -4708.6792   -4221.2225   -4708.6792            0    8428.6877    19.655921    20.071663    20.682782    8159.9168    7981.6112    8387.9488     8916.503   -465.18268   -472.58304    486.31044   -3218.1748 
 1202000     251.4057   -4687.1092   -4202.2522   -4687.1092            0    7376.7101    19.846374    19.931771    20.565841    8135.2992    7202.2578    8141.4514    6786.4211    307.83095    348.21576    649.75005   -3327.0425 
 1203000    247.43029   -4708.4112   -4231.2211   -4708.4112            0    8643.0853    19.949449     19.79221    20.419838    8062.6443    8299.7046    7862.8427    9766.7085    170.36039    1734.8793    -1219.243   -3214.9205 
 1204000    246.39178   -4704.4377   -4229.2504   -4704.4377            0    9237.0351    19.683032    19.783037    20.754574    8081.6267    11656.894    8253.5557     7800.656   -358.84401    706.74558    306.82745   -3140.5528 
 1205000    244.26908   -4709.3847   -4238.2912   -4709.3847            0     8252.493    19.882471     19.97407    20.401175    8101.9975    8420.9609     5918.006    10418.512   -158.62021    446.47839    623.85215   -3263.1823 
 1206000      252.969   -4727.1719   -4239.2999   -4727.1719            0    7369.0896     20.02871    19.760696     20.51513    8119.5039    5955.9791    8805.7903    7345.4994   -180.49109    2335.8356   -476.82634   -3366.6918 
 1207000    256.63857   -4706.9557   -4212.0067   -4706.9557            0     5330.689    19.759573    20.035532    20.772285     8223.614    5041.7461      5634.53    5315.7908   -403.77777   -1172.2065    295.56193   -3572.6813 
 1208000    245.87367   -4663.2794   -4189.0913   -4663.2794            0    8685.9682    19.959717    19.841705    20.417391    8085.9977     5113.966    11866.704    9077.2348    213.20113     1787.202   -383.93947     -3164.79 
 1209000    254.30999   -4709.6276   -4219.1694   -4709.6276            0    7324.9174    19.812024    19.914898    20.653531    8148.9423    8011.0709    5821.3233     8142.358   -506.04938   -993.23819    619.34778   -3348.6472 
 1210000    266.72824   -4684.8588    -4170.451   -4684.8588            0    9931.1614    20.024219     19.54977    20.658254    8087.0631    8824.4316    10793.122    10175.931     549.8144    465.92606   -93.199236   -2999.1547 
 1211000    247.58571   -4685.8827   -4208.3929   -4685.8827            0    6669.1716    19.919628    20.114315      20.4339    8187.2443    6005.1676    5815.8872      8186.46   -1311.1569    246.09268   -418.48982   -3412.0767 
 1212000    241.75686   -4671.9344    -4205.686   -4671.9344            0    8214.8895    20.151988    19.745553    20.409131     8121.041    6044.4949    10213.694    8386.4795   -306.07865     64.82765    440.53087   -3232.7387 
 1213000     252.6391   -4670.8243   -4183.5886   -4670.8243            0    7996.4253    19.939523    19.784255    20.606983    8129.2195    8448.0929    8098.1842    7442.9989    1062.1065    1152.8294     -387.884   -3235.5618 
 1214000    260.64811   -4706.2397   -4203.5579   -4706.2397            0    8719.0616    20.073786    19.751227    20.502916    8129.0354    7727.7228     8646.124    9783.3381    576.16901    223.75347   -204.05249   -3169.8813 
 1215000    248.53021    -4744.194   -4264.8826    -4744.194            0    6324.6221    19.872506    20.110767    20.463652    8178.3258    6922.3202    6031.8403    6019.7059   -414.24813    616.27434    252.28335   -3510.5291 
 1216000    250.13932   -4705.8972   -4223.4825   -4705.8972            0    7637.0842    19.733997    19.862038    20.629768    8085.9902    8121.4939    8063.1088    6726.6498   -482.87744    1827.9325    415.64915   -3322.8727 
 1217000     243.5896   -4714.8012   -4245.0182   -4714.8012            0    8323.8554    19.474788    19.933968    20.973027    8141.9351    10463.569    8517.7799     5990.217   -196.24097   -670.36816   -684.54036   -3256.6288 
 1218000      264.505    -4695.487   -4185.3668    -4695.487            0    7988.0859    20.072126    19.800699    20.509647    8151.3976    6943.2792    8660.8469    8360.1317     355.7318   -479.80945    38.039912    -3235.745 
 1219000    260.14508   -4690.0698   -4188.3581   -4690.0698            0    7964.7961    19.740833    20.100858    20.463995    8120.2702    8145.0182     7817.664    7931.7061   -188.94949    210.77185    1066.5354   -3245.1207 
 1220000    251.58358   -4722.6536   -4237.4535   -4722.6536            0    6726.6781    19.929484    19.900143    20.622114    8178.7218    6698.3839    7375.9344     6105.716   -466.91118   -972.18785   -17.784409    -3435.107 
 1221000    247.61284   -4700.0028   -4222.4607   -4700.0028            0    6862.5851       19.882    19.910328     20.70535    8196.3608    5367.0292    8539.9155    6680.8106   -493.24379   -49.120021   -295.68508    -3402.138 
 1222000    262.66094   -4728.0017    -4221.438   -4728.0017            0    9936.0859    19.976904    19.747369    20.354527     8029.684     9240.809    10046.883    10520.566    393.35751   -581.20361    804.00652   -3057.8756 
 1223000    256.09962   -4720.3213   -4226.4116   -4720.3213            0    10012.168    19.919038    19.773786    20.598373    8113.1798    8527.6442    11395.045    10113.816    295.74359    1261.3814    123.25034   -3041.7478 
 1224000    258.27084   -4704.2533   -4206.1563   -4704.2533            0     6892.842    19.532018    19.990974    20.956079    8182.5955    10731.148    4553.1911    5394.1869   -1082.1656    1131.7046    104.07288   -3383.6006 
 1225000      240.582   -4701.9779   -4237.9953   -4701.9779            0    7749.8461    19.998443    19.929264    20.518311    8177.6596      8752.34    6072.9554    8424.2427    285.59058    162.33812   -424.27457   -3313.7272 
 1226000    252.88287   -4696.9264   -4209.2205   -4696.9264            0    9409.7512    19.789589    19.880952    20.637522     8119.541    10896.396    8588.3415    8744.5165   -477.42823   -167.23857   -902.89086   -3094.9631 
 1227000    264.80112   -4650.1672    -4139.476   -4650.1672            0    7650.3001    19.928329    19.738728    20.745553    8160.4679    7215.5757    9030.6458    6704.6788   -46.170332    658.31816   -347.10265   -3228.9981 
 1228000    258.53743   -4680.0219   -4181.4108   -4680.0219            0    7407.5771    19.862737    20.012325    20.567673     8175.641    10943.183    3965.3118    7314.2361   -215.63846   -561.19486   -359.88557   -3298.1806 
 1229000    265.01535   -4696.9148   -4185.8104   -4696.9148            0    7631.9137    20.042674     19.89113    20.365368    8119.0907    7884.1492    7113.0466    7898.5453   -377.34171    -918.4335    750.05337   -3282.1261 
 1230000    254.08937   -4651.1409   -4161.1082   -4651.1409            0    9675.6316    19.823493    19.857922    20.486163    8064.4476    9352.6481      10721.3    8952.9466    352.24766    47.657408   -333.97859   -3023.1407 
 1231000    270.33909   -4707.1593   -4185.7877   -4707.1593            0    7339.5909    20.071234    19.745571     20.57766    8155.2967    6000.0526    7816.4429    8202.2772   -95.550719    1393.9083   -666.10994   -3312.8414 
 1232000     251.2775   -4687.8084   -4203.1987   -4687.8084            0    6495.1266     19.93556    20.029746    20.526431    8196.2902    6331.3771    6491.4758    6662.5269    229.78553   -532.84863   -123.05344    -3426.807 
 1233000    254.74623   -4712.5713   -4221.2718   -4712.5713            0     7230.627    19.948888    19.764821    20.745691    8179.7397    9152.5826    6848.0666    5691.2319    -937.0005   -977.40927   -442.35995   -3358.7078 
 1234000    264.59236   -4702.9015   -4192.6129   -4702.9015            0    6789.0392    19.807509    19.780289    20.846953    8167.7996    7162.3467    7327.1151    5877.6558   -692.13716    1181.0229    658.87412   -3383.9095 
 1235000    249.01977   -4716.4271   -4236.1715   -4716.4271            0     6267.342    19.768723     20.07863    20.579664     8168.663    8321.1362    5296.8232    5184.0665   -54.618478    2425.1663   -550.92334   -3489.5332 
 1236000    243.85899   -4707.3288   -4237.0262   -4707.3288            0    5322.9149    20.077004    19.877641    20.497796    8180.3317    3831.2366    6553.7823    5583.7259    376.77512    158.33134   -24.828256   -3601.9931 
 1237000    258.45709   -4699.8745   -4201.4183   -4699.8745            0    7454.4684    19.737849    19.920124    20.669859    8126.9838    8415.4573    6514.2233    7433.7246   -662.13526    1929.0508   -99.544845   -3317.8869 
 1238000     265.0632   -4706.3512   -4195.1545   -4706.3512            0    7028.3183    19.781086    19.879579    20.705882    8142.3739    7578.7747    6501.2764    7004.9037   -251.50154   -413.20175    772.16114   -3360.5546 
 1239000    247.57957   -4694.8137   -4217.3357   -4694.8137            0     8293.173    19.986471    20.071192    20.363306     8168.787    8397.9012    6707.9054    9773.7125    983.71924   -1806.7932    1207.8165    -3229.342 
 1240000    257.47362    -4688.747   -4192.1875    -4688.747            0    7903.8244    19.964319    19.681082    20.561678    8079.0823    7587.7939    7892.9988    8230.6804    958.96033    149.15562   -896.40728   -3260.9183 
 1241000    251.77185   -4715.6932     -4230.13   -4715.6932            0     7571.451    19.962561    19.848851    20.492743    8119.9196     6395.204    9188.6217    7130.5274    501.77588    73.367908   -742.47827   -3333.5135 
 1242000    255.00015   -4705.3037   -4213.5144   -4705.3037            0    6168.5419    20.078724    19.954873    20.542531    8230.7424    4215.6081    7099.5935     7190.424   -333.19365    1269.6152   -768.92759   -3473.0616 
 1243000    263.77347    -4701.497   -4192.7877    -4701.497            0    7272.2619    19.922501    19.883749    20.681006    8192.4497    8604.0853    5938.3534     7274.347   -24.549147    150.91271   -867.75445    -3323.909 
 1244000    263.61739   -4700.7514    -4192.343   -4700.7514            0    7605.1371    20.024978    19.766557     20.48132    8107.0159    8626.9722    7041.4374    7147.0016    340.27724   -238.44809   -861.51482   -3293.1686 
 1245000    269.31335   -4686.8529   -4167.4595   -4686.8529            0    6694.0078    19.780241    19.996154    20.732776    8200.4088    6817.7237    6834.1403    6430.1594    -314.5889    -1212.579    120.69666   -3366.8926 
 1246000     271.2219   -4705.6659   -4182.5917   -4705.6659            0    8393.1082    20.014697    19.640027    20.571963    8086.6162    8765.0665    9623.7572     6790.501   -318.91102    314.78221   -1054.8019   -3192.7504 
 1247000    255.96117   -4701.5634   -4207.9208   -4701.5634            0    8029.2017    19.905925    20.028322    20.455734    8155.3384    7261.1003     8917.001    7909.5038   -386.15049   -1542.3083   -298.18242   -3252.9496 
 1248000    264.27814   -4693.8154   -4184.1327   -4693.8154            0    7107.3747    19.840593    19.719238    20.772354    8127.0039    8750.3951    6050.0492    6521.6797   -259.47267    642.94764    490.14948   -3341.7381 
 1249000    244.71149    -4702.666   -4230.7193    -4702.666            0    6188.4212    20.075273    19.793618    20.676055    8215.8845    6529.9308     5489.422    6545.9109   -809.26418     610.5245    868.77533   -3489.2211 
 1250000    255.48883   -4660.7733   -4168.0416   -4660.7733            0     6225.344    19.840333    20.015183    20.591038     8176.864    6971.5019    5812.5941     5891.936   -546.74435    -327.6769   -1096.4449    -3425.662 
Loop time of 376.621 on 64 procs for 250000 steps with 972 atoms

Performance: 114.704 ns/day, 0.209 hours/ns, 663.798 timesteps/s
195.7% CPU use with 32 MPI tasks x 2 OpenMP threads

MPI task timing breakdown:
Section |  min time  |  avg time  |  max time  |%varavg| %total
---------------------------------------------------------------
Pair    | 26.967     | 37.193     | 47.572     |  79.9 |  9.88
Bond    | 0.99006    | 1.2536     | 1.8265     |  18.6 |  0.33
Kspace  | 162.75     | 173.05     | 183.03     |  39.6 | 45.95
Neigh   | 2.5374     | 2.7822     | 3.0625     |  10.3 |  0.74
Comm    | 66.14      | 72.715     | 78.306     |  34.7 | 19.31
Output  | 0.53725    | 0.53768    | 0.53942    |   0.0 |  0.14
Modify  | 74.085     | 76.679     | 80.48      |  15.4 | 20.36
Other   |            | 12.41      |            |       |  3.29

Nlocal:        30.3750 ave          34 max          24 min
Histogram: 1 0 4 1 4 1 4 2 4 11
Nghost:        2659.09 ave        2688 max        2628 min
Histogram: 1 4 3 5 2 2 6 3 3 3
Neighs:        9609.25 ave       12498 max        7049 min
Histogram: 2 2 2 6 5 3 8 3 0 1

Total # of neighbors = 307496
Ave neighs/atom = 316.35391
Ave special neighs/atom = 2.0000000
Neighbor list builds = 7773
Dangerous builds = 0

unfix		3
unfix		2
unfix		1

write_data	data.final.${pid}
write_data	data.final.1
System init for write_data ...
PPPM initialization ...
  extracting TIP4P info from pair style
  using 12-bit tables for long-range coulomb (../kspace.cpp:340)
  G vector (1/distance) = 0.37168818
  grid = 24 24 24
  stencil order = 5
  estimated absolute RMS force accuracy = 0.0035724495
  estimated relative force accuracy = 1.0758325e-05
  using double precision FFTW3
  3d grid and FFT values/proc = 3211 432
Last active /omp style is kspace_style pppm/tip4p/omp
WARNING: Not all mixed pair coeffs generated from mixing. Use write_data with 'pair ij' option to store all pair coeffs. (../write_data.cpp:312)

write_restart   restart.lmp.${pid}
write_restart   restart.lmp.1
System init for write_restart ...
PPPM initialization ...
  extracting TIP4P info from pair style
  using 12-bit tables for long-range coulomb (../kspace.cpp:340)
  G vector (1/distance) = 0.37168818
  grid = 24 24 24
  stencil order = 5
  estimated absolute RMS force accuracy = 0.0035724495
  estimated relative force accuracy = 1.0758325e-05
  using double precision FFTW3
  3d grid and FFT values/proc = 3211 432
Last active /omp style is kspace_style pppm/tip4p/omp
Total wall time: 0:06:16
