LAMMPS (30 Jul 2021)
Processor partition = 1
  using 2 OpenMP thread(s) per MPI task
using multi-threaded neighbor list subroutines
variable        pid world 0 1
variable        phase world IceII IceVI

shell cd ${phase}
shell cd IceVI
include Restart.lmp
echo both
log log.lammps
#include		in.partitions
include		in.temp
variable        temperature equal 110.49
variable	tempDamp equal 100.0
include		in.pressure
variable        pressure equal 7492.1
variable        pressureDamp equal 1000.0 # This is 1 ps
include		in.seed
variable        seed equal 745823

units		real
atom_style	full
read_restart	restart.lmp.${pid}
read_restart	restart.lmp.1
Reading restart file ...
  restart file = 30 Jul 2021, LAMMPS = 30 Jul 2021
  restoring atom style full from restart
  orthogonal box = (0.028294634 -0.020751045 0.012083923) to (24.701706 24.750752 22.797916)
  4 by 4 by 2 MPI processor grid
  restoring pair style lj/cut/tip4p/long/omp from restart
  restoring bond style harmonic/omp from restart
  restoring angle style harmonic/omp from restart
  1920 atoms
  1280 bonds
  640 angles
Finding 1-2 1-3 1-4 neighbors ...
  special bond factors lj:    0        0        0       
  special bond factors coul:  0        0        0       
     2 = max # of 1-2 neighbors
     1 = max # of 1-3 neighbors
     1 = max # of 1-4 neighbors
     2 = max # of special neighbors
  special bonds CPU = 0.002 seconds
  read_restart CPU = 0.009 seconds
include 	in.setup
variable	out_freq equal 1000
variable	out_freq2 equal 10000
variable	out_freq3 equal 1000

timestep	2.0

neigh_modify    delay 7 every 1

include		in.tip4p
# This is TIP4P/Ice

# create groups ###
group ox type 2
640 atoms in group ox
group hy type 1
1280 atoms in group hy

# set charges - beside manually ###
set group ox charge -1.1794
Setting atom values ...
  640 settings made for charge
set group hy charge 0.5897
Setting atom values ...
  1280 settings made for charge

# ### TIP3P Potential Parameters ###
pair_style lj/cut/tip4p/long/omp 2 1 1 1 0.1577 8.5
pair_coeff 1 1*2 0.000 0.000
pair_coeff 2 2 0.21084 3.1668
bond_style  harmonic
bond_coeff  1 450 0.9572
angle_style harmonic
angle_coeff 1 55 104.52
kspace_style pppm/tip4p/omp 1.0e-5
pair_modify tail yes

thermo          ${out_freq}
thermo          1000
thermo_style    custom step temp pe etotal epair emol press lx ly lz vol pxx pyy pzz pxy pxz pyz enthalpy

restart 	${out_freq3} restart.lmp.${pid} restart2.lmp.${pid}
restart 	1000 restart.lmp.${pid} restart2.lmp.${pid}
restart 	1000 restart.lmp.1 restart2.lmp.${pid}
restart 	1000 restart.lmp.1 restart2.lmp.1


include         in.dump
dump            myDump all atom ${out_freq2} dump.water.${pid}
dump            myDump all atom 10000 dump.water.${pid}
dump            myDump all atom 10000 dump.water.1
dump            myDump2 all dcd ${out_freq2} dump.dcd
dump            myDump2 all dcd 10000 dump.dcd
dump_modify     myDump append yes
dump_modify     myDump2 append yes


variable natoms 	equal  "count(all)"                        # NUMBER ATOMS
variable H      	equal  "enthalpy/v_natoms"                 # ENTHALPY-per-atom
variable Vol      	equal  "vol/v_natoms"                 # volume-per-atom
fix AVG all 		ave/time ${out_freq} 1 ${out_freq} v_Vol v_H file vol_enthalpy.dat
fix AVG all 		ave/time 1000 1 ${out_freq} v_Vol v_H file vol_enthalpy.dat
fix AVG all 		ave/time 1000 1 1000 v_Vol v_H file vol_enthalpy.dat




fix 		1 all shake 1e-6 200 0 b 1 a 1
Finding SHAKE clusters ...
       0 = # of size 2 clusters
       0 = # of size 3 clusters
       0 = # of size 4 clusters
     640 = # of frozen angles
  find clusters CPU = 0.001 seconds
fix             2 all nph aniso ${pressure} ${pressure} ${pressureDamp}
fix             2 all nph aniso 7492.1 ${pressure} ${pressureDamp}
fix             2 all nph aniso 7492.1 7492.1 ${pressureDamp}
fix             2 all nph aniso 7492.1 7492.1 1000
fix             3 all temp/csvr ${temperature} ${temperature} ${tempDamp} ${seed}
fix             3 all temp/csvr 110.49 ${temperature} ${tempDamp} ${seed}
fix             3 all temp/csvr 110.49 110.49 ${tempDamp} ${seed}
fix             3 all temp/csvr 110.49 110.49 100 ${seed}
fix             3 all temp/csvr 110.49 110.49 100 745823


run             250000
PPPM initialization ...
  extracting TIP4P info from pair style
  using 12-bit tables for long-range coulomb (../kspace.cpp:340)
  G vector (1/distance) = 0.3751547
  grid = 30 30 30
  stencil order = 5
  estimated absolute RMS force accuracy = 0.0031897832
  estimated relative force accuracy = 9.6059373e-06
  using double precision FFTW3
  3d grid and FFT values/proc = 5400 960
Last active /omp style is kspace_style pppm/tip4p/omp
Neighbor list info ...
  update every 1 steps, delay 7 steps, check yes
  max neighbors/atom: 2000, page size: 100000
  master list distance cutoff = 10.8154
  ghost atom cutoff = 10.8154
  binsize = 5.4077, bins = 5 5 5
  1 neighbor lists, perpetual/occasional/extra = 1 0 0
  (1) pair lj/cut/tip4p/long/omp, perpetual
      attributes: half, newton on, omp
      pair build: half/bin/newton/omp
      stencil: half/bin/3d
      bin: standard
Setting up Verlet run ...
  Unit style    : real
  Current step  : 6000000
  Time step     : 2
Per MPI rank memory allocation (min/avg/max) = 10.55 | 10.56 | 10.57 Mbytes
Step Temp PotEng TotEng E_pair E_mol Press Lx Ly Lz Volume Pxx Pyy Pzz Pxy Pxz Pyz Enthalpy 
 6000000    110.47687   -9745.5317   -9324.3435   -9745.5317            0    8088.5399    24.673412    24.771503    22.785832    13926.644    8130.1464    7777.2909    8358.1823   -79.781146   -466.45019    265.02078   -7681.5141 
 6001000    110.72704   -9745.6922   -9323.5502   -9745.6922            0    6001.9841    24.673012    24.944401    22.797078    14030.542    6862.3332    4661.9214    6481.6978   -274.97142   -534.61808    407.02808   -8095.4178 
 6002000    113.67119   -9748.9335   -9315.5671   -9748.9335            0    8009.9956    24.707365    24.783468    22.758677    13935.916    7595.4875    8338.7285    8095.7708   -895.00898   -570.14916   -50.273764   -7687.6072 
 6003000    109.10802    -9738.291   -9322.3215    -9738.291            0    7109.5637    24.754045    24.731704    22.852113    13990.285    7173.4178    7561.6122     6593.661   -251.44734    214.01218    330.78114   -7871.7291 
 6004000    110.50015     -9757.01    -9335.733     -9757.01            0    7439.6228    24.670324    24.816366    22.826322    13974.909    8093.2472    6507.8375    7717.7838   -874.23084    517.69357    702.56006   -7819.4657 
 6005000    111.24477   -9733.0728   -9308.9571   -9733.0728            0    6503.9782    24.742084    24.917646    22.709878    14000.969    6925.8296    6081.8335    6504.2714    2.3254599   -387.80025    321.00323   -7980.9112 
 6006000    110.82395   -9720.3997   -9297.8883   -9720.3997            0    7599.5082    24.760736    24.803075    22.742942    13967.405    8663.2646    6993.1615    7142.0984    278.53306   -1503.6522    865.49105   -7749.8664 
 6007000    110.84502   -9743.6058    -9321.014   -9743.6058            0    8514.5524    24.664946    24.768861    22.804368    13931.704    8960.2748    7931.9284    8651.4539    392.83502   -157.62995   -287.90209   -7591.0305 
 6008000     109.7675   -9752.7493   -9334.2655   -9752.7493            0     6846.984      24.7278     24.78594    22.839527    13998.386    6626.1829    7120.1518    6794.6173   -401.01224   -768.67205     1013.727   -7936.4393 
 6009000    113.24427   -9730.8678   -9299.1291   -9730.8678            0    7667.6345    24.749471    24.730638    22.827753    13972.188    8324.1713    7576.1091     7102.623    -85.99157    26.665179    122.71873    -7736.695 
 6010000    112.20554   -9735.5063   -9307.7276   -9735.5063            0     7876.045    24.762024    24.727074    22.793947     13956.56    7675.0456    7869.1477    8083.9417    -276.5435   -228.76783     154.9117   -7704.6207 
 6011000    108.53249   -9736.6351   -9322.8597   -9736.6351            0    7033.3869    24.704728    24.729862    22.887758     13983.15    6814.8178    7565.9744    6719.3684   -65.723933   -111.42842   -920.05517   -7888.5418 
 6012000    113.02242   -9734.1923   -9303.2993   -9734.1923            0    7183.8385    24.822702    24.723182    22.776878    13978.083    6856.0956    7561.0871    7134.3328    16.928836   -1074.9768    378.48658   -7838.8306 
 6013000    110.94698   -9727.3287   -9304.3483   -9727.3287            0    7733.8091    24.761798    24.751021    22.777322     13959.76     7451.091    7613.0161    8137.3203    119.09664   -1070.3652   -43.724984   -7729.8315 
 6014000    108.50185   -9746.7817   -9333.1231   -9746.7817            0    8087.8393     24.72232    24.765487     22.75556    13932.326    8365.6061    7716.2523    8181.6595   -63.924104    344.78501   -417.31326   -7689.7657 
 6015000    106.91777   -9727.5382    -9319.919   -9727.5382            0    7113.1477    24.734564    24.769064    22.848304    13998.059    7513.1909    7293.7424    6532.5097   -505.95381    714.62405   -94.952125   -7867.7889 
 6016000    112.57379   -9740.9349   -9311.7523   -9740.9349            0    7468.9252    24.688582    24.766501    22.846596    13969.546     8325.395    7206.3715    6875.0092   -25.668467   -795.48579   -8.6132647   -7790.0969 
 6017000    112.25252   -9734.2373   -9306.2795   -9734.2373            0    8050.5058    24.648494    24.868999    22.723669    13929.231    9043.8391    6770.0116    8337.6667   -374.06501    66.581608    151.30837   -7670.8711 
 6018000    110.06457   -9751.5589   -9331.9426   -9751.5589            0    6995.3602    24.761372    24.805521    22.743889    13969.723    6544.0792      7052.47    7389.5313    434.67641   -636.71111   -717.84527   -7906.7493 
 6019000    113.16966   -9755.2228   -9323.7685   -9755.2228            0    7252.7566    24.778575    24.754341    22.764635     13963.31     6893.893    7079.3894    7784.9875   -310.43567   -564.49337     180.8184   -7846.8131 
 6020000    109.23282   -9738.1909   -9321.7455   -9738.1909            0    7916.1959    24.669668    24.708549    22.851401    13929.111    8756.4291    8147.4833    6844.6752    -322.1461   -830.62822    795.78883   -7713.6353 
 6021000    110.47132   -9742.3362   -9321.1692   -9742.3362            0    7996.5216    24.745581    24.683994    22.840889    13951.667    7999.8093    8478.7728    7510.9827   -166.78972    198.66803   -606.41264   -7694.1109 
 6022000    114.55782   -9740.4697    -9303.723   -9740.4697            0     7391.744    24.795566    24.743433    22.737378    13950.004    7238.4897    7405.6088    7531.1335    91.195207    786.93449   -119.46974   -7799.8985 
 6023000    104.93873   -9734.5097   -9334.4354   -9734.5097            0    8039.0441    24.711683    24.804333    22.735929    13936.143    8498.2792    7150.5385    8468.3146    296.01152    482.68083   -75.435134   -7700.5451 
 6024000    114.39448   -9723.1566   -9287.0326   -9723.1566            0    7715.2139     24.69226    24.886879    22.700619    13949.832    7258.1539    7534.2412    8353.2467   -615.59751   -903.16576     629.1209   -7717.4188 
 6025000    109.87014   -9734.0611    -9315.186   -9734.0611            0    6902.7727    24.678699    24.740685     22.92386    13996.573    7880.1369    6513.3669    6314.8141     5.521516   -70.597197   -292.57013    -7906.153 
 6026000    109.98102   -9726.5161   -9307.2182   -9726.5161            0    7183.7747     24.73924    24.724541    22.850775     13977.05    6550.4995    8114.3867    6886.4379   -156.60406    7.3558527   -1310.4283   -7842.8709 
 6027000    110.59386   -9731.2781   -9309.6438   -9731.2781            0    7893.4206    24.755435    24.697735     22.79011    13933.945     8107.963    7946.9218    7625.3771     121.6297   -930.20936    336.22138   -7705.6037 
 6028000     110.9273   -9748.4684   -9325.5629   -9748.4684            0    7250.7471    24.809173    24.790154    22.732352    13980.924    6615.0883    6951.0716    8186.0814    346.97983   -366.00137   -36.675445   -7847.1542 
 6029000    111.85975   -9756.1118   -9329.6514   -9756.1118            0    6584.3479    24.754605    24.767917     22.83189    13998.689    6838.4966    6412.7723    6501.7749    353.84479    15.564067    305.61099   -7985.4138 
 6030000    112.54863   -9729.5226   -9300.4359   -9729.5226            0    8690.9727    24.696963    24.723437    22.793157    13917.361    8891.7969    8948.6697    8232.4514   -286.19945    513.36794    565.50781   -7536.4255 
 6031000    112.09301   -9727.4396   -9300.0899   -9727.4396            0    6790.3877    24.805455    24.773502    22.782847     14000.47    6443.0726    7313.5257    6614.5649    66.887148   -545.58881    494.00848   -7913.6116 
 6032000     113.4868   -9729.9262   -9297.2627   -9729.9262            0    8923.6612    24.664853    24.776665    22.758155      13907.8     9292.041    8174.4994    9304.4432   -339.99265    387.66068   -46.286053   -7487.2677 
 6033000    111.67002   -9735.4477   -9309.7107   -9735.4477            0    6951.5287    24.749728    24.806791     22.80107    13998.975    7686.4739    6649.1045    6519.0077   -373.74696   -258.72084   -136.21683   -7890.4817 
 6034000    113.85386    -9763.811   -9329.7482    -9763.811            0    8321.1478    24.672142    24.710913    22.830244    13918.941    8276.4728    9118.6533    7568.3174    333.81315   -444.60481   -137.96919   -7640.6094 
 6035000     108.8835   -9754.4228   -9339.3093   -9754.4228            0    7668.0701    24.656565    24.758742    22.846811    13947.191    8486.6078    7515.0317    7002.5709   -557.80649   -342.78341    201.86874   -7779.5819 
 6036000    112.13321   -9751.3681   -9323.8652   -9751.3681            0      7117.47     24.81788    24.746527    22.766551    13982.222    6530.0348    7359.0857    7463.2894   -317.96875   -308.46413    535.25289   -7872.4966 
 6037000    108.16381   -9726.4634   -9314.0936   -9726.4634            0     7141.222    24.852711    24.740855    22.730598    13976.529    5700.9006     8160.317    7562.4484   -59.075011    330.48004    844.51299   -7858.4745 
 6038000    113.84897   -9745.9936   -9311.9495   -9745.9936            0    7058.7507    24.777795    24.733597    22.839374    13996.973    6322.3844    7617.5976    7236.2702   -160.00156    413.12041    883.47972   -7871.0361 
 6039000     111.5032   -9750.4058   -9325.3048   -9750.4058            0     8472.067    24.685008    24.704114    22.823506    13918.259    7924.0952    9026.5232    8465.5827    192.55891   -232.68199   -670.45787   -7605.6147 
 6040000    109.57031   -9741.9582   -9324.2262   -9741.9582            0    7416.6428    24.663487    24.866037    22.772143    13965.772    8336.8283     5634.389    8278.7112   -350.45565   -183.18211   -75.399349   -7813.6306 
 6041000    108.33204    -9752.616   -9339.6049    -9752.616            0     7849.426    24.685781    24.772877    22.799602    13942.818    7825.0874    7965.0877    7758.1028    -299.5671    258.55244   -324.52115   -7743.4892 
 6042000    110.36455   -9740.9015   -9320.1415   -9740.9015            0    7862.4261    24.755713    24.708794    22.811559    13953.461      7492.48     8115.083    7979.7154    339.89784   -186.49804   -611.59573    -7720.162 
 6043000    108.92502   -9719.8471   -9304.5753   -9719.8471            0    8109.9438    24.778599    24.674839     22.80348    13942.229    7639.8028    8761.4777     7928.551   -191.50795    347.64845    511.97432   -7655.5552 
 6044000    112.80736   -9749.6933   -9319.6202   -9749.6933            0    7066.3937    24.668782    24.790111    22.863927    13982.248    8121.1615    6857.7199    6220.2997    -191.5033   -525.00696   -352.72854   -7878.6641 
 6045000    108.37141   -9757.7908   -9344.6296   -9757.7908            0    7434.4771    24.747518    24.783276    22.755759    13956.666    7315.7494    7382.4665    7605.2154    491.61839     270.7531   -21.585793   -7831.3889 
 6046000    112.44304    -9728.031   -9299.3468    -9728.031            0    7370.7738    24.757303    24.799852     22.77331    13982.299    7052.6801    7264.6553     7794.986    28.950644   -337.88322     347.8836   -7796.3172 
 6047000    110.80478   -9744.0077   -9321.5693   -9744.0077            0    8222.2071    24.746569     24.71876    22.773423    13930.606      8460.28    7907.4674    8298.8739    -212.4606   -625.65578    -418.9395   -7651.1161 
 6048000    110.57187   -9743.6977   -9322.1473   -9743.6977            0    7536.3612    24.734591    24.695202    22.855104    13960.485    7366.1804    7963.0425    7279.8608   -20.703695    579.11903    815.72393   -7787.7491 
 6049000    113.03924   -9737.6374   -9306.6802   -9737.6374            0     7418.727    24.678105    24.818614    22.820203    13976.835    8030.9393    6839.4223    7385.8193    -10.76881   -385.00833    165.47731   -7794.4632 
 6050000    113.68114   -9740.7201   -9307.3157   -9740.7201            0    7294.0414     24.72012     24.83023    22.773563    13978.555    7396.9468    6788.2557    7696.9217   -464.59738   -161.53756    205.04897   -7820.3313 
 6051000    108.79096    -9729.553   -9314.7922    -9729.553            0    7316.1621    24.832894    24.773484    22.709417    13970.772     6869.402    7193.5342      7885.55    225.89472    112.96988    1444.0606   -7824.1287 
 6052000    110.63024   -9744.8571   -9323.0842   -9744.8571            0    6409.6126    24.768648    24.789301    22.811866    14006.428    6973.2424    6331.3411    5924.2541   -78.775161   -194.34504    137.80312   -8013.7966 
 6053000    109.23802   -9733.5317   -9317.0666   -9733.5317            0    8350.0678    24.633504    24.746722    22.854609    13932.135    9098.0328    8297.6692    7654.5013    7.0326143    530.98906    128.74418   -7620.4506 
 6054000    113.06652   -9740.4542   -9309.3931   -9740.4542            0    8017.0115    24.726021    24.783929    22.758697    13946.711    7948.2893    8029.2195    8073.5256    25.148302   -232.48333    88.085435   -7678.7452 
 6055000    115.01611   -9744.4949   -9306.0011   -9744.4949            0    6912.5115    24.697712    24.740224    22.903517    13994.666    6965.4241    7766.9803    6005.1301   -168.14588   -478.19277    783.00292   -7895.1724 
 6056000    111.32907   -9730.9809   -9306.5437   -9730.9809            0    7174.1103    24.697782    24.792616    22.847882    13990.275    8018.3167    6827.7753     6676.239   -180.55412   -264.33312    758.44412   -7842.7826 
 6057000    109.74969   -9733.2449   -9314.8291   -9733.2449            0    8086.0343    24.777806    24.735781    22.748507    13942.523    8289.5196    7798.6651    8169.9181    -5.868599    445.24673   -50.237458   -7670.6359 
 6058000    110.25576    -9740.642   -9320.2967    -9740.642            0    8475.0419    24.769931    24.703229    22.744405     13917.24    7627.3258     8957.206    8840.5938   -577.55256   -65.703729    399.94311   -7600.1288 
 6059000    111.14821   -9742.5624   -9318.8147   -9742.5624            0    6779.7425    24.726943    24.781125    22.840528    13995.796     7080.455      6800.11    6458.6624    60.632974    469.81389   -149.55577   -7934.9722 
 6060000    109.51539   -9756.5881   -9339.0655   -9756.5881            0    7687.9568    24.623621    24.884959    22.772049     13953.75    8730.9886    6295.8457    8037.0361    242.57539   -826.83509   -498.59701   -7774.5576 
 6061000    109.04985   -9743.3129   -9327.5651   -9743.3129            0    7189.1788    24.664726    24.830462    22.813602    13971.884    7516.8978    7107.0977    6943.5411   -494.83642   -167.16907   -269.99917   -7862.6579 
 6062000    110.35628   -9740.3116   -9319.5831   -9740.3116            0    7624.7123      24.6893    24.756513    22.838376    13959.295    7850.9961     7690.855    7332.2856   -112.29354    362.49027   -442.91084   -7767.3289 
 6063000    114.25359   -9733.5681   -9297.9812   -9733.5681            0    7924.6382    24.780983    24.742563    22.758151    13954.047    7947.6567    7462.5511    8363.7068    461.81597   -80.935734    -14.29475   -7685.2741 
 6064000    110.58923   -9740.4873   -9318.8707   -9740.4873            0    6555.6035    24.774778    24.806568    22.796855    14010.428    6842.0383    5906.9313    6917.8409   -11.046868   -68.336162    1522.0584   -7979.3792 
 6065000    107.61682   -9744.5097   -9334.2253   -9744.5097            0    8798.4976    24.667075    24.727229    22.802957    13908.628    8445.2402    8953.9817    8996.2708    347.26615    246.05172   -249.78047    -7549.511 
 6066000    116.30041   -9731.5421   -9288.1519   -9731.5421            0    7012.0842    24.690702    24.805686     22.84891    13994.267    7589.7863    6654.6206    6791.8456   -519.42574   -809.60488   -90.198224   -7857.0414 
 6067000    109.43242   -9748.6917   -9331.4855   -9748.6917            0    8531.6349    24.745991    24.695152    22.776242    13918.698    8159.9747    9036.8987    8398.0313    24.350091   -15.509352    565.91868   -7599.6495 
 6068000    109.50981   -9747.0921   -9329.5907   -9747.0921            0    7881.2809    24.784812    24.683386    22.783716    13938.465     7027.167    8728.8426    7887.8332    -191.7606    -152.6756    290.59891   -7727.4981 
 6069000    111.16607   -9757.4791   -9333.6633   -9757.4791            0    7812.7526    24.729388     24.72574     22.82991    13959.404    7308.7641    8440.9938    7688.4999   -444.89294   -690.29382   -206.81676   -7743.1151 
 6070000    109.69273    -9744.467   -9326.2683    -9744.467            0    8589.2305    24.702438    24.780346    22.748155    13924.941    8083.2881    8662.7422    9021.6611   -651.02425   -292.08593   -651.58299   -7581.9589 
 6071000    107.83557    -9726.789   -9315.6707    -9726.789            0    7327.5259    24.707531     24.76609    22.838762    13975.243     7495.486    7390.1712    7096.9205    158.78576    770.23434    281.08112   -7822.2141 
 6072000    110.06856   -9729.8455   -9310.2139   -9729.8455            0    6382.4864    24.821009     24.70876    22.870586    14026.447    5546.3682    7441.0698    6160.0212   -512.48069    637.59409   -450.89355   -8004.6039 
 6073000    109.34732   -9760.1786   -9343.2967   -9760.1786            0    7990.0575    24.708554    24.742456    22.786108    13930.294    8105.8956     7976.124    7888.1529   -112.95757    146.02022    1096.8663   -7720.0442 
 6074000    112.95412   -9740.8035   -9310.1709   -9740.8035            0    6431.9583    24.746677    24.830482    22.806833    14014.159    7094.8238    5380.8127    6820.2385    527.79615   -109.35228   -130.28775   -7995.5935 
 6075000    113.28159   -9730.2656   -9298.3845   -9730.2656            0    7435.7992    24.724934    24.742703    22.834023    13968.981    7323.8556    7427.6643    7555.8778   -293.27027   -131.31354     150.2606   -7783.5392 
 6076000    111.40507   -9743.0145   -9318.2876   -9743.0145            0    7695.3468    24.778275    24.752822    22.746477    13951.148    7671.5668    7129.8887    8284.5848    -444.1834   -487.64271    194.80186   -7752.5679 
 6077000    106.38262   -9745.2307   -9339.6516   -9745.2307            0    6238.3239    24.826579    24.846185     22.69401    13998.705    6231.4026    6033.4341    6450.1349    66.968023   -13.958681   -236.55919   -8066.0557 
 6078000     114.3323   -9740.5335   -9304.6467   -9740.5335            0    6384.6578    24.791194    24.744938     22.84371    14013.623    5657.3483    7000.1397    6496.4854    124.30552   -534.75413    364.32988   -7999.7866 
 6079000    111.85594   -9741.2802   -9314.8343   -9741.2802            0    8888.6752    24.603325     24.69003    22.876378    13896.412    8844.0765    9723.3437    8098.6055   -233.31328   -1009.8679    70.535709   -7513.4116 
 6080000    108.84527   -9736.9655   -9321.9977   -9736.9655            0    7425.3041    24.706696    24.806657    22.820732     13986.61    7236.6092    7608.9601    7430.3429   -296.81011   -265.79034    278.13074   -7807.3814 
 6081000    113.65862    -9735.938   -9302.6195    -9735.938            0    7537.8391    24.738711    24.807708    22.763399    13970.142    7799.1109    6910.7934    7903.6131   -788.25346   -439.85609    101.09482   -7766.8587 
 6082000    110.94093   -9747.3201   -9324.3627   -9747.3201            0    7151.5383      24.7515    24.760061    22.796576    13970.852     7031.977    7548.7965    6873.8413    76.861567    735.71865    506.50631   -7867.2329 
 6083000    108.31278   -9750.2041   -9337.2664   -9750.2041            0    7976.8025    24.723063    24.763701    22.774473    13943.319    8631.9708     7061.332    8237.1046   -206.07414   -216.59515   -77.196862   -7715.1915 
 6084000    111.47644   -9729.5331   -9304.5341   -9729.5331            0    7200.8855    24.681721    24.764517    22.881513    13985.888    7815.6816    7440.1381    6346.8369    453.56229   -681.17044    391.19628   -7835.7707 
 6085000    106.33853   -9731.0076   -9325.5967   -9731.0076            0    7022.9834    24.761905    24.691021    22.871286    13983.429    7031.3333    7969.3427    6068.2742    -138.8267     233.7087    323.37496   -7893.3718 
 6086000    110.35539   -9728.6095   -9307.8844   -9728.6095            0    8466.3545    24.760889    24.718417    22.757747    13928.879    8185.3957    8823.9726    8389.6952    718.95271    200.87477    252.50481   -7588.0426 
 6087000    108.49365   -9738.4846   -9324.8573   -9738.4846            0    6865.3066    24.749151    24.833751     22.78449    14003.672    6050.6507    7492.6653    7052.6037   -230.68578    609.18994    294.34601   -7922.7613 
 6088000    111.82412   -9723.9044   -9297.5798   -9723.9044            0    8108.9684    24.718896    24.796258    22.742568    13939.742    8202.0689    7511.0021    8613.8341   -509.55899   -884.70918    71.837558   -7649.0522 
 6089000    105.29011   -9745.3761   -9343.9622   -9745.3761            0    6717.1305    24.683794    24.763728     22.89482    13994.751    7511.7561    6656.8822    5982.7533    47.449987   -644.28308    765.36198    -7973.002 
 6090000    110.42589   -9733.9701   -9312.9763   -9733.9701            0    7538.5412     24.70297     24.71315    22.895889     13977.67    8802.7133    7501.0549    6311.8556    200.57429    144.94683    657.51952   -7776.2447 
 6091000     107.5416   -9740.5755   -9330.5779   -9740.5755            0    8009.7217    24.769596    24.727538    22.745672    13931.522    7071.6612    8425.1833    8532.3205   -585.81643   -1237.0103    80.891208    -7703.187 
 6092000    109.55499   -9733.8175   -9316.1439   -9733.8175            0     6953.917    24.709072     24.85953    22.785074    13995.867     6819.297    6359.3504    7683.1034    260.60252   -115.28541    951.29446   -7896.7426 
 6093000    111.42325   -9738.2121   -9313.4158   -9738.2121            0    7662.7523    24.660407    24.785271    22.849497    13965.952    8150.4086    7046.1076    7791.7405   -48.944418   -246.22328    664.66018   -7752.6734 
 6094000    108.70909   -9735.4518   -9321.0032   -9735.4518            0     7684.382    24.710601    24.713123    22.877972    13971.031    7387.1033    8197.1855    7468.8572    -169.8354     412.0484    754.24577   -7755.2861 
 6095000    104.65651    -9745.583   -9346.5846    -9745.583            0    6914.3393      24.7899    24.746504    22.796149    13984.602    6368.8362    6563.4136    7810.7681      -564.97    113.46796   -501.06264   -7936.3977 
 6096000    111.54065    -9743.864   -9318.6201    -9743.864            0    6934.6888    24.734903    24.773319    22.818881    13982.626     7075.754     6765.522    6962.7904    631.18981   -149.21672   -65.200614   -7904.4827 
 6097000    111.67687   -9735.3617   -9309.5985   -9735.3617            0    7791.0446     24.66709     24.74791    22.857787     13953.74    8572.2975    7238.7158    7562.1203    159.39651   -537.96502   -354.30178   -7724.1133 
 6098000    110.41991   -9763.8793   -9342.9082   -9763.8793            0    7337.5561    24.722425    24.777564    22.797523    13964.884    7178.9629    7128.3393    7705.3662    440.50105   -132.38893     740.6038   -7848.5158 
 6099000    117.38642   -9757.8741   -9310.3435   -9757.8741            0    7316.9436    24.792457    24.753138    22.746459      13959.3    6962.9068    7349.5331    7638.3909    -553.2351     243.8672    65.101303    -7820.745 
 6100000    110.12401   -9753.9201   -9334.0771   -9753.9201            0    7851.5989    24.773719      24.7787    22.712476    13942.293     7638.227    7526.6717    8389.8979   -618.20368      106.968   -615.75059   -7737.5798 
 6101000    111.30329   -9750.3534   -9326.0145   -9750.3534            0    7454.1181     24.66885    24.716271     22.90736    13967.121     7551.565    7487.1655     7323.624    90.631922   -94.958479    6.4135075   -7807.6395 
 6102000    111.07761   -9730.5767   -9307.0982   -9730.5767            0     6714.848    24.721987    24.799163    22.844502    14005.613    6574.5807    7058.9887    6510.9747   -677.45284   -201.28996     805.2277   -7935.5402 
 6103000    112.26463   -9744.5239   -9316.5199   -9744.5239            0    7396.1353    24.729042    24.817275    22.764149    13970.528    7195.1746    6777.1662    8216.0653    101.24009    -1077.104    247.53963   -7809.5882 
 6104000    111.27204   -9743.6057   -9319.3859   -9743.6057            0    7614.4979    24.747804    24.804878    22.735509    13956.562    7262.6751    7455.3556    8125.4629   -533.80666   -348.20988   -582.54371   -7769.5147 
 6105000    111.81601   -9739.9773   -9313.6836   -9739.9773            0    7297.4859    24.730205    24.746116    22.829165    13970.913    6757.3291    7464.8558    7670.2729   -5.8854606   -348.54856    437.06541   -7826.8103 
 6106000     107.4763   -9740.7582   -9331.0095   -9740.7582            0    8025.1468    24.734097    24.734656    22.801955    13949.993     8277.625    7920.6916    7877.1239   -305.49195   -78.198886     8.778335   -7698.3227 
 6107000    109.22774   -9731.7471   -9315.3211   -9731.7471            0    8037.2712    24.676406    24.724288    22.857577    13945.558    8015.3734    8297.8902    7798.5498    1.5366617   -251.43304    173.43028   -7680.6876 
 6108000    111.98885   -9747.5294   -9320.5768   -9747.5294            0    7338.3532    24.762212    24.818549    22.714678    13959.581    7315.1711    6817.4004    7882.4879    449.24898    233.03539   -441.36356   -7826.5895 
 6109000     110.7128   -9751.3789   -9329.2913   -9751.3789            0    6774.9923     24.80948    24.833054    22.700308     13985.55    6178.2292     6667.763    7478.9848    17.470488   -654.43904    414.14708   -7947.4306 
 6110000    111.34306   -9754.4867   -9329.9962   -9754.4867            0     7332.288    24.744578    24.734137    22.806512    13958.402    7122.3436    7341.6224     7532.898   -123.60794    489.29081   -503.92896   -7837.3698 
 6111000    109.12012   -9734.0154   -9317.9998   -9734.0154            0    7175.5728     24.65146    24.806327     22.86509    13982.281    7675.4951    6980.0214    6871.2019   -446.16866   -488.84038    733.11496   -7854.7769 
 6112000    112.53735   -9740.9405   -9311.8968   -9740.9405            0    7477.8535    24.703381    24.797168    22.797085    13964.899    6679.7707    8526.4984    7227.2913   -118.58206   -32.781246   -3.1287498   -7788.9294 
 6113000    111.01488   -9743.1084   -9319.8691   -9743.1084            0    6923.7336    24.746381    24.795764    22.778524    13977.026    7653.5357     6489.552    6628.1131    345.86207   -91.091244    113.35636   -7908.5312 
 6114000    117.05559   -9739.6708   -9293.4015   -9739.6708            0    7069.2993    24.797861    24.784231    22.779539    14000.212    6473.0036     7080.781    7654.1133   -510.29876   -605.94666    787.19235    -7850.001 
 6115000    115.41001   -9739.4641   -9299.4685   -9739.4641            0    7453.9857    24.736851    24.689996    22.875788    13971.451    7738.8304    7738.0939    6885.0327   -692.45769   -728.70037    482.62852   -7780.6498 
 6116000    111.82062   -9752.5421   -9326.2309   -9752.5421            0    7565.9905    24.802902    24.661539    22.813278    13954.374    6687.5549     7971.912    8038.5044    329.52943   -244.62549    275.03761   -7786.4744 
 6117000    109.20368   -9758.3761   -9342.0418   -9758.3761            0    7778.7897    24.778428    24.716585     22.77546     13948.56    7657.5133    8102.6403    7576.2157   -52.064278   -77.835267     529.9468   -7759.6381 
 6118000    107.40493   -9749.4929   -9340.0163   -9749.4929            0    7511.5226    24.653341    24.794656    22.832098    13956.602    8352.0464    6822.0381    7360.4834   -330.86078   0.86649601      372.289   -7811.1006 
 6119000    109.58107   -9736.4593   -9318.6862   -9736.4593            0    7673.2779    24.683296    24.801087    22.802515    13959.074    7680.8377    6684.1421    8654.8539    181.01292     -298.908   -30.067387   -7756.5697 
 6120000    108.77889   -9736.0498   -9321.3351   -9736.0498            0    7915.9453    24.751296     24.81609    22.685405    13934.065    7289.3079    7835.0677    8623.4604   -319.50309   -756.07204    197.23964   -7712.7038 
 6121000    108.80523   -9738.4334   -9323.6182   -9738.4334            0    7451.6031    24.726515    24.823289    22.760488    13970.238    7328.4728     7143.484    7882.8524   -257.12039   -270.55383   -253.36602   -7805.4167 
 6122000    110.79856   -9728.4432   -9306.0286   -9728.4432            0    7849.7916     24.69916    24.703525    22.878471    13959.443    8912.2793    8235.8205    6401.2751   -347.01073   -1021.9229   -423.79015   -7707.9353 
 6123000    107.85632   -9744.3052   -9333.1077   -9744.3052            0    7220.2379    24.766879    24.693631    22.854791    13977.628     6844.133    7815.9097     7000.671    85.491539   -199.14424   -150.00891   -7861.2668 
 6124000    111.64349   -9731.2607   -9305.6247   -9731.2607            0    6944.1648    24.794697    24.748057    22.801803    13991.656    6932.3109    7046.1289    6854.0546   -114.76121   -704.57474   -66.901612   -7888.6405 
 6125000    111.49125     -9724.26   -9299.2045     -9724.26            0    7914.5666    24.715613    24.766682    22.790754    13950.761    8414.3684    7326.3328    8002.9985   -208.10044   -779.83806    5.2997593   -7688.9262 
 6126000     114.4032   -9750.5862    -9314.429   -9750.5862            0    8594.5806    24.609077    24.740627    22.871257    13925.028    9161.6795    8041.9509    8580.1113   -384.06919    126.63317    10.252563   -7569.0223 
 6127000    110.24676   -9733.7455   -9313.4346   -9733.7455            0    7293.3958    24.672457    24.776817    22.860423     13974.69    8015.5942    6674.9657    7189.6275   -115.88051    275.97616     269.0246    -7826.993 
 6128000    107.87905   -9739.8756   -9328.5915   -9739.8756            0    6562.3477    24.752659    24.791507    22.817039    14001.806    6277.4145    7144.1826    6265.4462   -105.71299   -1092.5675   -403.38403   -7988.5471 
 6129000    109.71144   -9733.9349   -9315.6649   -9733.9349            0     7005.111    24.767644    24.784591    22.775433    13980.835    6679.4219    6533.2624    7802.6487   -228.90046    100.35324    238.88623   -7887.3498 
 6130000      109.892   -9751.3968   -9332.4384   -9751.3968            0    7955.2276    24.630343    24.783824    22.834742    13939.105     8599.011    7616.8233    7649.8486    103.29187   -366.99142    286.17812   -7715.2396 
 6131000    109.33517   -9747.9466   -9331.1111   -9747.9466            0     7618.499    24.728577    24.724191    22.833934    13960.532    7307.0331    8078.5319    7469.9319   -499.15726   -582.26198    56.978752   -7779.9845 
 6132000    108.78804   -9740.3004   -9325.5508   -9740.3004            0     7072.948    24.779293    24.729451    22.824179    13986.162    7067.1322    6937.9792    7213.7327    -240.1053   -1421.6951   -77.232208   -7882.8545 
 6133000    109.82933   -9738.8371   -9320.1177   -9738.8371            0    7949.8942    24.802926    24.676809    22.772381    13937.997    6533.9207    9092.4631    8223.2987   -8.4093706     9.066252    400.81858   -7704.1317 
 6134000    110.82795   -9758.2901   -9335.7634   -9758.2901            0    7696.7753    24.735281    24.708943    22.835626    13956.738    7132.2784    8493.4314    7464.6163    -282.2437    637.84845    321.96457   -7769.1255 
 6135000    110.93627   -9763.0768   -9340.1371   -9763.0768            0     7631.021    24.785106    24.636231    22.845608    13949.793    6345.4261    8153.2585    8394.3784   -151.97332    660.98153   -757.09884    -7787.656 
 6136000    111.66985   -9744.4744    -9318.738   -9744.4744            0    7119.0783    24.725161    24.813857    22.793168    13984.215    7271.8262    6740.3505    7345.0583    89.582199   -111.82766    236.16403   -7866.8345 
 6137000     109.1038   -9741.2153   -9325.2619   -9741.2153            0    8071.3024    24.644802    24.804493    22.791103    13932.243    8900.4777    7331.0933    7982.3363   -246.53748    108.43727    330.85054   -7685.2744 
 6138000    110.50048   -9736.4907   -9315.2125   -9736.4907            0    7652.3291    24.806571    24.687442    22.776844    13948.784    6444.6702    8752.5067    7759.8104   -439.36227   -510.89335    708.41609   -7758.5091 
 6139000    109.47694    -9752.894    -9335.518    -9752.894            0    7117.3068    24.757429    24.771673     22.78353     13972.75    7072.5108    6888.5049    7390.9046    475.13598    511.66116    -248.1048   -7885.1658 
 6140000    111.95233   -9750.1406   -9323.3272   -9750.1406            0    6522.7121    24.725737    24.896053    22.775776    14020.158    6629.6585    5611.9379    7326.5401   -649.96586   -625.92638    369.04867   -7989.6307 
 6141000    106.83175   -9740.8513   -9333.5599   -9740.8513            0    7481.0436    24.695941    24.778056    22.830202    13970.198    7691.3807    7381.5726    7370.1776   -303.21155    463.97374    38.901826   -7809.3646 
 6142000    108.21313   -9746.9865   -9334.4287   -9746.9865            0    7498.9715    24.796954    24.774393    22.734344    13966.378    6715.5761    7464.0446    8317.2938    91.003816    403.90299    593.55323   -7806.9985 
 6143000    112.49594   -9736.2739   -9307.3881   -9736.2739            0     9310.197    24.690058    24.638212    22.818465    13880.902    8780.5615    10682.052    8467.9774   -378.88459   -219.13966   -135.18193   -7422.6437 
 6144000    110.91771     -9744.11   -9321.2411     -9744.11            0    7320.4682    24.747952    24.731642    22.848447    13984.563    6808.1852    7423.2718    7729.9477   -341.16401   -216.46352     139.9503   -7828.2279 
 6145000    111.09645   -9723.2813   -9299.7309   -9723.2813            0    7162.7838    24.797336    24.764073    22.789196    13994.459     6720.569    7046.8554    7720.9269    440.60057    840.90376    -311.8277   -7837.8438 
 6146000    110.35279   -9744.1744   -9323.4592   -9744.1744            0     7159.657    24.756787    24.800621    22.770622     13980.79    7808.0397    6695.5222    6975.4092    450.73463    514.08046    250.20434   -7863.6375 
 6147000    109.12236   -9738.0709   -9322.0466   -9738.0709            0    7787.4328    24.663365    24.796884    22.815021    13953.087    7766.4164    8215.5249    7380.3572   -204.40777    148.96989   -935.78875   -7737.3705 
 6148000    107.75583   -9751.2485   -9340.4341   -9751.2485            0    7169.3063     24.67403    24.777351     22.86097    13976.217    7399.8393    7132.7189    6975.3606      30.2254    427.61302    514.49533   -7879.1232 
 6149000      108.983   -9738.2584   -9322.7655   -9738.2584            0    7119.2791    24.702096    24.816605    22.815288    13986.277    7019.9527    6742.4145    7595.4701   -123.27074   -778.08644    309.06558   -7870.6069 
 6150000    107.57302   -9738.2457   -9328.1283   -9738.2457            0    8578.9945    24.715175    24.737717    22.754941    13912.302    8576.7452    8300.8175    8859.4207   -235.62904    96.051814   -493.97063    -7587.479 
 6151000    111.01892   -9739.5769   -9316.3221   -9739.5769            0    6629.0083    24.808962    24.777654    22.777001    14001.202    5426.1526    7092.5979    7368.2743   -421.53242    -374.1396    645.76563    -7962.724 
 6152000     109.3052   -9749.2919   -9332.5707   -9749.2919            0    6819.3432    24.718856    24.784428    22.831287    13987.422    7739.6598    6533.1121    6185.2576   -290.47208    85.365722   -433.41435   -7941.4779 
 6153000    111.57932   -9739.4587   -9314.0675   -9739.4587            0    7558.1292    24.671068    24.675879     22.94229    13966.814    8282.0451    8334.5657     6057.777    97.644905   -485.41371   -427.06702   -7774.5396 
 6154000    109.88751   -9756.1866   -9337.2453   -9756.1866            0     7050.371    24.710942    24.783143    22.832596     13983.02     7353.231    6672.3252    7125.5569    -206.2941   -394.62709    632.73645   -7899.4772 
 6155000    110.90144   -9748.0022   -9325.1954   -9748.0022            0    7015.9153    24.786766    24.836513    22.698909     13973.83    7016.5993    6169.6324    7861.5141    14.814339    -415.4478   -295.21464   -7895.3941 
 6156000    105.57937   -9757.8685   -9355.3518   -9757.8685            0     8197.192     24.72594    24.722865    22.757874    13911.799    7947.2645    8331.6155    8312.6961   -239.45153    129.15829    608.08399   -7692.2291 
 6157000    104.34333    -9723.647   -9325.8427    -9723.647            0    7135.0919    24.724713    24.737904    22.861999    13983.257    7030.6189    7248.3715    7126.2852    188.59905   -522.82519   -106.15364   -7870.7729 
 6158000    111.66451     -9743.07   -9317.3539     -9743.07            0    7831.2353    24.690476    24.717037    22.855928    13948.411    7829.1118    8265.8014    7398.7927    24.549722    324.76339   -233.11259   -7724.2984 
 6159000    112.36986   -9740.8728   -9312.4677   -9740.8728            0    6982.4814    24.815031    24.821103    22.723515    13996.241    6363.9627    6920.5661    7662.9153    59.858246   -280.64744   -373.01056   -7887.1979 
 6160000    111.38947   -9749.1844   -9324.5169   -9749.1844            0    7146.6774    24.792701    24.819188    22.710386    13974.489    6523.2274    6368.3264    8548.4782   -656.11396    -315.6672   -728.13498   -7867.9985 
 6161000    105.58741   -9743.2991   -9340.7517   -9743.2991            0    8047.1715    24.709806    24.765919    22.781941    13941.661    7629.7779    8440.5792    8071.1575    147.35624    356.35727    275.45542    -7704.562 
 6162000     107.4214   -9737.3959   -9327.8565   -9737.3959            0    6939.1413    24.746496    24.747109    22.848624    13992.594    7018.7663    7529.6169    6269.0408   -464.04578    72.826317    165.64858   -7911.8024 
 6163000    108.88694   -9730.9763   -9315.8496   -9730.9763            0    7473.6756    24.769413    24.706515    22.844799    13980.238    7584.9784    7399.8116    7436.2368   -180.24603    117.81662   -487.24076   -7792.0611 
 6164000    107.40131   -9736.7012   -9327.2384   -9736.7012            0    8640.9061    24.736801      24.7705     22.71213    13916.697    7801.5779    8372.9496    9748.1907   -78.644343    -238.2264   -542.58757   -7573.4736 
 6165000    108.95461   -9738.9876   -9323.6029   -9738.9876            0    7061.5397    24.809626    24.758002    22.783867    13994.689    7113.1967    6783.4347    7287.9878   -517.58076   -337.17139    796.95037   -7882.3554 
 6166000    111.97161   -9732.4448   -9305.5579   -9732.4448            0     7232.696    24.778231    24.716624    22.826576    13979.776    7410.1487    7936.0737    6351.8658   -60.651477   -927.15863    756.74709   -7830.9508 
 6167000    105.89831   -9748.8165   -9345.0838   -9748.8165            0     7783.268    24.729085    24.742281    22.803046    13952.134    7869.9958    7414.4158    8065.3924    62.989811   -311.14157   -144.88742   -7761.3634 
 6168000    110.29082   -9720.2498   -9299.7709   -9720.2498            0    6906.5377    24.754939    24.831469    22.797407      14013.6    7650.1879    5636.4557    7432.9694   -532.91668   -262.31065    980.44645   -7888.2543 
 6169000    111.55773    -9741.462   -9316.1531    -9741.462            0    7907.0486    24.667533    24.880985     22.70675    13936.325    8578.6051    5987.8613    9154.6794    16.695583    101.30971   -124.22272   -7709.0691 
 6170000    110.57529    -9747.461   -9325.8976    -9747.461            0    7180.2624    24.692052    24.763415    22.853494    13973.987    7312.7343    7744.0412    6484.0116    487.75279   -154.27594   -304.77924    -7862.587 
 6171000    110.98871   -9752.1015   -9328.9619   -9752.1015            0    6961.5049    24.674809    24.776462     22.88421    13990.364    7750.6904    6772.6692    6361.1551   -272.35357    -303.3508    31.983563   -7908.5705 
 6172000     110.9822   -9748.2167   -9325.1019   -9748.2167            0    7785.9838    24.780727     24.73962    22.743761    13943.421    7305.4689    8161.2654    7891.2173   -136.92022   -355.62825    1012.1622   -7741.8182 
 6173000    106.76444   -9726.6207    -9319.586   -9726.6207            0    7841.3369    24.784407    24.733347    22.756169    13949.562    7471.3356    7734.5463    8318.1288    243.98867    535.71171   -299.59428   -7724.3441 
 6174000    106.42429   -9732.6109   -9326.8729   -9732.6109            0    7618.8864    24.737574    24.738776    22.811291    13959.992    7283.2165    7912.9961    7660.4467    -401.2507   -812.33505    795.47494   -7775.7273 
 6175000    112.33602   -9756.2953   -9328.0192   -9756.2953            0     6613.673    24.756044    24.766768    22.828612    13996.843    7000.2141    5933.5686    6907.2363    387.03539    218.87053   -260.54306   -7977.9727 
 6176000    109.13696   -9740.8792   -9324.7994   -9740.8792            0    8449.7014    24.758295    24.782344    22.690487     13922.17    8312.6448    7812.6456    9223.8138   -224.03532    341.35636   -216.68107   -7609.1672 
 6177000    108.78066     -9731.39   -9316.6685     -9731.39            0     6657.606     24.76292    24.820309    22.778236    14000.036    7083.9091    5998.3928    6890.5161   -180.27675   -262.87888    666.56578   -7957.3441 
 6178000    110.46635   -9748.8944   -9327.7463   -9748.8944            0    6867.5067    24.741106    24.751859     22.84544    13990.282    6791.2972    7601.7879    6209.4349    50.981226   -682.03892    415.36356    -7926.542 
 6179000     109.5659   -9741.0737   -9323.3585   -9741.0737            0    7722.2965    24.656515    24.781059    22.832502    13950.991    7777.3744    7685.0945    7704.4205   -166.34844    87.238605    715.26008   -7752.1732 
 6180000     106.7505   -9747.3356   -9340.3541   -9747.3356            0    6721.2927    24.736196     24.80272    22.829883    14006.702    7028.3959    7098.4694    6037.0127     33.24101    256.93467    325.89186   -7967.3729 
 6181000    108.98479   -9734.3008   -9318.8011   -9734.3008            0     7787.459    24.738213    24.715077     22.82048    13952.597    8680.4858    7631.8116    7050.0795   -120.14407    102.89889    258.11819   -7734.1753 
 6182000    110.73385   -9729.9948   -9307.8268   -9729.9948            0    6982.8404    24.835256    24.761087    22.760231    13996.357    6618.2377    7195.4542    7134.8292    65.613157   -831.12866    606.96971   -7882.4719 
 6183000    111.59963   -9744.0875   -9318.6188   -9744.0875            0    8132.7441    24.692297    24.810533    22.747778    13935.949    8916.4696    7464.5875    8017.1752    433.18959    460.81848     457.2744   -7665.7075 
 6184000    111.63113   -9741.2558    -9315.667   -9741.2558            0    7885.9121    24.681119    24.814136    22.776541     13949.28    8294.2269    7355.5479    8007.9616    313.38186    -725.2742   0.94762717   -7711.3891 
 6185000    112.88752   -9730.1707    -9299.792   -9730.1707            0     7100.079    24.774529    24.726953    22.843906    13994.145    6825.1313    8037.2862    6437.8194     723.8002   -272.58987    39.853222   -7850.7352 
 6186000    114.22392   -9737.7299   -9302.2562   -9737.7299            0    7607.0004     24.72897    24.653957    22.890186     13955.39    7757.6257    8120.9933    6942.3823   -755.36413   -168.74148   -25.507228   -7754.0411 
 6187000    107.55636   -9753.9097   -9343.8559   -9753.9097            0    7377.4691    24.764102    24.781242    22.755715    13964.846    6725.3608    7662.3301    7744.7165    504.88504   -369.33716   -132.90843   -7841.3387 
 6188000     111.6215    -9731.833    -9306.281    -9731.833            0    7593.1606    24.767286    24.849739     22.70547    13974.322    7502.1055    6843.2311    8434.1454   -1182.0438    12.375312    554.67414   -7758.7861 
 6189000    102.91923   -9733.3876   -9341.0126   -9733.3876            0    7937.3463    24.767121    24.735019    22.752379    13938.454    7676.6886    8212.7571    7922.5932   -569.23664   -632.62748   -203.74841   -7727.5242 
 6190000    112.95845   -9732.1074   -9301.4582   -9732.1074            0     7623.445    24.739698    24.713031    22.838869    13963.523    7159.5434    8708.9273    7001.8642   -240.87181   -9.6016116    202.22328    -7748.992 
 6191000    109.91851   -9734.7724   -9315.7129   -9734.7724            0    7190.8199    24.753978    24.752964    22.812354    13977.912    7000.6547    6987.6895    7584.1156   -818.83685   -1081.3611    202.74945    -7849.839 
 6192000    111.21807   -9738.8349   -9314.8209   -9738.8349            0    7050.0516    24.718692    24.817392       22.804    13989.193    7842.5702    6171.5685    7136.0163   -120.45383   -675.15956    72.935566   -7876.4832 
 6193000    111.98992   -9745.9771   -9319.0205   -9745.9771            0    7587.6357    24.753969    24.792997    22.729021     13949.37    7123.3123    7284.6556    8354.9392    136.51007    313.56744    801.51621   -7775.4127 
 6194000    110.65926    -9747.472   -9325.5884    -9747.472            0    7130.7666    24.689702    24.794508    22.827639    13974.373     7511.099    6531.8439    7349.3569   -639.12075    407.66425    343.12159   -7872.3246 
 6195000    109.42873   -9737.0223   -9319.8301   -9737.0223            0    8210.4568    24.736875    24.696237    22.798712    13927.909    7138.4411    9330.2573    8162.6721   -548.52655   -36.844932    247.54266    -7652.087 
 6196000    112.42858   -9743.8385   -9315.2095   -9743.8385            0     7856.443    24.764984    24.752177    22.756272    13949.304    7864.2004    8251.0772    7454.0514   -422.17273    14.201852   -170.15268   -7716.9238 
 6197000    112.17708   -9749.9716   -9322.3015   -9749.9716            0    6956.2854    24.793281    24.828514    22.728986    13991.517    6563.1475    7170.3267     7135.382   -383.49585    432.93977    377.86833    -7902.858 
 6198000    111.70935   -9742.4259   -9316.5389   -9742.4259            0    7822.3413    24.707556    24.753702     22.82004    13956.816    8169.2476     7676.356    7621.4201   -198.25149    4.6657653    661.30264   -7724.3338 
 6199000    109.50418   -9723.5587   -9306.0788   -9723.5587            0    7563.1428     24.67313    24.790252    22.861493    13983.303    8501.8288     6687.654    7499.9458    130.26443   -957.23674   -58.003914   -7763.7109 
 6200000    109.61536   -9736.4827   -9318.5789   -9736.4827            0    7661.3258    24.682768    24.754191    22.847496    13959.865     7791.332    7549.6401    7643.0051   -186.29065   -540.77444   -200.79144   -7758.8072 
 6201000    113.26552   -9733.3308    -9301.511   -9733.3308            0    8047.7965    24.745055    24.750212    22.773414    13947.472    7622.7059    8360.5345    8160.1491     675.6728    536.18971    675.99129   -7664.5122 
 6202000    107.92892   -9743.8039   -9332.3296   -9743.8039            0    6330.6894    24.806114    24.810062    22.785551    14023.167    5666.5093    6077.5153    7248.0436   -294.67495   -58.886254   -316.30903   -8037.6181 
 6203000    108.12125   -9750.0432   -9337.8357   -9750.0432            0    8391.2149    24.706174    24.722725    22.779028     13913.52    8339.6751    8431.1055    8402.8641   -18.477471    100.36131    64.965767   -7635.1372 
 6204000    111.88855   -9742.5188   -9315.9486   -9742.5188            0    6143.7207    24.781652    24.782368    22.850303    14033.468    5957.1832    6378.4019    6095.5769   -87.319693   -200.93976   -15.382369   -8058.5517 
 6205000    108.50515    -9745.444   -9331.7729    -9745.444            0     7863.228    24.695275    24.791248    22.755364    13931.441    8621.5133    7239.2086    7728.9622   -566.07571   -836.53674    479.06826   -7734.1555 
 6206000    108.13804   -9765.6817   -9353.4101   -9765.6817            0    7668.4454    24.807775     24.77247     22.68528    13941.236    7683.3648     7125.877    8196.0946   -326.71606   -809.41255   -35.352857   -7794.2723 
 6207000    107.20599   -9726.4807   -9317.7626   -9726.4807            0    8010.6892    24.761743    24.717288    22.795433    13951.789    8095.0679    7739.1734    8197.8261   -95.831545   -1060.9024     943.6381   -7687.8074 
 6208000    108.81053   -9738.7232   -9323.8879   -9738.7232            0     6850.586    24.710864    24.736901    22.907379    14002.598    7435.7559    7529.8624    5586.1397   -173.10628   -449.53245    167.90303   -7924.9055 
 6209000    109.78564   -9726.9812   -9308.4283   -9726.9812            0    7693.7383     24.72811    24.833189    22.746058     13967.85    7284.5076    7173.9792    8622.7282    1.4447339   -625.26941   -99.373005   -7741.1618 
 6210000    112.45301   -9742.2677   -9313.5455   -9742.2677            0    7869.4321    24.744654     24.77204    22.729293    13932.501    8118.0525     7931.775    7558.4688   -681.77343   -619.54838    453.82708   -7714.5458 
 6211000    112.80112   -9743.6734   -9313.6241   -9743.6734            0    6807.4967    24.830366    24.757782    22.755336    13988.724    6234.5818    7422.5825    6765.3257   -187.21568   -267.35428   -714.29878   -7924.8186 
 6212000    110.31226   -9743.7222   -9323.1615   -9743.7222            0    7888.1478    24.724436    24.741728    22.812172    13954.782     7934.084    8087.1989    7643.1606    95.603765    669.05938   -73.122077   -7717.7958 
 6213000    110.41205   -9747.0972   -9326.1561   -9747.0972            0    7777.4543    24.629476    24.723683    22.900943    13945.102    8695.5747    8214.8601    6421.9282    147.87936   -754.05822    88.928403   -7744.4162 
 6214000    108.27551   -9724.9888   -9312.1932   -9724.9888            0    7423.6086    24.760785    24.781058    22.779012    13977.167    6817.2021    7466.6329     7986.991   -211.17386    171.65753    -526.5989   -7798.9452 
 6215000    108.44863   -9746.1369   -9332.6813   -9746.1369            0    7097.0992    24.779594     24.75534    22.789628     13979.78    5922.2301    7785.4191    7583.6484   -336.75801   -339.93846    307.70164   -7885.7194 
 6216000    108.75733   -9746.2784   -9331.6459   -9746.2784            0    7142.0602    24.739974    24.785171    22.786159    13972.119    7598.9263    6831.9227    6995.3317   -249.45447   -747.74558    147.27607   -7876.3153 
 6217000    111.97662   -9733.2022   -9306.2963   -9733.2022            0    8279.2525    24.782149    24.796203    22.659052     13924.06    7610.1327    8388.9747      8838.65   -706.11347    -344.7328   -16.010579   -7625.0439 
 6218000     107.4763   -9730.0877   -9320.3391   -9730.0877            0    7052.3263    24.792751    24.773771    22.793755    14000.151    5768.0673    8268.7225    7120.1891   -821.08069   -644.22404    492.54352   -7880.4103 
 6219000    106.51329   -9742.8356   -9336.7583   -9742.8356            0    7719.9235    24.697029    24.728081    22.833388    13944.581    7912.2997     7339.749    7907.7219   -207.51682   -323.70973    842.96643   -7766.7774 
 6220000    111.82708   -9744.9497   -9318.6138   -9744.9497            0    7672.9217    24.631655    24.760784    22.888618    13959.747    9066.4723    6982.7292    6969.5634    390.41269     -228.984    592.48464   -7756.4945 
 6221000     107.1611   -9732.0466   -9323.4996   -9732.0466            0    7278.9764    24.768737      24.7862    22.763112    13974.795    7483.8209    6760.2275    7592.8807     76.86811   -88.082427     942.5498   -7839.9856 
 6222000    107.61577   -9747.7057   -9337.4253   -9747.7057            0     6923.477     24.73254    24.799686    22.793535    13980.625    7425.4929    6368.0445    6976.8936    320.55695   -402.25342   -107.14157   -7925.7763 
 6223000    111.56114   -9745.9674   -9320.6455   -9745.9674            0    8071.5626    24.663892    24.764043    22.822097    13939.227     8284.025    7685.1406    8245.5224    140.27079   -464.61729   -12.654193    -7679.783 
 6224000    113.52695   -9726.5798   -9293.7632   -9726.5798            0    7714.2401     24.77722    24.775838    22.754425    13968.404    6456.7442    8342.1702    8343.8059   -419.64054    425.63285   -225.50899    -7722.258 
 6225000    109.02119   -9736.0565    -9320.418   -9736.0565            0    8235.3434    24.862252     24.68002    22.683938    13918.885    7699.7506    8167.5115    8838.7681    -330.9459   -880.59881   -513.88222   -7648.7038 
 6226000    110.11783   -9739.9868   -9320.1674   -9739.9868            0    7700.7882    24.749123    24.759446    22.784798    13961.944    7904.6948    7011.3868    8186.2831   -320.76742    11.184176   -136.58526    -7752.128 
 6227000    111.96057   -9733.9498   -9307.1051   -9733.9498            0    8015.1073    24.694229    24.691151    22.881396    13951.449    8603.6659    8153.4833    7288.1727   -405.36255   -851.69927   -191.44333   -7676.2906 
 6228000    114.44278   -9745.7231    -9309.415   -9745.7231            0    6922.4773    24.710331    24.785571    22.816193    13973.998    7375.4715    6783.1031    6608.8574     43.22402   -488.07993    50.605299   -7898.6389 
 6229000    111.22927    -9755.095   -9331.0383    -9755.095            0    6875.6825    24.658866    24.888984    22.771425    13975.601    8374.3104    5375.9143    6876.8227    112.46551   -738.05088     668.4655   -7929.6381 
 6230000    112.74852   -9744.2798    -9314.431   -9744.2798            0    7831.2246    24.747709    24.805544     22.72087    13947.897    7060.9546    7667.6569    8765.0623   -335.25939    391.90915   -184.48972   -7721.4364 
 6231000    111.45639   -9730.8975   -9305.9749   -9730.8975            0    7608.6016    24.753174    24.797396    22.757973    13969.168    8169.0148     6548.274    8108.5161   -374.50021    484.71752   -366.94188    -7755.905 
 6232000    111.83878   -9737.0217   -9310.6413   -9737.0217            0    7614.3751    24.734567    24.743698    22.792497     13949.57    7838.7065    7431.2795    7573.1394    152.38331   -4.5231959    374.11851   -7761.5715 
 6233000    110.45663   -9730.8164   -9309.7053   -9730.8164            0    6366.9478    24.726719     24.71403    22.962755    14032.468    5852.1733    7630.1938    5618.4764   -148.78148    45.892618    -294.7636   -8006.7149 
 6234000     113.2534   -9744.6905   -9312.9168   -9744.6905            0    7688.1168    24.718022    24.772654    22.806462    13965.104    8235.0337    7397.6075    7431.7091    36.454232    186.34039   -363.54042   -7747.1033 
 6235000    108.82454   -9748.7138    -9333.825   -9748.7138            0    7152.7626    24.805804    24.806295    22.698516    13967.307    6721.3011    7184.2989    7552.6879   -451.39179   -80.529179     818.0471   -7876.8155 
 6236000    108.33077   -9723.0494   -9310.0431   -9723.0494            0    7553.1352    24.764064    24.781259    22.785421    13983.064    7516.2381    7965.7322    7177.4353    556.45995   -527.78345    208.63626   -7769.7425 
 6237000    108.90251   -9744.5237   -9329.3376   -9744.5237            0      7747.12    24.667933    24.754208    22.849271    13952.568      8895.87    7185.0115    7160.4786    164.58463   -814.96139    62.820998   -7752.9235 
 6238000    114.36051   -9731.5308   -9295.5364   -9731.5308            0       7206.6    24.679163    24.793617    22.858815    13986.983    8332.7886    6946.1336    6340.8779   -179.03328    118.31641    -53.57897   -7825.4923 
 6239000    112.75207   -9740.3383    -9310.476   -9740.3383            0    7903.8864    24.723698    24.722337    22.817166    13946.481    7140.5409    8561.8287    8009.2895   -82.515191    100.48461   -724.39889    -7702.864 
 6240000    110.99741   -9730.9641   -9307.7914   -9730.9641            0    7075.8489    24.816537      24.7819    22.745493      13988.5    5945.3799    7208.5821    8073.5847   -535.98752     165.1384   -28.291574   -7864.2621 
 6241000    109.01765   -9732.6016   -9316.9766   -9732.6016            0     6746.906    24.820168    24.763712    22.807035    14018.105    6478.2775    6596.1556    7166.2849   -573.51477    515.76244    350.04239   -7937.6414 
 6242000    110.69147   -9724.6357   -9302.6294   -9724.6357            0    8255.4012    24.715286    24.703011    22.811769    13927.543    7386.4715    9794.9466    7584.7854    104.48969   -830.45715    593.38822   -7625.8012 
 6243000    108.58943   -9737.7987   -9323.8063   -9737.7987            0     6981.137    24.726048     24.76408    22.846173    13989.119    7100.1729    6895.0014    6948.2367    8.7866563   -218.70123    476.28947    -7899.536 
 6244000    108.49225   -9744.5919     -9330.97   -9744.5919            0    7548.7914    24.599702    24.776287    22.914067    13965.879    8883.4138    7234.9069    6528.0534   -163.89931    53.296209    1038.0387   -7793.4472 
 6245000    113.04336   -9748.2521   -9317.2793   -9748.2521            0    7885.7266    24.756669    24.760509    22.758324    13950.574    7746.6612    7796.3996    8114.1191    83.793489   -387.20448   -771.23185   -7712.8903 
 6246000    106.75061   -9736.3873   -9329.4052   -9736.3873            0     7175.719    24.773586    24.787574     22.73245    13959.477    7288.9943    6745.8641    7492.2986   -157.44126    327.57029     282.0268    -7868.539 
 6247000    116.43044   -9740.0103   -9296.1244   -9740.0103            0    7980.1193    24.651771    24.740858    22.881774     13955.73    9026.7171      7585.49    7328.1507    237.78645   -238.40929    486.88176   -7671.9307 
 6248000    108.78727   -9747.8191   -9333.0724   -9747.8191            0    7761.7148    24.678738    24.758682     22.82399    13945.755    7694.7484    8100.5488    7489.8473   -311.82762     136.1804   -379.98578   -7754.4596 
 6249000    105.46531   -9750.4929    -9348.411   -9750.4929            0    7598.6071    24.721997    24.728869    22.834027    13959.514    7452.2609      8279.79    7063.7705   -60.478849    753.31901   -625.05394   -7801.4471 
 6250000    115.52166   -9743.2762   -9302.8549   -9743.2762            0     7861.141    24.703313    24.772084    22.791543    13947.343    8016.2828    7800.7776    7766.3625   -555.14895    -369.4671    1540.5457   -7703.8384 
Loop time of 463.676 on 64 procs for 250000 steps with 1920 atoms

Performance: 93.169 ns/day, 0.258 hours/ns, 539.170 timesteps/s
195.4% CPU use with 32 MPI tasks x 2 OpenMP threads

MPI task timing breakdown:
Section |  min time  |  avg time  |  max time  |%varavg| %total
---------------------------------------------------------------
Pair    | 71.215     | 73.107     | 76.508     |  16.4 | 15.77
Bond    | 0.8051     | 1.0043     | 1.4378     |  12.2 |  0.22
Kspace  | 208.98     | 215.17     | 219.58     |  20.3 | 46.40
Neigh   | 0.17335    | 0.18355    | 0.19579    |   1.4 |  0.04
Comm    | 66.16      | 70.647     | 75.641     |  27.5 | 15.24
Output  | 0.50433    | 0.50471    | 0.50619    |   0.1 |  0.11
Modify  | 78.379     | 84.52      | 89.461     |  32.2 | 18.23
Other   |            | 18.54      |            |       |  4.00

Nlocal:        60.0000 ave          63 max          57 min
Histogram: 2 0 0 8 0 11 9 0 1 1
Nghost:        3529.44 ave        3565 max        3510 min
Histogram: 5 4 5 3 6 5 2 0 1 1
Neighs:        21801.3 ave       22955 max       20853 min
Histogram: 1 2 3 7 6 5 6 1 0 1

Total # of neighbors = 697641
Ave neighs/atom = 363.35469
Ave special neighs/atom = 2.0000000
Neighbor list builds = 390
Dangerous builds = 0

unfix		3
unfix		2
unfix		1

write_data	data.final.${pid}
write_data	data.final.1
System init for write_data ...
PPPM initialization ...
  extracting TIP4P info from pair style
  using 12-bit tables for long-range coulomb (../kspace.cpp:340)
  G vector (1/distance) = 0.37511145
  grid = 30 30 30
  stencil order = 5
  estimated absolute RMS force accuracy = 0.0031949236
  estimated relative force accuracy = 9.6214175e-06
  using double precision FFTW3
  3d grid and FFT values/proc = 5400 960
Last active /omp style is kspace_style pppm/tip4p/omp
WARNING: Not all mixed pair coeffs generated from mixing. Use write_data with 'pair ij' option to store all pair coeffs. (../write_data.cpp:312)

write_restart   restart.lmp.${pid}
write_restart   restart.lmp.1
System init for write_restart ...
PPPM initialization ...
  extracting TIP4P info from pair style
  using 12-bit tables for long-range coulomb (../kspace.cpp:340)
  G vector (1/distance) = 0.37511145
  grid = 30 30 30
  stencil order = 5
  estimated absolute RMS force accuracy = 0.0031949236
  estimated relative force accuracy = 9.6214175e-06
  using double precision FFTW3
  3d grid and FFT values/proc = 5400 960
Last active /omp style is kspace_style pppm/tip4p/omp
Total wall time: 0:07:43
