#include		in.partitions
include		in.temp
variable        temperature equal 175.22
variable	tempDamp equal 100.0
include		in.pressure
variable        pressure equal 1782.6
variable        pressureDamp equal 1000.0 # This is 1 ps
include		in.seed
variable        seed equal 745823

units		real
atom_style	full
#include		in.box
read_restart	restart.lmp.${pid}
read_restart	restart.lmp.0
Reading restart file ...
  restart file = 30 Jul 2021, LAMMPS = 30 Jul 2021
  restoring atom style full from restart
  orthogonal box = (0.081205117 0.10728501 0.070156427) to (18.126367 23.521893 22.143039)
  2 by 4 by 4 MPI processor grid
  restoring pair style lj/cut/tip4p/long/omp from restart
  restoring bond style harmonic/omp from restart
  restoring angle style harmonic/omp from restart
  864 atoms
  576 bonds
  288 angles
Finding 1-2 1-3 1-4 neighbors ...
  special bond factors lj:    0        0        0       
  special bond factors coul:  0        0        0       
     2 = max # of 1-2 neighbors
     1 = max # of 1-3 neighbors
     1 = max # of 1-4 neighbors
     2 = max # of special neighbors
  special bonds CPU = 0.002 seconds
  read_restart CPU = 0.007 seconds
include 	in.setup
variable	out_freq equal 1000
variable	out_freq2 equal 10000
variable	out_freq3 equal 1000

timestep	2.0

neigh_modify    delay 7 every 1

include		in.tip4p
# This is TIP4P/Ice

# create groups ###
group ox type 2
288 atoms in group ox
group hy type 1
576 atoms in group hy

# set charges - beside manually ###
set group ox charge -1.1794
Setting atom values ...
  288 settings made for charge
set group hy charge 0.5897
Setting atom values ...
  576 settings made for charge

# ### TIP3P Potential Parameters ###
pair_style lj/cut/tip4p/long/omp 2 1 1 1 0.1577 8.5
pair_coeff 1 1*2 0.000 0.000
pair_coeff 2 2 0.21084 3.1668
bond_style  harmonic
bond_coeff  1 450 0.9572
angle_style harmonic
angle_coeff 1 55 104.52
kspace_style pppm/tip4p/omp 1.0e-5
pair_modify tail yes

thermo          ${out_freq}
thermo          1000
thermo_style    custom step temp pe etotal epair emol press lx ly lz vol pxx pyy pzz pxy pxz pyz enthalpy

restart 	${out_freq3} restart.lmp.${pid} restart2.lmp.${pid}
restart 	1000 restart.lmp.${pid} restart2.lmp.${pid}
restart 	1000 restart.lmp.0 restart2.lmp.${pid}
restart 	1000 restart.lmp.0 restart2.lmp.0


include         in.dump
dump            myDump all atom ${out_freq2} dump.water.${pid}
dump            myDump all atom 10000 dump.water.${pid}
dump            myDump all atom 10000 dump.water.0
dump            myDump2 all dcd ${out_freq2} dump.dcd
dump            myDump2 all dcd 10000 dump.dcd
dump_modify     myDump append yes
dump_modify     myDump2 append yes


variable natoms 	equal  "count(all)"                        # NUMBER ATOMS
variable H      	equal  "enthalpy/v_natoms"                 # ENTHALPY-per-atom
variable Vol      	equal  "vol/v_natoms"                 # volume-per-atom
fix AVG all 		ave/time ${out_freq} 1 ${out_freq} v_Vol v_H file vol_enthalpy.dat
fix AVG all 		ave/time 1000 1 ${out_freq} v_Vol v_H file vol_enthalpy.dat
fix AVG all 		ave/time 1000 1 1000 v_Vol v_H file vol_enthalpy.dat


timer           timeout 23:50:00 every 1000
New timer settings: style=normal  mode=nosync  timeout=23:50:00

fix 		1 all shake 1e-6 200 0 b 1 a 1
       0 = # of size 2 clusters
       0 = # of size 3 clusters
       0 = # of size 4 clusters
     288 = # of frozen angles
  find clusters CPU = 0.000 seconds
fix             2 all nph aniso ${pressure} ${pressure} ${pressureDamp}
fix             2 all nph aniso 1782.6 ${pressure} ${pressureDamp}
fix             2 all nph aniso 1782.6 1782.6 ${pressureDamp}
fix             2 all nph aniso 1782.6 1782.6 1000
fix             3 all temp/csvr ${temperature} ${temperature} ${tempDamp} ${seed}
fix             3 all temp/csvr 175.22 ${temperature} ${tempDamp} ${seed}
fix             3 all temp/csvr 175.22 175.22 ${tempDamp} ${seed}
fix             3 all temp/csvr 175.22 175.22 100 ${seed}
fix             3 all temp/csvr 175.22 175.22 100 745823


run             250000
PPPM initialization ...
  extracting TIP4P info from pair style
  using 12-bit tables for long-range coulomb (../kspace.cpp:340)
  G vector (1/distance) = 0.37154554
  grid = 24 27 25
  stencil order = 5
  estimated absolute RMS force accuracy = 0.003176707
  estimated relative force accuracy = 9.5665588e-06
  using double precision FFTW3
  3d grid and FFT values/proc = 4410 672
Last active /omp style is kspace_style pppm/tip4p/omp
Neighbor list info ...
  update every 1 steps, delay 7 steps, check yes
  max neighbors/atom: 2000, page size: 100000
  master list distance cutoff = 10.8154
  ghost atom cutoff = 10.8154
  binsize = 5.4077, bins = 4 5 5
  1 neighbor lists, perpetual/occasional/extra = 1 0 0
  (1) pair lj/cut/tip4p/long/omp, perpetual
      attributes: half, newton on, omp
      pair build: half/bin/newton/omp
      stencil: half/bin/3d
      bin: standard
Per MPI rank memory allocation (min/avg/max) = 10.19 | 10.20 | 10.23 Mbytes
Step Temp PotEng TotEng E_pair E_mol Press Lx Ly Lz Volume Pxx Pyy Pzz Pxy Pxz Pyz Enthalpy 
15500000    180.34716   -4389.8996   -4080.7907   -4389.8996            0    1037.5382    18.045162    23.414608    22.072883    9326.2432    1098.3589    194.77548    1819.4803    552.18745   -160.87835   -625.88363   -3939.6713 
15501000    174.64688   -4409.6957   -4110.3569   -4409.6957            0    1365.0365    17.920908    23.572039    21.965339      9278.87    524.50071    1311.1855    2259.4234   -451.51182    327.11459   -614.55711   -3925.6363 
15502000    175.05412    -4413.872   -4113.8352    -4413.872            0    2170.0636    18.238172    23.160225    21.982592    9285.4503   -287.58006    2707.4206    4090.3504   -254.78929    81.816172   -425.85655   -3819.9679 
15503000    182.37359   -4427.4877   -4114.9056   -4427.4877            0    2202.5559    17.847075    23.342178     22.13263    9220.2238    2868.9861    1664.2474    2074.4341    34.055085    1060.4813   -25.708592   -3818.7334 
15504000    158.15006   -4414.2734   -4143.2096   -4414.2734            0    1849.3349     18.05281    23.267136    22.034281    9255.2176    1712.5684    1599.5116    2235.9247    620.33576   -218.66325    212.79721   -3893.5903 
15505000    177.36881   -4410.7022   -4106.6981   -4410.7022            0    1091.5825    18.129521    23.493366    21.921932    9337.0654    870.82414    362.87619     2041.047   -738.39109   -7.5091696    378.36688   -3958.0557 
15506000    177.49361   -4406.7421   -4102.5242   -4406.7421            0    2048.4296    17.994097     23.49257    21.926456    9268.9176    1143.5737    2427.7925    2573.9226    36.452637    90.479675    603.86646   -3825.6222 
15507000    172.88477   -4408.7614   -4112.4429   -4408.7614            0     1928.412    17.923347    23.151391    22.285404    9247.3379    2096.5728    2323.9685    1364.6946    1094.9548   -88.081342   -218.87725   -3852.3716 
15508000    184.91976   -4415.9997   -4099.0536   -4415.9997            0    1925.3522    17.963254    23.372867     21.94588    9214.0381    1225.2169    2920.3228    1630.5168   -324.17171    821.98274    232.21584     -3840.33 
15509000    184.94914   -4407.9645    -4090.968   -4407.9645            0    2433.8073    17.925454    23.245723    22.161131    9234.3249    2187.9176    2716.3577    2397.1467    316.74537   -215.69172   -250.31212   -3763.1995 
15510000    175.48263   -4410.6055   -4109.8343   -4410.6055            0    2051.6324    18.056393    23.428883    21.923231    9274.4282    2174.9414    2099.9005    1880.0551    1155.0129   -604.12657    416.69791   -3832.3346 
15511000    176.45923   -4418.2968   -4115.8517   -4418.2968            0    2175.4908    18.034433    23.435831    21.856523     9237.702    2079.1398    1338.3334    3108.9992   -304.76854   -383.14939    235.62466   -3822.7643 
15512000    187.36454   -4408.0107   -4086.8743   -4408.0107            0    1053.9613    17.981923    23.281804    22.195538    9292.1977    2101.1392    369.18078    691.56401   -6.1512666    298.68233    300.74042   -3944.0444 
15513000    174.06865   -4398.4999   -4100.1522   -4398.4999            0    1490.7165    17.953093    23.620639    21.993601    9326.6838    1761.2569    1002.3633    1708.5292   -563.28387   -230.82331    468.74098   -3897.3848 
15514000    165.88286   -4413.7988   -4129.4813   -4413.7988            0    1495.1993    18.101186    23.367663    21.960477    9288.8955    1962.1515     1178.808    1344.6383    2.3734719    -19.13711   -64.009666   -3926.9281 
15515000    178.23854   -4416.5193   -4111.0245   -4416.5193            0     1125.098    17.891751    23.406336    22.186618    9291.3194    1062.7299    1677.0594    635.50475   -100.21264   -298.90636   -363.38799   -3958.5688 
15516000    181.03165    -4421.939    -4111.657    -4421.939            0    1562.8933    18.014387    23.358601    21.981301    9249.5312     1394.797    2065.2632    1228.6198   -11.893801   -370.31943    589.96039   -3900.8306 
15517000    177.69697   -4410.6778   -4106.1113   -4410.6778            0    2433.2115    18.105946    23.274803    21.880158    9220.5683    1528.8992    2638.8801    3131.8551   -79.121014   -1279.8097    196.95718   -3778.9112 
15518000    172.17575    -4429.989   -4134.8856    -4429.989            0    2077.1559    17.873669    23.317977    22.114301    9216.7495    2221.0537    2514.3882    1496.0256    -733.4825    176.05766   -362.50219   -3855.6809 
15519000    176.82013   -4415.9845   -4112.9209   -4415.9845            0    2094.1109    18.133736     23.36834    21.766892    9223.8358    3113.8387    1558.5258    1609.9682     124.8712    494.19733   -214.29092   -3831.2207 
15520000    177.07393    -4434.231   -4130.7324    -4434.231            0    2102.4108    17.978597    23.416975    21.967059    9248.2273    3221.5173    2016.2844    1069.4307     379.4515    164.24123    10.657972   -3847.1678 
15521000      172.832   -4423.8089   -4127.5808   -4423.8089            0    916.21366    18.018468    23.388744    22.117089    9320.7904    1825.3014    1162.6139   -239.27429    582.65417    346.56783   -483.34028   -4003.0361 
15522000    185.67873   -4421.8105   -4103.5635   -4421.8105            0    619.21955    18.079168    23.445835    21.906458    9285.7353    469.36265    1008.4925    379.80346    24.217132    337.85702    177.34634    -4019.707 
15523000    166.57762   -4414.9095   -4129.4012   -4414.9095            0    2002.3768    17.796908    23.328792    22.270372    9246.2208    2361.3235     2952.001    693.80585    176.13344    126.01294    305.91617   -3859.3874 
15524000    192.62517   -4407.8373   -4077.6843   -4407.8373            0    2475.6697    18.057037      23.3924    21.868707    9237.2855     1736.109    2187.4091    3503.4911    -960.4672    1.3426727    561.11591   -3744.1712 
15525000    173.99045   -4405.8986   -4107.6849   -4405.8986            0    1156.6336    17.976715    23.442493    21.990394    9267.1697    952.99699    1649.9444    866.95945    867.71106    592.83136    16.519135   -3951.3634 
15526000    177.54912   -4391.8636   -4087.5505   -4391.8636            0    2785.4969    18.004503    23.208396    21.946879    9170.6269    3112.1922    2461.7815    2782.5168   -89.303945   -589.43551   -126.06318   -3715.0065 
15527000    170.87149    -4386.904   -4094.0361    -4386.904            0    2118.8497    17.976516    23.540213    21.816631    9232.1658    2891.8742    1325.6622    2139.0128   -1255.8099   -310.97787   -156.64951   -3808.7506 
15528000    166.05808   -4408.1421   -4123.5242   -4408.1421            0     2164.745    18.007741    23.151614    22.170178    9242.9305    2231.0466    3182.0354    1081.1529   -577.48077   -76.596656   -736.75873   -3831.7195 
15529000    173.90646   -4432.9456   -4134.8759   -4432.9456            0    1938.6408    17.840854    23.412094    22.047271    9208.9632    1877.4785     928.9197    3009.5242   -360.50149     372.3407   -743.34102   -3874.5101 
15530000    175.81033   -4396.7163   -4095.3834   -4396.7163            0    2396.2823    18.115116    23.117945    21.977143    9203.6813    1629.9803    3009.4633    2549.4032     636.9464   -579.66698   -346.12758   -3773.7394 
15531000    181.20231   -4398.9917   -4088.4172   -4398.9917            0    1501.1582    17.991453     23.48708    21.988391    9291.5615    636.02107    2477.5747    1389.8788   -221.10809   -855.86009     -519.503   -3884.9984 
15532000    178.67278   -4412.1438   -4105.9048   -4412.1438            0    1911.8577    18.027042     23.33144    21.995481    9251.2299    1264.8591    2455.1185    2015.5953   -411.36515    275.50091    600.22374   -3847.9576 
15533000    173.82688   -4408.3401   -4110.4067   -4408.3401            0    1841.7927    18.010641    23.370366    22.018041    9267.7292    2783.5881    1452.8353    1288.9546   -765.39996    426.70598     267.0423   -3861.4694 
15534000    168.42338   -4420.4924   -4131.8205   -4420.4924            0      1759.14    17.930466    23.490997    22.011373    9271.2899    2156.8966    2402.1804      718.343   -123.16828   -288.97648   -26.599421   -3893.9632 
15535000     171.6317   -4434.1576   -4139.9868   -4434.1576            0    1824.7984    18.068102    23.335915    21.914212    9239.8137    728.94053    2208.9579    2536.4968   -228.95665    336.91362    130.80151   -3894.0893 
15536000    176.18768   -4432.5215   -4130.5419   -4432.5215            0    1234.5471    17.887177    23.515143     22.03211    9267.1354    1662.5444    760.22544    1280.8714   -49.574384    536.56403   -31.210902   -3963.6908 
15537000    177.07355   -4410.0674   -4106.5693   -4410.0674            0    1474.2227    18.150233    23.252236    22.004333    9286.5657    1289.0775    1655.4373    1478.1533   -980.18871    227.80311    263.77009   -3906.9079 
15538000    175.86653   -4416.3785   -4114.9493   -4416.3785            0    2437.1277    17.866453     23.50191    21.932259    9209.2628    1987.0291    3210.9919    2113.3622   -121.21638    127.72399   -6.1984627   -3787.6244 
15539000    169.42075   -4400.7175   -4110.3362   -4400.7175            0    1546.3653    18.096328    23.315645    21.974995    9271.8558    893.37677    1266.0347    2479.6845    412.12004   -336.38393    341.10647   -3901.2359 
15540000     170.1831   -4410.3874   -4118.6994   -4410.3874            0    2369.6791    17.817899     23.53292    22.047109    9244.5112    1962.1844    1228.1991    3918.6537    587.38164    798.90054    508.91942   -3799.2152 
15541000    167.51768   -4411.4317   -4124.3122   -4411.4317            0    930.98096    18.105619    23.349992    21.951032    9280.1511    365.77335    333.94023    2093.2293    853.77131   -346.34091    215.63809   -3998.3118 
15542000    170.82895   -4413.6813   -4120.8863   -4413.6813            0   0.71691315    17.977322    23.524863    22.028538    9316.1775   -275.79584    580.82235   -302.87577   -503.77676    328.13843    -468.3107   -4120.7889 
15543000    184.61857   -4420.0864   -4103.6565   -4420.0864            0    2465.2691    18.080817    23.235825    21.970529    9230.3179    2180.2094    3731.5575    1484.0405    27.976339    208.69129    341.89013    -3771.795 
15544000    178.10506   -4409.7313   -4104.4653   -4409.7313            0    1543.9101    18.090966    23.363633    21.979981    9290.2939    1075.6502     1899.141    1656.9391    226.35101   -643.24186   -531.77685   -3895.2819 
15545000     164.8247   -4426.4845   -4143.9806   -4426.4845            0    2748.1673    17.848416    23.353217    22.024971    9180.4029    3304.2375    3152.5097    1787.7547    308.57863    310.76022    383.90451   -3776.0374 
15546000     187.0801   -4424.8801   -4104.2312   -4424.8801            0    986.39138    18.029954    23.390969     22.07551    9310.0833    1376.6931    1790.8056   -208.32458    52.015449    449.50234   -998.29056    -3970.301 
15547000    166.00296   -4410.0402   -4125.5168   -4410.0402            0     1522.875    18.087744    23.381616     21.88348    9254.9764    1668.2633    293.33697    2607.0249    423.18018   -283.23762   -483.78103   -3919.9677 
15548000    180.32439   -4417.1904   -4108.1206   -4417.1904            0    2069.7689    17.920522    23.225823    22.204935    9242.1132    1871.3731    1843.0675     2494.866   -62.347882   -290.40605    283.45748   -3829.1432 
15549000    169.31104   -4397.6652   -4107.4719   -4397.6652            0    19.950451    17.878058    23.723572    22.106366    9376.0045    1231.0336   -309.69742   -861.48487    488.86476    386.57156    283.10386   -4104.7439 
15550000     175.5833   -4424.7067   -4123.7629   -4424.7067            0     2211.063     18.13666    23.280714    21.877509    9237.4364    1927.5074    1613.9793    3091.7023    602.23974   -1216.1234    122.46549   -3825.8917 
15551000    163.85634   -4375.6048   -4094.7606   -4375.6048            0     2295.322    17.889136    23.573666    21.856148    9217.0107    2646.9168    1295.2598    2943.7894   -555.88768   -513.84586    56.378119   -3786.2219 
15552000    175.44114   -4417.5788   -4116.8787   -4417.5788            0    1799.4795    18.102569    23.228614    22.093328    9290.1912    1638.7013    1912.4485    1847.2887    529.05974     227.3094   -23.968782   -3873.0709 
15553000     175.1061   -4423.0554   -4122.9295   -4423.0554            0    3409.4543    17.770454    23.547971    21.940592    9181.2192    4066.7117    2703.1243    3458.5268    292.84982   -306.82433    1043.2547   -3666.4081 
15554000    178.15772   -4402.2804   -4096.9241   -4402.2804            0    2893.5298     18.10292    23.147285    22.056659    9242.4777    3195.4782    3759.3599    1725.7513   -1131.3988    143.23949   -354.15414   -3706.8993 
15555000    169.47312   -4408.2245   -4117.7533   -4408.2245            0    832.68461    17.899915    23.616338    22.039425    9316.7356    1480.8129    988.35485    28.886086    60.045916     67.18106    571.83153   -4004.6123 
15556000     174.5795    -4387.392   -4088.1688    -4387.392            0     2429.742    18.047558     23.09101    22.098843    9209.3906    2493.0519    3293.8783    1502.2958    470.17964   -104.25145    187.17864   -3761.8313 
15557000     173.5475   -4411.4765    -4114.022   -4411.4765            0    2204.0634     17.97459    23.425146    22.027776    9274.9583    2051.7504    2747.3134    1813.1264    63.425241   -484.60763    1028.7363   -3815.8877 
15558000    185.50289    -4430.376   -4112.4303    -4430.376            0    2303.3409    17.930573    23.485721    21.967089    9250.6141    2958.0325    2963.8501    988.14012    326.75803    567.76725   -439.04702    -3801.685 
15559000    172.48312   -4409.4081   -4113.7779   -4409.4081            0     1919.664    18.091593    23.393207    21.910454    9272.9505    1676.8901    650.77451    3431.3274    26.546909   -9.8752697    646.78193   -3854.1693 
15560000    169.79559    -4423.998   -4132.9742    -4423.998            0     1546.399    17.674259    23.583334    22.197635    9252.3725    908.19987    1451.7654    2279.2318   -251.29406   -160.57094    394.94289   -3924.3087 
15561000    174.77963   -4418.6391   -4119.0728   -4418.6391            0    927.71774    18.091398    23.442806    22.018583    9338.3704    2067.6504    667.59465    47.908151    604.18039   -702.31951   -858.57188   -3992.7264 
15562000    183.88498   -4418.2984   -4103.1258   -4418.2984            0    1565.0227    17.976556    23.482903    21.985736    9281.0964    2018.4138    1164.6072    1512.0471   -712.83435    439.11429     514.4657   -3891.2918 
15563000    188.05096   -4410.3329     -4088.02   -4410.3329            0    1892.1043    18.160356    23.137359    22.082111    9278.5203    1526.3631    2527.4608     1622.489    852.93383    10.198149    -19.98082   -3831.9848 
15564000       170.35     -4412.56   -4120.5859     -4412.56            0    1592.7459    17.997176     23.61087    21.883043    9298.7391    1140.8106    550.04257    3087.3845    17.820802   -348.73113   -89.186876   -3904.5895 
15565000    172.10593   -4430.0853   -4135.1016   -4430.0853            0    2156.1263    17.985817    23.257607    22.078547    9235.6117    2481.3405    3342.7782    644.26035    306.68943    131.01452    61.286951   -3844.6888 
15566000    181.03766   -4407.3893   -4097.0969   -4407.3893            0    2195.7917    17.890825    23.581781    21.886855    9234.0093    3220.3088    1495.0419    1872.0244   -80.282622   -544.35404    -431.3014   -3801.3928 
15567000    171.70188   -4436.8409   -4142.5498   -4436.8409            0    1489.0963    18.086861     23.29573    21.997471    9268.5603    1639.2494    1251.6171    1576.4226    279.65148   -252.88691   -34.585038    -3941.265 
15568000    174.27646   -4415.4394   -4116.7355   -4415.4394            0    446.77559    17.804282    23.668927    22.064505    9298.1644    1626.0447    105.35484   -391.07276    -398.9613   -273.60425    289.22054   -4056.1509 
15569000    169.07854   -4434.4575   -4144.6626   -4434.4575            0    1032.0902    18.115835    23.230196    21.999829    9258.2844    507.13363    2226.1966    362.94047   -104.59856    300.77766    459.43591   -4005.3071 
15570000    172.36567   -4407.5449    -4112.116   -4407.5449            0    3076.3138    17.802411    23.253126    22.214244    9195.8464    2869.2726    3426.4687       2933.2    -837.7645     14.94457     871.6901   -3699.5454 
15571000    175.82217   -4415.8796   -4114.5264   -4415.8796            0    1558.6528     17.99628    23.386442    21.984698    9252.6766    1397.7744    1503.2588    1774.9252    100.84752    28.686038   -106.54083   -3904.2006 
15572000    183.98856   -4391.2758   -4075.9257   -4391.2758            0    2253.0629     18.02559    23.308845    22.024542    9253.7367    2279.6721    2332.3341    2147.1825   -143.35491    773.51153    371.05439   -3771.8607 
15573000    169.30538   -4427.2043   -4137.0206   -4427.2043            0    1954.7596    17.983474    23.407369     22.01139    9265.6023    1647.1616    2476.8739    1740.2433   -1126.2176   -494.71377    264.30024   -3872.8753 
15574000    177.93621    -4422.158   -4117.1814    -4422.158            0    1591.9752    18.183183    23.438307    21.750411     9269.656   -266.98513    1339.0964    3703.8143    149.27917   -377.81558    210.11746   -3901.9648 
15575000    177.26791   -4424.1214   -4120.2902   -4424.1214            0    2945.1343    17.843667    23.421906    22.033787      9208.64    2901.7293    2548.6285    3385.0452    141.39735    -378.6022    220.20155   -3724.7629 
15576000    168.15381   -4404.8389    -4116.629   -4404.8389            0    1441.0407    18.192031    23.210425    22.005687    9291.7859      1544.38    1574.5554    1204.1868   -1146.9746    39.302692    59.633189   -3921.3519 
15577000    170.91344   -4424.0072   -4131.0674   -4424.0072            0    1312.1883    17.904803    23.594051    22.004706    9295.8186    2621.3676    886.42804    428.76916    523.59217   -405.41587     182.5732   -3953.1741 
15578000    184.51981   -4399.8765   -4083.6159   -4399.8765            0    1463.4501     18.04367    23.216358    22.134708    9272.4129    504.81787    695.05407    3190.4784    123.70049    79.964449   -246.74514   -3885.7155 
15579000    170.52549   -4415.8925   -4123.6176   -4415.8925            0    1125.0925    17.978655    23.552467    21.999445     9315.482    1136.5894    1160.2402     1078.448    342.00273    -62.24353   -227.92268   -3970.7662 
15580000     182.8202   -4402.6374   -4089.2898   -4402.6374            0    2023.5877    18.050601    23.387942    21.996811    9286.3148    1555.2925    1860.1542    2655.3165   -1139.6555   -421.65231    96.955315   -3815.2326 
15581000    175.96707    -4414.926   -4113.3245    -4414.926            0    2082.8174    17.919957    23.480785    22.010971    9261.6586    1744.7869    2338.6529    2165.0123   -273.57364     104.3982    333.97478   -3831.9946 
15582000     174.2003   -4429.4784    -4130.905   -4429.4784            0    2865.0524    18.054687    23.311144    21.887077    9211.7325    3408.9919    2531.0047    2655.1605   -598.98751   -83.827549    31.229326   -3746.0034 
15583000    161.32488   -4408.1139   -4131.6085   -4408.1139            0    441.90974     18.12263    23.419522    21.945535    9314.1966   -1017.7962   -162.54224    2506.0676   -966.28869   -256.42785    -219.3822   -4071.5804 
15584000    183.78851   -4400.7116   -4085.7044   -4400.7116            0    2007.8203    17.863748    23.429422    22.116702    9256.6646    2677.7901    2352.4593    993.21157    -92.00758    14.596107    308.03369   -3814.6507 
15585000    173.11096   -4413.4632   -4116.7569   -4413.4632            0    1788.1712     18.19895    23.291126    21.832492    9254.2265     834.3565    3298.2613    1231.8958    621.41934   -1.8720745   -205.13457   -3875.4193 
15586000    172.32199   -4410.6964   -4115.3424   -4410.6964            0    2076.6132    17.900133    23.527569    21.945211    9242.1515    1982.2368    806.22169    3441.3811   -94.083795   -197.32186    56.249783   -3835.4413 
15587000     173.5318   -4423.9252   -4126.4976   -4423.9252            0    1138.8227    18.065431    23.405389    22.000384    9302.3881    493.40332    1978.1315    944.93336    1357.3718    381.56244     114.2892   -3971.9983 
15588000    176.93327   -4396.1226    -4092.865   -4396.1226            0    1763.2977    18.152161    23.159866    22.014592      9254.97      1025.17    2164.1801    2100.5431    235.93264   -363.49609   -370.18048   -3854.8653 
15589000    166.26363   -4426.2623   -4141.2921   -4426.2623            0    719.37687    17.857082    23.615985    22.138518    9336.0918    1003.2522    -416.1003    1570.9787    632.18871   -53.996728   -869.32635   -4043.3437 
15590000    182.89477   -4426.6234   -4113.1481   -4426.6234            0    1871.2475    18.037133    23.343996    21.910343     9225.542     3009.934    1299.8416     1303.967   -85.957984    330.13689   -255.25893   -3861.3809 
15591000    171.69042   -4428.4934   -4134.2219   -4428.4934            0     1630.634    18.081167     23.44019    21.847019    9259.3344    802.76912    2320.5269     1768.606    51.995468   -157.86802   -419.98624   -3914.0245 
15592000    179.23967   -4412.6608   -4105.4501   -4412.6608            0    2778.7905    17.991041    23.412981    21.894937    9222.6707    2355.8767    3229.1343    2751.3603   -1347.0781   -324.97805    188.69635   -3731.6939 
15593000    169.12238   -4418.4635   -4128.5936   -4418.4635            0    2356.0894    17.745561    23.289192    22.285802     9210.271    2264.2866    2930.2884    1873.6933   -1132.0983    217.27681    143.48508   -3812.1181 
15594000    169.16915   -4410.4969   -4120.5468   -4410.4969            0    2331.2443    18.046773    23.350145    21.944709    9247.3852    2565.9793    3118.9074    1308.8462    -100.2358   -238.25842    27.154149   -3806.1467 
15595000    171.98978    -4423.889   -4129.1044    -4423.889            0    1028.9736    18.071388    23.490465    21.904806    9298.7064    687.90966    400.83512    1998.1761   -677.49006    140.09873    460.06159   -3989.5631 
15596000    181.05915   -4414.3209   -4103.9917   -4414.3209            0    1223.0896    17.849225    23.463203    22.167906    9283.9189    2941.3914     858.0649   -130.18758    259.10059   -30.959661   -472.70403   -3938.3897 
15597000    177.27174   -4418.0378   -4114.2001   -4418.0378            0    969.29062    18.220025    23.433019    21.841031    9325.0329    94.492617    755.80252    2057.5767   -390.56835    331.94274    127.71877   -3982.3804 
15598000    167.77433   -4422.4999   -4134.9404   -4422.4999            0    1008.6914    18.057802    23.485241    21.938398    9303.8953    896.06819    733.18426    1396.8217   -316.32659   -232.20396    53.979254   -3998.0733 
15599000    170.49536   -4402.8988   -4110.6755   -4402.8988            0    1202.7297    17.926319    23.359084    22.176579    9286.2736    2112.1314    599.25701    896.80076    -862.5464    269.16895   -796.49915   -3947.7889 
15600000    172.58539   -4422.3294    -4126.524   -4422.3294            0    2013.5756    18.141821    23.262278    21.897214    9241.0644    2631.0939    1494.1789    1915.4541    226.64235   -229.26757   -107.75299   -3855.1515 
15601000    168.27547   -4422.9937   -4134.5753   -4422.9937            0    1627.6969    17.810157    23.536645    22.007771    9225.4669    2101.3293    1048.7699    1732.9914   -229.13019   -255.97561    1014.4132   -3915.5785 
15602000     186.2035   -4425.9285   -4106.7821   -4425.9285            0    1924.9273    18.035006    23.262182    22.042873     9247.726    966.75901    3163.9057    1644.1171   -197.53415   -90.505617   -407.49724   -3847.1699 
15603000    176.32989   -4412.2851   -4110.0617   -4412.2851            0    1135.5183    17.969458    23.545119    22.015629    9314.6593    1537.5239    1455.0771    413.95402    35.398415   -397.12758    395.23602   -3955.8075 
15604000    183.07765   -4433.2734   -4119.4845   -4433.2734            0    1681.8598    18.031679     23.28262    22.091912    9274.7308    2302.6557    1358.7768    1384.1469   -188.55515    295.85448    304.02037   -3891.9921 
15605000    176.99518   -4407.1413   -4103.7776   -4407.1413            0    1288.7784     18.09772    23.578648    21.832449    9316.3379    1293.5435    1510.5044    1062.2873   -657.68061    -61.24492     468.4148   -3928.6723 
15606000    177.25222   -4438.9351   -4135.1308   -4438.9351            0    1741.8913    17.879934    23.497725    22.084794     9278.656     2356.347     1038.977    1830.3498    581.95753    24.765524    617.25642   -3899.4187 
15607000    169.88396   -4421.7589   -4130.5836   -4421.7589            0    2414.4083    18.013124    23.323969    22.061114    9268.7021     2509.168    2612.3195    2121.7373   -64.512247    91.007654    713.36141   -3804.2172 
15608000    168.35853   -4403.4456   -4114.8848   -4403.4456            0    315.82735    18.082724    23.602477    21.877605    9337.2981    980.19335    280.01882   -312.73011   -337.08539   -42.871561    142.39591   -4071.8771 
15609000    176.64611   -4427.3413   -4124.5759   -4427.3413            0    944.78768      18.0483    23.157097    22.244912    9297.1772    1690.4947     1261.505   -117.63666   -873.71575    99.759102   -344.57342   -3996.4724 
15610000    169.51983   -4410.2886   -4119.7374   -4410.2886            0    2597.4982    17.953949    23.454221     21.90466    9223.9625    1572.5589    2282.7923    3937.1435   -44.608717    162.34466     86.28012   -3770.3166 
15611000    177.16585   -4413.9052    -4110.249   -4413.9052            0    2433.6646    18.120122    23.216342    22.004314    9256.8394    2593.9922     3349.646    1357.3555    692.94902    70.865534   -526.28188   -3781.7006 
15612000    178.84915     -4421.48   -4114.9387     -4421.48            0    807.49831    17.956472    23.442764    22.170666    9332.7273    717.89803    1333.1059    371.49104   -370.13325    41.231747   -151.63018   -4005.0315 
15613000    170.96438   -4411.3957   -4118.3686   -4411.3957            0    1625.3386     18.05393    23.391356     21.92635    9259.6273    2249.4288    2134.2975    492.28953   -839.29516   -529.62277     86.17145   -3898.8794 
15614000    186.60728    -4409.622   -4089.7835    -4409.622            0    1196.1098    17.917135    23.391508    22.240676    9321.2631    1119.6957    840.02986    1628.6038    447.57511   -1078.9288    484.10829    -3927.183 
15615000      178.477   -4407.5983   -4101.6948   -4407.5983            0    1753.8478    18.029022    23.451996    21.943811    9278.2066     1563.301    2049.5381    1648.7043    329.60687   -484.49529    177.53968   -3864.3762 
15616000     167.0407   -4414.4373   -4128.1353   -4414.4373            0    1128.6283    18.088043    23.452938    21.916371    9297.3134    1450.9422     1395.513    539.42975   -259.47117    395.79667   -66.822819   -3975.1026 
15617000    167.85754   -4421.8499   -4134.1479   -4421.8499            0    2640.4748    17.876897    23.077411    22.333734    9213.8377    2934.7143      2960.65      2026.06    661.71277   -570.51799   -594.66311   -3779.3357 
15618000    169.04682     -4420.47   -4130.7296     -4420.47            0    1595.1318    18.020658    23.395282    21.959383    9258.0402    1008.9911    2022.3745    1754.0298    598.56938     514.7263     29.09657   -3915.3564 
15619000    180.87615   -4418.5413   -4108.5258   -4418.5413            0    1450.8559     17.98125    23.432529    22.029568    9282.0741    1125.1972    1231.0145    1996.3561   -627.41918    596.51183    176.38324   -3912.1241 
15620000    176.87698   -4424.7778   -4121.6167   -4424.7778            0    2706.3537    17.921385    23.110792    22.190283    9190.7138    3307.8928    2398.5376    2412.6306    1271.7608    310.81103    654.87085   -3758.8648 
15621000    174.89749   -4423.7124   -4123.9441   -4423.7124            0    2355.2855    17.986779    23.484476    21.834177    9222.9764    2956.5883    1592.1076    2517.1606      80.4665   -451.30549   -457.38656   -3807.1402 
15622000    173.77398    -4388.158   -4090.3154    -4388.158            0    2301.4184    18.124156     23.27875    21.908167     9243.224     2487.161    2309.9116    2107.1827   -584.28158   -190.22688    592.61505   -3780.0774 
15623000     173.3676   -4438.7829   -4141.6367   -4438.7829            0    617.01428    17.866996    23.399299    22.038983    9213.9518    1136.7359    -467.5959    1181.9028   -69.167547   -573.39817    217.83155   -4058.7248 
15624000    178.60612   -4407.5265   -4101.4018   -4407.5265            0    1337.5397    18.064235    23.412002    21.933654    9276.1788    581.25572    1592.2755    1839.0879   -525.70487    190.51937   -32.405807   -3920.4546 
15625000    177.87849   -4393.1074   -4088.2297   -4393.1074            0    783.15828    18.071026    23.378867    22.122219    9346.1975    214.75348   -696.80227    2831.5236   -519.27386   -89.322793   -177.79957   -3981.4816 
15626000    176.66917   -4419.9104   -4117.1055   -4419.9104            0    1499.1911    17.943263    23.455102    21.979974    9250.5152    2740.6434    1309.4842    447.44576    770.49085   -63.671194   -29.574898   -3914.8507 
15627000    179.08695   -4413.9652   -4107.0163   -4413.9652            0    1931.1321    18.148407    23.186513    21.888742    9210.7451    1470.1172    1798.8094    2524.4697    464.92921    54.528664    763.27702   -3847.6087 
15628000    178.52456   -4421.2528   -4115.2679   -4421.2528            0    2196.7233    17.891534     23.50368     22.03059    9264.2353    1520.0393    1525.5908    3544.5397    312.93848     441.0251    22.137994     -3818.47 
15629000    176.74032   -4397.0485   -4094.1217   -4397.0485            0    636.34841    18.241951     23.37372    21.891863     9334.302    157.31813    610.25677    1141.4703   -348.33368    257.43465    285.28556   -4007.4948 
15630000    167.49738   -4421.7146   -4134.6298   -4421.7146            0    963.55572    17.929639    23.452359    22.065192    9278.2443    1155.2644     1143.913    591.48979    112.82182    61.543046    366.29442   -4004.2475 
15631000    156.28414    -4403.473   -4135.6073    -4403.473            0     2793.516    18.127112    23.142372    21.933705    9201.2852    3747.8821    2405.1145    2227.5515    434.33518    -253.5187   -597.53242   -3760.7417 
15632000    177.32657   -4396.9499   -4093.0183   -4396.9499            0    2062.0811    17.899273    23.559087       21.896    9233.3361    3488.3593    1601.1839    1096.7002    232.14572    556.68397   -74.812633    -3815.341 
15633000    169.51488   -4415.7181   -4125.1754   -4415.7181            0    2392.5883     18.02616    23.238975    22.016141    9222.7699    2076.7269    1867.4441    3233.5938   -88.214267    276.06029     384.7739   -3803.3611 
15634000    168.02414   -4423.7874   -4135.7998   -4423.7874            0    610.39407    18.032823    23.656368    21.876711    9332.4104    1832.4069    69.084117    -70.30878   -483.24644    231.76334    46.431082    -4052.723 
15635000    172.02997   -4436.6492   -4141.7958   -4436.6492            0     1274.671     17.98186    23.306393    22.083199    9254.8986    1677.3306     1440.444    706.23849   -502.24014    859.87636    101.20416   -3969.7493 
15636000    175.95131   -4413.5571   -4111.9825   -4413.5571            0    1810.1342    17.894727    23.323194    22.149259    9244.2627    2219.5701    1758.7348    1452.0977   -359.25676   -910.41526     866.9654   -3867.9437 
15637000    171.32424   -4422.4277   -4128.7838   -4422.4277            0    1695.2247    18.046649    23.447372    21.846024    9244.0682     2181.737    1789.5389    1114.3983    120.64431    117.16134   -772.94813   -3900.2416 
15638000    175.94306    -4417.364   -4115.8036    -4417.364            0    1823.1163    18.065001    23.330581    22.026938    9283.6263    1266.2959    2065.3318    2137.7211    757.88064    598.95853    764.82467   -3868.9679 
15639000    162.74936   -4431.2685   -4152.3217   -4431.2685            0    826.19923     17.86323    23.502494    22.177411    9310.7528    811.18628    2417.4543   -750.04289    572.47475    248.13175   -119.41768   -4040.1339 
15640000    173.87374   -4417.4323   -4119.4187   -4417.4323            0    3170.5441    18.043268    23.380901    21.862822    9223.2222    2399.0624    4175.9442    2936.6256   -358.31851   -368.98455    1050.4156   -3692.9449 
15641000    168.26278   -4423.3999   -4135.0033   -4423.3999            0    2839.7371    17.877257    23.423574    21.908386    9174.1204    3528.3046    2509.7078    2481.1989   -753.79131    -263.4246   -41.710174   -3755.0603 
15642000    172.66092   -4425.2987   -4129.3638   -4425.2987            0    1103.9082    18.067017    23.200011    22.181293    9297.3993    590.11218    1353.2996    1368.3129   -1020.4158   -135.63927    584.76449   -3979.6816 
15643000    166.05236   -4414.7239   -4130.1159   -4414.7239            0    1183.5078    17.993558    23.515441    21.914642    9272.6647    2184.2775    780.78507     585.4607   -503.58085    424.65106    489.64302   -3970.0674 
15644000    180.56493   -4433.8045   -4124.3224   -4433.8045            0    1768.6022    18.064011    23.236006    22.079142    9267.3992    1386.7224    2472.0412     1447.043     -413.292    675.29616   -145.33218   -3885.2861 
15645000    180.49009   -4407.2505   -4097.8966   -4407.2505            0    2844.0011    17.789467     23.58242    21.931776    9200.7899    3300.4252    2303.4901    2928.0878   -73.733705    140.06687     -372.989   -3716.2769 
15646000    174.04511   -4425.5696   -4127.2622   -4425.5696            0    1784.2238    18.149127     23.32299    21.871075    9257.8487    654.50984     2662.214    2035.9476   -704.09047    583.92524    26.608893   -3886.3631 
15647000    169.69397   -4430.0325   -4139.1828   -4430.0325            0    2045.9605    17.820537    23.561508    21.997226    9236.1674    1996.2994    875.41678    3266.1652    -144.7242   -428.53066    69.683672   -3863.5919 
15648000    171.13013   -4432.4509   -4139.1398   -4432.4509            0    1454.7554    18.061285    23.272794    21.979734    9238.8862    1692.3682     691.4414    1980.4566   -1072.3802    -162.0287    -317.0801   -3943.1265 
15649000    178.48347   -4395.4034   -4089.4889   -4395.4034            0    2233.1455    17.883463    23.685293    21.856364    9257.8104    2860.8452   -201.21141    4039.8028    540.20282    132.24528    681.06247   -3787.9792 
15650000    169.37638   -4419.8864   -4129.5811   -4419.8864            0    820.72704    18.109954    23.239413     22.14561    9320.3053    166.25212    1717.4018    578.52721    399.77288    12.640218   -93.903349   -4018.0221 
15651000    178.77554   -4412.1374   -4105.7223   -4412.1374            0    540.36509    17.934773    23.565547    22.077371      9330.84   -812.27153    1009.4517    1423.9151   -119.21863    151.17529   -267.18181    -4032.189 
15652000    163.56153   -4415.6554   -4135.3166   -4415.6554            0    1862.2694    18.185166    23.252014    21.946671    9279.9687    1759.1718    2354.2929    1473.3435    168.79358    -415.1347   -254.94155   -3883.2792 
15653000    178.01049   -4416.6386   -4111.5348   -4416.6386            0    2351.1099    17.912137    23.472038    21.952283    9229.4942    1908.2103    1911.5488    3233.5707   -192.41222   -513.63817     179.7922    -3795.069 
15654000    165.95983   -4416.5747   -4132.1252   -4416.5747            0     1226.322     17.94334     23.30749    22.164353    9269.4475    2525.0913    1644.0881    -490.2135    759.71707   -221.19467    -518.8225   -3966.3444 
15655000    171.25199   -4411.7244   -4118.2044   -4411.7244            0    2382.3789    18.123923    23.291716    21.831454    9215.8706     2087.897    2283.7472    2775.4925    798.94017   -92.475731   -368.17636   -3798.0031 
15656000    160.64516   -4420.0907   -4144.7504   -4420.0907            0    2206.6869     17.89412    23.452407    21.944624    9209.2849    2638.7673    1563.3848    2417.9086   -677.64176   -222.79171    533.61566   -3848.3748 
15657000    174.11136   -4426.6281   -4128.2072   -4426.6281            0    1580.2963     18.20185     23.36467    21.798172    9270.3315    1159.2052    578.88483    3002.7989   -78.378307    -305.3184    271.83911   -3914.5538 
15658000    171.13369   -4420.6664   -4127.3491   -4420.6664            0    2963.9845     17.87094    23.295476    22.065304    9186.0519    2991.3685    4042.2934    1858.2916    28.908184    243.21085    205.15995   -3730.2666 
15659000    179.16969   -4429.9402   -4122.8495   -4429.9402            0    2058.8458    17.976904    23.312056    21.991704    9216.2523    1169.3628    2676.7692    2330.4054   -305.27461    224.18194   -123.45915   -3846.1209 
15660000    184.94652   -4412.9556   -4095.9636   -4412.9556            0    2954.5751    17.980365    23.265714    21.940405    9178.2427    2484.3177    2678.2772    3701.1304    564.96128     259.3942   -644.03124   -3700.4782 
15661000    166.05923   -4425.2506   -4140.6307   -4425.2506            0      2166.38    17.940436    23.344252    22.068721    9242.5142    2939.8596    2354.8315    1204.4488    82.891912    91.408456    120.02776   -3848.6188 
15662000    165.85642   -4408.5508   -4124.2786   -4408.5508            0    1634.7723     18.11317    23.183487    22.025205     9248.966    2207.9189    1378.5414    1317.8567   -367.39051   -298.10647   -520.15203   -3903.7696 
15663000    168.72127   -4404.1151   -4114.9326   -4404.1151            0    2363.7225    17.816946    23.602295    21.872747    9197.9455    3766.5926     1563.294    1761.2809   -129.99533   -120.28607    18.019744   -3797.8567 
15664000    170.79271   -4420.7704   -4128.0375   -4420.7704            0    1544.4705    18.132302    23.245191    22.011159     9277.457     2563.145    1720.9469     349.3197   -590.44756   -5.1530673   -404.28034   -3919.0673 
15665000    169.80585   -4409.9829   -4118.9414   -4409.9829            0    1131.7584    17.758261    23.675222    22.046781    9269.1451    1800.6737    374.26491    1220.3367    432.88026   -395.21222    506.08097   -3965.9492 
15666000    176.00091   -4408.6239   -4106.9643   -4408.6239            0    995.49876    18.181423    23.269453    21.981452     9299.732    942.11446     420.9321    1623.4497   -649.36742   -25.808553    957.12273   -3971.9478 
15667000    165.15572   -4419.8804   -4136.8091   -4419.8804            0     1951.423    17.891439    23.589534    21.826592    9211.9286    1970.2154    1548.4282    2335.6254   -414.05823    227.97017     267.2899   -3874.6422 
15668000    181.32334    -4401.377    -4090.595    -4401.377            0    1533.5815    17.929316    23.271619    22.125124    9231.5801    2027.1113    1630.6863    942.94694    18.135705   -131.12008   -243.89981   -3884.1241 
15669000    181.43233   -4404.8382   -4093.8694   -4404.8382            0    2713.1239    17.921126      23.3875    21.931793    9192.2797    2844.4398    2461.1457    2833.7861    134.17238   -395.34029    727.58659   -3730.1481 
15670000    181.90034   -4431.8823   -4120.1113   -4431.8823            0    996.34526    18.084625    23.440488    21.937378    9299.5271    643.08663    1660.7229     685.2263    3.8439193    8.4925497   -127.05543   -3984.9829 
15671000    176.81979   -4422.9915   -4119.9284   -4422.9915            0    2026.3629    17.999404    23.269617    22.005244    9216.6598    2256.3033    2743.8542    1078.9311    115.71958     441.8961    -41.96691   -3847.5538 
15672000    173.45395   -4420.5455   -4123.2514   -4420.5455            0    1556.4418    17.870893     23.73639    21.897939    9288.8976     2638.142   -92.039244    2123.2227   -269.65705   -49.547506    104.00098   -3912.4017 
15673000    170.11653   -4414.3664   -4122.7925   -4414.3664            0     2863.702    18.128257    23.126518    21.893983    9178.9094    3660.1251    1856.0317    3074.9492   -280.25952    599.53119   -276.35769   -3739.4431 
15674000    169.77588   -4421.0256   -4130.0356   -4421.0256            0    2044.0868    17.827027    23.502569    22.063106    9244.0206    1840.4142    3051.7519    1240.0942    143.54051    296.99347    394.00813   -3854.4629 
15675000    179.46186   -4416.6899   -4109.0984   -4416.6899            0     1132.751    18.112844     23.33358    22.038968    9314.4941    1754.8137      2638.94   -995.50061   -96.142605   -19.931085    318.97178   -3955.2229 
15676000    173.23472   -4421.2176   -4124.2992   -4421.2176            0    775.51138    17.920853    23.626165    21.980766     9306.679    1686.3238    505.59851     134.6118   -822.32119   -331.07909    59.665584   -4019.0403 
15677000    175.53448   -4399.8316   -4098.9715   -4399.8316            0    1669.4794    18.097183    23.292409    22.059398    9298.6313    253.30458    2140.8897    2614.2439    547.33539   -262.93415    500.77125   -3872.5717 
15678000    173.23549   -4394.8932   -4097.9735   -4394.8932            0    2568.6831     18.02702    23.368896    21.941074    9243.1504    2372.4459    3125.4748    2208.1285   -75.367935   -656.17768    451.87513   -3751.7103 
15679000    174.99205   -4418.8057   -4118.8753   -4418.8057            0    2631.7062    17.874417    23.381881     21.98983    9190.3742    1936.3498    4590.5956    1368.1732    20.510202    451.56438    373.32309    -3766.142 
15680000    177.17523   -4424.6073   -4120.9351   -4424.6073            0    3000.7793    17.941535    23.226881    22.058119    9192.1895    3324.3366    4243.8515    1434.1497   -760.11842   -579.89752   -413.71858   -3718.6546 
15681000    180.52845   -4416.8152   -4107.3956   -4416.8152            0    3113.2701    18.035914    23.242973    21.908945    9184.4105    2629.7593    4177.6667    2532.3843    266.06323    385.45392    253.40313    -3690.388 
15682000     186.9758    -4408.859   -4088.3889    -4408.859            0    1802.3043    18.031833    23.257022    22.135365    9282.8354    3504.7947    1087.3919    814.72622    366.02567    291.79789    85.639448   -3844.3918 
15683000    168.93908   -4422.9755   -4133.4197   -4422.9755            0    970.83416    17.944873    23.520685    22.081458     9320.047    448.88345     799.2715    1664.3475   -174.34708   -389.52541   -789.60509   -4001.4606 
15684000    174.27389   -4434.5637   -4135.8642   -4434.5637            0    2039.6121    18.119641    23.367796    21.891609    9269.2587    1368.2235    2406.9235    2343.6891     -82.6804   -98.142333      237.874   -3860.1441 
15685000    184.32958   -4417.7526    -4101.818   -4417.7526            0    818.33958    17.943522    23.582878    22.005456    9311.8263    1170.7343    1039.4351     244.8493   -827.63987    343.26868    765.39604   -3990.6847 
15686000    179.14992   -4414.1495   -4107.0927   -4414.1495            0    1394.2358    18.125826    23.264351    21.997948    9276.2176    611.26424     2440.797    1130.6462    201.17747    280.90986     443.2101   -3918.4747 
15687000    171.89554   -4417.6199   -4122.9969   -4417.6199            0    2204.3509    17.847784    23.541472     21.98225    9236.1303     1510.524    2164.3483    2938.1804   -721.04571   -788.55575    24.355928   -3826.0719 
15688000    184.85197   -4409.8782   -4093.0483   -4409.8782            0    1518.1826    18.111652    23.236047    22.041678    9276.0897    426.13128    1323.8926    2804.5238   -247.53145   -602.97896   -832.72509   -3887.6651 
15689000    172.74997   -4435.6615    -4139.574   -4435.6615            0    1714.3339    17.942559    23.459783    21.966367     9246.271    2295.3338    1412.4164    1435.2515   -182.26587    477.10828   -237.54499   -3908.4005 
15690000    181.90163   -4397.4564   -4085.6832   -4397.4564            0     1933.224    18.141246    23.320188       21.921    9273.8381    1559.0141     2674.218    1566.4399    576.29933   -347.17639     545.2921   -3824.2158 
15691000    188.63786   -4435.1037   -4111.7848   -4435.1037            0    2248.9712    17.893668    23.385346     22.05222    9227.7431    1532.8723    2641.2218    2572.8196    798.09302    55.921807    -31.57234   -3809.1247 
15692000    175.44445   -4411.3669   -4110.6611   -4411.3669            0    2707.0197     18.00279    23.480865    21.810746    9219.8626     3337.979    2107.6807    2675.3995   -728.44144   -275.50707   -258.82153   -3746.6691 
15693000     175.0518   -4414.6331   -4114.6003   -4414.6331            0    2681.8387    18.064817    23.351528    21.899514    9238.1146    3062.4747    3382.4017    1600.6397    244.57329    1024.2738   -4.2699331   -3753.2804 
15694000    182.52499   -4408.3498   -4095.5082   -4408.3498            0    751.55357    17.734348    23.519635     22.35595    9324.7873    2604.7355   -370.86911    20.794353    97.786315    80.614026    53.977501   -3993.3026 
15695000    176.79213    -4424.046   -4121.0303    -4424.046            0    3150.5157     18.02214    23.283589    21.865011     9174.998    3648.3407       1969.6    3833.6063   -826.95864    134.48984    286.87527   -3699.4663 
15696000    176.97933   -4417.9557   -4114.6192   -4417.9557            0    511.40453    17.864315    23.635249    22.086657    9325.5946    790.97977   -72.844519    816.07833   -248.66443    144.67016     538.8828    -4045.066 
15697000    177.71469   -4420.0916   -4115.4947   -4420.0916            0    921.81266    18.074698    23.274614    22.068861    9283.9644    220.42212    1159.3641    1385.6518    621.71555    -413.1492   -32.247037   -3990.6839 
15698000    186.51149   -4433.8708   -4114.1965   -4433.8708            0    980.07746    17.933169    23.664898    21.898061    9293.2438    727.32796    636.38097    1576.5234    25.920898    240.63945    415.68298   -3981.3642 
15699000    184.41864   -4416.9452    -4100.858   -4416.9452            0    1788.0386    18.002613    23.403484    21.997096    9267.9014    1977.4477    2046.2584    1340.4098   -654.11184    111.53264    512.44241   -3859.1816 
15700000    178.06502   -4425.5031   -4120.3057   -4425.5031            0    1629.9959     18.11961    23.333613    21.889417    9254.7572    155.90091    1532.7475    3201.3393    355.13428   -253.35346   -383.50245   -3900.3033 
15701000      183.685   -4428.2866   -4113.4568   -4428.2866            0    2603.6086    17.868991    23.345551    22.002975    9178.7926    2900.8717    3259.0698    1650.8843     1018.014    76.829132    408.50667   -3764.9292 
15702000    175.38284   -4410.2086   -4109.6084   -4410.2086            0    1376.7082    18.235423    23.291531    21.870248    9288.9709   -395.06299    2702.1153    1823.0723    24.150748   -602.42206   -106.02107   -3923.1056 
15703000     172.2497   -4426.4555   -4131.2254   -4426.4555            0    2389.8601    17.859787    23.480286     21.97781    9216.4587    2376.8568     2314.991    2477.7326   -52.057014   -250.15737   -155.46118   -3809.9981 
15704000    170.13883   -4423.3452    -4131.733   -4423.3452            0    1689.0707    17.936775    23.255948    22.178537     9251.482    2878.7517     1964.532    223.92841     513.0521   -53.733827   -184.76306   -3903.8379 
15705000    169.16417   -4428.9476    -4139.006   -4428.9476            0    837.29416     18.06246     23.51854    21.877566    9293.6486    65.762164    509.48868    1936.6316     374.1276     115.1908   -514.31027   -4025.5206 
15706000     177.2082   -4435.8282   -4132.0994   -4435.8282            0    1501.6624    17.986886    23.427132    21.992707    9267.3123    1966.3102    1301.9285    1236.7485   -1422.8098    160.90205    658.98134   -3929.1434 
15707000    172.34601    -4417.487   -4122.0918    -4417.487            0     1423.241    17.937427     23.34371    22.136076    9268.9525    2095.5447    2972.4107   -798.23231   -382.79214    -239.4849    148.23832   -3929.7007 
15708000    181.67706   -4419.6348   -4108.2465   -4419.6348            0    1810.8344    18.184251    23.399299    21.772962    9264.3672    833.61019    1803.9268    2794.9661    401.92898    200.18638    390.31074   -3863.5823 
15709000    174.71393   -4417.0227    -4117.569   -4417.0227            0    2419.1539    17.811444    23.433837    22.197661    9265.0924    3429.9168    2181.6076    1645.9375    244.09567   -381.91482     107.9398   -3790.6884 
15710000    182.40252   -4415.0048   -4102.3732   -4415.0048            0    2482.3219    17.986098    23.348167    22.025174    9249.3049    1994.9992    2906.8891    2545.0773   -737.12305    428.27763   -168.84546   -3767.5287 
15711000    170.59284    -4413.933   -4121.5427    -4413.933            0    2799.5038    18.048276    23.510873    21.703829    9209.6012    2087.2846    2137.5258    4173.7011     170.4778   -442.55669   -245.37977   -3745.5341 
15712000    174.37396   -4410.6015   -4111.7305   -4410.6015            0    2305.6444    18.018463    23.241619    22.095026    9252.9161    2856.7883    1288.9274    2771.2174   -1045.7105    794.28627    763.30736   -3800.5969 
15713000    176.50097   -4405.0429   -4102.5262   -4405.0429            0    1403.8814    18.042497    23.572343     21.84174    9289.3776    845.28317    1743.8039     1622.557    279.11274   -109.35187    365.46646   -3912.3339 
15714000    175.58884    -4420.948   -4119.9947    -4420.948            0     3569.994    17.864248    23.219205    22.089486    9162.5782    5292.5047    2778.5417    2638.9355    19.466814    322.41491    -197.8121   -3642.9478 
15715000    168.75673    -4445.681   -4156.4377    -4445.681            0    2252.4858    18.045126    23.345878    21.901018    9226.4459    2977.2144    3253.6259    526.61704   -84.040641   -422.47467   -432.06229   -3853.3472 
15716000    175.59931   -4424.7133   -4123.7421   -4424.7133            0    278.13967    18.004782    23.701191    21.880334    9337.0993    169.36377   -187.79452    852.84975    561.71682   -126.98876    215.33369   -4085.8673 
15717000    169.78707   -4427.9018   -4136.8926   -4427.9018            0    2058.7291    18.056491    23.168447    22.105118    9247.4737    2208.2604    3421.5321    546.39476   -71.199896    669.86229   -799.95977   -3859.2422 
15718000    172.90348   -4402.7603   -4106.4096   -4402.7603            0    3098.5912    17.727036    23.578248    21.934214    9167.8968    4297.3579    1691.9634    3306.4523    529.53233    65.825796    410.53446   -3692.1144 
15719000    177.24097   -4410.1116   -4106.3266   -4410.1116            0    2001.5555    18.046786    23.207184    21.997459    9212.8681    1529.2429    1886.4933    2588.9302   -753.61303   -290.68813    63.608748   -3837.3972 
15720000    180.31868   -4445.1122   -4136.0521   -4445.1122            0    1952.9656     17.87657    23.629996    21.867211    9237.2191    2953.8102    1463.9079    1441.1785    779.95706    371.72074    609.30016   -3872.9577 
15721000    163.89119   -4399.0451   -4118.1412   -4399.0451            0     2135.657    18.090956    23.241411    21.969296    9237.1954    1421.3118    3001.4228    1984.2365   -574.98732    505.08063     476.1054   -3830.4362 
15722000    182.43065   -4446.9014   -4134.2215   -4446.9014            0    3005.2437    17.869302    23.425348    21.960918     9192.722    3441.1489    2817.0141     2757.568   -166.53424    75.758984    88.121647   -3731.3192 
15723000    170.99808   -4422.5192   -4129.4343   -4422.5192            0    1186.8203    18.092602    23.369921    21.979421    9293.3979    472.76984    1324.0777    1763.6135    888.39186    622.51189    281.43064    -3968.579 
15724000    172.81739   -4413.1225   -4116.9194   -4413.1225            0    3328.7633    17.880567    23.477737    21.914982    9199.8053    3528.0202    3106.7269    3351.5429   -1011.8764   -151.29345   -13.824602   -3670.3001 
15725000     167.6158   -4418.4545   -4131.1667   -4418.4545            0    925.06716    18.126359    23.217851     22.17075    9330.6734   -97.264835    1412.9626    1459.5037   -314.08624   -91.209917   -226.13812   -4005.2851 
15726000     172.3228   -4411.4133   -4116.0579   -4411.4133            0    1652.6932    18.044723    23.413946    22.011645    9299.8796    1859.5217     1447.023     1651.535   -645.45045   -60.334118    338.77857   -3891.9044 
15727000     179.5931   -4380.0674    -4072.251   -4380.0674            0    1673.3843    17.937904    23.630134    21.850368    9261.8266    1150.1889    996.29271    2873.6712    673.36364   -94.112148    67.017407   -3846.2199 
15728000    179.23916   -4405.1938    -4097.984   -4405.1938            0    3187.6178    17.967239    23.143741    22.025949    9159.0312    2432.5871    2765.7921    4364.4741   -418.55992    204.78484   -254.83543   -3672.1977 
15729000    180.47723   -4420.6981   -4111.3663   -4420.6981            0    1918.9352    18.054254    23.427056    21.845864    9239.8833    2228.4472    757.86274    2770.4955   -928.25519    -360.2203   -14.188498   -3852.7816 
15730000    176.88986    -4391.049   -4087.8659    -4391.049            0    1907.1323    18.056278    23.326027    21.951921    9245.7367    673.29026    1626.5324    3421.5743   -327.74786    828.75158   -159.84329   -3830.7089 
15731000    169.59014   -4395.1409   -4104.4692   -4395.1409            0    1154.4509    17.906936    23.332116    22.245621    9294.3693    1674.7671    1999.6485   -211.06296   -360.65862   -374.21564   -43.692686   -3947.9847 
15732000    169.24432   -4402.1422   -4112.0632   -4402.1422            0    2581.0886    18.035136    23.446717    21.842603    9236.4663    2063.7371    3895.7471    1783.7816    81.367835    406.23838   -40.655589   -3764.3793 
15733000    170.36684   -4422.0662   -4130.0632   -4422.0662            0    1834.3619    18.056603    23.184314    22.138365    9267.7828    2420.1218    2565.1028    517.86104    509.02822   -160.62222    170.21309   -3882.1288 
15734000    181.61606   -4413.6202   -4102.3365   -4413.6202            0    1390.4937    17.866515    23.701291    21.970715     9303.707    1799.6548    1379.8345    991.99188   -235.49075   -26.746009     -377.584   -3913.6673 
15735000    169.77075   -4424.4481   -4133.4669   -4424.4481            0    1889.3181    18.071867    23.358333    21.948404    9265.0507    1536.0981    2029.8987    2101.9575    255.89723   -746.66231    117.17894   -3878.1798 
15736000    173.49139   -4421.1188   -4123.7605   -4421.1188            0    1168.4474    17.918874    23.389514    22.232536    9317.9617    1051.5752    1058.5648    1395.2023   -839.33095     519.1742    156.91366   -3964.9768 
15737000    180.45543   -4433.3374    -4124.043   -4433.3374            0    948.75482    18.039986    23.476573    21.942072    9292.8419    541.21728    1152.4095    1152.6376   -124.16495    313.24854     225.1773   -3995.4615 
15738000    169.30227   -4403.0539   -4112.8756   -4403.0539            0    573.38482    18.032842    23.483926    22.090775     9355.044    4.1661142    338.13211    1377.8562   -111.41631   -284.03273    198.56971   -4034.6466 
15739000    176.50196   -4418.7787   -4116.2604   -4418.7787            0     2597.751    17.906861    23.362073    22.077276    9235.8384    2433.3521    3927.6059    1432.2951    113.32148   -227.46495    376.19623   -3766.3557 
15740000    183.39869   -4426.6404   -4112.3014   -4426.6404            0     1262.379    18.102664     23.36003    21.963661    9287.9664    1522.3122    1800.6027    464.22219    266.05778     -388.633   -1.3606578   -3941.3052 
15741000    164.78481   -4416.0622   -4133.6267   -4416.0622            0    1753.6371    17.868524      23.5317    22.009093    9254.3118     3079.542    1090.3451    1091.0243    238.25829   -228.62867    33.558497   -3896.9477 
15742000    164.59843   -4401.6719   -4119.5558   -4401.6719            0    290.86362    18.168467    23.171303    22.194333    9343.5273    133.88314    1130.4477   -391.73996    448.82674   -637.95056    244.40272   -4079.9211 
15743000    182.98368   -4410.9999   -4097.3721   -4410.9999            0    2113.1135    17.893327    23.594931    21.889334    9241.4974    2129.4181    1853.1077    2356.8146    83.089987   -236.37971    160.53565   -3812.5714 
15744000    176.10836   -4402.7952   -4100.9515   -4402.7952            0    2564.5259    17.956004    23.228212    22.015331    9182.2834    4019.2994     2297.486    1376.7922   -448.80297    82.756982    545.22667   -3757.5251 
15745000    174.33331   -4393.0648   -4094.2634   -4393.0648            0     1351.535    18.010416    23.567242    21.886123    9289.6923    320.99319    1151.9542    2581.6577   -410.31643    901.14087    88.613544   -3911.1566 
15746000    176.18087   -4420.2765   -4118.3085   -4420.2765            0    1241.8344    18.133572    23.097864    22.109309     9260.413    1242.4237    1833.1862    649.89329    75.517164     368.8907    -138.4777   -3950.5943 
15747000    171.83709   -4412.9071   -4118.3842   -4412.9071            0    1245.8089    17.860339    23.524882    21.994877    9241.4192    1181.8086    1756.4758    799.14239    662.77963    184.19702    426.27472   -3950.4783 
15748000    172.29271   -4391.3521   -4096.0483   -4391.3521            0    2012.8254    18.013781    23.437779    21.947247    9266.1934    2792.4219    1445.2908    1800.7634   -193.20132    198.74752    834.38316   -3824.0392 
15749000    162.55004   -4413.5876   -4134.9824   -4413.5876            0    1635.1359    17.911993    23.487043    22.082345    9290.0372    2433.0738   -197.25543    2669.5893   -908.39855   -238.11733   -124.49244   -3913.4449 
15750000    176.98229   -4392.3998   -4089.0582   -4392.3998            0    1463.8732    18.051433    23.298071    22.042554    9270.2948    1591.0623    1807.9487     992.6085    75.726882   -324.59386    443.38383   -3891.1458 
Loop time of 363.368 on 64 procs for 250000 steps with 864 atoms

Performance: 118.888 ns/day, 0.202 hours/ns, 688.008 timesteps/s
193.7% CPU use with 32 MPI tasks x 2 OpenMP threads

MPI task timing breakdown:
Section |  min time  |  avg time  |  max time  |%varavg| %total
---------------------------------------------------------------
Pair    | 16.31      | 25.25      | 39.05      | 125.6 |  6.95
Bond    | 0.96119    | 1.2313     | 2.13       |  22.8 |  0.34
Kspace  | 178.38     | 193.95     | 203.76     |  49.7 | 53.38
Neigh   | 1.0495     | 1.1033     | 1.1682     |   3.2 |  0.30
Comm    | 53.315     | 56.383     | 59.85      |  22.2 | 15.52
Output  | 0.58325    | 0.58436    | 0.58561    |   0.0 |  0.16
Modify  | 64.534     | 66.965     | 71.486     |  20.6 | 18.43
Other   |            | 17.9       |            |       |  4.93

Nlocal:        27.0000 ave          39 max          18 min
Histogram: 5 8 3 0 4 3 1 1 3 4
Nghost:        2128.25 ave        2241 max        2026 min
Histogram: 10 5 1 0 0 0 0 2 9 5
Neighs:        6556.44 ave        9354 max        4263 min
Histogram: 1 7 6 2 4 1 3 1 2 5

Total # of neighbors = 209806
Ave neighs/atom = 242.83102
Ave special neighs/atom = 2.0000000
Neighbor list builds = 3720
Dangerous builds = 0

unfix		3
unfix		2
unfix		1

write_data	data.final.${pid} nocoeff
write_data	data.final.0 nocoeff
System init for write_data ...
PPPM initialization ...
  extracting TIP4P info from pair style
  using 12-bit tables for long-range coulomb (../kspace.cpp:340)
  G vector (1/distance) = 0.37173507
  grid = 24 27 25
  stencil order = 5
  estimated absolute RMS force accuracy = 0.0031538872
  estimated relative force accuracy = 9.4978375e-06
  using double precision FFTW3
  3d grid and FFT values/proc = 4410 672
Last active /omp style is kspace_style pppm/tip4p/omp

write_restart   restart.lmp.${pid}
write_restart   restart.lmp.0
System init for write_restart ...
PPPM initialization ...
  extracting TIP4P info from pair style
  using 12-bit tables for long-range coulomb (../kspace.cpp:340)
  G vector (1/distance) = 0.37173507
  grid = 24 27 25
  stencil order = 5
  estimated absolute RMS force accuracy = 0.0031538872
  estimated relative force accuracy = 9.4978375e-06
  using double precision FFTW3
  3d grid and FFT values/proc = 4410 672
Last active /omp style is kspace_style pppm/tip4p/omp
Total wall time: 0:06:03
