LAMMPS (30 Jul 2021)
  using 1 OpenMP thread(s) per MPI task
package omp 0
using multi-threaded neighbor list subroutines
echo both

include		in.partitions
variable        pid world 0
include		in.temp
variable        temperature equal 247.87
variable	tempDamp equal 100.0
include		in.pressure
variable        pressure equal 11750.0
variable        pressureDamp equal 1000.0 # This is 1 ps
include		in.seed
variable        seed world 745823

units		real
atom_style	full

read_restart	restart.lmp.${pid}
read_restart	restart.lmp.0
Reading restart file ...
  restart file = 30 Jul 2021, LAMMPS = 30 Jul 2021
  restoring atom style full from restart
  orthogonal box = (0.10495864 0.073961436 0.21702547) to (19.895042 19.926040 20.482973)
  4 by 4 by 4 MPI processor grid
  restoring pair style lj/cut/tip4p/long/omp from restart
  restoring bond style harmonic/omp from restart
  restoring angle style harmonic/omp from restart
  972 atoms
  648 bonds
  324 angles
Finding 1-2 1-3 1-4 neighbors ...
  special bond factors lj:    0        0        0       
  special bond factors coul:  0        0        0       
     2 = max # of 1-2 neighbors
     1 = max # of 1-3 neighbors
     1 = max # of 1-4 neighbors
     2 = max # of special neighbors
  special bonds CPU = 0.079 seconds
  read_restart CPU = 0.273 seconds
include 	in.setup
variable	out_freq equal 1000
variable	out_freq2 equal 10000
variable	out_freq3 equal 1000

timestep	2.0

neigh_modify    delay 7 every 1

include		in.tip4p
# This is TIP4P/Ice

# create groups ###
group ox type 2
324 atoms in group ox
group hy type 1
648 atoms in group hy

# set charges - beside manually ###
set group ox charge -1.1794
Setting atom values ...
  324 settings made for charge
set group hy charge 0.5897
Setting atom values ...
  648 settings made for charge

# ### TIP3P Potential Parameters ###
pair_style lj/cut/tip4p/long/omp 2 1 1 1 0.1577 8.5
pair_coeff 1 1*2 0.000 0.000
pair_coeff 2 2 0.21084 3.1668
bond_style  harmonic
bond_coeff  1 450 0.9572
angle_style harmonic
angle_coeff 1 55 104.52
kspace_style pppm/tip4p/omp 1.0e-5
pair_modify tail yes

thermo          ${out_freq}
thermo          1000
thermo_style    custom step temp pe etotal epair emol press lx ly lz vol pxx pyy pzz pxy pxz pyz enthalpy

restart 	${out_freq3} restart.lmp.${pid} restart2.lmp.${pid}
restart 	1000 restart.lmp.${pid} restart2.lmp.${pid}
restart 	1000 restart.lmp.0 restart2.lmp.${pid}
restart 	1000 restart.lmp.0 restart2.lmp.0


include         in.dump
dump            myDump all atom ${out_freq2} dump.water.${pid}
dump            myDump all atom 10000 dump.water.${pid}
dump            myDump all atom 10000 dump.water.0
dump            myDump2 all dcd ${out_freq2} dump.dcd
dump            myDump2 all dcd 10000 dump.dcd
dump_modify     myDump append yes
dump_modify     myDump2 append yes


variable natoms 	equal  "count(all)"                        # NUMBER ATOMS
variable H      	equal  "enthalpy/v_natoms"                 # ENTHALPY-per-atom
variable Vol      	equal  "vol/v_natoms"                 # volume-per-atom
fix AVG all 		ave/time ${out_freq} 1 ${out_freq} v_Vol v_H file vol_enthalpy.dat
fix AVG all 		ave/time 1000 1 ${out_freq} v_Vol v_H file vol_enthalpy.dat
fix AVG all 		ave/time 1000 1 1000 v_Vol v_H file vol_enthalpy.dat


timer           timeout 02:55:00 every 1000
New timer settings: style=normal  mode=nosync  timeout=02:55:00

fix 		1 all shake 1e-6 200 0 b 1 a 1
       0 = # of size 2 clusters
       0 = # of size 3 clusters
       0 = # of size 4 clusters
     324 = # of frozen angles
  find clusters CPU = 0.120 seconds
fix             2 all nph aniso ${pressure} ${pressure} ${pressureDamp}
fix             2 all nph aniso 11750 ${pressure} ${pressureDamp}
fix             2 all nph aniso 11750 11750 ${pressureDamp}
fix             2 all nph aniso 11750 11750 1000
fix             3 all temp/csvr ${temperature} ${temperature} ${tempDamp} ${seed}
fix             3 all temp/csvr 247.87 ${temperature} ${tempDamp} ${seed}
fix             3 all temp/csvr 247.87 247.87 ${tempDamp} ${seed}
fix             3 all temp/csvr 247.87 247.87 100 ${seed}
fix             3 all temp/csvr 247.87 247.87 100 745823


run             250000
PPPM initialization ...
  extracting TIP4P info from pair style
  using 12-bit tables for long-range coulomb (../kspace.cpp:340)
  G vector (1/distance) = 0.37246502
  grid = 24 24 24
  stencil order = 5
  estimated absolute RMS force accuracy = 0.0034720455
  estimated relative force accuracy = 1.0455962e-05
  using double precision FFTW3
  3d grid and FFT values/proc = 2197 216
Last active /omp style is kspace_style pppm/tip4p/omp
Neighbor list info ...
  update every 1 steps, delay 7 steps, check yes
  max neighbors/atom: 2000, page size: 100000
  master list distance cutoff = 10.8154
  ghost atom cutoff = 10.8154
  binsize = 5.4077, bins = 4 4 4
  1 neighbor lists, perpetual/occasional/extra = 1 0 0
  (1) pair lj/cut/tip4p/long/omp, perpetual
      attributes: half, newton on, omp
      pair build: half/bin/newton/omp
      stencil: half/bin/3d
      bin: standard
Per MPI rank memory allocation (min/avg/max) = 9.225 | 9.227 | 9.230 Mbytes
Step Temp PotEng TotEng E_pair E_mol Press Lx Ly Lz Volume Pxx Pyy Pzz Pxy Pxz Pyz Enthalpy 
31500000    256.18672   -4706.3406    -4212.263   -4706.3406            0    9324.5666    19.790084    19.852078    20.265947    7961.9695    9321.2973    8680.5341    9971.8684   -684.73749    931.20856    1473.8871   -3129.5208 
31501000    246.73481   -4732.9783   -4257.1295   -4732.9783            0     9482.864    19.776033    19.673218    20.539644    7991.1175    6359.2193    13900.394    8188.9791   -344.82212    718.20221    978.69596   -3151.9752 
31502000    251.33872   -4728.9424   -4244.2145   -4728.9424            0    12522.358    19.714466     19.79483     20.38074    7953.4713    12135.566    12533.027    12898.482   -213.01511    751.95904    -538.1645   -2791.7059 
31503000    244.66028   -4727.4492   -4255.6013   -4727.4492            0    11403.729    19.678981    19.845279    20.297945    7927.0555    11564.317    11625.267    11021.603   -185.93837   -694.98055   -516.86754   -2937.2393 
31504000    232.80157   -4714.6084    -4265.631   -4714.6084            0    12303.666    19.612291    19.701753    20.297184    7842.7615    11599.147    11203.485    14108.367    93.028743   -414.64288    1356.4473   -2858.3545 
31505000    250.99569    -4719.307   -4235.2407    -4719.307            0    12812.708    19.724736    19.742964    20.211935    7871.0277    11287.145     14594.08      12556.9    287.93069    994.12503   -666.81627   -2764.4588 
31506000    261.19206   -4737.0538    -4233.323   -4737.0538            0     10351.29    19.671805    19.761118    20.371327    7919.0858    9713.9878    10226.273    11113.608    517.52078   -595.59531    474.26032   -3037.8345 
31507000    250.34819   -4715.4092   -4232.5917   -4715.4092            0    11920.738    19.670267    19.816908    20.252768    7894.6074    12399.033    10071.547    13291.635    933.89434   -155.10572    493.22799   -2860.1005 
31508000    243.82036   -4692.8399   -4222.6118   -4692.8399            0    11802.658    19.736969    19.754143    20.205664    7877.9241    11002.413    11460.938    12944.622   -252.18953   -15.875629    552.47413   -2866.5874 
31509000    263.79535   -4718.1542   -4209.4027   -4718.1542            0     13247.78    19.815872    19.481999    20.392445    7872.5607     11808.78    15314.468    12620.094   -255.02846   -918.60347    278.59784   -2688.3823 
31510000    254.77733   -4709.0069   -4217.6474   -4709.0069            0    11962.282    19.567937    19.762133    20.408813    7892.1729    10648.568    13041.255    12197.022   -328.02867    739.61879    114.02936   -2840.7978 
31511000    240.04196    -4693.699   -4230.7579    -4693.699            0    13488.673    19.515969    20.119953    19.965547     7839.679    13489.638    12842.292     14134.09    496.76547    1147.5592   -613.78185   -2688.5482 
31512000    256.13906   -4686.0737    -4192.088   -4686.0737            0    12076.335    19.663545    19.734779    20.330009    7889.1765    10235.007    14229.673    11764.326   -115.64657   -724.98545    778.67542   -2802.6387 
31513000    255.63866   -4691.7703   -4198.7497   -4691.7703            0    11351.781    19.773937    19.577564    20.511475    7940.5151    9334.3063    12314.214    12406.823    820.55247    1327.7249    953.51094    -2884.165 
31514000    247.38644   -4734.1753   -4257.0698   -4734.1753            0    10011.149    19.683109    19.875756    20.202248     7903.456    8168.9858    12342.461    9522.0002    108.23854    -142.3528   -240.33084   -3103.1467 
31515000    252.10789   -4737.1017   -4250.8904   -4737.1017            0    11320.881    19.719208    19.764575    20.386505    7945.4724    11944.117    11356.268    10662.258    24.717685   -121.16926   -689.02599   -2939.0656 
31516000    240.58992   -4696.0144   -4232.0165   -4696.0144            0    12203.794    19.453522    19.715827    20.633822    7913.9433    13714.326    12906.448     9990.608   -1177.3925   -1217.5391    796.65687   -2823.4944 
31517000    249.46622   -4699.4009   -4218.2843   -4699.4009            0    12451.062    19.660744    19.741377    20.196138    7838.7304     11386.51     13213.02    12753.656   -1052.7805    708.90134    398.77265   -2794.8809 
31518000    240.43776   -4731.8179   -4268.1134   -4731.8179            0    11176.176    19.508954    19.752255    20.527866    7910.3274    12911.641    11381.453    9235.4347     132.4815   -951.24969   -196.28855   -2978.7849 
31519000    239.77216   -4707.8591   -4245.4384   -4707.8591            0    11854.369    19.746066    19.694093    20.274714    7884.4482    10003.332    12045.156     13514.62   -217.32105    1385.7121   -1375.9089   -2882.3449 
31520000    249.96184   -4731.0106   -4248.9382   -4731.0106            0    11592.203    19.577993    19.997485    20.213911    7913.9607    13585.095    9335.5413    11855.974    148.03145    536.03492   -752.08244   -2911.0009 
31521000      248.634   -4750.7852   -4271.2737   -4750.7852            0     10982.68    19.827774    19.603731    20.419004    7936.8329    10111.253    11921.584    10915.202    804.00038   -1166.2089     99.63274   -3000.0222 
31522000    241.14536   -4694.5626   -4229.4935   -4694.5626            0    12350.719    19.554304    19.953843    20.146398    7860.7922    11115.121    12167.976    13769.059   -502.78847   -617.83027     1178.593   -2813.5874 
31523000    252.91062   -4749.5963   -4261.8369   -4749.5963            0    11837.196    19.613916    19.622159    20.429444    7862.6264    11575.425    12023.395    11912.767    600.93029    275.65905    866.77461   -2904.4853 
31524000    256.23832   -4687.9455   -4193.7683   -4687.9455            0     14054.79     19.39314    19.920789    20.397406    7880.0618    13066.887    14334.154    14763.329   -54.389662   -144.94513   -732.35539    -2578.555 
31525000    256.05657   -4705.7345   -4211.9079   -4705.7345            0    12105.476     19.74123    19.696058    20.287274    7888.1877    12287.053    11805.658    12223.716   -1279.6543   -251.23546    789.47847   -2819.2803 
31526000    264.33803    -4721.112   -4211.3139    -4721.112            0    11915.605    19.626063    19.744723    20.432556    7917.8438    12400.233    11772.286    11574.296    650.70691   -261.77363   -43.471261   -2835.3757 
31527000    259.57765   -4705.8995   -4205.2822   -4705.8995            0    12062.513    19.890452    19.519264    20.419354    7927.7525    10211.902    15122.007    10853.631    231.33833   -1616.0782   -353.38649   -2810.6369 
31528000    243.53923   -4726.3931   -4256.7072   -4726.3931            0    11774.666    19.617334    19.814529      20.3413    7906.8307    12392.709    10941.881    11989.407   -212.50821   -210.78693    2361.1398    -2898.935 
31529000    240.44892   -4705.8664   -4242.1405   -4705.8664            0    11809.612    19.875073    19.785224    20.216973    7949.9759    12180.077    11754.189     11494.57   -300.65354    645.10544    1483.3838   -2872.9076 
31530000     250.1655   -4692.5208   -4210.0556   -4692.5208            0    12912.322     19.53779     19.85049    20.336242    7887.1003    11841.378    14366.129    12529.459   -640.11137    399.14538     1665.775   -2724.8122 
31531000    259.70832   -4705.7731   -4204.9038   -4705.7731            0    10921.105    19.805324     19.50729    20.452198    7901.6698    8726.6589    13147.174    10889.482   -404.06842    1304.0899   -1566.0238   -2946.3803 
31532000    261.36639   -4725.7462   -4221.6791   -4725.7462            0    11236.934    19.393548    19.818025    20.483942    7872.8359    11512.459    11749.633     10448.71    322.61392   -247.00438    -953.6399   -2931.4854 
31533000    250.18922   -4711.0834   -4228.5724   -4711.0834            0    11602.964    19.759678    19.455808    20.479292    7873.0693    10443.815    12594.381    11770.696    948.64309   -1181.1023   -694.74169   -2896.3127 
31534000    246.67135   -4739.5948   -4263.8683   -4739.5948            0    11917.988    19.396162    19.952597    20.421462    7903.1836    12461.832    11564.231    11727.903    194.41127    912.38361    74.811535    -2890.203 
31535000    241.49251   -4750.6352   -4284.8966   -4750.6352            0    11589.099    19.597192    19.650577    20.472515    7883.8864    12882.157    11923.337    9961.8034   -394.37559   -113.56014   -455.61556   -2952.4006 
31536000    237.95521   -4723.2329   -4264.3162   -4723.2329            0    11887.786    19.446747    19.604412    20.573623    7843.5304    10724.838    14504.149    10434.371   -506.81065    1185.5825   -902.37251   -2904.4742 
31537000    253.34724   -4747.6156   -4259.0141   -4747.6156            0    11983.858    19.865377    19.864029    20.208186      7974.28    12363.963    11878.616    11708.995   -152.97309   -227.44597   -227.25295   -2865.3311 
31538000    249.18829   -4702.8733   -4222.2928   -4702.8733            0    12057.781    19.740218    19.635627    20.439106    7922.4337    11190.392     13402.73    11580.221    633.42862    1854.7055   -973.00522   -2829.1299 
31539000    247.54385   -4734.4875   -4257.0784   -4734.4875            0    11799.654     19.60689     19.63026    20.453516      7872.32    12962.425    9643.1692    12793.369   -14.795779   -1242.2484   -806.33261   -2902.3635 
31540000    237.59475   -4696.2907   -4238.0692   -4696.2907            0    12366.362    19.682247    20.066564    20.002941     7900.263     12658.17     10463.37    13977.547    958.97773    1139.5877      1251.65   -2813.2511 
31541000    240.98991   -4690.0389   -4225.2696   -4690.0389            0    10939.037    19.527491     19.72624    20.442426    7874.5037    13918.495     8889.493    10009.124   -408.62143    1977.2736    514.69319   -2969.0136 
31542000    245.98221   -4739.6417   -4265.2443   -4739.6417            0    9911.9702    19.931019    19.907188    20.130383    7987.1429    8753.0415    9947.9778    11034.891    122.29478    38.975587    690.45998   -3110.6555 
31543000     257.8731   -4721.5027   -4224.1727   -4721.5027            0    11389.834    19.631192    19.655982    20.586751    7943.8171    11400.071    11737.652    11031.778   -262.53688    2220.5025   -343.53542   -2904.6329 
31544000     241.3405   -4720.4854     -4255.04   -4720.4854            0    13393.471    19.697267    19.852527    20.083076    7853.2967    13741.909    12298.549    14139.954   -107.25379    656.86056   -93.949524   -2721.0553 
31545000    241.06211   -4742.1276    -4277.219   -4742.1276            0    11660.677    19.720786    19.780828    20.198004    7879.1095    9871.8769    12651.402    12458.753    983.80447   -314.71011    1235.6775   -2937.3054 
31546000    248.69192   -4743.4881   -4263.8648   -4743.4881            0     9414.717    19.650888    19.681708    20.539013    7943.7308    7967.5995    11427.027    8849.5241    145.02354    186.24241    26.891813   -3173.1589 
31547000    249.52451   -4720.8364   -4239.6074   -4720.8364            0    12472.475    19.458715    19.717919    20.512349    7870.2881    12912.745     12799.62    11705.059    -353.6125   -1404.5808   -1054.3258   -2808.0158 
31548000    238.68441   -4731.1899    -4270.867   -4731.1899            0    10629.375    19.697261    19.629175    20.421874    7895.9332     9497.577    12894.171    9496.3766   -804.96355    561.69686    946.63335    -3046.851 
31549000    253.14131   -4713.8165   -4225.6122   -4713.8165            0    11197.812    19.446376    20.037906    20.225986    7881.3519    10796.054    11385.354    11412.027    771.12362   -443.59917   -1128.7447   -2938.5197 
31550000    236.68028   -4721.9649   -4265.5071   -4721.9649            0    12052.334      19.8012    19.697227    20.277222    7908.6992     12930.28    11480.266    11746.455    1154.8542   -300.36057    -514.7511   -2875.3877 
31551000    268.59081   -4695.6365   -4177.6365   -4695.6365            0    11495.152    19.472689    19.815462    20.511997    7914.7659    13209.007    11219.792    10056.659    1700.0713   -306.67472    554.05291   -2850.7656 
31552000    236.04357   -4721.0091   -4265.7792   -4721.0091            0    12061.325    19.751069    19.726886    20.331866    7921.8458    9088.3867    14015.057    13080.533   -130.78631   -481.12183    1979.9902   -2872.3102 
31553000    236.97681    -4716.544   -4259.5143    -4716.544            0    15586.515    19.355694    19.599733    20.553503    7797.3091    16138.307    15798.188     14823.05   -682.45467   -248.38015    1322.1128   -2487.0819 
31554000    239.77543   -4675.1251   -4212.6981   -4675.1251            0    12076.412    19.565268    19.748573    20.469916    7909.2917    12349.437    11681.477    12198.323   -125.27791    945.08399   -1992.3075   -2819.6971 
31555000     248.4538   -4708.1816   -4229.0176   -4708.1816            0    12730.702    19.676615    19.608089    20.385083    7864.9892    10760.102    15028.256    12403.747   -442.55194    218.08871   -1856.2762   -2768.7705 
31556000     255.7932   -4695.1232   -4201.8045   -4695.1232            0    11611.174    19.683089    19.871624    20.211946    7905.5986    11434.868    11309.236    12089.419   -1030.8196    1411.3117    777.35247   -2863.0936 
31557000    239.59122   -4731.8999   -4269.8281   -4731.8999            0    11711.308    19.891824    19.914541    19.943175    7900.2202    9039.5663    11418.087    14676.271   -747.27292   -74.696107    260.66827   -2920.4909 
31558000    254.80161   -4721.6748   -4230.2684   -4721.6748            0    11276.373     19.71265    19.696091    20.391867    7917.3901     11972.82    10222.774    11633.524    920.11313      208.152   -73.218548   -2928.2194 
31559000    246.05028   -4718.4018   -4243.8731   -4718.4018            0    12386.022    19.449467    19.910762    20.328123    7872.1409    11865.821      10850.6    14441.644    221.57542     -29.7907    1828.7531   -2821.8698 
31560000    246.25906   -4701.8347   -4226.9034   -4701.8347            0    13632.431    19.538488    19.737574    20.296186    7827.0688    12604.838    14420.031    13872.423   -526.33353    1341.1669   -828.01596   -2670.7645 
31561000      248.136   -4702.7485   -4224.1974   -4702.7485            0     13951.03    19.513814    19.701063    20.400388     7842.784    13489.094    14484.418    13879.578    387.58331    1419.3866    931.13659    -2628.493 
31562000    258.09316   -4694.6548   -4196.9004   -4694.6548            0    12104.387    19.654261    19.795293    20.394621    7934.7692    11250.992    13082.897    11979.272    488.61351   -520.33914   -460.44081   -2796.1751 
31563000    251.62352   -4683.6298   -4198.3527   -4683.6298            0    13906.842    19.542342    19.897995    20.201393    7855.3807    16318.796    12457.583    12944.146    93.858721    1310.8757    1510.9013   -2605.1478 
31564000    255.61096   -4732.1805   -4239.2132   -4732.1805            0    11584.324    19.673854     19.70621    20.379449    7901.0535    10108.288     13521.03    11123.653    32.111828   -624.85808    207.98314    -2904.366 
31565000    241.86772   -4719.4722     -4253.01   -4719.4722            0    12981.338    19.498903    19.577733    20.686957    7897.1285    13505.213    14461.626    10977.173    47.420352   -190.20572    1065.0085   -2757.9296 
31566000    258.57535   -4692.5357   -4193.8513   -4692.5357            0    10394.052    19.540413    19.754674     20.46421    7899.4815    8224.0339    12644.516    10313.607    53.244037   -240.43178    903.90339   -2996.3958 
31567000    237.25173   -4704.1933   -4246.6334   -4704.1933            0    13019.319    19.412338    19.869476    20.320783    7837.9902    13531.266    12545.174    12981.517    954.86158    722.35955    3253.6038   -2758.4074 
31568000    249.73826   -4730.7706   -4249.1294   -4730.7706            0    10894.178      19.8359    19.733068    20.252051    7927.1214    8863.6936    13524.067    10294.773   -237.58459   -766.91444    762.07972   -2989.6651 
31569000     247.4832   -4739.8905   -4262.5983   -4739.8905            0    12730.258    19.508286    19.811624    20.278996    7837.6458     13140.82    12804.147    12245.806    126.52389   -516.97759    1500.0686   -2807.4786 
31570000     240.8905   -4684.3834   -4219.8058   -4684.3834            0    12347.265    19.536022    19.568035    20.520025    7844.4273    11093.738    13498.167    12449.891    69.710835    238.23594   -504.50601   -2807.2425 
31571000    254.33137   -4739.3845    -4248.885   -4739.3845            0    10141.722    19.661612    19.820955    20.434744    7963.6632    9785.1302    11236.293    9403.7421   -270.25738   -488.85214   -326.65338   -3071.0066 
31572000    261.76363   -4686.5052    -4181.672   -4686.5052            0     11974.83    19.615435    19.737174    20.382316    7891.0803    12500.659    9381.2297      14042.6    789.11204    1326.7619    542.06037    -2803.569 
31573000    240.38267   -4738.5107   -4274.9126   -4738.5107            0    11441.538    19.479069    19.763639    20.484157    7885.9351    12477.343    11237.056    10610.214    284.19454    1022.2462    705.59845   -2959.0411 
31574000    233.82598    -4722.349   -4271.3959    -4722.349            0    10242.505    19.561969    19.738601    20.540251    7931.1229    10470.826    9915.1873    10341.503    276.00881    939.92039    1110.3531   -3086.6731 
31575000    244.41911   -4705.2338    -4233.851   -4705.2338            0    13228.124    19.589822     19.66193     20.30266    7820.0509     16718.37    9462.5744    13503.428    867.82741      597.871   -420.80978   -2725.2175 
31576000    251.62552   -4728.1968   -4242.9158   -4728.1968            0    13752.137    19.468815    19.796737    20.415569    7868.5481    13974.064    14420.952    12861.394   -798.22386    -100.1593    1690.2249   -2664.7934 
31577000     234.7028   -4730.8995   -4278.2554   -4730.8995            0    12243.532    19.662712    19.510176     20.49826    7863.6037    12040.657    12991.254    11698.684    63.483653   -15.077079    -542.4711   -2874.1354 
31578000    262.77926   -4713.5002   -4206.7083   -4713.5002            0    12844.735    19.492876    19.770396    20.506111    7902.6837    14372.711    12788.981    11372.512   -498.57109    1151.7465    1321.2869     -2726.32 
31579000    257.62849   -4756.1418   -4259.2836   -4756.1418            0    12107.957    19.395781    19.728405    20.512231    7848.9602    13260.884    11088.768    11974.217   -903.43169   -482.86528    68.352423   -2873.2975 
31580000    248.94294    -4701.539   -4221.4316    -4701.539            0    10413.481    19.581261    19.875326     20.43104    7951.4327    9698.8666    10577.007    10964.568   -157.40986    351.91517    735.81433   -3013.8481 
31581000    252.81364   -4714.8743    -4227.302   -4714.8743            0    12648.999    19.494284     19.66157    20.535336    7870.9526    13044.062    12217.253    12685.681   -411.49389    307.58916    752.74914   -2775.3263 
31582000    244.58926   -4744.5637   -4272.8527   -4744.5637            0    11244.302    19.687123    19.725589    20.351508    7903.3068    11706.078    10077.288    11949.541   -117.36635    279.64355   -63.786318   -2976.8162 
31583000    250.30618   -4712.1028   -4229.3663   -4712.1028            0    13798.474    19.768065    19.839446    20.170853    7910.7555     12916.01    14275.898    14203.514    872.89878    41.334245   -726.06583   -2637.4328 
31584000    249.39655   -4684.5456   -4203.5634   -4684.5456            0    12073.088    19.729551    19.592299    20.425429    7895.3938    10843.856    14199.492    11175.915   -196.21039     -807.311   -383.68039    -2813.393 
31585000    250.58704   -4728.7561   -4245.4779   -4728.7561            0    11904.798    19.433365    19.752992    20.388821    7826.5976    12056.849    11817.026    11840.519   -119.26913    1562.9209    910.65211   -2886.6298 
31586000    243.58863   -4727.4879   -4257.7068   -4727.4879            0    11654.535    19.660592    19.496355    20.573496    7886.0244    10617.171    13190.182    11156.252   -59.878856    1118.5555    77.865659   -2917.3236 
31587000    246.25944   -4728.4572   -4253.5251   -4728.4572            0    11637.604    19.495835    19.889968    20.384735      7904.62    12905.078    11237.351    10770.383    26.039147     446.0859     252.4842   -2911.9331 
31588000    245.92429   -4707.7208   -4233.4351   -4707.7208            0    9917.1245     19.82506    19.586769     20.32028    7890.5455    7068.7645    12385.291    10297.318     169.6431    599.39182    450.30381   -3092.2169 
31589000    229.49528   -4728.4232   -4285.8223   -4728.4232            0    13162.969    19.621959     19.43289    20.635473    7868.5404    14590.406    13797.249    11101.251   -334.55643    1107.5303   -1336.1904   -2775.3112 
31590000    241.47541   -4717.1825   -4251.4768   -4717.1825            0     11577.24    19.781293    19.618646    20.382627    7910.1342    10263.009    12450.689    12018.021    765.64281   -1777.8114   -1113.5993   -2915.9126 
31591000    246.84378   -4723.0489   -4246.9899   -4723.0489            0    12262.888    19.872633    19.585811    20.204731     7864.118    11904.917    12490.625    12393.122    493.76934   -1328.3579    231.13247   -2840.5581 
31592000    244.92838   -4730.2494   -4257.8845   -4730.2494            0    11072.189     19.70448     19.62181    20.541268    7942.0258    12602.761    9921.6895    10692.118   -49.056315   -505.33935    611.00814   -2975.4337 
31593000    251.90596   -4694.3684   -4208.5465   -4694.3684            0    13136.377    19.760441    19.494554    20.438287    7873.2569    11532.811    14313.699     13562.62     175.7003   -1258.6534   -390.81198   -2700.1834 
31594000    244.85511   -4726.5023   -4254.2787   -4726.5023            0    10249.516    19.993179    19.642453    20.365675    7997.9075    10536.916    9058.0761    11153.556    723.98508    170.91247    614.06801    -3058.762 
31595000    246.89372   -4758.5163    -4282.361   -4758.5163            0    10939.884    19.630654    19.824273    20.239618    7876.5194    12577.869    7249.0696    12992.714    390.28134    697.19119    380.30445   -3025.6861 
31596000    256.58012   -4729.9584   -4235.1221   -4729.9584            0    10054.826    19.880286    19.476259    20.516547    7943.8756    9981.9088    10456.564    9726.0047    732.26257    237.84435   -482.77506   -3070.2376 
31597000    248.74509   -4722.0008    -4242.275   -4722.0008            0    10822.459    19.802667    19.728051    20.230235    7903.3059    9921.9684    11044.828    11500.579   -32.734884    368.81532    1853.8599    -2994.861 
31598000    254.51861   -4740.1124   -4249.2519   -4740.1124            0    12495.987    19.919821     19.44255    20.443735    7917.6975    11728.393    12999.471    12760.096    864.88535    487.00922   -1139.6111   -2806.3216 
31599000    244.10588   -4718.6337   -4247.8549   -4718.6337            0    9651.0805    19.874451      19.8183    20.176843    7947.2112    11440.708     8774.718    8737.8152   -978.23792    67.532412    508.34029   -3129.2761 
31600000    243.25067   -4716.8562   -4247.7268   -4716.8562            0    10846.407     19.66812    19.842663    20.261727    7907.5011    11648.314    9918.6662    10972.242    66.623461    1862.7837   -897.79131   -2996.8888 
31601000    236.38069   -4741.3027   -4285.4227   -4741.3027            0    11533.369     19.50942    19.589946    20.685592     7905.795    11123.799    13109.159    10367.147    222.51549     170.1816   -308.75776   -2955.6494 
31602000    237.65896   -4697.2355   -4238.8902   -4697.2355            0    12851.047    19.656256    19.916022    20.247538    7926.3934    14527.829    10966.838    13058.475   -1115.3738    935.47256   -170.98418   -2753.3307 
31603000    253.84783   -4715.9583   -4226.3914   -4715.9583            0    9987.6203     19.77073    19.475466    20.536341    7907.3987    9461.7584    10239.444    10261.659   -381.57552   -1103.0952     2220.472    -3074.606 
31604000    253.77179   -4713.9745   -4224.5542   -4713.9745            0     11586.18    19.602793    19.789683    20.325697    7885.0097    12423.193    11323.819    11011.528    676.83227   -422.03952     399.1405    -2892.204 
31605000    258.57457   -4704.6919   -4206.0091   -4704.6919            0    9970.9957    19.633433    19.797623    20.388034    7924.7333    10555.572    8602.4552    10754.959    625.74711    1326.6761    888.45319   -3053.6202 
31606000    247.19468   -4741.0711   -4264.3354   -4741.0711            0    13071.695    19.810364    19.725027    20.220762    7901.4645    14218.555     12774.86    12221.671   -196.14998     549.9663   -627.63313   -2758.0218 
31607000    242.05454   -4716.1781   -4249.3556   -4716.1781            0    10185.328    19.764648    19.670913     20.45737    7953.5939    11877.955    8704.9361    9973.0942    1656.7247    515.52898    548.45228   -3067.9083 
31608000    245.43728   -4714.9396   -4241.5931   -4714.9396            0    9261.1835    19.927323    19.894242    20.287287    8042.6716    9357.0675    9034.1145    9392.3686   -22.310029    -1335.351    325.84934   -3155.3108 
31609000    245.86877   -4713.3604   -4239.1818   -4713.3604            0    12001.506    19.796566      19.6797    20.312398    7913.5168    10854.585    12428.317    12721.616      660.325   -701.94419   -628.94185   -2854.0816 
31610000      249.597   -4685.5837   -4204.2149   -4685.5837            0    12663.197    19.720941    19.425339     20.57513    7882.0433    12261.632     13727.91     12000.05    112.09143    -592.8483    1031.0328   -2748.5612 
31611000    251.74364   -4681.3393   -4195.8305   -4681.3393            0    13508.854    19.802449     19.38237    20.406831    7832.5172    12483.984    13440.619    14601.959   -1084.3388    1211.7222    109.04202   -2652.7245 
31612000    243.74767   -4697.3378   -4227.2499   -4697.3378            0    13220.033    19.645083     19.70346    20.329257    7868.9701    12464.299    15048.856    12146.944   -395.49517    1342.2623    244.45161   -2710.1076 
31613000    235.77866   -4737.6485   -4282.9295   -4737.6485            0    7666.2292     19.53173    19.863692    20.618203    7999.2911     7398.986    8700.0018    6899.6996    742.25385    821.18662   -244.00083    -3388.576 
31614000     250.5637   -4712.6516   -4229.4184   -4712.6516            0    12198.218    19.559901    19.791658    20.395068    7895.3974    14314.095    11433.896    10846.662    1045.1323    1512.7587    942.44741   -2824.8391 
31615000    244.46326   -4712.7227   -4241.2547   -4712.7227            0    11598.837    19.618101    20.166208    20.030487    7924.5157    13017.361    11007.697    10771.454   -299.89954    189.87938    966.20095   -2900.7663 
31616000    239.12819   -4733.9524   -4272.7736   -4733.9524            0    10724.241    19.628678    19.714428    20.429859    7905.7051     9371.168    11407.804     11393.75    98.361685    1028.1375    353.22063   -3036.3051 
31617000    242.65866   -4728.2514   -4260.2638   -4728.2514            0    13515.794    19.515836    19.803977    20.255125    7828.4267    16757.933    11075.286    12714.163    164.53401     26.61256   -377.41997   -2717.1713 
31618000    240.21014    -4718.997   -4255.7316    -4718.997            0    12187.947     19.72282    19.695926    20.346358    7903.7304    10374.162    13276.951    12912.728    -180.5916   -450.60348    731.47013   -2850.8537 
31619000    243.81077   -4724.9863   -4254.7767   -4724.9863            0    13400.429    19.564418    19.960056    20.074863     7839.372    13998.262    13390.183    12812.842   -573.10022   -817.83878   -512.44385   -2722.7164 
31620000    246.07998   -4703.6907   -4229.1048   -4703.6907            0    12235.523    19.633849    19.706228    20.298115    7853.5255    10930.839    12921.704    12854.028    -872.8972    -21.48461   -94.917364   -2827.7016 
31621000    246.62048   -4744.0435   -4268.4151   -4744.0435            0    12144.175    19.383464    19.667925    20.619943     7860.993    14005.526    12026.876    10400.123    547.04945    86.434079    885.51714    -2876.152 
31622000    242.84995   -4676.8962   -4208.5397   -4676.8962            0    10660.082    19.696323    19.720914    20.406246    7926.3879    10661.104    11302.748    10016.394   -321.09689   -232.09322    328.26576    -2976.253 
31623000    250.67938   -4721.6487   -4238.1924   -4721.6487            0     11877.07    19.732468    19.831731    20.143828    7882.8642    11607.503    11169.645    12854.061   -371.97864    1263.2653   -232.17533    -2872.763 
31624000    241.09721   -4702.5015   -4237.5253   -4702.5015            0    12013.944     19.59612    19.899567    20.294633    7913.9796    10190.065    14265.431    11586.336    811.60843    756.83943   -1487.2647   -2850.9086 
31625000    251.14991   -4691.3561   -4206.9923   -4691.3561            0    12051.825    19.509778    19.736459    20.476196    7884.4396    11046.351    12436.552    12672.572   -601.68034   -1150.9797   -1358.6425   -2821.1956 
31626000    239.86653   -4731.0837   -4268.4809   -4731.0837            0    12461.002    19.516199    19.689772    20.464439    7863.8601    13518.081    13265.489    10599.435   -134.74446    847.86205   -290.74991   -2839.3744 
31627000    233.55573   -4703.2369    -4252.805   -4703.2369            0    12537.001    19.722064    19.780685    20.279363    7911.3026    12449.497    12186.665    12974.841    273.33594    1538.2429   -811.98156    -2806.308 
31628000    247.52576   -4715.0838   -4237.7095   -4715.0838            0    15238.791    19.612318    19.749282    20.072024     7774.481    16554.659    13918.011    15243.703    1000.2871   -163.68635    268.04007   -2509.8922 
31629000    251.79344   -4687.8923   -4202.2874   -4687.8923            0    10799.458    19.787231    19.786769    20.313099    7953.0933    11825.918    10468.425    10104.031   -440.59058    1041.0674    2741.3049    -2949.683 
31630000     240.9077   -4741.9657   -4277.3549   -4741.9657            0    11933.119    19.558659     19.74276    20.367524    7864.7545    11701.637    13219.498    10878.222   -152.16764    1394.0871    1588.8583   -2908.6336 
31631000    232.49041   -4735.4988   -4287.1215   -4735.4988            0    12057.675    19.527811    19.582192    20.686321    7910.3939    12339.771    13694.673     10138.58   -669.38147    1145.8838    -346.3457   -2896.0881 
31632000    250.32126   -4681.8501   -4199.0845   -4681.8501            0    13367.104    19.534543    19.721832    20.386998    7854.2336    13758.653    12751.405    13591.253   -29.021097    878.60265    1381.7009    -2667.937 
31633000    246.32041    -4677.945   -4202.8954    -4677.945            0    12936.434    19.362227    19.962688    20.445265    7902.5469    14647.519    11389.539    12772.243    -599.9602   -1734.5708   -176.17755   -2711.9644 
31634000    238.70882   -4712.4699   -4252.0999   -4712.4699            0     11622.75    19.740164    19.715645    20.133493    7835.7551    11818.118    12040.655    11009.477    121.24731   -1433.8798   -928.37683   -2923.8932 
31635000     250.4909   -4723.7218   -4240.6291   -4723.7218            0    11454.092    19.446003     19.71819    20.497596    7859.5977    11262.723    12379.722    10719.831    319.90004    226.25588    625.91211   -2927.7133 
31636000    256.03529   -4747.1485   -4253.3629   -4747.1485            0    11511.376    19.791465    19.739747    20.479861    8001.0414     11494.19    12433.008     10606.93    107.51603    103.56664   -746.96854   -2910.1352 
31637000    242.74271   -4727.1726   -4259.0228   -4727.1726            0    10842.524    19.702833    19.588138    20.476063    7902.5686     10947.53    10612.827    10967.217    593.12742    815.59586      349.615   -3009.4126 
31638000    246.97442   -4716.0772   -4239.7663   -4716.0772            0    15548.503    19.754448    19.400663    20.340188    7795.3648     14688.24    16208.765    15748.503    523.21085    292.20429    602.57478   -2472.0975 
31639000    237.87857   -4744.6468   -4285.8779   -4744.6468            0    10110.589    19.752757    19.455298    20.553715    7898.7055     7689.765    12771.307    9870.6958     421.9591   -280.71983   -445.84957   -3121.1935 
31640000    242.34092   -4700.0024   -4232.6276   -4700.0024            0    11834.401    19.839505    19.871367    20.155013    7945.8739    12637.648    11434.617    11430.939    706.36875    1.8392792     1025.132   -2861.2285 
31641000    243.13262   -4723.2851   -4254.3834   -4723.2851            0    11130.341    19.766177    19.575178    20.475828     7922.639    10749.111    11322.394    11319.516    293.78074     1650.255   -1191.6597   -2968.3442 
31642000    257.26466   -4756.4359   -4260.2794   -4756.4359            0    10280.894    19.609405    19.742066    20.559979    7959.3881    10219.734     11336.05    9286.8974   -267.30544    1080.7102   -812.61699   -3066.8783 
31643000    239.82627   -4707.2891   -4244.7639   -4707.2891            0    12232.564    19.814423    19.682355    20.179437    7869.8696    13100.432    12982.304    10614.957    44.813035    980.32895   -2382.3303   -2840.7839 
31644000    243.93417   -4720.2212   -4249.7736   -4720.2212            0    11472.947     19.54469    19.720683    20.658428    7962.4735    13742.663    10767.151    9909.0271    -544.0029    116.58011   -1120.4022   -2917.4833 
31645000    243.33808   -4708.5716   -4239.2736   -4708.5716            0    11463.478      19.5977    19.748036    20.412358    7899.9112    11097.056        10917    12376.377    447.73589    102.80503   -178.01211   -2918.5423 
31646000     242.4689   -4733.9212   -4266.2995   -4733.9212            0    8634.5105    19.480887    19.853258    20.635047    7980.7916    9097.5135    9682.3844    7123.6336    182.64932    661.72035    -1321.932   -3261.3145 
31647000    251.00877   -4754.0248   -4269.9333   -4754.0248            0    11894.577    19.644166    19.579076     20.47067    7873.3187    11815.872    12110.774    11757.087    555.55873   -615.30402   -209.53473    -2904.147 
31648000    250.11133   -4736.6283   -4254.2676   -4736.6283            0     10879.81    19.482174    19.645363    20.578036    7875.9221     10697.11    11801.724    10140.596   -133.83385    1333.5529    237.50722   -3004.5882 
31649000    251.32046   -4700.1596    -4215.467   -4700.1596            0    13971.847    19.743757    19.718021    20.115428    7831.0933    12341.758    15341.804    14231.979    40.648803   -1135.4771    624.08291   -2619.7638 
31650000    237.16316   -4708.2968   -4250.9077   -4708.2968            0     11036.05    19.710751    19.757371    20.326179    7915.6774    11304.461    10252.773    11550.918    163.84722   -422.03696    -619.7822   -2976.8836 
31651000    262.59682   -4725.6337   -4219.1936   -4725.6337            0    12487.624    19.682698    19.768205    20.396599    7936.1455     13126.11    13099.014    11237.748    261.86766   -499.94928    1811.7576   -2773.8693 
31652000    246.37979   -4703.2047   -4228.0406   -4703.2047            0    11669.514    19.490527    19.969478    20.308182     7904.262     10630.69    12013.571     12364.28    -378.4083   -627.41662   -1339.3479   -2882.8309 
31653000    247.93597    -4711.427   -4233.2616    -4711.427            0    13337.241    19.494085    19.663239    20.428982     7830.773    15253.461    11387.281    13370.982   -999.55637    -131.5917    377.35959   -2710.0981 
31654000    250.91673   -4715.1239   -4231.2099   -4715.1239            0     14185.49    19.562992    19.803229    20.185705    7820.1519    15667.866    12670.649    14217.954    514.45674   -5.5381286    1410.0497   -2613.3705 
31655000    244.12738   -4715.2522    -4244.432   -4715.2522            0    12175.847    19.618949    19.839101    20.255216    7883.7819    13166.842    11113.146    12247.553   -712.37804    -16.22902    612.37631   -2844.4912 
31656000    237.94735   -4731.6089   -4272.7074   -4731.6089            0    10435.016    19.649811    19.653058    20.573434    7945.0256    9088.9346    12258.854    9957.2593    421.12678   -935.49253    1070.2999   -3063.6016 
31657000    251.18653   -4714.0589   -4229.6246   -4714.0589            0     11469.69    19.592543    19.691254     20.43312    7883.1333     12109.59    11153.718    11145.762   -26.664088    110.05761    1500.3007    -2910.984 
31658000    234.41979    -4736.135   -4284.0367    -4736.135            0    10968.451    19.454432    19.756117    20.589656    7913.5112    11814.446    10558.277    10532.629   -365.55188    570.67936    214.35827   -3018.1629 
31659000     238.2632   -4710.8275   -4251.3169   -4710.8275            0    11211.321    19.688337     19.39761    20.522533    7837.6927    10664.084     11893.75    11076.129   -364.08897    1158.5026   -219.64657   -2969.8101 
31660000    251.62284   -4728.0889   -4242.8131   -4728.0889            0    11874.806    19.683359    19.736617    20.469136    7951.9097    14102.325    10113.441    11408.654    398.38078    392.60824    669.04657   -2865.6865 
31661000    242.18087   -4734.3062   -4267.2401   -4734.3062            0    11816.373    19.730696    19.977332    20.187408    7957.2032    12367.723    10563.641    12517.755    155.61947      -12.604   -1636.1273   -2895.9778 
31662000    252.25736    -4724.115   -4237.6155    -4724.115            0    11336.992    19.882598    19.493087    20.355542     7889.263    10040.763     13484.05    10486.164    273.81142    1551.5205    -1383.133   -2933.2173 
31663000    252.26093   -4731.4561   -4244.9497   -4731.4561            0    12035.602    19.669744    19.755034    20.579766    7996.8126    9525.6568    14240.027    12341.123    90.597028    1796.2055   -47.684801   -2841.2939 
31664000     242.2817   -4734.2979   -4267.0372   -4734.2979            0    11279.953    19.645977    19.826932    20.376249     7936.945    12870.103    10354.513    10615.244    810.33959   -562.96789    199.57062   -2961.3578 
31665000    249.58765   -4732.8435   -4251.4928   -4732.8435            0    10460.137     19.70481    19.896414    20.222747    7928.4301    10947.585    9000.0769     11432.75    271.12954    2904.1363    182.31802   -3042.0078 
31666000    251.30624   -4706.8143   -4222.1491   -4706.8143            0    11968.815    19.709086    19.666703    20.343831    7885.5279    13227.824    12551.938    10126.683   -398.22711    802.90533    97.987008   -2845.7074 
31667000    247.63027   -4715.7697   -4238.1939   -4715.7697            0    11920.588    19.737989    19.795855    20.167252    7879.9579    12454.873    12109.489    11197.403   -382.39443    163.17279   -240.82282   -2868.2667 
31668000    250.56444   -4698.9763   -4215.7417   -4698.9763            0    11940.867    19.696244    19.692949    20.375197    7903.0729    11428.018    11816.803    12577.781   -778.76713    268.18879   -24.795396   -2839.4587 
31669000    261.95941   -4706.3172   -4201.1064   -4706.3172            0    12742.176     19.48818     19.65277    20.492636    7848.6124      12711.4    13022.294    12492.833    220.14775    1171.8433   -550.48468   -2742.5865 
31670000    241.49655   -4701.3831   -4235.6367   -4701.3831            0    11940.944    19.767624    19.915106    20.189121    7947.9386    11081.687    12810.736    11930.408    198.83987   -650.29727    1755.4497   -2851.5317 
31671000    250.75448    -4708.174   -4224.5729    -4708.174            0    10961.243    19.864542    19.792234    20.144674    7920.1537    10721.362    9524.4426    12637.924    495.84705   -180.68282    539.70743   -2958.4692 
31672000    244.90566   -4728.1976   -4255.8765   -4728.1976            0    12667.998    19.640901    19.779531    20.291676    7883.0686    10472.048    13753.995    13777.952    620.84132   -537.81929   -1085.0139   -2799.4814 
31673000     243.9807   -4741.5552   -4271.0179   -4741.5552            0    13073.438    19.650586    19.709531    20.471831    7928.8183    13794.411    12954.164    12471.739   -347.78984   -162.59395   -536.41004   -2759.2881 
31674000     248.3504   -4729.0327    -4250.068   -4729.0327            0    10555.271    19.727229    19.940029    20.181194    7938.5049    11827.555    8329.4409    11508.818    447.81338    211.12795   -1191.9734    -3028.032 
31675000    247.44159   -4731.6417   -4254.4298   -4731.6417            0    11094.532    19.684498    19.625586    20.492909    7916.8169    12272.674    11200.693     9810.229   -904.41526   -443.28624    700.24756     -2973.47 
31676000    250.07441   -4763.7075    -4281.418   -4763.7075            0    10162.119    19.682144     19.87445    20.290803    7937.1899    11488.275    8916.4056    10081.675   -452.97516   -265.15652    -618.2648   -3105.0941 
31677000    250.52516   -4719.0234   -4235.8646   -4719.0234            0    12215.514    19.701763    19.617497    20.433248    7897.4357    11800.201    12698.083    12148.257    134.09539    1138.2157   -35.689365   -2828.9306 
31678000    246.92482   -4719.0072    -4242.792   -4719.0072            0    9942.2724    19.541825    19.855723    20.439676    7930.9429    9969.2343    8531.2336    11326.349    205.67854   -1.9464535    189.74602   -3092.8223 
31679000    248.66895   -4689.6254   -4210.0464   -4689.6254            0    10492.435    19.754829    19.566762    20.458919    7908.1503    8635.4817    13192.702    9649.1213   -194.95387    1147.6133   -281.69073   -2999.9301 
31680000    261.36709    -4732.692   -4228.6236    -4732.692            0    11137.874    19.555867    19.887758    20.286756    7889.9727    13586.181    8312.1815     11515.26   -731.00333    887.03663   -1221.1168     -2947.02 
31681000    244.05875   -4716.8095   -4246.1217   -4716.8095            0    13271.236    19.748437    19.366926    20.625072    7888.3999    12756.938    15260.005    11796.763   -371.19411    554.42797   -170.21704   -2719.3427 
31682000    246.39977   -4711.3096   -4236.1069   -4711.3096            0    13893.579    19.577927    19.763018    20.267141    7841.7408    11659.521    16140.696    13880.519    -638.8983    1309.4589   -583.43652   -2647.1852 
31683000    238.38896    -4715.418   -4255.6649    -4715.418            0    12916.088    19.390161     19.77774    20.402154    7824.0948    13456.114    12720.918    12571.231    470.67748   -268.81211    189.79278   -2781.8566 
31684000    236.96446   -4715.0705   -4258.0646   -4715.0705            0    11796.323    19.616617     19.83464    20.180524    7852.0102    13429.729     10678.52    11280.721    26.493135   -480.63333   -1324.6437   -2907.2261 
31685000    254.77998   -4711.8673   -4220.5026   -4711.8673            0    13805.982    19.731207    19.590621     20.39327     7882.949    15141.712     12952.57    13323.665    355.77486   -1224.7041    1275.1078   -2633.3017 
31686000    258.63694   -4709.8271    -4211.024   -4709.8271            0    12548.444    19.371101    19.742623    20.632113    7890.4698    13619.305     12670.56    11355.468   -905.91747     114.0003    635.00829   -2767.0191 
31687000    241.32483   -4723.0788   -4257.6636   -4723.0788            0    10866.594    19.662157    19.856062    20.318115    7932.4563    8749.4692    11651.233    12199.081    620.19216    343.95969    -130.5187   -3000.5427 
31688000    244.29204   -4692.5463   -4221.4086   -4692.5463            0    12692.641    19.354445    19.638273    20.622587     7838.395    13925.875    13530.891    10621.155    -391.0656   -160.52016   -146.50115     -2770.45 
31689000    238.01738   -4732.6126   -4273.5761   -4732.6126            0    11267.756    19.618592    19.700203    20.372603    7873.8123     12598.54    9514.1948    11690.532   -205.18111    1082.4672     235.5961   -2979.6831 
31690000    257.86982   -4706.2419   -4208.9182   -4706.2419            0    11074.095     19.52761    19.913369    20.362488    7918.1673    10322.074    11069.257    11830.954   -692.00331     511.3036   -171.28448      -2930.1 
31691000    252.20457   -4730.7618   -4244.3641   -4730.7618            0    10359.035    19.721047    19.729574     20.44224    7953.8274    11030.595    8182.6691    11863.842    53.732128   -390.21961    442.38209   -3042.7324 
31692000    257.88706   -4721.9391   -4224.5822   -4721.9391            0    11792.158    19.379588    19.808627    20.453808    7851.8696    12509.567    10892.115    11974.793    761.80131    298.48403    476.74101   -2874.2449 
31693000     250.4278   -4704.4564   -4221.4853   -4704.4564            0    13032.318    19.539144    19.574792    20.463172    7826.6455     12483.53    14152.413     12461.01    365.88048    483.03922    -766.1198   -2733.9297 
31694000    250.27565   -4689.5973   -4206.9197   -4689.5973            0    14246.178    19.354052    19.714058    20.511557    7826.1212    14792.782    14425.119    13520.633   -660.55411   -243.45574    334.88031   -2580.9186 
31695000    251.40885   -4715.8499   -4230.9867   -4715.8499            0    12105.242    19.407431    19.757288    20.421033    7830.2043    13207.539    12392.327     10715.86    375.13908   -1190.3363   -409.98375   -2848.6226 
31696000    251.35503   -4726.5699   -4241.8106   -4726.5699            0    12110.773    19.447918     19.66457    20.554237    7860.6585    12792.349    12227.978    11311.991   -254.22668    256.77677    893.29326    -2853.436 
31697000    244.91805   -4723.4514   -4251.1064   -4723.4514            0    10302.916    19.839119    19.564792    20.503712    7958.4797    8460.8188    12502.106     9945.823    50.986559    1091.0438    517.73834   -3055.2854 
31698000    259.37604    -4744.231   -4244.0025    -4744.231            0    11387.676    19.586168    19.836343    20.423448    7934.8762    9810.7675    12206.303    12145.956    855.21015    59.429586    191.14228   -2926.1976 
31699000    245.41859   -4692.9609   -4219.6505   -4692.9609            0    12243.413    19.449137      19.7171    20.619931    7907.3435    12000.505    13909.693    10820.041   -1245.0279   -314.24171    220.35697   -2807.7341 
31700000     243.0345   -4726.1622   -4257.4498   -4726.1622            0    10834.763    19.639947     19.74384    20.445896    7928.2637     8865.705     11060.16    12578.424   -613.96921   -762.70728   -954.77663   -3004.6739 
31701000    248.65338   -4735.4791   -4255.9302   -4735.4791            0    12452.189    19.564884    19.883053    20.334051    7910.1417    11614.848    11234.393    14507.326   -277.30558   -1262.7349    1548.5782   -2819.4294 
31702000    247.71965   -4702.1226   -4224.3744   -4702.1226            0    11807.937    19.838673    19.668439    20.077187    7834.0326    12290.143    9760.6014    13373.066     426.7834    33.631623    541.71424   -2875.3019 
31703000    245.35511   -4737.1556   -4263.9676   -4737.1556            0    11522.917    19.446469    19.778101    20.479977    7876.8904      14561.2    8637.3293    11370.222   -259.20297   -174.84302   -507.86379   -2940.2568 
31704000    241.78742    -4752.344   -4286.0366    -4752.344            0    9604.1185    19.615903    19.912511    20.448028    7987.0381    9754.0732    10823.588    8234.6939    588.06193    1574.7279   -211.03038   -3167.3224 
31705000     235.5688   -4730.1783   -4275.8641   -4730.1783            0    10736.653    19.844394    19.683864    20.298126    7928.7391    9901.1095    12179.198    10129.653   -1005.5447     1434.087    930.83736   -3034.3577 
31706000    238.56221   -4722.1021   -4262.0148   -4722.1021            0    11606.394    19.370731    19.627939    20.664688    7856.8697    10772.496    12071.403    11975.284   -1035.0417    1715.2866    1126.8873   -2932.1032 
31707000    255.80815   -4734.7708   -4241.4233   -4734.7708            0    11954.062    19.653124    19.610035    20.512922    7905.6484    11000.819    12427.469    12433.898    513.52572   -369.11178    82.604155   -2863.1705 
31708000    248.52156   -4722.5785   -4243.2838   -4722.5785            0    10432.124    19.642903    19.885904     20.33997    7945.1359    12102.362    7806.6593    11387.349    476.41717    13.295551   -843.22554   -3034.4963 
31709000    246.03911   -4720.5642    -4246.057   -4720.5642            0    10569.365    19.628445    19.735818    20.464758    7927.7081    10356.306    10560.846    10790.944   -84.602809    864.77495    972.81078   -3024.0535 
31710000    260.63759   -4700.5759   -4197.9144   -4700.5759            0    12547.121    19.561742    19.520581    20.539524    7843.1521     14351.78    11827.717    11461.867    -758.2606   -683.53211    1109.7762   -2762.7204 
31711000    248.86099   -4724.8889   -4244.9395   -4724.8889            0    11800.233    19.780595    19.675593    20.351366    7920.6481    11369.133    12424.052    11607.513    347.04697   -1027.4512   -770.08283   -2881.8412 
31712000    242.22861   -4696.7724   -4229.6142   -4696.7724            0    14041.227    19.472731    19.486884    20.601316    7817.4341    13042.196    14877.943    14203.542   -240.13494    65.620729    1518.5494   -2628.7843 
31713000    252.17025   -4692.9059   -4206.5744   -4692.9059            0    14953.461     19.93665    19.609134    20.096391    7856.4922    14238.716     15405.18    15216.486    1111.5737    868.91266    805.78757   -2493.2235 
31714000    258.08382   -4735.4373    -4237.701   -4735.4373            0    12133.717    19.650374     19.70761     20.49957    7938.7025    14499.219    10571.659    11330.274   -108.66715   -284.76469   -706.42517   -2832.8855 
31715000    252.63571   -4777.4087   -4290.1795   -4777.4087            0    12308.162    19.674344    19.969598    20.119427    7904.6961    11439.315    11717.411     13767.76    661.32376    -167.6037    176.31857   -2871.2714 
31716000    245.31713   -4722.0276   -4248.9129   -4722.0276            0    13092.046    19.769405    19.602878    20.283445    7860.5903    12107.296     13646.12    13522.722    3.5939795    1527.5983    2234.9899   -2748.0585 
31717000    246.26575   -4739.7095   -4264.7653   -4739.7095            0    13638.855    19.763504    19.609046     20.31784    7874.0459    13731.396    13964.895    13220.275    807.03683   -362.12175   -63.004975   -2698.5489 
31718000    252.16502   -4709.3163   -4222.9949   -4709.3163            0    10963.805    19.713005    19.672239    20.444944    7928.5278    13719.042    9129.1081    10043.266   -1238.7292    1130.0697    843.97765   -2955.2561 
31719000    248.36714   -4704.3394   -4225.3425   -4704.3394            0    11554.695    19.627672    19.791186    20.270384    7874.1303    14743.587    8548.5368     11371.96   -688.14623    1044.3697    741.00952   -2898.4463 
31720000    237.18368   -4737.8254   -4280.3967   -4737.8254            0    9977.0725    19.615388    19.974065    20.343032    7970.3801    11473.335    7883.3552    10574.528    -834.4176    600.41039   -917.84317   -3120.6637 
31721000    248.27227   -4726.1907   -4247.3767   -4726.1907            0    13132.256     19.48078    19.742312    20.625184    7932.3556    13840.185    12396.666    13159.918   -550.59578   -10.831251    4.7029163   -2728.1681 
31722000    237.94562   -4721.0196   -4262.1215   -4721.0196            0    12787.036    19.777775    19.820292    20.141194    7895.3737    11769.666    12772.422    13819.019    21.935008    15.638064    301.09804   -2789.7464 
31723000    250.95769   -4746.2786   -4262.2856   -4746.2786            0    10816.825      19.6206    19.659614    20.448333     7887.606    10783.998    11046.832    10619.644   -269.66732    124.45056    1274.2644   -3017.9976 
31724000    256.04503   -4751.5662   -4257.7618   -4751.5662            0     8949.363    19.500374    19.891976    20.530741    7963.8949    10248.094    8455.5987    8144.3968   -929.54705    703.89957    410.55041   -3218.3359 
31725000    247.73753   -4730.4754   -4252.6927   -4730.4754            0    12550.045    19.542233     19.83608     20.22913    7841.6463    12646.193     12029.38    12974.561   -832.74401   -745.10829    58.463799   -2817.4399 
31726000    240.60132   -4720.0387   -4256.0189   -4720.0387            0    11110.069    19.546527    19.787256    20.488458     7924.365    11450.922    10680.186      11199.1    696.94099   -489.66846   -473.65712   -2972.0422 
31727000    257.52411   -4682.0137   -4185.3568   -4682.0137            0    11672.137     19.48116    19.726059    20.573431    7906.0921    11338.683    12631.326    11046.403   -54.392724   -24.095071   -218.67714   -2839.5332 
31728000    250.32979    -4699.152     -4216.37    -4699.152            0    11630.235    19.725497    19.309581    20.750764    7903.7807    11230.924    13193.872    10465.908   -392.75054    378.18304    591.77142   -2875.7699 
31729000    242.89244   -4703.7352   -4235.2967   -4703.7352            0    11651.492    19.875027    19.725548    20.311829     7963.167    10819.863    11482.766    12651.847   -480.72214   -76.323006     788.1874   -2882.1551 
31730000    259.47051   -4699.8342   -4199.4235   -4699.8342            0    11644.443    19.742949    19.746203     20.25973     7898.221    13426.401    10244.767     11262.16   -548.06289    477.09257    120.26236   -2858.1298 
31731000    256.03315   -4694.0375    -4200.256   -4694.0375            0    14139.406    19.672286    19.369805    20.523059    7820.2777    13188.946    15367.703    13861.568    317.18994    1156.5852    398.42192   -2587.6465 
31732000    248.27051   -4709.4581   -4230.6475   -4709.4581            0    12307.212    19.599941    19.712443     20.42779    7892.5366    11671.127    12303.754    12946.755   -389.68708   -1028.7053   -1996.8997   -2814.0314 
31733000    245.52652   -4726.5503   -4253.0318   -4726.5503            0     12052.68    19.997768    19.438677    20.332458    7903.8396    13077.928        11802    11278.113    157.19409    153.57361    923.87474   -2863.7267 
31734000    243.66004   -4703.1189      -4233.2   -4703.1189            0    11560.259    19.572322    19.644359     20.63803    7935.0277    10982.005    12071.042    11627.731   -1178.9098    1211.6978   -1799.8944   -2895.3978 
31735000    236.92588   -4716.3618   -4259.4303   -4716.3618            0    10134.179    19.817059    19.533742     20.29027    7854.3901     10242.04    9139.3533    11021.145    233.14388   -459.58563   -24.273818   -3098.5781 
31736000    243.80511   -4730.0169   -4259.8183   -4730.0169            0    11824.882    19.649291    19.739861    20.394324    7910.4335    13380.107    11121.825    10972.715    578.12778    206.03976     1208.392   -2895.6341 
31737000    244.17591   -4723.1564   -4252.2426   -4723.1564            0    11490.912    19.669224    19.588048    20.614136    7942.2496    11581.596    12198.671    10692.471    553.64729   -276.28528   -156.24079   -2921.2553 
31738000    252.53411   -4724.7862   -4237.7529   -4724.7862            0    11054.311    19.889461    19.656095    20.406397     7977.863    9095.6998    13653.816    10413.416    1066.8697   -1583.3131   -1109.8333   -2951.5955 
31739000     243.6316   -4707.3165   -4237.4525   -4707.3165            0    13220.108    19.740515    19.871233    19.960654     7829.933    14045.123    12012.288    13602.914   -1579.4245   -11.946723    1217.2641   -2727.8279 
31740000    248.40773   -4711.7198   -4232.6447   -4711.7198            0    11555.367    19.833164    19.465735    20.439567     7891.045    10483.186    12780.962    11401.952    400.09254    1011.8916    75.642017   -2902.8207 
31741000    238.01271   -4736.5948   -4277.5673   -4736.5948            0    11960.671    19.729975    19.771388    20.469725    7985.0145    11035.126    11936.481    12910.405    104.98535   -694.20726   -1197.8984   -2884.7084 
31742000    254.81138   -4733.8925   -4242.4674   -4733.8925            0    13045.291    19.854214     19.75703    20.148377    7903.4084    11516.046    12997.668    14622.157   -112.68562    637.96397   -606.60545   -2738.8267 
31743000     250.0128   -4712.8376   -4230.6669   -4712.8376            0    10864.558    19.547106    19.915214    20.449597    7960.7175        10449    11317.627    10827.046   -208.60232    533.07084    28.046632   -2969.3037 
31744000     249.9899   -4699.9958   -4217.8693   -4699.9958            0    12051.184    19.668209    19.638381    20.369595    7867.7925    9516.8661    14144.565    12492.121   -699.20918   -274.00433   -166.32464    -2835.072 
31745000    260.84429   -4710.8423   -4207.7821   -4710.8423            0    13065.498    19.476655    19.816848     20.46542    7898.9544    13847.204    12937.686    12411.605   -728.51436   -402.74787    87.922066   -2702.6609 
31746000    255.18192   -4711.9124   -4219.7726   -4711.9124            0    12528.027    19.540477    19.714046    20.428816    7869.6267    11780.533     11274.43    14529.117      370.214   -120.13535    147.99672   -2781.9255 
31747000    250.96158   -4721.6363   -4237.6358   -4721.6363            0    10970.642    19.677022    19.542218    20.451262     7864.178    11935.934    10599.795    10376.198    429.41576    187.45889    434.11895   -2979.4022 
31748000    254.34521   -4707.2227   -4216.6966   -4707.2227            0    13279.892    19.708728    19.576184    20.458115    7893.1842    13610.542     12804.98    13424.155    1345.0396     520.9321    1481.5473   -2687.9952 
31749000    244.20375   -4740.6049   -4269.6374   -4740.6049            0    11618.122    19.792075    20.000634    20.102215    7957.5432    12305.973    9411.6584    13136.735   -512.07294    640.74353    567.56926   -2921.3241 
31750000    256.32434   -4689.8115   -4195.4684   -4689.8115            0    13327.893    19.932065    19.615878     20.16922    7885.8613    13819.616    12780.062    13384.001    503.63698    734.03093      -1110.3   -2662.6648 
Loop time of 396.89 on 64 procs for 250000 steps with 972 atoms

Performance: 108.846 ns/day, 0.220 hours/ns, 629.898 timesteps/s
99.1% CPU use with 64 MPI tasks x 1 OpenMP threads

MPI task timing breakdown:
Section |  min time  |  avg time  |  max time  |%varavg| %total
---------------------------------------------------------------
Pair    | 21.195     | 29.374     | 39.036     |  79.9 |  7.40
Bond    | 0.26643    | 0.279      | 0.29143    |   1.0 |  0.07
Kspace  | 152.75     | 165.6      | 176.69     |  39.6 | 41.72
Neigh   | 2.5592     | 2.8539     | 3.1953     |  11.3 |  0.72
Comm    | 86.289     | 91.729     | 97.991     |  29.6 | 23.11
Output  | 1.2819     | 1.2827     | 1.2957     |   0.1 |  0.32
Modify  | 98.295     | 100.33     | 102.03     |   7.9 | 25.28
Other   |            | 5.439      |            |       |  1.37

Nlocal:        15.1875 ave          20 max          11 min
Histogram: 2 8 4 11 8 13 9 5 3 1
Nghost:        2324.39 ave        2368 max        2285 min
Histogram: 2 5 7 10 13 7 10 5 4 1
Neighs:        4969.33 ave        6987 max        3286 min
Histogram: 6 5 4 8 16 6 12 3 1 3

Total # of neighbors = 318037
Ave neighs/atom = 327.19856
Ave special neighs/atom = 2.0000000
Neighbor list builds = 6929
Dangerous builds = 0

unfix		3
unfix		2
unfix		1

write_data	data.final.${pid}
write_data	data.final.0
System init for write_data ...
PPPM initialization ...
  extracting TIP4P info from pair style
  using 12-bit tables for long-range coulomb (../kspace.cpp:340)
  G vector (1/distance) = 0.37272564
  grid = 24 24 24
  stencil order = 5
  estimated absolute RMS force accuracy = 0.00344007
  estimated relative force accuracy = 1.0359669e-05
  using double precision FFTW3
  3d grid and FFT values/proc = 2197 216
Last active /omp style is kspace_style pppm/tip4p/omp
WARNING: Not all mixed pair coeffs generated from mixing. Use write_data with 'pair ij' option to store all pair coeffs. (../write_data.cpp:312)

write_restart   restart.lmp.${pid}
write_restart   restart.lmp.0
System init for write_restart ...
PPPM initialization ...
  extracting TIP4P info from pair style
  using 12-bit tables for long-range coulomb (../kspace.cpp:340)
  G vector (1/distance) = 0.37272564
  grid = 24 24 24
  stencil order = 5
  estimated absolute RMS force accuracy = 0.00344007
  estimated relative force accuracy = 1.0359669e-05
  using double precision FFTW3
  3d grid and FFT values/proc = 2197 216
Last active /omp style is kspace_style pppm/tip4p/omp
Total wall time: 0:06:39
