LAMMPS (30 Jul 2021)
Processor partition = 0
  using 2 OpenMP thread(s) per MPI task
using multi-threaded neighbor list subroutines
variable        pid world 0 1
variable        phase world IceIh IceIII

shell cd ${phase}
shell cd IceIh
include Restart.lmp
echo both
log log.lammps
#include		in.partitions
include		in.temp
variable        temperature equal 232.72
variable	tempDamp equal 100.0
include		in.pressure
variable        pressure equal 1538.3
variable        pressureDamp equal 1000.0 # This is 1 ps
include		in.seed
variable        seed equal 745823

units		real
atom_style	full
#include		in.box
read_restart	restart.lmp.${pid}
read_restart	restart.lmp.0
Reading restart file ...
  restart file = 30 Jul 2021, LAMMPS = 30 Jul 2021
  restoring atom style full from restart
  orthogonal box = (0.020502761 0.10106889 0.13507589) to (18.187070 23.528109 22.078120)
  2 by 4 by 4 MPI processor grid
  restoring pair style lj/cut/tip4p/long/omp from restart
  restoring bond style harmonic/omp from restart
  restoring angle style harmonic/omp from restart
  864 atoms
  576 bonds
  288 angles
Finding 1-2 1-3 1-4 neighbors ...
  special bond factors lj:    0        0        0       
  special bond factors coul:  0        0        0       
     2 = max # of 1-2 neighbors
     1 = max # of 1-3 neighbors
     1 = max # of 1-4 neighbors
     2 = max # of special neighbors
  special bonds CPU = 0.002 seconds
  read_restart CPU = 0.007 seconds
include 	in.setup
variable	out_freq equal 1000
variable	out_freq2 equal 10000
variable	out_freq3 equal 1000

timestep	2.0

neigh_modify    delay 7 every 1

include		in.tip4p
# This is TIP4P/Ice

# create groups ###
group ox type 2
288 atoms in group ox
group hy type 1
576 atoms in group hy

# set charges - beside manually ###
set group ox charge -1.1794
Setting atom values ...
  288 settings made for charge
set group hy charge 0.5897
Setting atom values ...
  576 settings made for charge

# ### TIP3P Potential Parameters ###
pair_style lj/cut/tip4p/long/omp 2 1 1 1 0.1577 8.5
pair_coeff 1 1*2 0.000 0.000
pair_coeff 2 2 0.21084 3.1668
bond_style  harmonic
bond_coeff  1 450 0.9572
angle_style harmonic
angle_coeff 1 55 104.52
kspace_style pppm/tip4p/omp 1.0e-5
pair_modify tail yes

thermo          ${out_freq}
thermo          1000
thermo_style    custom step temp pe etotal epair emol press lx ly lz vol pxx pyy pzz pxy pxz pyz enthalpy

restart 	${out_freq3} restart.lmp.${pid} restart2.lmp.${pid}
restart 	1000 restart.lmp.${pid} restart2.lmp.${pid}
restart 	1000 restart.lmp.0 restart2.lmp.${pid}
restart 	1000 restart.lmp.0 restart2.lmp.0


include         in.dump
dump            myDump all atom ${out_freq2} dump.water.${pid}
dump            myDump all atom 10000 dump.water.${pid}
dump            myDump all atom 10000 dump.water.0
dump            myDump2 all dcd ${out_freq2} dump.dcd
dump            myDump2 all dcd 10000 dump.dcd
dump_modify     myDump append yes
dump_modify     myDump2 append yes


variable natoms 	equal  "count(all)"                        # NUMBER ATOMS
variable H      	equal  "enthalpy/v_natoms"                 # ENTHALPY-per-atom
variable Vol      	equal  "vol/v_natoms"                 # volume-per-atom
fix AVG all 		ave/time ${out_freq} 1 ${out_freq} v_Vol v_H file vol_enthalpy.dat
fix AVG all 		ave/time 1000 1 ${out_freq} v_Vol v_H file vol_enthalpy.dat
fix AVG all 		ave/time 1000 1 1000 v_Vol v_H file vol_enthalpy.dat


timer           timeout 23:50:00 every 1000
New timer settings: style=normal  mode=nosync  timeout=23:50:00

fix 		1 all shake 1e-6 200 0 b 1 a 1
Finding SHAKE clusters ...
       0 = # of size 2 clusters
       0 = # of size 3 clusters
       0 = # of size 4 clusters
     288 = # of frozen angles
  find clusters CPU = 0.000 seconds
fix             2 all nph aniso ${pressure} ${pressure} ${pressureDamp}
fix             2 all nph aniso 1538.3 ${pressure} ${pressureDamp}
fix             2 all nph aniso 1538.3 1538.3 ${pressureDamp}
fix             2 all nph aniso 1538.3 1538.3 1000
fix             3 all temp/csvr ${temperature} ${temperature} ${tempDamp} ${seed}
fix             3 all temp/csvr 232.72 ${temperature} ${tempDamp} ${seed}
fix             3 all temp/csvr 232.72 232.72 ${tempDamp} ${seed}
fix             3 all temp/csvr 232.72 232.72 100 ${seed}
fix             3 all temp/csvr 232.72 232.72 100 745823


run             250000
PPPM initialization ...
  extracting TIP4P info from pair style
  using 12-bit tables for long-range coulomb (../kspace.cpp:340)
  G vector (1/distance) = 0.37165067
  grid = 24 27 25
  stencil order = 5
  estimated absolute RMS force accuracy = 0.0031566021
  estimated relative force accuracy = 9.5060135e-06
  using double precision FFTW3
  3d grid and FFT values/proc = 4410 672
Last active /omp style is kspace_style pppm/tip4p/omp
Neighbor list info ...
  update every 1 steps, delay 7 steps, check yes
  max neighbors/atom: 2000, page size: 100000
  master list distance cutoff = 10.8154
  ghost atom cutoff = 10.8154
  binsize = 5.4077, bins = 4 5 5
  1 neighbor lists, perpetual/occasional/extra = 1 0 0
  (1) pair lj/cut/tip4p/long/omp, perpetual
      attributes: half, newton on, omp
      pair build: half/bin/newton/omp
      stencil: half/bin/3d
      bin: standard
Setting up Verlet run ...
  Unit style    : real
  Current step  : 4000000
  Time step     : 2
  Walltime left : 23:49:59.93
Per MPI rank memory allocation (min/avg/max) = 10.19 | 10.21 | 10.23 Mbytes
Step Temp PotEng TotEng E_pair E_mol Press Lx Ly Lz Volume Pxx Pyy Pzz Pxy Pxz Pyz Enthalpy 
 4000000    246.69178   -4268.2297   -3845.4084   -4268.2297            0    1321.4173    18.166567     23.42704    21.943044    9338.7157    434.37271    890.03218     2639.847   -721.46844     22.90613    611.47079   -3665.4372 
 4001000     241.4444   -4304.5294    -3890.702   -4304.5294            0    527.21662    18.012272    23.309423    22.341009    9379.9996    1234.6243    1565.1432   -1218.1176    100.97215   -92.447068    38.682462     -3818.58 
 4002000    230.77455   -4293.0618   -3897.5221   -4293.0618            0    2294.5002    17.925701    23.664452    22.000161    9332.5098    2554.3842     1238.585    3090.5314    380.17893   -920.18089    471.96424    -3585.229 
 4003000     234.1295   -4301.9445   -3900.6545   -4301.9445            0    1530.6096    18.012648    23.499861    21.959876    9295.4995    1907.6493    788.52225    1895.6574    131.96898   -415.03162    312.32076   -3693.1569 
 4004000    215.41478   -4303.2725   -3934.0589   -4303.2725            0    464.08142    18.027828    23.579465    22.212936    9442.4201    434.12679    939.37279    18.744667   -546.41856   -787.95979    498.30952   -3870.1512 
 4005000    221.19659   -4261.3367   -3882.2133   -4261.3367            0    1778.3782    18.208487    23.344511    21.831178    9279.7397    1276.4039    1458.3685    2600.3621     608.3367    60.497182   -312.88433   -3641.5356 
 4006000    238.24675   -4287.8436   -3879.4968   -4287.8436            0    1783.6236    18.093626    23.329673    22.131398    9342.0696    2681.3847    1794.4423    875.04365    1154.2648    -136.0231    334.52948   -3636.4879 
 4007000    229.96891   -4287.0605   -3892.9016   -4287.0605            0    2726.4035    17.853262    23.464088    22.006033    9218.5584    3263.9413    2359.7777    2555.4915     536.0361    455.68814    222.62547   -3526.3551 
 4008000    237.07848   -4280.6249   -3874.2805   -4280.6249            0    1367.1272    18.099209    23.507771    21.779186    9266.4354     1108.998    1033.0406     1959.343   -197.53771   -485.22392   -117.71189    -3689.525 
 4009000    243.69932   -4280.9011   -3863.2088   -4280.9011            0    1422.7144    18.121423    23.156662    22.195386    9313.8867    3609.4787    961.69646   -303.03182   -425.31848    355.85679    294.06199   -3669.9566 
 4010000    236.27531   -4292.5461   -3887.5783   -4292.5461            0    435.80234    18.176395    23.546905    22.043706    9434.6587    749.95128   -63.781798    621.23755    516.91655   -51.219668    -297.8259   -3827.6142 
 4011000    231.47892   -4287.8286   -3891.0817   -4287.8286            0    1762.4869    17.815974    23.446274    22.266399    9301.0804    2807.9389    2596.3391   -116.81718   -348.31129   -297.85026    530.82939   -3652.0061 
 4012000    248.54001   -4280.3196   -3854.3305   -4280.3196            0    484.45323    17.933338    23.604757    22.083181    9348.0777    1026.9305   -548.56397    974.99314    -497.8045    892.01697   -22.084868    -3788.284 
 4013000    241.27083   -4282.7928   -3869.2628   -4282.7928            0     944.9108    18.054982    23.531794    21.992762    9343.9795    1668.8413    678.69076    487.20032   -379.38957   -470.71387    168.13438   -3740.4976 
 4014000    224.17093   -4292.9601   -3908.7388   -4292.9601            0     1686.275    17.931409    23.371102    22.232382    9317.0753    2081.5727    1674.6357    1302.6165    -754.3904    496.62395    288.14179   -3679.6078 
 4015000    233.38165   -4293.4859   -3893.4778   -4293.4859            0     1266.421    18.256099     23.32271    21.864024    9309.3017    1299.4743    206.95449    2292.8342    424.60725    332.52881   -213.64378   -3721.5401 
 4016000    228.55522   -4280.3206   -3888.5847   -4280.3206            0    538.19416    18.042965    23.350786    22.203515    9354.7273    1212.8347   -10.404834    412.15259   -745.64847   -239.87945   -223.96319   -3815.1594 
 4017000    240.41288   -4292.9141   -3880.8546   -4292.9141            0    3231.3994    17.976947    23.412722    21.876139    9207.4324    2198.3161    2642.2284    4853.6539    740.77321    218.59028    174.80181   -3446.9392 
 4018000    217.55963   -4293.6829   -3920.7931   -4293.6829            0    2192.9643    18.107885    23.330646     22.10733    9339.6542    2044.1267    2728.5588    1806.2075   -9.0183208    41.767845    697.73772    -3622.091 
 4019000    231.35651   -4285.0921    -3888.555   -4285.0921            0    1036.4948    18.249469    23.202967    22.013969    9321.6349    382.54464    1193.8366    1533.1033    585.21708    305.83224   -342.65488   -3747.6472 
 4020000    230.06981   -4303.4531   -3909.1213   -4303.4531            0    839.76072    18.020315    23.504969    22.105636    9363.2166    889.51262    1218.2826    411.48693    -38.74299    486.33617    807.91861   -3794.4495 
 4021000    228.72346   -4309.2575   -3917.2333   -4309.2575            0    2055.6955    17.753574    23.589188    22.181475    9289.4329    3074.0014    1412.7028    1680.3823    604.65593    591.12255    113.51966   -3638.7341 
 4022000    250.13851   -4302.8646   -3874.1357   -4302.8646            0     3009.623    18.068286    23.447246    21.930778    9291.0077    4003.0939     2103.485      2922.29    799.41739   -324.33027   -820.70973   -3466.3324 
 4023000    229.53227   -4308.1586   -3914.7481   -4308.1586            0    2113.7797    18.246474    22.896732    22.302855    9317.7903    2266.7875    3204.0284    870.52307   -758.02782   -207.20769    296.89778   -3627.5057 
 4024000    247.42423     -4266.84   -3842.7633     -4266.84            0    2638.1392    18.157466    23.364435    21.881208    9282.8607    1316.0539    5406.1296     1192.234   -731.44387   -276.98417    123.08346   -3485.6094 
 4025000    237.92346   -4292.0352   -3884.2426   -4292.0352            0    1709.5564    17.912454    23.507959    22.020519    9272.5157    2167.3246    2044.9557    916.38881    670.61291   -597.24468   -104.69742    -3653.059 
 4026000     242.9528   -4276.2753   -3859.8625   -4276.2753            0    2171.1121    17.783226    23.568029     22.12316    9272.1615    3456.4433    2056.8956    999.99741   -787.91948   -738.32535    533.99496   -3566.2739 
 4027000     246.5225   -4299.0957   -3876.5645   -4299.0957            0    1428.3839    18.087312    23.508362    21.971513    9342.3553    2000.1551    639.70291    1645.2938    183.66474    30.877796   -303.97128   -3681.9491 
 4028000     230.3027   -4301.9219   -3907.1909   -4301.9219            0    866.53153    18.226603    22.998606    22.287385    9342.5697    82.828253    2740.0855   -223.31919   -639.10905    299.36491   -592.66138   -3789.1244 
 4029000    226.24994   -4309.4111   -3921.6264   -4309.4111            0    1187.2296    18.048833     23.55374    21.886204    9304.2091    762.51961    2227.0704    572.09876    864.44665    -493.7545    41.003747   -3760.5284 
 4030000    238.58532   -4280.8122   -3871.8852   -4280.8122            0    2920.3482    17.925095    23.523585    22.003045    9277.8586    3661.2434    3149.2513      1950.55    613.64923    50.068642    461.64405   -3476.7385 
 4031000    240.02565   -4273.3326   -3861.9368   -4273.3326            0    1113.1622    18.149133    23.370195    22.215736    9422.7774    1566.4503    1252.9279     520.1084   -1001.3054   -664.97061    45.606634   -3708.9644 
 4032000     237.8688   -4280.6661   -3872.9671   -4280.6661            0    1211.1569    18.091753    23.419486    21.962349    9305.4377    682.68742    1476.4775    1474.3059    36.886849   -925.42314   -849.96429   -3708.6007 
 4033000    238.47564   -4294.4877   -3885.7486   -4294.4877            0    150.00931    18.149477    23.296672    22.120543    9353.0613    5.6715573    722.56935   -278.21298   -950.41161    453.79784    257.20265   -3865.2866 
 4034000    223.87257   -4292.9235   -3909.2136   -4292.9235            0   -814.60701      18.0855    23.759255    21.866106    9395.8219   -1871.8311   -1692.2948    1120.3049   -346.42546    190.96577    -641.5494   -4020.8379 
 4035000    223.19765   -4310.3243   -3927.7712   -4310.3243            0     2995.426     17.79159    23.520833    22.065243    9233.7087    5215.6869    1685.7322     2084.859   -618.45641   -5.3243405   -492.17587   -3524.3946 
 4036000    220.93774   -4292.1033   -3913.4236   -4292.1033            0    727.16924    18.049559    23.488221    22.069371    9356.3547    1061.7075    1472.3885   -352.58819   -319.78738    1217.5937    605.18486   -3814.1992 
 4037000    238.69603   -4290.9901   -3881.8733   -4290.9901            0     1638.323    18.215699    23.183055    21.971139    9278.3147    1400.0068     1603.326    1911.6363    996.52559   -674.59213     2.270456   -3660.1841 
 4038000    241.14372   -4308.2865   -3894.9744   -4308.2865            0    1813.7771    18.135772    23.174509    22.127519    9299.9217    1284.2335    1875.4821    2281.6158    578.94349    160.27159     348.5366   -3648.9722 
 4039000    233.30202   -4289.3166    -3889.445   -4289.3166            0    1132.0559    18.053596    23.506515    21.962206     9320.258    955.99789    1303.6967     1136.473   -323.52293    371.17653    224.42395   -3735.5687 
 4040000    230.74682   -4302.2257   -3906.7335   -4302.2257            0    2418.6184    17.702888    23.650505    22.048246    9231.2092    4557.6169    747.62821    1950.6103    534.50573    128.81495    144.50983   -3581.1204 
 4041000    226.64158   -4284.8189    -3896.363   -4284.8189            0    1315.4808    18.083347     23.45061     22.01317    9335.0266     1155.653   -622.12575    3412.9152    232.05733   -31.977568    123.33956   -3717.2711 
 4042000    226.58866   -4287.5409   -3899.1757   -4287.5409            0    736.11143    18.231767    23.460512    21.978584    9400.8247     -364.274    1817.3228    755.28549   -432.78286    194.71887   -189.07185   -3798.2538 
 4043000    227.51802   -4273.0048   -3883.0467   -4273.0048            0    687.85203    18.031267    23.555988    22.049174    9365.2612    1135.8628    103.43684    824.25647   -205.90079   -458.98092    465.67479    -3789.098 
 4044000     225.7432    -4274.267   -3887.3509    -4274.267            0    2528.5895    17.946747    23.396782    22.085939    9273.8001     2402.196    1853.5169    3330.0557    152.48863    1051.0396    316.73123    -3545.362 
 4045000    220.94334    -4321.185   -3942.4957    -4321.185            0    1359.1972    18.262762    23.286671    21.964374    9340.9856    1063.7118    1820.8714    1193.0083    715.12137   -145.05902   -264.13176    -3757.334 
 4046000    241.27566   -4291.9296   -3878.3914   -4291.9296            0    2140.4705     18.10508    23.393118    22.063976      9344.85    2379.1368     2093.506    1948.7686   -336.14138      39.7084    861.46249   -3586.6773 
 4047000    225.05294   -4295.8666   -3910.1336   -4295.8666            0    177.99277    17.861383    23.756817    22.200821    9420.4656    94.836414   -270.28644    709.42833   -1173.5848   -70.520236   -238.03667   -3885.6795 
 4048000    227.73389   -4277.0058   -3886.6777   -4277.0058            0    2484.1305    18.032189    23.481434    22.009412    9319.2621    899.26466    3933.9159     2619.211    1764.5212    403.18023   -956.02578   -3549.0548 
 4049000     239.8987   -4286.9171   -3875.7389   -4286.9171            0    1376.6776    18.185685     23.04184    22.148881    9281.0823    1336.9961    433.25369     2359.783    210.45384   -843.21124   -208.11716   -3689.3987 
 4050000    229.56501   -4290.3767   -3896.9101   -4290.3767            0    1823.7239    18.119289     23.36676    21.840357    9246.9686    1934.1275    1367.2263    2169.8178    1146.0412    98.310348     241.1074   -3650.9672 
 4051000    245.88762   -4290.7562   -3869.3133   -4290.7562            0    2147.9186    17.914878    23.562515    22.002612    9287.7336      3324.38    1233.9066    1885.4692   -544.06186    -132.1498    294.58819   -3578.3733 
 4052000    229.50466   -4289.5946   -3896.2315   -4289.5946            0    1034.4056    17.934599    23.477824    22.200636     9347.919    1903.7554    1280.1926   -80.731255    783.50181    239.09591     433.9245   -3755.2112 
 4053000     231.3265   -4304.9015   -3908.4158   -4304.9015            0    2196.9062    18.235307     23.31977    21.895809    9311.0427    1275.0846    2973.5203    2342.1138   -773.67106    -654.9178     837.8347   -3610.0935 
 4054000    228.75142   -4268.8261    -3876.754   -4268.8261            0    700.33725    18.064635     23.24243    22.289408     9358.565   -38.129995    569.41969     1569.722    93.307244   -211.95726    -594.7868   -3781.1685 
 4055000    229.91511   -4295.4211   -3901.3545   -4295.4211            0    554.63074    18.005788     23.64315    22.112526    9413.6019    685.87869     680.7176    297.29593   -779.09875    270.04217    519.72497   -3825.2105 
 4056000    245.36353   -4281.6615   -3861.1168   -4281.6615            0    920.16031    18.043633    23.582235    21.994807    9358.9924    1118.3262    173.87782    1468.2769   -51.961402    872.92202   -444.40966   -3735.5229 
 4057000     227.6545   -4281.2639   -3891.0719   -4281.2639            0    2171.3596     17.96079    23.226548     22.27505    9292.4188    3133.1575    3014.2134    366.70771   -972.44803    63.813934   -275.50152   -3596.8084 
 4058000    235.15787   -4297.6692   -3894.6167   -4297.6692            0    1887.1127    18.166775    23.312204    21.847104    9252.4142   -199.42871      2411.09    3449.6767   -563.18093   -136.24735   -752.92031   -3639.9754 
 4059000    228.49937    -4277.068   -3885.4279    -4277.068            0    1588.5197    17.983767    23.488793      22.0997    9335.2888    1664.4442    708.58257    2392.5324    -553.4161   -454.11144    705.32931   -3669.1579 
 4060000    223.79484   -4310.3857   -3926.8091   -4310.3857            0    335.18723     18.03001    23.802819    21.812062    9360.9745    327.44855    44.879217    633.23393    602.73823     377.0942   -331.84775   -3881.0492 
 4061000    229.51649   -4289.6154    -3896.232   -4289.6154            0    1235.5326    18.016047     23.30106    22.184492    9312.8942    1680.7226    2455.5852   -429.71004     452.7353   -278.81123     470.7457   -3728.4232 
 4062000    238.95986   -4282.5364   -3872.9674   -4282.5364            0    1386.8154    18.350517    23.353532    21.823202    9352.3196    975.88881    1699.5843    1484.9731    441.73041    592.94455    509.62945   -3683.8141 
 4063000    236.92832   -4256.2693   -3850.1823   -4256.2693            0    2594.9685    18.002854    23.483842    22.092119    9340.0215    3704.1827    2345.5862    1735.1367    59.003299    91.544163    776.73602   -3496.7096 
 4064000    235.95006   -4299.2846   -3894.8743   -4299.2846            0    692.37908    18.064241    23.643229    22.109032     9442.701    1972.9247    805.65514    -701.4426    262.72056    3.9036691    828.98792   -3799.5253 
 4065000    233.79721   -4324.3678   -3923.6474   -4324.3678            0    696.10318    18.053872    23.629298    21.970756    9372.7314   -28.798844    506.47472    1610.6337    653.43264    -11.96159    450.16604   -3828.4959 
 4066000    236.96383   -4270.5229    -3864.375   -4270.5229            0    1758.9026    17.974621     23.36594    22.209574    9327.8862    1053.3749     2394.504    1828.8289   -705.32773   -267.53573   -856.33997   -3625.0981 
 4067000     217.4426   -4302.9119   -3930.2227   -4302.9119            0    1350.2019    18.300992    23.262681    21.988868    9361.3239   -598.42154    1687.3851    2961.6421   -696.35445    8.4299054   -151.62015    -3745.886 
 4068000    231.68213   -4298.8876   -3901.7923   -4298.8876            0    1354.1606    18.111235    23.217803    22.243892    9353.6252    1282.7573    1443.8993    1335.8252    10.844155    424.77037   -69.224592   -3717.0672 
 4069000     218.7041   -4311.4236   -3936.5722   -4311.4236            0    2020.2652    18.118596    23.634889    21.762237    9319.2649    1842.3924    1042.3052     3176.098   -813.75778    675.43074     74.12698   -3661.9941 
 4070000    242.53221   -4313.3529    -3897.661   -4313.3529            0    935.36035    17.877721    23.616056    22.185598    9366.7875    1669.8899    680.04281    456.14832    446.85764    1592.3548   -324.44077   -3769.8861 
 4071000    237.56318   -4308.2591    -3901.084   -4308.2591            0    578.87911    18.088301     23.63627    21.918412     9370.997    884.45414   -7.5097296    859.69293   -498.82105   -75.809886     649.0015   -3821.9706 
 4072000    247.52316   -4263.5796   -3839.3334   -4263.5796            0    755.06681    18.123793     23.18459    22.281175    9362.3875     787.9078    1911.7743   -434.48164    -824.8659  -0.31204576   -924.89366   -3736.2359 
 4073000    221.05286   -4307.9275   -3929.0505   -4307.9275            0    2543.8818    17.960711     23.41834    22.051842    9275.2266    2607.1641     1601.789    3422.6924    32.188681    -452.6125   -41.318655   -3584.9404 
 4074000    239.85111   -4316.9103   -3905.8137   -4316.9103            0    1432.0401     18.02442    23.749742    21.779356     9323.205    381.42905     1645.675    2269.0161    48.565879   -628.96412    235.22431   -3711.1001 
 4075000    221.21979   -4275.9547   -3896.7916   -4275.9547            0    1201.2332    18.048896    23.379694    22.110053    9329.9486    1677.3252    1135.2821    791.09237   -279.79146   -376.12685   -96.455434   -3733.3425 
 4076000    222.76164   -4285.3188    -3903.513   -4285.3188            0    700.04199     18.38085    23.215533    22.064401    9415.3487   -1363.9486    1410.8867    2053.1879   -328.60139    17.062034    846.83243   -3807.3879 
 4077000     230.3716   -4309.2773   -3914.4283   -4309.2773            0    1198.3552    18.158796    23.449837    22.088627    9405.7969    585.41666    884.44967    2125.1992   -403.86931    -376.3406    678.35663   -3750.0452 
 4078000    253.80122   -4282.5264   -3847.5198   -4282.5264            0    2720.2294    17.892913    23.388765    22.116129    9255.4484    2969.3189    2899.0825    2292.2866    188.11983    164.59602    205.94118   -3480.3399 
 4079000    234.63032   -4304.1289   -3901.9805   -4304.1289            0    1354.8995    18.072764    23.731049    21.847613    9370.1274    1100.1738    482.70512    2481.8197    527.85061   -214.02124    20.695399   -3716.8285 
 4080000    239.49646   -4265.9315   -3855.4428   -4265.9315            0    1552.3497    18.045645    23.514704    22.030483    9348.3709    1706.6688    1223.5802    1726.8002    860.44754    399.91205    677.45986    -3643.801 
 4081000    235.10956   -4296.9665   -3893.9968   -4296.9665            0    2354.9165     18.15125    23.051862     22.22937    9301.2153    549.79922    3957.1469    2557.8034    393.46301    318.89089     758.3299   -3574.5555 
 4082000    231.94372   -4313.6287   -3916.0851   -4313.6287            0    1067.9346    18.145133    23.463251    22.007547    9369.5771    932.98545     1261.664    1009.1544    220.63155    5.7777543    515.92431   -3770.1565 
 4083000    231.97114   -4311.4719   -3913.8813   -4311.4719            0    1952.3854    17.865055    23.247112    22.342427    9279.0543    2748.9717    2420.8671    687.31739   -405.53047   -407.51092    -131.6479   -3649.6738 
 4084000    254.46239   -4296.7817   -3860.6419   -4296.7817            0     754.1638    18.040176    23.765719    21.901117    9389.8357    473.20244   -352.28092    2141.5699    478.00099    887.54982    81.067447   -3757.3659 
 4085000    235.21605   -4300.2967   -3897.1444   -4300.2967            0    2372.3567    18.013527    23.314684    22.024324    9249.7682    1020.7025    3563.8591    2532.5085    476.98408    689.22163   -666.42015   -3577.1174 
 4086000    239.63485   -4309.9402   -3899.2143   -4309.9402            0    1021.3353    18.172515    23.412086    22.074787    9391.8616   -76.773055    1290.8496    1849.9295   -143.45406    -234.8442   -10.385086   -3759.3213 
 4087000    234.45201   -4308.5263   -3906.6836   -4308.5263            0    1483.0231    18.125029    23.576779    21.730845    9286.2377    73.852696    245.21273    4130.0037   -910.19778   -294.60169   -29.908389   -3705.8374 
 4088000    245.43728   -4288.2211     -3867.55   -4288.2211            0    1191.1879    17.813258    23.481098    22.422352    9378.7065    1882.8915    701.15468     989.5176    450.66254    1139.0151   -462.63859   -3704.6207 
 4089000    218.15611   -4299.6033   -3925.6912   -4299.6033            0    1975.4498    18.134227    23.403058     21.94963     9315.343    1267.8273    2578.4373    2080.0847    264.59214     187.6686   -140.10901    -3657.317 
 4090000    233.89076   -4295.5754   -3894.6947   -4295.5754            0    1544.4092    18.024355    23.427828     22.17435     9363.596    1984.1411     1718.509     930.5775   -827.32649    487.92663    185.17524   -3683.7926 
 4091000    224.55559   -4307.5445   -3922.6639   -4307.5445            0    2817.8576     17.97121    23.422075    22.070694    9290.0631    3363.9325    2592.7838    2496.8564    97.748309    -357.2562   -134.49032   -3540.8835 
 4092000    234.88189   -4282.4064   -3879.8269   -4282.4064            0    1295.4283    18.157237    23.466558    22.012811    9379.3919   -1064.5483    2719.3505    2231.4828   -809.76383   -837.17635   -276.79925   -3702.6268 
 4093000    227.48633   -4302.7923   -3912.8885   -4302.7923            0    3641.5839    17.981641    23.080895    22.213518    9219.3285    2964.3092    6264.4631    1695.9794    100.88631    -76.94295   -256.28795   -3423.2614 
 4094000    233.37313   -4304.8911   -3904.8976   -4304.8911            0    1819.1832    18.062404     23.59121    21.878545    9322.7536    2758.7027    1350.4003    1348.4465    -6.408001    303.55587   -248.83358   -3657.5563 
 4095000    229.32796   -4311.1482   -3918.0879   -4311.1482            0    1090.0605    17.912012    23.525258    22.215088    9361.0981    2901.3926    192.16121    176.62778    1107.6157    188.56909    95.889522   -3769.2706 
 4096000    234.32356   -4276.3473   -3874.7247   -4276.3473            0    2724.4151    18.038039    23.344136    21.960668    9247.2511    1553.9279    4817.8154    1801.5018    273.03015   -151.88099    1291.2176   -3507.3056 
 4097000    233.50631   -4296.7452   -3896.5234   -4296.7452            0    299.16483    18.244799    23.268292    22.179971    9415.9588    871.92782   -343.48737    369.05404   -659.65591   -238.46758    608.78035   -3855.4415 
 4098000    232.77899   -4328.5066   -3929.5313   -4328.5066            0    799.73972     17.87935    23.678545    22.098665    9355.6242    2218.6655   -453.55576    634.10944   -225.82054   -128.36645   -221.93837   -3820.4131 
 4099000    236.05706   -4293.3995   -3888.8058   -4293.3995            0    1254.0985     18.13894    23.564546    21.902545    9361.9338     2300.489    26.096704    1435.7098    594.62325    36.754299   -444.99856   -3717.5785 
 4100000    229.48933   -4305.9699    -3912.633   -4305.9699            0    1520.3042    18.131788    23.190303    22.231996    9348.1466    1428.0616    1817.3989    1315.4521   -74.659768    495.01489    160.34756   -3705.3652 
 4101000    235.17393    -4330.118   -3927.0379    -4330.118            0    1366.6797    18.187435    23.509186    21.839535    9337.9689     -291.356    1605.5899    2785.8053    376.33026    736.68056    188.66155   -3740.9171 
 4102000    236.42609   -4289.3936   -3884.1674   -4289.3936            0     1874.621    17.951616    23.533313    22.165793    9364.1829    1253.2189    2344.5366    2026.1076   -1563.0893    200.87653    786.74498    -3628.156 
 4103000      242.087   -4301.8353   -3886.9065   -4301.8353            0    943.84265    17.992523    23.675583    22.039532    9388.4765    1981.4481     630.6821    219.39773   -201.85355   -298.64686    147.53802   -3757.6743 
 4104000    238.10152   -4304.1801   -3896.0823   -4304.1801            0    3059.1825    18.136654    23.259538    21.931773    9251.9232    2101.8107    4828.9693    2246.7677   -388.23004    407.80136   -742.28542   -3483.3074 
 4105000    230.59642   -4267.2315   -3871.9972   -4267.2315            0    1894.2224     18.13299    23.236103    22.225855    9364.6421    2336.5052    2470.8422    875.31978    147.47875   -912.91912   -630.18641   -3613.2962 
 4106000    234.56658   -4321.6171    -3919.578   -4321.6171            0    1591.5097     18.15997    23.593549    21.791308    9336.6635    1106.3909    472.77443    3195.3638    120.20272    35.845851    480.44016    -3702.869 
 4107000    242.78731   -4336.6364   -3920.5072   -4336.6364            0    941.55833    18.033116    23.523518    22.138642    9391.2634    1352.3512    1072.4725    399.85136   -169.68738    590.95346    -273.5002   -3791.5496 
 4108000    236.36177   -4298.0175   -3892.9015   -4298.0175            0    2526.4651    18.026339    23.456679     22.03069    9315.4141    3196.3094    1224.4426    3158.6432   -550.46918    23.712963    1177.9881   -3549.6667 
 4109000    222.47663   -4287.4761   -3906.1588   -4287.4761            0    1209.6813    17.992507    23.757969    21.936843     9377.242    1610.1622   -327.94353    2346.8252   -14.362947   -226.40024   -886.78461   -3740.7258 
 4110000    226.80975   -4293.6842   -3904.9401   -4293.6842            0    1742.1131    17.814955    23.519463    22.311076    9348.3004    2871.9282    1065.4596    1288.9516    1014.6045    -399.6362   -66.162467   -3667.4284 
 4111000    238.39011   -4295.6094   -3887.0169   -4295.6094            0    2758.5697    18.121563    23.316266    21.979025    9286.7355    1926.1115    3250.7865     3098.811    922.53207   -278.09599    -80.38045   -3513.4031 
 4112000    232.59725   -4288.7306   -3890.0668   -4288.7306            0    2184.5374     18.17025    23.113595    22.088993    9276.9308     1575.358    3469.1476    1509.1065   -988.40599   -671.37127    335.78185   -3594.5109 
 4113000    238.68223   -4316.2607   -3907.1676   -4316.2607            0   -218.59695    17.941604    23.630526    22.108777    9373.4478    1287.2592   -1114.2999   -828.75019   -543.84758   -518.49199    72.350507   -3937.0502 
 4114000    238.15948   -4265.7726   -3857.5754   -4265.7726            0    2418.0285    18.049223    23.531594    21.920855    9310.3788    2137.0051    3017.6506    2099.4299   -303.42409   -849.50859    385.66159   -3529.2499 
 4115000    246.98293   -4299.9249   -3876.6046   -4299.9249            0    2058.4816    18.004406    23.163067     22.27844    9290.9398    2969.3971    2280.7682    925.27963    32.855175    1246.8364   -173.04753   -3597.6827 
 4116000    227.58225   -4303.5443   -3913.4761   -4303.5443            0    2613.9294    18.190301     23.35397    21.923802    9313.5761    1311.6594     2378.434    4151.6948   -504.31637   -516.23042   -17.787843   -3558.4288 
 4117000     231.7483    -4328.215   -3931.0064    -4328.215            0    1863.5878    17.987618    23.490112    22.100721    9338.2432    1398.7847    2218.3839    1973.5948   -123.01191   -35.308891   -315.70288   -3677.2068 
 4118000    221.24728   -4294.8928   -3915.6826   -4294.8928            0    2035.7938    17.906164    23.642324    21.941175    9288.6502    2011.1125    1607.8189    2488.4499   -329.93596   -913.85959    635.62176   -3639.9029 
 4119000     235.4072   -4290.9652   -3887.4853   -4290.9652            0     2519.524    17.947823    23.680759     21.81459    9271.5952    2161.3961    1297.2207    4099.9551   -1002.1527    521.66171    514.75302   -3546.8035 
 4120000    229.23347   -4298.4926   -3905.5943   -4298.4926            0    2681.1641    18.103706    23.053846    22.148383    9243.8497    2464.2752    4049.9446    1529.2725    644.77785    241.27145    1293.4177    -3544.141 
 4121000    241.04459   -4322.7026   -3909.5605   -4322.7026            0    3653.8229    18.098169    23.251592    21.921009    9224.6073    4413.5229    3911.7764    2636.1694    545.11698   -326.97048    193.10497   -3418.0064 
 4122000    241.65938   -4282.6353   -3868.4394   -4282.6353            0    1247.9366     18.01564    23.421296    22.078368    9315.9592    1669.5756    1979.2894    94.944837    395.22997    324.41305     417.9739   -3698.8901 
 4123000    230.87683   -4326.0027   -3930.2878   -4326.0027            0   -676.53548    18.014392    23.587797    22.133189    9404.8304   -284.26242   -2.2058196   -1743.1382   -522.31588    606.37963    187.81147   -4023.0812 
 4124000    237.08172   -4285.9982   -3879.6482   -4285.9982            0   -361.58874     18.11653    23.482601    22.189202    9439.8022   -1389.4582    -287.7572    592.44916   -664.63371    217.71165   -360.31653   -3929.4281 
 4125000    239.49721   -4274.0482   -3863.5582   -4274.0482            0    2355.0371    18.127288    23.396517    21.884669    9281.6252    1144.6178    1629.1148    4291.3789   -215.91022    230.21638    578.38998   -3544.7733 
 4126000    237.17589   -4300.8744   -3894.3631   -4300.8744            0    2585.4529    17.941584    23.338688    22.080408    9245.7957    1673.9525    3247.9036    2834.5025   -293.87682     206.5869   -121.68144   -3545.7395 
 4127000    239.35519   -4301.8824   -3891.6358   -4301.8824            0    391.81493    17.899501    23.638369    22.219682    9401.4812    546.21602    427.71078    201.51798   -424.78978   -59.504508    695.39759   -3837.9137 
 4128000    234.84244   -4298.1137   -3895.6018   -4298.1137            0    1588.8079    18.079759    23.430294    21.997104    9318.2829    2731.3184    1652.3704      382.735    464.50488    49.839711    317.29967   -3679.6866 
 4129000    241.28606   -4281.4771    -3867.921   -4281.4771            0     3063.752     18.14886    22.981321    22.079887    9209.1845    2633.1216    3852.5692    2705.5651    1201.6118    467.39328   -73.114605   -3456.4392 
 4130000     229.0461   -4320.5143   -3927.9371   -4320.5143            0    854.87239    18.081563    23.583527    21.938467    9355.1554    907.85257     955.7317    701.03291   -8.6843314    697.83699    274.78921   -3811.3023 
 4131000    229.77721   -4317.2556   -3923.4253   -4317.2556            0    2486.0042     17.76979    23.563325    22.098653    9253.0449    1980.5117    2584.8949     2892.606    275.93262   -618.60474   -454.50129   -3587.9486 
 4132000    234.27114   -4271.0267    -3869.494   -4271.0267            0     613.9502     18.12972     23.50741    22.149822    9439.8725    1104.5642     943.6958   -206.40942   -542.21092   -173.06192    739.67805   -3784.9709 
 4133000    229.45292   -4301.3988   -3908.1244   -4301.3988            0    1838.1239    18.116742     23.26435    22.112539    9319.8655    2507.5738    1400.9352    1605.8628    137.80878    952.40909    344.90464   -3658.2853 
 4134000    214.03758   -4292.3941    -3925.541   -4292.3941            0    2518.6843    17.852698    23.671145    22.004616    9299.0148     3327.696    1427.8978     2800.459    1567.3194    162.21479     106.0732   -3583.9656 
 4135000    226.79331   -4319.9368   -3931.2209   -4319.9368            0    1245.5204    17.996578    23.600837    21.910374    9306.0877    2022.2462    356.69846    1357.6165    236.48179   -721.72019   -874.60915   -3762.1792 
 4136000    224.60668   -4278.9875   -3894.0193   -4278.9875            0    2224.9286    18.093309    23.206636    22.118631    9287.2777    1445.2014    2652.0502    2577.5341    185.28611   -328.18278    247.03696   -3592.6629 
 4137000    225.98634   -4300.8307   -3913.4979   -4300.8307            0    2100.4791    18.124113    23.278922    21.946888    9259.6079    1785.3872    2378.6085    2137.4415   -384.68127    422.38304    710.85812   -3629.8453 
 4138000    232.91936   -4294.9596   -3895.7438   -4294.9596            0    2479.3891    17.754061    23.590542    22.229343    9310.2697    3045.1041    2763.9824    1629.0808   -833.67808    715.62337    266.82478   -3559.0905 
 4139000    223.83654   -4330.1607   -3946.5126   -4330.1607            0    497.79749    18.023157    23.573441    22.099329    9389.2936    750.42067     1649.746   -906.77425    22.815587   -322.39773    209.52517   -3878.3476 
 4140000    232.72945   -4293.7555   -3894.8651   -4293.7555            0    3099.0863    18.187011    23.300516    21.793305     9235.278    2132.4687    4401.9837    2762.8065    322.35615    131.98048    456.29711   -3477.4583 
 4141000    214.31263   -4287.8767   -3920.5522   -4287.8767            0    69.494207    18.105505    23.326427    22.196821    9374.5332    206.84734    250.30923   -248.67395   -349.16298    700.81318    89.601901   -3911.0511 
 4142000    224.81447   -4300.0139   -3914.6896   -4300.0139            0     1582.809    18.016497    23.346676    22.161681    9321.7644    516.79016    2743.9294    1487.7075    353.68046   -180.02542    627.17122   -3699.5093 
 4143000    228.49952   -4304.2751   -3912.6348   -4304.2751            0    2761.1487    18.038138     23.59352    21.825719    9288.6586    3659.9392    1261.4431    3362.0639    305.38236   -395.30637    324.99904   -3538.5942 
 4144000    232.94826   -4301.3968   -3902.1315   -4301.3968            0    1562.5127    17.987602    23.429911    22.134909    9328.7111    2176.4525    2221.5671    289.51864   -847.17862    45.734204    893.31103   -3689.5521 
 4145000    238.59817   -4283.8496   -3874.9005   -4283.8496            0    826.59602    18.288715    23.360513    21.904659    9358.4099    274.45089   -375.83498    2581.1721    -405.1971   -130.65076   -808.85002   -3762.0843 
 4146000    224.77111   -4293.4042   -3908.1542   -4293.4042            0    379.16659    18.121405    23.264505    22.225365    9369.8921    1451.7757      250.365   -564.64092    1163.1706    50.704666     430.5483   -3856.3409 
 4147000    228.74583   -4320.3964   -3928.3338   -4320.3964            0       1188.2    17.922098    23.627785    22.026653    9327.3947    2545.9139   -370.98666    1389.6727    497.97847    82.385315   -253.74412   -3766.7024 
 4148000     222.3739    -4317.197   -3936.0558    -4317.197            0    1166.6808    18.033112    23.536057    22.058185     9362.119     1259.122   -123.38026    2364.3008    648.07524   -510.88913    117.01281   -3776.7608 
 4149000    241.48516   -4276.6612   -3862.7639   -4276.6612            0       1487.3    18.198093    23.239456    22.123739    9356.4339    1843.6042    2087.9954    530.30041    137.02834   -42.052424    400.76288   -3659.8159 
 4150000    224.02571   -4296.0072   -3912.0348   -4296.0072            0    948.76365    18.165288    23.489371    21.957958    9369.2673    555.88158    854.26632    1436.1431   -295.93793     298.7865    252.15851   -3782.3947 
 4151000     228.1199   -4270.2433   -3879.2536   -4270.2433            0    2214.5097    17.758346    23.844845    21.933517    9287.6383    4181.5613    1840.5415    621.42613    666.98664    235.24161     703.2027   -3579.2968 
 4152000    221.43834   -4307.4038    -3927.866   -4307.4038            0    53.015316    18.169767    23.519127    22.040451    9418.7015   -662.34892    205.07251    616.32236    69.122605   -270.99622   -396.79932   -3920.5837 
 4153000    245.01647   -4313.0764   -3893.1265   -4313.0764            0    2001.1966    18.256251    23.239556    22.030132    9346.6614    1586.1922    1614.9562    2802.4415    553.63127    91.176559    529.52227   -3620.3405 
 4154000     225.1945   -4304.9624   -3918.9867   -4304.9624            0    1567.4415    17.999995    23.370273    22.167649    9325.1494    1114.3123     2545.778    1042.2341   -1032.8798    548.04924    950.64105   -3705.8182 
 4155000    228.95146   -4296.9358   -3904.5208   -4296.9358            0    1622.8914    18.204226    23.683217    21.714304    9361.7887    1016.6374    1018.3637     2833.673    1067.2408   -456.53533    354.87017    -3682.944 
 4156000    222.38859   -4326.8453   -3945.6789   -4326.8453            0    1320.3316     18.04282    23.438357    22.091309    9342.2833    1446.0685    1499.1199    1015.8065   -895.59095    39.279349   -724.71775   -3765.7869 
 4157000    230.80262   -4313.5331   -3917.9453   -4313.5331            0    1065.8435    18.156579    23.411508    22.090635      9390.13     1245.764    1861.2772    90.489367    287.94488    690.37919   -196.70961   -3771.9829 
 4158000    234.68453   -4317.4328   -3915.1915   -4317.4328            0    1042.4691    18.124435    23.513745    21.974192    9364.8148    1263.1134    1326.5587    537.73535   -255.46952   -526.93911    -156.7057    -3772.815 
 4159000    238.68125   -4315.1241   -3906.0326   -4315.1241            0    935.13337    17.955925     23.55576    22.163553    9374.4173    1031.9818    999.87612    773.54215   -1033.7673   -526.38978    68.559421   -3778.1847 
 4160000    253.02291   -4307.3628   -3873.6902   -4307.3628            0    1093.7466    17.979597    23.804855    21.902055    9374.1168    1730.1429    759.58927    791.50763    695.55159   -315.91118    94.961939   -3724.1621 
 4161000    223.25128   -4314.3898   -3931.7447   -4314.3898            0    2012.5606    17.958951    23.381331    22.083383     9272.905    2882.4234    2343.9771    811.28121    589.55734   -501.64874    -431.6444   -3659.5745 
 4162000      228.729   -4301.8427    -3909.809   -4301.8427            0     811.4501    18.128082    23.447571     22.10401    9395.5196    1541.2646    153.63342    739.45226    127.05907   -817.91246     119.6822   -3798.6208 
 4163000    231.39999   -4299.9163   -3903.3046   -4299.9163            0    131.98713    18.241629    23.524082     21.92638    9408.9952   -665.91574   -31.331022    1093.2082   -759.88689    15.836366    -44.67421   -3885.1933 
 4164000    234.90874   -4309.8391   -3907.2136   -4309.8391            0    2505.3645    17.880061    23.488075    22.094226    9278.8726    3613.9007    1419.5479     2482.645   -212.31076   -311.79375   -1063.8889   -3568.1805 
 4165000    235.82282   -4312.0309   -3907.8387   -4312.0309            0    515.65805    18.113351    23.663628    21.882767    9379.5578    1302.4566    94.656638    149.86092   -51.213349     118.1747    397.06046   -3837.3012 
 4166000    227.97219    -4272.761   -3882.0245    -4272.761            0    2630.0005    18.048516    23.170242    22.140613    9258.9493    2150.1689     2893.524    2846.3087   -575.94779    -284.1865   -459.38337   -3526.8895 
 4167000    227.75086   -4319.1955   -3928.8383   -4319.1955            0   -907.08561    18.184809    23.577313    22.040827    9449.9811    51.432992   -923.62194   -1849.0679    285.62171    298.28608   -164.90105   -4053.8513 
 4168000    254.87941   -4300.3498   -3863.4952   -4300.3498            0    1194.6239     18.03257    23.543533    22.018234    9347.8502    2968.0179    82.646049    533.20787    478.83331    654.84035   -244.55544   -3700.6335 
 4169000    235.33558   -4274.7618   -3871.4047   -4274.7618            0    1519.4828    18.075008    23.109798    22.291347    9311.3137    993.59398    2892.0517    672.80271   -26.847226    3.4634702    -716.3237    -3665.065 
 4170000    238.55654   -4301.7485   -3892.8708   -4301.7485            0    1943.8269    18.115085    23.498545    21.701281    9237.7609    975.25051    3755.3307    1100.8996    1627.8918    38.809431    106.28378    -3630.992 
 4171000     234.8689   -4303.2089   -3900.6516   -4303.2089            0    893.50668    17.926485    23.546941    22.141125    9346.0763    1709.5197    210.70029    760.30007    67.383704   -598.93556   -460.57994   -3778.8641 
 4172000    217.56583   -4281.7943    -3908.894   -4281.7943            0    2119.5753    18.084856    23.193414    22.049602    9248.6957    2380.8785    2093.9717    1883.8756   -122.09979   -904.74863   -2.0059362   -3622.9998 
 4173000    222.21374     -4289.11   -3908.2433     -4289.11            0     1796.408    18.154648    23.347796    21.970715    9312.7494    781.39576    2660.4561    1947.3721    552.31966   -267.27843   -781.14466   -3664.2607 
 4174000    223.17923   -4297.3262   -3914.8046   -4297.3262            0    2131.8373    17.886123    23.589971    22.100098    9324.7639    1736.9626    2447.6983    2210.8508   -574.70438     298.1839    38.955674   -3624.8916 
 4175000    243.41041    -4308.245   -3891.0479    -4308.245            0    1430.6204    17.970602    23.565862    21.970376    9304.2945    1238.6658     1267.023    1786.1725   -365.98052   -590.17954   -126.08565   -3696.9219 
 4176000    237.28376   -4316.5735   -3909.8772   -4316.5735            0     1147.444    18.158727    23.243799    22.092681      9324.83    1460.8421    1381.8923    599.59745   -186.39802    -1058.047   -664.74228   -3753.8328 
 4177000    240.48039   -4287.2985   -3875.1234   -4287.2985            0     1840.516    18.104589    23.370332    22.108027     9354.133    2426.3904    2024.7403    1070.4172   -991.17643   -225.24972   -206.69715   -3624.0394 
 4178000    222.72195   -4258.3056   -3876.5678   -4258.3056            0     2450.365    17.989109     23.56355    22.012974    9331.0193    607.72644    2746.1476    3997.2209   -1072.2195    328.99488   -282.96941   -3543.1139 
 4179000    224.20128   -4288.2136   -3903.9402   -4288.2136            0   -30.882678    17.944329    23.767386     22.12501    9436.0913   -432.66049    9.3648238    330.64763    933.50569   -423.97599    189.12286   -3908.1902 
 4180000    236.79063   -4317.1087   -3911.2577   -4317.1087            0    2200.1354    18.152529     23.35645    21.984863    9321.1119      1693.78     3324.879    1581.7472   -740.14586    985.17441    446.44962   -3612.1738 
 4181000    235.89761   -4291.8156   -3887.4951   -4291.8156            0    1952.8805    18.225699    22.938073    22.295552    9320.9324    1303.3774    3947.2549    608.00909     289.3887   -1525.7514   -100.43921   -3622.0279 
 4182000    240.05912   -4278.6123   -3867.1592   -4278.6123            0    1909.8994    18.037261    23.536816    21.980056    9331.4065    1232.8546    1867.8441    2628.9995   -2364.2875   -29.934923    485.61578   -3607.2429 
 4183000    233.92997   -4310.7247   -3909.7767   -4310.7247            0    2704.9143    17.688644    23.684404    22.012699      9222.11    4044.6266    2636.3758    1433.7406    683.94851     90.58258    653.94518   -3545.9792 
 4184000    220.83585   -4303.8233   -3925.3182   -4303.8233            0    1218.5966    17.999986    23.672842    22.024677    9384.9535    504.61906    1424.7884    1726.3824    683.10473   -105.15089    500.83539    -3758.529 
 4185000    227.40932   -4264.7468    -3874.975   -4264.7468            0    1605.3149    18.112956    23.324698    22.077036     9327.089    1616.5465    2140.7648    1058.6333    871.47137   -867.31295    603.20507   -3656.6104 
 4186000    242.95842   -4301.9807   -3885.5583   -4301.9807            0    474.76146    18.204046    23.403678    22.089506    9411.0492    1232.1682    1332.1566   -1140.0405    248.29548   -183.84926   -294.82847   -3820.3971 
 4187000    224.50355   -4287.0091   -3902.2177   -4287.0091            0    1702.1762    17.859864    23.610361    22.091211    9315.3742    1384.5001    1125.5466    2596.4818     -712.856     411.2329   -27.903708   -3670.9683 
 4188000    247.13314   -4295.2242   -3871.6465   -4295.2242            0    1683.6701    18.062073    23.548017    21.889291    9310.0846    3053.2675    704.31613    1293.4267    462.17273   -458.32584   -1468.4837   -3643.0411 
 4189000    229.72807   -4319.9238   -3926.1778   -4319.9238            0    463.83201    18.196931    23.254375    22.089003     9347.144   -1019.1642    941.24289    1469.4174     21.12108    29.914912    135.87254   -3862.9489 
 4190000     238.7275   -4273.1578    -3863.987   -4273.1578            0    910.36086    18.073679    23.510823    22.065635    9376.2853    578.64157    -110.6409    2263.0819   -428.64821    428.59694   -551.21365   -3739.5011 
 4191000    233.54756   -4291.1997   -3890.9072   -4291.1997            0    2450.0269    17.866127    23.716765    21.952685    9301.9399    2372.3659    2103.4292    2874.2855   -828.14337    12.394162    38.789932   -3558.5384 
 4192000    231.70595   -4285.9224   -3888.7863   -4285.9224            0    936.85437    17.984232    23.543666    22.187763    9394.6262    143.43734    1801.3525    865.77322   -303.33595    20.596234    704.54971    -3760.427 
 4193000    230.26946   -4286.7413   -3892.0673   -4286.7413            0    2754.3801    18.148597    23.425513    21.875084    9299.9775    3059.2265    2958.0519     2245.862    289.25052    983.65894    50.803231    -3518.489 
 4194000    243.40833   -4294.1012   -3876.9077   -4294.1012            0    1515.2308    18.117201    23.303178    22.192838     9369.558    2612.4094    2089.7275   -156.44444   -172.18133   -1032.5234   -189.33159   -3669.8583 
 4195000    226.54277   -4292.9347   -3904.6482   -4292.9347            0    1537.6157     17.95487    23.447129    22.198987     9345.555    1211.5144    2218.8513    1182.4814    706.74221    47.111972    18.666292   -3695.0783 
 4196000    226.54794   -4285.3248   -3897.0294   -4285.3248            0    1366.4037    18.079014    23.703441    21.808699    9345.7868    672.70158     929.4294    2497.0801   -295.14816    434.50941    592.35768   -3710.7904 
 4197000    241.63989   -4309.8992   -3895.7367   -4309.8992            0    1579.7819    17.930678    22.999165    22.586371    9314.4076    2104.5213    3866.7483   -1231.9238     -146.813    302.67345    916.69055   -3681.1374 
 4198000    226.29653   -4278.1082   -3890.2437   -4278.1082            0    1031.9836    18.226338    23.510447    21.862694    9368.3688    648.04611     887.3955    1560.5091   -347.32771   -457.60442   -262.06155   -3749.2457 
 4199000    230.94161   -4276.7977   -3880.9717   -4276.7977            0    1211.5297    18.077552    23.478248    22.189198    9417.7447    1687.7664    1228.9598    717.86281   -202.20207    349.00907   -1234.4994   -3714.5704 
 4200000    227.61363   -4292.0474   -3901.9255   -4292.0474            0    910.77533     18.04801    23.519747    22.059206    9363.7937    445.17487    1169.3813    1117.7698   -218.74327   -738.91756    94.607895   -3777.5488 
 4201000    233.19751   -4293.0345    -3893.342   -4293.0345            0     1989.406    18.066474    23.582554    21.897966    9329.7072    1550.8348    1081.7916    3335.5914    357.95503    87.202817    346.55547    -3622.655 
 4202000    227.08951   -4276.9188   -3887.6951   -4276.9188            0    2017.9393    17.875502    23.328092    22.353538    9321.4555    2229.1159    2944.7627    879.93939    214.46836    379.28808    689.26012   -3613.3686 
 4203000    226.85382   -4310.9532   -3922.1335   -4310.9532            0    2204.6532     18.02628    23.481637    22.009164    9316.1835    3142.2347    2815.8071    655.91791   -880.64049   -14.705705    1150.0385   -3622.5939 
 4204000    222.73432   -4293.2843   -3911.5253   -4293.2843            0    2757.0105    18.131301    23.403366    21.883223    9285.7841    2191.1264    3454.6735    2625.2317    700.25448   -109.45188    328.23092   -3538.1609 
 4205000    215.59659   -4291.6853   -3922.1601   -4291.6853            0    1962.5205    17.920753    23.448301    22.160378    9312.0393    1097.0127    1200.2331    3590.3157   -241.12754   -60.561886   -513.93875    -3655.637 
 4206000    235.45941   -4326.1569   -3922.5875   -4326.1569            0    1657.3165    18.177099    23.408996    21.909005    9322.4488    796.11878    3216.1056     959.7252   -291.66537    303.79347   -596.70308   -3697.2615 
 4207000    235.22484   -4304.6228   -3901.4554   -4304.6228            0    1982.6543    18.068404    23.083608    22.190368    9255.2468    1773.1569    3209.4346    965.37142    545.47953    798.94028    64.394794   -3633.8402 
 4208000    237.05218   -4286.8204   -3880.5211   -4286.8204            0     1283.262    18.020827    23.519115    21.998935    9323.8945    908.33128     356.3483    2585.1064   -1044.1496   -732.07631    698.50035   -3706.0239 
 4209000    224.89715   -4291.8287   -3906.3627   -4291.8287            0    1038.8869    17.947672    23.623349     21.96382     9312.311    903.29655    511.19163    1702.1724    113.08684     193.9303    367.58728   -3765.2709 
 4210000    237.44099   -4278.6582   -3871.6924   -4278.6582            0    2261.1487    17.883713    23.435657    22.083866    9255.7141      2506.68    2269.3338    2007.4324    686.38217   -752.95646    15.469615   -3566.4711 
 4211000    235.44969    -4312.934   -3909.3813    -4312.934            0  -0.99064644    18.174217    23.471178    21.987838    9379.3586    454.16734   -1459.5675    1002.4283   -269.78115   -160.33345    232.87298   -3909.5168 
 4212000    243.58529   -4314.3472   -3896.8504   -4314.3472            0    2068.0832    18.163895    23.139973    22.159223    9313.7881    2049.9182    2908.8862    1245.4453   -396.18173     358.8524    335.85537   -3615.9384 
 4213000    239.08946   -4297.1653   -3887.3742   -4297.1653            0    1582.4598    18.069851    23.554529    21.911958    9326.3169    3244.2492    1087.4058    415.72429    142.05021    372.33115     619.3302   -3672.1363 
 4214000    219.14258   -4282.5568   -3906.9539   -4282.5568            0    994.96485    18.000073    23.529114    22.091628    9356.3738    1314.8331    1619.9089    50.152518   -690.95727    395.22408     631.0124   -3771.1879 
 4215000    226.93155   -4338.7653   -3949.8124   -4338.7653            0     2095.179     17.89149    23.681683     21.87382    9267.9503     2140.194    2257.1224    1888.2205   -43.014348    276.25519   -369.65204   -3666.6205 
 4216000    225.65475   -4298.4185    -3911.654   -4298.4185            0     1942.629    18.107482    23.342487    22.048027    9319.1202    1571.7813    3206.5732    1049.5325    124.19277   -574.40016   -206.21961   -3647.6316 
 4217000    219.57443   -4300.1089   -3923.7658   -4300.1089            0    1875.7893    18.201245    23.253185    21.915149       9275.3    2840.8491    2277.3688    509.15002   -875.11249    588.50778    139.87604   -3670.0264 
 4218000     232.6112   -4295.8467    -3897.159   -4295.8467            0    1331.1742    18.004056    23.463113    22.198231    9377.2252    1949.7149     1571.811    471.99688    1300.8003    556.48689   -10.960919   -3715.1114 
 4219000    235.14313   -4286.3156   -3883.2883   -4286.3156            0    1890.1505    17.882255    23.653171    21.990363    9301.3088    2058.6096    2789.5458    822.29614    410.92303   -88.971977   -559.29618   -3626.8893 
 4220000    229.62147   -4319.4679   -3925.9046   -4319.4679            0    1425.1263    18.002092     23.38597    22.132503    9317.7038    1396.5728    2125.1421    753.66393   -675.96066    285.16832   -492.56619   -3732.2454 
 4221000     238.9248   -4305.2029    -3895.694   -4305.2029            0    1072.1925    18.490486    23.088545    21.953503    9372.3548   -1279.3262    2871.2109    1624.6928   -633.35609   -57.652386    220.67862   -3749.1401 
 4222000    237.89552   -4318.0741   -3910.3293   -4318.0741            0    1552.4355    18.079432    23.324856    22.076429    9309.6336    963.72544     2851.934    841.64716   -507.66535    161.81522    21.473407   -3699.5529 
 4223000    229.01358    -4306.805   -3914.2835    -4306.805            0     1841.685    17.808276     23.77037     21.95454    9293.5612    3556.5118    893.35447    1075.1889   -536.76079    1285.5943      73.4121    -3664.667 
 4224000    243.52738   -4315.7197   -3898.3221   -4315.7197            0    988.46878    17.967917    23.683525    22.074726    9393.7582    2016.1803    532.02475    417.20134    864.63517    385.36543    374.27218   -3762.9035 
 4225000    223.30092   -4296.4275   -3913.6974   -4296.4275            0    1366.4262    18.094879    23.165839    22.318002    9355.3283    1361.6071    2927.0192    -189.3478   -122.95276    181.69523    58.911632   -3727.2651 
 4226000    237.64609   -4300.9411   -3893.6238   -4300.9411            0    1531.5288     18.20508    23.334039    21.934522    9317.7421    887.23585     1288.951    2418.3997    1284.7132   -23.398576   -356.17739   -3685.5048 
 4227000    249.32859   -4269.6212   -3842.2805   -4269.6212            0    614.40087    18.081613    23.291534     22.26338    9376.1892    1366.9692    96.261689    379.97172     293.9575   -1319.5846    443.84865   -3758.2661 
 4228000     238.1854   -4285.4354   -3877.1937   -4285.4354            0    1704.1572     18.02615    23.538466    21.975172    9324.2393    1661.7684    912.08375    2538.6194    182.70507    257.00509    117.43604   -3645.4548 
 4229000    243.28654   -4300.9344   -3883.9496   -4300.9344            0    1162.2692    17.931041    23.809475     21.99898    9391.9953    888.02995   -65.439483    2664.2171   -247.67861   -93.505064    297.14883   -3724.7506 
 4230000    239.45747   -4271.3013   -3860.8794   -4271.3013            0     1279.127    18.001854    23.320638    22.199723    9319.7703    855.40005    624.39623    2357.5846   -75.110336   -599.10447    828.68653   -3687.0214 
 4231000    244.91378   -4297.9736   -3878.1998   -4297.9736            0    1824.3557    18.222303    23.366483    21.956532    9348.8967    2413.4244    2747.0731    312.56963   -696.32343   -342.36563    504.12378   -3629.4597 
 4232000    236.52214     -4295.99   -3890.5991     -4295.99            0    1876.4725    18.001198    23.307381    22.129799    9284.7956    1572.9158     2803.488    1253.0136     1808.757   -223.35893    80.719287   -3636.5075 
 4233000    231.88448   -4315.6318   -3918.1897   -4315.6318            0    1588.7616    18.030579    23.575682    21.982439    9344.3651    946.40081    2965.0132    854.87084    1456.6607   -125.79327    -415.8364   -3701.6765 
 4234000    234.90983   -4272.9097   -3870.2823   -4272.9097            0    1828.2117    17.885061    23.488219    22.279536    9359.3706    2632.2386    2880.6657   -28.269259    585.39879   -233.93326    338.40044   -3620.7372 
 4235000    238.75344   -4326.6131   -3917.3978   -4326.6131            0    2017.9272    18.257494    23.149727    22.013851    9304.2862    1915.6787     2416.872     1721.231   -11.326523   -651.52894   -193.35242   -3643.5783 
 4236000    232.23549   -4305.1749   -3907.1312   -4305.1749            0    1650.9006    18.083166    23.372939    22.117207    9347.9863    134.00049    1753.8086    3064.8928    490.44767   -518.02247   -1.3594501   -3682.0626 
 4237000    230.44043   -4299.3495   -3904.3825   -4299.3495            0     2080.617    17.942817    23.541461    22.077895     9325.706    939.66115    3157.8132    2144.3768     875.8218    268.88235    318.23839   -3621.4064 
 4238000    221.87273   -4262.3613   -3882.0791   -4262.3613            0    1914.0861    18.105236    23.531912     21.83386    9302.3338    1564.7615    2096.7429    2080.7537   -148.68905    441.55615   -933.81857   -3622.4046 
 4239000     233.0774   -4294.7444   -3895.2577   -4294.7444            0    319.32931    18.232356    23.116855    22.198818    9356.2411    477.09967    494.89663   -14.008362    455.67125   -444.80108   -278.10022   -3851.6848 
 4240000    228.64339   -4291.4549   -3899.5679   -4291.4549            0    1009.6036    18.129636    23.422179    22.066853    9370.3712     1974.779    128.97416    925.05763   -296.73671    319.41074    928.22776   -3761.5983 
 4241000    226.61007   -4314.3247   -3925.9228   -4314.3247            0    1127.2581    17.851278    23.673891    22.135526    9354.6768    2548.1165    1538.4594   -704.80162    190.06098    430.43295    142.53443   -3772.1328 
 4242000    228.93369   -4284.6989   -3892.3143   -4284.6989            0    1109.9097    17.795299    23.589282    22.241357    9336.4395    1026.2671    822.43975    1481.0223    136.07576   -1112.1508    390.29116   -3741.1864 
 4243000    236.67251   -4280.5572   -3874.9086   -4280.5572            0    1042.0426    18.122566    23.445446    21.978698    9338.5654     821.0437    1852.3954    452.68873    71.893892   -383.18944    798.35295   -3732.9893 
 4244000    231.24725   -4281.7001   -3885.3502   -4281.7001            0     693.1356    17.995349      23.2606    22.372679    9364.8145    2423.5828    448.78325   -792.95923    -417.7556   -60.220187   -95.813079   -3790.6844 
 4245000    238.66492   -4278.5624   -3869.4989   -4278.5624            0     2236.417     18.10041    23.372943    22.036592    9322.7976    1227.5077     2919.246    2562.4975   -180.97809    -557.1714    586.52051   -3565.4279 
 4246000    226.05282   -4287.8148    -3900.368   -4287.8148            0    795.15471    18.020239    23.588469    22.046006    9371.0926    1149.2569    746.69059    489.51663    163.85443    1094.5489    31.507868    -3791.696 
 4247000     229.3347   -4295.6068    -3902.535   -4295.6068            0    2400.4483    17.863058    23.546373    22.159384    9320.4633    3645.5814    2792.1363    763.62726    641.14571    229.67005    475.02469   -3576.2435 
 4248000    235.41907   -4270.7893   -3867.2891   -4270.7893            0    2629.7022    18.093572    23.591132    21.775878    9294.9862    1202.1335    3198.1231      3488.85   -366.46007   -872.71428    147.19078   -3510.8123 
 4249000    222.50634   -4295.2352    -3913.867   -4295.2352            0     1753.687    18.181294    23.215321    22.162638    9354.5072    1152.0163    1987.6385    2121.4063   -127.83616   -191.21254    671.35045   -3674.6187 
 4250000    249.09392   -4289.1104    -3862.172   -4289.1104            0    747.45173    18.087053    23.609346    21.940381    9369.0581    852.23586    669.31517    720.80416    695.06893    480.63922     224.1027   -3760.0416 
Loop time of 392.19 on 64 procs for 250000 steps with 864 atoms

Performance: 110.151 ns/day, 0.218 hours/ns, 637.446 timesteps/s
192.7% CPU use with 32 MPI tasks x 2 OpenMP threads

MPI task timing breakdown:
Section |  min time  |  avg time  |  max time  |%varavg| %total
---------------------------------------------------------------
Pair    | 17.794     | 24.844     | 33.494     | 100.0 |  6.33
Bond    | 1.0137     | 1.1968     | 1.4143     |   8.9 |  0.31
Kspace  | 195.25     | 205.19     | 214.52     |  37.4 | 52.32
Neigh   | 1.4486     | 1.5615     | 1.7601     |   6.1 |  0.40
Comm    | 61.078     | 65.537     | 68.981     |  26.6 | 16.71
Output  | 0.54153    | 0.54194    | 0.54348    |   0.0 |  0.14
Modify  | 71.665     | 73.784     | 77.525     |  16.1 | 18.81
Other   |            | 19.53      |            |       |  4.98

Nlocal:        27.0000 ave          38 max          16 min
Histogram: 2 4 5 5 0 5 2 2 0 7
Nghost:        2102.84 ave        2204 max        1999 min
Histogram: 8 7 1 0 0 0 0 0 6 10
Neighs:        6495.34 ave        9266 max        3990 min
Histogram: 2 4 7 3 2 3 3 1 3 4

Total # of neighbors = 207851
Ave neighs/atom = 240.56829
Ave special neighs/atom = 2.0000000
Neighbor list builds = 5281
Dangerous builds = 0

unfix		3
unfix		2
unfix		1

write_data	data.final.${pid} nocoeff
write_data	data.final.0 nocoeff
System init for write_data ...
PPPM initialization ...
  extracting TIP4P info from pair style
  using 12-bit tables for long-range coulomb (../kspace.cpp:340)
  G vector (1/distance) = 0.37149561
  grid = 24 27 25
  stencil order = 5
  estimated absolute RMS force accuracy = 0.0031779533
  estimated relative force accuracy = 9.5703119e-06
  using double precision FFTW3
  3d grid and FFT values/proc = 4410 672
Last active /omp style is kspace_style pppm/tip4p/omp

write_restart   restart.lmp.${pid}
write_restart   restart.lmp.0
System init for write_restart ...
PPPM initialization ...
  extracting TIP4P info from pair style
  using 12-bit tables for long-range coulomb (../kspace.cpp:340)
  G vector (1/distance) = 0.37149561
  grid = 24 27 25
  stencil order = 5
  estimated absolute RMS force accuracy = 0.0031779533
  estimated relative force accuracy = 9.5703119e-06
  using double precision FFTW3
  3d grid and FFT values/proc = 4410 672
Last active /omp style is kspace_style pppm/tip4p/omp
Total wall time: 0:06:32
