LAMMPS (30 Jul 2021)
  using 1 OpenMP thread(s) per MPI task
package omp 0
using multi-threaded neighbor list subroutines
echo both

include		in.partitions
variable        pid world 0
include		in.temp
variable        temperature equal 263.65
variable	tempDamp equal 100.0
include		in.pressure
variable        pressure equal 6125.0
variable        pressureDamp equal 1000.0 # This is 1 ps
include		in.seed
variable        seed world 745823

units		real
atom_style	full
read_restart	restart.lmp.${pid}
read_restart	restart.lmp.0
Reading restart file ...
  restart file = 30 Jul 2021, LAMMPS = 30 Jul 2021
  restoring atom style full from restart
  orthogonal box = (0.46421691 1.6383175 0.56634354) to (17.743355 21.990860 21.646852)
  4 by 4 by 4 MPI processor grid
  restoring pair style lj/cut/tip4p/long/omp from restart
  restoring bond style harmonic/omp from restart
  restoring angle style harmonic/omp from restart
  864 atoms
  576 bonds
  288 angles
Finding 1-2 1-3 1-4 neighbors ...
  special bond factors lj:    0        0        0       
  special bond factors coul:  0        0        0       
     2 = max # of 1-2 neighbors
     1 = max # of 1-3 neighbors
     1 = max # of 1-4 neighbors
     2 = max # of special neighbors
  special bonds CPU = 1.296 seconds
  read_restart CPU = 1.565 seconds
include 	in.setup
variable	out_freq equal 1000
variable	out_freq2 equal 10000
variable	out_freq3 equal 1000

timestep	2.0

neigh_modify    delay 7 every 1

include		in.tip4p
# This is TIP4P/Ice

# create groups ###
group ox type 2
288 atoms in group ox
group hy type 1
576 atoms in group hy

# set charges - beside manually ###
set group ox charge -1.1794
Setting atom values ...
  288 settings made for charge
set group hy charge 0.5897
Setting atom values ...
  576 settings made for charge

# ### TIP3P Potential Parameters ###
pair_style lj/cut/tip4p/long/omp 2 1 1 1 0.1577 8.5
pair_coeff 1 1*2 0.000 0.000
pair_coeff 2 2 0.21084 3.1668
bond_style  harmonic
bond_coeff  1 450 0.9572
angle_style harmonic
angle_coeff 1 55 104.52
kspace_style pppm/tip4p/omp 1.0e-5
pair_modify tail yes

thermo          ${out_freq}
thermo          1000
thermo_style    custom step temp pe etotal epair emol press lx ly lz vol pxx pyy pzz pxy pxz pyz enthalpy

restart 	${out_freq3} restart.lmp.${pid} restart2.lmp.${pid}
restart 	1000 restart.lmp.${pid} restart2.lmp.${pid}
restart 	1000 restart.lmp.0 restart2.lmp.${pid}
restart 	1000 restart.lmp.0 restart2.lmp.0


include         in.dump
dump            myDump all atom ${out_freq2} dump.water.${pid}
dump            myDump all atom 10000 dump.water.${pid}
dump            myDump all atom 10000 dump.water.0
dump            myDump2 all dcd ${out_freq2} dump.dcd
dump            myDump2 all dcd 10000 dump.dcd
dump_modify     myDump append yes
dump_modify     myDump2 append yes


variable natoms 	equal  "count(all)"                        # NUMBER ATOMS
variable H      	equal  "enthalpy/v_natoms"                 # ENTHALPY-per-atom
variable Vol      	equal  "vol/v_natoms"                 # volume-per-atom
fix AVG all 		ave/time ${out_freq} 1 ${out_freq} v_Vol v_H file vol_enthalpy.dat
fix AVG all 		ave/time 1000 1 ${out_freq} v_Vol v_H file vol_enthalpy.dat
fix AVG all 		ave/time 1000 1 1000 v_Vol v_H file vol_enthalpy.dat


timer           timeout 23:50:00 every 1000
New timer settings: style=normal  mode=nosync  timeout=23:50:00

fix 		1 all shake 1e-6 200 0 b 1 a 1
       0 = # of size 2 clusters
       0 = # of size 3 clusters
       0 = # of size 4 clusters
     288 = # of frozen angles
  find clusters CPU = 0.034 seconds
fix             2 all nph iso ${pressure} ${pressure} ${pressureDamp}
fix             2 all nph iso 6125 ${pressure} ${pressureDamp}
fix             2 all nph iso 6125 6125 ${pressureDamp}
fix             2 all nph iso 6125 6125 1000
fix             3 all temp/csvr ${temperature} ${temperature} ${tempDamp} ${seed}
fix             3 all temp/csvr 263.65 ${temperature} ${tempDamp} ${seed}
fix             3 all temp/csvr 263.65 263.65 ${tempDamp} ${seed}
fix             3 all temp/csvr 263.65 263.65 100 ${seed}
fix             3 all temp/csvr 263.65 263.65 100 745823

run             250000
PPPM initialization ...
  extracting TIP4P info from pair style
  using 12-bit tables for long-range coulomb (../kspace.cpp:340)
  G vector (1/distance) = 0.37435883
  grid = 24 24 25
  stencil order = 5
  estimated absolute RMS force accuracy = 0.0030611181
  estimated relative force accuracy = 9.2184663e-06
  using double precision FFTW3
  3d grid and FFT values/proc = 2730 288
Last active /omp style is kspace_style pppm/tip4p/omp
Neighbor list info ...
  update every 1 steps, delay 7 steps, check yes
  max neighbors/atom: 2000, page size: 100000
  master list distance cutoff = 10.8154
  ghost atom cutoff = 10.8154
  binsize = 5.4077, bins = 4 4 4
  1 neighbor lists, perpetual/occasional/extra = 1 0 0
  (1) pair lj/cut/tip4p/long/omp, perpetual
      attributes: half, newton on, omp
      pair build: half/bin/newton/omp
      stencil: half/bin/3d
      bin: standard
Per MPI rank memory allocation (min/avg/max) = 9.240 | 9.243 | 9.250 Mbytes
Step Temp PotEng TotEng E_pair E_mol Press Lx Ly Lz Volume Pxx Pyy Pzz Pxy Pxz Pyz Enthalpy 
 8500000    275.46308   -3855.7258   -3383.5915   -3855.7258            0    5517.3715    17.279139    20.352543    21.080509    7413.4754    7606.3565    3002.7633    5942.9948    154.73223   -973.26562    801.37231   -2787.0647 
 8501000    263.92478    -3849.388   -3397.0299    -3849.388            0     6241.332    17.186376    20.243281    20.967339    7294.7184    5717.0656    6177.1175     6829.813    507.49295    1538.7848   -685.64164   -2733.0397 
 8502000    271.25109    -3865.684    -3400.769    -3865.684            0    6168.3499     17.19246    20.250447    20.974761    7302.4678    5144.8185    6822.8605    6537.3706   -43.499735   -127.19886    1161.7906   -2743.8459 
 8503000    272.37056    -3863.573   -3396.7392    -3863.573            0    5523.3839    17.146104    20.195846    20.918207    7243.5583    5930.2678    5048.3408     5591.543    -205.7615    311.36934   -1167.1673   -2813.2496 
 8504000    252.79704   -3911.2598   -3477.9743   -3911.2598            0    4318.4614     17.26399    20.334699    21.062027     7393.994    4377.2113    4503.4135    4074.7595   -47.246709    461.51653    971.37857   -3012.2981 
 8505000    273.33471    -3869.827   -3401.3407    -3869.827            0      7442.21    17.154487     20.20572    20.928434    7254.1878    6072.4567     7369.638    8884.5352    544.97438   -668.26975    833.84925   -2613.9929 
 8506000    283.01444   -3888.4698   -3403.3927   -3888.4698            0    6514.2601    17.151119    20.201752    20.924325    7249.9157     6093.025    6665.5034     6784.252   -1640.4084    768.08908    110.85472   -2714.6231 
 8507000    266.43704   -3864.9928   -3408.3288   -3864.9928            0    3992.0999     17.25983      20.3298    21.056952    7388.6506    4130.5888    2933.0714    4912.6396    431.50213   -627.71371    1422.2832   -2978.1565 
 8508000    259.84444   -3851.0245     -3405.66   -3851.0245            0    5190.0699    17.250878    20.319255    21.046031    7377.1598    3655.1861    5478.3118    6436.7118   -518.70272   -17.936023   -226.13027   -2847.2692 
 8509000    283.84653   -3852.5979   -3366.0947   -3852.5979            0    6906.8645    17.185156    20.241844     20.96585     7293.165    7033.3106    6282.2669    7405.0161   -210.60835   -402.05347   -839.45893   -2631.4576 
 8510000    262.58197   -3859.8525    -3409.796   -3859.8525            0    6141.0223    17.255347     20.32452    21.051483    7382.8949    6092.5134    6853.8405    5476.7128   -781.85432    1341.2902   -418.83272   -2748.5802 
 8511000     262.8382   -3859.1303   -3408.6346   -3859.1303            0    5309.1263    17.230875    20.295694    21.021627    7351.5272    8898.7096    3979.9935    3048.6757    488.65817    1413.7252    500.43556   -2839.4194 
 8512000    281.77856   -3843.4095   -3360.4507   -3843.4095            0    4357.0704    17.222773    20.286151    21.011742    7341.1617    4654.7701      3361.75    5054.6911    598.25718    -1070.617    943.55183   -2893.9683 
 8513000    260.84025   -3808.9295   -3361.8583   -3808.9295            0    8053.5912    17.198878    20.258007    20.982591    7310.6494     8377.845    6864.3552    8918.5733    1587.2113   -285.52908   -1237.1103   -2503.1979 
 8514000    250.22491   -3839.9713   -3411.0944   -3839.9713            0    5832.5688    17.163721    20.216596    20.939699    7265.9082    6880.4036     4225.864    6391.4387   -1457.3485    1011.2591   -41.214351   -2793.0415 
 8515000    265.55255   -3839.5024   -3384.3544   -3839.5024            0    6742.8076    17.122452    20.167987    20.889352    7213.6236     6253.981    4330.6695    9643.7722   -619.71553    1050.2639   -587.60998   -2674.9888 
 8516000    262.76919   -3840.4234    -3390.046   -3840.4234            0    4689.7587    17.165406    20.218581    20.941755    7268.0489    5366.6267    4516.4014    4186.2481   -1256.0942   -363.02107   -903.64517   -2892.9455 
 8517000    258.61551   -3846.2927   -3403.0346   -3846.2927            0    7791.5938    17.044617    20.076308    20.794394    7115.6957    8227.5637    6602.7245    8544.4932    75.288722     63.60743   -865.65306    -2594.461 
 8518000    252.35533   -3894.6075    -3462.079   -3894.6075            0    5776.3397    17.116949    20.161505    20.882638    7206.6706    7321.3897    5230.7523     4776.877    494.23196   -519.89975   -2190.9447   -2854.9748 
 8519000    259.17071    -3869.044   -3424.8342    -3869.044            0    4741.0236    17.098367    20.139618    20.859968     7183.226    5004.5658    4129.4436    5089.0612   -353.51541   -887.24531     1091.732   -2928.1647 
 8520000    246.27219   -3860.1703   -3438.0682   -3860.1703            0    5335.6297    17.162652    20.215337    20.938395     7264.551    6372.7186    6174.0713    3460.0991   -285.17687    137.76631    818.06545   -2872.7795 
 8521000    270.13186   -3889.0999   -3426.1031   -3889.0999            0    7095.3371      17.1017    20.143543    20.864034    7187.4265     6847.914    7344.0707    7094.0266   -1453.8396    618.33365   -321.09027    -2682.361 
 8522000    261.14547   -3848.5345   -3400.9401   -3848.5345            0    6658.9102    17.140272    20.188976    20.911092    7236.1691    6005.1132    7035.5128    6936.1047    207.94764   -385.59732   -442.01285   -2698.2113 
 8523000    260.53516   -3892.1033    -3445.555   -3892.1033            0    5487.9221    17.153854    20.204975    20.927662    7253.3853    4792.7346    5826.7984    5844.2334   -1746.5905    1044.3693    581.73001   -2865.0251 
 8524000    279.87093   -3832.9858   -3353.2966   -3832.9858            0    6123.2059    17.208611    20.269471    20.994466    7323.0682    8252.3997    6074.4092    4042.8089   -877.13947    98.402541    939.29409   -2699.3417 
 8525000    269.67917   -3860.8927   -3398.6718   -3860.8927            0    5993.3453    17.223163    20.286611    21.012218    7341.6606     6420.796    6653.6695    4905.5703    950.68069   -1123.5186     2260.626   -2756.9608 
 8526000     273.3792   -3832.8839   -3364.3213   -3832.8839            0    7153.5302     17.11182    20.155464    20.876381    7200.1941    9066.8612    5987.8415    6405.8878    901.92934    575.45726    1653.5005   -2613.1474 
 8527000    262.41288    -3827.417   -3377.6503    -3827.417            0    5434.9129    17.249886    20.318087    21.044821    7375.8876    7194.3541    4321.3897    4788.9948   -593.57008   -1325.4103   -1029.7618   -2793.0181 
 8528000    256.82829   -3873.6808   -3433.4859   -3873.6808            0    4210.3567    17.212535    20.274093    20.999253    7328.0787     4630.032    4267.6571    3733.3811    353.51558   -1037.7852   -1235.8981   -2983.5145 
 8529000    243.43606   -3861.6223   -3444.3813   -3861.6223            0    5196.6575    17.103319    20.145451     20.86601     7189.469    5213.9848    5247.4723    5128.5153   -1035.1766   -393.50313   -457.68707   -2899.5064 
 8530000    266.76667    -3846.544   -3389.3151    -3846.544            0    7443.1797    17.155291    20.206666    20.929414    7255.2073    6912.6855    6105.0675    9311.7861    207.73942    324.17187   -1394.7988    -2601.754 
 8531000    276.52025   -3847.2851   -3373.3389   -3847.2851            0     6340.051    17.197971    20.256938    20.981484     7309.492    6876.3486    4569.0212    7574.7833    226.73264    763.14461    1512.9217   -2697.4803 
 8532000    256.83088      -3858.3   -3418.1007      -3858.3            0    7095.4154    17.129195    20.175929    20.897578    7222.1489    6437.1447    8006.5899    6842.5116    23.751021    -1055.759    782.06524   -2670.7573 
 8533000    259.94628   -3861.9203   -3416.3813   -3861.9203            0     6162.189    17.190093    20.247659    20.971873    7299.4521    7862.0314    4944.3434    5680.1921   -634.90577    1063.6326    72.732502   -2760.3853 
 8534000     257.3027   -3890.2076   -3449.1996   -3890.2076            0    5991.9279    17.152393    20.203253    20.925879    7251.5313    6478.7771    4547.3442    6949.6625    1139.1492    1022.2867    1433.7493   -2815.5164 
 8535000    262.74999   -3906.0357   -3455.6912   -3906.0357            0    5130.4318    17.132744    20.180109    20.901907    7226.6385    5939.2764     4048.567    5403.4519    86.387982   -30.708437   -854.14537    -2914.979 
 8536000    260.88648   -3884.2869   -3437.1364   -3884.2869            0    6229.7843    17.127442    20.173865     20.89544    7219.9325    7381.4946    6536.8321    4771.0262   -1614.8435    337.95826   -101.24048   -2781.1694 
 8537000    261.31469   -3843.5352   -3395.6508   -3843.5352            0    6979.0628     17.15415    20.205323    20.928023    7253.7602    6225.7027    7364.3191    7347.1667     1009.717    1370.9401   -313.82789   -2657.3451 
 8538000    256.54659   -3812.1504   -3372.4383   -3812.1504            0    6472.3553    17.129417     20.17619    20.897848    7222.4293    7912.0729     5795.223      5709.77    2041.3372   -59.084792    516.28043    -2690.694 
 8539000    265.02983    -3833.792   -3379.5399    -3833.792            0    5167.7073     17.14073    20.189516    20.911651    7236.7498    5050.9028    7698.2723    2753.9469    117.78415   -851.08604   -189.88044   -2834.1371 
 8540000    258.39976   -3822.9347   -3380.0463   -3822.9347            0    6179.1136    17.080465    20.118532    20.838128    7160.6871     5920.439    5716.1926    6900.7093    1794.6509    256.70709   -1130.5421   -2734.7536 
 8541000    255.69681   -3822.9078   -3384.6522   -3822.9078            0    7828.6413    17.235679    20.301353    21.027488    7357.6778    9960.8935    5892.1071    7632.9233   -859.80545   -481.85971   -593.84577   -2544.6062 
 8542000    262.09541   -3862.2329   -3413.0103   -3862.2329            0    5572.6677    17.172647     20.22711    20.950589    7277.2501    5770.3108    5599.4172    5348.2751    501.39751   -708.21946   -529.80499   -2821.5763 
 8543000    262.12765   -3828.7342   -3379.4563   -3828.7342            0     6050.101    17.134137    20.181751    20.903608    7228.4025    3750.4297    5861.1639    8538.7096    1292.8129   -238.14791   -916.67878   -2741.6617 
 8544000    266.19433   -3844.4222   -3388.1743   -3844.4222            0    7426.7472    17.106889    20.149655    20.870364     7193.971    7174.8702    8232.0364     6873.335    1081.1026    769.13582    220.23421   -2608.9845 
 8545000    257.00385   -3880.2244   -3439.7286   -3880.2244            0    8255.9822     17.06171    20.096441    20.815247    7137.1247    9163.4536    6037.6853    9566.8076   -498.09537     697.4056    1553.4408   -2580.3828 
 8546000    278.72399   -3857.6549   -3379.9315   -3857.6549            0    7149.9951    17.123338    20.169031    20.890433    7214.7436    8733.9548    8557.0121    4159.0183    840.88532    2203.7909    292.93214   -2627.6117 
 8547000    265.06276   -3867.7209   -3413.4124   -3867.7209            0    5460.7296    17.071047    20.107439    20.826638    7148.8486    3815.4883    6508.7113    6057.9893     526.9089    640.21602    463.19773   -2844.0843 
 8548000    259.75342   -3858.2345    -3413.026   -3858.2345            0    7516.4317    17.112868    20.156698    20.877659    7201.5169    7245.1757    8521.3914     6782.728   -1391.5767   -1102.5418    1743.9319   -2623.5997 
 8549000    262.87566   -3860.8183   -3410.2584   -3860.8183            0    6196.8696    17.188932    20.246291    20.970457    7297.9733    6441.0675    6271.6117    5877.9294    343.45772    105.24233   -1993.3183   -2750.7042 
 8550000    267.84627   -3864.1969   -3405.1176   -3864.1969            0    5740.1933    17.143496    20.192774    20.915025    7240.2531    5494.1476     5876.268    5850.1644    42.474525   -314.40374    199.80274    -2799.001 
 8551000    271.57051   -3834.9555   -3369.4929   -3834.9555            0    5612.5018    17.217931    20.280449    21.005836    7334.9726    7095.3772    3509.4271    6232.7012    658.29016   -480.42101   -741.54898   -2769.1065 
 8552000    273.52905   -3870.0878   -3401.2684   -3870.0878            0    5333.3728    17.171069    20.225251    20.948664    7275.2444    5384.8915    6422.7968      4192.43   -1375.9008    970.46882   -349.53954    -2835.387 
 8553000     270.5095   -3871.8408   -3408.1968   -3871.8408            0     5961.734     17.17072     20.22484    20.948238     7274.801    5507.6457    6756.6468    5620.9093    -362.6242    424.45111    226.37287   -2775.6836 
 8554000      264.229   -3830.6952   -3377.8158   -3830.6952            0    5936.4382    17.232682    20.297823    21.023832    7353.8407    6028.9373    5917.6097    5862.7675   -12.362976   -17.495808   -741.21361   -2741.1433 
 8555000    258.09511   -3845.4306   -3403.0644   -3845.4306            0    6317.7653    17.200243    20.259615    20.984257    7312.3902    6929.8802    5730.8016     6292.614   -545.48522    631.06306   -647.42064   -2729.3145 
 8556000    272.78146   -3849.4899   -3381.9518   -3849.4899            0    3248.4773     17.29211    20.367821    21.096334    7430.1836    3447.1985    3250.3651    3047.8681    454.05867    642.78301    37.004903   -3029.9416 
 8557000    264.18098   -3867.1824   -3414.3852   -3867.1824            0    5786.8873    17.229734     20.29435    21.020235    7350.0668    4593.5565    7029.6422    5737.4632   -474.00576   -177.08455   -731.46374   -2794.0703 
 8558000    259.87374   -3871.4725   -3426.0578   -3871.4725            0    6599.0067    17.206284    20.266729    20.991626    7320.0968    5631.7679    6708.3214    7456.9308   -2163.5053   -1047.7785    990.24636   -2721.5736 
 8559000    259.45371   -3841.1524   -3396.4576   -3841.1524            0    4823.4611    17.145232    20.194819    20.917143     7242.453    5795.9621    5429.8866    3244.5345    -248.2371   -26.039193   -417.36675   -2886.9856 
 8560000    259.05686   -3893.6285   -3449.6139   -3893.6285            0    7399.4502    17.085649    20.124638    20.844452    7167.2082    7846.2374    8326.9782     6025.135   -60.719999    148.45273   -205.37927   -2676.1762 
 8561000    255.85284    -3846.526    -3408.003    -3846.526            0     6594.021    17.161756    20.214281    20.937302    7263.4129    6136.0341    7963.4174    5682.6115   -372.34953   -1697.4835    740.21734   -2709.5022 
 8562000    250.90289   -3818.9575   -3388.9185   -3818.9575            0    5253.0879    17.251819    20.320364    21.047179    7378.3672    5526.5205    4841.8225    5390.9206   -286.33511   -559.68444   -963.39099   -2823.6552 
 8563000    270.82145   -3814.0011   -3349.8224   -3814.0011            0    7949.7872    17.112951    20.156796    20.877761    7201.6223    7269.6541    9499.7768    7079.9308   -598.23221   -832.57065    169.10238     -2514.87 
 8564000    265.36956   -3872.6482   -3417.8139   -3872.6482            0    5220.3284    17.183542    20.239942    20.963881    7291.1097     5547.944    4830.6467    5282.3946    493.28667    463.84887    283.87289   -2862.7189 
 8565000    251.47917   -3903.7756   -3472.7489   -3903.7756            0    6000.6187    17.274535     20.34712    21.074892    7407.5511    6910.0481    6446.1516    4645.6563   -75.330795   -1286.0211   -589.48196   -2824.4929 
 8566000    270.04444   -3852.5703   -3389.7234   -3852.5703            0    6807.5375    17.158489    20.210434    20.933317    7259.2666    4934.6579    9381.5035     6106.451    1619.8556   -502.58213     1765.854   -2669.0165 
 8567000    249.71446    -3876.571    -3448.569    -3876.571            0    4814.5627    17.138563    20.186963    20.909007    7234.0048    4646.2036     5611.896    4185.5885    -653.4793   -734.28059    28.636537     -2940.63 
 8568000    264.64585   -3852.4844   -3398.8905   -3852.4844            0    6185.6008    17.123932    20.169729    20.891156    7215.4934    5036.8006     7066.056    6453.9457    1728.8616   -271.57696   -628.64976   -2747.9762 
 8569000     252.4591   -3875.0073    -3442.301   -3875.0073            0    5945.6211    17.195801    20.254382    20.978837    7306.7255    6835.3221    5752.1595    5249.3817   -45.051362    645.88993    -598.2539   -2808.7291 
 8570000    264.76884   -3863.8148   -3410.0101   -3863.8148            0    6355.3159    17.160054    20.212277    20.935226    7261.2531    5997.9011    6783.8782    6284.1685   -892.47384   -829.09143   -619.73632   -2736.9953 
 8571000     256.3231   -3873.1409   -3433.8119   -3873.1409            0    5743.0731    17.224133    20.287754    21.013402    7342.9014    5748.0856    5892.3494    5588.7843   -976.50232    205.01048    1473.6711   -2818.7937 
 8572000     271.3464   -3820.1582   -3355.0797   -3820.1582            0    4944.1961     17.27717    20.350224    21.078107    7410.9422    4211.7702    4509.7653    6111.0527    1013.5618    63.403851    38.651152   -2820.7061 
 8573000    254.28713   -3898.0594   -3462.2199   -3898.0594            0    4912.0435    17.164175    20.217131    20.940253     7266.485    4157.2775    7747.5831    2831.2699    867.51346    987.82755    -444.8819   -2941.6699 
 8574000    267.64115   -3892.0501   -3433.3224   -3892.0501            0    8657.4306    17.134006    20.181595    20.903447    7228.2356    8657.2229     9063.035    8252.0338    787.92517     1063.151   -33.161146   -2520.6872 
 8575000    267.15544   -3856.8614   -3398.9661   -3856.8614            0    6601.9819    17.142842    20.192003    20.914227    7239.4243    7124.3827    5119.7226    7561.8405    469.72907    1182.1549    765.48935   -2701.9316 
 8576000    264.30717   -3869.7522   -3416.7387   -3869.7522            0     4527.685    17.189356    20.246791    20.970974    7298.5131    4408.7269    5274.7258    3899.6024   -379.51234   -951.82817    227.49098   -2934.8059 
 8577000    250.08977   -3858.6897   -3430.0444   -3858.6897            0    5538.0965    17.195005    20.253445    20.977866    7305.7118    6852.4375    5796.1553    3965.6968    1335.7869   -536.63846    339.61543   -2839.9807 
 8578000     276.2379   -3838.4724   -3365.0101   -3838.4724            0     7926.728    17.191979    20.249881    20.974175    7301.8555    10572.805    8128.4924    5078.8865   -106.30014    854.67325   -635.27776   -2520.8923 
 8579000    267.59003   -3890.4363   -3431.7962   -3890.4363            0    6101.8501    17.237564    20.303573    21.029788    7360.0921    6625.2658    5901.4237    5778.8607     1152.377   -666.01379    -1211.743   -2776.8273 
 8580000    276.03055   -3829.0989    -3355.992   -3829.0989            0    5399.0351    17.182732    20.238988    20.962892    7290.0785    4697.8394    4234.9933    7264.2724   -383.80046     380.2047    109.23965   -2781.9757 
 8581000     257.2413   -3855.4939   -3414.5912   -3855.4939            0     4911.082    17.223797    20.287358    21.012992    7342.4716    3701.3812    6545.2898     4486.575   -760.23931    346.92715     1034.898   -2888.7006 
 8582000    259.75321   -3880.2341   -3435.0259   -3880.2341            0    6546.5861    17.239053    20.305327    21.031604    7361.9996    6657.4806    7387.4448    5594.8329    407.86126   -264.43871    794.30827   -2732.1372 
 8583000    253.63328   -3863.0967    -3428.378   -3863.0967            0    7606.9299    17.188485    20.245765    20.969911    7297.4036    8664.5564    8795.0075    5361.2258   -862.09674    1582.9013   -701.38826   -2618.8093 
 8584000    269.57725    -3817.131   -3355.0849    -3817.131            0    6352.3931    17.155291    20.206667    20.929415    7255.2076    5634.9269     6436.613    6985.6394     644.2829    521.31595   -401.51209   -2682.9397 
 8585000    267.25926   -3869.3207   -3411.2474   -3869.3207            0      6525.95    17.107351      20.1502    20.870929    7194.5546    3185.0121    7498.8303    8894.0077   -98.222385    265.51493   -1141.5077   -2726.5108 
 8586000    267.62567   -3876.4605   -3417.7592   -3876.4605            0    5931.9726     17.10895    20.152083    20.872879    7196.5717    5327.3647    6274.6885    6193.8647   -1254.5435   -143.46906   -271.40623   -2795.1713 
 8587000    258.81064   -3887.9622   -3444.3697   -3887.9622            0    6801.0044    17.146014     20.19574    20.918097    7243.4441    7469.3554    5670.5097    7263.1482    570.12017   -715.26478   -217.15674   -2725.9238 
 8588000    265.44687   -3835.4267   -3380.4598   -3835.4267            0    7398.7499    17.205293    20.265563    20.990417    7318.8327    8419.0501    6690.7251    7086.4744   -1726.5622   -805.16279   -412.12038   -2590.7345 
 8589000    237.32814   -3854.9603    -3448.188   -3854.9603            0    6342.4549    17.143709    20.193025    20.915285    7240.5236    7210.6517    6876.3822    4940.3309   -271.38797    395.99913     426.6939   -2778.4526 
 8590000    263.24109   -3870.6267   -3419.4405   -3870.6267            0    8380.7704    17.131756    20.178945    20.900702    7225.3887    10428.312    6578.3478     8135.651    1665.5245   -278.25984   -2202.3307   -2536.3178 
 8591000    257.16233   -3888.0612   -3447.2938   -3888.0612            0    7692.9536    17.142849    20.192011    20.914235    7239.4331    7553.3068    8153.1825    7372.3713    4.8051938   -458.39073   -1561.4147    -2635.074 
 8592000    266.36849   -3840.5934   -3384.0469   -3840.5934            0    7143.4773    17.228648    20.293072     21.01891    7348.6774    7300.5947    7805.9472    6323.8901    326.94868    1689.4069    543.70996   -2618.4595 
 8593000    257.44949   -3885.4506    -3444.191   -3885.4506            0    5445.6117    17.183384    20.239757    20.963689    7290.9094     6024.663    5581.5109    4730.6612     619.8972    124.15178    345.81913   -2865.1567 
 8594000    251.80557    -3877.198   -3445.6119    -3877.198            0    4759.0741    17.196595    20.255317    20.979805    7307.7377    5099.0147    4856.4646    4321.7429   -70.786245    842.30151    770.94514   -2938.4095 
 8595000    268.36587   -3906.2185   -3446.2486   -3906.2185            0    6988.3654    17.104881     20.14729    20.867915     7191.438    7709.9917    6415.0156    6840.0888   -812.54626    282.95573    463.27575   -2713.3106 
 8596000     273.1738   -3872.5725    -3404.362   -3872.5725            0    5493.8658    17.121343     20.16668    20.887998    7212.2212    5880.6068    4612.8347     5988.156    1739.0725    419.59458   -907.58944   -2826.5015 
 8597000    276.38666   -3901.5599   -3427.8427   -3901.5599            0    7279.3386    17.095495    20.136235    20.856464    7179.6065    6409.6399    7181.4416    8246.9343   -808.55314    421.48338    122.93325   -2665.6435 
 8598000    255.91358   -3904.9284   -3466.3012   -3904.9284            0     4842.213    17.166951      20.2204     20.94364     7270.011     3835.304    5136.7184    5554.6166    1034.2834   -670.21727   -64.845853   -2952.9024 
 8599000    274.47696   -3884.2645   -3413.8204   -3884.2645            0    6278.6647    17.142721     20.19186    20.914079    7239.2709     5805.679    5653.7018    7376.6134     262.0092   -87.056686     109.4485   -2750.9357 
 8600000    259.88586   -3892.7953   -3447.3598   -3892.7953            0    4992.2474    17.157615    20.209405    20.932251    7258.1572     5083.972    4691.6524    5201.1177   -373.95845   -2324.3281    546.80538   -2918.9166 
 8601000    253.69916   -3878.8772   -3444.0456   -3878.8772            0    5760.8972    17.226633    20.290699    21.016453    7346.0998    6207.1797    6627.2446    4448.2672    21.025196    121.65773   -220.85126   -2826.8499 
 8602000    274.20412   -3873.6389   -3403.6624   -3873.6389            0    5265.0414    17.199907    20.259218    20.983846    7311.9611    5153.1092    6470.2621    4171.7529    1086.8318    600.70098   -1667.5445   -2842.2118 
 8603000    259.37702    -3834.951   -3390.3877    -3834.951            0     4412.162     17.18277    20.239034    20.962939    7290.1277    4890.6659    3974.1628    4371.6574    775.50541    1106.9726    1050.0457   -2921.2909 
 8604000    258.42242   -3871.1248   -3428.1976   -3871.1248            0      6592.25    17.143713    20.193029    20.915289    7240.5279    5306.8016    7524.6208    6945.3277    290.02523   -748.49542    1524.8362   -2732.0846 
 8605000     269.2376   -3865.6395   -3404.1754   -3865.6395            0    5715.0615    17.201726    20.261361    20.986065    7314.2813    7278.9981    4893.2337    4972.9527   -1449.5531   -951.72094   -979.05761   -2794.5424 
 8606000    246.88833   -3868.5871   -3445.4289   -3868.5871            0    5072.6163    17.179718    20.235439    20.959216    7286.2439    4233.4819    7423.5552    3560.8118    1184.7907    901.86371    1288.6061   -2906.4006 
 8607000    246.20291   -3883.2183    -3461.235   -3883.2183            0    4556.2085    17.214262    20.276127    21.001359     7330.284    3613.5728    6011.9719    4043.0808    634.23147   -318.42227    856.45143    -2974.155 
 8608000    259.46498   -3868.3355   -3423.6214   -3868.3355            0    6669.5844    17.140002    20.188658    20.910763    7235.8275     7159.948    6892.3852    5956.4199    336.78272   -1527.9022    -542.7684   -2719.7994 
 8609000    263.42475   -3887.4615   -3435.9605   -3887.4615            0    5243.7558    17.134386    20.182043    20.903911    7228.7169     7384.751    4257.8557    4088.6608     897.9911    73.705723    1025.1663   -2883.1458 
 8610000    265.37282   -3885.1602   -3430.3203   -3885.1602            0    5931.7771     17.18141    20.237432     20.96128    7288.3969    5791.6147    5127.1532    6876.5633    474.02236   -785.90578   -167.04471   -2799.8092 
 8611000    281.19118   -3883.0865   -3401.1344   -3883.0865            0    8239.9845     17.15105    20.201671    20.924241    7249.8281     7326.479    9551.7674    7841.7072     764.1599    679.07686    739.40174   -2529.9101 
 8612000    262.74607   -3863.3052   -3412.9674   -3863.3052            0    5302.3862    17.209643    20.270687    20.995725    7324.3856    5650.8683    4752.5005    5503.7898   -341.05662    699.01896   -611.40675   -2846.5737 
 8613000    257.08849   -3854.3664   -3413.7255   -3854.3664            0     8428.476    17.154775    20.206059    20.928785    7254.5531    9357.9543    7816.1933    8111.2803   -196.84416   -598.23281   -697.31759    -2521.991 
 8614000    269.97221   -3835.8206   -3373.0975   -3835.8206            0    7352.3226    17.143877    20.193222    20.915489    7240.7356    5957.2485      8184.93    7914.7892   -1020.1653    470.54354    540.08532   -2596.7018 
 8615000    274.59781   -3888.1071   -3417.4558   -3888.1071            0    4186.4285    17.331299    20.413981    21.144145    7480.8157    1973.7417     4854.125    5731.4189    234.64909    1229.1642   -330.37819   -2960.7164 
 8616000    259.11613   -3897.6874   -3453.5712   -3897.6874            0    7895.5041    17.155298    20.206675    20.929423    7255.2164    9057.2902    7816.6105    6812.6115    170.06582   -154.77778    1096.1075   -2618.1488 
 8617000     255.5916   -3910.1381   -3472.0628   -3910.1381            0    6206.3108      17.2269    20.291013    21.016778    7346.4411    6470.6898    6216.2263    5932.0163    455.76902   -992.73902     609.5158   -2807.1168 
 8618000    255.96654   -3889.2644   -3450.5466   -3889.2644            0     5187.118    17.207034    20.267614    20.992542     7321.055    4819.5564    4893.9082    5847.8894    344.37346   -1045.8414   -878.09085   -2896.7176 
 8619000     277.3114   -3902.5517   -3427.2494   -3902.5517            0    5404.7618    17.151804     20.20256    20.925161    7250.7852    6047.1388    5858.4399    4308.7067   -312.62056   -513.62433    499.80309   -2855.7214 
 8620000    270.06978   -3904.3211   -3441.4307   -3904.3211            0    8840.4554    17.156794    20.208437    20.931249    7257.1153    9272.5853    10229.408    7019.3724   -2067.4793     133.6842    1429.1227   -2505.7783 
 8621000    267.26075   -3879.2238    -3421.148   -3879.2238            0    7720.3566    17.076021    20.113298    20.832706    7155.0992    8510.9627    7927.1429    6722.9642    243.49005    1778.9546   -605.39554   -2615.5305 
 8622000    278.22459   -3862.3912   -3385.5238   -3862.3912            0    6664.9237    17.170429    20.224497    20.947883     7274.431    7550.1111    7458.3475    4986.3125    1508.4821   -1921.6436    949.72673   -2678.4413 
 8623000    254.98777   -3888.2857   -3451.2454   -3888.2857            0    4271.1718    17.224529     20.28822    21.013885    7343.4079    4639.7593     4341.172    3832.5839      518.053   -1208.9959    143.28011   -2993.8197 
 8624000    267.53287   -3827.9883   -3369.4461   -3827.9883            0    7264.0246     17.11449    20.158608    20.879637    7203.5646    5645.1311    7924.5565    8222.3862    214.83401    384.03197   -974.65752   -2606.3124 
 8625000    284.40412   -3841.8624   -3354.4035   -3841.8624            0    7398.8085      17.1674    20.220929    20.944188    7270.5816    7211.6378    9476.6557    5508.1321    614.01993    437.25255    852.17579   -2569.8784 
 8626000    267.01034   -3883.1696    -3425.523   -3883.1696            0    7389.2748    17.188495    20.245777    20.969924     7297.417    6806.8732    9137.8053    6223.1458    586.48175    179.84071   -888.69817   -2639.1169 
 8627000    267.61107   -3861.0707   -3402.3945   -3861.0707            0    6317.2712    17.205154    20.265399    20.990248    7318.6551    6008.3789    6338.4439    6604.9909    196.63789    392.97778   -572.15006     -2728.12 
 8628000    276.17371   -3881.6527   -3408.3004   -3881.6527            0    6250.7964    17.232513    20.297624    21.023625    7353.6236     8429.437    4260.5079    6062.4442    -675.9125   -1265.1822   -75.586399   -2737.9334 
 8629000    272.45037   -3854.2922   -3387.3216   -3854.2922            0    5650.2624    17.262621    20.333087    21.060357     7392.235     6859.556    5470.5976    4620.6335    1092.5894    1215.4738    340.53968   -2778.1772 
 8630000      244.227   -3840.7637   -3422.1669   -3840.7637            0      5091.01    17.241148    20.307795     21.03416    7364.6843    5701.3663    4286.5773    5285.0863   -659.81804   -382.27489    320.07161   -2875.3601 
 8631000    248.79512   -3848.9921   -3422.5658   -3848.9921            0    5039.4474    17.191905    20.249793    20.974084    7301.7608    6409.8566    4862.2854    3846.2003    441.44482    1213.4283    466.27448   -2885.9217 
 8632000    261.04869   -3822.8012   -3375.3727   -3822.8012            0    5270.6026    17.222887    20.286286    21.011882    7341.3082    5996.4576    5739.2015    4076.1486    240.13345   -200.70228   -180.66611   -2811.0732 
 8633000    263.78043   -3876.3259   -3424.2152   -3876.3259            0    6019.1232    17.198307    20.257334    20.981894    7309.9208    7051.5836    6753.4444    4252.3415   -945.37714    64.060359    964.18987   -2782.5304 
 8634000    261.38281   -3871.1025   -3423.1014   -3871.1025            0    6473.7893    17.080183      20.1182    20.837784     7160.332    7681.5108    6142.2256    5597.6316    445.23043    391.59697    1535.1888   -2747.0688 
 8635000    260.80867   -3903.4563   -3456.4392   -3903.4563            0    7090.2282    17.102525    20.144515    20.865041    7188.4672    6212.1144    6118.3913    8940.1789    538.80712    652.54896    646.28545   -2713.1251 
 8636000    266.09908   -3886.3618    -3430.277   -3886.3618            0    5734.7435    17.116414    20.160875    20.881986    7205.9953    6514.7499    5630.8202    5058.6604   -129.63689    1821.3854   -272.87973   -2827.6011 
 8637000    253.73421   -3883.7922   -3448.9005   -3883.7922            0    6178.8411    17.131276    20.178381    20.900117    7224.7822    5791.9321    6086.3168    6658.2745    402.40033   -70.738715   -189.67068   -2797.8605 
 8638000    276.73066   -3878.0831   -3403.7762   -3878.0831            0    5408.0918    17.110578    20.154001    20.874865    7198.6265    7299.0038    5583.2996     3341.972    84.321293    622.98672   -908.01062     -2836.01 
 8639000    245.25121   -3889.0282    -3468.676   -3889.0282            0    6278.1088    17.097494     20.13859    20.858903    7182.1254    7009.0008    5560.8913    6264.4344    569.34227   -1769.8881   -1566.9315   -2811.0822 
 8640000    265.86582   -3860.8455   -3405.1606   -3860.8455            0    5497.2865    17.158432    20.210367    20.933247    7259.1941    4902.8658    6712.4637    4876.5301    1263.5932   -1142.4487    -1710.371   -2823.1744 
 8641000    250.17762   -3872.2056   -3443.4097   -3872.2056            0    6067.8865    17.173062    20.227599    20.951096    7277.7782    5236.6133    7880.5853     5086.461   -780.90977    414.32893    214.78074   -2799.3707 
 8642000     253.7179   -3843.7538     -3408.89   -3843.7538            0    6272.6326    17.128838    20.175508    20.897142     7221.697    6998.6655    5458.6857    6360.5465    1376.9959    389.76781    1395.1927   -2748.2498 
 8643000    254.08153   -3863.2442   -3427.7572   -3863.2442            0     5545.057    17.200932    20.260425    20.985096    7313.2682    5133.5904    6909.1306    4592.4501    271.89156   -110.08784     1237.643   -2836.3407 
 8644000    257.30456   -3837.9458   -3396.9346   -3837.9458            0    7908.6615    17.139727    20.188334    20.910426    7235.4786    7855.5069    9299.1556     6571.322   -245.78854    1268.1791   -72.912954   -2562.3966 
 8645000    267.59904   -3818.7959   -3360.1403   -3818.7959            0     5630.565    17.256384    20.325741    21.052748    7384.2255    6575.7841    5515.8846    4800.0263    -623.8797    1277.9097    -2013.217   -2753.7771 
 8646000    269.14226   -3889.2195   -3427.9189   -3889.2195            0    6729.9383    17.212121    20.273605    20.998748    7327.5496    7704.2461    5530.6402    6954.9285     228.1421   -274.49234   -309.41187   -2708.7254 
 8647000    252.47833   -3869.3722    -3436.633   -3869.3722            0    6109.6725    17.217765    20.280253    21.005633    7334.7601    7504.8372     5320.651    5503.5292   -1221.0868   -672.54439   -854.39161   -2783.0816 
 8648000     245.6951   -3850.4068   -3429.2938   -3850.4068            0    5643.0657    17.166147    20.219454     20.94266    7268.9903    4182.6568    6286.6688    6459.8716   -75.170059     536.4693   -401.21337   -2831.0681 
 8649000    268.45374   -3816.8489   -3356.7283   -3816.8489            0    8232.3329    17.121647    20.167039     20.88837    7212.6066    9253.4592    8235.3234    7208.2161   -1002.2484    674.95756    463.07813   -2490.7819 
 8650000    282.33815   -3908.2918   -3424.3739   -3908.2918            0    6289.5131    17.094891    20.135524    20.855727    7178.8453    7504.3246    6745.0641    4619.1506   -136.25349   -808.37965    613.37608   -2765.8864 
 8651000    273.62919   -3851.2113   -3382.2203   -3851.2113            0    4786.0439    17.187307    20.244377    20.968474    7295.9031    4947.9484    4766.9446    4643.2388   -200.81775    -410.3165    -928.4081   -2872.9696 
 8652000    264.52575   -3898.7399   -3445.3518   -3898.7399            0    7199.6728    17.058435    20.092583    20.811251    7133.0149    8255.5077    7442.2521    5901.2585   -857.68252    254.96521    626.96531   -2696.3864 
 8653000    268.21727   -3884.0331   -3424.3179   -3884.0331            0    5892.9052    17.141491    20.190413    20.912579    7237.7136    6780.8891    5085.4138    5812.4128   -165.15632    658.60143    147.31367   -2802.2944 
 8654000    255.39241   -3890.9955   -3453.2617   -3890.9955            0    5352.5014    17.184499    20.241069    20.965048    7292.3278    3683.8111    5456.4958    6917.1973    1064.1636   -542.57665   -249.99826   -2884.0172 
 8655000    257.21187   -3885.4526   -3444.6003   -3885.4526            0    7080.0448    17.140741    20.189529    20.911664    7236.7634    7589.5422    6657.6529    6992.9394    370.40455    147.09777   -12.469807   -2697.3669 
 8656000     250.6109    -3903.819   -3474.2805    -3903.819            0    5411.9289    17.165366    20.218534    20.941706    7267.9977    4318.4468    5436.4211    6480.9188    1975.4541    1525.4738    204.65901   -2900.6361 
 8657000    252.86995   -3859.3287   -3425.9183   -3859.3287            0    7437.7546    17.207039    20.267619    20.992547    7321.0607    8450.2246     6849.571    7013.4682    883.21143    573.30658   -836.36921    -2631.788 
 8658000    250.88735    -3855.211   -3425.1987    -3855.211            0     4944.461    17.218164    20.280723     21.00612    7335.2699     6119.565    4727.3532    3986.4649   -355.45557    225.90604    901.50562   -2896.2532 
 8659000     260.1105   -3875.1949   -3429.3744   -3875.1949            0    8452.6705     17.17224     20.22663    20.950092    7276.7324    9245.7823    7465.5053     8646.724   -953.19963   -1397.6445    2219.5168   -2532.3459 
 8660000    272.60206    -3860.918   -3393.6874    -3860.918            0    6276.2183    17.159495    20.211619    20.934544    7260.5434    5863.2654    7257.8786     5707.511    332.66554    605.47172    792.55237   -2729.1138 
 8661000     259.2762   -3892.7996   -3448.4091   -3892.7996            0    7645.8892    17.102657    20.144671    20.865202    7188.6337    8040.6609    7321.8959    7575.1107   -236.32904     -919.983   -2856.8712   -2646.8229 
 8662000    257.03377   -3866.5063   -3425.9592   -3866.5063            0    5079.7714    17.185531    20.242286    20.966308    7293.6423    3564.8049    7093.9985    4580.5106   -212.31305   -1600.7012   -225.78212   -2885.6225 
 8663000    265.29319   -3872.6207   -3417.9173   -3872.6207            0    6589.4447    17.124547    20.170454    20.891907    7216.2716    6508.5882    7015.3831    6244.3628   -929.13674    -3.830285    1047.4217   -2724.4315 
 8664000    256.41137    -3854.161   -3414.6806    -3854.161            0    6117.9075    17.211881    20.273322    20.998454    7327.2427    6684.7814    5182.8813    6486.0598    228.81456   -382.65162    894.92818   -2760.9191 
 8665000    260.95129   -3855.9695   -3408.7079   -3855.9695            0    4636.7499    17.224808    20.288548    21.014225    7343.7643    4671.4622    3932.0968    5306.6906    1786.5782   -1355.1188   -50.665651   -2912.1061 
 8666000    275.10093   -3844.4084   -3372.8948   -3844.4084            0     7150.329    17.121793    20.167211    20.888548    7212.7906    4983.6543    9051.8135    7415.5192      344.291   -448.03331    340.85369   -2620.7434 
 8667000    256.67639   -3874.1987   -3434.2642   -3874.1987            0    5651.8951    17.143529    20.192813    20.915065    7240.2952    5925.1384    6700.9172    4329.6297    1076.7227   -992.26506   -500.75993   -2837.4677 
 8668000    276.29721   -3841.1525   -3367.5885   -3841.1525            0    6217.0475    17.184671    20.241273    20.965259    7292.5473    5336.6511       5833.2    7481.2915    413.26849    791.11596   -450.20034   -2706.3786 
 8669000    270.46724    -3822.641   -3359.0694    -3822.641            0    4986.6391     17.15828    20.210187    20.933061    7259.0004    5944.8158    3472.4099    5542.6915    377.55738    -31.73232    842.43437   -2831.1585 
 8670000    266.55502   -3840.0626   -3383.1965   -3840.0626            0    6224.9252    17.074943    20.112028    20.831391    7153.7442    5549.0254    7144.2328    5981.5176   -338.61846    844.53575    481.04369   -2733.7499 
 8671000    254.77703   -3846.0136   -3409.3345   -3846.0136            0    6249.5321    17.124428    20.170314    20.891762    7216.1207    6155.7598    4895.6607    7697.1757    1110.6847   -1161.0005    549.62631   -2751.6355 
 8672000     272.1024   -3884.0797   -3417.7055   -3884.0797            0    6839.6545    17.094437    20.134989    20.855173    7178.2732    6770.5145    6074.9407    7673.5083   -211.84676    326.67242   -390.33421   -2701.6775 
 8673000    256.19607   -3852.4588   -3413.3475   -3852.4588            0    7895.2263    17.108473    20.151521    20.872297    7195.9696    9054.3952    6353.5048    8277.7789    857.62129   -1348.0746   -1041.4351   -2584.7764 
 8674000    260.53043   -3875.8446   -3429.3043   -3875.8446            0    5299.6797    17.235707    20.301386    21.027523    7357.7142    7196.2623    4348.0819    4354.6949    596.16962   -1638.4647   -791.58009   -2860.6237 
 8675000    266.22858   -3839.2051   -3382.8984   -3839.2051            0    6018.1016    17.174787    20.229631      20.9532    7279.9717    5598.6009    8000.4313    4455.2725    1152.7707    219.09504    404.40249    -2743.951 
 8676000    260.02927   -3885.5401   -3439.8588   -3885.5401            0    6433.3361    17.150797    20.201374    20.923933    7249.5079    6854.7458    4463.9952    7981.2672    16.992921   -13.652451    -665.5506   -2759.6838 
 8677000    272.09543    -3860.917   -3394.5547    -3860.917            0    5591.6228    17.155089    20.206429    20.929169    7254.9517    5955.6034    4945.2442     5874.021    1172.3834   -979.53495   -800.92117   -2802.9273 
 8678000    260.05514   -3846.7356   -3401.0099   -3846.7356            0    7660.9564    17.169745    20.223692    20.947049    7273.5616    7401.9877    9234.7991    6346.0823   -241.48555   -525.75331    577.73798   -2588.3554 
 8679000     266.3015   -3872.6633   -3416.2317   -3872.6633            0    4403.8831    17.268479    20.339987    21.067504    7399.7636     3176.472    5189.0008    4846.1765   -291.43045    162.50176   -831.75755   -2940.9736 
 8680000    243.72732   -3854.0915   -3436.3512   -3854.0915            0    4648.8182     17.24529    20.312673    21.039213    7369.9931    5361.6154    4215.6589    4369.1804    610.90807    504.02025   -1123.3699   -2936.6786 
 8681000    267.16549   -3875.0414   -3417.1289   -3875.0414            0    5437.0832    17.182598    20.238831    20.962729    7289.9085    6077.7766    3705.2126    6528.2602   -468.10372    407.95855    888.83854   -2839.0809 
 8682000     278.0179   -3866.5176   -3390.0044   -3866.5176            0    8676.6319    17.184836    20.241466    20.965459    7292.7568    8838.3461    7505.0756    9686.4741   -313.95688    227.60181    1232.5028   -2467.1806 
 8683000    256.11363   -3877.6175   -3438.6475   -3877.6175            0    7256.5306    17.216382    20.278624    21.003946    7332.9928     7420.838    6643.2288     7705.525   -1705.9554   -485.30037    1689.0528   -2662.6038 
 8684000     253.2684    -3851.154   -3417.0607    -3851.154            0    4582.2194    17.253667    20.322541    21.049434    7380.7389      4016.44    4943.2778    4786.9404   -1945.2792   -651.44137   -1481.8533   -2923.8282 
 8685000    271.58167   -3840.2305   -3374.7488   -3840.2305            0    6566.2506    17.214646    20.276579    21.001827    7330.7743    6354.6004    7392.1142    5952.0372   -1962.6318   -1093.4923    1194.0829    -2672.739 
 8686000    268.38394    -3812.155   -3352.1541    -3812.155            0    6838.6798     17.18948    20.246936    20.971125    7298.6708    8103.0683    5504.6953    6908.2757    808.39504    1123.7275    176.84559   -2624.2203 
 8687000    256.16402   -3829.1787   -3390.1223   -3829.1787            0    6364.3634     17.19793     20.25689    20.981435    7309.4407    6072.2611    6987.4814    6033.3477   -626.88516    44.279607    1405.6082   -2711.6767 
 8688000    258.98549   -3819.9587   -3376.0664   -3819.9587            0    5165.2098    17.256074    20.325376     21.05237    7383.8285    3976.4001    6675.5717    4843.6575    354.99554   -299.38956    1330.4659   -2819.8479 
 8689000    257.71359   -3858.9312    -3417.219   -3858.9312            0    7522.2889    17.113794    20.157789    20.878789    7202.6861    7467.1299    8545.1448    6554.5919   -1168.9904    1073.1076    1372.6242   -2627.0492 
 8690000    262.33155     -3818.75   -3369.1227     -3818.75            0    6587.5681    17.224981    20.288752    21.014436    7343.9856     5710.977    7339.3857    6712.3415   -406.08008    243.20352   -1133.1247   -2663.5645 
 8691000    265.10333   -3833.0172   -3378.6392   -3833.0172            0    6633.3398    17.260984    20.331159     21.05836    7390.1323    6197.4314      8115.86    5586.7278   -134.09991   -131.66185   -60.735602   -2663.7144 
 8692000    268.58852   -3832.5298   -3372.1782   -3832.5298            0    7099.7904    17.192344    20.250311     20.97462    7302.3203    7374.4773    7070.3302    6854.5637   -278.08629    1343.3067    206.84279   -2616.0729 
 8693000    266.73363   -3851.3908   -3394.2185   -3851.3908            0    5759.4751    17.245763    20.313231     21.03979    7370.5994    5856.9003    6099.9835    5321.5415   -406.72135    267.62427    1871.5161   -2775.1173 
 8694000    261.25568   -3844.9849   -3397.2016   -3844.9849            0    4108.4591    17.194434    20.252772     20.97717     7304.984    5081.7496     5521.922    1721.7058   -1099.2603   -343.69937   -436.05381   -2959.5041 
 8695000     260.9616   -3848.4403    -3401.161   -3848.4403            0    6840.6252    17.194197    20.252492     20.97688    7304.6809    7456.0659    7938.6827    5127.1271    531.92548   -300.56756    288.68406   -2672.4205 
 8696000    257.22905   -3840.0892   -3399.2074   -3840.0892            0    4304.6744     17.21432    20.276195     21.00143     7330.358     7573.432    2262.9691     3077.622    1093.0357   -1059.5921   -112.66999    -2939.013 
 8697000    257.41163   -3842.1709   -3400.9762   -3842.1709            0    7383.3984    17.123981    20.169788    20.891217    7215.5565     6532.631    7606.0851    8011.4789   -1314.9977    996.43082      1247.03   -2624.0101 
 8698000    263.02936   -3861.1078   -3410.2845   -3861.1078            0    4925.9045    17.187248    20.244308    20.968402    7295.8282    6189.8101    3433.1914    5154.7119   -1156.4041   -669.65518   -71.054917   -2886.1575 
 8699000    265.39417   -3849.9321   -3395.0556   -3849.9321            0    7734.0492    17.135545    20.183408    20.905324    7230.1835      6896.77    5716.9349    10588.443    988.54384    815.88499    459.60045   -2579.5402 
 8700000    250.28846   -3850.3347   -3421.3488   -3850.3347            0    5610.2275    17.209457    20.270467    20.995497    7324.1475    5038.0705    5810.0017    5982.6102     1273.487    1441.7906   -530.02566   -2822.0914 
 8701000    260.32933   -3856.3305   -3410.1349   -3856.3305            0    7293.4709    17.129648    20.176463    20.898131    7222.7227    7167.1247    7349.7854    7363.5027    572.61205    60.048265    1334.9129   -2641.8699 
 8702000    263.49728   -3847.8437   -3396.2184   -3847.8437            0     4023.141    17.285076    20.359536    21.087752    7421.1198    3547.6867    4667.9885    3853.7478    564.47525    281.42296   -275.75883   -2960.7962 
 8703000     257.9649   -3887.8471   -3445.7041   -3887.8471            0    6956.8049    17.202294     20.26203    20.986759    7315.0064    10354.276     5214.464    5301.6746   -149.89276    175.53386   -903.37671   -2703.5392 
 8704000    255.77664    -3859.448   -3421.0556    -3859.448            0    5719.6571    17.203209    20.263108    20.987875    7316.1735    7072.6118    4645.0476    5441.3118    1326.9199    470.92723   -274.41396   -2810.7745 
 8705000    264.65987   -3896.5938   -3442.9758   -3896.5938            0    6083.8498    17.176495    20.231643    20.955284    7282.1438    5850.2592    5980.3552     6420.935    717.82318   -402.89234   -587.59524   -2796.8551 
 8706000    261.60589   -3881.3304   -3432.9468   -3881.3304            0    5297.7623    17.209238     20.27021     20.99523    7323.8684    5569.5457    6478.1767    3845.5646   -184.19129    374.76842   -608.22785    -2867.087 
 8707000    263.11883   -3849.8374   -3398.8607   -3849.8374            0    6435.9163    17.175495    20.230465    20.954064    7280.8722    5765.6186    6556.7143     6985.416    1196.3869   -1309.1446    1305.1439    -2715.469 
 8708000     264.7803   -3830.2921   -3376.4677   -3830.2921            0    6150.9089     17.11791    20.162636     20.88381    7207.8838    6998.2598    4689.4361    6765.0309    566.31467   -417.68609   -80.116248   -2729.8867 
 8709000    265.66488   -3870.6917   -3415.3511   -3870.6917            0    6460.3083    17.116137    20.160548    20.881647    7205.6444    6056.8655    7539.5532    5784.5063    1511.0505    721.64146    574.40184   -2736.4572 
 8710000    269.75108   -3857.8781    -3395.534   -3857.8781            0    5992.0852    17.120363    20.165526    20.886803    7210.9832    5886.6252    4981.5621    7108.0683     -161.747    1571.2074    900.37248   -2765.3776 
 8711000    270.18455   -3880.5926   -3417.5055   -3880.5926            0    7041.0751    17.059144    20.093418    20.812116    7133.9043    6962.9309    7462.0619    6698.2327   -479.08049     884.1736   -818.45299   -2684.9473 
 8712000    246.31865   -3849.7687   -3427.5869   -3849.7687            0    6010.2029    17.175144     20.23005    20.953635    7280.4247    5601.6388     5940.435     6488.535   -375.66509    329.21749   -123.40259   -2789.4385 
 8713000    267.45065   -3845.6646   -3387.2634   -3845.6646            0    6347.4905    17.109368    20.152575    20.873389    7197.0991    7507.8569    5854.6137    5680.0008   -1225.2293    717.62604    -465.2328   -2721.0161 
 8714000     255.0336   -3870.8488     -3433.73   -3870.8488            0    6557.8592    17.140484    20.189226     20.91135    7236.4372    7814.7845    6916.4031    4942.3899   -19.786242    810.14571   -638.78793   -2741.6396 
 8715000    247.05044    -3906.753    -3483.317    -3906.753            0    5189.7588    17.195465    20.253986    20.978427    7306.2975    5939.4142    3931.1538    5698.7084   -645.24551    628.27824     1247.898    -2930.323 
 8716000     270.1763   -3878.2464   -3415.1735   -3878.2464            0    7246.0412    17.099512    20.140967    20.861365    7184.6691    5989.4157    7096.7635    8651.9444    282.77716    113.83254    293.68964   -2655.9258 
 8717000    254.82023   -3844.8099   -3408.0567   -3844.8099            0    6677.3676    17.160527    20.212834    20.935802    7261.8524    6868.5376     7418.892    5744.6733    1316.8755    1288.0789    941.41662    -2700.879 
 8718000    262.85505   -3830.8792   -3380.3546   -3830.8792            0    6732.8387    17.158707     20.21069    20.933582    7259.5422    6232.3475    7067.2421    6898.9265   -483.00084   -115.19653   -1701.1132   -2667.5289 
 8719000    266.67301   -3832.3322   -3375.2638   -3832.3322            0    4893.0245    17.159828     20.21201     20.93495    7260.9652    4883.6735    4464.2179    5331.1819   -40.952392    835.14952   -872.28968   -2857.1231 
 8720000    260.96061   -3894.6133   -3447.3358   -3894.6133            0     5511.729    17.228507    20.292906    21.018738    7348.4971     6209.423    4375.8144    5949.9495    165.95498    99.632203    1770.4338   -2856.6421 
 8721000    254.28053   -3859.3747   -3423.5465   -3859.3747            0    3825.1248    17.247038    20.314732    21.041346    7372.2342     2968.301    4256.6199    4250.4536    876.10002    601.92886    1273.9478   -3012.2826 
 8722000    247.57555    -3840.996     -3416.66    -3840.996            0    7484.1301    17.087796    20.127167    20.847072     7169.911    7107.7528    7073.7128    8270.9247   -1105.2237    1421.1759    1783.2666   -2634.0759 
 8723000    249.76019   -3857.9034    -3429.823   -3857.9034            0    3322.4511    17.171612     20.22589    20.949326    7275.9343    2327.4906    5785.0025    1854.8602   -443.19752   -184.28063    377.85443   -3077.2709 
 8724000    259.27246   -3880.6016   -3436.2175   -3880.6016            0    7723.6729    17.090694    20.130581    20.850607    7173.5597    7862.8133    8122.8327    7185.3727   -365.63515   -141.66539   -13.227788   -2628.1745 
 8725000    253.41053   -3870.1929   -3435.8559   -3870.1929            0    6949.1096    17.041096     20.07216    20.790097    7111.2858    6214.2727    6459.9687    8173.0875   -230.30388    354.32568   -824.86678   -2715.1581 
 8726000    269.07506   -3872.7201   -3411.5347   -3872.7201            0    4361.0044    17.164974    20.218072    20.941228    7267.4995     6292.454    3099.5404    3691.0188   -518.68736   -951.15524   -1184.0188   -2949.3161 
 8727000      290.822   -3835.8942   -3337.4352   -3835.8942            0    8698.4285    17.095082    20.135749    20.855961    7179.0865    8992.9542     10934.06    6168.2712   -2763.5178     474.2334   -26.281992   -2426.7131 
 8728000     261.6212   -3842.6135   -3394.2037   -3842.6135            0     8372.827    17.158323    20.210239    20.933115    7259.0559    7325.6812    7518.1338    10274.666   -468.95001    961.20018   -2320.4564   -2507.8069 
 8729000    261.12037    -3857.965   -3410.4136    -3857.965            0    8604.4995    17.139518    20.188088    20.910172     7235.214    7669.4821    8325.3993    9818.6171   -492.04849   -41.153706      859.224   -2502.4825 
 8730000    256.96394   -3845.5302   -3405.1028   -3845.5302            0    3509.4609    17.253454     20.32229    21.049174    7380.4655    4253.0958    4721.2735    1554.0134   -1582.2261   -993.09427   -855.65724   -3027.3567 
 8731000    257.19106   -3841.9457    -3401.129   -3841.9457            0    6252.2742    17.138802    20.187245    20.909299    7234.3082    6036.8572    6717.9214    6002.0438   -2531.7584    -390.9012   -148.63743    -2741.483 
 8732000    268.71287   -3875.1253   -3414.5607   -3875.1253            0    5457.0383    17.162746    20.215448    20.938511     7264.671    3461.4687    6416.4878    6493.1584   -519.96616    252.49076    487.03359   -2836.3996 
 8733000    254.49081   -3881.9265   -3445.7379   -3881.9265            0    5570.0825    17.286317    20.360998    21.089267    7422.7192    5326.8587    5543.0213    5840.3675   -69.309702   -460.23548    211.93608   -2842.7612 
 8734000    275.33278   -3861.4973   -3389.5864   -3861.4973            0    5856.1993    17.236176    20.301938    21.028094    7358.3142    4695.1672     6902.543    5970.8876    334.36828    1974.0499    -482.5967   -2761.1373 
 8735000     258.2324   -3839.0856   -3396.4841   -3839.0856            0    6485.7082    17.160481    20.212779    20.935746    7261.7941    5397.7304    7929.1044    6130.2899    820.37856    626.87564    402.39195   -2709.6098 
 8736000     262.4285   -3874.3147   -3424.5212   -3874.3147            0    4866.2484    17.116652    20.161155    20.882275     7206.295    5330.1019    4853.7764    4414.8668   -471.69567    652.74447   -890.04232   -2913.0959 
 8737000    268.05157   -3880.2268   -3420.7955   -3880.2268            0    6520.3417    17.133207    20.180654    20.902472    7227.2246    6572.3319    6009.4085    6979.2848    169.71658    1551.4314    998.08302   -2733.5407 
 8738000    278.03365   -3874.7451   -3398.2049   -3874.7451            0    4888.1903    17.174775    20.229616    20.953185    7279.9557    2866.6512    5590.7835    6207.1361    796.06467    745.68001    655.31298   -2879.2224 
 8739000    262.15011   -3873.5688   -3424.2524   -3873.5688            0    6696.2781    17.186382    20.243287    20.967345    7294.7253    5931.0074    5974.9135    8182.9134    810.29642   -646.11612    215.08999   -2711.8616 
 8740000    280.13739   -3877.5109    -3397.365   -3877.5109            0    7196.4927    17.146629    20.196464    20.918847    7244.2231    6595.3771    7255.9496    7738.1513    753.12205   -1423.7937     932.1789   -2637.0587 
 8741000    256.60981   -3880.8067   -3440.9863   -3880.8067            0    5647.0222    17.120323    20.165479    20.886754    7210.9326    5370.6526    6475.4717    5094.9423    13.803366    314.21156    257.02528   -2847.1225 
 8742000    262.53856    -3873.279   -3423.2969    -3873.279            0    4460.0669    17.221438    20.284579    21.010114    7339.4552    5165.1369    3541.6209    4673.4429    103.18727   -211.94462    903.95388   -2945.8984 
 8743000    270.09047   -3862.5922   -3399.6664   -3862.5922            0     4746.523    17.191005    20.248733    20.972986    7300.6137    6393.8309      3890.13     3955.608   -274.37829    178.79244   -46.432929   -2894.2948 
 8744000    257.71711    -3865.283   -3423.5647    -3865.283            0     6772.714    17.179724    20.235446    20.959223    7286.2514    6866.8551    8323.5379    5127.7489   -1344.2133   -717.54652   -833.49369   -2703.8792 
 8745000    281.98728   -3874.3912   -3391.0746   -3874.3912            0    4669.9987    17.216055    20.278238    21.003546    7332.5745    5085.0991    4321.3997    4603.4974    172.94951   -353.41722   -7.5848052    -2891.674 
 8746000    256.42086   -3851.0434   -3411.5468   -3851.0434            0    7760.2692    17.120722    20.165949    20.887241    7211.4369    7018.3202    8035.5035    8226.9838    1458.8224   -89.493363   -1163.7106   -2595.3884 
 8747000    256.28938   -3855.4286   -3416.1574   -3855.4286            0    7084.8307    17.154029    20.205181    20.927876    7253.6073    8754.7166    7261.8178    5237.9576    1157.6437    -814.1944    -1189.035   -2666.6785 
 8748000    270.96402   -3827.9173   -3363.4942   -3827.9173            0    5288.1592     17.22297    20.286384    21.011984    7341.4146    7051.1734    4064.7941      4748.51    1113.4159    1993.6056   -1554.2592   -2797.3069 
 8749000    249.49495   -3857.9211   -3430.2953   -3857.9211            0    7692.2637    17.121484    20.166846     20.88817    7212.3995    8428.7245    9280.0609    5368.0058   -343.72304    624.31717    1634.9929   -2621.1811 
 8750000    278.68908   -3855.9524   -3378.2888   -3855.9524            0    6682.3696    17.165835    20.219086    20.942278    7268.5935    4810.7404    7914.5914    7321.7771   -150.21337    533.17479    406.32173   -2669.9243 
Loop time of 459.491 on 64 procs for 250000 steps with 864 atoms

Performance: 94.017 ns/day, 0.255 hours/ns, 544.080 timesteps/s
99.0% CPU use with 64 MPI tasks x 1 OpenMP threads

MPI task timing breakdown:
Section |  min time  |  avg time  |  max time  |%varavg| %total
---------------------------------------------------------------
Pair    | 20.867     | 25.735     | 30.533     |  47.1 |  5.60
Bond    | 0.26838    | 0.27727    | 0.28675    |   0.8 |  0.06
Kspace  | 202.38     | 210.06     | 219.7      |  27.7 | 45.72
Neigh   | 5.4321     | 5.9921     | 6.9896     |  15.9 |  1.30
Comm    | 94.233     | 104.56     | 111.45     |  35.6 | 22.76
Output  | 0.97083    | 0.97192    | 0.97314    |   0.0 |  0.21
Modify  | 103.36     | 105.91     | 110.35     |  13.9 | 23.05
Other   |            | 5.981      |            |       |  1.30

Nlocal:        13.5000 ave          18 max           9 min
Histogram: 2 2 10 9 8 11 7 11 3 1
Nghost:        2197.89 ave        2232 max        2171 min
Histogram: 6 7 6 7 9 12 9 4 2 2
Neighs:        4243.06 ave        6406 max        2806 min
Histogram: 9 3 13 7 13 5 5 7 1 1

Total # of neighbors = 271556
Ave neighs/atom = 314.30093
Ave special neighs/atom = 2.0000000
Neighbor list builds = 14261
Dangerous builds = 1

unfix		3
unfix		2
unfix		1

write_data	data.final.${pid}
write_data	data.final.0
System init for write_data ...
PPPM initialization ...
  extracting TIP4P info from pair style
  using 12-bit tables for long-range coulomb (../kspace.cpp:340)
  G vector (1/distance) = 0.37333747
  grid = 24 24 24
  stencil order = 5
  estimated absolute RMS force accuracy = 0.0032680631
  estimated relative force accuracy = 9.8416749e-06
  using double precision FFTW3
  3d grid and FFT values/proc = 2535 216
Last active /omp style is kspace_style pppm/tip4p/omp
WARNING: Not all mixed pair coeffs generated from mixing. Use write_data with 'pair ij' option to store all pair coeffs. (../write_data.cpp:312)

write_restart   restart.lmp.${pid}
write_restart   restart.lmp.0
System init for write_restart ...
PPPM initialization ...
  extracting TIP4P info from pair style
  using 12-bit tables for long-range coulomb (../kspace.cpp:340)
  G vector (1/distance) = 0.37333747
  grid = 24 24 24
  stencil order = 5
  estimated absolute RMS force accuracy = 0.0032680631
  estimated relative force accuracy = 9.8416749e-06
  using double precision FFTW3
  3d grid and FFT values/proc = 2535 216
Last active /omp style is kspace_style pppm/tip4p/omp
Total wall time: 0:07:41
