#include		in.partitions
include		in.temp
variable        temperature equal 112.72
variable	tempDamp equal 100.0
include		in.pressure
variable        pressure equal 1998.5
variable        pressureDamp equal 1000.0 # This is 1 ps
include		in.seed
variable        seed equal 745823

units		real
atom_style	full
#include		in.box
read_restart	restart.lmp.${pid}
read_restart	restart.lmp.0
Reading restart file ...
  restart file = 30 Jul 2021, LAMMPS = 30 Jul 2021
  restoring atom style full from restart
  orthogonal box = (0.16014460 0.035299419 0.21621371) to (18.047428 23.593878 21.996982)
  2 by 4 by 4 MPI processor grid
  restoring pair style lj/cut/tip4p/long/omp from restart
  restoring bond style harmonic/omp from restart
  restoring angle style harmonic/omp from restart
  864 atoms
  576 bonds
  288 angles
Finding 1-2 1-3 1-4 neighbors ...
  special bond factors lj:    0        0        0       
  special bond factors coul:  0        0        0       
     2 = max # of 1-2 neighbors
     1 = max # of 1-3 neighbors
     1 = max # of 1-4 neighbors
     2 = max # of special neighbors
  special bonds CPU = 0.002 seconds
  read_restart CPU = 0.008 seconds
include 	in.setup
variable	out_freq equal 1000
variable	out_freq2 equal 10000
variable	out_freq3 equal 1000

timestep	2.0

neigh_modify    delay 7 every 1

include		in.tip4p
# This is TIP4P/Ice

# create groups ###
group ox type 2
288 atoms in group ox
group hy type 1
576 atoms in group hy

# set charges - beside manually ###
set group ox charge -1.1794
Setting atom values ...
  288 settings made for charge
set group hy charge 0.5897
Setting atom values ...
  576 settings made for charge

# ### TIP3P Potential Parameters ###
pair_style lj/cut/tip4p/long/omp 2 1 1 1 0.1577 8.5
pair_coeff 1 1*2 0.000 0.000
pair_coeff 2 2 0.21084 3.1668
bond_style  harmonic
bond_coeff  1 450 0.9572
angle_style harmonic
angle_coeff 1 55 104.52
kspace_style pppm/tip4p/omp 1.0e-5
pair_modify tail yes

thermo          ${out_freq}
thermo          1000
thermo_style    custom step temp pe etotal epair emol press lx ly lz vol pxx pyy pzz pxy pxz pyz enthalpy

restart 	${out_freq3} restart.lmp.${pid} restart2.lmp.${pid}
restart 	1000 restart.lmp.${pid} restart2.lmp.${pid}
restart 	1000 restart.lmp.0 restart2.lmp.${pid}
restart 	1000 restart.lmp.0 restart2.lmp.0


include         in.dump
dump            myDump all atom ${out_freq2} dump.water.${pid}
dump            myDump all atom 10000 dump.water.${pid}
dump            myDump all atom 10000 dump.water.0
dump            myDump2 all dcd ${out_freq2} dump.dcd
dump            myDump2 all dcd 10000 dump.dcd
dump_modify     myDump append yes
dump_modify     myDump2 append yes


variable natoms 	equal  "count(all)"                        # NUMBER ATOMS
variable H      	equal  "enthalpy/v_natoms"                 # ENTHALPY-per-atom
variable Vol      	equal  "vol/v_natoms"                 # volume-per-atom
fix AVG all 		ave/time ${out_freq} 1 ${out_freq} v_Vol v_H file vol_enthalpy.dat
fix AVG all 		ave/time 1000 1 ${out_freq} v_Vol v_H file vol_enthalpy.dat
fix AVG all 		ave/time 1000 1 1000 v_Vol v_H file vol_enthalpy.dat


timer           timeout 23:50:00 every 1000
New timer settings: style=normal  mode=nosync  timeout=23:50:00

fix 		1 all shake 1e-6 200 0 b 1 a 1
       0 = # of size 2 clusters
       0 = # of size 3 clusters
       0 = # of size 4 clusters
     288 = # of frozen angles
  find clusters CPU = 0.000 seconds
fix             2 all nph aniso ${pressure} ${pressure} ${pressureDamp}
fix             2 all nph aniso 1998.5 ${pressure} ${pressureDamp}
fix             2 all nph aniso 1998.5 1998.5 ${pressureDamp}
fix             2 all nph aniso 1998.5 1998.5 1000
fix             3 all temp/csvr ${temperature} ${temperature} ${tempDamp} ${seed}
fix             3 all temp/csvr 112.72 ${temperature} ${tempDamp} ${seed}
fix             3 all temp/csvr 112.72 112.72 ${tempDamp} ${seed}
fix             3 all temp/csvr 112.72 112.72 100 ${seed}
fix             3 all temp/csvr 112.72 112.72 100 745823


run             250000
PPPM initialization ...
  extracting TIP4P info from pair style
  using 12-bit tables for long-range coulomb (../kspace.cpp:340)
  G vector (1/distance) = 0.37200323
  grid = 24 27 25
  stencil order = 5
  estimated absolute RMS force accuracy = 0.0031241179
  estimated relative force accuracy = 9.4081883e-06
  using double precision FFTW3
  3d grid and FFT values/proc = 4410 672
Last active /omp style is kspace_style pppm/tip4p/omp
Neighbor list info ...
  update every 1 steps, delay 7 steps, check yes
  max neighbors/atom: 2000, page size: 100000
  master list distance cutoff = 10.8154
  ghost atom cutoff = 10.8154
  binsize = 5.4077, bins = 4 5 5
  1 neighbor lists, perpetual/occasional/extra = 1 0 0
  (1) pair lj/cut/tip4p/long/omp, perpetual
      attributes: half, newton on, omp
      pair build: half/bin/newton/omp
      stencil: half/bin/3d
      bin: standard
Per MPI rank memory allocation (min/avg/max) = 10.19 | 10.21 | 10.22 Mbytes
Step Temp PotEng TotEng E_pair E_mol Press Lx Ly Lz Volume Pxx Pyy Pzz Pxy Pxz Pyz Enthalpy 
28250000    115.39024   -4523.4703   -4325.6954   -4523.4703            0    2406.2689    17.887283    23.558579    21.780768    9178.3934    2698.6849    1824.4299     2695.692   -502.57558   -44.309694   -92.153271   -4003.5983 
28251000    118.36386   -4545.5511   -4342.6795   -4545.5511            0    2576.2232    17.972792    23.313112    21.908749    9179.8032    2986.2364    2049.6916    2692.7415   -645.18975    220.54017   -425.27417   -3997.7799 
28252000    112.02117   -4536.0307   -4344.0303   -4536.0307            0    1479.7589    18.005281    23.223665    22.063833    9225.9609     1272.784    1601.8114    1564.6814    873.30558   -283.67163    500.28519    -4144.927 
28253000    117.64618    -4548.514   -4346.8725    -4548.514            0    1200.9431    18.049442    23.173459    22.047892     9221.928    1259.0536    1462.6508    881.12498   -537.49895    40.723226    1.4928769   -4185.3548 
28254000    108.77839   -4547.9371   -4361.4947   -4547.9371            0      2149.07    17.908678    23.360253    21.908548    9165.4679    2144.2525    2157.0189    2145.9385    667.17081     7.567868   -421.67796   -4074.2307 
28255000    111.95018   -4530.5054   -4338.6266   -4530.5054            0    1741.5154    17.889072    23.562263     21.80802    9192.2335    1967.0633    809.66013    2447.8228    391.64269    17.410173   -35.761397   -4105.1602 
28256000    122.69918   -4548.1049   -4337.8027   -4548.1049            0     720.6146    18.146661    23.288236    21.911959    9260.0755    96.562085    1279.3429    785.93877    176.22947   -88.222379    96.725021   -4240.4846 
28257000    112.02063   -4537.0135    -4345.014   -4537.0135            0    1526.5703    18.079076    23.174519    21.996146    9215.8106    1564.4928    991.34438    2023.8738    -30.63337    -162.9903   -54.066299   -4139.8381 
28258000    111.37752   -4528.4588   -4337.5616   -4528.4588            0    2298.1872    17.921972      23.2456    22.033738    9179.4094    1902.2666     2309.204     2683.091   -497.93888   -853.85275    576.81367    -4029.898 
28259000    117.91519   -4531.0694   -4328.9668   -4531.0694            0    2499.1006    17.922086    23.359444    21.956392     9192.043     1763.975     1771.312    3962.0149   -254.15568    49.466065   -44.890368    -3993.946 
28260000    111.46373   -4533.2761   -4342.2311   -4533.2761            0    2322.9588    17.894599    23.556386    21.797917    9188.5214    2312.1237    1861.2564    2795.4964    70.965657   -37.466652   -430.23568   -4030.9426 
28261000     112.5532   -4537.9754   -4345.0631   -4537.9754            0    1646.6636    18.009569    23.406982    21.846516     9209.391     1950.355     1246.473    1743.1628    29.295259   -122.90127    638.15024   -4123.9005 
28262000    117.09854   -4526.6156   -4325.9127   -4526.6156            0    1746.9373    18.021343    23.506023    21.765174    9219.9475    1299.3961    1052.6827    2888.7331    327.85035    7.3054103    430.66838   -4091.0135 
28263000    117.09092   -4532.9512   -4332.2613   -4532.9512            0    1993.9877    18.071501    23.396801    21.769142    9204.3262    2525.6995    1902.8709    1553.3926    8.4778704   -220.86638    667.24366   -4064.5971 
28264000    110.97938   -4544.7667   -4354.5519   -4544.7667            0    2132.8036    17.946457    23.352315     21.89558    9176.2472    2254.8154    1453.6124    2689.9829   -286.47674    -380.1311    304.55916    -4069.127 
28265000    117.08244   -4541.2786   -4340.6033   -4541.2786            0    1710.5058    17.916439    23.355484    22.002249    9206.7773    2832.6821    1107.0826    1191.7526    202.50462    451.35678   -258.29051   -4110.9313 
28266000    111.96037   -4533.5338   -4341.6376   -4533.5338            0    1619.1711    18.020323     23.24944    21.969419    9204.3605    928.90365      1967.04    1961.5697    -195.7677   -58.370353   -181.09579   -4124.2863 
28267000    113.79976   -4536.6082   -4341.5593   -4536.6082            0    2264.0571     18.05636    23.213723    21.928999    9191.6572      1686.15     3511.028    1594.9933    730.91055    371.15497   -701.01685   -4038.0604 
28268000    106.00475   -4537.0832   -4355.3947   -4537.0832            0    2138.4359    18.029486     23.24174    21.927818    9188.5589    2013.0781    2043.6712    2358.5585   -378.77581    -504.9826   -98.115459   -4068.8321 
28269000    109.19714   -4530.4316   -4343.2714   -4530.4316            0     1999.835    17.965217    23.350377    21.909852    9191.0644    915.66178    2857.2595    2226.5836    550.25447    -525.2453    433.82244   -4075.2091 
28270000    109.68566   -4539.1098   -4351.1123   -4539.1098            0    2138.2026    18.016979    23.369965    21.798891    9178.5578    949.16353    1901.1149    3564.3294    91.463325   -158.49925    457.70157   -4064.8929 
28271000    112.71956    -4546.538   -4353.3405    -4546.538            0    2971.1063    17.960166    23.312923     21.89409    9167.1427    3191.5178    2662.9975    3058.8036    46.681359   -491.40219    503.79759   -3956.1233 
28272000    114.91475   -4531.1353   -4334.1753   -4531.1353            0     2196.431    17.961404    23.329258    21.917569    9184.0362    2839.0559    2356.5679    1393.6691    145.02777   -456.53895   -121.85535   -4039.9859 
28273000    107.63081   -4538.0374   -4353.5619   -4538.0374            0    2590.0811    17.911826    23.362823    21.892525    9161.3824    2737.5201    2541.6241    2491.0992    2.0826775    317.70308   -331.30599   -4007.5028 
28274000    117.43242   -4517.9567   -4316.6815   -4517.9567            0    4209.3911    17.875298    23.303498    21.811317    9085.6559     2859.413    4009.5318    5759.2284   -535.40495   -261.85504    275.96563   -3758.9163 
28275000    115.39692   -4538.6203   -4340.8339   -4538.6203            0    2399.5648    17.963534    23.235699    21.934028    9155.1599    1839.7184     3306.885     2052.091   -665.10668    46.844272   -261.40761   -4020.4474 
28276000    118.52641   -4531.9465   -4328.7963   -4531.9465            0    2304.3865    18.184158    23.197633    21.756321    9177.4565    1179.3279    1891.2702    3842.5615    525.06225    222.76482    418.07782   -4020.3685 
28277000    119.67373   -4539.9121   -4334.7954   -4539.9121            0    2772.2062    18.008687    23.409712    21.728692    9160.3421    3047.1201    1710.2124     3559.286    32.216753    122.16272   -323.61322   -3964.4447 
28278000    111.09321   -4540.2912   -4349.8812   -4540.2912            0    1466.0341    17.991114    23.433769    21.858606    9215.5794    1915.5249   -57.924277    2540.5017   -395.46487   -86.879833    164.38622   -4152.8466 
28279000    104.87304   -4536.1366   -4356.3878   -4536.1366            0    2320.9748     18.06763    23.197889     21.87316    9167.7164    2031.0743    2272.1009    2659.7493    242.77586   -140.57185    263.11903   -4046.0695 
28280000    112.54257   -4529.7878   -4336.8937   -4529.7878            0    1474.1945    17.977068    23.407322    21.912388    9220.6233    2088.7378    1586.8643     746.9813   -187.34521    76.537206   -205.53046   -4138.6538 
28281000    117.58061   -4529.0988   -4327.5697   -4529.0988            0    2098.6834    17.959758    23.386489    21.882482    9190.9855    1248.2752    2087.4805    2960.2944    701.23058    52.242264   -480.43935   -4046.2599 
28282000    112.96693   -4532.0433   -4338.4219   -4532.0433            0    1619.1112    17.808059    23.679645    21.884343    9228.3761    1828.1995    794.61483    2234.5191   -630.65517   -173.29462    46.115717   -4120.5115 
28283000    115.57248   -4540.4656   -4342.3783   -4540.4656            0    1937.2469    17.952317    23.394289    21.917828    9205.0865    1305.8938    2799.4712    1706.3759   -303.96998   -200.20626   -36.368497   -4082.3093 
28284000      111.547   -4544.9028   -4353.7151   -4544.9028            0    1217.8979     18.07301    23.314027    21.871613    9215.7058    709.52659     1309.823    1634.3441   -66.427442   -230.61371    10.260132   -4190.0277 
28285000    115.03066   -4556.9279   -4359.7692   -4556.9279            0    1066.1982    18.119808    23.235092    21.893927     9217.681    629.24547    2259.3302    310.01892    307.92258   -199.57884   -99.592913   -4216.4398 
28286000    109.36535   -4542.1822   -4354.7337   -4542.1822            0    2008.7004     17.98291    23.346756    21.869962    9181.9417    2332.3934    1108.5735    2585.1342   -204.76417   -325.60145    1100.9669   -4085.7503 
28287000    112.06646   -4532.5587   -4340.4806   -4532.5587            0    2227.8824    17.947764    23.391593    21.862234    9178.3512    1657.8433    2456.6733    2569.1308    84.144185   -17.924798    553.19485   -4042.2633 
28288000    118.09975   -4545.8287   -4343.4098   -4545.8287            0    2201.3333    17.945157    23.311897    21.936177     9176.685    1496.1299    2663.6742    2444.1959    533.68267     152.7587    113.48976   -4048.7998 
28289000     110.2315   -4527.1811   -4338.2481   -4527.1811            0    3155.6516    17.837511    23.291372    21.977364    9130.7179    3425.4843    3891.4015    2150.0689    15.305991   -466.31555    330.46086   -3918.0348 
28290000    111.08437   -4538.0551   -4347.6602   -4538.0551            0    1098.8459    18.007242    23.492364    21.792484    9218.9329     648.6583    1239.7982    1408.0813     506.8159    200.88976   -519.60035   -4199.9219 
28291000    107.65628   -4530.0875   -4345.5683   -4530.0875            0    1852.2141    17.981091    23.354449    21.914423    9202.7092    2814.3302    2199.0492    543.26284   0.60068256     80.42023    26.916507   -4096.9788 
28292000    112.55191   -4541.7865   -4348.8764   -4541.7865            0    2274.3446    17.952213    23.336567    21.912597    9180.1294    3416.5478    2234.5204    1171.9656   -379.86302    59.904139    128.56867   -4044.3808 
28293000    115.77866   -4540.6435   -4342.2028   -4540.6435            0    1822.3354    17.949397    23.293657    22.041724    9215.8015    2500.6303    1656.2874    1310.0885    597.77256    473.61814   -614.23176   -4097.2754 
28294000    116.28091   -4538.1281   -4338.8266   -4538.1281            0    1557.2289    17.938573    23.149685    22.125317    9188.0315    1753.6163    1744.6847    1173.3856     -107.447   -760.17212   -207.71801    -4130.161 
28295000    104.57363   -4541.5744   -4362.3388   -4541.5744            0    1677.8433    17.882152    23.342345    21.957971    9165.5064    2433.2955      1105.41    1494.8244    -191.9559   -160.38356   -3.7422339   -4138.0623 
28296000    117.66183   -4538.7448   -4337.0764   -4538.7448            0    1457.9529    17.915683     23.42948    21.924522    9202.9306    1604.4918    788.04358    1981.3234   -396.75371   -40.291156   -171.42649   -4141.3968 
28297000    115.24527   -4549.7523   -4352.2258   -4549.7523            0    1583.0046    17.929549     23.36544     21.98583    9210.5632    2114.3832    1159.9381    1474.6926     438.0649   -390.08053   -206.65881   -4139.5862 
28298000    115.54084   -4537.5485   -4339.5154   -4537.5485            0    2255.6051     17.98376    23.195051    21.979542    9168.4196    2353.5987    2815.9016    1597.3151   -474.75595    375.16859    62.630835    -4037.914 
28299000     116.2983    -4537.421   -4338.0897    -4537.421            0    2355.6304    17.992164     23.17996    21.969955    9162.7378      2756.61     3013.903    1296.3783    218.04142   -8.7004418   -167.43972   -4023.3089 
28300000     108.7663   -4537.5807    -4351.159   -4537.5807            0      1852.96    18.033979     23.36965    21.841975    9205.2519    1552.6833    2831.1132    1175.0835    400.31019    298.06015    148.50918   -4102.4007 
28301000    115.32655   -4529.5069   -4331.8411   -4529.5069            0    2393.0404    17.822578    23.509685    21.829266    9146.5321    2179.6551    1920.2771     3079.189    63.980664   -306.38612    697.74642   -4012.6268 
28302000    111.38197   -4535.3952   -4344.4903   -4535.3952            0    2074.5221    17.938217    23.391446    21.881988    9181.7004     1839.499    926.22024    3457.8471     113.0027    323.24042   -424.01842      -4066.7 
28303000    108.55006    -4536.159   -4350.1079    -4536.159            0    2136.3596    17.972971    23.269238    21.967688    9187.2678    1973.1659    2540.4318     1895.481   -260.36442    -10.79974    70.509026   -4063.8637 
28304000     121.0018   -4542.1667   -4334.7738   -4542.1667            0    2774.5706    17.947204    23.303281    21.857146    9141.2866    2576.1707    2724.4165    3023.1245   -195.40076   -310.83248   -41.098189   -3964.8784 
28305000    114.25491    -4539.618    -4343.789    -4539.618            0    1927.1856    17.943132    23.379002      21.8683    9173.5883    2610.1718    1722.1665    1449.2185   -296.91433     183.7322   -266.65458   -4085.9559 
28306000    117.53958    -4532.051   -4330.5922    -4532.051            0    827.04359    18.065669     23.46421    21.807598    9244.1679     973.3348   -742.38458    2250.1805   -800.09783    -278.1148   -57.572151   -4219.0929 
28307000    114.34041   -4540.0425    -4344.067   -4540.0425            0    2303.1579    18.063701     23.24581    21.877475    9186.4691     1979.115    2402.4973    2527.8614   -55.340626   -508.92888   -108.82886   -4035.5009 
28308000    111.08568   -4533.0978   -4342.7008   -4533.0978            0    2053.4406    18.040843    23.345286    21.837668    9197.3409    1542.1937    1917.4323    2700.6958    103.25729   -369.02017    106.41031    -4067.265 
28309000    122.42732   -4549.2074   -4339.3712   -4549.2074            0     1741.892     17.93306    23.413367    21.863584    9179.9354    1808.2935    1895.0594    1522.3232   -116.37792   -192.56807    212.03854   -4106.1668 
28310000    107.84396   -4543.9985   -4359.1577   -4543.9985            0    1723.5443    18.025503    23.285076    21.890046     9187.804    1063.9995    2874.8195    1231.8139    1070.7613   -519.32243   -99.999298   -4128.2119 
28311000    106.80766   -4528.7406    -4345.676   -4528.7406            0    1689.8282    18.028867    23.218324    21.914744    9173.5137      1485.23    1713.9397     1870.315    272.50358    112.76308     314.2679   -4119.6001 
28312000    116.46552   -4533.6864   -4334.0685   -4533.6864            0     1476.519    18.130685    23.166389    21.883242    9191.4543    1808.9171    1737.9267    882.71313   -240.28339   -258.66256   -43.039503   -4136.1441 
28313000    113.99758   -4524.2324   -4328.8444   -4524.2324            0    2344.1839    17.944301    23.507435    21.728412    9165.5761    2262.0653    2104.3722    2666.1142   -103.59962   -448.64603    284.06812   -4015.4961 
28314000    112.80987   -4534.7796   -4341.4273   -4534.7796            0     1838.802    17.930962    23.385088    21.857521    9165.2327     1436.973    2127.5928    1951.8402   -281.11458    14.941664   -465.17169   -4095.6429 
28315000    105.14664   -4535.8673   -4355.6495   -4535.8673            0    2396.8081    17.858165    23.293705     22.04179    9169.0059    2760.6706    2499.1747     1930.579    679.81975   -644.57895    59.981063    -4035.147 
28316000    119.64099   -4536.5786    -4331.518   -4536.5786            0     2296.982    17.881676     23.25356    22.076811    9179.8171    2349.1063    2783.9636    1757.8761    305.77818   -110.72028    86.974729   -4024.0022 
28317000    110.52056   -4552.1775   -4362.7491   -4552.1775            0    991.99549    18.018331    23.355866    21.911909    9221.2704    733.91788    560.53848    1681.5301    440.91401    38.099275    304.92774   -4229.3428 
28318000    111.96935   -4536.5268   -4344.6152   -4536.5268            0     1663.484    18.189612    23.283849    21.700789    9190.8092    1076.9065    1388.4917     2525.054    230.66131    266.73694    -578.8719   -4121.6442 
28319000    106.17913   -4541.8339   -4359.8465   -4541.8339            0    2142.3147    17.988307       23.275    21.838437    9143.2693     1231.467    1853.7052    3341.7719    294.44661    29.768108    212.73666   -4074.1791 
28320000    112.58627   -4536.5092   -4343.5402   -4536.5092            0    1699.7837    17.997338    23.448706    21.747272    9177.6593    1548.3707    2236.9699    1314.0106   -821.89917    732.02546   -630.08928   -4116.0297 
28321000    110.31361   -4532.8782   -4343.8044   -4532.8782            0    1490.6054    18.036438    23.416133     21.74318    9183.0936    980.98288     646.8324    2844.0008    411.63913   -195.63277   -371.32878   -4144.1736 
28322000    117.30819   -4519.0714   -4318.0092   -4519.0714            0    2553.4784    17.922198    23.260078    22.014579    9177.2557    3065.4432    2634.3287    1960.6634   -541.01279   -442.31372    320.71376   -3976.2495 
28323000    107.83097   -4542.1339   -4357.3153   -4542.1339            0    2843.8965    17.839891    23.353686    21.975497    9155.5899     3121.157    2386.2088    3024.3237   -810.39333   -183.39574   -55.963009   -3977.5843 
28324000    114.70797   -4541.2458   -4344.6403   -4541.2458            0    2682.0948    17.862356    23.400309    21.918142    9161.4469    3295.0205    2631.7449    2119.5191    45.478363    322.41169    94.825413   -3986.2847 
28325000    114.35298   -4540.9112   -4344.9141   -4540.9112            0      2460.45    17.987083    23.242805    21.913418    9161.3484    2061.0038    3195.1153    2125.2309   -36.440862    47.246359   -71.589202   -4016.1761 
28326000     106.4774   -4530.5888   -4348.0902   -4530.5888            0    1917.9983    18.040324    23.136446    22.017357    9189.8023    1714.6411    2963.4537       1075.9    329.95262   -133.54561    357.82831   -4091.0327 
28327000    109.27117   -4537.6372   -4350.3502   -4537.6372            0    2188.4142     17.94739    23.301263    21.925479    9169.1664    2009.8795    2238.0814    2317.2815   -416.77007   -254.85829    193.44393   -4057.7091 
28328000    115.30793   -4522.1068   -4324.4729   -4522.1068            0     1353.412    17.812061    23.575618    21.931859    9209.8531    1938.4013     840.7633    1281.0714   -127.29593    231.37004    26.291555   -4142.6877 
28329000    114.94439   -4546.3892   -4349.3785   -4546.3892            0    1296.8901    17.951275    23.403989    21.985462    9236.7839    1391.8246     1160.494    1338.3517   -510.29577   -521.25115    415.21708   -4174.6757 
28330000    120.08688   -4533.7776   -4327.9528   -4533.7776            0    1835.2337     17.96311    23.251232     22.05108    9209.9515     2963.403    1714.5655    827.73264      753.768    140.27089    18.975437   -4081.4484 
28331000     111.6132   -4531.9015   -4340.6003   -4531.9015            0    2701.9757     17.98801    23.165522    21.989729    9163.1562    1854.4188    3328.4679    2923.0403   -333.05907    212.84128    141.28023   -3979.5211 
28332000    114.46425   -4548.1693   -4351.9814   -4548.1693            0    2582.2382    17.805436     23.24355    22.109764    9150.3807    2547.5409    3730.8686     1468.305   -165.42317    224.85294    19.128352   -4007.3846 
28333000    107.85989   -4536.7527   -4351.8845   -4536.7527            0    2343.0455    17.797124    23.427769    21.997889    9171.9519    1954.6733    2167.8821    2906.5811      87.8962    853.63701   -201.95515   -4038.4705 
28334000    121.94766   -4536.0952   -4327.0811   -4536.0952            0    2128.4708    17.831227    23.441052    22.011855     9200.575    2247.3424    1214.4385    2923.6315     36.14614      29.6401     -490.704   -4041.4808 
28335000    109.85221   -4534.0391   -4345.7562   -4534.0391            0    1674.1929    17.872173    23.350818    22.025395    9191.8548    2581.2887    1658.7152    782.57467   -286.84432   -110.46811     272.8307   -4121.3243 
28336000    112.17048    -4535.761   -4343.5046    -4535.761            0    2523.0852     17.92708    23.297353     21.89924    9146.2945    1716.7249     2870.807    2981.7236   -1170.7052   -545.30825   -244.87586    -4006.952 
28337000    111.82082   -4540.0698   -4348.4127   -4540.0698            0    2854.1408    18.080314    23.219791    21.777792    9142.7768     2372.202    3462.3848    2727.8357    627.30853    233.24708    324.28866   -3967.8473 
28338000    115.03033     -4531.74   -4334.5819     -4531.74            0    1505.2525    17.943596    23.306511    22.012828    9205.8218    1879.5734    1372.8888    1263.2954    750.32129     338.9764    208.60452   -4132.4905 
28339000    114.00204   -4551.8612   -4356.4656   -4551.8612            0    1860.6014    17.903077    23.354697     21.97825    9189.5667    2185.7695    1144.7129    2251.3217    136.09142   -256.23068   -121.21779   -4107.1071 
28340000    111.57176   -4533.9928   -4342.7626   -4533.9928            0    1632.9837    17.976911    23.426552    21.830041    9193.4387    1094.2583    1266.3686    2538.3244    333.08795    384.88781    264.08123   -4123.8173 
28341000    115.48893   -4554.2521   -4356.3081   -4554.2521            0    2064.1759    17.834691    23.433803    21.908446    9156.2981    1899.2541    1249.7383    3043.5354    341.68699   -80.918698    387.07493   -4080.6679 
28342000    116.90949   -4534.9303   -4334.5514   -4534.9303            0     2713.059    17.891747    23.298752    21.951024    9150.4023    2909.4289    2049.2968    3180.4512   -392.82454    499.99067    436.25505   -3972.4958 
28343000    113.75017   -4548.9458   -4353.9819   -4548.9458            0     1361.639    18.100612    23.215281    21.907588     9205.805    811.96531    1930.5886    1342.3632    59.201698   -238.11281   -142.12808    -4171.172 
28344000    112.47341   -4538.6997   -4345.9241   -4538.6997            0    1780.7878    18.080845    23.292914    21.787683    9176.0039     784.7259    1636.7782    2920.8593    1093.4885   -129.58654   -390.16833   -4107.6145 
28345000    114.63328   -4547.1359   -4350.6584   -4547.1359            0    2760.1022    17.839665    23.360766     21.91096     9131.354    3052.4034    2643.0819    2584.8212   -858.54466    175.75127    24.224692   -3983.0916 
28346000    113.69504   -4530.9556   -4336.0862   -4530.9556            0    1954.2606    17.851927    23.360685    21.990938    9170.9522    2377.5593    1949.6789    1535.5438    285.94239    1.5277503   -3.4969184   -4074.7059 
28347000    112.12847   -4533.2067   -4341.0223   -4533.2067            0    2003.5974    17.801433    23.370496     22.08453    9187.7895    3503.5563    900.50676    1606.7292    659.63108   -160.17464   -196.67626   -4072.5513 
28348000     108.8892    -4542.523   -4355.8907    -4542.523            0    2332.4614     17.88201    23.108406    22.177543    9164.3094    2107.4979    2453.9847    2435.9015    511.04162    613.61944     237.8849   -4044.1524 
28349000    114.15407   -4536.9499   -4341.2938   -4536.9499            0    1729.0277    17.909324    23.329941    21.983397    9185.1794    1418.5192    988.66628    2779.8975   -999.07732    281.33083    76.668254   -4109.6794 
28350000    110.46293   -4544.6926   -4355.3629   -4544.6926            0    1635.9712    17.951459    23.512907    21.792718    9198.5103    1582.9924    1007.7865    2317.1346    313.45332    -106.8778   -279.55162    -4135.896 
28351000    112.42571   -4553.4035   -4360.7097   -4553.4035            0    613.42283    18.020961    23.362499    21.984239    9255.6876    202.23197    1287.3459    350.69057   -146.04793    264.73028    212.86988    -4277.907 
28352000      119.177   -4539.1148   -4334.8495   -4539.1148            0    3062.4523    17.899163    23.175656    22.032417     9139.594    3464.7875    2469.5278    3253.0416   -787.28783    -643.4332   -79.218873   -3926.6503 
28353000    119.52263   -4537.6193   -4332.7616   -4537.6193            0    3390.5271    17.932139    23.095867    22.027443    9122.8485    3710.7039    3778.3572    2682.5201     1145.815   -348.97931    17.035801   -3881.6608 
28354000    114.37039   -4538.7107   -4342.6837   -4538.7107            0    2644.0689    17.745004    23.501474    21.938001    9148.8864    2240.3759    2497.9949     3193.836   -373.43756    23.376271    483.18946   -3989.8932 
28355000    116.20774   -4536.2418   -4337.0657   -4536.2418            0    2058.9108    17.944346    23.318165    21.958637    9188.1351    1478.4979    2548.3172    2149.9173    332.73809   -192.81958   -115.92344   -4061.1726 
28356000    111.72199   -4545.7982   -4354.3105   -4545.7982            0    2167.4823     18.05518    23.154068    21.956021    9178.7334    1971.4861    1778.2239    2752.7369    909.71935    161.99328   -37.502774   -4064.1661 
28357000    110.03043   -4542.0235   -4353.4351   -4542.0235            0    1791.8181    18.020231    23.271793    21.908892    9187.7804    1636.6367    2592.2775    1146.5402   -259.85372   -306.65151    124.32301   -4113.3416 
28358000      109.042   -4529.3371   -4342.4428   -4529.3371            0    1613.8813    17.956549    23.457418    21.875221    9214.1553     2663.391      988.084    1190.1688   -691.27842    121.36896   -142.71582    -4125.571 
28359000    110.76363   -4540.9364   -4351.0913   -4540.9364            0    1163.2355    17.987025    23.334468    21.922053    9201.0731    1468.5079    489.88796    1531.3105    -169.4979   -142.17903    111.01767   -4194.9988 
28360000    110.86215   -4536.9404   -4346.9264   -4536.9404            0    1292.7504    18.027419    23.309028    21.883553    9195.5047    1134.1896    311.48103    2432.5805    83.853185     255.6578    525.28909   -4173.5596 
28361000    117.13447   -4540.0535    -4339.289   -4540.0535            0     1154.111    17.855175     23.51561    21.907356    9198.3582    1468.4233    1336.6002     657.3094    127.05333   -122.23065    91.909137   -4184.4666 
28362000    115.76972   -4541.2365   -4342.8111   -4541.2365            0    1825.9409    17.903691    23.525198    21.790388    9177.8475    2581.1031    1661.2609    1235.4586    141.94845   -785.35369   -171.78964   -4098.4099 
28363000    112.93694    -4541.447    -4347.877    -4541.447            0    1825.4279    17.976292    23.279176    21.922122    9173.8223    737.29924    2929.1484    1809.8359   -375.87081    -180.8175   -184.54879   -4103.6516 
28364000    114.60057   -4522.9308   -4326.5094   -4522.9308            0    2172.2355    17.960407    23.276735    21.932305    9169.0115    2466.4456    2936.2382    1114.0227   -63.166627   -740.47198   -243.01287   -4036.0367 
28365000    119.07287   -4539.2945   -4335.2077   -4539.2945            0    896.78874     17.92921    23.333808    22.038093    9219.7849     1157.267    2152.6276   -619.52838   -561.67535    447.91699    484.59505   -4214.6245 
28366000    113.14471   -4545.7749   -4351.8487   -4545.7749            0    1971.9851    17.898139    23.362624    21.946628    9176.9275    2547.9876    2213.7732    1154.1945    246.89756    98.048795    213.98129    -4087.926 
28367000    103.64944   -4538.7904   -4361.1388   -4538.7904            0     2535.636    17.988897      23.2906    21.866429    9161.4258    2048.7057    2396.1112     3162.091    -145.3816   -101.77123   -100.98587   -4022.3525 
28368000     114.8672   -4551.0468   -4354.1684   -4551.0468            0    2084.9217    17.892306    23.302962    21.979798    9164.3392    1650.2487    2173.2014    2431.3151    336.04655    51.862185   -654.45391   -4075.5134 
28369000    115.51688   -4535.8135   -4337.8215   -4535.8135            0    2497.5404    17.839186    23.285424    22.014372    9144.6162    2665.0936    2833.4352    1994.0925   -567.84897   -114.32555    575.40226   -4004.7374 
28370000    115.48823   -4549.6248    -4351.682   -4549.6248            0    1017.6476     18.03889    23.241645    22.041841    9241.1186     81.93664    1640.9262    1330.0801   -382.89205      247.752      207.608   -4214.5313 
28371000    110.78029   -4542.1428   -4352.2691   -4542.1428            0    1538.1407    17.939727    23.362575    22.011124    9225.2627    1860.1457    1013.1599    1741.1166   -7.7913177   -412.67428    -61.27344   -4145.3262 
28372000    119.17426   -4538.7404   -4334.4798   -4538.7404            0    937.47927    17.869442    23.413748    22.098815    9245.9365    2570.7753    33.994881    207.66762    617.98374   -95.746142    655.28267   -4208.0678 
28373000    104.59348   -4539.3893   -4360.1196   -4539.3893            0    1824.8031    17.956878     23.30634    21.983785    9200.4146    2533.7933    1652.9759    1287.6402    429.54056    68.267404   -140.49351   -4115.2701 
28374000    115.13362    -4532.114   -4334.7789    -4532.114            0    2221.9285    18.062354    23.122951    21.970338    9176.0197    2597.5896    2229.0438     1839.152    1095.6799   -28.335253   -156.52792   -4037.4341 
28375000    120.47972   -4534.4758   -4327.9777   -4534.4758            0    2342.5681    17.899227    23.291933    21.960704    9155.5843    2219.0204    2029.1273    2779.5567   -652.22544   -358.56612    583.10978   -4015.1868 
28376000     112.7993   -4537.9577   -4344.6236   -4537.9577            0    1500.0881    17.847528    23.423122    22.055915    9220.3611    2178.9829     928.0339    1393.2475    278.41923    252.32944   -513.58631   -4142.9075 
28377000    120.05125   -4549.7691   -4344.0054   -4549.7691            0    1376.8705    17.894477    23.367736    22.004442    9201.2325    1681.0254     1760.152    689.43414    153.30276   -446.38888    458.01514   -4159.2424 
28378000    111.05115   -4529.4807   -4339.1429   -4529.4807            0    2773.6768    17.851009    23.340712    21.922571    9134.1546    2813.3259    3074.5745    2433.1299    68.062859    203.69541     685.9439   -3969.6551 
28379000    122.25673   -4542.4025   -4332.8586   -4542.4025            0    2129.3545    17.890873    23.441422    21.842259    9160.3707    1611.3708    1834.1545    2942.5382    6.7150089   -123.89725    30.118791   -4048.3883 
28380000    103.36077   -4531.7257   -4354.5689   -4531.7257            0    2445.4272    18.013156    23.202381    21.907554    9156.2208    1393.6449    3333.6383    2608.9983   -660.80642   -768.52127    330.54472    -4028.021 
28381000    111.30647   -4548.5813   -4357.8058   -4548.5813            0    1723.3399    17.994751    23.338071    21.899069    9196.7937    1423.7507    2163.7351     1582.534   -300.89485    140.76167    574.08082   -4126.6615 
28382000    117.99032   -4534.9489   -4332.7176   -4534.9489            0    973.71392    17.907697    23.429318    21.927741    9200.1158    1095.0454    1347.6355     478.4608    113.28721   -546.09526   -498.20579   -4202.0702 
28383000    112.14122   -4542.6991   -4350.4929   -4542.6991            0    1851.4533    18.035441    23.313237    21.819776    9174.4417    1535.7056    1159.8651    2858.7891   -441.02095    577.26057    543.11297   -4102.7688 
28384000    110.72652   -4546.7572   -4356.9758   -4546.7572            0    1907.5972    17.932332    23.341699     21.87551    9156.4564    2440.6248     1385.177    1896.9896    57.671901   -109.03046    278.84888     -4102.24 
28385000    103.74322   -4539.4918   -4361.6794   -4539.4918            0    2007.2678    17.940618    23.321439    21.904098    9164.6973    2026.9455    2309.7865    1685.0713     43.48404    203.79813    136.22514   -4093.3926 
28386000    109.71274   -4533.0256   -4344.9817   -4533.0256            0    1796.7919     17.96476    23.352983    21.873424    9176.5737     1657.295    1423.7062    2309.3744   -363.36158   -96.612765    408.52529   -4104.5154 
28387000    108.13603   -4539.6758   -4354.3343   -4539.6758            0    1514.3585    18.105646     23.19192    21.892639    9192.8222    1110.6639    1573.5065    1858.9052    6.6147735   -160.60921   -549.27035   -4151.3075 
28388000    111.18386   -4534.5618   -4343.9965   -4534.5618            0    1948.1781    18.004555    23.338225    21.864305    9187.2577    1580.2318    2364.8127    1899.4898   -789.78121     2.122987    305.80833   -4082.9665 
28389000    106.41875   -4548.2037   -4365.8056   -4548.2037            0     1740.667    17.963275    23.359363    21.890121    9185.3279    1040.7131    1310.8213    2870.4668    825.41663    231.96385    341.87648   -4132.6283 
28390000    110.01055   -4536.6346   -4348.0802   -4536.6346            0    2720.6166    17.851838    23.330853    22.013026    9168.3945    3758.8959    2275.1095    2127.8442    197.23363   -140.04684    52.168549   -3984.3022 
28391000    109.45691   -4547.3777   -4359.7723   -4547.3777            0    1676.6436    17.836137    23.420157    21.987614    9184.7786     1926.959    2349.9275    753.04429   -255.03668    16.837929    648.50473   -4135.1849 
28392000    112.10941   -4544.0063   -4351.8546   -4544.0063            0    2555.6713     17.93053    23.282897    21.920627    9151.3071    2652.9152    3407.1504    1606.9484   -528.52191     160.0414    -107.1578   -4010.7685 
28393000    108.77112   -4542.5154   -4356.0854   -4542.5154            0    1046.5788    18.074976    23.277073    21.955196    9237.2651    1482.9141    609.75554    1047.0668    301.81624    474.73309    333.59365   -4215.0945 
28394000    112.15176   -4538.6752    -4346.451   -4538.6752            0    1802.2404     17.92778    23.288229     21.96584    9170.8752    817.77622    2110.6484    2478.2965   -134.00363    202.71101   -285.58252   -4105.4053 
28395000    118.49561   -4536.7136   -4333.6162   -4536.7136            0    1298.4005    17.966152    23.670829    21.690863    9224.5533    950.81769    229.27396      2715.11   -1256.9714     481.9229   -14.918935   -4158.9416 
28396000     107.8186   -4535.7612   -4350.9638   -4535.7612            0    2463.3759    18.039076    23.395861    21.758022    9182.7494    1399.7325    2384.4887    3605.9066    107.82217   -664.37325    272.03863   -4021.0661 
28397000    106.45684    -4541.349   -4358.8856    -4541.349            0    2472.1508    17.891622    23.275941    21.955821    9143.3775    2714.6609    2868.8123    1832.9792    384.13888   -75.090177    186.39667   -4029.2322 
28398000    106.96967   -4546.6517   -4363.3093   -4546.6517            0    1600.5906    17.882684    23.388839    22.016981    9208.7174    2251.8848    2189.9832    359.90363   -290.62157    358.19807   -587.36913   -4148.3505 
28399000    117.45972   -4530.6489    -4329.327   -4530.6489            0    1691.5214     17.92991    23.350565     22.00544    9213.0953    1528.1198    594.37612    2952.0682    589.62887   -142.78953   -48.268477   -4102.0482 
28400000    109.76548   -4539.8268   -4351.6925   -4539.8268            0     1720.314    17.994126    23.298638    21.962819    9207.6622    1513.6566    2150.6062    1496.6793   -934.28628    98.806281    80.844971   -4120.6813 
28401000     111.3447   -4527.2534   -4336.4124   -4527.2534            0    2211.5322    17.894736    23.398972    21.873278    9158.7446     2555.509    1614.0173    2465.0705   -190.55053   -350.64353    312.42899   -4041.0161 
28402000    109.31739   -4548.0189   -4360.6526   -4548.0189            0    1415.4572     17.94446    23.321892    21.965069    9192.3538    664.63978    2328.3776    1253.3543   -820.71669    49.123917    29.033925   -4170.8949 
28403000    115.30964    -4536.474   -4338.8372    -4536.474            0    2712.1998    17.876885    23.219113     21.99991    9131.8413    3726.3941    2824.3752    1585.8303   -22.316483    70.308967   0.36272712   -3977.6304 
28404000    107.61426   -4536.7297   -4352.2826   -4536.7297            0    2531.9135     17.86058    23.256212     22.02437    9148.2501    3089.5528     2119.114    2387.0736   -826.56204    71.827064   -61.548388   -4014.4801 
28405000    110.63216   -4539.0045   -4349.3847   -4539.0045            0    2206.1084    17.914557    23.300803    21.993855    9180.7534    2579.2353     1684.619    2354.4708   -55.126355   -410.01086    138.04771   -4054.0048 
28406000    108.03949   -4552.8729   -4367.6969   -4552.8729            0    2127.3989    17.980439    23.314594    21.855241    9161.8621    1511.5394    1452.0585     3418.599    449.65861     19.72418    718.89914   -4083.4416 
28407000    106.41593   -4534.6335   -4352.2403   -4534.6335            0    1371.3361     18.16413    23.297965    21.778644    9216.4451    229.84269    2037.0708    1847.0948   -550.86058     187.4333   -281.12118   -4167.9157 
28408000    109.34433   -4537.7577   -4350.3453   -4537.7577            0    2028.1208    18.086563    23.145956    21.911735     9172.927    1265.3758    2053.9608    2765.0259   -95.106402    177.12267    279.46795   -4079.0279 
28409000    110.37327   -4539.0846   -4349.9086   -4539.0846            0    1410.1798    18.042141    23.355353    21.848166    9206.3925    1278.9425    1703.7485    1247.8483    548.27927   -412.73848   -209.74768   -4160.5697 
28410000    115.98849   -4530.9672   -4332.1669   -4530.9672            0    2445.3331    17.956412    23.451038    21.807106    9182.8959     2686.386    1505.3661     3144.247   -407.55343   -43.955592    112.19327   -4004.6802 
28411000    106.20232   -4543.2372     -4361.21   -4543.2372            0    1731.5675     17.96562    23.366812    21.911379    9198.3814    1855.0947    2060.8217    1278.7862   -342.31007   -87.171883   -379.92771    -4128.922 
28412000    107.35702   -4535.5629   -4351.5566   -4535.5629            0    1832.3936    18.094888    23.430751    21.652583     9180.193     303.1517    1576.6207    3617.4082    150.37573   -656.42106   -137.27931    -4106.229 
28413000    109.57329   -4532.1748   -4344.3699   -4532.1748            0    2396.6771    17.987664    23.361118    21.818502    9168.3949    1494.7556    2803.1433    2892.1324     209.8294   -245.41167    446.69738   -4023.9063 
28414000     110.8328   -4543.5834   -4353.6198   -4543.5834            0    1522.2379    17.972998     23.46496     21.83103    9206.9241     1553.828    1339.1138    1673.7717   -93.367651   -360.49669    138.21119   -4149.2235 
28415000    107.57849   -4531.3555   -4346.9696   -4531.3555            0    2284.6548     17.99844    23.424783    21.769976    9178.4301    2684.5692    1824.0117    2345.3834   -287.98871    429.65989    116.49226   -4041.1503 
28416000    110.93964      -4528.6   -4338.4533      -4528.6            0    3055.4558     18.00377    23.349425    21.792089    9160.9078    2379.3266    2216.7245    4570.3164    208.16235   -81.989963   -171.60323   -3930.2369 
28417000    110.25333   -4547.7745   -4358.8041   -4547.7745            0    1858.1378    17.871879    23.377691    21.900303     9150.018    2457.0783    1250.1672    1867.1681   -477.88725   -270.17154   -823.92877   -4110.8474 
28418000    119.39248   -4533.4547   -4328.8201   -4533.4547            0    2105.0889    18.001361    23.326002    21.915216    9202.1946    2392.7313    1615.5676    2306.9677    448.22609    -135.9709    509.85277   -4046.3075 
28419000    113.57856   -4529.0378   -4334.3681   -4529.0378            0    1510.8257    18.091266    23.293266    21.882287    9221.2975    1130.3655    1325.4172    2076.6943    552.10614    -176.6417    581.13871   -4131.1875 
28420000    112.02962   -4538.6946   -4346.6796   -4538.6946            0    1814.6208    17.993287    23.292363    21.943899    9196.8233    1709.2728    2368.9897    1365.5998    37.006679   -25.904807    708.24635   -4103.2914 
28421000    109.83374   -4538.2817   -4350.0304   -4538.2817            0    795.77914    18.070364    23.444736     21.84918    9256.5125      1550.14    283.16304    554.03432   -154.59437   -304.64434     164.0417   -4242.6029 
28422000    113.24504   -4543.7967   -4349.6985   -4543.7967            0    2075.9174    18.047626    23.377738    21.798237     9196.952    2063.4925    1250.5292    2913.7306      683.286    25.371042    21.740019   -4071.2597 
28423000    107.50339   -4534.7007   -4350.4435   -4534.7007            0    2826.4559    18.036058     23.26351    21.857059    9170.8291    2231.9346    3681.2786    2566.1546   -54.837477   -413.79233   -574.23471   -3972.4132 
28424000    108.29867   -4539.2724   -4353.6522   -4539.2724            0    1775.8309    18.036509    23.281888    21.862421    9180.5552    1541.7014    1378.3893    2407.4019   -710.07349   -316.15372   -534.73592    -4115.888 
28425000    114.49984    -4537.652   -4341.4032    -4537.652            0    835.87563    18.044291    23.351145    21.932116    9241.2037    788.74869    273.71627    1445.1619    235.80771   -195.65786    552.69995   -4228.7493 
28426000    111.97785   -4544.9396   -4353.0134   -4544.9396            0    2046.6076    17.905389    23.499325    21.814328     9178.696    2429.2768    1588.1301     2122.416   -198.93894    508.31723    24.766453   -4079.0507 
28427000    114.16987   -4529.8921   -4334.2089   -4529.8921            0    2235.0146    17.988338    23.344866    21.860428    9179.9661    2610.8086    1613.5168    2480.7183    435.73304   -857.88575    260.48249   -4034.9843 
28428000    109.25452   -4522.7304   -4335.4719   -4522.7304            0    1412.6668    18.154899    23.214246    21.904007    9231.4941    590.07592     2487.075    1160.8495   -615.75321    431.69309   -183.56146   -4145.2819 
28429000    113.23283    -4543.232   -4349.1548    -4543.232            0    2312.1826    17.912011    23.354034     21.92373    9171.0848    2142.4185    1899.3146    2894.8146    59.537919   -155.16791    371.62469   -4039.8984 
28430000    112.89317   -4546.8086   -4353.3136   -4546.8086            0    1133.5478    18.033001    23.393555    21.893067    9235.7214     1489.821    743.87874    1166.9437   -759.71809    328.22033   -70.572307    -4200.632 
28431000    115.37096   -4542.1585   -4344.4167   -4542.1585            0    1472.2053    18.034261    23.417318    21.832876    9220.3297    608.55793    855.74949    2952.3084   -418.99028    114.78117   -76.181611   -4146.4506 
28432000    118.66639   -4535.7923   -4332.4021   -4535.7923            0    1622.5402     17.89393    23.451602    21.910885    9194.7127    2143.3674    1418.0584     1306.195   -536.04478    220.52961   -666.33039   -4114.8269 
28433000    113.21732   -4549.1999   -4355.1492   -4549.1999            0    1871.5734    18.034533     23.21274    21.946413    9187.4475    837.96668    2810.4074    1966.3461    299.51446   -53.509883   -125.35213   -4104.3781 
28434000    111.17533   -4545.5137   -4354.9629   -4545.5137            0    2445.4164    18.023042    23.311343     21.82954    9171.4916    1354.9842     2774.598    3206.6668   -531.26172    122.56069      296.134   -4027.8719 
28435000    118.00109   -4541.6338   -4339.3839   -4541.6338            0    2180.5719    18.039232    23.409922    21.821321    9215.0788    1417.0592    2245.2954    2879.3611    421.52738    -300.0057   -159.37682   -4046.3315 
28436000    112.76563   -4529.4568   -4336.1803   -4529.4568            0    2854.0914    17.956778    23.328987    21.863445    9158.8904    2403.9766    2531.8125    3626.4852    653.08185    248.71918    337.34499   -3954.9507 
28437000     107.1285   -4534.0847   -4350.4701   -4534.0847            0    2853.3424    17.939357    23.301702    21.860819     9138.206     2636.324    3164.6532    2759.0501   -426.25349   -241.63759    2.1008329   -3970.2013 
28438000    115.84696   -4532.4169   -4333.8592   -4532.4169            0     1084.224    18.106664    23.379861    21.873929    9259.9184    932.96257    1175.0501    1144.6592   -260.66586   -482.31148   -416.31544   -4187.4386 
28439000    106.06877   -4541.1668   -4359.3685   -4541.1668            0    1255.8733    18.022078    23.296618    21.981388    9228.9617    1138.5499    1187.4081    1441.6619   -118.98854    -869.8046      133.353   -4190.3343 
28440000     121.2711   -4534.1466   -4326.2921   -4534.1466            0    2095.6945    17.949946    23.410412    21.860285    9186.0336    2506.2788    1437.0637    2343.7411    406.18932   -464.30085    -279.9333   -4045.5342 
28441000    120.70065   -4549.2257   -4342.3489   -4549.2257            0    1552.8788    17.893942    23.500002    21.901371    9209.6947    2241.1339    1280.1593    1137.3433   -34.949221   -236.17258   -187.79436   -4133.7756 
28442000    112.57802   -4534.1098   -4341.1549   -4534.1098            0     1451.732    17.928237    23.285221     22.03295    9197.9401    1249.9414    1809.6481    1295.6066   -87.588925   -230.51468   -150.78224   -4146.4159 
28443000    112.48873   -4536.1665   -4343.3646   -4536.1665            0    1195.6005    18.144766    23.200711    21.919839    9227.6269    318.52488    1904.0333    1364.2432   -540.29885    467.54071    205.90873   -4182.4661 
28444000    122.92471   -4543.9701   -4333.2813   -4543.9701            0    1829.1477    18.013239    23.361863    21.868088    9202.5902    1674.2934    1990.1515    1822.9983   -655.46447   -11.908182   -87.735202   -4087.7908 
28445000    113.07013   -4540.1506   -4346.3523   -4540.1506            0    1756.7595    17.917071    23.418675    21.896724    9187.7357    1712.4085    1635.5994    1922.2706    567.43121   -204.55532   -418.07818   -4110.9576 
28446000    110.96669   -4532.9491   -4342.7559   -4532.9491            0    2237.4286    18.008014    23.220755    21.890931    9153.9045    1680.1553    2165.8306    2866.2998   -100.15023    629.21744    26.101401   -4044.0585 
28447000    107.98837   -4527.0475   -4341.9591   -4527.0475            0    2387.3658    18.040539    23.239807    21.893723    9179.1326    1633.6136    2901.9969     2626.487   -347.69595    123.36858   -367.56172   -4022.3667 
28448000     110.7932   -4534.7295   -4344.8338   -4534.7295            0    1405.5616    17.962094      23.3949    21.966984    9230.9968    1916.8116    2218.1567    81.716497    142.03725   -656.30299    336.07242   -4155.6106 
28449000    117.53081   -4537.1248   -4335.6811   -4537.1248            0    1888.6374    17.899093    23.310627    22.074956    9210.5345    2861.1405    1861.5091    943.26271   -829.20028   -775.73042    400.79007   -4081.9876 
28450000    108.09742   -4532.7267   -4347.4514   -4532.7267            0    2006.5515    17.835235    23.440109    21.965418    9182.8595    1743.9301    1552.4423     2723.282    250.19625    288.47242    545.44377   -4078.7289 
28451000    111.55202   -4534.3036   -4343.1072   -4534.3036            0    2653.1338    17.876062    23.286633    21.965929    9143.8296    3082.0312    2653.8126    2223.5575    -581.4494   -33.931561    -61.08647   -3989.3029 
28452000    116.66514   -4542.5139   -4342.5538   -4542.5139            0    2691.1627    17.935788    23.240914    21.989755    9166.2996    1988.2182    3250.1758     2835.094    681.09996   -492.11583    203.85352   -3982.7963 
28453000    110.43073   -4545.1216   -4355.8471   -4545.1216            0    1179.8568    17.831045    23.495045    21.989783    9212.4261    2145.5426    607.61782    786.40997   -430.12978   -221.83517    131.77298   -4197.3289 
28454000     109.7659    -4543.253    -4355.118    -4543.253            0     1632.918    17.784049    23.591943    21.963302    9214.9291    2529.2029    226.42119    2143.1299   -344.81289    -608.9042   -363.87505   -4135.6697 
28455000    107.92252   -4543.1653   -4358.1898   -4543.1653            0    1699.6126    17.879869    23.272139    22.084817    9189.5537    1218.2094    1741.3089    2139.3196    412.94231    911.31086     238.4835   -4130.4074 
28456000    108.44498   -4540.8274   -4354.9565   -4540.8274            0    1752.1307    17.979005    23.310655    21.938481    9194.4695    1905.6479    1836.5015    1514.2426    122.45682    177.29435   -120.08165   -4120.0099 
28457000    112.36974   -4540.4968   -4347.8989   -4540.4968            0    2146.6742     17.93867    23.190769    22.054879    9175.0846    2782.5035    1874.4703     1783.049   -120.58904     21.10553    244.88787   -4060.6541 
28458000    110.08726   -4525.8305   -4337.1447   -4525.8305            0    2512.9917    17.897208    23.341989    21.972468    9179.1396    3146.8936    2067.0396    2325.0419    164.57166   -498.25153   -222.31213   -4000.7346 
28459000    113.68667   -4542.6223   -4347.7672   -4542.6223            0    1825.3227    17.834493    23.452482     21.97362    9190.7553    2339.9394     1967.518    1168.5106   -326.39985    482.87895    235.87353   -4103.1051 
28460000    113.51143    -4526.835   -4332.2803    -4526.835            0    3112.0826    17.938105    23.281817    21.860354    9129.5764    2797.9751    3041.4514    3496.8212    346.95023   -133.14698    6.2762456   -3917.9205 
28461000    110.99769   -4538.0912    -4347.845   -4538.0912            0    2096.2154    17.937874     23.37833    21.897453    9182.8619    1589.5699    2591.9188    2107.1574    546.54916    375.68734     347.9187   -4067.1143 
28462000    115.13807   -4543.2258   -4345.8831   -4543.2258            0    1771.1365     17.83924    23.321216    22.088296    9189.4547    3560.2209    1484.8923     268.2964    45.749245    564.36614    127.82802   -4108.5175 
28463000    113.75042   -4530.6716   -4335.7073   -4530.6716            0    2374.4634    17.846276    23.471571    21.929963    9186.0262    1441.7931    2418.0808    3263.5164   -79.578428     61.99236     41.41334   -4017.6033 
28464000    114.12589   -4543.3298   -4347.7219   -4543.3298            0    1984.4347    17.794437    23.547236      21.9357    9191.2735    2093.4285    713.65253     3146.223    263.49205   -307.02942   -993.04514   -4081.7177 
28465000     105.1547   -4547.7729   -4367.5414   -4547.7729            0    2170.2859    17.850712    23.378816    21.988291    9176.3403    1736.1421     2192.829    2581.8865    770.32773    513.34071    318.43703   -4077.0974 
28466000    108.86085   -4537.4033   -4350.8196   -4537.4033            0     1439.321    18.040891    23.261202    21.938268     9206.456    910.82938    1820.0001    1587.1336   -37.102784     487.2398    115.49675   -4157.5667 
28467000    110.51175   -4546.5976   -4357.1842   -4546.5976            0    1826.5744    18.020216    23.337806    21.838184    9184.0985     1745.987    1821.4754     1912.261   -264.94586   -68.602264    192.13411   -4112.5316 
28468000    114.98578   -4539.4063   -4342.3246   -4539.4063            0    1581.0662    17.969485    23.486163    21.799902    9200.3053    1749.5565   -51.242786    3044.8849   -112.41554   -433.20573    207.73644   -4130.1819 
28469000    117.23558   -4540.9111   -4339.9733   -4540.9111            0    1642.5695    18.038144    23.392656    21.829469    9211.1652    582.19035    2459.2741     1886.244     -740.924    297.84647    119.89291   -4119.3181 
28470000    113.85046   -4553.3042   -4358.1684   -4553.3042            0    1281.2839    18.021496    23.363468    21.883339    9213.8625    1540.5084     179.3078    2124.0354    76.730251   -393.33276    9.3906154   -4185.9962 
28471000     113.4397   -4540.4765   -4346.0447   -4540.4765            0    2059.2131    17.983487    23.371319    21.794346     9160.116     1712.505     2016.429    2448.7052   -47.849747    72.972199    169.91781   -4070.9526 
28472000    110.23903   -4539.2131   -4350.2672   -4539.2131            0    2070.9502    17.851168     23.46717    21.846149    9151.7103    1360.4356    1958.9924    2893.4227   -133.89881   -265.45098   -72.357319    -4073.861 
28473000    108.64992   -4537.8028   -4351.5805   -4537.8028            0     2059.894    17.997359    23.306513    21.880455    9177.8813    1482.2782    2421.8946    2275.5091   -391.54422   -96.973543   -281.77132   -4075.8638 
28474000    110.28312   -4534.2981   -4345.2766   -4534.2981            0    2429.7037    18.039137    23.205629    21.826061    9136.5968    2014.3908    2070.8185     3203.902    95.806894    22.591254    11.847943   -4021.5237 
28475000    114.89031    -4550.205   -4353.2869    -4550.205            0    2719.7631    18.018967    23.136404    21.955255    9153.0162    3361.3417    2200.6157    2597.3319   -118.51469   -186.04293   -115.31509   -3990.2329 
28476000    116.41662   -4543.1856   -4343.6515   -4543.1856            0    2177.2113     17.90904    23.448915    21.806625    9157.6389    1891.1654    1563.1054    3077.3633     33.35592    210.02544   -171.90663   -4052.8746 
28477000    120.79367   -4527.2101   -4320.1739   -4527.2101            0    1960.0118    17.989085    23.359786    21.826347    9171.8932    2206.2546    1689.4821    1984.2986    112.94781   -141.56751    -136.7848   -4057.9975 
28478000    111.95144   -4528.3387   -4336.4578   -4528.3387            0    1267.5421    18.035712    23.354099    21.889718    9220.1206    1360.2629    1252.6392     1189.724    1.7314807   -372.69897  0.098654597   -4166.0164 
28479000     110.2203   -4528.3667   -4339.4528   -4528.3667            0    2296.8945     17.95225    23.344038    21.840856    9153.0221    1154.9817    3310.0074    2425.6943   -391.55618    149.89149    343.26257   -4032.8463 
28480000    114.11731   -4525.9164   -4330.3233   -4525.9164            0    2056.6446    17.956955    23.489404    21.779845    9186.6988    2957.5764    1456.5124    1755.8449    60.894776    617.46616   -69.048174    -4054.777 
28481000     111.8126   -4531.6248   -4339.9818   -4531.6248            0    1405.8961    17.988426    23.426391    21.886047    9222.8653    1584.7716    380.88374    2252.0329    162.86334   -482.62481   -103.77108   -4150.8803 
28482000    112.11967   -4531.8565   -4339.6872   -4531.8565            0    1814.7842    17.945415    23.344175    21.874974    9163.8837     1434.407    1538.1831    2471.7626    -926.1138   -110.48153   -151.44885   -4097.1488 
28483000    113.85429   -4549.9271   -4354.7848   -4549.9271            0    1909.8245    17.948478     23.33025    21.857817    9152.7962    1897.6598    1005.9985     2825.815    265.67815   -636.10053    -536.1313   -4099.8535 
28484000    117.75512   -4539.2945   -4337.4663   -4539.2945            0    2379.3946    17.934512    23.351786     21.88153    9164.0481    2356.9509    2921.8669     1859.366     531.2283   -23.758902     253.0974   -4019.4644 
28485000    107.44454    -4542.135   -4357.9787    -4542.135            0    1085.4662    18.095253    23.427258    21.797861    9240.5963    759.59795    880.99323    1615.8074   -205.42561     446.6548   -24.083947   -4211.6963 
28486000    114.19487     -4542.79   -4347.0639     -4542.79            0    2881.3495    18.078596    23.219636    21.782445    9143.8004    2535.0225    2912.7297    3196.2962   -292.85641    181.35561   -317.69435   -3962.8275 
28487000    112.23311   -4538.2859   -4345.9222   -4538.2859            0    1086.5822    18.126174    23.273113    21.855063     9219.613    1068.3646     851.4131     1339.969   -113.10146    402.34717   -344.08478   -4199.8219 
28488000    111.61891    -4529.798    -4338.487    -4529.798            0    2038.1769    18.036303    23.326278    21.853966    9194.3965    1370.1578    3053.8316    1690.5411   -373.43336   -589.58443   -368.67271   -4065.1862 
28489000    115.51785   -4541.4939   -4343.5003   -4541.4939            0    2132.8779      17.9731    23.266734    21.929462    9170.3603    2651.0126    1933.7143     1813.907   -33.254743    653.47941    243.92372   -4058.2486 
28490000    111.04942   -4535.5996   -4345.2647   -4535.5996            0    908.37821    18.116169     23.25241    21.935756    9240.3185    296.49666    525.82867    1902.8093   -406.24393   -694.00373    202.48054   -4222.8511 
28491000    107.82061   -4541.0635   -4356.2627   -4541.0635            0    1912.3357    17.971126    23.396382    21.865177    9193.4176    1833.2796    1905.8048    1997.9228   -636.42903     197.8433   -578.77193   -4099.8633 
28492000    111.09864   -4536.8617   -4346.4425   -4536.8617            0     2230.413    17.954578    23.249683    21.971577    9171.7765    2286.6801    1658.5765    2745.9825   -278.88132   -927.41141    560.37001   -4048.1003 
28493000    116.60264   -4532.2735   -4332.4205   -4532.2735            0    1939.6384    17.925502    23.355244    21.915202    9174.8972     2267.189    1917.5132    1634.2131    761.85185    250.26033   -325.70545   -4072.8844 
28494000     113.9831   -4533.7375   -4338.3744   -4533.7375            0     2151.575    17.913047    23.443979    21.847021    9174.7243    2794.2207    1358.3916    2302.1127    130.92246   -169.99072   -121.14035   -4050.4851 
28495000    118.48601   -4534.6272   -4331.5463   -4534.6272            0    2529.1101    17.966115    23.396164    21.811206    9168.0826    2920.1864    924.40462    3742.7394   -153.59028    261.83098    -532.6136   -3993.3863 
28496000    111.40616   -4538.4373    -4347.491   -4538.4373            0     1453.217    17.951206    23.450145    21.838963    9193.2948    2462.5131    428.67795    1468.4598     385.0145    -387.3163    546.73232   -4152.6512 
28497000    109.03331   -4537.5738   -4350.6945   -4537.5738            0    1726.8607    17.879084    23.404386    21.981837    9198.2774    561.86499    1308.4852    3310.2319    407.83906   -58.200306    412.22869   -4119.0405 
28498000    111.40159   -4522.1759   -4331.2374   -4522.1759            0    2857.4011    17.952374    23.343109    21.840269    9152.4751    4179.0652    2643.1793    1749.9589   -630.70065    171.54686    16.141407    -3949.833 
28499000    111.84003   -4548.1084   -4356.4185   -4548.1084            0    1984.4174    17.983181    23.311043    21.919284    9188.7112    1867.0599    2154.1876    1932.0046   -93.472665    369.12458    285.24528   -4090.4908 
28500000    118.59501   -4533.5999   -4330.3321   -4533.5999            0    1239.7096    17.975238    23.363812    21.959627    9222.3858   -146.14602    1158.9447    2706.3301    250.92978    43.579113   -902.33919   -4163.5924 
Loop time of 365.574 on 64 procs for 250000 steps with 864 atoms

Performance: 118.170 ns/day, 0.203 hours/ns, 683.856 timesteps/s
193.3% CPU use with 32 MPI tasks x 2 OpenMP threads

MPI task timing breakdown:
Section |  min time  |  avg time  |  max time  |%varavg| %total
---------------------------------------------------------------
Pair    | 16.293     | 25.083     | 35.77      | 110.3 |  6.86
Bond    | 0.96751    | 1.2077     | 1.5888     |  11.9 |  0.33
Kspace  | 179.1      | 191.6      | 200.65     |  44.1 | 52.41
Neigh   | 0.68834    | 0.74277    | 0.79013    |   3.0 |  0.20
Comm    | 55.611     | 59.411     | 62.8       |  24.6 | 16.25
Output  | 0.55477    | 0.55527    | 0.55772    |   0.1 |  0.15
Modify  | 67.098     | 69.023     | 73.249     |  17.9 | 18.88
Other   |            | 17.96      |            |       |  4.91

Nlocal:        27.0000 ave          38 max          18 min
Histogram: 4 6 4 2 1 1 4 2 3 5
Nghost:        2144.09 ave        2248 max        2038 min
Histogram: 8 8 0 0 0 0 0 0 6 10
Neighs:        6585.94 ave        9375 max        4479 min
Histogram: 7 4 4 1 1 4 3 2 3 3

Total # of neighbors = 210750
Ave neighs/atom = 243.92361
Ave special neighs/atom = 2.0000000
Neighbor list builds = 2405
Dangerous builds = 0

unfix		3
unfix		2
unfix		1

write_data	data.final.${pid} nocoeff
write_data	data.final.0 nocoeff
System init for write_data ...
PPPM initialization ...
  extracting TIP4P info from pair style
  using 12-bit tables for long-range coulomb (../kspace.cpp:340)
  G vector (1/distance) = 0.37186781
  grid = 24 27 25
  stencil order = 5
  estimated absolute RMS force accuracy = 0.0031395156
  estimated relative force accuracy = 9.4545581e-06
  using double precision FFTW3
  3d grid and FFT values/proc = 4410 672
Last active /omp style is kspace_style pppm/tip4p/omp

write_restart   restart.lmp.${pid}
write_restart   restart.lmp.0
System init for write_restart ...
PPPM initialization ...
  extracting TIP4P info from pair style
  using 12-bit tables for long-range coulomb (../kspace.cpp:340)
  G vector (1/distance) = 0.37186781
  grid = 24 27 25
  stencil order = 5
  estimated absolute RMS force accuracy = 0.0031395156
  estimated relative force accuracy = 9.4545581e-06
  using double precision FFTW3
  3d grid and FFT values/proc = 4410 672
Last active /omp style is kspace_style pppm/tip4p/omp
Total wall time: 0:06:05
