LAMMPS (30 Jul 2021)
Processor partition = 1
  using 2 OpenMP thread(s) per MPI task
using multi-threaded neighbor list subroutines
variable        pid world 0 1
variable        phase world IceIII Liquid

shell cd ${phase}
shell cd Liquid
include Restart.lmp
echo both
log log.lammps
#include		in.partitions
include		in.temp
variable        temperature equal 260.65
variable	tempDamp equal 100.0
include		in.pressure
variable        pressure equal 8375.0
variable        pressureDamp equal 1000.0 # This is 1 ps
include		in.seed
variable        seed equal 745823

units		real
atom_style	full
read_restart	restart.lmp.${pid}
read_restart	restart.lmp.1
Reading restart file ...
  restart file = 30 Jul 2021, LAMMPS = 30 Jul 2021
  restoring atom style full from restart
  orthogonal box = (0.59874605 1.7967750 0.73046878) to (17.608826 21.832403 21.482727)
  2 by 4 by 4 MPI processor grid
  restoring pair style lj/cut/tip4p/long/omp from restart
  restoring bond style harmonic/omp from restart
  restoring angle style harmonic/omp from restart
  864 atoms
  576 bonds
  288 angles
Finding 1-2 1-3 1-4 neighbors ...
  special bond factors lj:    0        0        0       
  special bond factors coul:  0        0        0       
     2 = max # of 1-2 neighbors
     1 = max # of 1-3 neighbors
     1 = max # of 1-4 neighbors
     2 = max # of special neighbors
  special bonds CPU = 0.002 seconds
  read_restart CPU = 0.009 seconds
include 	in.setup
variable	out_freq equal 1000
variable	out_freq2 equal 10000
variable	out_freq3 equal 1000

timestep	2.0

neigh_modify    delay 7 every 1

include		in.tip4p
# This is TIP4P/Ice

# create groups ###
group ox type 2
288 atoms in group ox
group hy type 1
576 atoms in group hy

# set charges - beside manually ###
set group ox charge -1.1794
Setting atom values ...
  288 settings made for charge
set group hy charge 0.5897
Setting atom values ...
  576 settings made for charge

# ### TIP3P Potential Parameters ###
pair_style lj/cut/tip4p/long/omp 2 1 1 1 0.1577 8.5
pair_coeff 1 1*2 0.000 0.000
pair_coeff 2 2 0.21084 3.1668
bond_style  harmonic
bond_coeff  1 450 0.9572
angle_style harmonic
angle_coeff 1 55 104.52
kspace_style pppm/tip4p/omp 1.0e-5
pair_modify tail yes

thermo          ${out_freq}
thermo          1000
thermo_style    custom step temp pe etotal epair emol press lx ly lz vol pxx pyy pzz pxy pxz pyz enthalpy

restart 	${out_freq3} restart.lmp.${pid} restart2.lmp.${pid}
restart 	1000 restart.lmp.${pid} restart2.lmp.${pid}
restart 	1000 restart.lmp.1 restart2.lmp.${pid}
restart 	1000 restart.lmp.1 restart2.lmp.1


include         in.dump
dump            myDump all atom ${out_freq2} dump.water.${pid}
dump            myDump all atom 10000 dump.water.${pid}
dump            myDump all atom 10000 dump.water.1
dump            myDump2 all dcd ${out_freq2} dump.dcd
dump            myDump2 all dcd 10000 dump.dcd
dump_modify     myDump append yes
dump_modify     myDump2 append yes


variable natoms 	equal  "count(all)"                        # NUMBER ATOMS
variable H      	equal  "enthalpy/v_natoms"                 # ENTHALPY-per-atom
variable Vol      	equal  "vol/v_natoms"                 # volume-per-atom
fix AVG all 		ave/time ${out_freq} 1 ${out_freq} v_Vol v_H file vol_enthalpy.dat
fix AVG all 		ave/time 1000 1 ${out_freq} v_Vol v_H file vol_enthalpy.dat
fix AVG all 		ave/time 1000 1 1000 v_Vol v_H file vol_enthalpy.dat


timer           timeout 23:50:00 every 1000
New timer settings: style=normal  mode=nosync  timeout=23:50:00

fix 		1 all shake 1e-6 200 0 b 1 a 1
Finding SHAKE clusters ...
       0 = # of size 2 clusters
       0 = # of size 3 clusters
       0 = # of size 4 clusters
     288 = # of frozen angles
  find clusters CPU = 0.000 seconds
fix             2 all nph iso ${pressure} ${pressure} ${pressureDamp}
fix             2 all nph iso 8375 ${pressure} ${pressureDamp}
fix             2 all nph iso 8375 8375 ${pressureDamp}
fix             2 all nph iso 8375 8375 1000
fix             3 all temp/csvr ${temperature} ${temperature} ${tempDamp} ${seed}
fix             3 all temp/csvr 260.65 ${temperature} ${tempDamp} ${seed}
fix             3 all temp/csvr 260.65 260.65 ${tempDamp} ${seed}
fix             3 all temp/csvr 260.65 260.65 100 ${seed}
fix             3 all temp/csvr 260.65 260.65 100 745823

run             250000
PPPM initialization ...
  extracting TIP4P info from pair style
  using 12-bit tables for long-range coulomb (../kspace.cpp:340)
  G vector (1/distance) = 0.37409118
  grid = 24 24 24
  stencil order = 5
  estimated absolute RMS force accuracy = 0.0031805012
  estimated relative force accuracy = 9.577985e-06
  using double precision FFTW3
  3d grid and FFT values/proc = 3549 432
Last active /omp style is kspace_style pppm/tip4p/omp
Neighbor list info ...
  update every 1 steps, delay 7 steps, check yes
  max neighbors/atom: 2000, page size: 100000
  master list distance cutoff = 10.8154
  ghost atom cutoff = 10.8154
  binsize = 5.4077, bins = 4 4 4
  1 neighbor lists, perpetual/occasional/extra = 1 0 0
  (1) pair lj/cut/tip4p/long/omp, perpetual
      attributes: half, newton on, omp
      pair build: half/bin/newton/omp
      stencil: half/bin/3d
      bin: standard
Setting up Verlet run ...
  Unit style    : real
  Current step  : 25500000
  Time step     : 2
  Walltime left : 23:49:59.93
Per MPI rank memory allocation (min/avg/max) = 10.19 | 10.20 | 10.20 Mbytes
Step Temp PotEng TotEng E_pair E_mol Press Lx Ly Lz Volume Pxx Pyy Pzz Pxy Pxz Pyz Enthalpy 
25500000      264.951   -3820.3583   -3366.2413   -3820.3583            0    8251.1408     17.01008    20.035628    20.752258    7072.5281    7523.4237    9152.9551    8077.0435   -105.44168   -107.78457    345.47575   -2515.1727 
25501000    254.37259   -3823.2637   -3387.2778   -3823.2637            0     8248.647    17.053117    20.086319    20.804763     7126.346    9064.5969    7651.1789    8030.1651    563.49304   -1124.7493   -118.23428   -2529.9922 
25502000    263.60729   -3859.9422   -3408.1284   -3859.9422            0    7428.7397     17.05297    20.086146    20.804584    7126.1618      7206.05    7367.8019    7712.3673     705.9276   -426.23187   -328.30451   -2636.0761 
25503000    257.11112   -3836.7361   -3396.0564   -3836.7361            0     9333.234    17.010775    20.036446    20.753106    7073.3948    8942.4928    8823.2994     10233.91   -534.88543   -78.062138    442.12741   -2433.2568 
25504000    242.64229   -3851.4126    -3435.532   -3851.4126            0    8205.0934    17.009728    20.035212    20.751828    7072.0881    7755.4729    7386.5045    9473.3028    86.140189   -418.69106    1016.9186   -2589.2656 
25505000    255.04962   -3834.4347   -3397.2884   -3834.4347            0    8372.1307    16.960063    19.976714    20.691237    7010.3222    8539.9749    9208.9253    7367.4921    544.69573    916.68701   -412.56573   -2541.3355 
25506000     259.8977   -3846.1522   -3400.6964   -3846.1522            0    9881.7118    16.976085    19.995585    20.710784    7030.2083    10983.464    8813.9792    9847.6923    943.53422   -1648.4345    1991.2169   -2387.5405 
25507000    259.42952   -3866.9333   -3422.2799   -3866.9333            0    7730.8132    17.043831    20.075382    20.793434    7114.7109    9251.5756    7152.3432    6788.5207    1451.0564    90.218627   -839.17998   -2620.1249 
25508000    266.10761    -3871.739   -3415.6397    -3871.739            0    6710.6656    17.067558    20.103329    20.822381    7144.4661    6354.1075    6753.1535    7024.7359    940.41241   -124.09025    1302.2066   -2716.4238 
25509000    271.07186   -3850.1922   -3385.5843   -3850.1922            0    8697.6682    17.023798    20.051786    20.768994    7089.6529    8252.3099     7298.036    10542.659   -425.84284      1385.41    -375.8105   -2486.2862 
25510000    264.26693   -3856.5157   -3403.5712   -3856.5157            0    7645.7346    17.051733     20.08469    20.803075    7124.6116    7275.1919    8579.6036    7082.4083    913.18745   -161.18521    370.70016     -2609.14 
25511000    284.19255    -3905.895   -3418.7987    -3905.895            0    8597.8935    16.999083    20.022674    20.738841    7058.8191    7356.3009    7890.2155    10547.164   -201.08733    622.80197   -1551.4955   -2533.6831 
25512000    271.78301   -3840.7648    -3374.938   -3840.7648            0    7903.7741    17.034975    20.064951     20.78263    7103.6264    8409.5967     7461.309    7840.4166    1917.0168   -362.40172   -1646.6147   -2556.1141 
25513000    261.48698   -3817.9602   -3369.7805   -3817.9602            0    7927.0271    16.999683    20.023381    20.739573    7059.5668    9485.6997    5632.5653    8662.8164    605.74621      95.4389    279.10281   -2553.6412 
25514000    260.17468   -3866.8146   -3420.8841   -3866.8146            0    9911.3002    16.914968    19.923597    20.636221     6954.551    8965.7726    8079.0512    12689.077   -814.05472   -1622.5488   -614.28258   -2415.6305 
25515000    259.97242   -3844.9927   -3399.4089   -3844.9927            0    9690.4511    16.966397    19.984174    20.698964    7018.1789    10319.261      9447.33    9304.7629    804.91126   -83.451325    96.275518   -2407.5627 
25516000    261.33245   -3861.2338   -3413.3189   -3861.2338            0    7828.5488     17.07391    20.110811     20.83013    7152.4455    7319.0178    9140.9659    7025.6628    249.10486    935.23683   -1540.4029   -2596.7145 
25517000     261.3042   -3833.0247   -3385.1582   -3833.0247            0    6268.7686    17.004183    20.028682    20.745064    7065.1751    6787.8354     5994.919    6023.5513      175.453    1317.3546   -311.43509   -2739.2348 
25518000    254.83063   -3877.6454   -3440.8744   -3877.6454            0    8064.2014    17.009703    20.035183    20.751798    7072.0571    6767.4946    8048.6726     9376.437    275.40357   -573.64175    2016.8124   -2609.1432 
25519000    257.72033   -3878.9492   -3437.2254   -3878.9492            0    9062.5806    16.994637    20.017438    20.733418    7053.2826     8111.909    11323.097    7752.7353    614.65444   -2161.0422    611.29244    -2505.004 
25520000    258.69687   -3901.8546   -3458.4571   -3901.8546            0    7748.2281    16.990004    20.011981    20.727766     7047.516     5864.565    10605.258     6774.861   -531.72904    1692.2037   -159.35213    -2662.088 
25521000    249.27146   -3874.6524   -3447.4096   -3874.6524            0     7816.531    17.025281    20.053532    20.770803    7091.5053    8135.5783    8334.2228    6979.7918   -574.50814   -185.19079    1578.3616   -2639.0058 
25522000    258.19031   -3857.3719   -3414.8425   -3857.3719            0    7711.0607    16.993771    20.016418    20.732362    7052.2047    7663.1703    6034.6211    9435.3907   -1296.5433   -1009.9712    2076.9241   -2621.7663 
25523000     240.4029   -3859.5887   -3447.5463   -3859.5887            0    5763.5238    17.043775    20.075315    20.793365    7114.6401    4388.5213    5085.9724    7816.0775   -699.28216   -1253.9943    883.29658   -2849.5247 
25524000    270.16849   -3831.2664   -3368.2068   -3831.2664            0    9142.6086    16.955257    19.971053    20.685374     7004.364    9284.1198    10057.746    8085.9602   -1187.2574    45.765862   -870.04953    -2434.276 
25525000     257.0264    -3858.601   -3418.0666    -3858.601            0    5932.9518    16.966293    19.984053    20.698838    7018.0509    6865.4506     5953.276     4980.129    2179.3185    400.03391    -169.1961   -2810.8226 
25526000    276.79216   -3869.1069   -3394.6946   -3869.1069            0    9544.3948    16.926365    19.937022    20.650126    6968.6186    9624.7003    10357.906    8650.5778   -1237.0593   -213.95328    701.91012   -2424.6963 
25527000    268.90872   -3870.9411   -3410.0407   -3870.9411            0    9292.2523    16.914218    19.922715    20.635306    6953.6265    9334.2492    8020.6778     10521.83    975.26553   -895.86908    2570.6408   -2467.6994 
25528000    260.44684   -3889.9715   -3443.5746   -3889.9715            0    7542.0368    16.967329    19.985272    20.700102    7019.3361    5785.3624    7569.1221    9271.6258    1295.2443   -1116.1371   -468.01376   -2671.4976 
25529000    259.44958   -3911.3311   -3466.6434   -3911.3311            0    8512.0222    16.948912    19.963579    20.677633    6996.5035     8474.858    7528.5845    9532.6241   -181.33516   -190.38607    2393.0467   -2598.1036 
25530000    264.05551   -3858.9595   -3406.3774   -3858.9595            0    7157.7332    17.037032    20.067373    20.785139    7106.1996    8191.9244    6895.8577    6385.4176   -90.696635    715.22091     383.8635    -2664.574 
25531000    257.33448   -3849.7693   -3408.7068   -3849.7693            0    6295.6632    17.076265    20.113584    20.833003    7155.4053    7669.4174    6219.0702    4998.5021   -356.02141   -118.60548   -1205.2186   -2751.7276 
25532000    255.50138   -3872.1544   -3434.2338   -3872.1544            0    8038.6154     17.02347    20.051399    20.768593    7089.2425    8720.5494    6870.4245    8524.8724     853.4335    126.81298    478.57278   -2603.1267 
25533000    268.91527   -3879.7751   -3418.8635   -3879.7751            0    7324.6742    16.977674    19.997457    20.712722    7032.1828    7390.9102    4884.3327    9698.7797    -738.3836   -806.45063    2178.2583   -2667.6657 
25534000    255.75045   -3884.1834   -3445.8359   -3884.1834            0    8151.6195    17.023489    20.051422    20.768617    7089.2671    7318.0349    8920.7961    8216.0275    1320.9168    724.34023   -108.16435   -2603.0425 
25535000    244.53766   -3888.7443   -3469.6152   -3888.7443            0    8150.6912    16.991795     20.01409     20.72995    7049.7438    7114.3393    9237.5317    8100.2026    937.28453    1261.1539   -18.056506   -2631.6158 
25536000    258.97707   -3870.3216   -3426.4437   -3870.3216            0    7958.6525     16.96062     19.97737    20.691916    7011.0124    6625.5544    9095.8174    8154.5857   -708.01111    1749.8047    159.79835   -2612.6841 
25537000    261.41765   -3853.4831   -3405.4222   -3853.4831            0    8247.1317    16.961338    19.978215    20.692792    7011.9028    7156.8409    8033.0437    9551.5105    -845.5079    666.72308    471.23958   -2562.0588 
25538000    263.27798   -3889.8888   -3438.6393   -3889.8888            0    9307.6837    17.019162    20.046325    20.763338    7083.8624    7898.7933    10284.361    9739.8971    1490.9058    76.657862   -317.62208   -2477.0545 
25539000    264.93465   -3883.4632   -3429.3742   -3883.4632            0    10116.492    16.945506    19.959568    20.673478    6992.2864    9935.1877    10909.693    9504.5964   -1602.2299    21.943751    1500.1048   -2397.7417 
25540000    251.61085   -3872.6926   -3441.4402   -3872.6926            0    6644.9367    17.007526    20.032619    20.749142    7069.3427    8594.7179    6619.7917    4720.3006   -786.77777    124.99423   -309.34801   -2756.3531 
25541000    255.66252   -3839.8447   -3401.6479   -3839.8447            0    10193.839    16.987919    20.009525    20.725222    7044.9214    10150.152    10518.211    9913.1543    1172.9777   -1465.1031   -862.49718   -2354.3028 
25542000    253.27338    -3850.864   -3416.7621    -3850.864            0    8157.0206    16.959665    19.976245    20.690752    7009.8286    6811.3265    8389.6746    9270.0606   -11.972069    -906.2517    55.929808   -2582.8604 
25543000    263.59966   -3851.5768    -3399.776   -3851.5768            0    7324.3115    17.000515    20.024361    20.740589    7060.6036    7752.5809    6406.0188    7814.3346   -509.74136   -612.39818    -816.7354   -2645.5795 
25544000    251.54078   -3849.0819   -3417.9496   -3849.0819            0    9060.6375    16.979172    19.999222     20.71455    7034.0448    8101.1319    9084.7764    9996.0042    631.06949   -228.40668    550.42787   -2488.4702 
25545000    244.94139   -3912.7911   -3492.9699   -3912.7911            0    8134.9334    17.010142      20.0357    20.752333    7072.6049    6358.9208    9210.9205    8834.9588    2260.3641   -1336.9964    605.95185   -2653.8785 
25546000    266.87568   -3861.4854   -3404.0696   -3861.4854            0    7964.2895    17.021047    20.048545    20.765637    7086.2158    6996.0121    8137.1158    8759.7406   -1184.9802    367.99851    513.27363   -2580.9986 
25547000    255.65555   -3875.1016   -3436.9167   -3875.1016            0    8162.2904    17.010898    20.036591    20.753256    7073.5485    8113.7023    10007.178    6365.9915    1246.0445   -654.61291   -690.28365   -2594.8912 
25548000    260.34957   -3854.5357   -3408.3055   -3854.5357            0    8424.1957     16.99481    20.017641    20.733629    7053.4978    7821.6685    10322.651    7128.2678    39.362212    444.53003    1392.8277    -2541.725 
25549000    252.19125   -3838.8217   -3406.5746   -3838.8217            0    7608.6286    17.055954    20.089661    20.808224    7129.9031    7769.4867    6531.7381    8524.6609   -362.48066   -1594.1678    950.31057   -2615.4117 
25550000     261.6988   -3867.1489   -3418.6061   -3867.1489            0    9323.5548    16.966321    19.984086    20.698873    7018.0856    9601.1928    9250.4202    9119.0514    1313.1481   -517.34428   -1064.4463   -2464.3256 
25551000    261.70552   -3849.1145   -3400.5602   -3849.1145            0    5685.8019    17.031755    20.061158    20.778701    7099.5986    4791.5584    5600.6658    6665.1815    82.768837   -411.23816   -1105.1693   -2811.8502 
25552000    263.68748   -3837.3096   -3385.3583   -3837.3096            0    10830.202    16.960941    19.977748    20.692308    7011.4108     10938.87    10501.895    11049.842     -1689.61    1612.0869   -902.94092   -2277.9242 
25553000     259.3251   -3870.6612   -3426.1868   -3870.6612            0     7858.538    17.024493    20.052604    20.769841    7090.5207    6884.0927    7415.4982    9276.0231    1217.0934    832.97754    710.55965   -2613.5514 
25554000    275.04513   -3886.8252   -3415.4073   -3886.8252            0    7931.3761     17.03638    20.066606    20.784344    7105.3843    9267.8809    7913.4034    6612.8438   -1716.4437    684.24086    160.27212   -2593.5205 
25555000    269.25286   -3889.4022    -3427.912   -3889.4022            0    8755.2796    17.007133    20.032157    20.748663    7068.8527    8415.3876    8569.6364    9280.8149   -801.11381   -77.770848   -3476.3721    -2525.313 
25556000    281.35167   -3885.8987   -3403.6715   -3885.8987            0    9570.9525    17.016287    20.042939    20.759831    7080.2735    10674.431    9269.3963      8769.03    616.28512   -569.08557   -1229.8308   -2415.3891 
25557000    273.05162   -3908.2414   -3440.2403   -3908.2414            0    8800.7593    17.006937    20.031926    20.748424    7068.6082    8042.5406    10438.492    7921.2453    1396.0594   -527.96106   -1192.3333   -2532.9841 
25558000    265.17902   -3884.4365   -3429.9287   -3884.4365            0    8891.2429    16.976452    19.996018    20.711232    7030.6643    7394.9334    8182.8913    11095.904    1593.6026   -286.88136    -716.0617   -2518.2649 
25559000    258.56954    -3874.097   -3430.9177    -3874.097            0     8216.478    17.027471    20.056112    20.773475     7094.243    10565.035    7776.0623     6308.337   -348.63213   -859.73931    113.79566   -2580.8223 
25560000    255.24662   -3914.3225   -3476.8385   -3914.3225            0    8376.1238    16.966694    19.984524    20.699327    7018.5475    7689.4161    9815.5359    7623.4193    641.08486   -408.83313   -842.64916   -2619.4726 
25561000    269.46949   -3918.9333   -3457.0719   -3918.9333            0    8615.0839    17.004189    20.028688    20.745071     7065.182     7556.359    7313.2125     10975.68   -360.26875   -609.58854   -525.61195   -2569.3871 
25562000    275.97865   -3882.6889   -3409.6709   -3882.6889            0     6601.616    17.044169     20.07578    20.793847    7115.1343    8031.7695    6420.4342    5352.6444    179.06896   -290.99318   -2400.3989   -2724.6414 
25563000     274.1591   -3837.3717   -3367.4724   -3837.3717            0    8944.2407    17.023649    20.051609    20.768812    7089.4661    8957.5031    9339.3395    8535.8795   -847.73618   -1141.0856     160.8194   -2442.7041 
25564000    263.73937   -3896.3206   -3444.2803   -3896.3206            0    7567.0352    16.990831    20.012955    20.728775     7048.545    8705.2227    7807.6838     6188.199    508.64954   -300.40241    1247.1465   -2666.4209 
25565000    264.94892   -3917.6872   -3463.5738   -3917.6872            0    6231.7129    16.963812     19.98113    20.695811    7014.9723    6630.9958    7150.6072    4913.5357    443.89795    300.86786   -1060.3331   -2826.0311 
25566000     263.4658   -3842.5242   -3390.9528   -3842.5242            0    7444.5059    16.950629    19.965602    20.679728    6998.6304    6500.2445    8566.3411     7266.932     -254.427    -951.1719   -362.73372   -2631.1081 
25567000    252.79332   -3887.5344   -3454.2553   -3887.5344            0    6740.3055     16.96955    19.987888    20.702811    7022.0924    7561.7901    5716.5913    6942.5352    219.48831   -1200.5307   -205.85003   -2763.9805 
25568000    264.74837   -3881.8949   -3428.1252   -3881.8949            0    7155.2013    16.958399    19.974754    20.689207     7008.259    7731.9065    7569.8411    6163.8562    542.96628   -703.19275   -890.20471   -2696.8045 
25569000    248.00782   -3881.4713   -3456.3944   -3881.4713            0    8499.3691    16.992436    20.014845    20.730732    7050.5419    7508.5712    10168.273    7821.2629    1699.5517   -880.41838   -182.67999   -2582.4475 
25570000    251.35879   -3853.1365   -3422.3161   -3853.1365            0     8284.396    17.036081    20.066253    20.783979    7105.0099    9430.1083    8865.2068     6557.873    166.52803   -296.51715   -339.46859    -2563.893 
25571000    264.26214   -3876.5269   -3423.5907   -3876.5269            0    8384.1148    16.978584    19.998529    20.713832    7033.3133    9780.9357    8381.9903    6989.4183   -1051.0697   -266.84813    655.60419   -2563.6013 
25572000    280.19581   -3834.0817   -3353.8357   -3834.0817            0    7931.3486    17.039037    20.069735    20.787586    7108.7092     6252.731    9296.0424    8245.2725   -330.62822   -263.71492   -322.75518   -2531.5671 
25573000    243.94675   -3870.0281   -3451.9117   -3870.0281            0    9777.4313    16.935648    19.947956    20.661451      6980.09    9705.6567    9151.6392    10474.998    429.64035    523.53322   -955.98232   -2456.5941 
25574000    267.66416   -3907.8693   -3449.1021   -3907.8693            0    9798.0577      16.9169    19.925873    20.638578    6956.9345    9630.3392    9996.8687    9766.9652    -152.1016   -1618.6035   -810.40924   -2454.9935 
25575000    260.41417   -3911.2802   -3464.9393   -3911.2802            0    8317.5363    16.951365    19.966469    20.680626     6999.542    9811.0538     7514.766    7626.7892    453.51051   -982.46208   -664.24338   -2615.8757 
25576000    269.41492   -3925.3604   -3463.5925   -3925.3604            0    9190.0155    16.957171    19.973307    20.687709    7006.7363    9316.8178    9408.4178    8844.8108   -577.38224    1909.5558    -1656.909    -2524.501 
25577000     247.2346   -3881.0015   -3457.2499   -3881.0015            0    9881.8775    16.884044    19.887173    20.598494    6916.4781    10680.802    8631.3861    10333.444    1596.1365   -1165.7266   -1086.6682   -2460.4675 
25578000    278.50355   -3871.7653   -3394.4197   -3871.7653            0    8280.9563    16.945882    19.960011    20.673936    6992.7519    8823.5563    6945.2352    9074.0773   -947.81158    1477.1872    -118.0479   -2549.9103 
25579000    256.54437   -3866.3143    -3426.606   -3866.3143            0    8413.3183    16.918958    19.928298     20.64109    6959.4746    10935.252    7900.8739    6403.8287   -648.37091    305.80507   -1333.7872   -2572.6812 
25580000     287.5049   -3872.1455   -3379.3719   -3872.1455            0    9354.2326    16.910893    19.918798    20.631249    6949.5259    10102.116    9005.8002    8954.7814    1507.0515   -233.77325    574.51346   -2431.3045 
25581000    256.15574   -3891.6113   -3452.5691   -3891.6113            0    10212.395    16.950823     19.96583    20.679964    6998.8703    12677.601    9013.5897    8945.9932    2439.9409    22.983934     -2116.77   -2410.1763 
25582000     252.6569   -3889.9411   -3456.8958   -3889.9411            0    9487.7582    16.891616    19.896092    20.607732    6925.7879    10592.319    8914.9027    8956.0528   -993.08515   -2103.5892   -116.78854   -2498.5799 
25583000    247.86016   -3885.2229   -3460.3991   -3885.2229            0    6389.5463    17.002877    20.027143     20.74347    7063.5471    7724.8303    4966.9949    6476.8136    2293.7514    1187.0364     450.1105   -2802.1826 
25584000    268.82922   -3845.3454   -3384.5813   -3845.3454            0    7908.8708    17.014286    20.040581    20.757389    7077.7751    5937.3044    9102.7924    8686.5155   -1217.8351    624.49608    492.10558   -2568.2111 
25585000    266.66535   -3858.3708   -3401.3155   -3858.3708            0    8902.6591    16.977931     19.99776    20.713036    7032.5019    7617.7235    10154.692    8935.5614    944.96296   -118.60383   -1258.8939   -2488.2425 
25586000    267.77013   -3861.3031   -3402.3542   -3861.3031            0    8159.3405    17.079107    20.116932     20.83647    7158.9782     7311.137    8054.2746    9112.6098   -331.31885    339.40021    1371.7471   -2550.4672 
25587000    256.93914   -3859.7245   -3419.3396   -3859.7245            0    10308.857    16.956744    19.972804    20.687188     7006.207    10079.439    9593.9659    11253.164   -988.50804    436.76137   -126.93805   -2365.9978 
25588000    269.02226   -3842.4478   -3381.3528   -3842.4478            0    9035.6096    16.964133    19.981508    20.696203    7015.3708    6767.6216    11106.418    9232.7892    2880.8814    445.12484    655.41405   -2456.9017 
25589000    257.33369   -3887.1573   -3446.0961   -3887.1573            0     8667.871    16.934086    19.946116    20.659545    6978.1588    7939.7004    9167.2117     8896.701    1763.6666   -1558.5537    225.67318    -2563.973 
25590000    260.20808   -3853.8673   -3407.8795   -3853.8673            0     11186.24     16.91306    19.921351    20.633894    6952.1984    11479.299    12417.021    9662.3987    173.36545   -537.19449    1570.8738   -2273.6991 
25591000    240.33848   -3878.0531   -3466.1211   -3878.0531            0    8394.1648    16.932646     19.94442    20.657789    6976.3791    7617.9514    9153.6748    8410.8682   -342.54606   -1163.0005   -953.80595   -2612.0708 
25592000    267.76593    -3873.024   -3414.0824    -3873.024            0    7783.3509    16.947711    19.962165    20.676168    6995.0162    6957.8977    9231.6289    7160.5261   -1845.5449    1006.8807     34.44074   -2620.0628 
25593000     257.3606   -3911.7964   -3470.6891   -3911.7964            0    7944.3912    16.976891    19.996535    20.711767    7031.2099      5643.46    9883.0624    8306.6511   -16.515726    1399.3435   -40.420506   -2656.0476 
25594000    249.75916   -3863.7224   -3435.6438   -3863.7224            0    7552.3324    16.977275    19.996987    20.712235    7031.6866    6698.0669    8481.4212     7477.509   -559.26476   -235.24049    5.6355332   -2661.1526 
25595000     251.9775   -3891.5589   -3459.6781   -3891.5589            0    8887.1537    16.942093    19.955547    20.669313     6988.062    9651.8825    9461.1324    7548.4464   -367.61056    407.78414   -566.17282   -2553.9553 
25596000     267.1947   -3868.7403   -3410.7778   -3868.7403            0    10238.211    16.846561    19.843024    20.552765    6870.5164    10195.101    10007.178    10512.355   -30.037698   -1157.4055   -1259.4788   -2384.9148 
25597000    263.59318   -3889.4521   -3437.6624   -3889.4521            0    9201.1399    16.850094    19.847185    20.557076    6874.8399    8040.8477    9237.7936    10324.778    1749.0556    3519.9891    66.804509   -2515.1333 
25598000    262.91299   -3922.0161   -3471.3922   -3922.0161            0      10094.2    16.871094     19.87192    20.582695    6900.5752    8647.7893    10361.881     11272.93     231.2469   -1186.1666   -1483.6967    -2455.534 
25599000    255.29721   -3878.8717    -3441.301   -3878.8717            0    8921.7706    16.954469    19.970125    20.684413    7003.3877    8787.9572    9527.8477     8449.507   -461.39713     1072.913    1364.9838   -2530.0561 
25600000    257.92682   -3896.9756   -3454.8978   -3896.9756            0    9611.0509    16.910729    19.918605    20.631049    6949.3239    12285.905    7978.0722     8569.175   -804.87718   -761.66672    1257.0854   -2480.8297 
25601000    252.50514   -3908.6403   -3475.8551   -3908.6403            0     9293.527    16.950097    19.964976    20.679079    6997.9716    7853.2325    10940.161    9087.1877    235.23539   -1259.8274    708.99237   -2527.3741 
25602000    270.86623   -3862.1558   -3397.9003   -3862.1558            0    8020.5793    16.967139    19.985048    20.699869    7019.0997    7950.1443     8550.618    7560.9757   -1050.2978    432.90891    191.64281   -2576.8627 
25603000    251.84454   -3854.6243   -3422.9714   -3854.6243            0    6464.6997    17.004416    20.028956    20.745348    7065.4653    8586.8132    3473.4493    7333.8365   -1078.5471   -92.270392    847.88931   -2756.8322 
25604000    247.33348   -3837.9474   -3414.0263   -3837.9474            0    8711.0007     16.93359    19.945532     20.65894    6977.5462    7370.3116    10483.967    8278.7237    20.941841    144.43811    -1322.724   -2527.5918 
25605000    264.45104   -3856.5717   -3403.3117   -3856.5717            0    7707.3068    16.991784    20.014077    20.729937    7049.7307    7411.6866    7597.4123    8112.8214    521.86074    13.189371   -903.22996   -2610.8996 
25606000    256.46237   -3890.5538   -3450.9861   -3890.5538            0    9554.6463    16.935958    19.948321    20.661829    6980.4735    9502.5068    10369.695    8791.7366    578.87288   -28.314664    521.22904    -2478.294 
25607000    255.38163   -3885.3179   -3447.6025   -3885.3179            0    9313.8541    16.936672    19.949163    20.662701    6981.3569     7947.546    8220.5757    11773.441    308.81742    528.78593   -662.90591   -2499.3038 
25608000    256.11966   -3871.4062   -3432.4259   -3871.4062            0     8308.263    16.963337     19.98057    20.695231    7014.3822     6997.239    9381.8211     8545.729   -80.029855   -1618.4872    425.62562   -2582.5108 
25609000    262.11616   -3895.2941    -3446.036   -3895.2941            0    8792.0486    17.019446    20.046659    20.763684     7084.217    7888.7445    9933.3399    8554.0613    1224.3025     351.4892   -1404.7394   -2537.6764 
25610000    258.75348   -3898.3044   -3454.8097   -3898.3044            0    7361.2214    17.007278    20.032327    20.748839    7069.0329     7722.329    6790.4444    7570.8909   -559.34393    2464.0562    11.640028   -2695.9076 
25611000    278.16355   -3893.7117   -3416.9489   -3893.7117            0     7930.398    16.970374    19.988859    20.703817    7023.1158    6765.3031    8506.8958    8518.9952   -343.57073    435.72987   -1175.4167   -2604.6783 
25612000    258.05649   -3874.0952   -3431.7953   -3874.0952            0    7718.6567    16.975683    19.995112    20.710293    7029.7087    7974.6459    7466.2665    7715.0576    309.51889    30.015878   -153.22348   -2640.4701 
25613000    257.64652   -3873.8939   -3432.2966   -3873.8939            0    8432.7657    16.972958    19.991902    20.706969    7026.3241    9091.1722    7346.4657    8860.6591    973.18916   -609.78271    1462.4828   -2568.1765 
25614000     273.9631   -3871.0559   -3401.4925   -3871.0559            0    8727.5598    16.958205    19.974526    20.688971    7008.0187    8961.7045     7762.114    9458.8611    83.675267   -46.112646    155.41772   -2509.4943 
25615000    275.26726    -3865.238   -3393.4394    -3865.238            0    9442.0351    16.937723    19.950401    20.663983    6982.6567    10406.085    7543.9005     10376.12    519.83392   -405.77698   -273.29991   -2431.9108 
25616000    255.16288   -3870.3009   -3432.9604   -3870.3009            0    7272.8258    17.044947    20.076697    20.794796     7116.109    3975.8633     8492.281     9350.333    142.69437   -1292.1376    -1662.098   -2678.1782 
25617000    255.80778   -3904.6325   -3466.1867   -3904.6325            0    7297.0993    16.988873    20.010648    20.726385    7046.1076     8485.253    7577.6965    5828.3483   -6.5673899      201.528   -604.90732   -2716.3349 
25618000    254.60605   -3890.1895   -3453.8034   -3890.1895            0     8505.652    16.979626    19.999757    20.715104    7034.6091    9681.6446    5673.2252    10162.086   -181.86054   -228.57701    29.820467   -2581.1868 
25619000    260.74247   -3852.2488   -3405.3451   -3852.2488            0    7177.8495    16.945204    19.959212    20.673109    6991.9122    6540.7722    7097.3427    7895.4336    -373.4515   -837.79599   -497.60945   -2673.4208 
25620000    252.10858   -3853.9186   -3421.8131   -3853.9186            0    9627.6889    16.934111    19.946146    20.659576    6978.1903    10179.712    9010.6184    9692.7361   -161.70704   -10.927299   -1175.8165   -2442.0056 
25621000    264.48701   -3891.5752   -3438.2535   -3891.5752            0    4710.4505    17.026424    20.054879    20.772198    7092.9342    3189.3518    7088.6904    3853.3093   -967.35846    -1365.024    -1102.084   -2950.9895 
25622000    269.77452   -3879.2168   -3416.8325   -3879.2168            0    8331.3073    17.018643    20.045713    20.762704    7083.2138     8878.567    9679.4934    6435.8616    -1377.923    492.13394    601.55574   -2556.1967 
25623000    254.91414   -3920.0753   -3483.1612   -3920.0753            0     7506.323    17.052324    20.085386    20.803796    7125.3523    6555.2572    7916.4841    8047.2278   -42.323128   -872.80339    211.57716   -2703.1344 
25624000    271.55374   -3880.6103   -3415.1765   -3880.6103            0    8828.7278    17.023244    20.051133    20.768318    7088.9603    7908.2988    8758.9757     9818.909    203.97357    -21.40213    1057.1785   -2502.4165 
25625000    272.55333    -3870.382   -3403.2349    -3870.382            0    9216.0794    17.091172    20.131143     20.85119    7174.1609    9322.2616    9976.4103    8349.5662    1445.0773   -1014.7359   -1325.4085    -2438.977 
25626000    269.10745   -3898.3044   -3437.0635   -3898.3044            0    9876.0224    16.993444    20.016033    20.731962    7051.7975    11132.768    9762.3405    8732.9585     -223.852    -431.2548    984.38465   -2421.3814 
25627000    260.53653   -3873.3861   -3426.8354   -3873.3861            0    8144.4816    17.022681     20.05047    20.767631    7088.2571    7420.9355     8363.563    8648.9464   -632.31471   -285.37722     1957.173   -2584.8999 
25628000    274.30458   -3893.9558   -3423.8071   -3893.9558            0     8073.742    16.993629    20.016251    20.732188    7052.0276    8269.7422    9120.3847     6831.099   -771.54804    308.94762   -777.49913   -2593.4503 
25629000    271.97402   -3876.7754   -3410.6212   -3876.7754            0    7134.9357    17.032643    20.062204    20.779785    7100.7092    5418.9278    6957.7337    9028.1456    424.24748   -1872.9332    540.63944   -2671.7518 
25630000    267.59249   -3914.7742   -3456.1298   -3914.7742            0    7713.9688    17.009133    20.034511    20.751102     7071.346    7946.0508    8062.3243    7133.5312   -1308.6532   -414.13561    255.60144   -2660.6011 
25631000    257.99694   -3915.5736   -3473.3757   -3915.5736            0    8303.8142    16.965301    19.982884    20.697628    7016.8198    10030.203    8163.5615    6717.6785     553.1941     328.2302    1472.4161   -2623.6205 
25632000    272.30442   -3892.2447   -3425.5242   -3892.2447            0    8879.1436    17.004172    20.028668     20.74505    7065.1607    9475.1876    7841.3573    9320.8858    116.90553     1066.535     406.7379   -2510.6339 
25633000    268.23101    -3893.316   -3433.5772    -3893.316            0    8985.2658    16.957863    19.974122    20.688553     7007.594    8950.0097     8736.604    9269.1836   -1601.8679   -273.50155   -798.83025   -2515.2959 
25634000    255.20571   -3918.5066   -3481.0928   -3918.5066            0    7394.1727    17.068245    20.104138    20.823219    7145.3286    7295.4343    6828.5534    8058.5303    537.95467    589.24833   -958.51973   -2710.5661 
25635000    240.67311   -3868.1195    -3455.614   -3868.1195            0    7683.8785    16.923715    19.933901    20.646892    6965.3458    7049.9012    6488.1912    9513.5432    327.73145    475.42909    367.47086    -2675.067 
25636000    267.37913   -3879.3147    -3421.036   -3879.3147            0    9658.4849    16.934414    19.946503    20.659946     6978.565    10471.528    9610.6054    8893.3209    236.88718   -910.48651    443.45937   -2438.0417 
25637000    251.46896   -3902.7792     -3471.77   -3902.7792            0    8139.2206    16.998853    20.022403    20.738561    7058.5327    9094.4862    7774.7559    7548.4196   -567.43341   -306.34616    597.64382   -2633.9068 
25638000    262.02681   -3893.5182   -3444.4132   -3893.5182            0     7083.417    16.947393     19.96179     20.67578    6994.6227    7170.2832    7834.5454    6245.4223    695.77485   -818.67535   -893.47717   -2721.8381 
25639000     239.1717   -3918.5212   -3508.5891   -3918.5212            0    8355.3732    16.955051    19.970811    20.685123     7004.109    7939.4389    9666.8826     7459.798   -596.39793    1514.9232    2160.3394   -2655.1066 
25640000    263.99019   -3886.6032    -3434.133   -3886.6032            0    7462.1099    16.971115    19.989732    20.704721    7024.0359    8442.8861    7089.7147    6853.7289    1080.5612    622.19138    1365.2328   -2669.7267 
25641000    255.37918   -3891.5047   -3453.7935   -3891.5047            0    7760.6421    16.950444    19.965384    20.679502    6998.4011    8033.2282    8506.5158    6742.1822   -446.76328   -447.39005    848.55894   -2661.7074 
25642000     253.1565   -3870.6756    -3436.774   -3870.6756            0    8983.9201    17.006084     20.03092    20.747383    7067.5442    9391.9681    8225.0321    9334.7601    473.01574    564.61012     84.03338   -2510.7755 
25643000    249.74899   -3858.1141   -3430.0529   -3858.1141            0    7528.1391    16.981714    20.002216    20.717652    7037.2048    7898.3021      6807.79     7878.325    699.59264    -597.3176   -448.62279   -2657.4369 
25644000    262.12668     -3870.03   -3420.7539     -3870.03            0    8205.6545    16.974733    19.993993    20.709134    7028.5285    7691.9613    8471.0229    8453.9794    337.14477    54.262533   -1427.4669   -2579.6424 
25645000    271.05068   -3843.3638   -3378.7922   -3843.3638            0    8369.4501    16.966029    19.983742    20.698516    7017.7232    8975.7546    9592.6806    6539.9151    1820.3911   -540.50664      368.843     -2522.21 
25646000    255.84086   -3857.0194   -3418.5169   -3857.0194            0    6554.9986    16.971734    19.990461    20.705476    7024.8049    7624.9751    5319.8402    6720.1806    136.06085   -615.18008    12.487786   -2746.9601 
25647000     248.5783   -3849.6269   -3423.5722   -3849.6269            0    8098.3584     16.91907    19.928429    20.641226    6959.6122    7502.5315    7990.3082    8802.2356   -1904.0597    679.96011    51.358182   -2601.5985 
25648000    258.88938   -3887.3111   -3443.5835   -3887.3111            0    9195.4519    16.906734    19.913899    20.626176    6944.4003    9760.1564    8458.9369    9367.2624   -1124.7029   -750.40095    714.89557   -2512.2961 
25649000    271.48709   -3863.0777   -3397.7581   -3863.0777            0     9223.998    16.948534    19.963134    20.677172    6996.0354    9968.0293    7803.5082    9900.4564   -1159.4945   -828.25647    1755.3357   -2456.6336 
25650000    266.84414   -3909.3033   -3451.9415   -3909.3033            0    7723.4471    16.971348    19.990007    20.705005    7024.3255    6636.1971    7837.6649    8696.4793   -314.13788    1050.7534   -978.24075   -2660.7317 
25651000    272.10521   -3879.9972   -3413.6181   -3879.9972            0    9065.4786    16.971779    19.990514    20.705531    7024.8603    9177.1492    8852.4199    9166.8668   -936.92742    963.99158    1293.1742   -2484.8564 
25652000    244.63559   -3876.0382   -3456.7412   -3876.0382            0     8412.454    16.969233    19.987514    20.702424    7021.6987    10050.166    6547.9786     8639.217    891.39453   -1290.4088   -164.73133   -2595.2699 
25653000    254.50676   -3846.2848   -3410.0689   -3846.2848            0    7637.1807    16.967132    19.985041    20.699862    7019.0921    6595.7244    7286.8618     9028.956   -698.55352    1144.8697   -474.12032   -2628.2793 
25654000    257.34695   -3894.0533   -3452.9695   -3894.0533            0    6382.7801     16.99096    20.013106    20.728931    7048.7047    3759.9827    8274.2545    7114.1032   -330.22745    277.95413    190.03385   -2796.8316 
25655000    266.20633   -3860.7753   -3404.5067   -3860.7753            0     7824.709    16.966461     19.98425    20.699043    7018.2591    7193.9814    8200.0183    8080.1274    817.44424    1035.4593   -143.60198   -2603.6156 
25656000    242.41049   -3897.9581   -3482.4749   -3897.9581            0    6913.4045    17.001462    20.025477    20.741744    7061.7836    6574.6881    5948.0351    8217.4904   -288.93877    139.88525    1181.7661   -2770.4711 
25657000    260.68684   -3894.7977   -3447.9894   -3894.7977            0    9090.7237    16.960769    19.977546    20.692099    7011.1981    9633.1834    8437.9775    9201.0102    909.98588   -1243.6082    1560.1911   -2518.4526 
25658000    260.40343   -3886.5289   -3440.2063   -3886.5289            0    8587.8117    16.918057    19.927236     20.63999     6958.362    10044.086    7459.6689    8259.6803   -467.03583    -316.1862   -1470.0223   -2568.7102 
25659000    261.83185   -3900.7897   -3452.0189   -3900.7897            0    11348.281    16.931738    19.943351    20.656681     6975.257    10204.277    12684.266      11156.3   -1020.5253    548.87736     2050.309   -2297.5927 
25660000    265.22103   -3876.9202   -3422.3404   -3876.9202            0    10999.911    16.925656    19.936187     20.64926    6967.7426    12662.988    9081.1591    11255.587   -724.54008    663.49244    2001.8767   -2304.5582 
25661000     243.6055    -3902.984   -3485.4525    -3902.984            0    8252.1273    16.939045    19.951958    20.665595    6984.2915    8000.0346    8385.1461    8371.2013    307.19445   -602.79401   -88.202626   -2644.9013 
25662000    250.53604   -3894.0104   -3464.6002   -3894.0104            0    7814.2835    16.985011      20.0061    20.721674    7041.3042     9465.263    7559.1394    6418.4483    892.50507   -2002.8274    950.76845   -2662.1498 
25663000    258.80587   -3864.1546   -3420.5702   -3864.1546            0    8083.9647    16.957844      19.9741     20.68853    7007.5703    9522.5461     8725.499    6003.8491    424.56535    -63.89076   -188.31264   -2594.4033 
25664000    251.91946     -3881.49   -3449.7086     -3881.49            0    6334.2523     16.97975    19.999903    20.715255     7034.763    7671.3387    7244.7766    4086.6415     488.9017    593.60633    1934.4605   -2799.8473 
25665000    254.73949   -3865.4166   -3428.8018   -3865.4166            0    9989.1938    16.944679    19.958594    20.672469    6991.2629    8709.0233    12119.903    9138.6554   -551.63204    72.391383   -435.23823   -2410.2996 
25666000    278.10943   -3885.3506   -3408.6806   -3885.3506            0    7234.6533    16.976226    19.995752    20.710956    7030.3837    8887.2658    7744.6226    5072.0715    395.94817   -945.61163    490.30803   -2666.9048 
25667000    248.15871   -3909.8864   -3484.5508   -3909.8864            0    5721.1714    16.973356    19.992371    20.707455    7026.8186    5980.0309    5725.5353    5457.9481    1416.4131   -751.64203   -240.94629   -2898.2513 
25668000    281.32964   -3888.6057   -3406.4164   -3888.6057            0    8279.0137    16.978439    19.998358    20.713655     7033.133    7965.4691    10038.627    6832.9448    749.08072    1024.3852     185.8012   -2557.2294 
25669000    266.33543   -3889.3541   -3432.8643   -3889.3541            0    7243.7316    17.052415    20.085493    20.803907    7125.4664    6709.6179    6290.7388    8730.8383    2197.6278    380.15361    230.78976    -2680.113 
25670000    259.38877   -3886.0098   -3441.4264   -3886.0098            0    10902.816    16.911807    19.919875    20.632365    6950.6536    12528.387    9756.0357    10424.025    233.34163   -573.99475    322.24133    -2336.228 
25671000    257.63798   -3885.5541   -3443.9715   -3885.5541            0    8852.1646    16.882526    19.885385    20.596642    6914.6124    10325.356    8258.5648    7972.5728   -665.94779   -418.69968   -409.40193   -2551.2968 
25672000    251.13069   -3885.1349   -3454.7055   -3885.1349            0    7598.0185    16.971951    19.990716     20.70574    7025.0733    8394.5696    7996.4966    6402.9892    610.03316   -724.34829   -432.28205    -2676.262 
25673000     256.0984   -3899.9582   -3461.0143   -3899.9582            0    7293.2783    16.926081    19.936687    20.649779    6968.2674    5507.7883    9074.1088    7297.9377   -984.27666     716.9513   -452.48832   -2719.8346 
25674000    250.37794   -3883.9003    -3454.761   -3883.9003            0    7384.2023    16.961006    19.977824    20.692387    7011.4911    8054.2995    7108.8678    6989.4397   -570.10362    496.64318    685.17223   -2699.6864 
25675000      283.818   -3903.7997   -3417.3454   -3903.7997            0    7155.0794     16.95758     19.97379    20.688208    7007.2439    7198.2299    6308.0925    7958.9156     2263.172    90.785162   -936.45756    -2686.143 
25676000    257.17289   -3892.7947   -3452.0092   -3892.7947            0    8434.0629    16.965701    19.983355    20.698116    7017.3159    5902.2831    9937.7147    9462.1907    2887.7491   -142.00192   -1764.2615   -2588.8642 
25677000    261.23686   -3880.0919   -3432.3409   -3880.0919            0    6595.5139     17.07336    20.110163     20.82946    7151.7547    6085.4957    5738.1288    7962.9172    359.19616    497.33849    511.17804   -2744.4222 
25678000    261.93839   -3886.8797   -3437.9263   -3886.8797            0    8758.8244    17.022369    20.050102     20.76725    7087.8673    11600.114    7722.9049    6953.4547    299.25196    506.05119   -435.07204    -2532.533 
25679000    250.30056   -3850.4835   -3421.4769   -3850.4835            0    7459.6054    17.010146    20.035705    20.752338    7072.6098    7065.7754    7466.6823    7846.3585   -1724.2047   -297.41588    -401.8695   -2652.0428 
25680000    258.27903   -3894.6048   -3451.9233   -3894.6048            0    7244.5622    17.012548    20.038534    20.755269    7075.6067    9568.8849     5917.911    6246.8907   -1262.5652    212.03267   -131.76576   -2704.3536 
25681000    257.26859   -3864.4264   -3423.4769   -3864.4264            0    9907.3798    16.995178    20.018075    20.734077    7053.9557    9197.3982    10419.382    10105.359     45.44228   -738.42318    890.18344   -2404.2581 
25682000    266.66267   -3867.2395   -3410.1888   -3867.2395            0    8408.8889    17.063903    20.099024    20.817922    7139.8766     7184.139    9328.4161    8714.1115     127.5367    1234.7638   -806.06292   -2534.5899 
25683000     255.4562   -3905.1248   -3467.2817   -3905.1248            0    8219.0852    17.039173    20.069895    20.787751    7108.8787    11193.081    5912.4498    7551.7248    1030.8495   -538.50343   -311.14007   -2615.1622 
25684000    256.32844   -3910.8467   -3471.5085   -3910.8467            0     9228.861    17.004291    20.028809    20.745195    7065.3094    10207.242     7912.065    9567.2757     159.5782   -887.62756   -558.02891    -2520.564 
25685000    259.57218   -3880.3621   -3435.4643   -3880.3621            0    6580.0954    17.063263    20.098269    20.817141    7139.0728    7467.3618    7686.9174    4586.0071   -739.46352   -1445.1789    419.95978   -2750.3707 
25686000    268.67352   -3891.5645   -3431.0673   -3891.5645            0    8192.1505    16.995656    20.018638    20.734661    7054.5513    6492.9165    8327.1078    9756.4273   -664.32706    764.51381    42.224232    -2588.231 
25687000    248.99021   -3880.2785   -3453.5178   -3880.2785            0    9479.4106    16.968243    19.986349    20.701217    7020.4707    7490.1752     10462.85    10485.207   -1840.6317    283.03219   -755.72549   -2482.9554 
25688000    265.97911   -3868.4614   -3412.5823   -3868.4614            0    7036.5617    16.993653    20.016278    20.732216    7052.0566    5671.9208    7545.2895    7892.4748   -1228.1126   -485.69707   -109.35763    -2688.893 
25689000    245.02898   -3888.9315   -3468.9602   -3888.9315            0    9227.7911    16.951185    19.966257    20.680407    6999.3194    7920.1549    10363.996    9399.2225   -1828.2811    757.11991    64.307724   -2527.0067 
25690000    267.48604   -3854.4338   -3395.9719   -3854.4338            0    6684.6692    17.015007    20.041431    20.758269    7078.6758    4425.5715    8878.8537    6749.5824    1224.0251    508.21509   -370.45389   -2705.8785 
25691000    252.18557   -3884.8737   -3452.6362   -3884.8737            0    7294.9803    17.035041    20.065028     20.78271    7103.7083    6914.1693    8608.0234    6362.7482    -786.5645    790.63559   -2260.4482   -2696.8741 
25692000    255.02839   -3858.2527   -3421.1428   -3858.2527            0    8868.9195    16.973123    19.992096     20.70717    7026.5289    9275.1445    7848.6011     9483.013    442.09402   -1646.3623    602.87466   -2512.3028 
25693000    258.56038   -3848.3696    -3405.206   -3848.3696            0    8013.6791    17.008732     20.03404    20.750614    7070.8466    8175.4365    7826.6765    8038.9241   -787.82963    1639.7354   -52.683504    -2578.827 
25694000    272.95844   -3855.9414      -3388.1   -3855.9414            0    7554.5356    16.995097     20.01798    20.733979    7053.8553    6896.4419    10003.086     5764.079    1142.0658   -172.99723   -514.99535   -2610.9404 
25695000    248.41062   -3838.6422   -3412.8749   -3838.6422            0    9630.8637    16.998692    20.022214    20.738365    7058.3328    10712.835    9117.8681    9061.8879   -593.08597   -241.99152    92.246649   -2421.4879 
25696000    266.33986   -3860.1576   -3403.6602   -3860.1576            0    7990.4239    16.997518    20.020831    20.736932    7056.8696    8047.4919     8610.698    7313.0818    856.16582     1705.142    1344.8734   -2581.3081 
25697000    248.73395    -3839.908   -3413.5866    -3839.908            0    10454.467     16.92252    19.932494    20.645435    6963.8711    9897.9437    9781.3006    11684.156    2636.0717   -809.76707    928.14403   -2351.8213 
25698000    263.04927   -3883.4283   -3432.5708   -3883.4283            0    7723.8538     17.02234    20.050068    20.767215    7087.8309    7661.5332     9147.359    6362.6694    120.34547    1534.5745     793.1243   -2634.1657 
25699000    273.29012     -3881.73   -3413.3201     -3881.73            0    7400.1728    16.998872    20.022426    20.738584    7058.5565    7281.9669    7362.2528    7556.2987   -28.820642   -447.70196    564.49494   -2651.5329 
25700000    263.00746   -3858.9094   -3408.1236   -3858.9094            0    9203.3373    16.923251    19.933354    20.646326    6964.7726    10134.756    9634.2258    7841.0303   -547.35698    1913.1125    2355.0677   -2473.3032 
25701000    266.01638   -3882.3233   -3426.3804   -3882.3233            0    6602.3965     17.01267    20.038678    20.755418    7075.7592    6241.5393    6911.5251    6654.1251    -710.4159    658.70866   -60.897816   -2745.0613 
25702000      260.335   -3838.1261   -3391.9208   -3838.1261            0     6694.017    16.992768    20.015236    20.731137    7050.9552    6117.4167    7198.0498    6766.5846    494.16463   -43.781283   -519.63633   -2703.5687 
25703000    254.25251   -3869.8084   -3434.0283   -3869.8084            0    8771.8707    16.968477    19.986625    20.701502    7020.7611    9321.9975    8390.4647    8603.1498   -784.96497   -295.27154   -675.38198   -2535.8712 
25704000    256.48964   -3869.3985   -3429.7841   -3869.3985            0    8719.5014    16.981099    20.001492    20.716901    7036.4398    9537.7203    9198.2892    7422.4948   -78.946675    934.65658    56.619935   -2534.9953 
25705000     251.0113   -3890.4705   -3460.2457   -3890.4705            0    8088.3183    16.976512    19.996088    20.711304    7030.7386    7915.1366    7270.1005    9079.7178   -462.92203   -308.63495    -1713.384    -2630.901 
25706000    253.32795   -3884.6108   -3450.4154   -3884.6108            0    6398.9465    17.034026    20.063833    20.781472    7102.4392    5343.5133    6274.2609    7579.0654   -571.59143    1022.0224   -211.56662    -2787.601 
25707000    265.94502   -3886.9169   -3431.0962   -3886.9169            0    6952.8581    17.017285    20.044114    20.761048    7081.5189    6448.2416     7508.082    6902.2506   -718.38487   -305.05178   -1390.3214    -2713.028 
25708000    271.18078   -3879.8558   -3415.0613   -3879.8558            0    10751.636    16.881126    19.883737    20.594935    6912.8933    11191.723    9569.4377    11493.748    179.96724   -15.453729   -1848.8675   -2331.1086 
25709000    255.33006   -3869.5535   -3431.9265   -3869.5535            0    9072.4511    16.942118    19.955577    20.669345    6988.0935    7500.0522    7964.6699    11752.631      -273.67    -1125.886   -276.02967   -2507.3151 
25710000    265.20314   -3826.0055   -3371.4563   -3826.0055            0    8237.0233    16.972618    19.991502    20.706554    7025.9022    6564.7604      9059.14    9087.1695     986.8439    1764.8379   -593.00077    -2527.445 
25711000     263.8682    -3886.321   -3434.0599    -3886.321            0    8093.9729    17.077105    20.114574    20.834028    7156.4613    8612.6545    9163.5567    6505.7074    -130.5631   -828.80644   -439.84941   -2589.2948 
25712000    260.67309   -3883.3152   -3436.5304   -3883.3152            0    7935.8382    17.084137    20.122856    20.842607    7165.3052    8254.3723    8552.8641    7000.2782   -1078.1477   -1430.0365   -1139.7591   -2607.2462 
25713000    273.18654   -3868.8361   -3400.6038   -3868.8361            0    10026.574    16.991425    20.013654    20.729499    7049.2839    11384.801    10914.889    7780.0334    15.112211   -25.682096   -1946.5056    -2369.806 
25714000    260.94285   -3886.2465   -3438.9994   -3886.2465            0    7348.8226    17.027616    20.056283    20.773652    7094.4243    8021.1533    6921.7702    7103.5443    992.92503    171.49293    926.63088   -2678.6542 
25715000    248.65886   -3922.9607   -3496.7679   -3922.9607            0    7063.9675    17.027966    20.056695    20.774079    7094.8614    7232.6377    7932.4034    6026.8612    1387.3831    1078.2401    597.51013   -2765.8502 
25716000    261.25101   -3879.6506   -3431.8753   -3879.6506            0    10463.157    16.941112    19.954392    20.668117    6986.8485    12420.026    9216.0169     9753.428    613.91179   -1350.1891    1610.2416   -2365.7213 
25717000     249.5193   -3885.8609   -3458.1933   -3885.8609            0    10102.946    16.973878    19.992986    20.708092    7027.4673    9889.3888    8985.1694    11434.281    641.63487    525.58799   -571.43419   -2422.7585 
25718000     249.4645   -3840.8196    -3413.246   -3840.8196            0    6749.1067    17.090434    20.130274     20.85029    7173.2318    6007.9181    7398.4072    6840.9949   -908.14315    2744.0526    460.14429   -2707.1934 
25719000    265.75006   -3837.5107   -3382.0242   -3837.5107            0     8779.455    17.014178    20.040455    20.757258     7077.641    9305.1129    8979.1481    8054.1039    202.77002   -776.38992    892.04592   -2475.8076 
25720000    253.00536   -3865.3735   -3431.7309   -3865.3735            0     9316.516    16.938232       19.951    20.664603    6983.2857    9254.3744    8793.9045    9901.2691   -184.80017   -902.45783   -679.04032   -2482.8991 
25721000    266.33502   -3889.3815   -3432.8924   -3889.3815            0    7005.7928    16.972089    19.990879    20.705908    7025.2448     6922.952    5639.7648    8454.6616    2336.9489    477.26438    546.77663    -2715.107 
25722000    269.12428   -3890.0714   -3428.8016   -3890.0714            0     9600.273    16.947279    19.961656    20.675641    6994.4813    9360.9433    9875.9634    9563.9122   -1284.2972    1806.1756   -1464.5172   -2449.5033 
25723000     259.5951   -3887.2292   -3442.2921   -3887.2292            0    10471.285    16.963511    19.980776    20.695444    7014.5991    9916.6239    8523.4164    12973.815    102.84475  -0.64007255   -94.036998    -2371.072 
25724000    244.14734   -3848.4528   -3429.9926   -3848.4528            0    7294.9205     17.01112    20.036853    20.753527    7073.8256    7981.6302    7273.7904    6629.3411   -256.07381   -225.77524     1544.371   -2677.4158 
25725000    258.04659   -3875.1392   -3432.8562   -3875.1392            0    10167.238    16.830397    19.823985    20.533045     6850.759    8495.9486    10897.399    11108.367   -256.13724    2040.7298   -2020.6846   -2417.0343 
25726000    265.16682    -3880.876   -3426.3891    -3880.876            0    6267.7159    16.994785    20.017612    20.733598    7053.4663    6008.8369    6044.2207    6750.0902   -900.22205    1295.0182   -1296.8302   -2781.6444 
25727000    271.56533   -3820.9104   -3355.4567   -3820.9104            0    8639.2754    16.940045    19.953135    20.666815    6985.5286    8642.4787    7914.2646    9361.0831    1283.6682    795.85355    100.78351   -2475.3152 
25728000    263.38176   -3852.9844   -3401.5571   -3852.9844            0    8016.2118    16.959675    19.976257    20.690763    7009.8405    6379.6687    8201.2643    9467.7023   -1423.2953   -1426.4297     1280.071   -2582.0491 
25729000    256.69061   -3849.7101   -3409.7512   -3849.7101            0    8156.5856    16.959448    19.975989    20.690487    7009.5593    7863.6372    8501.4923    8104.6272    359.64329    597.54667    926.50969   -2575.9261 
25730000    262.73933   -3827.3488   -3377.0225   -3827.3488            0    8260.5358    16.996677     20.01984    20.735906    7055.8224    8735.3394    7853.9224    8192.3457    461.14814    759.86913    860.68082   -2526.9974 
25731000    257.80355   -3850.1172   -3408.2507   -3850.1172            0    9561.5294    16.888368    19.892267     20.60377    6921.7938    8220.9372    9750.1773    10713.474    806.28833    64.321865   -1135.7835   -2443.0405 
25732000    263.62898   -3883.7603   -3431.9093   -3883.7603            0    7238.5442    16.943149    19.956791    20.670602    6989.3687    8158.9415    7806.3896    5750.3016    35.617795    571.18315     1358.675   -2694.0644 
25733000    262.97835   -3892.7336   -3441.9978   -3892.7336            0    7478.9514     16.98092    20.001281    20.716683    7036.2173    8774.2448    7120.7438    6541.8655   -483.65376    228.50288    326.43068   -2674.5376 
25734000     265.5227   -3845.3368     -3390.24   -3845.3368            0    7170.7881    16.989932    20.011895    20.727677    7047.4253     6289.057    8420.7201    6802.5872   -47.377242    88.245076    31.336119   -2653.2302 
25735000    261.97944    -3884.902   -3435.8782    -3884.902            0    7609.0096    16.990129    20.012128    20.727918    7047.6713    9337.1921    6591.4055    6898.4313   -1029.6646   -531.03206   -281.64409   -2653.8009 
25736000    252.25442   -3835.0279   -3402.6725   -3835.0279            0    9289.5655    16.929503    19.940718    20.653954    6972.4947    7731.7754     8712.538    11424.383   -692.65514   -856.32677   -484.48805   -2458.0474 
25737000    260.31878   -3854.1918   -3408.0143   -3854.1918            0    7827.3586    17.003522    20.027903    20.744258    7064.3511    8901.8078    6722.4399    7857.8281    1140.8373     -732.806   -836.13849   -2601.5904 
25738000    262.24756   -3837.8278   -3388.3444   -3837.8278            0    6535.8367    16.975217    19.994563    20.709725    7029.1298    6554.4272    5589.5212    7463.5616    413.44599   -27.500481    703.50036   -2718.3385 
25739000    261.16591   -3854.2943   -3406.6648   -3854.2943            0     7483.389    17.006602    20.031531    20.748015    7068.1908    7104.8051    8616.0773    6729.2845    843.12126     499.2839   -2275.2134   -2635.2598 
25740000    259.18679   -3839.7069   -3395.4696   -3839.7069            0    8547.8592    16.980424    20.000697    20.716078    7035.6012    9316.3079     8989.718    7337.5519    525.56491     971.8668   -410.16391   -2518.3992 
25741000     242.4237    -3862.345    -3446.839    -3862.345            0    6783.3877     17.03428    20.064132    20.781782    7102.7572    7952.6943    5550.2768     6847.192    161.40722   -39.340227   -402.56056   -2744.1721 
25742000    250.01662   -3822.3151   -3393.7952   -3822.3151            0    8340.3691     17.01924    20.046417    20.763434    7083.9602    7816.0439    8741.3811    8463.6824   -706.13251    285.39737   -1802.3995   -2532.1325 
25743000    270.36455   -3846.9492   -3383.5537   -3846.9492            0    8844.9324    16.982926    20.003644     20.71913    7038.7114    7726.5765    8689.9212      10118.3   -200.57187    769.82791   -93.572605   -2475.6002 
25744000    255.08911    -3846.382    -3409.168    -3846.382            0    8572.2907    17.038975    20.069662     20.78751    7108.6311    10726.579    7766.1917    7224.1016    1310.2065    1045.6453    1198.0148   -2520.4606 
25745000    268.84996   -3841.1076    -3380.308   -3841.1076            0    7939.6153    17.041948    20.073164    20.791137    7112.3532    8711.9207    6648.0448    8458.8805   -2416.6277   -352.07397    770.98055   -2556.7605 
25746000    251.74439   -3846.9848   -3415.5035   -3846.9848            0     4174.758    17.104787     20.14718      20.8678    7191.3196     3958.077    4514.9574    4051.2397     174.7967    1345.0245     -905.683   -2977.6631 
25747000    254.64942   -3850.7028   -3414.2424   -3850.7028            0    7773.7567    17.019473    20.046691    20.763717    7084.2501    6618.5831    9002.6868    7700.0002   -20.953826   -1021.8011   -1391.9735   -2611.0849 
25748000    277.76962   -3871.8598   -3395.7722   -3871.8598            0    7504.2749    17.026502    20.054971    20.772293    7093.0318    5701.5757    8343.0898     8468.159     393.3593   -1214.5837    1159.8648   -2619.4955 
25749000    257.50717   -3887.1266   -3445.7681   -3887.1266            0     7345.347    17.013508    20.039666    20.756441    7076.8051    6776.8676    8399.2037    6859.9696    1377.4626    43.269858   -124.32249     -2687.67 
25750000    280.08493   -3866.9512   -3386.8952   -3866.9512            0    8741.4342    17.023229    20.051115      20.7683     7088.942    10418.062    7700.2643    8105.9765   -1331.1552    533.83415   -563.67996   -2483.1625 
Loop time of 336.184 on 64 procs for 250000 steps with 864 atoms

Performance: 128.501 ns/day, 0.187 hours/ns, 743.641 timesteps/s
194.5% CPU use with 32 MPI tasks x 2 OpenMP threads

MPI task timing breakdown:
Section |  min time  |  avg time  |  max time  |%varavg| %total
---------------------------------------------------------------
Pair    | 26.43      | 33.055     | 40.112     |  56.4 |  9.83
Bond    | 0.81058    | 1.1154     | 1.572      |  17.5 |  0.33
Kspace  | 146.82     | 154.07     | 161.49     |  31.4 | 45.83
Neigh   | 3.4158     | 3.9606     | 4.3207     |  13.8 |  1.18
Comm    | 64.137     | 69.222     | 74.507     |  31.7 | 20.59
Output  | 0.48954    | 0.48991    | 0.49141    |   0.0 |  0.15
Modify  | 62.045     | 65.553     | 67.794     |  18.4 | 19.50
Other   |            | 8.722      |            |       |  2.59

Nlocal:        27.0000 ave          35 max          21 min
Histogram: 3 4 3 3 3 9 4 2 0 1
Nghost:        2598.44 ave        2636 max        2555 min
Histogram: 2 2 0 5 4 5 6 2 4 2
Neighs:        8695.56 ave       11408 max        6324 min
Histogram: 4 0 5 4 6 3 2 5 2 1

Total # of neighbors = 278258
Ave neighs/atom = 322.05787
Ave special neighs/atom = 2.0000000
Neighbor list builds = 13964
Dangerous builds = 1

unfix		3
unfix		2
unfix		1

write_data	data.final.${pid}
write_data	data.final.1
System init for write_data ...
PPPM initialization ...
  extracting TIP4P info from pair style
  using 12-bit tables for long-range coulomb (../kspace.cpp:340)
  G vector (1/distance) = 0.37402739
  grid = 24 24 24
  stencil order = 5
  estimated absolute RMS force accuracy = 0.0031878282
  estimated relative force accuracy = 9.6000499e-06
  using double precision FFTW3
  3d grid and FFT values/proc = 3549 432
Last active /omp style is kspace_style pppm/tip4p/omp
WARNING: Not all mixed pair coeffs generated from mixing. Use write_data with 'pair ij' option to store all pair coeffs. (../write_data.cpp:312)

write_restart   restart.lmp.${pid}
write_restart   restart.lmp.1
System init for write_restart ...
PPPM initialization ...
  extracting TIP4P info from pair style
  using 12-bit tables for long-range coulomb (../kspace.cpp:340)
  G vector (1/distance) = 0.37402739
  grid = 24 24 24
  stencil order = 5
  estimated absolute RMS force accuracy = 0.0031878282
  estimated relative force accuracy = 9.6000499e-06
  using double precision FFTW3
  3d grid and FFT values/proc = 3549 432
Last active /omp style is kspace_style pppm/tip4p/omp
Total wall time: 0:05:36
