LAMMPS (30 Jul 2021)
  using 1 OpenMP thread(s) per MPI task
package omp 0
using multi-threaded neighbor list subroutines
echo both

include		in.partitions
variable        pid world 0
include		in.temp
variable        temperature equal 249.54
variable	tempDamp equal 100.0
include		in.pressure
variable        pressure equal 7000.0
variable        pressureDamp equal 1000.0 # This is 1 ps
include		in.seed
variable        seed world 745823

units		real
atom_style	full
box tilt large
read_restart	restart.lmp.${pid}
read_restart	restart.lmp.0
Reading restart file ...
  restart file = 30 Jul 2021, LAMMPS = 30 Jul 2021
  restoring atom style full from restart
  triclinic box = (-10.685541 -9.3122922 0.099553768) to (12.665541 12.302290 21.760445) with tilt (-9.0712500 1.9448151 2.7995338)
  4 by 4 by 4 MPI processor grid
  restoring pair style lj/cut/tip4p/long/omp from restart
  restoring bond style harmonic/omp from restart
  restoring angle style harmonic/omp from restart
  1296 atoms
  864 bonds
  432 angles
Finding 1-2 1-3 1-4 neighbors ...
  special bond factors lj:    0        0        0       
  special bond factors coul:  0        0        0       
     2 = max # of 1-2 neighbors
     1 = max # of 1-3 neighbors
     1 = max # of 1-4 neighbors
     2 = max # of special neighbors
  special bonds CPU = 1.532 seconds
  read_restart CPU = 1.902 seconds
include 	in.setup
variable	out_freq equal 1000
variable	out_freq2 equal 10000
variable	out_freq3 equal 1000

timestep	2.0

neigh_modify    delay 7 every 1

include		in.tip4p
# This is TIP4P/Ice

# create groups ###
group ox type 2
432 atoms in group ox
group hy type 1
864 atoms in group hy

# set charges - beside manually ###
set group ox charge -1.1794
Setting atom values ...
  432 settings made for charge
set group hy charge 0.5897
Setting atom values ...
  864 settings made for charge

# ### TIP3P Potential Parameters ###
pair_style lj/cut/tip4p/long/omp 2 1 1 1 0.1577 8.5
pair_coeff 1 1*2 0.000 0.000
pair_coeff 2 2 0.21084 3.1668
bond_style  harmonic
bond_coeff  1 450 0.9572
angle_style harmonic
angle_coeff 1 55 104.52
kspace_style pppm/tip4p/omp 1.0e-5
pair_modify tail yes

thermo          ${out_freq}
thermo          1000
thermo_style    custom step temp pe etotal epair emol press lx ly lz vol pxx pyy pzz pxy pxz pyz enthalpy

restart 	${out_freq3} restart.lmp.${pid} restart2.lmp.${pid}
restart 	1000 restart.lmp.${pid} restart2.lmp.${pid}
restart 	1000 restart.lmp.0 restart2.lmp.${pid}
restart 	1000 restart.lmp.0 restart2.lmp.0


include         in.dump
dump            myDump all atom ${out_freq2} dump.water.${pid}
dump            myDump all atom 10000 dump.water.${pid}
dump            myDump all atom 10000 dump.water.0
dump            myDump2 all dcd ${out_freq2} dump.dcd
dump            myDump2 all dcd 10000 dump.dcd
dump_modify     myDump append yes
dump_modify     myDump2 append yes


variable natoms 	equal  "count(all)"                        # NUMBER ATOMS
variable H      	equal  "enthalpy/v_natoms"                 # ENTHALPY-per-atom
variable Vol      	equal  "vol/v_natoms"                 # volume-per-atom
fix AVG all 		ave/time ${out_freq} 1 ${out_freq} v_Vol v_H file vol_enthalpy.dat
fix AVG all 		ave/time 1000 1 ${out_freq} v_Vol v_H file vol_enthalpy.dat
fix AVG all 		ave/time 1000 1 1000 v_Vol v_H file vol_enthalpy.dat


timer           timeout 10:00:00 every 1000
New timer settings: style=normal  mode=nosync  timeout=10:00:00

fix 		1 all shake 1e-6 200 0 b 1 a 1
       0 = # of size 2 clusters
       0 = # of size 3 clusters
       0 = # of size 4 clusters
     432 = # of frozen angles
  find clusters CPU = 0.004 seconds
fix             2 all nph tri ${pressure} ${pressure} ${pressureDamp}
fix             2 all nph tri 7000 ${pressure} ${pressureDamp}
fix             2 all nph tri 7000 7000 ${pressureDamp}
fix             2 all nph tri 7000 7000 1000
fix             3 all temp/csvr ${temperature} ${temperature} ${tempDamp} ${seed}
fix             3 all temp/csvr 249.54 ${temperature} ${tempDamp} ${seed}
fix             3 all temp/csvr 249.54 249.54 ${tempDamp} ${seed}
fix             3 all temp/csvr 249.54 249.54 100 ${seed}
fix             3 all temp/csvr 249.54 249.54 100 745823


run             250000
PPPM initialization ...
  extracting TIP4P info from pair style
  using 12-bit tables for long-range coulomb (../kspace.cpp:340)
  G vector (1/distance) = 0.36803638
  grid = 30 40 32
  stencil order = 5
  estimated absolute RMS force accuracy = 0.0043306076
  estimated relative force accuracy = 1.3041496e-05
  using double precision FFTW3
  3d grid and FFT values/proc = 5168 640
Last active /omp style is kspace_style pppm/tip4p/omp
Neighbor list info ...
  update every 1 steps, delay 7 steps, check yes
  max neighbors/atom: 2000, page size: 100000
  master list distance cutoff = 10.8154
  ghost atom cutoff = 10.8154
  binsize = 5.4077, bins = 7 5 5
  1 neighbor lists, perpetual/occasional/extra = 1 0 0
  (1) pair lj/cut/tip4p/long/omp, perpetual
      attributes: half, newton on, omp
      pair build: half/bin/newton/tri/omp
      stencil: half/bin/3d/tri
      bin: standard
Per MPI rank memory allocation (min/avg/max) = 9.433 | 9.440 | 9.445 Mbytes
Step Temp PotEng TotEng E_pair E_mol Press Lx Ly Lz Volume Pxx Pyy Pzz Pxy Pxz Pyz Enthalpy 
24000000    252.99363    -6296.298   -5645.4873    -6296.298            0    5704.6188    23.351083    21.614582    21.660891     10932.77    4551.6442    5878.1664    6684.0457   -237.97682    783.80742    88.701036   -4735.9245 
24001000    241.46347   -6317.6074   -5696.4573   -6317.6074            0    4994.6017    23.436577    21.380803    21.763183    10905.375    5166.2016     5068.158    4749.4453   -687.02612   -552.35341    255.01248   -4902.0973 
24002000    249.56066   -6334.2334   -5692.2538   -6334.2334            0    6889.9081     23.33004    21.422115    21.733822    10862.103    7476.5323    6118.0386    7075.1535    25.666917   -667.79924    452.29738   -4600.8053 
24003000    245.41258   -6320.8545   -5689.5456   -6320.8545            0     6054.737    23.384245    21.516884    21.570948    10853.554    5012.5473    6785.9069    6365.7568    1128.5189    129.69299    13.677877   -4731.1537 
24004000    243.30516   -6354.4579   -5728.5703   -6354.4579            0    4830.7282    23.457984    21.311386    21.778413    10887.511    5210.6797    5088.2379     4193.267    172.76181   -534.28555   -45.466283   -4961.5319 
24005000    241.24647   -6322.2727   -5701.6808   -6322.2727            0    6150.5382    23.281095    21.483701     21.77148    10889.312     6197.957    6092.5527     6161.105    1586.8421    403.65108   -745.34927   -4724.9172 
24006000    260.92755   -6348.6193   -5677.3991   -6348.6193            0    5259.9366      23.4256    21.426152    21.645059    10864.098    4495.6104    6577.3877    4706.8118    868.67214   -315.10583   -2050.5105   -4844.0056 
24007000    249.72024   -6357.9576   -5715.5675   -6357.9576            0    6264.4711     23.40663    21.473912    21.616208    10864.996    5234.1027     6669.566    6889.7447    540.59833   -608.90874   -523.17466   -4722.9318 
24008000     242.8905   -6311.8361   -5687.0151   -6311.8361            0    7031.7626    23.258454    21.681796    21.546058    10865.355    7617.5903     6598.163    6879.5346    480.16147   -955.23933   -1149.6035   -4572.7616 
24009000     260.9707   -6314.6832    -5643.352   -6314.6832            0    7292.2442    23.338261     21.39432    21.639707     10804.84    7092.2315    7880.1403    6904.3607    -659.4947    -123.8821   -22.546013   -4494.2583 
24010000    246.00967   -6302.1011   -5669.2562   -6302.1011            0    8185.6468    23.333754    21.386921    21.593118    10775.768    6741.7325     8254.603    9560.6049     183.3687   -1075.9612    934.90323    -4382.853 
24011000    252.95172   -6342.3424   -5691.6395   -6342.3424            0    7253.7011    22.999737    21.447619    21.909714    10807.834    7755.2466     7097.162    6908.6947    426.54407    1170.6953    509.28364   -4548.3026 
24012000    251.89957   -6298.7441   -5650.7478   -6298.7441            0    6943.5127    23.495007    21.328608    21.615829    10832.034     6142.086    8361.7047    6326.7472   -81.895498    529.03805   -748.04873   -4553.8527 
24013000    244.19076   -6286.7117   -5658.5459   -6286.7117            0    8130.1268    23.232173    21.506229    21.611621    10797.953    8156.7399     6763.514    9470.1266    141.87615    459.50652   -751.21239   -4378.2373 
24014000    242.44816   -6344.0838   -5720.4007   -6344.0838            0    6859.1266    23.299483    21.325534    21.799047    10831.378    7942.5349    7543.8839    5090.9611   -1165.1633    496.23705   -1465.8968   -4636.9019 
24015000    264.14892   -6362.4861   -5682.9791   -6362.4861            0    7615.9963    23.401217    21.417656    21.467815    10759.652    7109.7879    7471.5983    8266.6026   -1252.8179    1157.6585    8.3273434   -4487.8885 
24016000    247.15148   -6322.8035   -5687.0213   -6322.8035            0    7596.5162    23.274523     21.38981    21.678668    10792.457    7670.6037     6825.134    8293.8108   -48.937285    536.80364    1099.4278   -4491.3532 
24017000     249.1135   -6326.7173    -5685.888   -6326.7173            0    7527.7474    23.291991    21.348057     21.70091    10790.533    6729.2725    8334.7289    7519.2407    1383.5942   -530.54585    284.17362    -4501.255 
24018000    245.94913   -6349.8811    -5717.192   -6349.8811            0    8526.3575    23.103528    21.476902    21.643665    10739.418    9056.8747    8085.6093    8436.5887    434.46369   -752.79177   -457.17199   -4381.7649 
24019000      252.832   -6332.3898   -5681.9949   -6332.3898            0    8550.0167    23.333538    21.396331    21.485157     10726.51    8746.2438    8686.2007    8217.6054   -1129.5071   -473.13776    278.63993   -4344.4718 
24020000     245.9195   -6339.7275   -5707.1145   -6339.7275            0    6420.0704    23.261546    21.448427     21.67065    10811.998    6287.9499    6152.2432    6820.0182   -544.62141   -336.40871   -423.40631   -4694.7856 
24021000    251.81601   -6375.1795   -5727.3982   -6375.1795            0    5979.7739    23.159453    21.481891    21.831047    10861.139     7047.804    4941.6303    5949.8872    139.93964   -1024.4904   -210.99259   -4780.2105 
24022000    256.01413   -6344.6411   -5686.0603   -6344.6411            0    5862.8648    23.537011    21.349722    21.625477    10866.989    4279.2521    6666.3769    6642.9653    654.66398      679.702    192.06491   -4756.8907 
24023000    245.30428   -6338.7261   -5707.6958   -6338.7261            0     5756.563    23.340896    21.541225    21.644295    10882.567    5724.3799    5498.0442    6047.2648    1091.8084    370.12572   -149.18695   -4794.0655 
24024000    260.77808   -6295.7263   -5624.8906   -6295.7263            0    5776.7529     23.40964    21.481169    21.771874    10948.344    5169.0145    5442.7544    6718.4898    526.06875    377.18493   -1141.9363   -4702.5143 
24025000    260.50719   -6326.9969    -5656.858   -6326.9969            0    4849.4023     23.54308     21.46194    21.643764    10936.165    3608.7657    5566.8997    5372.5416    1581.9828    218.48304   -1086.0937   -4883.4135 
24026000    258.77182   -6323.2162   -5657.5415   -6323.2162            0    5550.0495    23.237896    21.604457    21.727628    10908.185    6511.9723    4439.3278    5698.8484    812.19835    518.01097    611.41357   -4774.6136 
24027000    248.93194   -6314.0703    -5673.708   -6314.0703            0    5991.6701    23.261972    21.415785    21.899629    10909.812    6162.3531    6635.2397    5177.4175      434.209    -659.9545    217.94087   -4720.3828 
24028000    247.87287    -6358.852   -5721.2141    -6358.852            0    6365.1806    23.417338    21.506808    21.485047    10820.562    5643.8488    5885.2487    7566.4443    811.31836   -1656.5622    378.70761   -4716.7454 
24029000     244.4603   -6341.5624   -5712.7032   -6341.5624            0    4946.4475    23.422097    21.559876     21.52054    10867.388    3799.5032    4106.2837    6933.5557   -768.41798   -299.18257    -83.15925   -4928.7422 
24030000    256.96482   -6313.0631   -5652.0368   -6313.0631            0    5490.0605     23.43033    21.289221    21.898851    10923.442    6003.2111    6307.8353    4159.1352    338.15014    336.31586   -725.57713   -4777.4306 
24031000      247.172   -6299.0131   -5663.1782   -6299.0131            0    4155.6789    23.527877    21.455452    21.731622     10970.15    3396.5999    4538.5835    4531.8533    733.25432   -153.11447    208.16574   -4998.3179 
24032000    252.46544   -6321.2009   -5671.7489   -6321.2009            0    6189.8491    23.445447     21.43461    21.582667     10846.24    5431.6149    6486.3049    6651.6275     399.5317    663.47796    469.19049   -4692.6306 
24033000    238.39874   -6308.4243   -5695.1581   -6308.4243            0    5682.9068    23.338106    21.438279    21.757061    10885.685    7047.6357    4919.9534    5081.1312   -224.91694    816.75327    682.62644   -4792.9594 
24034000    249.36136   -6349.2514   -5707.7845   -6349.2514            0    6963.2449    23.283271    21.333212    21.805448    10830.918    6980.4589    7982.5239    5926.7519   -227.21348   -1062.2567   -47.076887   -4607.8854 
24035000    247.10071    -6349.904   -5714.2525    -6349.904            0    7575.1257    23.292314    21.529546    21.447264    10755.222    7165.0617    7506.1042    8054.2112   -362.79767    71.103234    8.4946164   -4526.0646 
24036000    249.39064   -6354.2344   -5712.6922   -6354.2344            0    7302.9591    23.281312     21.31391    21.749204    10792.299    8284.5704    7159.7158     6464.591    -454.4809   -172.75322   -170.40009   -4563.2458 
24037000    253.31105   -6338.0203    -5686.393   -6338.0203            0    7723.0908    23.119068    21.482348    21.722337     10788.44    8097.8002    7297.8711    7773.6011   -72.849716    56.975461    19.726216   -4471.2549 
24038000    250.21373   -6335.1594   -5691.4998   -6335.1594            0    6124.0916    23.464186    21.448831    21.499681    10820.346    7583.1268     5317.825    5471.3232   -1130.3292   -599.06913    -889.4094   -4725.0958 
24039000    248.38572   -6330.9654   -5692.0083   -6330.9654            0    7673.6277    23.336261    21.354765    21.697823    10812.901    8315.6005    8262.3668    6442.9159    92.908555    62.382146   -869.97577    -4481.915 
24040000    254.44893    -6355.452   -5700.8977    -6355.452            0    6899.1115    23.032758    21.434636    21.927214    10825.439    8682.5534    7387.4613    4627.3198    331.95265   -0.1709203    139.44571   -4611.6803 
24041000    247.43303   -6341.9322   -5705.4258   -6341.9322            0    7027.9507    23.389748    21.325926    21.643573    10795.988    7275.5064     7420.476    6387.8696   -599.28291    276.36439   -401.51493   -4598.8861 
24042000     247.8432   -6327.8736   -5690.3121   -6327.8736            0    8193.9852     23.37188    21.356383    21.580581    10771.705    7546.3939    8640.7074    8394.8543   -1309.1639    507.75537   -103.65957   -4403.0839 
24043000    258.51841   -6342.0578   -5677.0349   -6342.0578            0    7858.7612    23.036552    21.564471    21.752438    10805.982    9245.8141    8643.3544    5687.1151   -482.43151     477.3068    -773.0276     -4438.54 
24044000    252.31282   -6325.9939   -5676.9345   -6325.9939            0    8607.0459    23.350744    21.201919     21.68749    10737.055    7793.2309    8447.5805    9580.3262   -1490.7203   -119.83892    1038.4287   -4329.1664 
24045000    239.22829   -6365.6177   -5750.2175   -6365.6177            0    6379.0672    23.339385    21.427329    21.563363    10783.852    6116.1574    7453.0019    5568.0424   -1451.4292    698.66743    128.12727   -4746.9725 
24046000    256.55197   -6331.7689   -5671.8046   -6331.7689            0    8704.9149    23.199844    21.459059    21.573881    10740.488    9468.6838    8079.9412    8566.1196   -232.74531   -303.22065    812.55569   -4308.2754 
24047000    249.65859   -6348.5999   -5706.3684   -6348.5999            0    7875.8905    23.438013    21.302624    21.564091     10766.76    7667.6522     7676.623    8283.3963    113.50187   -1652.7271   0.22748026   -4469.6791 
24048000    251.51672   -6323.8352   -5676.8237   -6323.8352            0    7182.7356    23.386776    21.437587    21.578057    10818.289    6731.0021    6795.2037     8022.001   -1961.3814    532.95298    143.00913   -4543.5773 
24049000    256.33188   -6334.9197   -5675.5215   -6334.9197            0    6291.8448    23.333856    21.447531    21.685553    10852.613    5575.5018    8853.3902    4446.6423   -540.32355    70.672244   -768.94594   -4679.6846 
24050000    254.06789   -6335.1451    -5681.571   -6335.1451            0    8887.1384       23.145    21.431411    21.677649    10752.764    9310.5074    9068.7961    8282.1118    995.18775   -156.67363     1400.317   -4287.9074 
24051000    252.22429   -6313.9709   -5665.1393   -6313.9709            0    6881.8419    23.334777    21.512276    21.587137    10836.401    6571.7096    6746.2161    7327.5999    1070.0743   -1146.5652    32.711731   -4577.5482 
24052000    243.49505   -6341.2482    -5714.872   -6341.2482            0    7188.0992    23.367018    21.470152     21.49676    10784.784    7412.1578    6522.7838     7629.356   -633.92893   -1127.9707     115.8935   -4584.2918 
24053000    257.17794   -6371.7784   -5710.2038   -6371.7784            0    6462.9288    23.172822     21.51898    21.682253    10811.975    7011.9549    6984.3984     5392.433    593.48506    374.55957   -564.62129   -4691.1191 
24054000    258.24353   -6339.8601   -5675.5443   -6339.8601            0    7345.4971    23.389908    21.362782    21.661957    10823.906     6895.584    8473.9477    6666.9597    466.68025    939.92727   -370.35895   -4516.0167 
24055000    252.83583   -6330.1449   -5679.7401   -6330.1449            0    7207.3626     23.27472    21.440681    21.668549    10813.166    6895.1852    6932.3591    7794.5433    1057.2845   -485.39465    557.17836   -4543.1467 
24056000    256.92295    -6315.678   -5654.7594    -6315.678            0    6922.1629    23.513139    21.378149    21.579941    10847.533    5984.9608    7736.9325    7044.5956    1574.2789   -257.48324   -605.38297   -4559.6723 
24057000    246.61967   -6330.2141      -5695.8   -6330.2141            0    6654.2558    23.279895    21.524603    21.655697    10851.464    5959.0188    7677.8289    6325.9198   -528.96947   -138.57155   -1332.6925   -4642.7143 
24058000    248.63927   -6335.9315   -5696.3221   -6335.9315            0    7769.3122    23.251049    21.489194     21.62253    10803.618    8726.6734    7907.5341    6673.7291   -553.74188    20.711269    658.99809   -4472.1918 
24059000    255.08677   -6342.3916   -5686.1965   -6342.3916            0    7722.8263    23.271084    21.358904    21.672654    10772.281    8035.4974     6528.169    8604.8124      770.386   -1159.7607    777.43567   -4472.9199 
24060000    240.26861   -6336.4492   -5718.3728   -6336.4492            0    6668.8646    23.366123    21.429948    21.591896    10811.814    7555.5604    6117.1947    6333.8387    -749.9956   -463.50109    1525.4382   -4666.8315 
24061000      251.083   -6344.1611   -5698.2654   -6344.1611            0    4713.1155    23.359264    21.515672    21.682697    10897.513    5763.7817    3027.7129    5347.8519   -522.31634   -117.77661    64.231751   -4949.2145 
24062000    246.54473   -6304.1643    -5669.943   -6304.1643            0    6374.7662    23.336462    21.438109    21.739549    10876.071    6814.1519    6425.7695    5884.3772     33.88066   -157.26996   -1858.3461   -4658.8009 
24063000    261.24009    -6316.065   -5644.0408    -6316.065            0    6951.5099    23.302928    21.338874    21.825106    10852.714    7642.5277    9096.9981     4115.004    1428.0687    274.18089   -317.97935   -4543.7857 
24064000    247.49408   -6338.0506   -5701.3871   -6338.0506            0    6922.7595    23.321866    21.430192    21.618597    10804.804    6592.7877    6646.7014    7528.7895    770.50261    908.03316    206.31045   -4610.5196 
24065000     235.1034   -6353.3747   -5748.5855   -6353.3747            0    5458.2298    23.518723    21.255128    21.817708    10906.529    4817.7152    4863.2407    6693.7335      698.038   -178.20648    307.21013   -4880.3965 
24066000     255.8629   -6315.7761   -5657.5844   -6315.7761            0    7393.9173     23.31958    21.541067    21.503735    10801.942    7862.7952    7188.9568         7130   -838.66501   -354.31085   -1760.0527   -4492.7818 
24067000    241.25747   -6355.7699   -5735.1497   -6355.7699            0    7226.1607    23.278523    21.476995    21.565618    10781.789    7552.9544    6171.8896     7953.638    -250.8203    43.796821    1208.5892   -4598.8986 
24068000    244.22984   -6347.7609   -5719.4945   -6347.7609            0    5753.7799    23.345439    21.386718    21.721092    10844.957    6799.9278     5252.163     5209.249   -298.05846   -930.08389    520.82595   -4809.4618 
24069000    234.89147   -6344.6582   -5740.4142   -6344.6582            0    7946.9823     23.06184     21.58432      21.6473    10775.466    9353.7505    7808.2176    6678.9788   -102.42539   -102.74707   -687.16661   -4491.5529 
24070000    257.11696   -6357.0323   -5695.6146   -6357.0323            0    8098.3224    23.419144    21.368673    21.508678    10763.717    7722.2607    7712.0509    8860.6556    681.42375   -865.57197   -116.58224   -4424.3579 
24071000    258.12292   -6346.3426   -5682.3371   -6346.3426            0    7040.5682    23.332699    21.417983    21.656503    10822.607    7281.5259    6967.6475    6872.5311    -439.7894   -124.85188    44.410999   -4571.0776 
24072000    258.48996   -6294.0677    -5629.118   -6294.0677            0    5718.0973    23.255313    21.596025    21.654814    10875.531    4941.6315    6461.8571    5750.8032   -282.27043    1586.9655   -53.761204   -4722.1794 
24073000    247.98938   -6361.2266    -5723.289   -6361.2266            0    6227.6108    23.534655    21.154927    21.749009    10828.264    6426.9024    7362.7175    4893.2125   -134.06671   -387.05784     94.97059   -4739.8302 
24074000    262.68436    -6366.465   -5690.7255    -6366.465            0    8932.5889    23.128786    21.439915    21.608184    10715.049    7654.2532    10626.314    8517.1999   -138.22574    571.37644   -466.59365   -4294.8477 
24075000    257.40527   -6344.3365   -5682.1771   -6344.3365            0     7837.961    23.233758    21.384706    21.679532    10771.413    7052.1884     7972.285    8489.4095    105.82861    421.53887     502.3755   -4450.9117 
24076000    248.27758    -6330.456    -5691.777    -6330.456            0    9035.4101    23.364021    21.170707     21.71596    10741.427    8325.4493    10283.408    8497.3735   -384.72613   -1424.2341    1074.7646   -4276.3557 
24077000    252.39662   -6355.2095   -5705.9346   -6355.2095            0    9187.5799    23.152731    21.485505    21.530478    10710.296    10271.526    7224.5095    10066.704   0.17463884    137.84651    -943.7054   -4270.8468 
24078000    257.30822   -6305.3148   -5643.4051   -6305.3148            0    9042.9503    23.375369    21.315514    21.629173    10776.909    8828.9954    8878.3739    9421.4817   -317.27623   -45.225546   -291.37203   -4222.1232 
24079000    252.46794   -6355.3947   -5705.9363   -6355.3947            0    8771.5105     23.21118    21.439975    21.518326    10708.533    9409.4751     8525.226    8379.8303   -333.57259    376.76871    1004.2664   -4336.0635 
24080000    264.24747   -6332.0937   -5652.3332   -6332.0937            0    7818.8081    23.209943    21.425508    21.639696    10761.092    9518.5135     6503.343    7434.5679    692.54922    367.03966    886.64235   -4425.2534 
24081000    244.32372    -6333.173   -5704.6651    -6333.173            0    7870.7642    23.381584    21.288126    21.617389    10760.058    7493.4235     8567.558    7551.3111    739.92755    205.69895   -1124.5568   -4469.5501 
24082000    250.19356   -6354.3997    -5710.792   -6354.3997            0    6272.5443    23.310962    21.559955    21.536693    10823.982    6506.1558     5502.201     6809.276    87.172878    335.19475   -166.60754   -4720.6291 
24083000    258.52215   -6360.8474   -5695.8149   -6360.8474            0    5862.3085       23.533    21.423515    21.516286    10847.641    5323.3431    6638.0636    5625.5189     382.0177   -184.34579   -1328.4487   -4768.3876 
24084000    260.64503   -6315.3557   -5644.8623   -6315.3557            0    5812.1777    23.298772    21.385359    21.811999    10867.885     7035.936    4308.7039    6091.8931     666.7968   -612.29616    1522.8917   -4723.6498 
24085000    247.88421   -6347.0424   -5709.3754   -6347.0424            0    6752.1617    23.067045    21.590944    21.745961    10830.343    8347.9109    5797.6479    6110.9263    359.15685   -646.65585    1019.7746   -4642.8752 
24086000    247.03992   -6343.1894   -5707.6942   -6343.1894            0    6763.2109     23.39076    21.503244    21.540823    10834.543    5722.9621    6447.3737    8119.2968    772.21112   -136.79298    540.55199   -4639.0346 
24087000    244.66071    -6352.943   -5723.5682    -6352.943            0    6368.3849    23.441379    21.297949    21.687078    10827.345    5686.4716    5969.5495    7449.1334   -1266.4135      963.651    357.28193   -4717.9638 
24088000    242.73557   -6308.8274   -5684.4049   -6308.8274            0    6007.9557    23.151547    21.611936     21.72662    10870.909    6420.4875     4963.335    6640.0446    94.234713     689.5597   -360.97565   -4731.8973 
24089000    237.80312   -6350.2459   -5738.5119   -6350.2459            0    7327.8627     23.45016    21.195824    21.767534    10819.454    7705.8662    7115.9343    7161.7875   -985.80942    1818.5938   -434.04334   -4582.2437 
24090000    246.32792   -6349.0479   -5715.3843   -6349.0479            0    7024.4918    23.424393    21.357012    21.612589    10812.239    5936.2943    6086.6898    9050.4914   -1173.8706    1262.0773    615.73224   -4607.7244 
24091000    247.75043   -6365.0538   -5727.7309   -6365.0538            0    6558.4416    23.248963    21.471315    21.623415    10794.102    6959.3967    6533.3788    6182.5494    -897.7582    809.41519   -1566.4289    -4695.295 
24092000    258.15671   -6356.4869   -5692.3945   -6356.4869            0    7826.7436    23.381156    21.182504    21.722023    10758.297    6987.7888    8673.7917    7818.6503   -1033.3726    416.59638   -795.93356   -4464.3884 
24093000    259.04617   -6358.1474   -5691.7669   -6358.1474            0    7599.9831    23.203548    21.542563    21.489385    10741.768    7081.5927    7616.4754    8101.8814   -486.77888    414.06632   -138.42447   -4501.1713 
24094000    246.40395   -6319.1096   -5685.2504   -6319.1096            0    6620.9526    23.316284    21.519333    21.557353    10816.421    6541.6063    5553.4604    7767.7909   -891.31228   -824.21177     215.7929    -4640.819 
24095000    246.21792   -6368.2355   -5734.8549   -6368.2355            0    6342.7202    23.275649    21.385655    21.745127    10823.963      6978.95    6305.1996    5744.0111   -512.85794   -173.65256   -325.10436   -4733.6159 
24096000    244.13176   -6294.0998   -5666.0858   -6294.0998            0    5607.2519    23.224564    21.485355    21.884167    10919.937    6418.1546    5754.8837    4648.7173   -392.58514   -961.73588     368.5324   -4773.0969 
24097000    248.82216   -6334.1633   -5694.0835   -6334.1633            0    6579.0986    23.326485    21.550484    21.529341    10822.736    5839.6422    6101.4274    7796.2264    349.29587    1309.5349    207.58967   -4655.6484 
24098000    238.41702   -6346.4258   -5733.1125   -6346.4258            0    7014.1249    23.411157    21.358752    21.591339    10796.384    6237.9773     7382.573    7421.8243    1049.6497    22.992762    758.35615   -4628.7092 
24099000    251.42526   -6339.9243   -5693.1481   -6339.9243            0    5615.9841     23.34692    21.442128    21.690892    10858.626    4915.2299    6442.1726    5490.5498    526.39831    -327.8327   -1358.9557   -4803.7901 
24100000    242.09437    -6344.049   -5721.2759    -6344.049            0    5734.3882    23.302972    21.377932    21.746722     10833.55    6167.5187    5521.0735    5514.5725      877.007   -955.18093    259.95651   -4815.2643 
24101000     247.2627   -6359.3518   -5723.2836   -6359.3518            0    7309.1979    23.399088    21.237264     21.70277    10784.814    8096.3769    7111.8954    6719.3214   -166.76598   -864.56224    1355.4954   -4573.6531 
24102000    249.84762   -6340.4632   -5697.7454   -6340.4632            0    5707.8617    23.201673    21.587269    21.669835     10853.57     6224.312    5332.0415    5567.2315    341.33698   -135.32609    342.87352   -4794.2583 
24103000     244.3447   -6293.4953   -5664.9334   -6293.4953            0    6766.4533    23.222863    21.558217    21.567626    10797.692    6661.2566    6827.1853    6810.9178   -511.49089   -1193.7958    551.28351    -4599.398 
24104000    252.12486   -6344.0876   -5695.5117   -6344.0876            0    6001.1266    23.323583    21.443853     21.70284    10854.621    6559.2435     5137.749    6306.3873   -388.36873    -937.1086   -236.83412   -4745.5123 
24105000     255.0883   -6338.8761    -5682.677   -6338.8761            0    6733.8409    23.340186    21.534803    21.541572    10827.361    5961.1759    7235.4869    7004.8599    201.03957   -521.36825    1033.0008   -4619.3634 
24106000    250.23859   -6353.8523   -5710.1288   -6353.8523            0    7746.9664    23.300981    21.399523    21.629823    10785.276    7304.6207     7282.188    8654.0907    2658.8516   -250.88182   -314.47439   -4491.5915 
24107000    246.64558   -6346.2699   -5711.7892   -6346.2699            0    6581.4237    23.385537    21.367811    21.663492    10825.198    7168.2099    6694.5868    5881.4746    783.02529   -469.87402   -693.63159   -4672.7509 
24108000    251.78205   -6356.9539   -5709.2599   -6356.9539            0    5485.4919    23.333717    21.513422    21.616075    10851.013    4941.5813    5976.8143    5538.0802    612.75738    1363.1044   -59.475769    -4841.176 
24109000    246.25395   -6350.0987   -5716.6254   -6350.0987            0    4584.4467    23.569001    21.256593     21.73495    10889.137     3047.092    6155.4382    4550.8099    1120.0237   -21.502063     659.4488   -4988.5837 
24110000    243.89085   -6335.2505   -5707.8561   -6335.2505            0    5753.4176    23.291303    21.501599    21.674186    10854.438    5804.6205    5958.7212    5496.9111    584.76616   -842.82178   -380.52892   -4797.0852 
24111000     252.6431   -6341.0164   -5691.1074   -6341.0164            0    5786.8767     23.29293    21.536466     21.69674    10884.113    6058.3572    5967.1946    5335.0783   -556.19373   -79.897563    -750.4103   -4772.5355 
24112000    240.35754   -6311.3607   -5693.0555   -6311.3607            0    6819.1957    23.529075    21.262441     21.72254    10867.473    6638.9479    7341.7703    6476.8689   -233.61257   -218.71592    149.38669   -4612.2747 
24113000    247.56186   -6322.7188    -5685.881   -6322.7188            0    7539.9876    23.189304    21.489174    21.624554    10775.926    7602.2432    8470.3494    6547.3701    393.14786   -476.26465    378.15292    -4500.928 
24114000    257.10309   -6347.3902   -5686.0081   -6347.3902            0    7109.6804     23.24812    21.332726    21.808737    10815.951    6707.8343    7759.9794    6861.2275   -899.71809   -835.50225    1289.7906   -4564.5303 
24115000    247.20259   -6318.6469   -5682.7333   -6318.6469            0    7180.0599    23.401398    21.472696    21.576821    10842.161    5917.8285    7613.1683    8009.1828   -170.42383    -204.7438   -184.50879   -4547.4094 
24116000    239.54538   -6351.2432   -5735.0273   -6351.2432            0    8287.9932    23.313077    21.493509    21.435686     10740.99    8152.4953    7521.7467    9189.7376    57.464694   -664.90926   -673.16686   -4436.7437 
24117000    242.40934   -6385.0293    -5761.446   -6385.0293            0    7256.0311    23.262295    21.388589    21.701966    10797.762     6416.985    7647.1676    7703.9406    1547.6591    363.65341    -185.2886   -4618.8077 
24118000    238.34551   -6332.2303    -5719.101   -6332.2303            0    8467.3006    23.304944    21.196646    21.761937    10750.107    9158.6078    8640.2826    7603.0114    2.1430604    880.56693    42.735218   -4391.6037 
24119000    250.84735    -6341.846   -5696.5565    -6341.846            0    7864.3332    23.317597    21.481068    21.478427    10758.262    7168.3888    6835.4266    9589.1842    300.90513    1514.1178    493.55536   -4462.6566 
24120000    243.75585   -6329.5257   -5702.4786   -6329.5257            0    5899.1567    23.377159    21.434385    21.663125    10854.851    5112.7457    6711.3885    5873.3358    442.07196    1128.4486   -136.64627   -4768.6016 
24121000    248.44378   -6347.4864   -5708.3799   -6347.4864            0    6691.4189    23.177071    21.355956    21.882323    10831.061    6917.2362    6966.4925    6190.5281    1319.1756    296.89461   -306.78352   -4651.4039 
24122000    260.57402   -6329.3659   -5659.0551   -6329.3659            0    5858.0519     23.31627    21.448461     21.77708    10890.676    7260.4598    5724.5863    4589.1097   -1230.3449    233.03612   -1014.2153   -4728.6246 
24123000     244.8228   -6345.7339   -5715.9422   -6345.7339            0    5456.3764     23.50832    21.369541    21.681053    10891.737    4608.0158    5958.3442    5802.7693   -676.97462    1334.8612    210.24169   -4849.2251 
24124000    236.48732   -6293.7476   -5685.3984   -6293.7476            0    6660.0663    23.222305    21.401206    21.802662    10835.603    8597.9983    5284.5565     6097.644   -2246.5413   -77.638242   -515.46691   -4632.9337 
24125000    245.79945   -6298.7159   -5666.4118   -6298.7159            0    7221.7755    23.295248    21.410694    21.724381    10835.414     6481.425    8944.2144    6239.6873   -836.50655    1379.4952   -490.09505   -4525.2023 
24126000    254.88442   -6350.4645   -5694.7899   -6350.4645            0    6710.6265    23.337044    21.481096    21.578882    10817.607    4933.6811    8244.9452    6953.2533   -443.91417    1163.9961   -74.844203   -4636.0966 
24127000    250.18128   -6342.4967   -5698.9206   -6342.4967            0    7585.6032    23.154992    21.466372    21.734174    10803.051    8995.5126    7327.6448    6433.6521   -527.24649    273.33266   -4.2741583   -4503.7981 
24128000    254.45914   -6347.6041   -5693.0234   -6347.6041            0    6949.7962     23.35785    21.257157     21.75251    10800.589    6190.8605    8594.9721    6063.5561   -1072.7516     655.4412   -827.50875   -4598.3228 
24129000     254.6049   -6305.8309   -5650.8753   -6305.8309            0    6245.0721    23.304891    21.464868    21.729959    10870.117    6263.0092    6451.7807    6020.4265   -1356.5276    521.92057    117.93106   -4660.8472 
24130000    236.24963   -6347.5775   -5739.8397   -6347.5775            0    6777.1782    23.259535    21.489885    21.604641    10798.966    6808.3416    6486.0294    7037.1636   -59.998552    1604.4115    310.19081   -4672.4894 
24131000    240.25903   -6343.7301   -5725.6784   -6343.7301            0    7254.2611    23.397044    21.198089    21.698398    10761.812    7393.7543    8810.4128    5558.6162   -411.62827    457.40411    -1302.211   -4587.1222 
24132000    258.30682   -6321.6572   -5657.1787   -6321.6572            0     6747.153    23.318421    21.498189     21.67251    10864.512    6532.0289    6215.3307    7494.0993    443.25469    1404.5838   -827.86879   -4588.1073 
24133000    252.90781   -6338.3219    -5687.732   -6338.3219            0     5628.318    23.258172    21.559516    21.672767    10867.483    6316.4998    4314.7721    6253.6822   -59.603375    752.27695    176.62683   -4795.6937 
24134000     235.5602   -6344.1375   -5738.1732   -6344.1375            0    5376.1902    23.375721    21.367847    21.792691    10885.206    4274.8159    5728.8534    6124.9013    -19.42948     531.9417    457.87532   -4884.7053 
24135000    237.91081   -6349.2029   -5737.1919   -6349.2029            0    5643.4549    23.077504    21.587354    21.774548    10847.694    6537.1248    4851.3776    5541.8623   -213.50943    348.59839    1031.7427   -4844.3833 
24136000    263.27853   -6352.5512   -5675.2832   -6352.5512            0    7017.1697    23.362724    21.326477       21.722    10822.869    5958.7331    7954.2462    7138.5299    820.87273    234.95661    864.95555     -4567.69 
24137000    240.71492   -6325.1638   -5705.9393   -6325.1638            0    7372.5364    23.389172    21.324371    21.655184    10800.727    6870.7589    8423.6035    6823.2467    746.61136   -346.17298   -117.47745   -4544.6357 
24138000    243.57202   -6354.4884   -5727.9142   -6354.4884            0    6979.3388    23.109049    21.597781    21.566731    10764.046    8026.8054    6261.3497    6649.8613   -801.83747   -1175.4275   -495.92552   -4632.2797 
24139000    250.16639   -6356.8348    -5713.297   -6356.8348            0    7045.5802     23.45719    21.123819    21.746943    10775.729    7184.6793    7189.3617    6762.6996  -0.46400018   -24.240307    901.99423   -4606.0633 
24140000    249.37288   -6340.0137   -5698.5172   -6340.0137            0    6759.1571    23.177982    21.481123    21.724663    10816.473    7901.4204    4843.6939     7532.357   -119.86996    724.01251    1195.4414   -4632.2793 
24141000    238.10416   -6331.5278   -5719.0194   -6331.5278            0    7046.9728    23.556228    21.393143    21.437523    10803.263    7012.3906    6033.0355    8095.4924    1484.7051    93.809873    -1124.076    -4608.737 
24142000    247.50271   -6332.7565   -5696.0709   -6332.7565            0    7386.6375    23.323126    21.513619    21.517347    10796.649    7332.5485    6503.3175    8324.0467    246.16232    -124.8825    -292.8865   -4532.9854 
24143000    249.24801   -6334.6259   -5693.4506   -6334.6259            0    6839.9528    23.244365    21.488755    21.631097     10804.57    5127.2305    7637.3901    7755.2378    1061.9169    906.11591    674.97729   -4615.6548 
24144000     252.9386    -6350.785   -5700.1158    -6350.785            0    7872.8891    23.425832    21.234828    21.648842    10769.076    7607.1348    7852.8254     8158.707     597.6162   -786.19485    646.90767   -4463.6319 
24145000    264.42575   -6333.1309   -5652.9118   -6333.1309            0    8448.0549    23.051459    21.605361    21.629103    10772.052    8762.7027    7960.7171     8620.745    792.87507   -197.86716    176.16459    -4325.728 
24146000    245.70083   -6335.5956   -5703.5452   -6335.5956            0    7130.3611    23.298853    21.476058    21.560515    10788.181    6189.2875    8091.9047    7109.8911    47.019429    112.33399    506.31426    -4581.693 
24147000    247.71279   -6360.6953   -5723.4692   -6360.6953            0    7181.7892    23.476824    21.370013    21.539415    10806.325    6277.4639    9542.0742    5725.8295    478.29567    -1436.095   -1524.2332   -4591.6252 
24148000    236.53613   -6335.7753   -5727.3005   -6335.7753            0    6985.9026    23.065069    21.632955    21.660045    10807.617    7847.5731    6303.9981    6806.1366   -310.38643   -292.69997      65.8295   -4626.1964 
24149000    245.56407   -6294.8794   -5663.1808   -6294.8794            0    7302.0636    23.449048    21.316602    21.678931    10836.301    8500.1956    6706.6276    6699.3675   -363.89993    -1129.775    -48.47851   -4509.1894 
24150000    247.54449   -6351.9085   -5715.1153   -6351.9085            0    6224.0568    23.185789    21.436197    21.824661    10847.187    6088.2496    6367.2927    6216.6279    1456.7789   -371.29205    896.85022   -4730.5001 
24151000    257.31275   -6333.7697   -5671.8483   -6333.7697            0    7244.1882    23.307331    21.450696    21.669387    10833.794    7110.6141    7577.8934    7044.0572    430.87358   -365.77471   -139.11423   -4527.2683 
24152000    242.92762   -6346.3331   -5721.4166   -6346.3331            0    7733.9154    23.477947    21.334554    21.525192    10781.786    6697.0906    7792.0797    8712.5759    721.71907   -450.75478    182.74818   -4505.3257 
24153000    247.21672   -6297.2689   -5661.3189   -6297.2689            0    6546.4058    23.285859    21.532015    21.613184    10836.666    5692.1253    6755.3825    7191.7097    962.17217   -348.52461   -610.27425   -4626.7141 
24154000    248.34405   -6336.4337   -5697.5838   -6336.4337            0    6662.5562    23.423524    21.161345    21.837404    10824.218    5392.9581    8862.2908    5732.4198    771.62612    860.15872   -578.28509   -4645.8319 
24155000    246.68569   -6358.9068   -5724.3229   -6358.9068            0    8538.4618    23.258324    21.377372    21.540416    10709.935    9018.3092     7810.524    8786.5522    268.09988     295.9055    160.43853   -4390.6714 
24156000    241.25179   -6363.2424   -5742.6369   -6363.2424            0    8702.2226    23.226185    21.468028    21.499563     10720.12    8021.2671    8013.7344    10071.666    -264.4472     -593.637    552.09786   -4382.1143 
24157000    239.95924   -6335.5437   -5718.2631   -6335.5437            0    6227.6467    23.415022     21.31569     21.70881    10835.026    6056.7507    8055.8135    4570.3761   -398.94986   -425.77925   -1622.3071   -4734.1844 
24158000    255.29586   -6373.8295   -5717.0965   -6373.8295            0    6193.5173    23.040915    21.806273    21.530616    10817.767    6871.6561     5051.798    6657.0978    292.74084   -438.60815   -215.69214   -4739.9699 
24159000     245.6993   -6321.9418   -5689.8953   -6321.9418            0    7986.8524    23.476459    21.224312    21.663538    10794.328    7062.8919    8313.4122     8584.253   -473.70766    565.96122    146.99789   -4432.5715 
24160000    245.01815   -6326.8217   -5696.5274   -6326.8217            0    7684.4255     23.17835    21.472853    21.638584    10769.638    8431.6781    8078.3452    6543.2531    421.23274   -102.52888   -898.23965   -4489.5799 
24161000    239.10725   -6339.8855   -5724.7967   -6339.8855            0    6552.4326    23.128998    21.497134    21.729372        10804      7055.82    6488.8748    6112.6031    788.02338   -1079.2641    84.143947    -4692.361 
24162000    245.59475   -6319.4321   -5687.6545   -6319.4321            0    7413.1051    23.606885    21.200148    21.549761    10784.997    6330.2667    9684.1056     6224.943    752.76766    349.99119   -488.31559   -4521.6612 
24163000    249.46656   -6328.8915    -5687.154   -6328.8915            0    7470.4161    23.005434    21.743126    21.529084    10769.064    7785.1939    6176.6989    8449.3554   -464.94402    1110.9911    310.86748   -4513.8822 
24164000    246.88118   -6357.3144   -5722.2276   -6357.3144            0    6891.5764    23.479104    21.225806    21.699727    10814.339    5653.9137    7956.2913    7064.5243    514.42716    205.43333   -255.72107   -4635.3154 
24165000    249.81835    -6334.799   -5692.1565    -6334.799            0    6636.8999    23.381798    21.407393    21.586226    10804.842    7033.8729    5626.6219    7250.2051   -181.23317    1037.7436    577.20456   -4646.3302 
24166000    252.48265   -6310.9016   -5661.4054   -6310.9016            0     6608.196    23.123159    21.638379     21.65189    10833.473    7648.3658    5835.9874    6340.2347   -120.40274     491.1906    956.57189   -4617.3429 
24167000     244.2302   -6340.1547   -5711.8874   -6340.1547            0    6049.5089      23.5364    21.320247    21.633012    10855.486    5201.3511    6256.3601    6690.8154    340.70421   -1011.8595   -838.13473   -4754.1526 
24168000    257.31205   -6336.3588   -5674.4392   -6336.3588            0     5374.215    23.298068       21.561    21.649515    10875.193    5490.7155    5120.0394    5511.8902   -252.89782   -617.51956   -98.400194   -4822.0697 
24169000    259.98742   -6312.7453   -5643.9435   -6312.7453            0    7260.3478     23.27967    21.357429     21.78885    10833.283     8333.526    8604.8604    4842.6568    939.42522   -1410.9174   -820.56925   -4496.8644 
24170000    240.86773   -6314.5381   -5694.9206   -6314.5381            0    7199.4643    23.419633    21.271112    21.651934    10786.162     6751.559    6357.1655    8489.6683    1271.2448    213.09572    1287.4467    -4562.408 
24171000    249.21188   -6332.8444   -5691.7621   -6332.8444            0    7692.7344    23.130608    21.575855    21.598593    10779.051    8460.5523    5689.1616    8928.4892    452.96461    804.30334   -238.29443   -4482.4534 
24172000    254.61633     -6342.46    -5687.475     -6342.46            0    7901.7144    23.404238    21.257416     21.63206    10762.244    6701.5531    9541.2774    7462.3126    725.66829    162.66483   -369.36413   -4447.2512 
24173000    248.98698   -6344.4832   -5703.9793   -6344.4832            0    7774.1152    23.279703    21.355904     21.61871    10747.938    6660.1123    8088.7252     8573.508    196.76124      1187.31   -611.95524    -4485.405 
24174000    244.04357   -6335.0464   -5707.2592   -6335.0464            0    8838.0567    23.239015    21.252837    21.701794    10718.407    9392.0792    9807.1577    7314.9332    680.00833    137.60532    214.03607   -4325.7209 
24175000    244.86669   -6320.7298   -5690.8252   -6320.7298            0    7307.4784     23.40058    21.390523    21.610284    10817.042    6743.0287    7311.2218    7868.1848    916.98062    210.54864   -703.30825   -4538.0306 
24176000    249.30213   -6361.0842   -5719.7697   -6361.0842            0    7219.2374    23.275496    21.431182    21.621172    10785.103    6517.8455    6992.7023    8147.1645    1530.1873   -445.36128    -618.6477   -4584.2583 
24177000    249.79712   -6293.9847   -5651.3968   -6293.9847            0    7305.0324    23.401871    21.475615    21.585926     10848.43    5963.5269    7322.1626    8629.4076   -149.33203   -195.44337   -923.81868   -4495.6441 
24178000    250.45689   -6328.0548   -5683.7697   -6328.0548            0    6665.0817    23.410804    21.354274    21.712858    10854.708    5260.1164    7164.7528    7570.3757   -833.35845    315.40153    1231.3765   -4628.6554 
24179000     240.1987   -6302.4247   -5684.5282   -6302.4247            0    7477.8123    23.192129    21.507972    21.660271    10804.482    7375.5525    6625.3306    8432.5538   -1457.0916    1390.6045    1238.3722   -4506.2322 
24180000    251.22907   -6333.4568   -5687.1853   -6333.4568            0    7264.5786    23.177265    21.454904    21.767996    10824.484    8608.8786     6641.592    6543.2654   -1987.9814   -454.55298   -484.38263   -4540.3698 
24181000    249.67231   -6344.1942   -5701.9274   -6344.1942            0    8113.2153    23.356775    21.393311     21.55872    10772.434    8515.2917    7776.0098    8048.3442   -1835.1096    223.92823   -845.52588   -4427.3015 
24182000    248.06847   -6311.9341    -5673.793   -6311.9341            0    7851.9137     23.31812    21.538746    21.465242    10780.768    7294.5561    6534.5327    9726.6523    153.83428    713.46384    97.517931   -4439.2645 
24183000    245.92164   -6353.5248   -5720.9064   -6353.5248            0    7895.9667    23.253348    21.308901    21.759871    10782.088    7730.7219    8530.6734    7426.5048      338.645    223.63609    1201.6955   -4479.2996 
24184000    249.56037    -6358.806   -5716.8271    -6358.806            0    7931.0604    23.086135    21.516015    21.669094    10763.507    9408.3327    7515.1651    6869.6833   -810.62897    80.454404   -200.56815   -4471.8512 
24185000    239.93313   -6290.6134   -5673.4001   -6290.6134            0     8438.694     23.33514    21.458797    21.528612    10780.324    8029.6259    8186.7469    9099.7092   -1593.8777    919.09953    -433.8544   -4346.6689 
24186000    256.53344   -6337.8482   -5677.9315   -6337.8482            0     5551.615    23.289532    21.491698    21.761617    10892.377     5863.573    5718.8559     5072.416   -1436.7625   -1522.7107    326.52264   -4796.0345 
24187000    243.29013   -6357.1633   -5731.3143   -6357.1633            0    6708.6805    23.149431    21.561926    21.704807    10833.874    8117.3973    5799.2849    6209.3592   -648.24427   -886.25945    832.50578   -4671.3364 
24188000    247.70736   -6306.3457   -5669.1336   -6306.3457            0    7617.2434    23.432954    21.379468     21.58694    10814.713    7752.3306    7183.0861    7916.3136   -677.07378   -1.6255223    172.53361   -4467.7306 
24189000    238.27093   -6349.1218   -5736.1844   -6349.1218            0    7165.3036    23.246424    21.346633    21.750279    10793.203    6058.8721    8722.9564    6714.0823    284.80802    1873.6922   -1791.2398   -4608.3097 
24190000    260.58808   -6309.3088   -5638.9619   -6309.3088            0    7037.1369    23.289823    21.378637    21.739271    10824.085    7266.0707    7162.5464    6682.7935    921.41592    689.51936   -833.23273   -4528.0923 
24191000    255.06767   -6320.1313   -5663.9853   -6320.1313            0    7569.1143    23.432012    21.315971     21.66004    10818.672    7384.2599    7875.1639     7447.919   -1433.2324   -154.14822   -696.23878   -4469.7363 
24192000    244.22789   -6314.9634   -5686.7021   -6314.9634            0    7406.3785    23.280199    21.490968    21.666835    10840.221    7551.5136    7634.0688    7033.5531   -891.71712   -531.45907     607.1534   -4515.8018 
24193000    247.17411   -6349.1299   -5713.2896   -6349.1299            0    7184.8683    23.229935    21.440398    21.702074    10808.914    7449.3946    7859.7689    6245.4414   -1354.8514    1416.1157    230.09358    -4580.689 
24194000    248.77666   -6337.0167   -5697.0539   -6337.0167            0     5909.763    23.362198    21.353822    21.705812    10828.426    5320.3969    6569.5714    5839.3207    620.58004    646.40541     667.8995   -4763.7753 
24195000    246.28079   -6308.7944   -5675.2521   -6308.7944            0    8368.4171    23.213215    21.426113    21.636309    10761.229    7927.1924    9975.7297    7202.3293   -861.54836    697.17463    -837.0691   -4361.9003 
24196000    248.75948   -6340.3538   -5700.4352   -6340.3538            0     7966.114    23.291429    21.411487    21.624652    10784.303    8566.3547    8018.3299    7313.6574   -698.35486    1025.0255   -1683.7127   -4447.5407 
24197000    252.00981   -6344.0446   -5695.7647   -6344.0446            0    5503.7605    23.480182    21.336644     21.69553    10869.206    5144.8116    6357.1545    5009.3153    1144.1241   -596.26317   -1242.5742   -4823.3294 
24198000    253.92591   -6333.6249    -5680.416   -6333.6249            0    6006.8493    23.179708    21.603231    21.689227    10861.023    6360.4858    6359.3897    5300.6725    1029.3236   -28.841719    201.48869   -4728.9497 
24199000    252.09059    -6320.764   -5672.2763    -6320.764            0    6377.2252     23.51214    21.266844    21.683542      10842.4    6110.7658    7158.0681    5862.8416    892.90534    981.27348    901.48412   -4663.8757 
24200000    251.31147   -6356.6793   -5710.1959   -6356.6793            0    7530.2982    23.227137    21.394906    21.753461    10810.217    8433.4182    7353.8104     6803.666    997.87107    86.044379   -282.94834   -4522.9998 
24201000    254.31691   -6344.0912   -5689.8765   -6344.0912            0    6016.2632    23.264903    21.590111    21.571303    10835.089    4905.7223    5306.3768    7836.6905    716.60376    571.86203   -410.35433   -4739.1946 
24202000    250.01683   -6331.1751    -5688.022   -6331.1751            0    8046.2313     23.61462    21.192877    21.527382    10773.631    5797.2009    9675.1694    8666.3236    276.89222   -468.63674   -832.99642   -4423.7792 
24203000     239.3858   -6361.4469   -5745.6415   -6361.4469            0    7292.6225     23.10879    21.401485    21.785184    10774.134    8062.6503    7891.0099    5924.2074    1454.6063   -1641.1625   -305.62521    -4599.754 
24204000    255.04857   -6366.6133   -5710.5164   -6366.6133            0    7004.7047    23.120879    21.367062    21.839799    10789.412    7895.7781      6516.42    6601.9159    381.08223    853.63618    1402.6596   -4608.3085 
24205000    256.77721   -6381.4461   -5720.9024   -6381.4461            0    6829.2593    23.522624    21.217489    21.594998     10777.87     6145.073    7819.0147    6523.6901   -12.045533   -1485.8153   -484.54261   -4647.4509 
24206000    240.42142   -6350.8645    -5732.395   -6350.8645            0    7687.2786    23.227435    21.462428    21.588628    10762.301    7406.3958    7943.3617    7712.0781    361.60562    338.02969     1092.655   -4525.8219 
24207000    242.97954   -6351.2088   -5726.1587   -6351.2088            0    7763.1701    23.249119    21.476177     21.58052    10775.201    7718.3987    8007.3278    7563.7837   -680.46026    564.58231   -752.92348   -4506.2134 
24208000    246.92178   -6329.0724   -5693.8812   -6329.0724            0    7491.1509    23.490543    21.096537    21.796648    10801.746    7177.9005    8905.2357    6390.3164   -174.78408    253.14623   -555.22042   -4513.7823 
24209000     240.9712   -6297.8208    -5677.937   -6297.8208            0    6728.2866    23.162369    21.599359    21.630975    10821.811    7973.2863    5191.4514    7020.1221    636.76598    1120.5648   -861.63196   -4616.0451 
24210000    239.24735   -6318.1959   -5702.7467   -6318.1959            0    7434.6206    23.370732    21.402259    21.621721    10814.893    6482.7578    7241.5956    8579.5083    500.89641    795.17223    1084.3326   -4530.1277 
24211000    254.01186   -6335.0227   -5681.5926   -6335.0227            0    7105.6546     23.42413    21.348289     21.67121    10837.015    6780.7437    7112.0144    7424.2056    -593.5298   -160.55365    -543.7619    -4558.567 
24212000    247.93609   -6361.5052   -5723.7047   -6361.5052            0    8103.8707    23.180093    21.375637    21.735742    10769.826    8693.0592    7795.5935    7822.9594    -306.4892    984.24797   -590.94676   -4450.8551 
24213000    250.78652    -6351.699   -5706.5659    -6351.699            0    6981.2351    23.175519    21.533288     21.62524     10791.97    7095.8218    5920.0785    7927.8049   -945.86888     47.48067    480.85517   -4607.7906 
24214000    256.95031   -6353.2193   -5692.2303   -6353.2193            0    8546.3111    23.253404    21.285127    21.693375    10737.172     8346.823    9080.1415    8211.9688    51.999845    -677.1556    318.09122    -4353.958 
24215000     245.0224    -6364.145   -5733.8398    -6364.145            0    8071.8421    23.191012    21.476077    21.566889    10741.431    7254.3638    8420.1589    8541.0037    -475.5856   -44.096734   -199.28881   -4469.3634 
24216000    253.60664   -6355.7939   -5703.4062   -6355.7939            0    6342.8415    23.315474    21.371355    21.683762    10804.656    5947.3782     5895.296    7185.8504    679.22167    -1178.598    352.01086   -4703.9341 
24217000    245.91698    -6328.468   -5695.8615    -6328.468            0    7658.7857    23.401444    21.278121    21.647305    10779.032    6182.9137    8827.5057    7965.9377   -282.29821    16.328752     1492.192   -4491.8918 
24218000    252.32259   -6319.7794   -5670.6949   -6319.7794            0    6460.9281    23.096649    21.551982    21.698348    10800.973    8172.0285    5818.7122    5392.0435   -602.17549    441.45733    771.22543   -4652.9624 
24219000    245.45976    -6338.466   -5707.0358    -6338.466            0    7795.3592    23.343173    21.228342    21.787429    10796.474    9215.2143    6790.6054    7380.2579   -1742.0422    112.57757    611.59871   -4479.6136 
24220000    236.35142   -6350.6682   -5742.6686   -6350.6682            0    7095.2481    23.379874    21.440744    21.585287    10820.313    6333.3059    7131.8829    7820.5555   -793.90134    559.23308    22.543778    -4623.016 
24221000    239.36917   -6321.6189   -5705.8563   -6321.6189            0    7212.7687    23.262912    21.595335    21.525504    10813.775    9313.8096    5419.0119    6905.4847    -391.7262   -1178.1668    294.92147   -4568.3463 
24222000    251.63839   -6358.7431   -5711.4187   -6358.7431            0     8040.566    23.319436    21.225466    21.739191    10760.158    8062.7287     8392.064    7666.9053    1690.9067   -128.81757    1420.5263   -4449.6459 
24223000    245.92969    -6345.769   -5713.1298    -6345.769            0    8070.5785    23.032647    21.565232    21.649946    10753.623    9163.4159    7922.0112    7126.3083    810.14067    122.31766   -283.50336   -4447.4164 
24224000    252.58756   -6303.7622   -5653.9961   -6303.7622            0    9209.8617    23.324513    21.348423    21.536913    10724.124    8052.7803     9196.999    10379.806   -290.14489    141.42483    500.82911   -4213.5705 
24225000    246.02967   -6344.7565   -5711.8601   -6344.7565            0    7403.6355    23.488817    21.336233    21.535512    10792.799    6307.4374     8694.759    7208.7101   -1110.6186    1035.7822   -917.09348   -4546.5138 
24226000    255.56337   -6353.7083   -5696.2871   -6353.7083            0    6487.6883    23.196547    21.543145    21.651423    10819.791    7645.3658     5507.086    6310.6132     588.3155   -2048.1169   -519.91107   -4672.5587 
24227000     265.6227   -6328.9744   -5645.6762   -6328.9744            0    6114.8947    23.384728    21.465369    21.680814    10882.941     6107.127    6002.2199    6235.3371    765.99077   -357.09393    222.01445   -4675.1414 
24228000     262.2547   -6326.9714   -5652.3371   -6326.9714            0    6071.2524    23.515356    21.460706     21.53403    10867.281    6451.6994    5773.1827    5988.8752    355.52458   -810.00302    663.34214   -4690.1156 
24229000    252.79765    -6333.384   -5683.0774    -6333.384            0    6098.8557    23.382369    21.465568    21.639087        10861    6349.3347    4516.1579    7431.0746    226.58204    -850.5047    -168.4362   -4717.0397 
24230000    250.49027   -6311.0806   -5666.7096   -6311.0806            0    6443.9775    23.388145    21.467869      21.5967    10843.566    5399.2138    7704.9075    6227.8114    913.94566   -433.49098   -1685.2793   -4647.6443 
24231000    261.19051   -6335.2437   -5663.3471   -6335.2437            0    7531.1981    23.230999    21.405785    21.700909     10791.38     7849.212    7789.9506    6954.4317    916.24557   -574.51559    -389.6917    -4478.078 
24232000     257.9959     -6349.88   -5686.2012     -6349.88            0    7185.2073    23.319014    21.370228    21.609645    10768.792    8074.7594    6184.4796    7296.3829     133.9104    379.41675   -479.19938   -4557.7517 
24233000    243.24979   -6329.4303    -5703.685   -6329.4303            0    7820.8617    23.216847    21.364524    21.684076    10755.667    8111.1524    8450.4481    6900.9845    550.02282    276.16162    137.69243   -4476.9017 
24234000    250.13277   -6342.0586   -5698.6073   -6342.0586            0     7660.201    23.354047    21.437431    21.527804    10777.912    8581.6827    7047.0375     7351.883   -644.38047    110.72468   -1128.4928   -4494.5402 
24235000    253.01979   -6352.5906   -5701.7126   -6352.5906            0     7536.059    23.304551     21.40116    21.599674    10772.718    6653.8107    8515.0621    7439.3043    942.35967    629.76315   -43.933306   -4517.7296 
24236000    250.55655   -6335.9839   -5691.4425   -6335.9839            0     8074.498    23.209383     21.35999    21.643224    10729.676    8429.2161    7814.8498     7979.428    263.08785   -261.77766    1057.1091   -4427.9344 
24237000    254.20867   -6371.3544    -5717.418   -6371.3544            0    7747.1257    23.170757    21.385042    21.698121    10751.584    7771.3822    7672.4667     7797.528    572.97854   -1095.7256   -1018.6097   -4502.6623 
24238000    257.54274   -6320.3906   -5657.8776   -6320.3906            0    8192.2679    23.379087    21.377511    21.537206    10764.009    8224.8779    7849.8473    8502.0784    838.49011    456.84314    276.84873   -4371.8388 
24239000    246.60228   -6335.1693      -5700.8   -6335.1693            0    8203.1473    23.297115    21.553666    21.423951    10757.785    7642.6395    7569.9283    9396.8742   -1519.5588    121.35065   -729.85091   -4413.7979 
24240000     260.9965   -6355.9505   -5684.5529   -6355.9505            0     7833.576    23.225439    21.314744    21.809767    10796.801    8272.2192     8993.139    6235.3699   -461.41453    -103.9154   -1088.1535   -4451.0759 
24241000      248.366   -6350.8308   -5711.9244   -6350.8308            0    7076.3288    23.306267    21.381874    21.671109      10799.4    8372.8166    6420.6214    6435.5485    1932.6596    208.30225   -556.54642   -4597.4156 
24242000    249.15177   -6350.1671   -5709.2394   -6350.1671            0    6150.5679    23.454734    21.483411    21.511935    10839.599    5539.5523      7167.74    5744.4114    594.60062    1215.0787   -748.07337   -4736.9303 
24243000     253.3926   -6329.5518   -5677.7147   -6329.5518            0    7440.5762    23.249504    21.441815    21.672656     10804.07    6551.8685    9021.3819    6748.4782   -263.32354    27.284641   -23.822231   -4505.3308 
24244000    241.90465   -6315.7272   -5693.4423   -6315.7272            0    6859.5152    23.194882     21.43226    21.837349    10855.756    8951.3676    5597.0276    6030.1504   -873.62833   -1962.0829    712.52396   -4607.4434 
24245000    260.56684   -6323.4102   -5653.1179   -6323.4102            0    5865.9901    23.291407    21.544281    21.663905    10870.874    4863.5565    6086.5227    6647.8911    275.42477    122.36844    109.32178   -4723.1206 
24246000    238.65764   -6328.1513    -5714.219   -6328.1513            0    6922.6806    23.577325    21.396224    21.467355    10829.545    4250.2801    9453.8436    7063.9179    819.03413   -52.733968    1294.5762   -4620.8661 
24247000    244.54217   -6323.4538    -5694.384   -6323.4538            0    7228.8301    23.240854    21.419883    21.721513    10813.325    8174.5887    6505.5916    7006.3101    684.62331   -239.37806    1117.9019   -4554.3884 
24248000    253.95883    -6340.383   -5687.0894    -6340.383            0    6908.8341     23.19846    21.474254    21.779267    10849.769    7209.3571    6606.4947    6910.6505   -6.6108691    230.89759    256.65862   -4593.8856 
24249000    247.57554   -6345.2728   -5708.3998   -6345.2728            0    6966.4856    23.539725    21.198471    21.683115    10820.008    5720.1837    7465.5987    7713.6746   -450.23226    992.58759    9.0199436   -4609.0973 
24250000     270.5669   -6349.4186   -5653.4018   -6349.4186            0    4968.7026    23.371776    21.644656    21.558574    10905.923    4978.9619    4665.3164    5261.8295      421.983   -687.57329   -319.53181   -4863.1211 
Loop time of 685.459 on 64 procs for 250000 steps with 1296 atoms

Performance: 63.023 ns/day, 0.381 hours/ns, 364.719 timesteps/s
99.2% CPU use with 64 MPI tasks x 1 OpenMP threads

MPI task timing breakdown:
Section |  min time  |  avg time  |  max time  |%varavg| %total
---------------------------------------------------------------
Pair    | 29.614     | 39.04      | 48.975     |  94.7 |  5.70
Bond    | 0.27064    | 0.2777     | 0.28927    |   0.8 |  0.04
Kspace  | 357.22     | 377.25     | 401.8      |  51.3 | 55.04
Neigh   | 4.2715     | 5.2914     | 6.9201     |  30.3 |  0.77
Comm    | 104.6      | 123.78     | 140.11     |  77.3 | 18.06
Output  | 1.4548     | 1.4563     | 1.4598     |   0.1 |  0.21
Modify  | 128.71     | 131.37     | 134.64     |  11.2 | 19.17
Other   |            | 6.993      |            |       |  1.02

Nlocal:        20.2500 ave          26 max          14 min
Histogram: 7 7 5 3 4 8 7 11 6 6
Nghost:        2572.80 ave        2609 max        2540 min
Histogram: 4 3 5 14 12 5 11 6 2 2
Neighs:        6394.47 ave        8335 max        4373 min
Histogram: 6 8 5 4 4 7 8 11 8 3

Total # of neighbors = 409246
Ave neighs/atom = 315.77623
Ave special neighs/atom = 2.0000000
Neighbor list builds = 8953
Dangerous builds = 1

unfix		3
unfix		2
unfix		1

write_data	data.final.${pid}
write_data	data.final.0
System init for write_data ...
PPPM initialization ...
  extracting TIP4P info from pair style
  using 12-bit tables for long-range coulomb (../kspace.cpp:340)
  G vector (1/distance) = 0.36815745
  grid = 27 40 32
  stencil order = 5
  estimated absolute RMS force accuracy = 0.0043072354
  estimated relative force accuracy = 1.2971111e-05
  using double precision FFTW3
  3d grid and FFT values/proc = 4845 560
Last active /omp style is kspace_style pppm/tip4p/omp
WARNING: Not all mixed pair coeffs generated from mixing. Use write_data with 'pair ij' option to store all pair coeffs. (../write_data.cpp:312)

write_restart   restart.lmp.${pid}
write_restart   restart.lmp.0
System init for write_restart ...
PPPM initialization ...
  extracting TIP4P info from pair style
  using 12-bit tables for long-range coulomb (../kspace.cpp:340)
  G vector (1/distance) = 0.36815745
  grid = 27 40 32
  stencil order = 5
  estimated absolute RMS force accuracy = 0.0043072354
  estimated relative force accuracy = 1.2971111e-05
  using double precision FFTW3
  3d grid and FFT values/proc = 4845 560
Last active /omp style is kspace_style pppm/tip4p/omp
Total wall time: 0:11:28
