LAMMPS (30 Jul 2021)
Processor partition = 0
  using 2 OpenMP thread(s) per MPI task
using multi-threaded neighbor list subroutines
variable        pid world 0 1
variable        phase world IceII IceVI

shell cd ${phase}
shell cd IceII
include Restart.lmp
echo both
log log.lammps
#include		in.partitions
include		in.temp
variable        temperature equal 115.49
variable	tempDamp equal 100.0
include		in.pressure
variable        pressure equal 7367.0
variable        pressureDamp equal 1000.0 # This is 1 ps
include		in.seed
variable        seed equal 745823

units		real
atom_style	full
box tilt large
read_restart	restart.lmp.${pid}
read_restart	restart.lmp.0
Reading restart file ...
  restart file = 30 Jul 2021, LAMMPS = 30 Jul 2021
  restoring atom style full from restart
  triclinic box = (-10.586982 -9.0977817 0.19402860) to (12.566982 12.087780 21.665970) with tilt (-9.2496434 1.8907011 2.7433313)
  4 by 2 by 4 MPI processor grid
  restoring pair style lj/cut/tip4p/long/omp from restart
  restoring bond style harmonic/omp from restart
  restoring angle style harmonic/omp from restart
  1296 atoms
  864 bonds
  432 angles
Finding 1-2 1-3 1-4 neighbors ...
  special bond factors lj:    0        0        0       
  special bond factors coul:  0        0        0       
     2 = max # of 1-2 neighbors
     1 = max # of 1-3 neighbors
     1 = max # of 1-4 neighbors
     2 = max # of special neighbors
  special bonds CPU = 0.002 seconds
  read_restart CPU = 0.008 seconds
include 	in.setup
variable	out_freq equal 1000
variable	out_freq2 equal 10000
variable	out_freq3 equal 1000

timestep	2.0

neigh_modify    delay 7 every 1

include		in.tip4p
# This is TIP4P/Ice

# create groups ###
group ox type 2
432 atoms in group ox
group hy type 1
864 atoms in group hy

# set charges - beside manually ###
set group ox charge -1.1794
Setting atom values ...
  432 settings made for charge
set group hy charge 0.5897
Setting atom values ...
  864 settings made for charge

# ### TIP3P Potential Parameters ###
pair_style lj/cut/tip4p/long/omp 2 1 1 1 0.1577 8.5
pair_coeff 1 1*2 0.000 0.000
pair_coeff 2 2 0.21084 3.1668
bond_style  harmonic
bond_coeff  1 450 0.9572
angle_style harmonic
angle_coeff 1 55 104.52
kspace_style pppm/tip4p/omp 1.0e-5
pair_modify tail yes

thermo          ${out_freq}
thermo          1000
thermo_style    custom step temp pe etotal epair emol press lx ly lz vol pxx pyy pzz pxy pxz pyz enthalpy

restart 	${out_freq3} restart.lmp.${pid} restart2.lmp.${pid}
restart 	1000 restart.lmp.${pid} restart2.lmp.${pid}
restart 	1000 restart.lmp.0 restart2.lmp.${pid}
restart 	1000 restart.lmp.0 restart2.lmp.0


include         in.dump
dump            myDump all atom ${out_freq2} dump.water.${pid}
dump            myDump all atom 10000 dump.water.${pid}
dump            myDump all atom 10000 dump.water.0
dump            myDump2 all dcd ${out_freq2} dump.dcd
dump            myDump2 all dcd 10000 dump.dcd
dump_modify     myDump append yes
dump_modify     myDump2 append yes


variable natoms 	equal  "count(all)"                        # NUMBER ATOMS
variable H      	equal  "enthalpy/v_natoms"                 # ENTHALPY-per-atom
variable Vol      	equal  "vol/v_natoms"                 # volume-per-atom
fix AVG all 		ave/time ${out_freq} 1 ${out_freq} v_Vol v_H file vol_enthalpy.dat
fix AVG all 		ave/time 1000 1 ${out_freq} v_Vol v_H file vol_enthalpy.dat
fix AVG all 		ave/time 1000 1 1000 v_Vol v_H file vol_enthalpy.dat


timer           timeout 10:00:00 every 1000
New timer settings: style=normal  mode=nosync  timeout=10:00:00

fix 		1 all shake 1e-6 200 0 b 1 a 1
Finding SHAKE clusters ...
       0 = # of size 2 clusters
       0 = # of size 3 clusters
       0 = # of size 4 clusters
     432 = # of frozen angles
  find clusters CPU = 0.000 seconds
fix             2 all nph tri ${pressure} ${pressure} ${pressureDamp}
fix             2 all nph tri 7367 ${pressure} ${pressureDamp}
fix             2 all nph tri 7367 7367 ${pressureDamp}
fix             2 all nph tri 7367 7367 1000
fix             3 all temp/csvr ${temperature} ${temperature} ${tempDamp} ${seed}
fix             3 all temp/csvr 115.49 ${temperature} ${tempDamp} ${seed}
fix             3 all temp/csvr 115.49 115.49 ${tempDamp} ${seed}
fix             3 all temp/csvr 115.49 115.49 100 ${seed}
fix             3 all temp/csvr 115.49 115.49 100 745823


run             250000
PPPM initialization ...
  extracting TIP4P info from pair style
  using 12-bit tables for long-range coulomb (../kspace.cpp:340)
  G vector (1/distance) = 0.36892576
  grid = 30 40 32
  stencil order = 5
  estimated absolute RMS force accuracy = 0.0042140626
  estimated relative force accuracy = 1.2690524e-05
  using double precision FFTW3
  3d grid and FFT values/proc = 7888 1280
Last active /omp style is kspace_style pppm/tip4p/omp
Neighbor list info ...
  update every 1 steps, delay 7 steps, check yes
  max neighbors/atom: 2000, page size: 100000
  master list distance cutoff = 10.8154
  ghost atom cutoff = 10.8154
  binsize = 5.4077, bins = 7 5 4
  1 neighbor lists, perpetual/occasional/extra = 1 0 0
  (1) pair lj/cut/tip4p/long/omp, perpetual
      attributes: half, newton on, omp
      pair build: half/bin/newton/tri/omp
      stencil: half/bin/3d/tri
      bin: standard
Setting up Verlet run ...
  Unit style    : real
  Current step  : 7000000
  Time step     : 2
  Walltime left : 9:59:59.95
Per MPI rank memory allocation (min/avg/max) = 10.66 | 10.67 | 10.68 Mbytes
Step Temp PotEng TotEng E_pair E_mol Press Lx Ly Lz Volume Pxx Pyy Pzz Pxy Pxz Pyz Enthalpy 
 7000000    116.55123   -6710.2449    -6410.424   -6710.2449            0    7754.3313    23.153964    21.185561    21.471942    10532.626    7313.9973    8185.0738    7763.9229   -60.441847   -334.69149    428.46018   -5219.3002 
 7001000    111.59383   -6702.9386   -6415.8703   -6702.9386            0    8448.6492    23.081953    21.114621     21.55843    10506.861    8317.1584    9352.2343    7676.5549    768.38816   -266.15052    -483.1649   -5121.2687 
 7002000    117.76272   -6720.7567   -6417.8192   -6720.7567            0     7272.373    23.106353     21.26209     21.47395    10549.923    7031.1476    7712.2681    7073.7032    493.63725    186.65543    145.54038   -5298.8933 
 7003000    118.73137   -6728.8079   -6423.3787   -6728.8079            0    6689.3205    23.053242      21.3463    21.458253    10559.637    6989.6181     6421.334    6657.0093    649.68803    298.13029    180.25025   -5393.2135 
 7004000    111.23644   -6719.6096   -6433.4606   -6719.6096            0    7500.9946     23.03761    21.342003    21.423571      10533.3    7498.0708    7288.1358    7716.7772    783.02406    -12.97564   -89.041842   -5281.1775 
 7005000    113.06251   -6709.1903   -6418.3439   -6709.1903            0    7734.6768    22.989413    21.308249     21.47963      10522.1    8739.2564    7434.8196    7029.9543     447.3723    -60.28817    360.30938   -5231.4265 
 7006000     115.4545   -6703.4531   -6406.4535   -6703.4531            0    7312.8599    23.017762    21.376657    21.422697    10540.884    8240.8136    6007.5512     7690.215    786.26848   -195.86122   -785.21654   -5282.2623 
 7007000    113.26686   -6712.9466   -6421.5745   -6712.9466            0    8132.1798    23.050435    21.291628    21.415954     10510.55    7814.8269     7829.911    8751.8015   -308.48371    807.50254    565.82577   -5175.0286 
 7008000    118.00104   -6718.3064   -6414.7559   -6718.3064            0    7366.7533    23.163095    21.217794    21.451684    10542.855    7074.1093    7962.1033    7064.0475    -511.4589   -81.458199   -579.14996   -5282.0681 
 7009000    121.55976   -6707.3929   -6394.6879   -6707.3929            0    8211.4973    23.241434    21.109573    21.419963    10508.993    7145.9568    9913.2944    7575.2407   -611.19018      355.523   -696.56685   -5136.1701 
 7010000    116.04147   -6709.0678   -6410.5581   -6709.0678            0    8145.9514    23.233936    21.070141    21.474879    10512.862     8188.715    8398.7865    7850.3527    130.12056   -915.23197    460.88979   -5161.6265 
 7011000    115.70135   -6712.3582   -6414.7235   -6712.3582            0    7951.5102    23.253254    21.060209    21.479514    10518.913     7836.208    8627.6783    7390.6444    -290.1411    102.14935   -418.05016   -5194.9018 
 7012000    119.77527   -6705.0414   -6396.9268   -6705.0414            0    7653.9224      23.1213    21.224173    21.454982    10528.613    7668.8149     7362.352    7930.6003   -462.85109   -330.29678    247.30646   -5221.6745 
 7013000    118.42624   -6718.9563    -6414.312   -6718.9563            0     5831.162    23.176478    21.258284    21.521839    10603.641    5192.7474    6403.6123    5897.1263    276.54095    300.11895   -133.97332   -5512.5623 
 7014000    116.26525   -6733.1932   -6434.1079   -6733.1932            0    6450.1473    23.034834    21.341318    21.488127    10563.428    6982.9356    5541.3978    6826.1085   -408.94007    247.66673   -170.99427   -5440.4191 
 7015000    120.51492   -6724.8927   -6414.8754   -6724.8927            0    7378.6656    23.042439    21.309328    21.432993    10524.004    7584.2718    6721.7947    7829.9302    132.32812   -166.31781   -327.12043   -5282.3845 
 7016000    113.11039   -6710.0515   -6419.0819   -6710.0515            0    6717.8445     23.02626    21.364325    21.458202    10556.159    6809.5583    6056.3785    7287.5969   -393.31549    852.28818   -540.47676   -5384.8647 
 7017000    113.26833   -6710.3549   -6418.9791   -6710.3549            0    6738.2599    23.133002    21.339284    21.417209    10572.427    6583.5417    6579.1368    7052.1013   -11.413585    651.02508   -256.05922   -5380.0202 
 7018000    113.13029   -6726.6492   -6435.6285   -6726.6492            0    6890.3763    23.080104    21.253936    21.528137    10560.479    6865.8107    7123.2889    6682.0292    -122.3026   -122.94064    484.15011   -5374.4158 
 7019000     116.7388   -6721.7672   -6421.4637   -6721.7672            0    7196.4967    23.209877    21.227274    21.399961    10543.384     6438.455    7483.5966    7667.4384    252.45244    112.35172    648.07638   -5314.8984 
 7020000    113.10907     -6716.64   -6425.6738     -6716.64            0    7496.0365    23.114257    21.196087    21.532453    10549.433     7753.381    8322.1126     6412.616    73.408522   -144.42073   -903.41349   -5272.3886 
 7021000    114.50395   -6731.5946   -6437.0402   -6731.5946            0    6927.8519    23.243237    21.216483    21.404239    10555.281    6974.9752    7298.6467    6509.9338   -629.64482    208.03372   -360.02256   -5370.5809 
 7022000    117.28744   -6714.2973   -6412.5825   -6714.2973            0    7994.7418    23.208814    21.120124    21.485427    10531.577    7502.3779    8413.6763    8068.1713   -258.89305   -626.02763     223.4131   -5184.6522 
 7023000    116.22704   -6724.4781   -6425.4911   -6724.4781            0    6775.3873     23.24123    21.135723    21.495871    10559.206    5934.2386    6577.7187    7814.2047    6.9330281    968.62596    691.34945   -5382.1141 
 7024000    122.94453   -6699.4941   -6383.2268   -6699.4941            0    7861.6614    23.185431    21.178861    21.450007    10532.834    7043.7091    8087.5473    8453.7279    918.29365   -422.36612    481.53801   -5175.5924 
 7025000    120.10094   -6709.9629   -6401.0106   -6709.9629            0    7279.4896    23.156964    21.189411    21.525845    10562.354    7003.2701    7165.1929    7670.0057   -579.94535    837.62278   -204.94065     -5279.67 
 7026000    119.56963   -6707.6757   -6400.0902   -6707.6757            0    8029.8034    23.052409     21.26829    21.456303     10519.71    7833.9955    7946.2719    8309.1427    1094.5084   -985.67116    342.56431   -5168.1643 
 7027000    115.10338   -6706.5881   -6410.4917   -6706.5881            0    7769.2158    23.114083    21.327855    21.391481     10545.44      7644.25    7243.8624    8419.5351    53.841005   -679.98093    423.45857   -5215.6297 
 7028000    108.56554   -6713.5296   -6434.2514   -6713.5296            0      7478.94    23.131716    21.216598     21.46435    10534.195    7959.7807     7136.926    7340.1134    267.42491   -3.3412071   -272.40756   -5285.2586 
 7029000    115.91737   -6732.3106   -6434.1202   -6732.3106            0    5713.0542    23.195312    21.250136    21.492521    10593.739    5702.5587     5903.417    5533.1869    784.36078   -324.92736    122.66858   -5551.4601 
 7030000    120.77799   -6707.8113   -6397.1173   -6707.8113            0    8129.0059    23.138295    21.159235    21.495628    10524.015    8315.1391    8824.8944    7246.9842    739.14938    411.73725   -24.261004   -5149.4615 
 7031000    118.83049    -6714.506   -6408.8218    -6714.506            0    7265.5371    23.115957    21.266099    21.515687    10576.815    7003.4564    7326.0631    7467.0918    488.35648   -142.93668    91.209884   -5288.0981 
 7032000    116.04469   -6703.0942   -6404.5763   -6703.0942            0    7685.4339    23.084639    21.312774    21.380638    10519.225    7736.2832    7883.6431    7436.3755   -81.766565    238.46975   -512.63771   -5225.5377 
 7033000    115.88639   -6715.2487    -6417.138   -6715.2487            0    7501.1291    23.004975    21.308617    21.522131    10550.239    8221.4334    6835.7067    7446.2472    368.21229     152.7381     140.7699   -5262.9812 
 7034000    113.48716   -6716.8682   -6424.9294   -6716.8682            0    7073.2457    23.085404    21.334767    21.381426    10530.816    7372.8728     6623.866    7222.9983   -473.86937    142.07152    563.88617   -5338.6121 
 7035000     113.6874    -6726.774   -6434.3201    -6726.774            0    6272.4458    23.066805    21.304072    21.532257    10581.315    4818.2909     7018.892    6980.1544    481.73755    1142.5435    416.23521   -5466.3712 
 7036000    114.17901   -6721.8847   -6428.1662   -6721.8847            0    6665.7211    23.154454    21.246228    21.470156    10562.132    6331.8899    7372.9483    6292.3252    -816.7169    894.51891    -941.6935   -5401.3928 
 7037000    115.33379   -6710.9959   -6414.3067   -6710.9959            0    7412.0606    23.165344    21.246886    21.434666    10549.959    6628.3864    7638.8075     7968.988    940.88376    -720.8373    373.18237   -5273.8846 
 7038000    118.31627   -6722.0807   -6417.7193   -6722.0807            0    6746.4341    23.096915    21.232842    21.563875    10575.208     6247.666    7226.9658    6764.6704    -45.62184    229.24443    339.95547   -5377.2265 
 7039000    117.47277   -6710.4698   -6408.2783   -6710.4698            0      8368.16    23.117638    21.234507    21.359047    10484.978    8299.8921    7786.7465    9017.8416     1269.477   -398.48387    23.114089   -5128.6808 
 7040000    115.75006   -6720.8918   -6423.1318   -6720.8918            0    8114.6173    23.021789    21.274944    21.452719    10507.269    9019.5768    7250.8106    8073.4644   -1441.2191    433.17768    792.99903   -5179.6662 
 7041000     111.9658   -6714.0127   -6425.9875   -6714.0127            0     7270.435    23.039841    21.280807    21.490341    10536.852    7944.7384       7219.8    6646.7667    12.894739    577.21767   -438.39912   -5308.7457 
 7042000    117.28501   -6725.7091   -6424.0006   -6725.7091            0    7053.4036    23.103427    21.347109    21.390255    10549.489    7170.7582    6103.5385    7885.9143   -284.14032     155.2234   -358.67665   -5338.8099 
 7043000    118.50603   -6718.2414   -6413.3918   -6718.2414            0    6722.6804    23.006021     21.37336    21.509907    10576.765    7262.0451     6365.288    6540.7081   -362.27417    282.33523   -295.99202   -5376.4099 
 7044000    115.72485   -6705.9615   -6408.2664   -6705.9615            0    7611.6714    23.175128    21.286153    21.304862    10509.887    6705.5975    7694.8151    8434.6017    1491.3143   -123.32637    865.17736   -5241.5804 
 7045000    112.26376   -6736.2679   -6447.4762   -6736.2679            0    6995.3191    23.056307    21.208256    21.603829    10563.928     7524.804    7626.8282     5834.325   -225.70694    415.50511     171.8692   -5369.7489 
 7046000    118.94445   -6716.8026   -6410.8252   -6716.8026            0    7250.5049    23.243619    21.216669    21.353014    10530.286    6779.3256    7800.7413    7171.4477   -547.42548   -264.22911   -71.597515   -5297.3405 
 7047000     112.9913   -6715.2214   -6424.5581   -6715.2214            0    8081.8954    23.188841    21.182489    21.399879    10511.564    7565.1716    8674.0818    8006.4328   -658.57517    314.95735    4.9989212   -5185.6005 
 7048000    118.51592    -6714.155   -6409.2801    -6714.155            0    8047.7182    23.096067    21.140088    21.574885        10534    8916.7541    7588.1438    7638.2567    72.708252   -787.13017     446.1585   -5172.9286 
 7049000    116.52425   -6706.7396    -6406.988   -6706.7396            0    7511.3023    23.144965    21.233773    21.461868    10547.541    6976.5281    7471.8033    8085.5756   -525.99603    478.99459    358.69816   -5251.5614 
 7050000    113.43725   -6708.4398   -6416.6294   -6708.4398            0    7021.6579    23.088995    21.184874    21.567657    10549.548    7101.6137    7273.0906    6690.2695    621.79716   -124.85179   -230.81714   -5336.3169 
 7051000    116.54281   -6705.2903   -6405.4911   -6705.2903            0    7083.0992    23.096069     21.36737    21.376359    10549.281    6963.9799    6083.9522    8201.3655   -721.97557   -712.91154   -302.51275   -5315.7531 
 7052000    113.63818   -6719.8522    -6427.525   -6719.8522            0    7346.3171    23.067062    21.306226    21.444402    10539.324     7943.189    6248.2355    7847.5269    294.47619   -361.11926    230.86369   -5298.3576 
 7053000    114.75487   -6720.9948   -6425.7949   -6720.9948            0    7699.6946    23.055307    21.306342    21.438878    10531.297    8244.4976    7113.1681     7741.418   -156.20367   -275.67161    368.72094    -5243.213 
 7054000    113.31637   -6700.0677   -6408.5682   -6700.0677            0    7748.6578    23.097969    21.242471    21.460711    10529.868    7460.6759     8917.753    6867.5446    434.88994    423.99528   -668.86321   -5218.6275 
 7055000    116.65481   -6707.7279   -6407.6405   -6707.7279            0     8296.463    23.096696    21.174118    21.467862    10498.904     8741.899    8061.0331     8086.457    379.17303    -954.0086    219.75977   -5137.3213 
 7056000    115.45435   -6707.4521   -6410.4529   -6707.4521            0    5927.6877    23.215576    21.202339    21.549642    10607.262    6692.1961     5954.276    5136.5909   -244.51295   -1146.2153   -378.20659   -5493.4631 
 7057000    116.65028   -6716.7278   -6416.6521   -6716.7278            0    7253.6229     23.26495    21.093916    21.461615    10532.264    7618.3214     7182.535    6960.0124    -660.3718   -371.08262   -748.69693   -5302.4792 
 7058000    116.94214   -6720.8386   -6420.0121   -6720.8386            0    7576.8499    23.221634    21.211499    21.400264    10541.035     7473.891    7477.0564    7779.6024   -637.44098    37.665473   -368.28916   -5255.2216 
 7059000    113.88697   -6709.0584   -6416.0911   -6709.0584            0    7741.9752    23.134782    21.128801    21.543726    10530.793    7998.0482     7667.752    7560.1255    116.66712   -670.59788   -93.218986   -5227.0723 
 7060000    114.90175   -6727.9244   -6432.3466   -6727.9244            0    8020.3629    23.110132    21.289215    21.339868    10499.142    7437.0951    7762.3368    8861.6567    195.87602    733.13654    106.06819   -5204.2749 
 7061000    111.66891   -6705.5788   -6418.3173   -6705.5788            0    7569.7874    23.030925    21.307059    21.480105    10540.745    8632.8482    6926.5667    7149.9473   -159.48555   -264.66194   -349.27438   -5254.6446 
 7062000    116.79551    -6710.301   -6409.8517    -6710.301            0    7954.3455    22.987173     21.32198    21.449926    10513.296    8197.3056    7577.8704    8087.8607    145.30459    209.22773   -425.44191   -5190.2466 
 7063000    123.30063    -6712.188   -6395.0047    -6712.188            0    7822.7122    22.944969    21.486464    21.337722    10519.631    8989.5751    6689.6301    7788.9312   -316.91096   -585.34212   -24.267741   -5194.8596 
 7064000    116.78948   -6720.3744   -6419.9406   -6720.3744            0    7939.3237    23.064942    21.254792    21.432259    10506.963    9179.9198    7258.2706    7379.7806   -219.26478    696.81097   -335.04828    -5203.372 
 7065000    111.86723   -6726.7528   -6438.9812   -6726.7528            0    8097.2416    23.117989    21.163189    21.482878    10510.506    8500.6643    9162.6915     6628.369    -504.7777    45.077878   -537.16503    -5197.796 
 7066000    118.96089   -6705.1562   -6399.1365   -6705.1562            0    8238.2362    23.234175    21.106576    21.428285      10508.3    7865.0867    8673.9357    8175.6863   -532.11917   -160.27891    1342.6283   -5136.6039 
 7067000    111.57481   -6724.8775   -6437.8581   -6724.8775            0    7143.9438    23.255926     21.08431    21.504031    10544.182    6874.1727    8871.4861    5686.1726   -1007.5877    -97.46813   -997.35077   -5339.2904 
 7068000     116.1374   -6730.9655   -6432.2091   -6730.9655            0    7828.4703    23.222476     21.13135     21.46647    10534.075    7015.9789    8634.0109    7835.4213    242.87276   -370.87737   -218.99972   -5229.5315 
 7069000    106.82828   -6717.8265   -6443.0172   -6717.8265            0    7193.9153    23.268367    21.097627    21.487952    10548.594    5779.2496    8314.6489    7487.8474   -1.7849827    147.53935    714.01627   -5336.3023 
 7070000    113.94646   -6719.5142   -6426.3938   -6719.5142            0    6729.1603    23.139354    21.183885    21.530942    10554.067    6613.3801    7212.2641    6361.8366    15.994141   -752.39751    628.82048   -5390.6398 
 7071000    113.82609   -6714.8041   -6421.9934   -6714.8041            0    5940.5882     23.12601    21.350782    21.444793    10588.547    6723.3189    5163.3786    5935.0672    -265.7126    94.727164    292.42028   -5504.6294 
 7072000    122.55695    -6711.302   -6396.0317    -6711.302            0     7094.239    23.088805    21.267316    21.515694        10565    7498.4746    7213.2909    6570.9515    680.61158    649.56241    442.45102   -5302.9535 
 7073000    112.17134   -6723.0883   -6434.5344   -6723.0883            0    7003.5517    22.963883    21.453597    21.414591    10550.067    6779.5289    7170.8918    7060.2344    565.71532    797.36878    1001.6287   -5356.9545 
 7074000    117.20372   -6724.3241   -6422.8247   -6724.3241            0    6964.6209    23.037093    21.368491    21.447974    10558.149    7660.8823    6835.2133    6397.7671   -261.30832    309.89727   -503.74717   -5350.4139 
 7075000    114.66958   -6715.4689   -6420.4884   -6715.4689            0    8258.5018    23.039986    21.263377      21.4733    10519.939    8653.7236    9009.0618    7112.7201   -125.73748    257.34485    -315.7112   -5153.4482 
 7076000    115.10698   -6716.6605   -6420.5548   -6716.6605            0    8336.3914    23.051748    21.296369    21.414543    10512.796    8717.7953     8148.951     8142.428   -923.93093   -363.14513    106.83929   -5142.4331 
 7077000    115.14539   -6720.9136   -6424.7091   -6720.9136            0    8374.3185    23.211331    21.118213    21.411875    10495.712    8512.8269    7967.5988    8642.5298   -412.18885    124.17094    97.484302    -5142.859 
 7078000    120.23837   -6714.5674   -6405.2615   -6714.5674            0    6854.3888    23.215835    21.200837    21.466513    10565.713    6551.6072    6962.7593    7048.7999   -241.67905   -197.55049  -0.90666177   -5349.0681 
 7079000    115.69365   -6729.1225   -6431.5077   -6729.1225            0    7101.4262    23.237584    21.141344    21.447525    10536.606    7144.9565    7435.0529    6724.2694   -515.98679   -337.29977    215.69392   -5340.2628 
 7080000    122.53272   -6720.5969    -6405.389   -6720.5969            0    7122.5972    23.155722    21.144128    21.573507    10562.552    7833.6067    6223.2294    7310.9556     609.4775   -675.64629    815.44167   -5308.1958 
 7081000     113.5915   -6718.0927   -6425.8855   -6718.0927            0    7449.7975    23.052689    21.278386    21.462466    10527.855    7955.7356     7934.586     6459.071   -589.29275   -769.46738   -475.80292   -5282.0588 
 7082000    114.73935   -6720.6979    -6425.538   -6720.6979            0    7326.1549     23.12492    21.283105    21.429382    10546.901    7803.2638    7103.7317    7071.4691    352.15963    123.58528   -535.17471   -5298.6601 
 7083000    115.46545   -6719.2283   -6422.2005   -6719.2283            0    7442.6601    23.094988    21.282355    21.414503    10525.565    7677.4466    7326.5103    7324.0234   -366.96318    359.70694     441.1233   -5279.7181 
 7084000    122.33714    -6710.514   -6395.8092    -6710.514            0     7690.909    23.082845     21.23694    21.513426    10546.075    7108.2999    8018.1307    7946.2963    176.96832    513.39614   -717.57408    -5212.919 
 7085000     110.4491   -6709.5433   -6425.4198   -6709.5433            0    7648.6029    23.098234    21.247957    21.467286    10535.935    8450.6289    6713.1114    7782.0683    436.84813    268.07806    1167.7834   -5250.1675 
 7086000    116.61544   -6724.7284   -6424.7422   -6724.7284            0    7518.3567    23.095847    21.194874    21.500631     10524.85    7699.7622     8537.558    6317.7498   -667.63157    614.12958    -303.7258   -5270.7185 
 7087000     112.8665   -6727.4543   -6437.1121   -6727.4543            0    7127.3261    23.248437    21.132215    21.482743    10554.278    6565.4944    7799.2627    7017.2211   -332.93919    646.47252   -706.43985   -5340.0505 
 7088000    118.62174   -6720.4423   -6415.2951   -6720.4423            0    6962.0214    23.179151    21.196376    21.464878    10545.995     6533.943    7135.6281    7216.4932    113.62357   -886.54712    759.48468   -5344.5187 
 7089000    110.18068   -6730.9941    -6447.561   -6730.9941            0    6065.9957    23.190958     21.22008    21.529863    10595.147     4598.002    6635.2146    6964.7703    462.54829   -285.05576    502.96392   -5510.2473 
 7090000     114.2748   -6719.5006   -6425.5357   -6719.5006            0    7066.2575    23.208134    21.204942    21.395294    10529.205    6156.4025    7282.2268    7760.1432    108.42632    463.87172    482.10066   -5340.4578 
 7091000    113.96954   -6733.7426   -6440.5629   -6733.7426            0    6244.5536    23.145541    21.305544    21.474681    10589.774    6510.6426    6320.1131    5902.9051   -1360.8797   -528.57474     -99.5164   -5476.1478 
 7092000    115.59298   -6713.9489    -6416.593   -6713.9489            0    7367.1229    23.169533    21.200597    21.458652     10540.66    7379.0282    7788.5245    6933.8161    240.32451    -308.9685      -568.89   -5284.0842 
 7093000    115.32864   -6715.3471   -6418.6712   -6715.3471            0    7669.4885    23.107455    21.282543    21.398653    10523.546    8475.2465    6923.5936    7609.6256   -515.08415   -953.01311    65.852215   -5241.5956 
 7094000    116.75625    -6708.158   -6407.8096    -6708.158            0    8554.2915    23.017026    21.213563    21.485085    10490.589    8713.3478    8048.8556    8900.6712   -452.46538   -321.06053    828.88093   -5099.0502 
 7095000    111.17041   -6723.7641    -6437.785   -6723.7641            0    7444.1491    23.083104    21.261281    21.454386    10529.306    7614.6519    7732.3272    6985.4681    91.880321    963.53288    -794.0282    -5294.668 
 7096000    120.64291   -6713.2375   -6402.8909   -6713.2375            0    7828.5419    23.002928    21.312523    21.460058    10520.803    8986.7269    8158.4257    6340.4732    -112.7812    19.282147   -605.22824   -5201.7177 
 7097000    115.21348   -6719.4655   -6423.0859   -6719.4655            0    6697.8948    23.223486    21.302529    21.403055    10588.497    5417.8682    7095.9272    7579.8891     777.7626   -143.15843   -1217.6263   -5388.7811 
 7098000    112.10618   -6723.7304    -6435.344   -6723.7304            0    8044.5065    23.079628    21.276616    21.401641    10509.412    8632.7687    7532.2247     7968.526    432.31548    -1253.147    35.558876   -5202.3706 
 7099000    114.94951   -6711.7882   -6416.0876   -6711.7882            0    7565.2963    23.136804    21.227442    21.465991    10542.703    7951.4168    7407.2018    7337.2704   -108.62067   -478.60255   -242.45304   -5252.8892 
 7100000    114.21047   -6718.6565   -6424.8571   -6718.6565            0    7896.6376    23.196358    21.158301    21.383314    10494.835    6467.7681    8628.6687    8593.4758    1211.6772    282.29499    206.13191   -5216.2261 
 7101000    117.71895   -6732.4554   -6429.6306   -6732.4554            0    8427.7176    23.057344    21.142243    21.529424    10495.249    8239.1669    9557.4602    7486.5256    1068.0576   -359.49425    760.28152   -5139.6636 
 7102000    116.32739   -6716.4173   -6417.1722   -6716.4173            0    8093.9587     23.18316    21.164622    21.426746    10513.308     6672.994     9237.146    8371.7362   -999.13181    575.80368   -143.06784   -5176.1594 
 7103000    120.10668   -6713.7061    -6404.739   -6713.7061            0     8088.166    23.138719    21.218567    21.430826    10521.903    8120.5652    8275.9286    7868.0041    32.927225   -346.56762   -385.09834   -5163.6006 
 7104000    116.28265   -6712.8855   -6413.7555   -6712.8855            0    8206.7025    23.181873    21.140232     21.44342     10508.78     7341.816    9213.9695    8064.3221    275.22875    334.50882    -758.1877   -5155.9981 
 7105000    119.62723   -6720.0588    -6412.325   -6720.0588            0    7830.3262    23.211347    21.230073    21.375554    10533.415    6726.4767    8643.0735    8121.4284     243.9959     1039.489   -327.37437   -5209.4377 
 7106000    114.30038   -6716.7608   -6422.7301   -6716.7608            0    8710.6118    22.999762    21.257245    21.431055    10477.891    8510.6702    9331.6071     8289.558    380.85144    773.37827   -227.79489   -5091.6676 
 7107000    113.59018   -6719.3234   -6427.1195   -6719.3234            0     7611.989    22.985843    21.311264    21.510651    10537.151    8662.7192    7164.2209     7009.027    -584.5573    120.39574   -49.555076   -5257.3583 
 7108000    115.53271   -6720.2131   -6423.0122   -6720.2131            0    7645.0837    23.078485    21.381877    21.322747    10521.951    7037.7622    7249.7594    8647.7294     429.0591    1063.9937    324.07946   -5249.8599 
 7109000    109.98989   -6707.5944   -6424.6521   -6707.5944            0    8476.7247    23.026873    21.242583    21.510922    10522.073    8588.5195    8788.3578    8053.2967   -547.38868    276.85315   -4.1197433   -5123.8678 
 7110000    110.09063   -6707.0816   -6423.8802   -6707.0816            0    8312.3313    23.114582    21.183276    21.468303    10511.795    7649.2906    9080.5236    8207.1797    641.29657   -97.249301   -112.64172   -5149.5686 
 7111000    113.88089   -6711.6869   -6418.7353   -6711.6869            0    7342.8457    23.232695     21.14867    21.464852    10546.553    6667.3357    8100.7273     7260.474   -363.72841    72.502454    389.84318   -5289.3273 
 7112000    115.42448   -6713.2641   -6416.3416   -6713.2641            0    7454.9616    23.181946    21.082631    21.610769    10561.969    7018.5521    8373.1755    6973.1572   -383.90699   -659.48341    748.71882    -5268.013 
 7113000    115.41636   -6709.9269   -6413.0253   -6709.9269            0    7873.6603    23.299955    21.108704    21.397062    10523.757    6714.5328    8709.0161     8197.432   -425.59276    363.14639    308.31271   -5204.5901 
 7114000    113.80701   -6705.0143   -6412.2527   -6705.0143            0    7517.6628    23.145295    21.097718    21.581324    10538.439    8228.8626    8594.2144    5729.9115   0.99047598   -458.97865   -643.26937   -5256.8456 
 7115000    119.88148   -6722.4936   -6414.1058   -6722.4936            0    7272.4877    23.174594    21.200502    21.434945    10531.268    7348.8916    7451.8174    7016.7541    1.5442907   -475.24113    211.79606   -5297.1408 
 7116000    108.91638   -6727.0512   -6446.8704   -6727.0512            0    6639.8121    23.202376    21.211665    21.497392    10580.179    5821.3942    7545.9432    6552.0988    408.97208    697.11113   -342.50981   -5422.3404 
 7117000    108.87406   -6727.0918   -6447.0199   -6727.0918            0    8416.2581    23.003085    21.266294     21.48323    10509.389    9064.5295    7597.7015    8586.5432    327.12926   -911.95426    1153.9572   -5157.0713 
 7118000    113.50889   -6730.8085   -6438.8138   -6730.8085            0    6756.7674    23.098042    21.362727    21.423472    10571.138     7538.502    5788.4766    6943.3235   -384.39388    728.59417    54.882879   -5397.1284 
 7119000    113.39047   -6717.1314   -6425.4413   -6717.1314            0    7078.1279    23.012189    21.338751    21.477662    10546.635    7767.4155    6941.3743    6525.5938    677.89739    150.89422   -756.94535   -5336.7413 
 7120000    112.39639   -6714.3741   -6425.2413   -6714.3741            0    7283.0603     23.06951    21.290466    21.488222    10554.168    7603.1953    7407.0736     6838.912   -519.98706   -3.2826906   -138.64864   -5304.2201 
 7121000    113.22795   -6712.2793   -6421.0073   -6712.2793            0    7744.7141    23.174438    21.204876    21.411418    10521.808    7546.3982    7881.2146    7806.5293   -209.31789    778.16687    -724.3099   -5232.5826 
 7122000    119.81054    -6712.143   -6403.9377    -6712.143            0     6818.413    23.176904    21.249706    21.437821    10558.178    5925.5081     6979.552     7550.179     -578.465    78.317751    89.977461   -5354.0371 
 7123000    112.80185   -6714.9209    -6424.745   -6714.9209            0    7298.8101    23.110658     21.15476    21.537785    10529.832    7891.5573    7483.8801     6520.993   -761.84899    872.34627   -607.11116   -5303.8901 
 7124000    115.90412   -6721.0098   -6422.8535   -6721.0098            0    6342.4123    23.248779    21.330516    21.353441    10589.352    5764.7948    5658.3315    7604.1106   -277.18625    617.39622    292.85984   -5443.3641 
 7125000     120.1311   -6713.2972   -6404.2673   -6713.2972            0    7918.1089    23.069594    21.207788     21.49344    10515.774    8123.7775    8480.8462    7149.7032    1066.8251   -1180.7508   -581.25366    -5189.932 
 7126000    116.05236   -6728.4893   -6429.9517   -6728.4893            0    6429.2035    23.182173     21.28056    21.443048    10578.491    5854.7223     6515.115     6917.773   -656.36852    650.85159    76.029609   -5438.0771 
 7127000    116.33386    -6715.904   -6416.6422    -6715.904            0    8983.8052    22.959676    21.198125    21.485726    10457.147    9971.9412    8616.3378    8363.1367   -210.43081    271.55101    449.38672   -5046.5511 
 7128000     110.9415     -6709.53   -6424.1398     -6709.53            0    6424.8717    23.104574    21.384861    21.429038    10587.833    6502.4025     6138.257    6633.9556   -1285.8846    983.15656    226.40602   -5432.0581 
 7129000    120.25141   -6706.2079   -6396.8685   -6706.2079            0    7843.1882    23.056968    21.270248    21.428224    10508.989    7518.7225    7835.6069    8175.2353   -26.138646    1036.7856    414.14705   -5194.7993 
 7130000    111.64715   -6737.2403   -6450.0348   -6737.2403            0    5731.8738    23.162689    21.278378    21.505011    10599.056    6334.6928     5736.089    5124.8396   -899.90378   -398.54446   -514.33674   -5564.0227 
 7131000    113.81304   -6728.1121    -6435.335   -6728.1121            0    7485.9096    23.207375    21.199558    21.359681    10508.665     6461.368    7617.0509    8379.3098   -622.55211    526.93897   -39.758115   -5288.0587 
 7132000    115.33546   -6705.8412   -6409.1478   -6705.8412            0    6595.2384    23.282458    21.099504    21.552162    10587.464    5781.9091    7228.1892    6775.6168    143.19142     419.9422   -74.526227   -5390.7949 
 7133000    110.60693   -6701.1953   -6416.6657   -6701.1953            0    7181.1661    23.224443    21.203342    21.444961    10560.267    6822.7483    6990.6232    7730.1267    221.59992    444.08077    388.31321   -5310.6896 
 7134000    111.01803   -6722.0967   -6436.5095   -6722.0967            0     7906.406    23.188958    21.069299    21.542813    10525.282    8271.5096    7780.2872    7667.4212   -385.67859    184.87862    417.21905   -5222.8727 
 7135000    112.71119   -6729.1664   -6439.2238   -6729.1664            0    6992.1125    23.221305    21.186046    21.448472    10551.954    6621.8567    6974.3138     7380.167    75.185027   -722.94624    851.08054   -5363.2116 
 7136000    121.24033   -6721.9064    -6410.023   -6721.9064            0    7366.3864     23.13587    21.242471    21.453478    10543.591    7085.8362    8267.3652    6745.9577    81.573944   -172.89973   -305.10601   -5277.3124 
 7137000    116.50231   -6725.4953   -6425.8002   -6725.4953            0    7320.1739     23.03377    21.264983    21.519412    10540.482    8403.6869    6086.4423    7470.3924    427.78474   -228.49625    390.13274   -5300.5276 
 7138000    110.30643   -6719.9564   -6436.1998   -6719.9564            0    6285.3911    22.992521    21.418844    21.460475    10568.709    7078.2886    4901.0779    6876.8066    567.12463   -162.51084    914.59781   -5467.4087 
 7139000    112.64606   -6721.5289   -6431.7538   -6721.5289            0     6864.078    23.021675    21.377161    21.476841    10569.571    7050.5436    7090.4066    6451.2838    759.71142   -721.87957   -31.805676   -5373.6813 
 7140000    111.98197   -6709.4068   -6421.3401   -6709.4068            0    7488.0019    23.034148    21.303612    21.472391    10536.729     7833.447    6985.5349    7645.0239     119.0909    726.55643    953.62597   -5270.6784 
 7141000    112.34115   -6720.0721   -6431.0814   -6720.0721            0    6525.8256    23.056026    21.308626    21.500081    10562.823    6982.5756    6144.6806    6450.2205    395.14755    880.16917    1074.5543   -5425.7914 
 7142000    118.13461   -6721.5801    -6417.686   -6721.5801            0    8051.0866     23.08702    21.226894    21.436085     10505.09    8153.4442    8189.3295    7810.4861    366.28307   -60.694685    197.02694   -5184.2115 
 7143000    116.81672   -6724.9215   -6424.4176   -6724.9215            0    7158.7851    23.215263    21.215512    21.449118    10564.199    6446.5761    7620.0337    7409.7455    -231.7173   -318.13223   -594.22856   -5321.4779 
 7144000    113.41675   -6716.5183   -6424.7606   -6716.5183            0     7079.556    23.210001    21.126667    21.491799    10538.503    6475.6426    8256.1924    6506.8331   -68.068471   -201.93373   -897.76003   -5336.6806 
 7145000    121.18961   -6720.7948   -6409.0419   -6720.7948            0    6527.0375    23.252373    21.153243     21.49543    10572.809    6623.9873    6845.4252    6111.6999   -292.91478   -591.93223    298.11538   -5402.6147 
 7146000    117.37463   -6729.7021   -6427.7631   -6729.7021            0    7752.8852    23.194435    21.126868    21.478949    10525.239    7068.5789     8196.711    7993.3657   -38.237196     291.4809   -351.24511   -5237.6967 
 7147000    116.25476   -6733.2068   -6434.1485   -6733.2068            0    7350.6734    23.241942    21.083925    21.518305    10544.645    7087.9478    7367.3246    7596.7479   -177.73123    -169.5446   -225.48677   -5303.7412 
 7148000    108.16719   -6711.4782   -6433.2247   -6711.4782            0    7881.0359    23.145623    21.197419    21.453699    10525.774    9171.7068    6550.2944    7921.1066   -822.74356   -1593.6935     268.7031   -5223.4257 
 7149000    113.91799   -6697.1706   -6404.1235   -6697.1706            0    7707.2388    23.177261     21.21339    21.437801    10540.287    7708.2282    7267.2321    8146.2562   -406.66732    14.692534    316.85032   -5219.3723 
 7150000    112.93642   -6723.2675   -6432.7454   -6723.2675            0    6453.8346    23.158295    21.227748    21.521851    10580.109    6495.9597     5835.581    7029.9632     285.8833   -828.37011    1007.4933   -5436.9185 
 7151000    118.92044   -6715.4676    -6409.552   -6715.4676            0     6497.836     23.07949    21.369001    21.409193    10558.706    8042.6296    5278.2595    6172.6189    -579.8812   -762.58907    -120.8099   -5408.9639 
 7152000    108.02276    -6714.021    -6436.139    -6714.021            0    6682.4555    23.046198    21.377058    21.477273    10580.992    6754.5874    7175.6965    6117.0827    1086.0199   -304.63384   -635.31695   -5404.9498 
 7153000    116.88454    -6705.827   -6405.1487    -6705.827            0    7226.7071     23.01027    21.377292    21.430846    10541.775    7776.4602    6777.5596    7126.1015   -1105.4801    509.91063   -55.835995   -5294.1077 
 7154000    119.36562   -6727.0721   -6420.0113   -6727.0721            0    7204.4939      22.9833    21.357669    21.459837    10533.984    7824.4282    6470.1979    7318.8555   -122.39879    345.31162    663.71066   -5313.2041 
 7155000    113.85044   -6727.5418   -6434.6685   -6727.5418            0    7339.7276    23.052524    21.268515     21.50415    10543.333    7050.7749     7684.572    7283.8357   -656.02082    1311.1139    288.64313   -5306.0848 
 7156000    109.83226   -6724.5539   -6442.0171   -6724.5539            0    8404.4375       23.083    21.227959    21.399206    10485.718    8672.0388    8071.5172    8469.7565    397.39171    469.56567    272.00526   -5156.7816 
 7157000    113.89121   -6730.3406   -6437.3624   -6730.3406            0    6177.6937    23.225395    21.213061    21.500055    10592.684    6376.6099    6023.0561     6133.415    421.13556   -1365.3752   -479.69318   -5483.0111 
 7158000    115.14319   -6723.4188     -6427.22   -6723.4188            0    8213.6701    23.128558    21.154814    21.462129    10500.998    7867.6637    8700.0313    8073.3155    736.04634    163.21569   -513.63458   -5169.3269 
 7159000    113.68289   -6717.4181   -6424.9758   -6717.4181            0    5910.1388    23.277146    21.224825    21.439133    10592.076    5728.6531    5860.3836    6141.3796    10.393256   -318.14577    197.41455   -5512.0097 
 7160000    113.36475   -6715.9466   -6424.3227   -6715.9466            0    7094.2413     23.16525    21.161896     21.45919    10519.737    7704.0142    7574.2336     6004.476   -306.75731    307.25035   -1460.0345   -5335.9271 
 7161000    110.46424   -6723.9667   -6439.8041   -6723.9667            0    6642.3309    23.095991    21.277926    21.516763    10574.086    7543.3776    6782.9459    5600.6692     657.9693   -721.58585   -654.60418   -5415.4757 
 7162000    113.69891   -6711.5646   -6419.0811   -6711.5646            0    7508.2399    23.181555    21.242691    21.373944    10525.355    7109.5429    7041.6132    8373.5637   -84.457906    19.547808     415.1214    -5266.555 
 7163000    114.68529    -6717.664   -6422.6431    -6717.664            0    7139.8001    23.129655    21.236513    21.491489    10556.473    7080.4206    7146.7155    7192.2643   -211.08372   -111.01448   -363.13913   -5323.4328 
 7164000     112.1223   -6716.7833   -6428.3555   -6716.7833            0    8487.1719    23.058683    21.224327    21.474283    10509.623    8173.6805    8823.5957    8464.2395   -641.76893    13.140458    309.55183   -5127.5092 
 7165000     116.0957   -6720.6698   -6422.0206   -6720.6698            0    7308.0201     23.22423    21.256672    21.340515    10535.169    6924.8669    7995.5174    7003.6761    188.22397    263.07915   -91.011423   -5299.1826 
 7166000    119.45479   -6711.4439   -6404.1537   -6711.4439            0    8258.0562    23.032663    21.226511    21.495081    10509.011       8549.1    8695.2677    7529.8008    -316.8813    87.727679   -312.80892    -5138.498 
 7167000    114.08268   -6721.6985   -6428.2278   -6721.6985            0    7268.4831    23.155252    21.297954    21.412715    10559.883    6972.8049    6686.5588    8146.0857    967.32032   -173.03624    911.41991   -5308.8445 
 7168000    115.56154   -6700.9862   -6403.7112   -6700.9862            0    7806.1944    23.122726    21.146307    21.510695    10517.875    8311.5571    7690.7185    7416.3076    335.56285    339.88837   -656.57293   -5206.3001 
 7169000    117.29677   -6701.1656   -6399.4268   -6701.1656            0    7118.5864    23.096899    21.284222    21.490625    10564.781    6966.7302    7184.7555    7204.2734     321.5211   -88.833841    485.64699     -5302.62 
 7170000    113.30103   -6713.7368   -6422.2769   -6713.7368            0    8056.6165    23.110431    21.255272    21.422258    10523.009    7485.8535    8227.6272    8456.3688    612.11818    137.12076    1013.6175   -5185.8497 
 7171000     115.5017   -6722.0153   -6424.8942   -6722.0153            0    6048.4151    23.039463    21.344425    21.502366    10574.091    6801.3037    5549.0218    5794.9198    270.32563    365.00827   -275.94882   -5492.1543 
 7172000    116.76336   -6719.7147   -6419.3481   -6719.7147            0    7033.1334    23.041276    21.319868    21.476038    10549.823    7063.4442    6752.6967    7283.2593    141.37352   -137.18399    662.36874   -5337.2418 
 7173000     114.1118   -6722.2338   -6428.6881   -6722.2338            0    6925.8741    23.103794    21.262193    21.467631    10545.702    6662.9136    7189.0613    6925.6474   -702.70795    486.54515   -285.57221   -5363.5008 
 7174000    115.94734   -6730.1985    -6431.931   -6730.1985            0    7056.7557    23.053861    21.335397    21.466672    10558.668    7420.2164     6723.083    7026.9676    615.72961   -734.81157    657.12592     -5345.28 
 7175000    112.48406   -6704.8662   -6415.5078   -6704.8662            0    8127.4549    23.099146    21.246511    21.416681    10510.799    7937.5926    7752.9548    8691.8173   -411.76841    276.23424    427.93409   -5169.6565 
 7176000    112.60709   -6723.0185   -6433.3437   -6723.0185            0    6781.8896    23.127515    21.242177    21.489542    10557.356    7149.2002    6335.4486    6861.0201   -329.75535   -444.84176    39.174811   -5389.1483 
 7177000    118.04927   -6710.1331   -6406.4585   -6710.1331            0    6123.5285    23.153607    21.151641    21.605916    10581.212    6442.9126    6164.9709     5762.702   -341.18792   -115.13212    151.51496   -5461.4994 
 7178000    115.64617   -6711.8951   -6414.4024   -6711.8951            0    7015.0449    23.219866    21.179714    21.440179    10544.068    6642.5639    6949.0433    7453.5277    172.11081    500.25957     725.1717    -5335.668 
 7179000    113.41618   -6713.1066   -6421.3504   -6713.1066            0    6778.6442    23.149816    21.147208    21.560406    10554.983    6764.8182    7032.5324     6538.582   -105.41602   -503.66621   -506.62863   -5377.8893 
 7180000    116.27002   -6713.5629   -6414.4654   -6713.5629            0     6789.941    23.203892    21.213573    21.439965    10553.554    6254.0347    7270.4165    6845.3719    144.61166    50.154745   -278.90165   -5369.4068 
 7181000    112.88741   -6719.9677   -6429.5717   -6719.9677            0    6130.2977    23.163345    21.199308    21.557042    10585.519     6669.476    6469.1053    5252.3117   -582.14123   -449.55702   -15.518394   -5483.1829 
 7182000    117.79408   -6716.9576   -6413.9395   -6716.9576            0    6622.8444    23.109775    21.315457    21.427671    10555.173    6478.4091    6665.5631    6724.5609    135.56275    33.536142   -86.611651   -5394.4429 
 7183000     113.9118   -6723.9226   -6430.8914   -6723.9226            0    7366.0333    23.006909     21.34279    21.426218    10520.951    7067.0038    7913.8745    7117.2216    141.11561   -193.25545   -179.79846   -5300.6673 
 7184000    114.73422    -6722.907   -6427.7602    -6722.907            0    6945.4564    22.902977    21.462812    21.456531    10547.222    7898.1452    5984.6608    6953.5631   -147.83517     145.5012    338.13367   -5359.4073 
 7185000    116.99054   -6711.1642   -6410.2131   -6711.1642            0    7644.0825    23.023389    21.328584    21.450709    10533.505    7891.5395    7438.3561    7602.3519    481.94579   -169.17843    239.95864   -5235.9263 
 7186000    116.63671   -6712.7982   -6412.7574   -6712.7982            0    6628.9969    23.124497    21.298893     21.47585    10577.419    6880.2839    6364.4361    6642.2707    284.80466   -376.20843   -141.07732    -5390.163 
 7187000    113.30417   -6726.3352   -6434.8672   -6726.3352            0    7971.6315    23.075052    21.146699    21.507097    10494.628    8371.5401    8418.2184    7125.1361   -549.02852   -563.26253    111.65844   -5214.7819 
 7188000    118.65626   -6713.6088   -6408.3728   -6713.6088            0    7225.2367    23.200151     21.12926    21.550649    10564.172    6460.9992    7585.2195    7629.4913    274.92732    568.78053    1345.5659   -5295.1978 
 7189000    111.94447   -6726.9633    -6438.993   -6726.9633            0    7818.8212    23.194299    21.137324    21.459064    10520.637    7998.0455    7679.9373    7778.4808   -370.09365    493.07038   -378.42756   -5239.3302 
 7190000    119.97838   -6704.8936   -6396.2565   -6704.8936            0    7817.8605    23.176073    21.206171     21.45577    10544.991    7561.6066    8147.7074    7744.2676   -692.56145   -958.05187    204.13104   -5193.9643 
 7191000    115.68877   -6704.5981   -6406.9957   -6704.5981            0     7709.141    23.168533     21.17756    21.499738    10548.911    7227.0564    8363.1277    7537.2388    504.67678   -189.81924       548.66   -5220.9826 
 7192000    112.97067   -6710.4277   -6419.8175   -6710.4277            0    7548.5289    23.173373    21.248744     21.42255    10548.573    7801.8821    7188.4123    7655.2923     136.4027    66.307311     264.4809    -5258.551 
 7193000    114.95714   -6721.6127   -6425.8925   -6721.6127            0    7914.6495    23.001806    21.316272    21.465138    10524.631    8358.0507    7575.5706    7810.3272    54.864557    263.41705    60.669537   -5211.0655 
 7194000    116.90094   -6714.3755   -6413.6549   -6714.3755            0    8283.9601    22.991776    21.371279    21.381926    10506.301    8350.7365    7153.8061    9347.3378    700.97631    457.94373    148.53065   -5144.3565 
 7195000    116.67588   -6713.0568   -6412.9152   -6713.0568            0    8177.0029    22.886149    21.433095    21.457968    10525.584    8723.4288    6641.2092    9166.3706    91.511405    325.98798   -156.12743   -5157.7056 
 7196000     112.6382   -6715.7215   -6425.9666   -6715.7215            0    7568.0986    23.089456    21.334738    21.370752    10527.393     7969.855    7221.9751    7512.4658    568.46179   -262.81829   -257.93293   -5264.0271 
 7197000    114.15272   -6713.9536   -6420.3026   -6713.9536            0    7278.6266    23.019318    21.290119    21.507601    10540.532    7354.8483     7330.895    7150.1364   -130.76682    561.18871    888.64929   -5301.4115 
 7198000    118.54847   -6715.2026   -6410.2439   -6715.2026            0    8470.9676    23.096014    21.245038    21.423595    10512.037    8712.2329    8730.7534    7969.9164   -209.70196    54.372603   -918.77635   -5111.5828 
 7199000    113.14823   -6698.9379    -6407.871   -6698.9379            0    7980.4784    23.139218    21.147733    21.486815    10514.401    7809.0123    8517.8514    7614.5714    777.94416    654.57521   -63.519447   -5184.1304 
 7200000    113.11898   -6720.8229   -6429.8312   -6720.8229            0    7091.7257    23.160453    21.194524    21.466982      10537.6    7484.9656    6904.5704    6885.6411   -566.43112   -652.91854   -6.9582567   -5339.9742 
 7201000     114.3705   -6711.7303   -6417.5192   -6711.7303            0    7636.4547    23.230032    21.123304    21.448462    10524.654    7042.6329    8251.4856    7615.2455    196.35658   -801.20176    304.58493     -5245.39 
 7202000    118.84803   -6729.6452   -6423.9159   -6729.6452            0    6817.4704    23.305717    21.109378    21.467744    10561.469    6533.3471    6565.7973    7353.2669     300.7362   -389.76696    -112.9479   -5373.8333 
 7203000    112.16012   -6732.3873   -6443.8622   -6732.3873            0    7791.8492    23.147838    21.170571    21.459491    10516.287     6954.585    8078.3211    8342.6413    493.63438   -1133.3555    -177.5965    -5248.832 
 7204000    117.38924   -6726.8189   -6424.8422   -6726.8189            0     8475.027    23.123065    21.202283    21.401459    10492.317    8586.8718    8442.5928    8395.6165     115.1633    392.58463    -638.6296   -5127.9963 
 7205000    116.31736   -6728.2308   -6429.0114   -6728.2308            0    7548.0709    23.025677    21.318363    21.455421    10531.817     7432.812    7914.8218    7296.5788    473.23739    912.45876   -354.54183   -5269.6599 
 7206000    114.15488   -6727.4278   -6433.7713   -6727.4278            0     8043.013     22.94293    21.336013    21.449496    10499.757    9589.0218    7514.4161     7025.601   -181.83226   -31.663259   -225.16374   -5202.1593 
 7207000    113.56397   -6730.4337   -6438.2973   -6730.4337            0     6779.203    23.000536    21.349296    21.509018    10561.901    7641.4874    5822.1913    6873.9305    141.00755     566.1629   -900.27287   -5394.0662 
 7208000    119.59573   -6724.8234   -6417.1707   -6724.8234            0    7407.3008    22.980642    21.393563    21.404542    10523.282    8249.1267    6393.3855    7579.3901    145.85089   -852.96127   -78.603389   -5280.3628 
 7209000    120.12061   -6718.9026   -6409.8996   -6718.9026            0    7550.1889    23.124955    21.298162    21.386772    10533.393    7927.0034     6730.707    7992.8563   -60.925197   -342.94492   -134.63288   -5250.0492 
 7210000    116.58249   -6728.1995   -6428.2982   -6728.1995            0    6928.8355    23.062728    21.205192    21.560395    10544.102    7283.1578    7287.5566     6215.792    518.49964   -601.48621   -1127.0668   -5362.8171 
 7211000    116.67268   -6711.3589   -6411.2255   -6711.3589            0    7977.9395    23.151261    21.154029    21.486757    10522.977    7901.0466    8203.3472    7829.4249    340.35335   -345.19534   -79.902441   -5186.8764 
 7212000    114.78774   -6725.7777   -6430.4933   -6725.7777            0    7444.9426    23.276434    21.043144    21.483271    10522.707    6823.3854    8495.7905    7015.6518    1021.4142   -192.97562    350.98608   -5287.9708 
 7213000    117.46385   -6728.6681   -6426.4995   -6728.6681            0    7363.9172    23.118505    21.182275    21.546829    10551.536    7981.2189    7838.9584    6271.5743   -712.68273   -17.720821    129.85672   -5293.3154 
 7214000    117.79747   -6723.4148    -6420.388   -6723.4148            0    7706.9735    23.211184    21.133552    21.461571    10527.647    7838.2256     7347.815    7934.8798    286.51504    307.54175    672.76774   -5237.0984 
 7215000    113.64435   -6731.5941   -6439.2509   -6731.5941            0    7436.9957    23.112793    21.249466     21.44387    10531.825    8192.6739    6482.7889    7635.5242   -366.01223   -336.48387    160.28523   -5296.9591 
 7216000    113.20558   -6717.4699   -6426.2555   -6717.4699            0    7364.5469    23.045722    21.255179     21.52536    10544.003    7589.8208     8490.315    6013.5049    588.59768    491.12507    175.84509   -5293.7836 
 7217000    110.81523   -6709.8621   -6424.7966   -6709.8621            0    6981.9895    23.116125    21.306051    21.406324      10542.9    7464.4242     5970.963    7510.5814    802.10798   -36.926629      1092.92   -5351.2642 
 7218000    120.31635   -6724.0107   -6414.5042   -6724.0107            0    7205.2024    23.006395     21.36091     21.47251    10552.397    8061.8373    6613.0613    6940.7087    -243.7387    51.924259   -88.612226   -5305.6532 
 7219000    111.72645   -6718.8517   -6431.4422   -6718.8517            0    6625.5797    23.091642    21.398772    21.438219    10593.327    7470.9344    4973.5061    7432.2987    48.946763    1002.7906    49.426485   -5407.8378 
 7220000    116.89184   -6741.1917   -6440.4946   -6741.1917            0    7307.6555    23.122994    21.289342    21.406069    10537.637    7179.7756    7330.7573    7412.4335   -587.69892    612.13669   -543.17136   -5317.4495 
 7221000    112.72452   -6721.0104   -6431.0335   -6721.0104            0    7674.0938    23.155629    21.211183    21.453092    10536.864     8559.534    6905.1308    7557.6165   -330.24314   -537.42812     18.54783   -5251.7604 
 7222000    112.48448    -6719.404   -6430.0445    -6719.404            0    7193.8055    23.174821    21.103554    21.527383     10528.42    7494.4269    7019.5793    7067.4102    133.01598   -300.40149     488.8936    -5325.463 
 7223000    112.74448   -6722.8903    -6432.862   -6722.8903            0     6933.495    23.170461    21.140893    21.579168    10570.431    6899.7811    6660.1014    7240.6026   -520.05679   -710.47304    562.13212    -5364.002 
 7224000    120.14884   -6716.3467   -6407.2711   -6716.3467            0    6659.3727    23.287752    21.130001    21.465215    10562.393    6260.8065     7566.147    6151.1646    -357.0558    254.63082   -1387.5893   -5381.4502 
 7225000    111.88387   -6723.2278   -6435.4133   -6723.2278            0    5794.2418    23.295197    21.216509    21.460704    10606.797    5750.3233     5455.621     6176.781   -47.952847    -250.7324   -289.99193   -5539.1064 
 7226000    113.53054     -6717.05   -6424.9996     -6717.05            0    7373.7299     23.12599    21.235062    21.481865    10549.353     6542.916    8710.7776    6867.4961    511.81254     -237.749   -105.61161   -5290.5402 
 7227000     117.5558    -6698.756   -6396.3508    -6698.756            0    6950.5896    23.070093    21.299219    21.485258    10557.318    7620.1833    6724.7616    6506.8241   -260.21104    691.04475    913.66228   -5326.1849 
 7228000    118.73005    -6702.491   -6397.0652    -6702.491            0    8148.1434    22.985056    21.374175    21.394499    10510.831    8400.1928    8058.6624     7985.575    -241.6439    330.54899    246.31884   -5148.0389 
 7229000    115.43886   -6709.7859   -6412.8265   -6709.7859            0    7745.2717    22.975282    21.260874    21.520292    10512.116    7674.0118    8418.3545    7143.4487    661.67159     689.4469   -768.90407   -5225.4111 
 7230000    113.98964   -6695.9178   -6402.6865   -6695.9178            0    7725.2186    23.012551    21.350817    21.454966    10541.614    7981.4235    7444.0137    7750.2185    411.08012   -409.69771    329.46879    -5215.022 
 7231000    121.95556   -6718.6382    -6404.915   -6718.6382            0    7311.6299    23.116751    21.333112     21.35399    10530.768    7591.6405    6624.0628    7719.1863   -888.53197   -159.12142    34.798102   -5281.9916 
 7232000    117.59558   -6718.8955   -6416.3881   -6718.8955            0    7777.1693     23.06028    21.203829    21.575348    10549.616    7608.0472    8509.0558    7214.4049     1209.654   -203.36785   -289.56034   -5219.8291 
 7233000    113.05995   -6718.1306   -6427.2907   -6718.1306            0    7187.7013    23.114322    21.281468    21.415576    10534.465    6806.1316    7383.2718    7373.7006    1240.9426   -536.72568    681.36374   -5323.0128 
 7234000    111.75888   -6707.0924   -6419.5994   -6707.0924            0    7545.1191     23.10013    21.255244    21.437938    10526.004    6736.2687    8078.2034    7820.8852   -348.16848    891.57197    310.69757   -5261.3408 
 7235000    116.48856   -6723.7305   -6424.0708   -6723.7305            0    7597.8109    23.129935    21.189879    21.485675     10530.57    7683.6036    7505.0722    7604.7568    571.09508   -45.377072    248.84499   -5257.2175 
 7236000    110.73595   -6713.9509   -6429.0894   -6713.9509            0    6813.1194    23.175415    21.333319    21.340015    10550.685    6191.5148    6251.1137    7996.7296   -456.38912    586.75065     120.9603   -5380.7484 
 7237000    112.34738   -6726.0101   -6437.0033   -6726.0101            0    5997.7728    23.197649    21.203843    21.554847    10602.383    6878.3085    5114.1734    6000.8364    279.53507    -639.9907    125.61893   -5509.5984 
 7238000    116.96399   -6711.9225   -6411.0398   -6711.9225            0    6879.0845    23.138491    21.203985     21.51454     10555.64    7662.2837    6963.1756    6011.7941   -613.90601   -1167.7627    174.02843   -5352.0516 
 7239000    112.53442   -6713.8039   -6424.3159   -6713.8039            0    7616.2805    23.231896    21.245918    21.345079    10535.567    6969.1771    7319.9433    8559.7211   -570.44742    41.595983    231.82795   -5254.0711 
 7240000    118.59883   -6722.4415   -6417.3532   -6722.4415            0    6826.1207    23.071735    21.158542    21.631134    10559.547    7826.1886    7828.6368    4823.5367    -12.21295    -1.663013   -734.75304   -5366.1295 
 7241000    112.61198   -6715.9201   -6426.2326   -6715.9201            0    7724.5384    23.150733    21.319224    21.294497     10510.02    8231.5933    6568.1057    8373.9162   -1251.1475    649.83204   -63.923052   -5242.2319 
 7242000    115.90062   -6725.2664   -6427.1191   -6725.2664            0    7595.4699    23.124902    21.222092    21.452771    10528.136    6995.0841    7559.2307     8232.095    177.69511   -161.11679    570.28549    -5260.895 
 7243000    117.25829   -6714.1459   -6412.5061   -6714.1459            0    7865.9574    22.988562     21.25454    21.548756    10528.966    8941.9672    7653.2791     7002.626   -9.9601017   -356.95457   -258.35259   -5204.6556 
 7244000    118.11156   -6727.9423   -6424.1075   -6727.9423            0    6948.0022    23.182277    21.280756     21.38317    10549.096    7389.9336    5569.7766    7884.2962   -375.70144   -30.680029    195.36945    -5355.173 
 7245000    121.90871   -6713.4272   -6399.8245   -6713.4272            0    7610.2573    23.046114    21.271847    21.511551    10545.681    8090.6139    6566.2656    8173.8925    22.761412   -62.074468    569.45785   -5229.3826 
 7246000    109.62824   -6712.2493   -6430.2373   -6712.2493            0    6593.3205    23.094804    21.315332    21.483491    10575.752    7848.6011    5257.0504    6674.3099   -1212.3168    1343.4207    314.81409   -5413.3067 
 7247000    116.02419   -6716.6458   -6418.1806   -6716.6458            0    7392.8814    23.158271     21.29896    21.352627    10532.121    7620.6479     6301.062    8256.9341    519.01814    391.38454   -437.54218   -5282.6327 
 7248000    114.00627   -6704.9586   -6411.6844   -6704.9586            0     8149.782    22.972574    21.251665    21.544308    10518.048    9061.8033    7414.1916    7973.3511   -241.53402   -677.57307    790.11721   -5161.5491 
 7249000    119.78414    -6726.609   -6418.4716    -6726.609            0    8521.7156    23.164425    21.204669    21.341033    10482.586    7571.0442    9463.4298    8530.6729    547.98601    262.24985   -168.48221   -5115.6907 
 7250000    119.28369   -6702.9301   -6396.0801   -6702.9301            0    7838.8873    23.048415    21.268642    21.526038    10552.247    8246.6994    7916.0447    7353.9178   -102.70474    -46.57051    30.562868   -5189.7248 
Loop time of 640.338 on 64 procs for 250000 steps with 1296 atoms

Performance: 67.464 ns/day, 0.356 hours/ns, 390.419 timesteps/s
195.5% CPU use with 32 MPI tasks x 2 OpenMP threads

MPI task timing breakdown:
Section |  min time  |  avg time  |  max time  |%varavg| %total
---------------------------------------------------------------
Pair    | 39.849     | 49.277     | 58.16      |  93.2 |  7.70
Bond    | 0.88371    | 1.047      | 1.3813     |  10.3 |  0.16
Kspace  | 340.18     | 351.45     | 363.99     |  38.0 | 54.88
Neigh   | 1.5552     | 1.6721     | 1.7873     |   5.3 |  0.26
Comm    | 87.842     | 92.502     | 98.079     |  28.8 | 14.45
Output  | 0.7576     | 0.75804    | 0.76031    |   0.1 |  0.12
Modify  | 119.83     | 123.23     | 125.33     |  11.3 | 19.24
Other   |            | 20.41      |            |       |  3.19

Nlocal:        40.5000 ave          53 max          31 min
Histogram: 7 3 4 2 0 3 4 6 2 1
Nghost:        3159.97 ave        3184 max        3129 min
Histogram: 2 0 4 3 3 4 6 3 6 1
Neighs:        13247.1 ave       17252 max       10222 min
Histogram: 7 3 4 2 0 3 4 6 2 1

Total # of neighbors = 423908
Ave neighs/atom = 327.08951
Ave special neighs/atom = 2.0000000
Neighbor list builds = 2915
Dangerous builds = 0

unfix		3
unfix		2
unfix		1

write_data	data.final.${pid}
write_data	data.final.0
System init for write_data ...
PPPM initialization ...
  extracting TIP4P info from pair style
  using 12-bit tables for long-range coulomb (../kspace.cpp:340)
  G vector (1/distance) = 0.36889356
  grid = 27 40 32
  stencil order = 5
  estimated absolute RMS force accuracy = 0.0042173741
  estimated relative force accuracy = 1.2700497e-05
  using double precision FFTW3
  3d grid and FFT values/proc = 7395 1120
Last active /omp style is kspace_style pppm/tip4p/omp
WARNING: Not all mixed pair coeffs generated from mixing. Use write_data with 'pair ij' option to store all pair coeffs. (../write_data.cpp:312)

write_restart   restart.lmp.${pid}
write_restart   restart.lmp.0
System init for write_restart ...
PPPM initialization ...
  extracting TIP4P info from pair style
  using 12-bit tables for long-range coulomb (../kspace.cpp:340)
  G vector (1/distance) = 0.36889356
  grid = 27 40 32
  stencil order = 5
  estimated absolute RMS force accuracy = 0.0042173741
  estimated relative force accuracy = 1.2700497e-05
  using double precision FFTW3
  3d grid and FFT values/proc = 7395 1120
Last active /omp style is kspace_style pppm/tip4p/omp
Total wall time: 0:10:40
