#include		in.partitions
include		in.temp
variable        temperature equal 232.00
variable	tempDamp equal 100.0
include		in.pressure
variable        pressure equal 2536.6
variable        pressureDamp equal 1000.0 # This is 1 ps
include		in.seed
variable        seed equal 745823

units		real
atom_style	full
#include		in.box
read_restart	restart.lmp.${pid}
read_restart	restart.lmp.0
Reading restart file ...
  restart file = 30 Jul 2021, LAMMPS = 30 Jul 2021
  restoring atom style full from restart
  orthogonal box = (0.060975251 0.045879866 0.19967282) to (18.146597 23.583298 22.013523)
  2 by 4 by 4 MPI processor grid
  restoring pair style lj/cut/tip4p/long/omp from restart
  restoring bond style harmonic/omp from restart
  restoring angle style harmonic/omp from restart
  864 atoms
  576 bonds
  288 angles
Finding 1-2 1-3 1-4 neighbors ...
  special bond factors lj:    0        0        0       
  special bond factors coul:  0        0        0       
     2 = max # of 1-2 neighbors
     1 = max # of 1-3 neighbors
     1 = max # of 1-4 neighbors
     2 = max # of special neighbors
  special bonds CPU = 0.002 seconds
  read_restart CPU = 0.007 seconds
include 	in.setup
variable	out_freq equal 1000
variable	out_freq2 equal 10000
variable	out_freq3 equal 1000

timestep	2.0

neigh_modify    delay 7 every 1

include		in.tip4p
# This is TIP4P/Ice

# create groups ###
group ox type 2
288 atoms in group ox
group hy type 1
576 atoms in group hy

# set charges - beside manually ###
set group ox charge -1.1794
Setting atom values ...
  288 settings made for charge
set group hy charge 0.5897
Setting atom values ...
  576 settings made for charge

# ### TIP3P Potential Parameters ###
pair_style lj/cut/tip4p/long/omp 2 1 1 1 0.1577 8.5
pair_coeff 1 1*2 0.000 0.000
pair_coeff 2 2 0.21084 3.1668
bond_style  harmonic
bond_coeff  1 450 0.9572
angle_style harmonic
angle_coeff 1 55 104.52
kspace_style pppm/tip4p/omp 1.0e-5
pair_modify tail yes

thermo          ${out_freq}
thermo          1000
thermo_style    custom step temp pe etotal epair emol press lx ly lz vol pxx pyy pzz pxy pxz pyz enthalpy

restart 	${out_freq3} restart.lmp.${pid} restart2.lmp.${pid}
restart 	1000 restart.lmp.${pid} restart2.lmp.${pid}
restart 	1000 restart.lmp.0 restart2.lmp.${pid}
restart 	1000 restart.lmp.0 restart2.lmp.0


include         in.dump
dump            myDump all atom ${out_freq2} dump.water.${pid}
dump            myDump all atom 10000 dump.water.${pid}
dump            myDump all atom 10000 dump.water.0
dump            myDump2 all dcd ${out_freq2} dump.dcd
dump            myDump2 all dcd 10000 dump.dcd
dump_modify     myDump append yes
dump_modify     myDump2 append yes


variable natoms 	equal  "count(all)"                        # NUMBER ATOMS
variable H      	equal  "enthalpy/v_natoms"                 # ENTHALPY-per-atom
variable Vol      	equal  "vol/v_natoms"                 # volume-per-atom
fix AVG all 		ave/time ${out_freq} 1 ${out_freq} v_Vol v_H file vol_enthalpy.dat
fix AVG all 		ave/time 1000 1 ${out_freq} v_Vol v_H file vol_enthalpy.dat
fix AVG all 		ave/time 1000 1 1000 v_Vol v_H file vol_enthalpy.dat


timer           timeout 23:50:00 every 1000
New timer settings: style=normal  mode=nosync  timeout=23:50:00

fix 		1 all shake 1e-6 200 0 b 1 a 1
       0 = # of size 2 clusters
       0 = # of size 3 clusters
       0 = # of size 4 clusters
     288 = # of frozen angles
  find clusters CPU = 0.000 seconds
fix             2 all nph aniso ${pressure} ${pressure} ${pressureDamp}
fix             2 all nph aniso 2536.6 ${pressure} ${pressureDamp}
fix             2 all nph aniso 2536.6 2536.6 ${pressureDamp}
fix             2 all nph aniso 2536.6 2536.6 1000
fix             3 all temp/csvr ${temperature} ${temperature} ${tempDamp} ${seed}
fix             3 all temp/csvr 232 ${temperature} ${tempDamp} ${seed}
fix             3 all temp/csvr 232 232 ${tempDamp} ${seed}
fix             3 all temp/csvr 232 232 100 ${seed}
fix             3 all temp/csvr 232 232 100 745823


run             250000
PPPM initialization ...
  extracting TIP4P info from pair style
  using 12-bit tables for long-range coulomb (../kspace.cpp:340)
  G vector (1/distance) = 0.37180285
  grid = 24 27 25
  stencil order = 5
  estimated absolute RMS force accuracy = 0.0031396974
  estimated relative force accuracy = 9.4551056e-06
  using double precision FFTW3
  3d grid and FFT values/proc = 4410 672
Last active /omp style is kspace_style pppm/tip4p/omp
Neighbor list info ...
  update every 1 steps, delay 7 steps, check yes
  max neighbors/atom: 2000, page size: 100000
  master list distance cutoff = 10.8154
  ghost atom cutoff = 10.8154
  binsize = 5.4077, bins = 4 5 5
  1 neighbor lists, perpetual/occasional/extra = 1 0 0
  (1) pair lj/cut/tip4p/long/omp, perpetual
      attributes: half, newton on, omp
      pair build: half/bin/newton/omp
      stencil: half/bin/3d
      bin: standard
Per MPI rank memory allocation (min/avg/max) = 10.20 | 10.21 | 10.23 Mbytes
Step Temp PotEng TotEng E_pair E_mol Press Lx Ly Lz Volume Pxx Pyy Pzz Pxy Pxz Pyz Enthalpy 
 7750000    237.23658    -4274.811   -3868.1957    -4274.811            0    2208.3906    18.085622    23.537418     21.81385    9285.9126    430.08837    2302.2409    3892.8426    187.72291    390.23035     50.53491   -3569.1232 
 7751000    238.39293   -4300.6146   -3892.0173   -4300.6146            0    2485.7391    17.897994    23.155907    22.293722    9239.5059    2224.2067    3104.7231    2128.2876   -58.224034   -183.57404   -8.2857861   -3557.0671 
 7752000    235.90746   -4303.4929   -3899.1555   -4303.4929            0    1965.0688    18.004905    23.320532    22.069947    9266.8172    2816.5149    2793.8469    284.84452    84.658469   -947.47253   -13.085767   -3633.5823 
 7753000    220.63834   -4278.4003   -3900.2337   -4278.4003            0     2613.768    18.022973    23.500285    21.812637    9238.6334    2866.4359    1211.9633    3762.9049     223.1955   -419.74503   -112.30531   -3548.0651 
 7754000    222.14752   -4313.5156   -3932.7623   -4313.5156            0    2175.3744    17.895684    23.163359    22.254885    9225.1874     3263.909    930.12137     2332.093   -473.40576    421.78293    109.26874   -3640.0877 
 7755000    236.50027   -4286.9006   -3881.5472   -4286.9006            0    3119.2996    17.961922    23.395049    21.862118    9186.9005    3690.8765    3959.6316    1707.3907    271.75113   -381.68647   -319.24845   -3463.6187 
 7756000    237.46146   -4283.0184   -3876.0176   -4283.0184            0    3332.8177    17.785441    23.667957    21.963907    9245.5976     4360.992    2583.4669    3053.9944   -9.9268192   -206.49215   -326.66821   -3426.6286 
 7757000    230.44139   -4295.9691   -3901.0005   -4295.9691            0    993.40389    18.041303    23.452017     22.16976    9380.1356    1662.1916    1265.4626    52.557534   -118.62762     578.5815    41.695952   -3765.1032 
 7758000    243.19593   -4295.3518   -3878.5223   -4295.3518            0    2572.3262    18.152364     23.27154    21.911015     9255.946    3547.6309    917.60245    3251.7454    -59.60849   -893.17312   -394.52264   -3531.2879 
 7759000    228.26723   -4266.5178   -3875.2755   -4266.5178            0    1184.2823    18.158874     23.26475    22.162134    9362.6516    1450.0285    2343.0219   -240.20341    42.750851    391.93727   -160.00355   -3713.5681 
 7760000    242.46905   -4313.9732   -3898.3896   -4313.9732            0    2128.7807    17.916523     23.66653    21.824575    9254.0988    973.38576     2073.901    3339.0552   -602.65993   -325.76203    334.35597   -3611.0861 
 7761000    241.66033   -4312.1078   -3897.9103   -4312.1078            0    2991.3021    17.796437    23.524351     22.06203    9236.2603    3225.7066     2453.365    3294.8347   -635.78687    349.01273   -236.45664   -3494.9777 
 7762000    254.56008   -4289.7412    -3853.434   -4289.7412            0    4138.9778    18.028454    23.206417    21.990864     9200.446    3761.2017     4826.877    3828.8547    139.26898    373.51992    1006.9194   -3298.0698 
 7763000    232.58843   -4266.6708   -3868.0221   -4266.6708            0     2446.929    18.354179    23.327637    21.730875    9304.2833     1316.898    1036.5132    4987.3757   -134.56029   -177.01091   -3.0462091     -3535.99 
 7764000    239.00466    -4326.517   -3916.8712    -4326.517            0    2489.7775    17.861134    23.381869    22.126834    9240.7567    2569.9534    2451.9469    2447.4323    114.05637   -571.05805    718.93461   -3581.3314 
 7765000    245.63337   -4313.4265   -3892.4193   -4313.4265            0    3841.3283    17.861152     23.68928     21.69993    9181.6272    3987.0316    3033.4801    4503.4732    137.54783   -798.92133    151.89508   -3378.0477 
 7766000    234.68893   -4299.3613   -3897.1125   -4299.3613            0    1793.0575    18.102597    23.468962    21.969322    9333.6479     1079.095    1967.5686    2332.5089   -204.32951    318.74063    23.815057   -3653.0385 
 7767000    225.96783   -4283.7392   -3896.4381   -4283.7392            0    2717.2895    18.144081    23.258213    21.981371    9276.1143    1790.9511    3386.1832    2974.7341   -788.93597   -726.82401   -111.90275   -3528.8361 
 7768000    221.91913   -4300.5573   -3920.1955   -4300.5573            0    4003.9548    18.068373    23.204894    21.774868    9129.6507    4440.5132     3415.049    4156.3022   -1209.3648   -450.72721    201.65024   -3387.0825 
 7769000    240.85534   -4310.7751   -3897.9573   -4310.7751            0    1145.9421    17.919333    23.581534    22.140891    9355.9734    1243.5594    1978.3734    215.89351    -306.6413    203.16006    428.10625   -3741.5966 
 7770000    230.29028   -4312.5354   -3917.8258   -4312.5354            0    1366.8666     17.98175    23.553832    22.026642    9329.1444    644.33366    1780.6459    1675.6202   -640.17465   -1096.7477    251.75826   -3731.8554 
 7771000    229.70215    -4309.734   -3916.0323    -4309.734            0    2728.9185    18.157452    23.377213    21.821257    9262.4824    2345.8085    2235.6302    3605.3168   -99.699239    352.25449    342.95368   -3547.3996 
 7772000    243.41301   -4294.4063   -3877.2047   -4294.4063            0    4642.8323    17.993727    22.969725     22.21142    9180.2233    4722.6446    3999.3784    5206.4741   -172.19926    -1282.838     29.09508   -3255.6031 
 7773000    222.36265   -4304.7026   -3923.5806   -4304.7026            0    2925.0027    17.989287    23.541377    21.927657    9286.2007    2424.0445      3136.72    3214.2436   -1586.6077   -516.69672    485.82208   -3527.4483 
 7774000    244.30679   -4274.5308   -3855.7973   -4274.5308            0    818.47113    17.921122    23.693831    22.038903    9358.1598    1213.6151    265.24385    976.55446   -606.67078   -277.13556     285.7938   -3744.0931 
 7775000     230.2112   -4273.2691    -3878.695   -4273.2691            0    2595.9882    17.891382      23.2164    22.140646    9196.6371    2680.2306    3379.0312    1728.7027     822.2467   -40.260888   -597.40539    -3530.512 
 7776000     246.3428   -4294.5878   -3872.3647   -4294.5878            0    1776.8565    18.104772    23.321246    21.962786    9273.2557    333.44242    3535.6138    1461.5131   -1356.9399    135.82195    54.965295    -3632.061 
 7777000    233.54797    -4275.952   -3875.6587    -4275.952            0    4353.9884    17.988008    23.182781     21.97599    9164.2525     4390.784    5358.6736    3312.5077    13.982037   -508.81599    700.20901   -3293.7429 
 7778000    231.97052    -4305.781   -3908.1915    -4305.781            0    3010.5077    17.957668    23.386308    21.916296    9204.0459    2948.8962    3531.5892    2551.0378    -799.9264    653.95189    867.15133   -3504.0863 
 7779000    218.07841   -4298.0834   -3924.3044   -4298.0834            0    1773.9272     18.01785    23.365357    22.007243    9264.9065    2123.4757    2474.4153    723.89068   -715.65385   -814.41752   -612.10749   -3684.6129 
 7780000    245.51982   -4294.4042   -3873.5917   -4294.4042            0    3669.8902    17.977518    23.109983    22.080566    9173.5948    5527.0728    3329.4258    2153.1721    224.35232   -459.00884    15.617368   -3382.6063 
 7781000    236.78554    -4266.452   -3860.6097    -4266.452            0    4055.3509    17.967764    23.563299    21.710237    9191.6755    2204.2239    4480.7825    5481.0462   -1452.4763    382.06931    1022.4994   -3316.9852 
 7782000     242.2958    -4298.178   -3882.8913    -4298.178            0    2633.4274    17.874774    23.387186    22.072547    9227.2218    1932.2101    2642.8404    3325.2315    87.083993    115.60533   -176.63423   -3528.5121 
 7783000    244.94595   -4312.3587   -3892.5297   -4312.3587            0    1550.1591    18.132999    23.371224    21.945375    9300.2392    1333.9593     1676.105    1640.4128   -110.17009   -273.86941    626.58679   -3682.2748 
 7784000    220.11018   -4300.2969   -3923.0355   -4300.2969            0    2042.3793    18.138286    23.298758    21.937342    9270.7105    1767.6007    1036.9426    3322.5948   -269.44011    43.343501    199.05779   -3646.8981 
 7785000    213.69481   -4298.3949   -3932.1293   -4298.3949            0    2274.6902     18.02929    23.371127    22.102661    9313.2843    1583.4972    2977.1966    2263.3769    358.49272   -983.01805    839.29204   -3623.1702 
 7786000    221.82799   -4294.2138   -3914.0082   -4294.2138            0    1551.1461    17.967414    23.543683     21.91568    9270.7517    1498.6388    1726.5682    1428.2314   -331.68946   -303.12954    308.32459   -3704.2864 
 7787000    237.05719   -4291.0682   -3884.7602   -4291.0682            0    2916.3103    17.831081    23.339475    22.216249    9245.6933     4181.697    3335.0877    1232.1462   -96.861041    16.343277    281.73024    -3491.528 
 7788000    253.68439   -4333.4649   -3898.6586   -4333.4649            0    1581.6023    17.998698    23.372661    22.042811    9272.9139    1592.4677    1237.6544    1914.6847     80.56804   -330.42133    309.98193   -3684.7691 
 7789000    234.68181    -4300.715   -3898.4784    -4300.715            0    2562.6123    18.078243    23.325162    22.025303    9287.5848    1049.2744    3996.8262    2641.7362   -802.62961    519.03558   -911.95446   -3551.3728 
 7790000    226.29399   -4296.0519   -3908.1918   -4296.0519            0     1630.347    18.189512    23.137342    22.054902    9281.9591    1721.9306    3317.4872   -148.37675   -44.980846   -314.97108    -255.4097   -3687.4952 
 7791000    231.17342   -4298.8318   -3902.6085   -4298.8318            0    3033.7296    17.959839    23.542959    21.840653    9234.8343    2226.8198    3494.9477    3379.4213   -892.54226   -250.75286   -441.70919    -3494.024 
 7792000    242.11648   -4320.5127   -3905.5333   -4320.5127            0    2928.3389    17.822046    23.486462    22.093201    9247.7015    2447.8801     3375.666    2961.4705   -20.734227    35.081533    396.49276   -3510.5934 
 7793000    221.93548   -4269.1923   -3888.8024   -4269.1923            0     1714.752    17.991995    23.442148    22.073855    9310.1121    1512.0875    1254.6325    2377.5361    71.116291   -590.55409    8.2999966   -3655.9761 
 7794000    237.15196   -4295.3035   -3888.8332   -4295.3035            0    1920.1923    18.354592    23.063803     21.92879    9283.0422    942.70756    1990.5909    2827.2784    1068.7248    36.616337    277.92157   -3628.8706 
 7795000     224.6411   -4327.5668   -3942.5397   -4327.5668            0    1142.1602    18.148179    23.113514     22.08889    9265.5868    1310.1419    1820.8816    295.45713   -1085.5402    92.627046    -291.8609   -3788.2006 
 7796000    232.48209   -4280.1525   -3881.6861   -4280.1525            0    2636.4676    18.034978    23.458122     21.88183     9257.474    3528.2418    2316.9729     2064.188    437.85898    272.96904   -410.25358   -3525.7346 
 7797000    228.46586   -4307.1331   -3915.5505   -4307.1331            0    3794.0913    17.855678    23.530199    21.877132     9191.626    4059.3868    3237.3856    4085.5015    587.15463   -191.13578    144.83493   -3406.9509 
 7798000      236.751    -4299.904   -3894.1209    -4299.904            0    2458.5914    17.820684    23.501475    22.119386    9263.8723    3248.6022    938.62055    3188.5515   -711.19114   -12.149884    258.42941   -3561.9552 
 7799000    239.95318   -4299.2265    -3887.955   -4299.2265            0    3245.6558    18.205178    23.121528    21.901901    9219.2012    2928.1694    3491.3516    3317.4464    1293.5008    822.89121    74.911878   -3451.5682 
 7800000    229.33311   -4307.3652   -3914.2961   -4307.3652            0    2047.6821    18.050462    23.247353    22.162664    9300.0181    2118.9574    2460.3396    1563.7494    972.34527   -820.30509    162.67586   -3636.5664 
 7801000    238.60993   -4282.9896   -3874.0203   -4282.9896            0    1346.2873    17.932085    23.761224    21.944543    9350.3131    985.80862    19.499571    3033.5537    151.41154   -791.78235    199.39052   -3690.4342 
 7802000    232.91783   -4303.3965   -3904.1833   -4303.3965            0    2383.9573    17.929786    23.557079    21.951106    9271.5628    1510.5439    2841.5407    2799.7873   -715.22409   -410.02854    548.17031   -3581.8336 
 7803000    228.20503   -4304.1216   -3912.9859   -4304.1216            0    3000.8141    18.080144    23.513818    21.887661    9305.1716    1857.7289    2445.9107    4698.8028    1525.3241   -1084.5649    942.26906   -3505.7563 
 7804000    238.41794   -4286.1068   -3877.4666   -4286.1068            0    2852.9738    18.026953    23.330991    21.998966    9252.4721    3213.8082    2285.5031      3059.61   -651.99979   -522.24818    498.87624   -3492.4925 
 7805000    229.66572   -4286.3171   -3892.6779   -4286.3171            0    2446.7063    18.027868    23.349109    21.959459    9243.4976     1572.925    2497.5031    3269.6909   -147.88703   -658.51565    1093.0788   -3562.8449 
 7806000    247.16425   -4284.3707   -3860.7396   -4284.3707            0    2522.2524    18.128317    23.335652    21.870728    9252.1075    1540.0521    2844.8897    3181.8153    238.68468   -421.52546   -514.68113   -3520.4058 
 7807000    244.19787   -4317.0623   -3898.5155   -4317.0623            0    3177.8791    17.878354    23.249123    22.236502     9242.737    4651.0415     3577.165    1305.4307    623.08404   -606.34184   -242.02353   -3470.1507 
 7808000    231.84366   -4302.7724   -3905.4003   -4302.7724            0    2372.6238    18.005354    23.501038    21.964182     9294.023    2409.8037    1263.5562    3444.5116   -106.27755    26.565768   -1125.8262   -3583.8059 
 7809000    239.69488   -4311.9654   -3901.1366   -4311.9654            0    2735.7795    17.972004    23.458059    22.016814    9282.0317    4305.4056    779.04275    3122.8902    -57.32824    148.24457     176.7787   -3530.7971 
 7810000    221.15215   -4311.5049   -3932.4576   -4311.5049            0    2342.8907     18.28316    23.250031    21.886135    9303.4471    1526.2936    3158.4055    2343.9731    665.00166    917.73997   -681.45582   -3614.5713 
 7811000    217.22119    -4274.919   -3902.6093    -4274.919            0     2611.579    18.145358    23.257782    22.084369    9320.0623    2677.2972    3152.6555    2004.7844    54.981901   -32.600813    57.722231   -3547.6343 
 7812000    235.40781   -4284.7147   -3881.2338   -4284.7147            0     2251.202    17.936909    23.669516    21.792428    9252.1486    2762.8418    1506.2767    2484.4875   -119.20231   -609.92821    314.92949   -3577.4721 
 7813000     241.4996   -4269.3468   -3855.4248   -4269.3468            0    3812.0134    17.778358    23.544012     21.97198    9196.8966    3540.8045    3311.2586    4583.9771    313.29526   -134.76818    775.43795   -3344.1297 
 7814000    236.54151   -4304.3524   -3898.9283   -4304.3524            0    2309.6623    18.088755    23.390919    21.951431    9287.9272    2248.1437    2210.2102    2470.6331    831.67703   -933.54252   -315.43216   -3586.0733 
 7815000     235.5894    -4322.468   -3918.6758    -4322.468            0    1440.2807    18.365658    23.148447    21.844945    9287.0825   -918.95964    2756.2808     2483.521   -982.67564    9.5736257   -311.70157   -3723.6005 
 7816000    244.33102   -4282.3827   -3863.6077   -4282.3827            0    3281.2718    17.955886    23.287622    22.021582    9208.3216    2984.7127    4177.5164    2681.5863   -87.252269     -14.3475    446.82647   -3422.9528 
 7817000     234.6129   -4337.8402   -3935.7217   -4337.8402            0    1722.1688    17.913487    23.630664    21.945645    9289.7585    2037.5435    897.11884     2231.844    807.78008   -553.95879   -92.881405   -3702.3995 
 7818000    237.01884   -4311.8051   -3905.5629   -4311.8051            0    2571.9317    17.830993    23.537599    22.089665    9271.0054    3674.4086    2185.5685     1855.818    601.96684   -107.85795    568.42491   -3557.8169 
 7819000    214.56688   -4300.1044   -3932.3441   -4300.1044            0    4351.6025    17.897049    23.252082    22.084375    9190.2722    3475.8576    4862.1991    4716.7508   -365.05807   -1126.6555    350.81957   -3349.0958 
 7820000    231.27655   -4290.2551    -3893.855   -4290.2551            0    2580.0414    18.219025     23.37983    21.856907     9310.118    1612.9138    2877.8847    3249.3258   -380.04679   -176.83495    446.14021   -3543.5408 
 7821000    230.47703   -4294.2388   -3899.2091   -4294.2388            0    1877.0034    18.001076    23.380512     22.12587    9312.2113     1492.589    3061.3441    1077.0773   -503.48052    -304.7137    1334.6989    -3644.295 
 7822000     236.1739    -4247.681    -3842.887    -4247.681            0    4121.8851    17.965408    23.499083    21.768272    9189.9248    3376.1975    5057.3575    3932.1003    1188.6842    60.020897    288.57339   -3290.4487 
 7823000    214.13628   -4298.4081   -3931.3858   -4298.4081            0    734.60372    17.757236    23.767888     22.09828    9326.6233    1649.5171    -285.2344    839.52847   -670.32576     395.9942   -524.76877   -3831.4656 
 7824000    245.17785   -4333.2579   -3913.0315   -4333.2579            0    3056.7786    17.887093    23.437748    22.065422     9250.557    2885.7442    3945.4592    2339.1325   -503.11371    369.73408    568.11766   -3500.6419 
 7825000    236.20726   -4311.0076   -3906.1564   -4311.0076            0     2907.788    18.148701    23.316287    21.880178    9258.8229     2142.611    2253.9809     4326.772   -537.15974   -187.85664    235.66781   -3513.5165 
 7826000    220.57053   -4285.3014   -3907.2511   -4285.3014            0    3078.4869    18.105642    23.260889    21.907483    9226.4094    2842.8661    3360.2898    3032.3047   -55.150305   -503.49564   -246.37057   -3493.0169 
 7827000    236.92084   -4328.1673   -3922.0931   -4328.1673            0    1368.5362    18.021012    23.368546    22.151698      9328.63    1686.0699     1068.569    1350.9696   -21.981582    486.41592   -33.316199   -3735.9058 
 7828000    236.57288   -4265.0545   -3859.5767   -4265.0545            0    2270.4375    17.804923    23.693992    21.923343    9248.7942      2607.43    2461.3067    1742.5757    -233.6903   -490.99415   -86.791132   -3553.3306 
 7829000    230.71241   -4294.8601   -3899.4269   -4294.8601            0    2538.5294    17.833001    23.399338    22.078635    9212.9815    2588.1997    2084.8877    2942.5009    797.42934    771.19785   -407.48583   -3558.3453 
 7830000    237.94535   -4265.4888   -3857.6586   -4265.4888            0    2576.7206    18.188565    23.167913    22.033172    9284.5823     1759.872    3483.8951    2486.3948   -133.13936   -339.25543    522.46994   -3508.7549 
 7831000    225.00753   -4287.8333   -3902.1781   -4287.8333            0     3427.166    18.029875    23.286873    22.016561    9243.8604    2236.8351     3464.905    4579.7578   -549.08095    333.78003    23.293028   -3440.1542 
 7832000    230.40846   -4309.9366   -3915.0244   -4309.9366            0    3127.8905    17.899208    23.760836    21.670823     9216.604    4460.2963    1665.3562    3258.0188    683.15635   -457.88582    1209.0304   -3494.5899 
 7833000    218.28461   -4288.0333   -3913.9009   -4288.0333            0    3256.0266    17.925521    23.332158    21.990671    9197.4022    1236.4301    6027.1951    2504.4546   -1294.3516   -75.002449   -248.59268   -3477.1548 
 7834000    245.08422   -4281.1246   -3861.0587   -4281.1246            0    2436.9482     18.00216     23.28556    22.070873    9251.8976    3212.4753    2734.4241    1363.9451   -599.62727    -117.2437    490.61596   -3532.2426 
 7835000    230.22389   -4289.6152   -3895.0193   -4289.6152            0    2657.6221    17.944517    23.418516    21.865415    9188.5902    3042.7546    794.33093    4135.7806    65.683248    60.656807    1196.7891   -3538.8816 
 7836000    246.04545   -4320.7215   -3899.0081   -4320.7215            0      1485.31    17.909537    23.179622    22.299779    9257.4476    1359.3908    2582.6664    513.87295    57.310608    266.14461   -293.46717   -3698.4758 
 7837000    232.77736   -4313.5749   -3914.6025   -4313.5749            0     1831.724    18.116948    23.367982     21.85743    9253.4858    2452.5593   -428.64355    3471.2561    221.05229   -119.78869   -108.54955   -3667.4066 
 7838000    239.91794   -4266.6365   -3855.4254   -4266.6365            0    6098.3844    17.993837    22.871615    21.907989    9016.1915    5736.7448    6491.9171    6066.4914    -176.5543    181.30966   -267.45527   -3053.5372 
 7839000    221.42379   -4311.1218    -3931.609   -4311.1218            0    2707.6426    18.052744    23.380028    21.896202    9241.8102    2725.1438    1555.6248    3842.1591    175.27609   -382.04931   -67.998583   -3566.6667 
 7840000      241.098   -4312.3776   -3899.1438   -4312.3776            0    2787.7338    17.865641    23.472976      22.0301    9238.5377    3813.3357    2088.5362    2461.3294    187.43147   -281.32811    716.34877   -3523.5397 
 7841000    218.32052   -4303.9017   -3929.7078   -4303.9017            0    2698.1273    17.826533    23.450068    22.089306     9234.068    3672.3466    2496.6842     1925.351       316.07    -510.7489   -92.324686   -3566.3526 
 7842000    240.18372   -4289.6082   -3877.9415   -4289.6082            0    2865.6504    18.128582    23.260333    21.884508    9228.1907    2277.4354    4131.9977    2187.5181    661.64328    99.144188   -236.71811   -3492.2717 
 7843000    232.86072    -4315.319   -3916.2037    -4315.319            0    3453.4377    18.108723    23.127643    22.038567    9230.0182    3233.5383    2366.4183    4760.3564     -1037.25    127.65431    534.14266   -3451.3353 
 7844000     237.7882   -4315.3638    -3907.803   -4315.3638            0     1332.577    17.980774    23.619319    21.772181    9246.5072    1609.7121    147.94317    2240.0757    497.81584   -379.91501   -107.54323   -3728.1039 
 7845000    226.21264   -4302.9376   -3915.2168   -4302.9376            0    4039.4631    17.801093    23.445981    22.011526    9186.8205    4612.6541    2476.6612    5029.0741     189.4584   -127.48339   -317.19904   -3374.0081 
 7846000     236.9894   -4287.2401   -3881.0483   -4287.2401            0    1454.0497    18.016359    23.298418    22.143874    9294.9498     1738.528    1569.4037    1054.2174    132.16987   -192.83324   -66.503626   -3683.9413 
 7847000    238.70682   -4310.4809   -3901.3455   -4310.4809            0    988.73668    18.248318     23.43193    21.935736     9379.574   -89.629709    1023.1609    2032.6788    1156.6346     292.4136   -181.76946   -3766.0948 
 7848000     226.2936   -4311.0419   -3923.1825   -4311.0419            0    3252.0462    17.853775    23.352624    22.098389    9213.5364    4076.1864    2404.8445    3275.1078    629.03774    705.98158    709.62527   -3486.2051 
 7849000    229.17274   -4290.9549   -3898.1607   -4290.9549            0    2039.1191    18.140272    23.489203    21.808364    9292.5554     1174.057    1471.1941    3472.1062   -748.86177    677.99063   -11.918655   -3621.8144 
 7850000    222.84316   -4293.7367   -3911.7912   -4293.7367            0     1564.392    18.134375    23.203476    21.892667     9212.008     616.2903    2131.3894    1945.4963    794.05216    332.87646   -425.05015   -3701.6187 
 7851000    232.10422   -4328.6521   -3930.8334   -4328.6521            0     2718.284    18.057078    23.238976    22.089806    9269.5012    2182.8197    2657.6039    3314.4285    140.86409   -501.13943    312.49243    -3563.359 
 7852000    248.39713   -4310.5108   -3884.7666   -4310.5108            0    2335.2354    18.066392    23.512396    21.775496     9249.886    2400.2394    2150.2061    2455.2606    -567.1617   -281.95605   -536.28967   -3569.7431 
 7853000    240.61479   -4298.5164   -3886.1108   -4298.5164            0    3174.7792     17.84139    23.347986    22.099381    9205.7301    3843.0427    3931.4823    1749.8126    243.18692     845.2413     174.4125   -3459.8773 
 7854000    224.01478   -4282.1333   -3898.1796   -4282.1333            0    1406.3258    17.977512    23.619017    21.913927    9304.8982    855.39264    1563.4924    1800.0923     573.9853    211.31032    367.24414   -3707.3378 
 7855000    241.68147   -4292.4468   -3878.2131   -4292.4468            0    2796.4451     18.07249    23.356351    21.918149    9251.8132    1103.1045    2630.4884    4655.7423   -197.29901   -415.70149   -252.29421   -3500.8938 
 7856000    223.00586   -4310.4622   -3928.2378   -4310.4622            0    1859.0534    18.087893    23.326522    22.023646    9292.3848     1516.217    2660.0027    1400.9404   -1133.4923    1322.2513    126.82847    -3676.299 
 7857000    233.98864    -4318.513   -3917.4645    -4318.513            0    2968.6463    18.199422    23.305136    21.694384    9201.4559    3562.1066    2279.1168    3064.7154    91.646736    121.09405    492.20039   -3519.0906 
 7858000    230.96931   -4289.0709   -3893.1975   -4289.0709            0    2651.7691    17.864443    23.209859    22.232883    9218.4473    1889.7516    4352.7519     1712.804    1198.0868    225.64671   -19.169412   -3536.6894 
 7859000    239.17805   -4327.4958   -3917.5528   -4327.4958            0    984.24376    18.067464     23.54977    21.910797    9322.7072    1763.2713    1154.3481    35.111855     736.9462   -699.08778   -404.23721   -3783.7329 
 7860000    224.98558    -4294.962   -3909.3444    -4294.962            0    3346.5873    17.831776    23.350574    22.086557     9196.449    3398.1259    3749.6674    2891.9686    975.84499   -646.50894    839.08808   -3460.4975 
 7861000    238.06087   -4303.2826   -3895.2545   -4303.2826            0    1634.0774    17.934052    23.390126    22.051398    9250.1142    751.56191    1368.2543     2782.416   -194.68137   -158.10921    671.47682   -3674.8118 
 7862000    235.28523   -4303.3257   -3900.0548   -4303.3257            0    2364.1586    18.082098    23.417229    21.923181    9282.9902    1167.2053    3313.8543    2611.4161    873.18839     960.6565     438.7968   -3579.9882 
 7863000    224.04019   -4285.6346   -3901.6374   -4285.6346            0    3090.7752     17.85394    23.200358    22.261429      9221.08    3279.2803     3901.229    2091.8162   -782.81265   -609.03317    656.95932   -3485.9899 
 7864000    230.21387   -4257.1265   -3862.5478   -4257.1265            0     2968.796     17.97435    23.499965    21.910336    9254.8509    2997.0383    2948.6601    2960.6895   -771.89466    434.12862   -284.15207   -3461.8419 
 7865000    235.58679   -4285.8496   -3882.0619   -4285.8496            0    3056.1419    17.941329    23.466381    22.002245    9263.3423    3911.2352    2829.3464     2427.844    1105.6505     -803.471    530.22617   -3469.1883 
 7866000    220.38413   -4294.8746   -3917.1437   -4294.8746            0    1601.2512    18.062014    23.318757     22.15438    9331.0636    1947.3766      2073.85    782.52684     643.3624    214.05799     41.47781   -3699.2391 
 7867000    223.50974   -4323.0578   -3939.9697   -4323.0578            0    2211.0564    18.096128    23.313536    21.971423    9269.4078     1420.042    2361.6331    2851.4942   -253.96193    29.427804   -777.17421   -3641.0685 
 7868000    234.14475   -4320.5539   -3919.2378   -4320.5539            0    1554.1957    17.946665    23.321877    22.114387    9255.9752    1206.1949    2801.6489    654.74333   -1157.2053    175.83423    40.845409   -3709.4387 
 7869000    234.85191   -4294.9662   -3892.4381   -4294.9662            0     1963.482    18.043497    23.516591    21.920833    9301.4816    642.60756    2928.3374     2319.501    745.57572   -44.939584   -591.75051   -3626.0867 
 7870000    221.00274   -4293.0186   -3914.2275   -4293.0186            0    2342.7205    17.870301    23.663063    21.946448    9280.4084    2739.0529      3226.11    1062.9985    128.35499    330.43389    220.25323   -3597.1514 
 7871000     227.9615   -4298.7779   -3908.0597   -4298.7779            0    3023.8678    17.856691    23.382833    22.090669    9223.7384    4031.6915    3474.8764    1565.0355   -778.86369    129.09438     13.68858   -3501.2927 
 7872000    227.66775   -4265.9417    -3875.727   -4265.9417            0    1848.8688    18.192575    23.378298    21.919331    9322.5421    1734.9329    2700.5958    1111.0776    321.99385    204.59818    443.65244   -3624.3553 
 7873000    211.78229    -4299.859   -3936.8714    -4299.859            0     2801.785    18.111613     23.01839    22.122932    9223.0542    3651.0499    2880.4699    1873.8352   -1931.6403   -897.18788    189.58379   -3560.0067 
 7874000    249.78459   -4315.5008   -3887.3785   -4315.5008            0    2015.7883    17.970953    23.463134    21.933748    9248.4721    2759.0029    2160.4958    1127.8661   -1383.6412   -202.54174     855.4526     -3615.49 
 7875000    245.77857   -4286.5918   -3865.3358   -4286.5918            0    1966.0084    17.904616    23.690155    21.922879    9298.8771    268.18411    2705.2192     2924.622    -640.3259    306.82807   -274.75627   -3598.7164 
 7876000    235.37266   -4301.3837    -3897.963   -4301.3837            0    4142.7434    17.933753    23.387112    22.105947    9271.6472    4961.7149    3689.4563    3777.0589   -393.19801   -379.20192    -87.79779   -3337.7918 
 7877000    243.70585   -4303.6622   -3885.9587   -4303.6622            0     3320.002    18.023988    23.136614    22.060854    9199.6864    3066.4255    3920.4288    2973.1517   -1717.2311    110.20777   -175.71052   -3440.5207 
 7878000    230.85314   -4294.9942   -3899.3198   -4294.9942            0    2718.8249    18.197845     23.24587    21.880109    9255.8274      2477.39    2347.9275    3331.1573   -643.98981   -985.04758    38.207339   -3532.3144 
 7879000    239.24855   -4284.6451   -3874.5813   -4284.6451            0         2847    17.937803    23.521238    21.899921         9240    3360.9601    1780.6945    3399.3453   -1312.2272   -69.086872   -518.11446   -3490.9312 
 7880000    226.66375   -4318.0472   -3929.5533   -4318.0472            0    2881.9662    17.938942    23.387018    22.023886    9239.8646    2087.4392    3770.2452    2788.2142    686.59726   -285.96109   -353.85823    -3541.197 
 7881000    231.08766   -4329.3086   -3933.2323   -4329.3086            0     1538.211    18.144202    23.508278    21.899328    9340.9164    1118.4993    1403.5926    2092.5411    461.39921    237.37924    -477.1808   -3723.6854 
 7882000    229.34712   -4261.5895   -3868.4964   -4261.5895            0    4083.9117    18.018407    23.023508    22.199521    9209.4032    2717.4829    5006.3581    4527.8942   -1094.7313   -275.79025     -113.657   -3319.9875 
 7883000    223.47731   -4294.8943   -3911.8619   -4294.8943            0    1807.4199    18.064071    23.388181    21.998906    9294.2243    2464.7133    2723.7421    233.80435   -1021.0119    65.023024   -269.13535    -3666.872 
 7884000    234.55985   -4328.7542   -3926.7266   -4328.7542            0     1716.317    17.870485    23.254584    22.265348    9252.8261    4126.8239    1317.8977   -295.77075   -322.64132   -739.53442    40.010611   -3695.1217 
 7885000    224.64031    -4321.662   -3936.6361    -4321.662            0    2557.3749     17.93687    23.480507    21.796311    9179.8826    2896.5663    1431.8888    3343.6696   -701.75743    203.28719    144.13242   -3594.2569 
 7886000    230.43568   -4295.8317   -3900.8729   -4295.8317            0    2974.0106     17.87741    23.479909    21.974449    9223.9936    2996.6633    2282.8873    3642.4813   -805.21455    343.66085      462.514   -3500.8016 
 7887000    225.02134   -4298.2599    -3912.581   -4298.2599            0     2401.078    17.984734    23.244355    22.044753    9215.6669    1162.9876    1761.7423    4278.5041   -267.16181   -434.60248   -1.7126437   -3589.8736 
 7888000    225.68257   -4284.4327   -3897.6205   -4284.4327            0    2182.3129    18.194772    23.282953    21.914974    9283.7966    2891.4597     1849.379    1806.1001   -319.25196   -117.03544    366.15761    -3602.147 
 7889000    223.01666   -4328.3973   -3946.1544   -4328.3973            0    2001.9168    17.944012    23.261041    22.135733    9239.3753    2377.1159    3552.7116    75.922872   -396.26632    4.7431866   -213.55085   -3676.4025 
 7890000    234.74438   -4302.0589   -3899.7151   -4302.0589            0      2732.78    17.790703    23.769253     21.76585    9204.1627    3024.6466    1415.2764     3758.417   -320.49852   -49.894524    189.04534   -3532.8851 
 7891000    221.00972   -4313.3138   -3934.5107   -4313.3138            0    1589.5904    17.971829    23.480203    22.030324    9296.4044    2879.9772    1518.2021    370.59186   -778.63465    80.995524   -28.638911   -3718.9964 
 7892000    233.84136   -4317.7971    -3917.001   -4317.7971            0    2304.6288      18.0837    23.331396     21.98164    9274.4486    2039.0687    2330.5481    2544.2696    458.59717    -295.8423    -262.0211   -3605.2808 
 7893000    224.09555   -4295.3033   -3911.2112   -4295.3033            0    3179.3619    18.172307    23.243165    21.864701    9235.2544    3307.7069    2393.6888    3836.6901   -455.86934   -131.35786   -407.55987   -3482.9934 
 7894000     229.2929   -4302.9703   -3909.9701   -4302.9703            0    459.46098    17.979354    23.545244    22.086616    9349.8887    595.95351    473.54316    308.88626   -1047.7253    262.18505    865.21673   -3847.3187 
 7895000     235.1777   -4280.6809   -3877.5944   -4280.6809            0     2200.968    17.890749    23.489003    21.997027    9243.9392    2789.8147    1760.8016    2052.2876    575.60607    388.11909    541.99287   -3580.8745 
 7896000    228.13144    -4303.371   -3912.3616    -4303.371            0     3013.754    17.886919     23.39481    22.084376    9241.4515    2801.1609    4044.5146    2195.5865   -36.682672    472.16608    869.23042   -3506.1766 
 7897000     230.6436   -4326.0806   -3930.7653   -4326.0806            0    3881.9472    17.958379    23.278135    22.027834    9208.4619    4009.4697    4834.8483    2801.5238   -841.92547   -488.64358   -660.40661   -3409.4355 
 7898000     226.2363   -4322.5422   -3934.7809   -4322.5422            0    538.14962    18.194679    23.552358     21.79332    9339.0391     875.0933   -783.71118    1523.0667    341.10484   -216.35541    705.17135   -3861.4848 
 7899000     245.3167   -4283.6412   -3863.1768   -4283.6412            0    2949.4855    17.838368    23.367201    22.021392    9179.2369    3488.9295    2828.4706    2531.0564   -580.63463   -324.12233   -325.36843   -3468.3299 
 7900000    232.84387   -4311.0418   -3911.9554   -4311.0418            0    2949.5747    17.936837    23.635594    21.770299      9229.47    3427.7068    2671.8383    2749.1789    -49.41091    553.59396    693.44321   -3514.9357 
 7901000    232.19094    -4282.296   -3884.3286    -4282.296            0    2986.0105    18.091244    23.448627    21.829358    9260.3376    2850.4226    2713.9351    3393.6738   -278.64219    472.56268    644.00499   -3481.0604 
 7902000    220.48522   -4310.8811    -3932.977   -4310.8811            0    1711.4643    17.972549    23.260837    22.232535    9294.4563    2089.7619    1625.2677    1419.3633    -370.8141    213.46315   -580.10192   -3700.9878 
 7903000    236.76758   -4297.6225   -3891.8109   -4297.6225            0    1430.0937    18.155675    23.665697     21.68762    9318.4485    1611.8148    400.72683    2277.7394    400.59053   -117.11826    182.68293   -3697.4612 
 7904000    224.72796   -4314.7151    -3929.539   -4314.7151            0    2653.2439    17.865815    23.502773    22.106801    9282.5615      3088.17    2113.0847    2758.4771   -318.91382   -240.96187    110.69293   -3570.3518 
 7905000    225.68462   -4297.7398   -3910.9241   -4297.7398            0    963.56711    18.089714    23.301593    22.079987    9307.1377    178.22518    2641.7141    70.762103   -503.30451    18.231642    4.3260711   -3780.1342 
 7906000    213.01851   -4314.8667   -3949.7603   -4314.8667            0    2287.3474    18.087536    23.373331    21.838992    9232.7829    1887.9473    1728.6948    3245.4002    89.061626    128.41853    514.65742   -3641.7674 
 7907000    225.83166   -4295.9118   -3908.8441   -4295.9118            0    3528.9604     17.81611    23.263673    22.199655    9201.0506    5095.9369    3336.5729    2154.3713    515.97842    90.855745    297.50213   -3435.3004 
 7908000    224.59156   -4304.1798   -3919.2376   -4304.1798            0    2329.8522     18.17357    23.576016     21.70043    9297.7746     2046.818    2823.3259    2119.4128    217.81643   -60.491019   -74.133834   -3603.3131 
 7909000    228.55483   -4306.5042    -3914.769   -4306.5042            0    2105.6928    17.978092    23.378581    22.154709    9311.6747    2439.2547    2460.6432    1417.1806    1272.3902    -653.0402    876.62974   -3628.8134 
 7910000    230.52638   -4277.3017   -3882.1874   -4277.3017            0    2413.3061     18.03918    23.451338    22.065493    9334.6508    2504.6746     3280.509    1454.7346    288.09376   -1255.9706     135.7271   -3553.6488 
 7911000    221.18573   -4312.5236   -3933.4189   -4312.5236            0    3631.8563     17.89961    23.468717    21.947508    9219.7286    2357.0108    3448.5514    5090.0068   -658.48899    1116.4365    62.605409   -3445.0784 
 7912000    222.74176   -4290.5345   -3908.7627   -4290.5345            0    3162.6416    18.071415    23.245837    21.884018    9193.1513    1947.7209    3708.6825    3831.5215   -94.510015    297.96636   -774.38261   -3484.7389 
 7913000    233.40627   -4303.1685   -3903.1181   -4303.1685            0    2146.8676    18.160562    23.294292    22.031369    9320.0938    2841.1901     1963.496    1635.9167   -603.13775   -122.57651   -352.50627   -3611.3073 
 7914000     219.8453   -4291.9952   -3915.1879   -4291.9952            0    1897.4247    17.982961    23.382895    22.185063    9328.6789    988.38863    2172.7801    2531.1053   -828.02989    210.80281   -397.34111   -3657.0447 
 7915000    230.67469   -4298.5389   -3903.1704   -4298.5389            0    4449.8537    17.854377    23.403612    21.947041     9170.723    5139.0482    4390.1293    3820.3837   -1096.2075    313.88474    841.47639   -3308.0221 
 7916000    232.15805    -4287.732   -3889.8211    -4287.732            0    3182.4227    17.946145    23.628154    21.782962    9236.7229    2950.6389    2858.2698    3738.3594    13.182908    286.64846    -990.4672   -3461.1229 
 7917000    220.54359     -4300.48   -3922.4758     -4300.48            0    1173.8274    17.923131    23.297149    22.289903    9307.3244    2257.4183    678.52426    585.53962   -248.19618   -170.59258   -486.32214   -3763.1431 
 7918000    248.42481   -4289.3749   -3863.5833   -4289.3749            0    3006.2411    17.991748    23.331147    21.917037    9200.0734    3659.6037    2078.3852    3280.7344    400.57085   -117.07171    264.64773    -3460.225 
 7919000    240.45426   -4286.7361   -3874.6057   -4286.7361            0    3621.4893    18.027495    23.319682    21.946597    9226.2492    4687.1561    4620.7541    1556.5577   -398.02606    199.98193    189.75654   -3387.3148 
 7920000     229.8778   -4295.0483   -3901.0456   -4295.0483            0    3070.0389    18.022745    23.106776    22.140369     9220.302     1219.539    3379.4966    4611.0811   -555.08884    302.65106    436.59538   -3488.2216 
 7921000    240.83659   -4319.8009   -3907.0152   -4319.8009            0    1350.2878    18.022207    23.485129    21.927195      9280.77    1090.1178    1695.5881    1265.1575   -138.00156    145.22137   -90.189828   -3724.2531 
 7922000    239.76837    -4318.752   -3907.7972    -4318.752            0    3528.5036    17.907598    23.421956    21.941343    9202.8792    3813.9708    2532.4666    4239.0734   -295.71152    52.313004   -25.290977   -3434.2207 
 7923000    230.32628   -4310.1896   -3915.4182   -4310.1896            0    2206.4211     17.90957    23.582556    21.906052    9252.0962    2374.4257    3261.4309    983.40657   -317.88158    -709.3153    282.83741   -3617.7007 
 7924000    229.72073   -4307.4094   -3913.6759   -4307.4094            0    2719.8795    18.146871    23.114702    21.951738    9207.8655    1422.3907    3417.9407    3319.3072    820.24705   -656.48609    759.21573   -3548.4307 
 7925000    234.23091   -4293.6793   -3892.2155   -4293.6793            0    1941.7869    18.135079    23.198548    22.007387    9258.6731    1740.0389    2805.2231    1280.0988    354.53834   -443.38982    349.64657   -3630.0194 
 7926000    226.57894   -4294.3642   -3906.0157   -4294.3642            0    3383.9678    17.815185    23.464614    21.983858     9189.834    4949.6243    2156.0439     3046.235   -106.69723    -271.6418    159.43327   -3452.4817 
 7927000    242.41192    -4292.549   -3877.0633    -4292.549            0     2434.953    17.914995    23.503204    21.956411    9244.9611    2133.4341    4268.0701    903.35465   -1142.0572    317.70393    201.43474   -3548.7628 
 7928000    239.03925   -4297.7039   -3887.9988   -4297.7039            0    2779.3365    18.141857    23.200884     21.92486    9228.3297    3156.9991     2486.404    2694.6064   -354.37584    587.84504    807.19416   -3513.9398 
 7929000    220.61339   -4277.0141   -3898.8903   -4277.0141            0    1743.6869    18.015202    23.220311    22.069208    9231.9602     2212.776    1214.7644    1803.5203    929.71353   -285.69623     189.7041   -3664.1226 
 7930000    233.46687   -4313.9547   -3913.8005   -4313.9547            0    1518.8016    17.879196    23.561345    22.015974    9274.4033    1304.4767    1545.4616    1706.4663    1390.7567   -804.99612   -776.74556    -3708.371 
 7931000    230.16691   -4290.7052    -3896.207   -4290.7052            0    4085.1981    17.959059    23.428661    21.795101    9170.4348    3500.1193    4161.5803    4593.8948   -415.46309   -534.92992    93.571721   -3349.8469 
 7932000    245.67471   -4297.5277   -3876.4497   -4297.5277            0    2530.8352    18.067888    23.260011    22.064745    9272.9134    3632.7934    1848.3702     2111.342   -1512.3055    545.42392   -174.51156   -3534.1898 
 7933000    224.97172    -4299.237   -3913.6432    -4299.237            0    3894.3033    17.981934    23.266398    21.986084    9198.4244    5682.7037    4469.4435    1530.7628    377.38195   -960.25541    1083.5558    -3391.224 
 7934000     228.8541   -4316.7842   -3924.5361   -4316.7842            0    3855.1585    17.918844    23.435764    21.932909     9210.545    4064.4203    3368.7996    4132.2557   -437.95616   -419.66375    258.79681   -3406.6868 
 7935000    233.57773    -4283.339   -3882.9947    -4283.339            0    2212.4127    17.879795    23.382704    22.196213    9279.7475    2069.6689    1487.4375    3080.1316   -753.80696   -374.40858    107.56953   -3583.5765 
 7936000    235.13535    -4284.637   -3881.6231    -4284.637            0    2011.9976    18.158986    23.309204    21.938744     9286.045    1704.3836    1640.8366    2690.7726    -834.6101    133.23748   -334.42584   -3609.1434 
 7937000    229.91538   -4308.7027   -3914.6356   -4308.7027            0    2666.6102     18.02529    23.319488    21.959373    9230.4147    1951.4621    2490.2242    3558.1441    197.73477    1049.4082    524.28672   -3555.6668 
 7938000    235.82041   -4277.8063   -3873.6182   -4277.8063            0    2873.6151    17.819232    23.573877    22.091077    9279.7631    3036.5733    2047.8783    3536.3938   -485.22863    58.469672   -238.05648   -3484.7151 
 7939000    224.36076   -4316.4675   -3931.9209   -4316.4675            0     1236.297    18.038468    23.670954    21.944704    9370.1196     1322.399    1835.5427    550.94939    -679.8738    1027.7527    1168.1048   -3762.9765 
 7940000    242.07456   -4277.2781   -3862.3706   -4277.2781            0     3148.103    18.021123    23.256042     22.07359    9251.0414    3144.5687    3079.8765    3219.8637     -307.546   -640.68996    570.04411   -3437.6381 
 7941000    235.54531    -4296.382   -3892.6654    -4296.382            0    886.30272    18.058522    23.573591    21.980966      9357.39    345.39351    1901.8102    411.70446   -410.54452    7.2852602    44.690825   -3771.7135 
 7942000    226.94532   -4278.8311   -3889.8546   -4278.8311            0    4076.1467    17.891594    23.411813    21.923742    9183.2997    3929.0508    3978.3765    4321.0128   -222.34343   -346.27393   -600.42636   -3343.9403 
 7943000    237.98568   -4298.3029   -3890.4036   -4298.3029            0    2178.0615    17.933103    23.380134    22.081643    9258.3549    268.18154    3495.8347    2770.1683    180.54949   -1126.6058    656.25072   -3596.3139 
 7944000    233.28985   -4277.8363   -3877.9855   -4277.8363            0    1054.2505    18.120729    23.484392    21.946045    9339.2337    3071.3931   -265.94877    357.30703   -658.14721   -209.69287    230.11538   -3734.3933 
 7945000    233.67959   -4308.0836   -3907.5648   -4308.0836            0    1496.7424    17.974775    23.289238    22.131327    9264.5902    335.70847     3007.069    1147.4498     235.0136    135.21761    326.28187   -3705.3331 
 7946000    227.40542   -4291.4467   -3901.6816   -4291.4467            0    2736.0913     17.95124    23.431583    21.923416     9221.558    3691.1384    2067.7247    2449.4109   -455.42881    370.63536   -512.90426   -3533.7129 
 7947000    225.53188   -4288.9151   -3902.3612   -4288.9151            0    1561.3732    18.046327    23.582781     21.86243    9304.2696    1245.5843    1619.3242    1819.2112    174.99038    345.95533    213.23336   -3690.4934 
 7948000    224.33111   -4276.5347   -3892.0389   -4276.5347            0    2468.6976    17.791291    23.332621    22.324319     9267.214    3675.9123    2536.6636    1193.5168    361.49662    542.89987   -511.60824   -3558.3875 
 7949000    242.62852   -4295.3277   -3879.4707   -4295.3277            0    2425.4362    18.072778    23.444018    21.957235    9303.2485    2815.5936    2081.4342    2379.2807    903.30225   -896.44538      179.456   -3550.3916 
 7950000    234.69586    -4311.308   -3909.0473    -4311.308            0    1336.2903    18.015052    23.484422    22.045292    9326.7699    1093.3645    2035.0035    880.50305    307.01495    1083.4654    922.30198   -3727.2832 
 7951000    226.62977    -4285.307   -3896.8714    -4285.307            0    3493.5136    17.815378    23.279322    22.234809    9221.4406    4193.3365    2416.0459    3871.1582   -165.75854   -267.81386    183.06031   -3427.0453 
 7952000    233.07925   -4290.0321   -3890.5422   -4290.0321            0    2115.5227    18.118795    23.523271    21.800245     9291.555    1772.1341    1823.5437    2750.8904    812.83178   -265.66996    114.70911   -3603.8724 
 7953000    223.44712   -4308.3411   -3925.3604   -4308.3411            0    2982.0694    17.818068    23.457881    21.986662    9189.8559    3073.1031    3038.1457    2834.9593   -519.28102   -1077.8279   -103.43109   -3525.6897 
 7954000    224.70948   -4310.0497   -3924.9054   -4310.0497            0    3672.6668    17.991272     23.16285    21.986693    9162.4956    1844.6719    3689.1877    5484.1407    275.41999    774.24812    273.08523   -3434.1431 
 7955000    229.11083   -4320.2533   -3927.5652   -4320.2533            0    3075.7383    18.117236    23.330536    21.807424    9217.6672    3910.9399    2520.8901    2795.3847    145.40796    290.29722    344.09973    -3514.093 
 7956000    231.91432   -4322.6856   -3925.1924   -4322.6856            0    2501.9577    18.061968    23.307302    22.105536    9305.8947    1300.9397    3071.6983     3133.235   -141.67795     215.5815   -29.849858   -3585.6344 
 7957000    231.26574   -4303.2948   -3906.9132   -4303.2948            0    3114.1101    17.843224    23.496821    22.071762    9253.7857    3135.5472    3757.0444    2449.7388    -10.42131   -60.338745    957.84729   -3486.6424 
 7958000    225.67499    -4270.098   -3883.2988    -4270.098            0    3430.3504    17.966686    23.523562     21.80916    9217.4334    3327.2276    3050.8644     3912.959   -381.92948   -115.86182   -372.86053   -3422.1678 
 7959000    224.20561   -4282.4776   -3898.1969   -4282.4776            0    2696.8009    17.913546    23.243736    22.166824    9229.7719    3626.6186    2250.5759    2213.2082   0.46556864     70.50511   -525.12194   -3535.1892 
 7960000    229.50161   -4271.5253   -3878.1674   -4271.5253            0    2464.7919    18.087367    23.483041    21.758517    9241.8513    3295.2377    1634.4681    2464.6698     393.7152    -462.9765    -450.6677   -3545.9555 
 7961000    233.66497   -4312.9434   -3912.4497   -4312.9434            0    3617.8926    17.944115    23.367132    21.960127    9207.9362    3215.5209     3688.287    3949.8698    -421.8127   -287.75994    521.08346    -3426.609 
 7962000     240.8785   -4314.5461   -3901.6886   -4314.5461            0    1315.9855    17.953306    23.433097    22.165114    9324.8981    1879.6785     185.7764    1882.5017   -552.07924    187.13202    711.41188   -3722.7224 
 7963000    241.20006   -4296.6591   -3883.2504   -4296.6591            0    2109.6802    18.236712    23.452618    21.608856    9242.0781    1021.8405    1635.4328    3671.7673    683.00166   -503.33283    630.35802   -3598.8946 
 7964000    230.44785   -4298.3956   -3903.4159   -4298.3956            0    3894.8727    17.828027    23.306241    22.028002    9152.7295    3975.2925    4018.6483    3690.6773    179.74132    304.31017    1174.7238   -3383.5159 
 7965000    214.53641   -4318.9118   -3951.2037   -4318.9118            0    2786.3302    17.972714    23.501183    21.882418    9242.6971    3218.7993    1035.9459    4104.2454    40.851815    -437.9597    148.20989   -3575.6196 
 7966000    233.96426   -4319.5445   -3918.5378   -4319.5445            0    680.80828    17.863508    23.649302     22.06319    9320.8039    257.12223     1253.527    531.77564    556.49089    395.34431   -240.97276   -3825.9925 
 7967000    224.73398   -4315.2033   -3930.0169   -4315.2033            0    2553.4239    17.953647    23.313909    22.014343    9214.5368    4288.5487    1674.7421    1696.9809    803.65763     261.7557   -405.53488   -3586.8762 
 7968000     240.4319   -4306.8126   -3894.7206   -4306.8126            0    2959.6387     18.11688    23.252693    21.903789    9227.3269    1806.1329    3626.2406    3446.5426    56.401088    32.943153   -273.43772   -3496.4387 
 7969000    234.55112   -4292.8503   -3890.8378   -4292.8503            0    2495.3267    17.830697    23.440788    22.159761    9262.0176    2695.5396    3382.8924    1407.5482    601.17352   -338.18402    97.055287   -3553.7764 
 7970000    229.37348   -4322.7831   -3929.6448   -4322.7831            0     2550.835    17.908554    23.548166    21.897282    9234.3815    99.703563    2857.6226    4695.1788    856.98133    -482.5971    489.79537   -3586.1137 
 7971000    231.98173   -4303.5589   -3905.9502   -4303.5589            0    2730.9448    18.125665     23.15881    21.970518    9222.5385    3030.0597    1622.6473    3540.1273    247.15808   -424.49093       305.85   -3538.6347 
 7972000    233.19726   -4322.2138   -3922.5217   -4322.2138            0    2909.8216    18.119264    23.198505    21.991943    9244.0897    2206.5316    2557.2249    3965.7082    668.91961   -724.58637    405.94262   -3530.2325 
 7973000     226.4167   -4302.0197   -3913.9492   -4302.0197            0    1796.5767    18.065301      23.4881    21.844277    9268.9548    1464.9871     2908.361     1016.382   -670.70386   -318.08372   -404.42293   -3671.0912 
 7974000    226.47206   -4296.5593    -3908.394   -4296.5593            0     2639.207    17.729939    23.622162    22.110052    9260.1208    3425.9897    2300.0671    2191.5641    88.395831    9.0074478   -894.76111   -3551.9707 
 7975000     230.7196   -4313.8118   -3918.3663   -4313.8118            0    3409.5412    17.928833    23.276169    21.975334    9170.6267    2189.2644    3598.2146    4441.1445    339.13911    -36.03016   -549.13687     -3462.36 
 7976000    235.37137   -4302.4941   -3899.0756   -4302.4941            0    2875.8433    18.075395    23.348675    21.899586    9242.4253    2833.9793    4025.0826    1768.4679     277.6123   -24.238317    277.74296    -3511.437 
 7977000     248.5007    -4269.519   -3843.5973    -4269.519            0    2936.9359    18.047858    23.191945    22.193987    9289.6245    3695.5088    3761.7561    1353.5428    94.579032    640.87943    302.98439   -3445.7023 
 7978000    234.88984   -4279.9798   -3877.3867   -4279.9798            0    2471.5651     17.97634    23.373918    22.051922    9265.7213    3323.8801    1855.2489    2235.5661   -227.27927    304.79289    343.66041   -3543.4015 
 7979000     244.8402   -4305.0709   -3885.4232   -4305.0709            0    3189.6774    17.872882    23.900513    21.665843     9255.021     3330.516    2931.2475    3307.2688    862.98252   -931.03793    574.37992   -3454.8965 
 7980000    234.77937   -4275.5829   -3873.1791   -4275.5829            0    3021.6882    17.927543    23.517067    22.042935    9293.3728    2396.2475    2363.0814    4305.7356   -402.49637   -644.48815   -1279.2219   -3463.6366 
 7981000    237.81611   -4292.7602   -3885.1515   -4292.7602            0    3270.2458    18.172809    23.064166    22.048121    9241.2649    2512.3569     4984.297    2314.0834     256.0327     776.9608   -567.71073   -3444.4062 
 7982000    228.37636   -4290.0873    -3898.658   -4290.0873            0    2457.4643    18.126068    23.309129    22.001131    9295.5405    3242.3397     1998.593    2131.4602     270.4483     -520.717    205.90363   -3565.5096 
 7983000    236.81746   -4320.1104   -3914.2133   -4320.1104            0    3237.1304    17.902911    23.455023    21.911296    9200.8425    3847.1698    2660.8472    3203.3741    1613.4581   -52.243855   -221.40692   -3479.8395 
 7984000    240.73827    -4297.599   -3884.9818    -4297.599            0    2187.1154    17.924505    23.494031    22.076368    9296.7756    2814.1435    2843.2513    903.95135   -487.29381   -231.23361    761.52576   -3588.4441 
 7985000    231.94593   -4316.5217   -3918.9743   -4316.5217            0    3099.7117    18.252572    23.267539    21.745749    9235.2551    253.06568    4246.9313     4799.138    -66.65151   -165.64963   -176.52048   -3501.4843 
 7986000    221.60325   -4286.1154    -3906.295   -4286.1154            0    3584.6474    17.859234    23.275035    22.123772    9196.2829    4380.0027    4186.7816     2187.158    901.48604    34.159455    778.63852    -3425.528 
 7987000    234.31495   -4297.7175   -3896.1097   -4297.7175            0    2487.6704    17.874842    23.489242    21.817029    9160.2395    3043.2716    2916.0155    1503.7241   -215.03212    390.34434    742.52676   -3563.7751 
 7988000    233.61892   -4290.1549   -3889.7401   -4290.1549            0     1092.536    17.932641    23.420737    22.182361    9316.4956     1353.264    2142.5658   -218.22174   -313.19718    429.21705   -473.28774   -3741.2956 
 7989000    216.98921   -4267.2191    -3895.307   -4267.2191            0    1687.4304    17.983426    23.424691    22.030131    9280.3293    2803.7549    971.43113    1287.1051   -570.56422   -626.58885   -315.08311   -3666.9233 
 7990000    233.66211   -4298.7581   -3898.2692   -4298.7581            0    1825.3904    18.224116    23.602611    21.641487    9308.7983    1603.2141    1691.4204    2181.5368   -492.76054    593.32289   -21.733679   -3650.4555 
 7991000    224.50817    -4313.554   -3928.7547    -4313.554            0    2122.0266    18.041224    23.211548    22.158274    9279.1038    2433.7335    2899.4697    1032.8768    521.76361   -864.72197   -452.60069   -3641.5888 
 7992000    221.93518    -4282.823   -3902.4337    -4282.823            0    2258.2395    18.379034    23.432605     21.54267    9277.7525    3330.7411    1721.2049    1722.7725   -357.12095    1093.8292   -611.90296   -3596.8792 
 7993000    238.15258   -4282.3763   -3874.1909   -4282.3763            0    3466.6018    17.976405    23.288576    22.127213     9263.444    4736.0081    3710.7657    1953.0315    1246.5604   -118.09305    145.68692   -3405.8605 
 7994000    239.52129   -4300.8594   -3890.3281   -4300.8594            0    3347.1208    17.967296     23.30557     22.08433    9247.5499    3315.9877    3604.4396     3120.935    440.59122   -141.03936   -284.57908   -3438.9152 
 7995000    234.33404   -4277.6896    -3876.049   -4277.6896            0     2308.285    17.864608    23.725431    21.931692    9295.6494     2173.641    1811.1294    2940.0847   -53.781457   -279.40204    495.64789   -3563.1206 
 7996000    231.53694   -4301.8756   -3905.0292   -4301.8756            0    1511.6933    17.978233    23.444287     22.04032    9289.7051    1568.1705    1428.3604    1538.5491   -763.16644    724.41844    301.42609   -3700.2238 
 7997000    229.57658   -4300.8467   -3907.3603   -4300.8467            0    1782.1015    18.212993    23.361337    21.903695    9319.5814    760.40181    2242.7772    2343.1255    435.69336    219.27405    -829.7961   -3665.1432 
 7998000    229.42622   -4266.8018   -3873.5731   -4266.8018            0    1490.9507    17.983964    23.321139    22.227861    9322.5097    190.81104    2959.4861    1322.5551   -1564.1111   -459.24493   -466.73312   -3670.8646 
 7999000    232.13402   -4318.7631   -3920.8934   -4318.7631            0    3953.2745    17.875558    23.587407    21.838041    9207.7495    3259.9114     3577.014    5022.8982    392.27013   -107.45532   -54.996672   -3390.0256 
 8000000    239.68752   -4275.8343   -3865.0181   -4275.8343            0    2292.5649    17.984736     23.41527     22.03212    9278.1101    2880.0138    3854.8333    142.84768     1189.044   -242.74761   -631.58863   -3554.8072 
Loop time of 429.077 on 64 procs for 250000 steps with 864 atoms

Performance: 100.681 ns/day, 0.238 hours/ns, 582.645 timesteps/s
190.3% CPU use with 32 MPI tasks x 2 OpenMP threads

MPI task timing breakdown:
Section |  min time  |  avg time  |  max time  |%varavg| %total
---------------------------------------------------------------
Pair    | 17.149     | 25.199     | 33.965     | 105.9 |  5.87
Bond    | 0.83109    | 1.0915     | 1.4126     |  11.4 |  0.25
Kspace  | 211.09     | 219.42     | 229.76     |  39.2 | 51.14
Neigh   | 1.5125     | 1.5966     | 1.6847     |   4.2 |  0.37
Comm    | 68.891     | 72.957     | 76.492     |  20.9 | 17.00
Output  | 0.63972    | 0.64006    | 0.64172    |   0.0 |  0.15
Modify  | 76.457     | 79.432     | 83.313     |  19.1 | 18.51
Other   |            | 28.74      |            |       |  6.70

Nlocal:        27.0000 ave          37 max          18 min
Histogram: 5 2 6 2 3 1 5 0 2 6
Nghost:        2120.75 ave        2215 max        2033 min
Histogram: 13 3 0 0 0 0 0 0 4 12
Neighs:        6556.28 ave        9117 max        4280 min
Histogram: 5 4 3 3 2 3 4 1 3 4

Total # of neighbors = 209801
Ave neighs/atom = 242.82523
Ave special neighs/atom = 2.0000000
Neighbor list builds = 5218
Dangerous builds = 0

unfix		3
unfix		2
unfix		1

write_data	data.final.${pid} nocoeff
write_data	data.final.0 nocoeff
System init for write_data ...
PPPM initialization ...
  extracting TIP4P info from pair style
  using 12-bit tables for long-range coulomb (../kspace.cpp:340)
  G vector (1/distance) = 0.37166855
  grid = 24 27 25
  stencil order = 5
  estimated absolute RMS force accuracy = 0.0031638994
  estimated relative force accuracy = 9.527989e-06
  using double precision FFTW3
  3d grid and FFT values/proc = 4410 672
Last active /omp style is kspace_style pppm/tip4p/omp

write_restart   restart.lmp.${pid}
write_restart   restart.lmp.0
System init for write_restart ...
PPPM initialization ...
  extracting TIP4P info from pair style
  using 12-bit tables for long-range coulomb (../kspace.cpp:340)
  G vector (1/distance) = 0.37166855
  grid = 24 27 25
  stencil order = 5
  estimated absolute RMS force accuracy = 0.0031638994
  estimated relative force accuracy = 9.527989e-06
  using double precision FFTW3
  3d grid and FFT values/proc = 4410 672
Last active /omp style is kspace_style pppm/tip4p/omp
Total wall time: 0:07:09
