#include		in.partitions
include		in.temp
variable        temperature equal 189.50
variable	tempDamp equal 100.0
include		in.pressure
variable        pressure equal 3827.6
variable        pressureDamp equal 1000.0 # This is 1 ps
include		in.seed
variable        seed equal 745823

units		real
atom_style	full
#include		in.box
read_restart	restart.lmp.${pid}
read_restart	restart.lmp.0
Reading restart file ...
  restart file = 30 Jul 2021, LAMMPS = 30 Jul 2021
  restoring atom style full from restart
  orthogonal box = (0.14421097 0.22934767 0.080323548) to (18.063361 23.399830 22.132872)
  2 by 4 by 4 MPI processor grid
  restoring pair style lj/cut/tip4p/long/omp from restart
  restoring bond style harmonic/omp from restart
  restoring angle style harmonic/omp from restart
  864 atoms
  576 bonds
  288 angles
Finding 1-2 1-3 1-4 neighbors ...
  special bond factors lj:    0        0        0       
  special bond factors coul:  0        0        0       
     2 = max # of 1-2 neighbors
     1 = max # of 1-3 neighbors
     1 = max # of 1-4 neighbors
     2 = max # of special neighbors
  special bonds CPU = 0.002 seconds
  read_restart CPU = 0.007 seconds
include 	in.setup
variable	out_freq equal 1000
variable	out_freq2 equal 10000
variable	out_freq3 equal 1000

timestep	2.0

neigh_modify    delay 7 every 1

include		in.tip4p
# This is TIP4P/Ice

# create groups ###
group ox type 2
288 atoms in group ox
group hy type 1
576 atoms in group hy

# set charges - beside manually ###
set group ox charge -1.1794
Setting atom values ...
  288 settings made for charge
set group hy charge 0.5897
Setting atom values ...
  576 settings made for charge

# ### TIP3P Potential Parameters ###
pair_style lj/cut/tip4p/long/omp 2 1 1 1 0.1577 8.5
pair_coeff 1 1*2 0.000 0.000
pair_coeff 2 2 0.21084 3.1668
bond_style  harmonic
bond_coeff  1 450 0.9572
angle_style harmonic
angle_coeff 1 55 104.52
kspace_style pppm/tip4p/omp 1.0e-5
pair_modify tail yes

thermo          ${out_freq}
thermo          1000
thermo_style    custom step temp pe etotal epair emol press lx ly lz vol pxx pyy pzz pxy pxz pyz enthalpy

restart 	${out_freq3} restart.lmp.${pid} restart2.lmp.${pid}
restart 	1000 restart.lmp.${pid} restart2.lmp.${pid}
restart 	1000 restart.lmp.0 restart2.lmp.${pid}
restart 	1000 restart.lmp.0 restart2.lmp.0


include         in.dump
dump            myDump all atom ${out_freq2} dump.water.${pid}
dump            myDump all atom 10000 dump.water.${pid}
dump            myDump all atom 10000 dump.water.0
dump            myDump2 all dcd ${out_freq2} dump.dcd
dump            myDump2 all dcd 10000 dump.dcd
dump_modify     myDump append yes
dump_modify     myDump2 append yes


variable natoms 	equal  "count(all)"                        # NUMBER ATOMS
variable H      	equal  "enthalpy/v_natoms"                 # ENTHALPY-per-atom
variable Vol      	equal  "vol/v_natoms"                 # volume-per-atom
fix AVG all 		ave/time ${out_freq} 1 ${out_freq} v_Vol v_H file vol_enthalpy.dat
fix AVG all 		ave/time 1000 1 ${out_freq} v_Vol v_H file vol_enthalpy.dat
fix AVG all 		ave/time 1000 1 1000 v_Vol v_H file vol_enthalpy.dat


timer           timeout 23:50:00 every 1000
New timer settings: style=normal  mode=nosync  timeout=23:50:00

fix 		1 all shake 1e-6 200 0 b 1 a 1
       0 = # of size 2 clusters
       0 = # of size 3 clusters
       0 = # of size 4 clusters
     288 = # of frozen angles
  find clusters CPU = 0.000 seconds
fix             2 all nph aniso ${pressure} ${pressure} ${pressureDamp}
fix             2 all nph aniso 3827.6 ${pressure} ${pressureDamp}
fix             2 all nph aniso 3827.6 3827.6 ${pressureDamp}
fix             2 all nph aniso 3827.6 3827.6 1000
fix             3 all temp/csvr ${temperature} ${temperature} ${tempDamp} ${seed}
fix             3 all temp/csvr 189.5 ${temperature} ${tempDamp} ${seed}
fix             3 all temp/csvr 189.5 189.5 ${tempDamp} ${seed}
fix             3 all temp/csvr 189.5 189.5 100 ${seed}
fix             3 all temp/csvr 189.5 189.5 100 745823


run             250000
PPPM initialization ...
  extracting TIP4P info from pair style
  using 12-bit tables for long-range coulomb (../kspace.cpp:340)
  G vector (1/distance) = 0.37198363
  grid = 24 27 25
  stencil order = 5
  estimated absolute RMS force accuracy = 0.003131258
  estimated relative force accuracy = 9.4296905e-06
  using double precision FFTW3
  3d grid and FFT values/proc = 4410 672
Last active /omp style is kspace_style pppm/tip4p/omp
Neighbor list info ...
  update every 1 steps, delay 7 steps, check yes
  max neighbors/atom: 2000, page size: 100000
  master list distance cutoff = 10.8154
  ghost atom cutoff = 10.8154
  binsize = 5.4077, bins = 4 5 5
  1 neighbor lists, perpetual/occasional/extra = 1 0 0
  (1) pair lj/cut/tip4p/long/omp, perpetual
      attributes: half, newton on, omp
      pair build: half/bin/newton/omp
      stencil: half/bin/3d
      bin: standard
Per MPI rank memory allocation (min/avg/max) = 10.19 | 10.21 | 10.23 Mbytes
Step Temp PotEng TotEng E_pair E_mol Press Lx Ly Lz Volume Pxx Pyy Pzz Pxy Pxz Pyz Enthalpy 
16000000    199.83671   -4365.7852   -4023.2719   -4365.7852            0    2799.3483     17.91915    23.170482    22.052549    9156.1159    3220.9773    2427.6087     2749.459   -735.80778    324.69018    340.15964   -3649.4678 
16001000    181.05498   -4362.6738   -4052.3517   -4362.6738            0     4409.196    18.214138    23.176393    21.572089     9106.399    3735.5525    4565.4014     4926.634    64.838953   -266.89934    99.203469   -3466.7775 
16002000    196.51176   -4388.6736   -4051.8592   -4388.6736            0    4960.5438    17.734983     23.32583    21.907816    9062.8953    4859.9054    5872.3561    4149.3698    -1286.668     183.5697    82.122453   -3396.2091 
16003000    192.87844   -4392.6837   -4062.0967   -4392.6837            0    3755.8465    17.887372    23.347959    21.908508    9149.7295    4823.3711    3366.7795    3077.3889   -1528.9158   -326.40368   -456.54263   -3560.9187 
16004000    179.91845   -4399.3772   -4091.0031   -4399.3772            0    3405.6487    18.009469    23.240561    21.891381     9162.641    1550.3188    3798.2031    4868.4242    1100.5448     151.6172    -171.3102    -3635.914 
16005000    190.33196   -4382.2627   -4056.0402   -4382.2627            0    2910.1805    17.992644    23.223029    21.911002    9155.3738    2168.9118    2855.2156     3706.414    171.27921    -1440.601    -1070.173   -3667.4679 
16006000    185.80821   -4366.9264   -4048.4575   -4366.9264            0    2405.8961    17.836727    23.535622    21.849841    9172.5298    2144.6034    2107.1753    2965.9098   -925.64979   -288.59264    1276.7033   -3726.6161 
16007000    186.80967   -4380.2279   -4060.0425   -4380.2279            0    3626.2751    17.823057    23.113648    22.215008    9151.6024    3982.9829    3297.5783     3598.264   -912.99554   -569.09608    599.15126   -3576.0554 
16008000    191.59954   -4371.1473   -4042.7523   -4371.1473            0    3532.5277    18.128351     23.16573    21.698748    9112.5297    3611.1622    2705.0486    4281.3722   -105.79991     818.5963    236.04931   -3573.2903 
16009000    196.34667   -4372.7984    -4036.267   -4372.7984            0    3646.5568     17.73791    23.376154    22.022683    9131.5761    4305.7702    4287.3779    2346.5223   -42.554929   -4.8136177   -197.98336    -3550.638 
16010000    192.43909    -4381.011    -4051.177    -4381.011            0    4577.2134    17.858495    23.412877    21.781645    9107.3143    5856.5498    4537.1049    3337.9853     403.5356   -610.58382    387.59429   -3443.2276 
16011000    195.72151   -4391.3227   -4055.8627   -4391.3227            0    4203.7253     18.09728    22.967347    21.833043     9074.828    3239.1024    5091.5319    4280.5416    -131.8344   -1082.4264    54.528547   -3499.5121 
16012000     201.4101   -4372.0888   -4026.8788   -4372.0888            0    2673.5206    17.963642    23.394442    21.875724     9193.259    3290.9344    2777.3438    1952.2835   -274.95085    270.32385    179.19375   -3668.4285 
16013000    202.79327   -4391.1565   -4043.5758   -4391.1565            0    2818.2524    17.858779    23.619322    21.843726    9213.9514    2721.0624    2319.5034    3414.1914   -1306.5139    209.49879   -556.23984   -3664.8702 
16014000    177.37811   -4378.6615   -4074.6415   -4378.6615            0    4543.4204    17.984288    23.096515     21.95638    9120.1175    3085.6798    4414.2706    6130.3108   -176.18662   -518.71009    1009.2845   -3470.3322 
16015000    178.41512   -4363.0621   -4057.2647   -4363.0621            0    3194.1171    18.047091    23.228222    21.850588     9159.807    3115.0268    4414.6398    2052.6847   -156.96788   -149.83212    188.77352   -3630.5742 
16016000    179.71161   -4362.9155   -4054.8959   -4362.9155            0    3758.6952    17.689042    23.566528     21.91709    9136.5621    3448.3277    2896.3695    4931.3885    616.54881   -608.05577   -582.78141   -3554.0596 
16017000    196.60591   -4390.7818    -4053.806   -4390.7818            0    3936.9313    17.977808     23.25296    21.798152    9112.4399    3743.7519    3595.2201    4471.8221   -549.32658   -102.17428    475.76683   -3530.6051 
16018000    188.42446   -4399.2376   -4076.2845   -4399.2376            0    4613.7227    18.071178    22.998578    21.948315    9121.9699    3396.5261     6428.461     4016.181   -319.50275    -1078.918    247.35041   -3462.4999 
16019000     194.5115   -4394.7942   -4061.4082   -4394.7942            0    4009.2828    17.905313    23.499386    21.708652    9134.2165    2759.3375    3819.0369     5449.474     -14.4794    329.51449   -171.25297   -3527.3189 
16020000    183.75696   -4392.4163   -4077.4632   -4392.4163            0    2912.3281    17.980458    23.289922    21.900552    9171.1509    1796.9046    3494.0804    3445.9993   -433.50138   -400.21698    692.73511    -3687.934 
16021000    187.54587   -4400.1892    -4078.742   -4400.1892            0    2964.1795    17.980619    23.406115    21.882074    9209.2118    3757.3659    2311.9316    2823.2412   -182.54936   -553.57697    77.275734   -3680.6322 
16022000     192.8712    -4370.477   -4039.9023    -4370.477            0    4530.2878     18.10331    22.967896    21.843598    9082.4573    4045.5181    5754.5761    3790.7692   -48.708258   -292.26669     42.35639    -3439.828 
16023000    176.80695   -4380.1598   -4077.1187   -4380.1598            0     2890.597    17.836743    23.557687    21.827115    9171.5875    3927.0893    1702.5422    3042.1594    770.07055   -13.194223    68.763165   -3690.4777 
16024000    198.86456   -4358.8481    -4018.001   -4358.8481            0    4571.7088    17.827957    23.379869    21.852008    9108.2513    4006.0649    4257.3543    5451.7073    77.962346   -147.94385    89.893763   -3410.7204 
16025000    189.16869   -4380.5508   -4056.3221   -4380.5508            0    2356.2175    18.142584    23.145617    21.956774    9220.1171    1693.4585     1514.601     3860.593    577.80652    569.34409    232.75682   -3739.4911 
16026000    197.02684   -4371.9902    -4034.293   -4371.9902            0    4160.2565    17.910002    23.249801    21.869116    9106.3868    4155.9069    4511.1784    3813.6841   -874.45283   -617.87792   -618.43747   -3481.7805 
16027000    192.82509   -4371.8667   -4041.3711   -4371.8667            0    3910.2577    17.842181    23.297726    22.084946      9180.32    4781.2189      3292.14    3657.4143    1088.5681    164.66803   -695.27743   -3517.8441 
16028000    194.58352   -4404.9876   -4071.4781   -4404.9876            0    3807.3382    17.978931     23.30666    21.762894    9119.2801    3351.4755    4199.1067    3871.4324     650.5159     19.54132     -362.421   -3565.1199 
16029000    189.81871   -4408.9647   -4083.6219   -4408.9647            0    4504.0059    17.833275    23.146384    22.077447    9113.0366     5109.538     5488.616    2913.8636   -179.71468   -798.48151    385.92272   -3485.0202 
16030000    195.23749   -4378.3691   -4043.7387   -4378.3691            0    4138.6431    17.823513    23.469122    21.743711    9095.4422    5747.4556    3574.4259    3094.0478   -467.91615   -1096.0032   -11.268056   -3494.7573 
16031000    203.65057   -4378.4567   -4029.4066   -4378.4567            0    5024.0238    17.825004    23.217115    21.907311    9066.2348     6009.917    3545.9386    5516.2157    278.78766    879.28382   -47.681918   -3365.1215 
16032000    186.60078    -4370.826   -4050.9987    -4370.826            0    3290.1508     17.94904    23.301732    21.882119    9152.0588    3316.7083    3251.7614    3301.9826   -308.21794   -304.68339   -114.66144   -3611.8511 
16033000    192.28527   -4387.7725   -4058.2021   -4387.7725            0    2489.6114    17.927572    23.369672    21.956729    9199.0239    856.28151    2066.1729    4546.3799    685.49443    28.908073    113.62585      -3724.2 
16034000     182.7716   -4396.0086   -4082.7444   -4396.0086            0    2051.5894    18.093437    23.304998    21.961367    9260.3945    2820.9928    1132.7742    2201.0011   -619.19857   -600.44654    1220.3593   -3805.6703 
16035000    189.32974   -4412.7499   -4088.2452   -4412.7499            0    3584.0757    17.914512     23.21316     21.97623    9138.8688    3881.1228    4450.1668    2420.9375   -169.65623   -33.303324    287.51108   -3610.5559 
16036000    194.20521   -4411.2309   -4078.3698   -4411.2309            0     3591.764    17.791558    23.462607    21.926052    9152.7303    3037.2449    4078.4231    3659.6239   -712.79936   -151.81733    -318.0063   -3598.9297 
16037000    190.11874   -4384.0315   -4058.1745   -4384.0315            0    3673.1086    18.046926    23.211916    21.898033    9173.1677    2018.0456    4580.4226    4420.8575   -425.57242   -404.52016   -406.76147   -3566.7815 
16038000    193.19315   -4393.9825   -4062.8561   -4393.9825            0    1717.4347    18.057427    23.279016    22.021094    9256.7684    1480.0615    1857.9341    1814.3084     1343.644   -251.96832      539.895   -3831.0016 
16039000     183.6572   -4374.5274   -4059.7453   -4374.5274            0    3437.0205    17.776373    23.694349    21.852569     9204.293    5762.0654    2148.1904    2400.8058    249.33037    571.32351   -468.87752   -3598.3762 
16040000    187.22089   -4389.2688   -4068.3786   -4389.2688            0    3240.1618    17.991136    23.319146    21.802133    9146.8214    1846.2678    4148.9065    3725.3111   -505.80335   -1101.6032    924.43432   -3636.1507 
16041000    187.67241   -4381.2445   -4059.5804   -4381.2445            0    4435.5206    18.102225    22.907433    21.966013    9108.7674    4370.6573    4677.6393    4258.2653    475.09336   -242.32702   -384.79185   -3470.3569 
16042000    187.41455   -4384.5312   -4063.3091   -4384.5312            0    3630.9987    17.874363    23.322289    21.898544    9128.8696    4072.0899    3812.2287    3008.6773   -44.065583    119.90133    783.76111   -3579.8953 
16043000    190.58768   -4372.2326   -4045.5719   -4372.2326            0    4151.9482    17.769093     23.35214    21.933869    9101.3787    3876.6847    3275.0817    5304.0783   -1039.3321   -394.96797    524.93411    -3494.466 
16044000    195.56894   -4388.2247   -4053.0263   -4388.2247            0    2835.5078    18.064262    23.320254    21.678761    9132.4636    2281.6881    2495.4651      3729.37   -846.73779   -585.42636    300.82977   -3675.3718 
16045000    187.30893   -4414.5558   -4093.5147   -4414.5558            0    3350.5775    17.916876    23.126357    22.020923    9124.4146    3564.1627    2659.6179    3827.9519    149.96942   -549.25961   -1338.5345   -3647.6526 
16046000    196.20839     -4383.52   -4047.2255     -4383.52            0    4290.9488    18.070487    23.275364    21.669157    9113.9861     2133.546    5256.2099    5483.0906    808.47087   -143.18741     594.4625   -3476.8806 
16047000    189.59875   -4389.3563   -4064.3906   -4389.3563            0    4548.7213    17.756965    23.318436    21.875925    9058.0473    5589.2425    4512.2038    3544.7176   -495.62009   -645.45932    165.11539   -3463.4939 
16048000    184.51964   -4371.5059   -4055.2455   -4371.5059            0    3002.5546    17.975498    23.409478    21.731064    9144.3672    3144.1746    3104.0897    2759.3995    630.06151   -673.14694   -200.71913   -3654.8212 
16049000    188.41159   -4365.5794   -4042.6484   -4365.5794            0    3842.1775    18.057765    23.045393    21.859383    9096.7448    2590.8953    4048.2109    4887.4261   -286.29365   -572.53946    -200.2183   -3532.9194 
16050000    193.49078   -4399.1466   -4067.5101   -4399.1466            0    3687.8396    17.924442    23.176791    21.974529    9128.9014    2531.3318    4108.9502    4423.2369    220.56171   -250.00378   -10.254666   -3576.5271 
16051000    193.96876   -4378.7995   -4046.3437   -4378.7995            0    2568.4088    17.944961      23.5298    21.830842    9217.8843    2296.0352    2281.6775    3127.5137     626.5462    -377.2992   -719.39079   -3701.0638 
16052000    188.82755   -4385.7364   -4062.0924   -4385.7364            0    4402.4603    17.878125    23.251932    21.958385    9128.1214    3836.3395    4012.6401    5358.4012   -509.72448   -379.46014    243.46504    -3476.018 
16053000    178.23576   -4379.7237   -4074.2337   -4379.7237            0    3444.8117    17.981663    23.388786    21.704217    9128.1266    4029.5171    2444.6558    3860.2621   -831.07365   -291.17604    539.91514   -3615.6454 
16054000    193.43898   -4370.6429   -4039.0951   -4370.6429            0    3769.0648    17.973823    23.119956    21.929177    9112.7572    3229.9972    4540.1433    3537.0539    770.94074   -185.25068    628.78149   -3538.1856 
16055000    190.31364   -4388.2597   -4062.0686   -4388.2597            0    2862.8885    17.977679    23.303199    21.918153    9182.3346    2270.9192    3009.8178    3307.9286   -160.61519   -276.28441    964.84033   -3678.6851 
16056000    193.56652   -4362.5419   -4030.7755   -4362.5419            0    4059.1536    17.736925    23.292774    22.052441    9110.7935    4488.4205    3004.0034    4685.0368   -527.48613    721.52408    563.65523   -3491.4294 
16057000    191.19253   -4387.9603   -4060.2628   -4387.9603            0    3964.8824    17.904993    23.256401    21.878311    9110.2533    3182.0031    4518.5889    4194.0552   -639.41864    678.37631   -698.80588   -3533.4739 
16058000    194.65392   -4388.0105   -4054.3804   -4388.0105            0    4294.3765    17.982651    23.187976    21.831543     9103.345    4150.2909    3994.3731    4738.4657    -486.2994   -652.35613    35.367766   -3484.2463 
16059000    192.07226    -4385.557   -4056.3518    -4385.557            0    4469.2143    17.915361    23.252486    21.830243    9093.9706    4068.5447    3989.8708    5349.2273    338.62651   -619.38591    154.59895   -3463.6167 
16060000    178.60182   -4393.9123   -4087.7949   -4393.9123            0    3019.5755    17.708164    23.213638    22.306014    9169.3535    4465.1271    3052.2892    1541.3103   -407.22238    80.234217    147.79616   -3684.0003 
16061000    190.40704   -4386.2703   -4059.9191   -4386.2703            0    4241.5458    17.966362    23.442013    21.639867    9114.0128    5001.9963    3411.4273    4311.2137   -651.14292    294.01985    -250.2799   -3496.1391 
16062000    191.49174   -4372.6532   -4044.4429   -4372.6532            0    4099.9482    17.891862    23.149137    22.029398    9124.1617    4540.7627    3893.8908     3865.191    56.339643    496.23057    117.38935    -3498.877 
16063000    193.28283   -4360.2168   -4028.9367   -4360.2168            0    4774.2394    18.177098    23.058129    21.636462    9068.4875    4049.4459    4322.4948    5950.7775   -762.64316    373.39313   -375.63917   -3397.5216 
16064000    192.18962   -4381.1497   -4051.7432   -4381.1497            0    4654.4706    17.750472    23.226187     22.00695    9072.9325    4596.1984     5313.885    4053.3282    557.72517    269.53773   -681.08229   -3435.8664 
16065000    181.90338   -4396.5969   -4084.8207   -4396.5969            0     3622.784    17.732216     23.58074     21.86974    9144.5866    3326.8817    2516.2276    5025.2427    1427.3025    88.906146   -287.81175   -3601.6702 
16066000    199.05412   -4372.0794   -4030.9074   -4372.0794            0     5291.021    17.939314    23.166349    21.752355    9040.0263     4635.353    5502.8069    5734.9031   -1408.2348    809.66548     130.1527   -3333.3418 
16067000    189.90044    -4409.239   -4083.7562    -4409.239            0    4105.6206    17.981678    23.288327    21.787579    9123.8368    4694.7364    3918.3881    3703.7374   -14.606175   -746.82166   -219.34788   -3537.4549 
16068000    184.84271   -4379.9213   -4063.1072   -4379.9213            0    4453.3011    17.769768    23.385289    21.873637    9089.6147    4646.8472    4707.5675    4005.4887   -977.69865    295.89345    626.84301   -3472.7655 
16069000     188.3934   -4413.7173   -4090.8175   -4413.7173            0    3971.0961    17.943006     23.24718    21.783951     9086.615    3224.6039    4347.1171    4341.5672    270.03979   -299.19859   -370.86998    -3564.572 
16070000     187.9893   -4384.6072      -4062.4   -4384.6072            0    3864.8227      18.0145    23.096565    21.982531    9146.3396    4996.0166     4583.157    2015.2945    547.35711    130.47799    100.19712   -3546.8713 
16071000    186.11817   -4381.4105   -4062.4103   -4381.4105            0    3656.3279    17.791255    23.359601    21.976475    9133.3487    3804.5909    5744.7543    1419.6385   -20.564011     528.7581    320.38646   -3575.3855 
16072000    194.06366   -4345.4404    -4012.822   -4345.4404            0    4619.3775    17.899863    23.294376    21.874046    9120.7368    5227.1718    4838.9901    3791.9707   -36.405374   -445.05287   0.61189472   -3398.3681 
16073000    177.64203   -4386.5819   -4082.1095   -4386.5819            0    4513.8806    18.015541     23.08675    21.907118    9111.6149    3264.8526    6110.5357    4166.2534   -599.58926   -801.01635    -306.9819    -3482.289 
16074000    190.54194   -4396.2731   -4069.6908   -4396.2731            0    3178.7177    17.934351    23.454023    21.889767    9207.5515     2429.262    2091.6045    5015.2865   -1069.7468    -280.7849   -434.35852    -3642.844 
16075000    180.83428   -4379.9673   -4070.0235   -4379.9673            0    3347.8234    17.741116     23.39136    22.101618    9171.9249       3916.4    3385.5839    2741.4862   -745.58371   -371.27307   -461.48863   -3622.2083 
16076000    185.41498   -4385.0033   -4067.2083   -4385.0033            0    3448.2124    17.916594    23.360398      21.8971    9164.7851    4093.5105    3135.9813    3115.1453    559.90548   -76.131657   -393.49196   -3606.3238 
16077000    187.08537    -4398.774   -4078.1161    -4398.774            0    3899.1652     17.86929    23.230675    21.996423    9131.0599    3993.2127    4016.8884    3687.3946    241.10103    10.797416   -145.38406   -3558.8754 
16078000    203.27985   -4374.1996   -4025.7849   -4374.1996            0    3917.0511    18.118096    23.072863    21.868296    9141.7427     3481.953    3807.6147    4461.5855   -969.55014    22.765806    104.10597   -3503.5521 
16079000    194.59161   -4397.9531   -4064.4297   -4397.9531            0    4550.9929     17.81787    23.307067    21.953559     9116.924    5071.9204    3615.4668    4965.5914    277.28915   -39.969778    329.47217   -3459.3253 
16080000    197.56849   -4372.1012   -4033.4756   -4372.1012            0    4078.7423    17.828671    23.490201    21.849673    9150.6228    3960.5496    4123.0585    4152.6189     82.65277   -296.83316    229.54121   -3489.1574 
16081000    193.26374   -4392.1249   -4060.8775   -4392.1249            0    4225.8332    17.993686    23.141235     21.93171    9132.2787    4535.7565    2658.7804    5482.9626   -871.52476    399.52153   -170.08331   -3498.0602 
16082000    187.64206   -4397.8541    -4076.242   -4397.8541            0    4769.6292    17.968292    23.226856    21.771993    9086.4746    4409.8285    4952.4451    4946.6142    291.32227   -231.82351    233.19535   -3444.1855 
16083000    181.83373   -4389.5954   -4077.9386   -4389.5954            0    3805.8232    17.687947    23.594802    21.946879    9159.3896    4190.0478    4042.8462    3184.5756   -512.51807    332.12959     387.8611   -3569.5556 
16084000    193.46169   -4360.7512   -4029.1645   -4360.7512            0    3950.2157    17.960372    23.273629    21.874452    9143.5874    3212.8995    4966.2967    3671.4509   -157.78701   -452.21237   -57.995206   -3502.4039 
16085000    195.71969   -4402.7376   -4067.2808   -4402.7376            0    3493.4083    18.007314    23.037888    22.115363     9174.569    4426.9768    4396.7997    1656.4485     65.74066    92.205298   -41.440937   -3599.8569 
16086000    193.39478   -4398.3599   -4066.8879   -4398.3599            0    4204.7412    17.870549    23.383192    21.802823    9110.7559    6076.9457    3492.9396    3044.3382    469.27758   -16.382877    234.88974   -3508.1996 
16087000    183.52447   -4392.3199   -4077.7653   -4392.3199            0    3989.0712    17.914608    23.244107     21.89862    9118.7836    4309.0028    4176.3591    3481.8518    1404.1306   -465.33794    79.847165   -3547.2663 
16088000    189.57364   -4360.7834   -4035.8606   -4360.7834            0    4992.9938    17.835383    23.107727    22.089338    9103.7929    5506.6763    4789.4115    4682.8936    142.32668    560.22256    -723.1215   -3372.9434 
16089000    171.93494   -4379.4011   -4084.7105   -4379.4011            0    3506.4332    17.987488    23.414083    21.768099    9167.8643    3477.4611    2717.0032    4324.8353    213.27587    80.742622   -207.90184   -3615.8867 
16090000    189.62497   -4382.7543   -4057.7436   -4382.7543            0    4354.5006    17.720261    23.307233    22.074087    9116.8237    5025.4912    4751.7357     3286.275   -348.51659    226.22954   -178.70185   -3478.7712 
16091000    174.70332    -4379.294   -4079.8585    -4379.294            0    4032.4081    18.058457    23.232542    21.726423    9115.1876    3222.2385    4520.1912    4354.7945   -213.74927    -363.8799    -534.6432   -3543.8077 
16092000    190.74337   -4371.2946    -4044.367   -4371.2946            0    3513.3321    17.779169    23.214751    22.191351    9159.2355    3213.8297    2590.0484    4736.1183    307.34979    284.25137    209.01543    -3575.063 
16093000    189.96572   -4403.5547     -4077.96   -4403.5547            0    4611.0339    17.930255    23.389494    21.701088    9100.9936    4438.9018    4173.8962    5220.3037   -1042.6596   -726.20175    1579.2886   -3465.9436 
16094000    191.28209   -4398.3113   -4070.4604   -4398.3113            0    2887.8934    17.873133    23.041791    22.270468    9171.6244    2938.6529     4062.908    1662.1193    849.17072   -119.10014    320.51175   -3684.1794 
16095000    185.84659    -4399.015   -4080.4803    -4399.015            0    2975.3679    17.997761    23.331648    21.876896      9186.49    3501.2277     3767.069     1657.807    1042.8304   -1261.0173   0.26650683   -3681.8538 
16096000    187.04557   -4364.6068   -4044.0171   -4364.6068            0    5065.1591    17.650811    23.421656    21.938937     9069.803    5634.7807    4917.6316    4643.0651    523.32556   -164.68945   -600.07722   -3374.0294 
16097000    200.57127   -4401.4814   -4057.7092   -4401.4814            0    3296.1298     18.00625    23.384878    21.711746    9142.2507    2785.5396    3231.0511    3871.7986    848.25481    689.31642    635.80162    -3618.235 
16098000    185.23038   -4398.6219   -4081.1434   -4398.6219            0    3157.0253    17.969987    23.028054    22.180928    9178.7744    3608.8701    3040.3845    2821.8211    385.25047    76.373697    673.40748   -3658.5345 
16099000    191.32447   -4387.4262   -4059.5026   -4387.4262            0    2634.7265    17.982169    23.425663    21.791643     9179.604     2374.271    2375.4765    3154.4319    212.90101   -192.87533   -395.66843   -3706.7783 
16100000    189.42451   -4405.0496   -4080.3825   -4405.0496            0    2643.0114    17.881288     23.35456    22.044658    9206.0614    2617.0422    2426.9557    2885.0363   -440.53891    201.84286   -282.71033   -3725.5292 
16101000    190.82219   -4412.9825   -4085.9198   -4412.9825            0    3718.9957    18.069623    22.949952    22.033784    9137.3435    4078.6105    2703.3486    4375.0278    103.47737   -28.544206    611.22289    -3590.331 
16102000     193.0534   -4382.0773   -4051.1903   -4382.0773            0    2944.2203    17.954862    23.477789    21.825692    9200.4124    3274.1724    2554.9588    3003.5297   -1137.2887    394.85109   -717.07137    -3656.139 
16103000    183.90683   -4367.6886   -4052.4786   -4367.6886            0    2522.5199    17.809702    23.535978    21.933907    9194.0085    2172.9453    3031.4984     2363.116    1088.5948    652.36752   -786.17642    -3714.246 
16104000    182.20747    -4373.839   -4061.5417    -4373.839            0    4446.0878    17.896027    23.303728     21.91527    9139.6349    3541.1809    3861.9678    5935.1147   -984.45399   -865.68681   -7.0691644   -3468.9128 
16105000    193.96803   -4372.7343   -4040.2797   -4372.7343            0    4109.5128    18.121596    23.019355    21.819186    9101.8182    2001.3636    5295.4863    5031.6887   -237.93925   -107.42007    349.86835   -3494.7802 
16106000    176.84155   -4383.7486   -4080.6483   -4383.7486            0    3976.0038    17.901231    23.268013    21.905577    9124.2438    4276.2033    3643.5509    4008.2571    1425.5604   -73.462151     314.5668   -3551.5705 
16107000    187.55539   -4394.5355    -4073.072   -4394.5355            0    3837.9997    17.999027     23.25662    21.791433    9121.8182    3664.6862    3603.4978     4245.815   -230.37351    869.11532   -646.06029   -3562.4939 
16108000    188.57086   -4390.2007   -4066.9967   -4390.2007            0    2447.7523    17.935838    23.275306    22.018744    9191.9918    2036.1611    3037.7191    2269.3767   -217.58214    454.81205    318.55718   -3738.8613 
16109000    190.37392   -4391.3662   -4065.0718   -4391.3662            0    5005.4865    17.932487    23.305575    21.770207    9098.3552    4588.9603    5089.1569    5338.3423    -1462.294   -1336.3305    510.79038   -3400.8929 
16110000    188.32955   -4391.8594    -4069.069   -4391.8594            0     3640.139    17.958314    23.141775     22.03952    9159.3436    4202.6852     3237.527     3480.205    782.30171   -587.36783    666.63982   -3582.8206 
16111000    186.04451   -4373.2885   -4054.4146   -4373.2885            0    3757.0772    18.022522    23.252286    21.881028    9169.5692    3288.9736    3883.4889    4098.7691     678.0903   -762.28634    473.86326   -3551.9853 
16112000    193.24842   -4394.3406   -4063.1194   -4394.3406            0    3801.1796    17.917283    23.288045    21.933311    9151.8604    3190.7798    3614.8698    4597.8891   -622.07758   -118.50547    196.04348   -3555.7741 
16113000     179.3676    -4376.699   -4069.2691    -4376.699            0    3194.6814    18.073503    23.253379    21.809419    9165.8449    3667.1075    3011.3564    2905.5805   -1464.9041   -1017.9739    341.21279   -3642.2218 
16114000    194.40746   -4366.9425   -4033.7347   -4366.9425            0    4200.7275    17.918776    23.262086    21.933239    9142.3906    4979.9131    3897.6872    3724.5821    515.48712   -276.85785   -153.87563   -3473.6417 
16115000    200.22841   -4381.8465   -4038.6619   -4381.8465            0    5228.8909    17.929221    23.302172    21.718285    9073.6777    4408.7348    6532.7411    4745.1968    1185.1993    72.499468     415.4019   -3346.7213 
16116000    176.54305   -4376.4601   -4073.8714   -4376.4601            0     3736.049    17.898862    23.262666     21.95086    9139.7948    3618.7521    3191.5923    4397.8027    1178.7692   -579.22453    248.75978   -3575.8765 
16117000    184.34279   -4397.5749   -4081.6177   -4397.5749            0    4542.7524    17.898445    23.254292    21.824727    9083.7934    3721.0111    5180.3915    4726.8547     4.027422   -296.52934    23.824371   -3479.8038 
16118000    181.85264     -4394.67   -4082.9808     -4394.67            0     2846.212    17.955695    23.412905     21.88515    9200.4071    3073.9297    3786.7518    1677.9546   -404.77832    292.75112   -551.43472   -3701.0803 
16119000    194.15028   -4385.8063   -4053.0394   -4385.8063            0    4155.9213     17.95743    23.426255    21.751738    9150.4196    4573.1374    3269.4444    4625.1819    720.11357   -318.66314    3.5619643   -3498.4339 
16120000    190.85304    -4402.597   -4075.4814    -4402.597            0    3558.3563    17.939388    23.364257     21.86795    9165.7428    2693.6048    3583.9158    4397.5485   -567.19954   -719.16484    349.45129   -3599.8254 
16121000    193.95946   -4408.3245   -4075.8846   -4408.3245            0    3008.5274    17.821767    23.275356    22.068999    9154.3967    3354.5382    3107.3363    2563.7079    481.81987    453.21019   -164.28957   -3674.2237 
16122000    194.64398   -4372.0006   -4038.3875   -4372.0006            0    3878.4314    17.963525    23.414179    21.643502    9103.2825    5193.5282    2595.2708    3846.4952    763.57405     559.5803    1037.9451    -3523.479 
16123000    191.67744   -4414.1312   -4085.6026   -4414.1312            0    3478.3148    17.851822    23.174433    21.997303     9100.413    2900.8874    3396.4033    4137.6536   -122.19236    444.20612   -848.61326     -3623.96 
16124000    195.38715   -4378.7601   -4043.8732   -4378.7601            0    3673.5112    18.103653     23.25873    21.671839    9125.3177    2373.8133     4140.243    4506.4774      1308.34   -236.21021   -438.67173   -3554.9899 
16125000    202.09123   -4379.3446   -4032.9671   -4379.3446            0    3166.9881    17.949485      23.0202    22.238487    9188.9589    3120.3767    2844.8311    3535.7564   -845.90376   -1010.2084   -161.57994   -3608.5542 
16126000    186.58677   -4373.7417   -4053.9383   -4373.7417            0    5834.7429    17.896036    23.378875    21.645839    9056.3852     7303.602    5599.8011    4600.8256   -125.51573    824.07987   -530.30891   -3283.2966 
16127000    188.37977   -4375.9723   -4053.0958   -4375.9723            0    3711.2208    17.805986    23.294645    22.011554    9130.0434    4084.1995    3750.5316    3298.9313    656.74191   -491.82999   -4.9851836   -3558.9381 
16128000    194.53734   -4392.8246   -4059.3943   -4392.8246            0     3335.272     18.07755    23.277964     21.74747    9151.5218    2571.9408     2901.611    4532.2643   -512.23969   -492.97252    91.997073   -3614.2503 
16129000    198.47492   -4384.9643   -4044.7851   -4384.9643            0    2304.7164    17.956958    22.994802    22.330719    9220.7264    1786.7882    3854.7639    1272.5973    704.44404    591.76715    259.53597   -3734.8587 
16130000     183.8364    -4397.636   -4082.5467    -4397.636            0    4100.3652    17.931733    23.325581    21.826412    9129.2917    4158.5893    1994.4873    6148.0191   -240.52602    198.22267    613.20231   -3536.6185 
16131000    186.08392   -4403.5102   -4084.5688   -4403.5102            0    3700.0436    17.798698    23.359058    21.936681    9120.4125    3466.1926    2333.0258    5300.9125    816.53749   -607.52812    390.30505   -3592.4191 
16132000    192.39038   -4366.3376   -4036.5871   -4366.3376            0    4398.5988    17.937774    23.172985    21.841545    9078.9138    3447.2831    5957.9143    3790.5989   -508.68997    170.25893    602.98986   -3454.1834 
16133000     182.0658    -4381.294   -4069.2394    -4381.294            0    4259.6682    17.828795    23.233109    21.967496    9099.3399     4382.623    4762.0433    3634.3384    91.010932    620.47956   -126.00023   -3503.9621 
16134000    192.12715   -4417.0803   -4087.7809   -4417.0803            0    3144.2023    17.945313    23.531348    21.680775    9155.3015     1277.029    4244.0618    3911.5162   -632.71634    922.23141    403.45759   -3667.9649 
16135000    178.91193   -4403.1277   -4096.4788   -4403.1277            0    3692.1428    17.973506    23.079088      22.0757     9157.268    3655.1325    4358.9004    3062.3954    491.32245   -365.88612    668.12817   -3603.3955 
16136000    183.19708   -4375.2377   -4061.2441   -4375.2377            0    2784.2377    17.999836    23.399796    21.837654    9197.8561    2276.6917    2931.8208    3144.2006    42.585169   -210.14348   -275.23225   -3687.7629 
16137000    185.20683   -4401.3124   -4083.8743   -4401.3124            0    3375.5002    17.915911    23.405952    21.976358    9215.5429    3259.4062    3222.0341    3645.0605   -1912.0539    128.17674    805.07883   -3630.2096 
16138000    189.03523   -4392.4547   -4068.4547   -4392.4547            0    3511.3084    17.982032    23.451934    21.848705    9213.8924     2963.989    3094.5789    4475.3572   -583.34999    740.56872   -112.56333   -3596.6221 
16139000    183.10248   -4412.6335   -4098.8021   -4412.6335            0    4438.1212    18.024842    23.114652    21.936483    9139.5716    3264.7341    5825.5199    4224.1095    -181.7004    775.91463    488.66675   -3507.2393 
16140000    188.45262   -4385.6709   -4062.6695   -4385.6709            0    3836.1703    17.929455    23.159988    22.011981     9140.386    3719.6347    3448.1384    4340.7379    4.1132701   -830.52463   -265.17601   -3551.2959 
16141000     187.0208   -4409.9688   -4089.4216   -4409.9688            0    3891.1159     17.84478    23.534616    21.823769    9165.3293    4077.6526    4093.5362    3502.1589   -781.33119    33.798675    167.95835    -3569.308 
16142000     185.6969    -4394.752   -4076.4738    -4394.752            0    3571.2707    17.874337    23.199662    22.170345    9193.5675    3729.6964    3828.6443    3155.4713   -49.957321    97.768827    34.936027   -3597.6423 
16143000    181.09692   -4379.9828   -4069.5889   -4379.9828            0    4241.9408     18.01292    23.100779    21.942963    9130.7409    5034.1627    5407.4385    2284.2214   -785.50974   -209.80515   -38.970752   -3504.7215 
16144000    189.53224   -4390.8526   -4066.0009   -4390.8526            0    5883.6655    17.867627    23.226165    21.840366    9063.6744    6391.4364    5710.1056    5549.4544     485.1095    135.95761    864.31809   -3288.2721 
16145000    198.73067   -4383.3019   -4042.6843   -4383.3019            0    5282.7693    17.802629    23.365947    21.862017    9094.0589    6141.6037    4884.8126    4821.8917    404.03888   -19.394515    335.30183   -3342.0437 
16146000    181.86593   -4387.3832   -4075.6712   -4387.3832            0    3832.7955    18.203601    22.936794     21.91267    9149.2465    4732.9102    3411.6302    3353.8461    1443.9965   -211.07352    209.59143   -3564.2522 
16147000    182.53154   -4402.0025   -4089.1497   -4402.0025            0    3934.3962    17.933266    23.175806    22.061322    9169.0801    3970.2392    5140.1785    2692.7708    707.74764   -191.88703    655.53763   -3563.0358 
16148000    180.91018   -4399.5128    -4089.439   -4399.5128            0    3053.4918    17.860204    23.509163    21.836534    9168.6903    2776.7344    2385.7534    3997.9877    587.21172    501.60402   -392.55049   -3681.1384 
16149000    202.36884   -4384.4834   -4037.6301   -4384.4834            0    3471.4228    17.847755    23.352009    21.998584    9168.5902    3137.6703     2834.961     4441.637   -963.13923    102.94911    21.186875   -3573.4506 
16150000    181.12492   -4380.9031   -4070.4612   -4380.9031            0    4467.1066    18.132492    23.091838    21.818625    9135.7321    4256.4219    5465.9286    3678.9693    109.31007    325.94502   -288.56063    -3475.285 
16151000    184.15113   -4361.0144   -4045.3857   -4361.0144            0    4025.8526    17.822079    23.459682    21.822211    9123.8727    5883.2751    3463.8058    2730.4768    166.98069    234.46528   -259.46429   -3509.6964 
16152000    181.07507   -4397.6776   -4087.3211   -4397.6776            0    4580.4337    17.864914    23.314872    21.837704    9095.8007    4351.1153    5727.5301    3662.6558    190.14689   -391.66786    502.61656   -3479.7132 
16153000    192.83856   -4390.7311   -4060.2124   -4390.7311            0    3698.7941    17.941111    23.189082    22.004038    9154.5137    3454.2891    4789.0689    2853.0242   -146.06733   -483.57054    263.62796   -3566.3894 
16154000     182.3851   -4394.3157   -4081.7139   -4394.3157            0    3164.9668    18.007396    23.353731     21.77831    9158.6476    2712.8764     3637.184    3144.8401   -92.303512    451.54848   -16.518356   -3658.9709 
16155000    182.91456   -4377.6443    -4064.135   -4377.6443            0    3289.8407    17.690308    23.475253    21.919001    9102.6203    2663.1594    3081.6338    4124.7287   -1223.9409    218.82677    510.33519   -3627.4008 
16156000    180.21707   -4405.2073   -4096.3214   -4405.2073            0    5023.3021    17.982121    23.083617    21.875887     9080.514    5128.3989    5450.0024     4491.505   -330.44641   -61.056542   -382.08207   -3431.0856 
16157000    183.64069   -4387.9771   -4073.2232   -4387.9771            0    4306.9449    17.988181    23.174714    21.807089    9090.7415     2550.531    5461.6193    4908.6845   -565.11597   -23.144713    412.76996   -3502.2122 
16158000    189.65586    -4403.611   -4078.5474    -4403.611            0    4061.6962    17.657103     23.60341    21.915586    9133.7118    6417.4885    1647.3932    4120.2069   -859.40656   -610.08484     97.76116   -3537.5058 
16159000     188.1318    -4393.838   -4071.3865    -4393.838            0    4294.8182    17.877916    23.267447    21.865617    9095.5162    4358.6905    4333.4324    4192.3318   -362.39712   -17.910115   -8.8540854   -3501.6841 
16160000    199.78985   -4379.6388   -4037.2058   -4379.6388            0    5526.9536    18.036794    23.054773    21.841734    9082.5399    4791.5159    5958.6217    5830.7233    264.13035   -496.74922    75.679475   -3305.1081 
16161000    183.15205   -4402.8184    -4088.902   -4402.8184            0    4191.3464    17.800379    23.457535    21.812351    9107.8125    4654.0195    2699.3913    5220.6285   -689.31302    208.39388    719.82761   -3532.1734 
16162000    182.51342   -4379.0835   -4066.2618   -4379.0835            0    5121.4345    17.752538    23.192803    21.951373    9038.0638    6160.2799    5013.6567    4190.3668     -523.763    402.03034   -1252.7776   -3391.2009 
16163000     192.3731   -4392.2024   -4062.4815   -4392.2024            0    3040.7511    18.153015    23.287122    21.634718    9145.6766    2734.6544    2141.1272    4246.4716    551.43481   -189.90999    649.78538   -3656.9052 
16164000    182.24021   -4381.4438   -4069.0903   -4381.4438            0    3793.8334    17.738887    23.318586    22.059222    9124.7042     3784.809    3929.8816    3666.8095   -387.14452    80.539421    154.77944    -3564.228 
16165000     183.8141   -4383.6612   -4068.6101   -4383.6612            0    3313.3837    18.060802    23.295889    21.777413    9162.6822    3247.1609    3035.1618    3657.8284    667.46759   -597.29954    -567.6137   -3625.8482 
16166000    197.32447   -4388.2861   -4050.0787   -4388.2861            0    3859.6575    17.947733    23.055946    22.011564    9108.4285     4529.493    3463.5813    3585.8983    137.99436   -254.91986   -548.77171    -3537.373 
16167000    178.79831   -4392.5518   -4086.0976   -4392.5518            0    3124.0104    17.818883    23.539733    21.820186    9152.5149    3931.8276    3207.0639    2233.1398   -1254.9589    142.04278   -292.88462   -3669.1046 
16168000    196.70963   -4374.8168   -4037.6633   -4374.8168            0    3086.5816     17.93354    23.399475    21.845838    9167.2875    3163.4529    2776.9101    3319.3819   -637.11312   -320.95643    329.10174   -3625.0013 
16169000    200.00722   -4388.0442   -4045.2386   -4388.0442            0    3236.3503    18.027852    23.123925    22.084044    9206.2793    3617.1481    2959.8271    3132.0756    688.71837   -489.02942    55.075278   -3610.7128 
16170000    195.76353   -4395.4066   -4059.8747   -4395.4066            0    3746.5157    17.905463    23.320554    21.801359    9103.4913    4225.5655    2933.7526     4080.229    -438.3198   -111.20926    331.21606   -3562.4682 
16171000    194.03939   -4399.8667   -4067.2898   -4399.8667            0    2789.2517    17.665076    23.591605    22.044443    9186.9664    3328.8751    3007.6953    2031.1848   -1008.5577   -795.94919   -27.157454    -3693.579 
16172000    188.81093   -4394.0733   -4070.4579   -4394.0733            0     3588.939    17.984514    23.296131    21.868078    9162.0597    3179.2317    3672.5191     3915.066   -663.83623   -380.31788    254.32959   -3590.9066 
16173000    182.14064   -4379.6422   -4067.4594   -4379.6422            0     5301.399    17.858769    23.023188    22.053585    9067.6799    5224.4088    5976.4978    4703.2903   -1192.1986    232.10513   -160.85203   -3366.3875 
16174000    183.60166   -4396.0425   -4081.3556   -4396.0425            0    3411.4181    17.910436    23.405012    21.830947     9151.401    2271.8068    3303.0579    4659.3895   -1042.0856   -390.58736   -1298.1292   -3626.0548 
16175000    187.01246   -4374.5323   -4053.9993   -4374.5323            0    3344.3823    18.009301    23.023042    22.159553    9187.9907    2842.4139    4398.6212    2792.1118   -119.44098   -176.31148   -293.95589   -3605.8607 
16176000    188.62589   -4394.5767   -4071.2784   -4394.5767            0    4243.0616    18.067399    23.201867    21.735519    9111.4728    2606.8664    4176.8169    5945.5015   -637.30828   -56.878079   -158.14886   -3507.4541 
16177000    188.15431   -4362.2058   -4039.7158   -4362.2058            0    4335.0093    17.662182     23.40262    22.037013    9108.8081    5391.3359    3290.0681    4323.6239   -510.09029    512.09075   -139.51749   -3463.8418 
16178000    191.89064   -4381.7018   -4052.8078   -4381.7018            0    4332.2026    17.992624    23.354066    21.757618    9142.5712    5238.7118     4208.531    3549.3651   -106.79261   -210.89481    804.13637   -3475.1735 
16179000    193.50414   -4394.8792   -4063.2198   -4394.8792            0    3780.9107    17.993895    23.067038    22.004643    9133.3762    3995.8614    4248.8479     3098.023    761.90975   -491.66884    678.64198    -3559.599 
16180000    182.24771   -4383.5427   -4071.1764   -4383.5427            0    3932.7711     17.91452    23.492133    21.711665    9137.3604    3701.1519    3516.6487    4580.5127    463.35933    84.399135    486.71048   -3547.0991 
16181000    195.39191   -4390.1052   -4055.2102   -4390.1052            0    3747.0235    17.841111    23.267433    21.998053    9131.7624     3812.631    3661.0171    3767.4223    279.97821    239.82625   -831.17258   -3556.1914 
16182000    192.28457   -4362.2134   -4032.6442   -4362.2134            0    5442.7198    18.035519    23.386798    21.495603    9066.6955     5460.158    4370.3706    6497.6309   -37.899254    691.07615    709.78044   -3312.9618 
16183000    193.37159   -4402.6965   -4071.2643   -4402.6965            0    4803.1758    17.885216    23.169487     21.94966    9095.7476    5543.9254    4088.9981     4776.604    146.92488    190.13793    934.78732   -3434.1127 
16184000     180.2378   -4383.1476   -4074.2262   -4383.1476            0    4793.1545    17.907142    23.261024    21.762336    9064.8498    4915.1116    5271.5666    4192.7851    -466.2108    332.92784    153.47629   -3440.5638 
16185000    198.21597   -4389.6418   -4049.9064   -4389.6418            0    3981.7236    17.872471    23.311399    21.995294    9163.9497    4655.1967    3906.2123    3383.7618    624.36372   -1341.1923    83.126166   -3517.7617 
16186000    193.15956   -4378.7569    -4047.688   -4378.7569            0    3915.7374    17.872891    23.243193    21.906787    9100.5844     3430.405     4495.827    3820.9801    1118.8609   -119.13097    132.59875   -3527.9808 
16187000    181.28866   -4381.8173   -4071.0947   -4381.8173            0    2590.3681    17.980715    23.257057    21.904188    9159.8607    1771.4851    3326.5547    2673.0644   -790.97823   -73.699713   -125.54335   -3725.0548 
16188000    199.99353    -4380.288    -4037.506    -4380.288            0    3129.9385    17.942646    23.188589    21.994484    9151.1268    3485.6903    3059.1635    2844.9616   -365.57359   -152.27432   -268.51221    -3619.785 
16189000    176.91641   -4385.2436   -4082.0149   -4385.2436            0    3948.2082    17.916148    23.529263    21.675168    9137.2486    3710.2856    3855.2669     4279.072   -638.10001   -24.306644    556.52316    -3555.887 
16190000    193.20945   -4360.5053   -4029.3509   -4360.5053            0    3106.6459    17.907361    23.425454    21.770384    9132.4162    2095.3757     3862.455    3362.1068   -461.28176    1209.6947   -274.75285   -3615.5863 
16191000    193.42528   -4383.4801   -4051.9558   -4383.4801            0    3819.3126    18.163512    22.994547    21.762831    9089.5016    3172.9568    4163.6987    4121.2824    -900.0863     299.2774    532.64966   -3545.6637 
16192000    191.59149    -4382.399   -4054.0177    -4382.399            0    2722.7414    17.943312    23.384423    21.785176    9140.9293    3167.3139    1157.4426    3843.4676   -267.55829    620.98002    791.50721   -3691.0461 
16193000    192.73123   -4386.4423   -4056.1076   -4386.4423            0    2618.1657    17.835793    23.363786    21.960829    9151.3335    2947.6826    3976.8234    929.99116   -527.65181    80.866723   -634.15837   -3706.6798 
16194000    190.75897   -4378.6711   -4051.7167   -4378.6711            0    2210.0447    18.071026    23.266206    21.960937    9233.3489    1095.8198     1391.239    4143.0754    524.38489    182.98069    57.442649   -3754.1145 
16195000    185.44302   -4377.6379   -4059.7949   -4377.6379            0    3801.5758    18.030068    23.000106    22.019128    9131.1885    6235.2064    3014.5318    2154.9893   -2237.0522    320.05237    51.113297   -3553.5428 
16196000    185.06635   -4383.3186   -4066.1212   -4383.3186            0    3595.4799    17.809228    23.413503    21.901559    9132.4334    4246.3981    3503.7505     3036.291   -563.56634    -523.5346    1213.9498   -3587.2494 
16197000    184.92363   -4381.9493   -4064.9966   -4381.9493            0     2654.148     18.08022    23.326117     21.78163    9186.2137    1681.7991    2201.5048    4079.1402   -32.478731   -645.21862   -504.67096   -3709.4164 
16198000     186.3473   -4376.0539    -4056.661   -4376.0539            0    3255.6947    18.058419    23.098572    21.985887    9170.8344    3156.0792    3836.3009    2774.7041    759.10306    492.37197    975.30531   -3621.2209 
16199000    193.93786   -4379.5844   -4047.1816   -4379.5844            0    3382.9046    17.881308    23.414806    21.861496    9153.1321    4658.9416    2864.7027    2625.0693   -313.78961    651.65272   -638.73688   -3595.6009 
16200000    192.33089    -4393.828   -4064.1795    -4393.828            0    3784.6463    17.913112    23.342138    21.831033    9128.2172     4178.084    2714.0154    4461.8394   -528.62485    212.94761    318.91133   -3560.3458 
16201000    191.41307   -4380.8973   -4052.8218   -4380.8973            0      5017.83    18.034665    22.894218    21.963254    9068.3982    4124.1236    5764.8374     5164.529     257.8498   -449.32812    528.94625   -3389.1973 
16202000    193.81937   -4389.5706   -4057.3708   -4389.5706            0    3457.1801    17.874949    23.571381    21.837822    9201.0874      4112.25       2442.5    3816.7904    -979.6343    167.86628     -113.597   -3593.4573 
16203000    189.72262    -4405.496    -4080.318    -4405.496            0    2881.8558    17.898583    23.360482    22.043766    9216.9287    3098.5719    2298.9923    3248.0033   -176.55429    126.73748    -363.3071   -3692.9405 
16204000    177.56377    -4382.768   -4078.4297    -4382.768            0    2511.0939    18.255806    23.127122    21.750466    9183.1388    924.70154    3581.8673    3026.7128   -1107.5451    265.78648    273.54457   -3742.1273 
16205000    179.89952   -4395.8803   -4087.5387   -4395.8803            0    3853.1983    17.830471    23.314288    21.998306    9144.8001    4659.7235    3275.3275    3624.5438   -450.52858    757.91832   -261.32828   -3573.6471 
16206000    177.80842   -4385.5215    -4080.764   -4385.5215            0    3787.2811    17.914872    23.330009    21.797299    9110.2712    3266.4243    4195.8774    3899.5417   -1174.1386    -187.3276     846.3828   -3577.5708 
16207000    185.84594   -4382.1801   -4063.6465   -4382.1801            0    4151.0167    18.060382    22.923908    21.922978    9076.4315    4099.5637    4178.3189    4175.1676   -612.37134   -26.443599   -70.304746   -3514.1746 
16208000      193.346   -4383.2242   -4051.8358   -4383.2242            0    3777.1482    17.942336    23.194987    21.936034    9129.1687    4175.5994    4117.2065    3038.6387   -85.581249   -35.494224    636.35928    -3548.948 
16209000    189.28612   -4386.6375   -4062.2076   -4386.6375            0    3977.7834    17.744226    23.341804    21.977059    9102.5075    6372.7766    3174.2952    2386.2785   -833.91807    434.06867    184.53108   -3534.1539 
16210000    194.61631   -4380.8133   -4047.2476   -4380.8133            0    4543.2565     17.91257    23.429699    21.774106    9138.2905    4602.0801    3932.4634    5095.2259    150.91549    182.95302    332.87522    -3441.756 
16211000    182.29945   -4383.5433   -4071.0883   -4383.5433            0     3960.918    17.792708    23.161766    22.139909    9124.0898    4398.4574    4156.0955     3328.201   -1076.0454   -114.67286   -285.32146   -3544.0268 
16212000    193.56945   -4392.6733   -4060.9019   -4392.6733            0    3623.2389    18.027871     23.28277    21.839326    9166.8119    2884.7207    4146.7466    3838.2494   -825.26516   -65.881567    478.67377   -3576.5164 
16213000    192.41996   -4380.4096   -4050.6084   -4380.4096            0    4858.8446    17.896031    23.254913     21.97756    9146.4153    6029.2455    4689.9549    3857.3334    382.29696    64.302895   -910.81128   -3402.4819 
16214000    188.02399   -4390.2156   -4067.9489   -4390.2156            0     3449.565    18.032244    23.350037    21.685875    9130.9149    2506.2305     4193.742    3648.7227    351.89142   -191.91648     341.6332   -3608.5875 
16215000    179.01568   -4411.2583   -4104.4315   -4411.2583            0    3533.0042    17.802242     23.35233    22.009748    9149.9766    4939.1809    2941.8552    2717.9763    80.722664   -508.50332   -397.79438   -3632.9767 
16216000     191.2963    -4396.529   -4068.6536    -4396.529            0    4403.6922    17.981165    23.232972    21.661212     9049.099    4053.4026    4111.8126    5045.8614    499.33228   -787.08819    300.97512   -3487.4903 
16217000    185.17177   -4395.3102   -4077.9321   -4395.3102            0     4359.398    18.021576    23.005576    21.938166    9095.4915    3536.1757     5089.929    4452.0895    524.83867    401.50148   -160.75241   -3499.6649 
16218000    183.46325   -4368.2603   -4053.8106   -4368.2603            0    4508.5888    17.824104    23.202068    21.887132    9051.5559    2412.7564    4342.7762    6770.2339     567.1674   -196.86689    248.97678   -3458.6423 
16219000    192.62776   -4381.5217   -4051.3643   -4381.5217            0    2978.2833    17.847263     23.38687     21.95743    9164.8474    3100.6538    2991.1084    2843.0876    445.10486   -284.29686    22.696216   -3653.2873 
16220000    185.58238    -4400.952   -4082.8702    -4400.952            0    4391.3479    17.970101    23.210391    21.820512    9101.1841    4702.4861    4327.3905     4144.167   -480.83798    593.59969   -159.84531   -3500.0003 
16221000    181.09673   -4376.2897   -4065.8961   -4376.2897            0    3347.6226    18.011687    23.228204    21.934051     9176.749    3612.5188    2871.3558    3558.9932    70.890483   -44.866194   -429.11435   -3617.8722 
16222000    190.92865   -4396.3536   -4069.1085   -4396.3536            0    4941.1441    17.727245    23.271188    21.853992    9015.5163    3971.6254    5591.5005    5260.3066    378.59522    -1.625188   -424.65406   -3419.4367 
16223000    189.38638    -4394.763   -4070.1612    -4394.763            0    4022.1712    17.860612    23.464432    21.730578    9107.0488    4323.9058    2938.3515    4804.2563   -778.74048    399.05116    194.56301   -3535.9486 
16224000    189.53534    -4389.732   -4064.8749    -4389.732            0    3355.4433     18.02935    23.087306    21.999135    9157.1209    3784.4346    3999.7242    2282.1711    -1281.366   -683.30011    -506.6196   -3616.7648 
16225000    192.32517   -4408.2885   -4078.6497   -4408.2885            0    3920.8093    18.015194    23.180919    21.830894    9116.7725    3421.8475    3651.0156    4689.5647   -938.40637    176.27231   -166.30736   -3557.3437 
16226000    187.55637   -4386.0697   -4064.6045   -4386.0697            0    3568.4515    17.847259    23.496809    21.858709    9166.5292    3989.3567     3659.696    3056.3018   -479.45544   -178.95742   -73.910341   -3587.5581 
16227000     202.4944   -4367.2589   -4020.1904   -4367.2589            0    3714.7092    17.800925    23.374363    21.966428    9139.9074    4327.1488    3483.7905    3333.1884   -1166.2015    285.93591    476.80897   -3525.0339 
16228000    187.98782   -4362.3553   -4040.1507   -4362.3553            0    4369.8712    17.964195    23.110854    21.937738    9107.8442      3993.64    5151.7421    3964.2316   -118.31633    643.43167    174.37395   -3459.7069 
16229000    194.26372   -4380.8937   -4047.9323   -4380.8937            0    5811.4132    17.861935     23.19878    21.848334     9053.406    5865.7204    6967.5326    4600.9865   -88.873909   -383.31282   -511.65293   -3280.6245 
16230000    193.32746   -4368.5406   -4037.1839   -4368.5406            0    2706.4062     18.00717    23.296608    21.949471    9207.9344    1608.2505    3850.1934    2660.7747   -82.312049    321.48616    594.24831   -3673.7453 
16231000    190.98462   -4375.4723   -4048.1312   -4375.4723            0    3454.5193    18.140699    23.117371    21.814884    9148.4048    3517.5649    2196.3843    4649.6085   -105.90764     324.2325   -248.31366   -3587.2289 
16232000    190.79759   -4387.5038   -4060.4833   -4387.5038            0       3959.2    17.892679    23.362935    21.843552    9131.1618    3235.4175    3752.2367    4889.9457   -738.23963    254.22235   -371.83255   -3533.2421 
16233000    188.58608   -4401.7439   -4078.5138   -4401.7439            0    4516.0955    17.716203    23.529349     21.87659    9119.2722    5512.8384    4229.8727    3805.5753   -309.93244   -804.71899   -300.08762   -3477.8946 
16234000    194.01155   -4377.9206   -4045.3914   -4377.9206            0    3432.4626    17.999406    23.206303     21.91878    9155.4674    3765.0191    3556.2361    2976.1328   -662.85817   -260.53547    761.27791   -3587.0784 
16235000    186.96957   -4389.4413   -4068.9819   -4389.4413            0    4370.5667    17.949796     23.08652    21.944763     9093.873     5633.419    3859.8271    3618.4539   -440.94306   -326.45274    115.20965   -3489.3363 
16236000    197.20069   -4401.4223    -4063.427   -4401.4223            0    4845.7235    17.784798    23.381804    21.819752    9073.5402    4906.8698    3441.9277     6188.373     392.6921    12.464245    759.04278   -3422.2008 
16237000    187.39387   -4379.8956    -4058.709   -4379.8956            0    4307.4559    17.717627    23.348394    21.911479    9064.2997    4995.3259    4878.8884    3048.1534    278.12603   -373.07137    632.05183   -3489.2912 
16238000    195.15455   -4387.9266   -4053.4384   -4387.9266            0    3322.5173    18.142987    23.059103     21.95478    9185.0238      2444.03    3858.6484    3664.8736    190.18592   -323.81571   -437.17116   -3608.3734 
16239000    182.58622    -4371.436   -4058.4894    -4371.436            0    3408.6818    17.934653    23.408325    21.743851    9128.5074    4393.3758    2357.7843    3474.8854   -73.164646   -572.82087    49.987785   -3604.6919 
16240000    184.56823   -4374.6467   -4058.3031   -4374.6467            0     4078.371    17.892001     23.30325    21.850783    9110.5038    4368.4077     4264.244    3602.4614    322.45579   -324.14607   -255.16204   -3516.4207 
16241000    186.35939   -4401.1885   -4081.7749   -4401.1885            0    3584.7205    18.066189     23.07198    21.855919    9110.0443    4133.2095    2578.9966    4041.9554    175.33522    66.344091   -254.31618   -3605.5066 
16242000    195.65932   -4399.8212   -4064.4678   -4399.8212            0     3239.631    17.834664    23.339547    22.014783    9163.7192    3321.8961     3606.584    2790.4129    29.523459     362.7112    509.80286   -3631.5123 
16243000    184.97079   -4354.1841   -4037.1505   -4354.1841            0    4223.9472    17.810597    23.397858    21.774727    9074.1781    4167.6038    3864.7855    4639.4522    344.59398   -372.33661    606.36891   -3478.1636 
16244000    187.44452   -4372.3075   -4051.0341   -4372.3075            0      3912.32    17.994424    23.031816     21.96784    9104.4455    3179.3788    5225.1203    3332.4609   -1331.4616   -369.22349   -59.195907   -3531.5601 
16245000    193.31283   -4370.7119   -4039.3803   -4370.7119            0    3406.9925     17.93968    23.273653    21.913074     9149.188     3987.003    3213.6502    3020.3244     812.5945   -91.822358    321.90786   -3584.7801 
16246000    189.66514    -4392.187   -4067.1075    -4392.187            0    2599.5026    17.849281    23.276343    22.061695    9165.8842    3905.4949    2693.7119    1199.3009   -600.69438   -260.75962   -104.32333   -3719.6189 
16247000    192.24395   -4399.0337   -4069.5342   -4399.0337            0    3128.5425    17.811909    23.533133    21.763504    9122.6083    3072.3398    1983.1258    4330.1618   -91.260497   -327.71311   -54.949242   -3653.3007 
16248000    191.08461   -4362.9468   -4035.4343   -4362.9468            0    4865.9924    17.978107    23.253765    21.640721    9047.0911    4683.7746    5088.9686    4825.2341   -323.44742    476.40406    -523.2543   -3393.4029 
16249000    183.75795   -4392.2063   -4077.2514   -4392.2063            0    4054.2537    17.848232    23.124874    22.003409    9081.6454    3594.6357    4733.1815    3834.9438   -1382.9697    132.14982    699.95373   -3540.2798 
16250000    191.46304   -4360.8031    -4032.642   -4360.8031            0    3481.5952    18.034853    23.378469    21.708746    9152.9989    2727.9962    3376.6732    4340.1162    459.49685   -684.41656    143.87893    -3567.894 
Loop time of 374.539 on 64 procs for 250000 steps with 864 atoms

Performance: 115.342 ns/day, 0.208 hours/ns, 667.488 timesteps/s
192.6% CPU use with 32 MPI tasks x 2 OpenMP threads

MPI task timing breakdown:
Section |  min time  |  avg time  |  max time  |%varavg| %total
---------------------------------------------------------------
Pair    | 17.552     | 25.055     | 33.931     | 102.2 |  6.69
Bond    | 0.86914    | 1.0338     | 1.391      |  10.6 |  0.28
Kspace  | 183.14     | 194.7      | 203.77     |  40.8 | 51.98
Neigh   | 1.0533     | 1.1187     | 1.2332     |   4.1 |  0.30
Comm    | 55.757     | 60.989     | 65.533     |  25.7 | 16.28
Output  | 0.58398    | 0.58423    | 0.58567    |   0.0 |  0.16
Modify  | 67.677     | 69.7       | 73.207     |  16.5 | 18.61
Other   |            | 21.36      |            |       |  5.70

Nlocal:        27.0000 ave          38 max          18 min
Histogram: 4 4 4 4 2 4 2 0 1 7
Nghost:        2149.91 ave        2262 max        2049 min
Histogram: 8 6 2 0 0 0 0 3 10 3
Neighs:        6650.31 ave        9299 max        4545 min
Histogram: 6 3 3 5 1 4 1 2 2 5

Total # of neighbors = 212810
Ave neighs/atom = 246.30787
Ave special neighs/atom = 2.0000000
Neighbor list builds = 4001
Dangerous builds = 0

unfix		3
unfix		2
unfix		1

write_data	data.final.${pid} nocoeff
write_data	data.final.0 nocoeff
System init for write_data ...
PPPM initialization ...
  extracting TIP4P info from pair style
  using 12-bit tables for long-range coulomb (../kspace.cpp:340)
  G vector (1/distance) = 0.37222934
  grid = 24 27 25
  stencil order = 5
  estimated absolute RMS force accuracy = 0.0030904265
  estimated relative force accuracy = 9.3067275e-06
  using double precision FFTW3
  3d grid and FFT values/proc = 4410 672
Last active /omp style is kspace_style pppm/tip4p/omp

write_restart   restart.lmp.${pid}
write_restart   restart.lmp.0
System init for write_restart ...
PPPM initialization ...
  extracting TIP4P info from pair style
  using 12-bit tables for long-range coulomb (../kspace.cpp:340)
  G vector (1/distance) = 0.37222934
  grid = 24 27 25
  stencil order = 5
  estimated absolute RMS force accuracy = 0.0030904265
  estimated relative force accuracy = 9.3067275e-06
  using double precision FFTW3
  3d grid and FFT values/proc = 4410 672
Last active /omp style is kspace_style pppm/tip4p/omp
Total wall time: 0:06:14
