#include		in.partitions
include		in.temp
variable        temperature equal 137.13
variable	tempDamp equal 100.0
include		in.pressure
variable        pressure equal 10793.8
variable        pressureDamp equal 1000.0 # This is 1 ps
include		in.seed
variable        seed equal 745823

units		real
atom_style	full
box tilt large
read_restart	restart.lmp.${pid}
read_restart	restart.lmp.0
Reading restart file ...
  restart file = 30 Jul 2021, LAMMPS = 30 Jul 2021
  restoring atom style full from restart
  triclinic box = (-10.563749 -9.0655268 0.29654640) to (12.543749 12.055525 21.563453) with tilt (-8.8990767 1.7196206 2.7286725)
  4 by 4 by 4 MPI processor grid
  restoring pair style lj/cut/tip4p/long/omp from restart
  restoring bond style harmonic/omp from restart
  restoring angle style harmonic/omp from restart
  1296 atoms
  864 bonds
  432 angles
Finding 1-2 1-3 1-4 neighbors ...
  special bond factors lj:    0        0        0       
  special bond factors coul:  0        0        0       
     2 = max # of 1-2 neighbors
     1 = max # of 1-3 neighbors
     1 = max # of 1-4 neighbors
     2 = max # of special neighbors
  special bonds CPU = 0.008 seconds
  read_restart CPU = 0.017 seconds
include 	in.setup
variable	out_freq equal 1000
variable	out_freq2 equal 10000
variable	out_freq3 equal 1000

timestep	2.0

neigh_modify    delay 7 every 1

include		in.tip4p
# This is TIP4P/Ice

# create groups ###
group ox type 2
432 atoms in group ox
group hy type 1
864 atoms in group hy

# set charges - beside manually ###
set group ox charge -1.1794
Setting atom values ...
  432 settings made for charge
set group hy charge 0.5897
Setting atom values ...
  864 settings made for charge

# ### TIP3P Potential Parameters ###
pair_style lj/cut/tip4p/long/omp 2 1 1 1 0.1577 8.5
pair_coeff 1 1*2 0.000 0.000
pair_coeff 2 2 0.21084 3.1668
bond_style  harmonic
bond_coeff  1 450 0.9572
angle_style harmonic
angle_coeff 1 55 104.52
kspace_style pppm/tip4p/omp 1.0e-5
pair_modify tail yes

thermo          ${out_freq}
thermo          1000
thermo_style    custom step temp pe etotal epair emol press lx ly lz vol pxx pyy pzz pxy pxz pyz enthalpy

restart 	${out_freq3} restart.lmp.${pid} restart2.lmp.${pid}
restart 	1000 restart.lmp.${pid} restart2.lmp.${pid}
restart 	1000 restart.lmp.0 restart2.lmp.${pid}
restart 	1000 restart.lmp.0 restart2.lmp.0


include         in.dump
dump            myDump all atom ${out_freq2} dump.water.${pid}
dump            myDump all atom 10000 dump.water.${pid}
dump            myDump all atom 10000 dump.water.0
dump            myDump2 all dcd ${out_freq2} dump.dcd
dump            myDump2 all dcd 10000 dump.dcd
dump_modify     myDump append yes
dump_modify     myDump2 append yes


variable natoms 	equal  "count(all)"                        # NUMBER ATOMS
variable H      	equal  "enthalpy/v_natoms"                 # ENTHALPY-per-atom
variable Vol      	equal  "vol/v_natoms"                 # volume-per-atom
fix AVG all 		ave/time ${out_freq} 1 ${out_freq} v_Vol v_H file vol_enthalpy.dat
fix AVG all 		ave/time 1000 1 ${out_freq} v_Vol v_H file vol_enthalpy.dat
fix AVG all 		ave/time 1000 1 1000 v_Vol v_H file vol_enthalpy.dat


timer           timeout 10:00:00 every 1000
New timer settings: style=normal  mode=nosync  timeout=10:00:00

fix 		1 all shake 1e-6 200 0 b 1 a 1
       0 = # of size 2 clusters
       0 = # of size 3 clusters
       0 = # of size 4 clusters
     432 = # of frozen angles
  find clusters CPU = 0.004 seconds
fix             2 all nph tri ${pressure} ${pressure} ${pressureDamp}
fix             2 all nph tri 10793.8 ${pressure} ${pressureDamp}
fix             2 all nph tri 10793.8 10793.8 ${pressureDamp}
fix             2 all nph tri 10793.8 10793.8 1000
fix             3 all temp/csvr ${temperature} ${temperature} ${tempDamp} ${seed}
fix             3 all temp/csvr 137.13 ${temperature} ${tempDamp} ${seed}
fix             3 all temp/csvr 137.13 137.13 ${tempDamp} ${seed}
fix             3 all temp/csvr 137.13 137.13 100 ${seed}
fix             3 all temp/csvr 137.13 137.13 100 745823


run             250000
PPPM initialization ...
  extracting TIP4P info from pair style
  using 12-bit tables for long-range coulomb (../kspace.cpp:340)
  G vector (1/distance) = 0.37227093
  grid = 30 36 32
  stencil order = 5
  estimated absolute RMS force accuracy = 0.0035484277
  estimated relative force accuracy = 1.0685985e-05
  using double precision FFTW3
  3d grid and FFT values/proc = 4896 600
Last active /omp style is kspace_style pppm/tip4p/omp
Neighbor list info ...
  update every 1 steps, delay 7 steps, check yes
  max neighbors/atom: 2000, page size: 100000
  master list distance cutoff = 10.8154
  ghost atom cutoff = 10.8154
  binsize = 5.4077, bins = 7 5 4
  1 neighbor lists, perpetual/occasional/extra = 1 0 0
  (1) pair lj/cut/tip4p/long/omp, perpetual
      attributes: half, newton on, omp
      pair build: half/bin/newton/tri/omp
      stencil: half/bin/3d/tri
      bin: standard
Per MPI rank memory allocation (min/avg/max) = 9.423 | 9.434 | 9.440 Mbytes
Step Temp PotEng TotEng E_pair E_mol Press Lx Ly Lz Volume Pxx Pyy Pzz Pxy Pxz Pyz Enthalpy 
35250000    145.89462   -6636.3612   -6261.0561   -6636.3612            0    12364.118    23.107498    21.121052    21.266906    10379.413    12274.463     11875.83    12942.062    -590.2223   -573.72112    407.30319   -4389.4614 
35251000    134.57612   -6642.1869    -6295.998   -6642.1869            0    10544.194    23.012552     21.17984    21.403433     10432.08    10817.154    10832.808    9982.6191   -423.71044   -529.46529    788.42815   -4691.7919 
35252000    137.38142   -6640.7651   -6287.3597   -6640.7651            0    11742.465    22.989956    21.202521    21.325393    10394.957    10910.892    12027.624    12288.879    538.57806    650.29589    388.78143   -4507.2046 
35253000    137.76525    -6653.611   -6299.2183    -6653.611            0    9975.0317    23.192006    21.216308    21.221795    10442.158    9368.7137    8956.2124    11600.169    36.158989   -476.15195    123.56666   -4780.1391 
35254000    129.39089   -6651.0215   -6318.1713   -6651.0215            0    10558.653    23.138779    21.041596    21.441734    10439.484    9655.7396    11744.204    10276.015    438.93108    345.33821    19.467232   -4710.6253 
35255000    141.06291   -6658.7332   -6295.8574   -6658.7332            0    10458.348    23.126973    21.098509    21.396391    10440.254    9954.9808    11326.115    10093.949   -694.90915      482.711   -532.88489   -4703.4651 
35256000    138.08857   -6646.2291   -6291.0047   -6646.2291            0    9932.2224    23.053591    21.308938    21.301945    10464.528    9775.9008    10110.346      9910.42    104.70597   -89.414307    85.865691   -4775.2045 
35257000    135.55357   -6652.7249   -6304.0216   -6652.7249            0    10593.634    23.006455    21.269174    21.330035     10437.39    11015.172    10573.884    10191.847   -77.056775     777.3746   -764.85816   -4691.4731 
35258000    141.48403    -6645.626    -6281.667    -6645.626            0     12113.34    22.971339    21.201006    21.318183    10382.286    12334.669    11664.713    12340.638    -397.5368    -212.0302     821.5111   -4447.5257 
35259000     139.0397   -6626.3399   -6268.6687   -6626.3399            0    11493.154    23.179664    21.015835    21.360209    10405.412    11287.454    11523.386    11668.622   -1417.3578    249.22672   -127.31515   -4524.5567 
35260000    140.70579   -6650.6967   -6288.7397   -6650.6967            0    10784.766    23.053823    21.168538     21.35891    10423.484     10372.78    12021.064    9960.4555   -95.028622    444.97629   -367.42524   -4649.2845 
35261000    136.14106   -6648.2342   -6298.0196   -6648.2342            0    9740.9057    22.925569    21.388783    21.331037    10459.675    10802.424    9012.1073    9408.1859    375.12831    29.482776    401.68929   -4812.1065 
35262000     137.7988   -6627.9697   -6273.4907   -6627.9697            0    10905.927    23.126214    21.235271     21.23926    10430.419    9936.1873    10470.387    12311.206    616.19115     762.2089    223.25674   -4614.5143 
35263000    137.97536   -6644.4776   -6289.5444   -6644.4776            0    9811.3762    23.159567    21.142596    21.422857    10489.774    9030.0633    10427.555    9976.5107    -242.1898    653.46151     687.1538   -4788.5746 
35264000     134.7299    -6658.758   -6312.1735    -6658.758            0    11160.562    23.164001     20.99342    21.429257    10420.868    10449.031    12370.595    10662.061    -462.0808    208.24015    300.43792   -4616.0173 
35265000    136.33119   -6639.9967    -6289.293   -6639.9967            0    11826.371    23.105085    21.164413    21.300256    10415.944    11592.983    11268.008     12618.12   -582.47689    -854.5251   -544.42399   -4492.7981 
35266000    137.02602    -6649.014   -6296.5229    -6649.014            0    11123.473    22.950901    21.296148    21.326227     10423.53    11087.703    10900.738    11381.978    439.96385   -478.69141    73.942356   -4605.5715 
35267000    139.80676   -6652.3701   -6292.7257   -6652.3701            0    10590.957    23.025144    21.230924    21.355739    10439.648    10710.118    9835.3061    11227.445   -38.599737   -37.686112    816.01758   -4680.2361 
35268000    140.13789   -6660.1397   -6299.6435   -6660.1397            0    12161.648    22.957809     21.15338    21.326556    10356.928    12165.048    11618.147     12701.75   -675.08065    427.50731   -773.19457   -4462.6853 
35269000    140.39432   -6657.0698   -6295.9139   -6657.0698            0    11242.114    23.073169    21.076413     21.40871    10411.048     11983.28    11178.631    10564.431   -515.98781   -389.58765     520.7605   -4588.9737 
35270000    139.40523    -6666.205   -6307.5935    -6666.205            0    9852.0413    23.216002    21.146292      21.2778     10445.96    9227.4273    9795.1838    10533.513   -251.20609    129.21664   -615.07204   -4806.6979 
35271000    136.23945    -6663.192   -6312.7243    -6663.192            0    11152.038    23.067041    21.149108    21.327643    10404.634    10987.559    11344.025    11124.529    428.07707    168.20587    271.35166    -4620.504 
35272000    135.88016   -6635.8048   -6286.2614   -6635.8048            0    11525.206    22.863075    21.271524    21.390802    10403.041    12280.632    11596.682    10698.304   -377.26782    1521.3711   -888.80697   -4537.6839 
35273000    142.12513   -6676.6633   -6311.0551   -6676.6633            0     9604.302    23.056499    21.250682    21.356959    10464.191     9269.705    9782.0378    9761.1633    322.13319    593.35465   -758.71374   -4845.3474 
35274000    144.74084   -6626.4214   -6254.0844   -6626.4214            0    11812.792    23.083841    21.188263     21.31169    10423.686    11218.952    11883.791    12335.634   -442.63834    1017.8575    201.47862   -4458.3183 
35275000    141.93922   -6640.0075   -6274.8775   -6640.0075            0    10382.056    23.232435    21.082478    21.313169    10439.133    10184.187    10827.096    10134.886   -260.30379    -476.5053   -715.84063   -4694.2713 
35276000    138.22729   -6631.4969   -6275.9156   -6631.4969            0    10666.715    23.113184    21.172152    21.328726    10437.336    9852.1889    11485.907    10662.049    703.14279    -211.2426    19.426646   -4652.2513 
35277000     137.4575   -6639.2968   -6285.6958   -6639.2968            0    10099.495    23.197011     21.13905    21.300109    10444.781     8426.652     11375.58    10496.252    1055.1612    1219.6614    28.379272    -4747.276 
35278000    131.28437   -6652.1727   -6314.4516   -6652.1727            0    10563.321    22.984786    21.218389    21.380379    10427.214     10398.62    11135.291    10156.054   -918.34306    488.32943   -156.86679    -4708.085 
35279000    133.13028   -6645.5011   -6303.0316   -6645.5011            0    11741.272    22.944636    21.160176    21.397248    10388.633    12519.329    12154.925    10549.563    827.36324   -779.39252   -257.92377   -4524.1402 
35280000    145.33051      -6646.6   -6272.7461      -6646.6            0    10730.143    23.178183    21.246146    21.154471    10417.456    9481.6338    10748.178    11960.618    399.07065    70.674689   -474.85036   -4642.5379 
35281000    138.48783    -6642.519   -6286.2675    -6642.519            0    10168.172    23.065367    21.146658    21.455871    10465.218      9933.69    11244.001    9326.8241    118.45628    591.94991    -43.16108   -4734.3556 
35282000    138.72695   -6642.8207    -6285.954   -6642.8207            0    11428.238     23.09143    21.095804    21.401972    10425.591    10811.167    12023.117     11450.43    241.65511   -462.46167    56.135419   -4548.3298 
35283000    141.22482   -6658.5546   -6295.2624   -6658.5546            0    10188.207      23.1598    21.317951    21.134952    10434.737    9798.7182    9508.3544    11257.549    321.58222   -33.708141    603.93049   -4744.8216 
35284000    138.61858   -6656.7462   -6300.1584   -6656.7462            0    11410.482    22.913229    21.165848    21.466325    10410.693    12671.461    10764.112    10795.873   -1137.6029     261.5956   -77.207368   -4567.7131 
35285000    136.94238   -6654.5472   -6302.2713   -6654.5472            0     11872.94    23.117789    21.087456    21.294477    10380.959    12127.141    11913.578    11578.102    1227.6839   -797.76696    53.908042     -4504.76 
35286000    135.23137   -6650.4942   -6302.6197   -6650.4942            0    10486.281    23.137348    21.217502    21.234368    10424.306    10240.457    10781.615    10436.772   -919.52129   -61.241029   -216.68993   -4708.4132 
35287000    136.21397   -6638.5786   -6288.1764   -6638.5786            0    10784.496    23.019521    21.050606    21.500972    10418.831    10570.958    11948.272    9834.2576    547.31435   -32.195406   -507.38657   -4649.4943 
35288000    135.95817   -6644.8772   -6295.1331   -6644.8772            0    10843.315    23.110428     21.26607    21.197493    10417.889    10450.936    10392.731    11686.278   -127.12794    107.16701   -329.95736   -4647.6624 
35289000    134.22517   -6642.0373   -6296.7513   -6642.0373            0    10828.143    23.011572    21.235336     21.35299    10434.319    11706.382    10380.717    10397.332   -100.49295   -1410.1175   -615.79211   -4648.9911 
35290000    134.22045    -6650.956   -6305.6821    -6650.956            0    10721.256    23.039695     21.13244    21.443284    10440.413     10720.53    11307.084    10136.155    87.092959     1296.072    225.98081   -4673.2345 
35291000    137.39935   -6661.9686   -6308.5172   -6661.9686            0     10557.82    23.046516    21.287455     21.24689     10423.76    10806.187    9620.8522    11246.421    559.03782   -467.51778    259.86645    -4703.519 
35292000    134.20065   -6646.7073   -6301.4843   -6646.7073            0    11130.933    23.038684    21.143057    21.398177    10423.227     11375.88    11269.623    10747.296    1238.9062    530.62403    -124.0129   -4609.4481 
35293000    139.09211   -6646.5455   -6288.7395   -6646.5455            0    10510.817    23.191606    21.101509    21.336607    10441.664    9980.7851    10912.512    10639.152    258.97374   -530.70761    344.03605   -4688.1423 
35294000    136.08505   -6637.6608   -6287.5903   -6637.6608            0    11599.078    23.087253     21.08854    21.380194    10409.513    11123.542    11476.011     12197.68   -256.49255    -459.5478    792.81761   -4526.7103 
35295000    126.86143   -6658.2248   -6331.8815   -6658.2248            0    10704.221    23.111462    21.120743    21.372393    10432.533    11119.932    10399.166    10593.567   -438.66649    276.64552    204.60368   -4703.2579 
35296000    138.29767   -6639.1061   -6283.3438   -6639.1061            0    11335.582    22.898467    21.409153    21.233739     10409.56     12045.87    9880.6015    12080.275   -773.82468   -320.35781    973.88329   -4562.4578 
35297000    134.37722   -6656.9975   -6311.3203   -6656.9975            0    10817.237    22.959424    21.203502    21.432604    10433.824    11726.702    10365.664    10359.344    902.88232   -750.16517   -186.15732   -4665.2979 
35298000    138.48717   -6638.1603   -6281.9105   -6638.1603            0    11463.451    23.096919    21.197736    21.244535    10401.375    11334.325    10632.118    12423.909   -965.31513    248.00765    218.92316   -4542.9808 
35299000    141.22172   -6645.5939   -6282.3096   -6645.5939            0    10618.053    23.097785     21.12615    21.361407    10423.667    11543.048    10761.775    9549.3369    32.608456   -891.43594   -281.22509   -4668.1692 
35300000    140.06476   -6656.1506   -6295.8426   -6656.1506            0     10046.04    23.073189     21.07261    21.482713     10445.16    10067.682     10278.11    9792.3294    126.26643   -124.71807   -172.35175   -4765.5097 
35301000    139.54107   -6632.7451   -6273.7842   -6632.7451            0    10948.411    22.942702    21.352737    21.232467    10401.562    10793.006    10271.196    11781.032    168.68789    354.22681    1919.7082   -4612.9528 
35302000    132.82756   -6651.6939   -6310.0031   -6651.6939            0    11185.505    22.950814    21.301689    21.292289     10409.61    11897.185    10338.986    11320.343   -290.23241   -34.907973    -92.75492   -4611.8927 
35303000    136.93949   -6661.6616   -6309.3931   -6661.6616            0    10634.932    23.022334    21.102647    21.482282    10436.784    11599.973    9998.7838    10306.038   -327.78712    -376.5906    19.274513   -4690.6524 
35304000    138.39423   -6643.0777    -6287.067   -6643.0777            0    10537.875    23.171342    21.086424    21.358581    10435.818    11173.653    10122.073    10317.899   -905.21075   -654.34128    493.24029   -4683.2476 
35305000    135.62422   -6637.2849   -6288.3999   -6637.2849            0    11493.908     23.24252    20.956289    21.393565    10420.313    10478.423    12565.123    11438.177    -79.94067   -1284.8795   -823.09954   -4541.6755 
35306000    138.49621   -6631.7335   -6275.4604   -6631.7335            0     10607.56    23.035997     21.22627    21.314689    10422.207    10793.095    10957.434     10072.15    210.57281    872.38869   -359.24736   -4663.1411 
35307000    133.01619   -6636.3776   -6294.2016   -6636.3776            0    10692.306    22.876175     21.45765    21.260081    10435.914    12566.297    8199.6555    11310.966   -690.99888    463.59437    457.76956   -4666.8636 
35308000     134.1238   -6642.9836   -6297.9583   -6642.9836            0    10527.859    22.877936     21.32512    21.389503    10435.398    11299.677    9937.3865    10346.513    681.76066   -419.76403   -592.40875   -4695.7279 
35309000    132.68774   -6629.1519   -6287.8208   -6629.1519            0    11571.027    23.146023    21.164714    21.250582    10410.213    10520.436    11579.775     12612.87    590.91181   -654.13593   -298.24887   -4531.0811 
35310000    139.25727   -6672.7001   -6314.4693   -6672.7001            0    11063.862    23.253544    20.999983    21.331981    10416.919    10207.664    12007.819    10976.102    -37.71798   -243.43848    260.06686   -4633.6466 
35311000    141.67323   -6666.6075   -6302.1617   -6666.6075            0    10334.802     23.11415    21.130719     21.38501    10444.837    10642.959    8951.8043    11409.642   -253.12561    31.109264    279.49319     -4727.89 
35312000    141.64123   -6651.1467   -6286.7833   -6651.1467            0    10807.134    22.917938    21.404825    21.276229    10437.149    10481.315    9928.6154     12011.47   -136.77086    622.94597    1119.1019   -4641.7743 
35313000    142.11349   -6637.6301   -6272.0518   -6637.6301            0    10855.119    23.025655    21.285942    21.283353    10431.455    11733.477    9576.1458    11255.735   -161.48952    53.666783   -75.742263     -4620.64 
35314000     131.9312   -6640.6913   -6301.3063   -6640.6913            0    11483.858    22.968217     21.16453     21.44004    10422.251    11760.977    12038.339    10652.259   -603.46394   -573.65954   -597.66419   -4555.7847 
35315000    132.43297   -6662.5713   -6321.8956   -6662.5713            0    10944.873    23.262174    21.032081    21.303994     10423.02    9784.6378      11103.4     11946.58    607.82033   -509.60347    573.34782   -4658.1758 
35316000    138.47393   -6634.4849   -6278.2691   -6634.4849            0      10569.9      23.2016     21.10398     21.31326    10435.955    9996.8599    10414.725    11298.115   -601.95534    196.56103    562.67634   -4669.5547 
35317000    135.64743   -6671.6812   -6322.7365   -6671.6812            0     9799.025    22.978345    21.240308     21.41032    10449.673    10490.155    9911.0185    8995.9017    48.467013    601.28285   -706.03722   -4829.3869 
35318000    138.58275   -6660.3802   -6303.8845   -6660.3802            0    11435.619    22.940436    21.312362    21.242298    10385.675     11819.47    11319.155    11168.231   -149.43683    372.14024    107.63617   -4571.7951 
35319000    129.69131    -6656.152    -6322.529    -6656.152            0    10510.523     23.04126    21.168319    21.383386    10429.634    11044.884    10535.883    9950.8016    429.55106   -589.55399    202.71374   -4723.8205 
35320000    137.53454   -6651.9421   -6298.1429   -6651.9421            0    10979.847    23.217605    20.975892    21.378947    10411.761    10392.716    10873.149    11673.674   -646.13007    108.93559    233.50779   -4630.9098 
35321000    135.21028   -6635.7199   -6287.8997   -6635.7199            0     11957.37    23.185219    20.995333    21.341715     10388.75    12195.592    12427.729    11248.787   -772.52592   -733.50923    165.29429   -4476.2474 
35322000    139.10037    -6624.394   -6266.5668    -6624.394            0    10527.859    23.054528    21.234716     21.31387    10434.341    10609.778    10788.695    10185.104   -527.15018   -369.58835    -1151.515   -4664.4988 
35323000     134.1598   -6655.1244   -6310.0065   -6655.1244            0    10836.721    22.840769    21.329536    21.390089    10420.888    11599.587    10374.667    10535.909   -32.876919    486.27443   -219.12844   -4663.0637 
35324000    137.23203   -6652.7972   -6299.7762   -6652.7972            0    10226.775    23.050516    21.288393    21.261274    10433.087    10618.336    9615.5083     10446.48   -982.90504    456.81572   -401.41828   -4743.7124 
35325000    143.75106   -6667.8756   -6298.0847   -6667.8756            0    11336.386    23.056831    21.136785    21.347578    10403.684    10760.847    12230.697    11017.614    241.75157   -243.45927   -509.26884   -4578.0483 
35326000    134.71968   -6646.3721    -6299.814   -6646.3721            0    10156.446     23.25603    20.935421    21.477791    10456.995    10647.052    9513.6668    10308.619   -468.57175   -417.10408    1177.4625   -4750.9098 
35327000    141.07713   -6668.4777   -6305.5654   -6668.4777            0    11471.843    23.143492    21.030313    21.370806    10401.489    11285.525    12223.753     10906.25   -312.52211   -789.11918   -161.85895   -4565.3436 
35328000    143.88706   -6652.4069   -6282.2662   -6652.4069            0     9805.229    23.015969    21.338379    21.303907    10462.849    10553.227    8149.8157    10712.644    116.14112   -250.69426   -323.70337   -4786.0872 
35329000    136.88402   -6663.2428    -6311.117   -6663.2428            0      10114.9    22.972991     21.26995    21.355798    10435.177    9649.4939    10966.834    9728.3713    454.89473    1505.4371   -766.95778   -4771.7673 
35330000    137.94284   -6635.9616   -6281.1121   -6635.9616            0    9455.2008    23.016338    21.353273    21.297268    10467.057    9798.1867    7902.0748    10665.341   -852.21639    1009.7395    1290.5518   -4837.7635 
35331000    131.93207   -6647.7973   -6308.4101   -6647.7973            0    10561.407    23.136443    21.087801    21.400162    10441.069    10267.024    10945.156     10472.04   -30.473459   -480.58391   -234.57832   -4700.2006 
35332000    139.30408   -6662.5456   -6304.1943   -6662.5456            0    11367.562    23.136929    21.026186    21.390677    10406.166    12030.654    11065.116    11006.915   -1100.6101    89.103682    68.326637   -4579.0162 
35333000    135.36525   -6647.2882   -6299.0693   -6647.2882            0     10700.38    23.173594    21.100507    21.315795    10422.882    10134.851    11371.284    10595.004   -542.01897   -889.24179    707.03124   -4672.5362 
35334000    138.02964   -6625.2139    -6270.141   -6625.2139            0    11012.311    23.067329    21.195278    21.350277    10438.545    11117.078    11753.633    10166.222    949.69831   -895.40242   -1461.2536   -4593.6767 
35335000    132.93437   -6646.1814   -6304.2158   -6646.1814            0    10931.852    22.960244      21.2789    21.362058    10436.834    11083.155    10954.738    10757.662    1137.0948   -435.22069    262.01289    -4640.273 
35336000    132.97507   -6643.2275   -6301.1572   -6643.2275            0    12314.287    22.952352    21.335763    21.198862    10381.208    13232.874    11191.709    12518.278    -491.5118    535.81765   -294.58829   -4436.7831 
35337000    133.99577   -6662.7309    -6318.035   -6662.7309            0    10725.354    23.013098    21.036615    21.572087    10443.429    10900.517     12028.15    9247.3938    854.42931   -463.31503   -986.03373   -4684.4918 
35338000    135.09321   -6634.6733   -6287.1543   -6634.6733            0     11365.43    23.238991    21.094703    21.227513    10406.144    10648.034    12384.252    11064.003    364.88797   -369.32619   -243.81816   -4562.3034 
35339000    134.30001   -6667.2725   -6321.7939   -6667.2725            0    11571.108    23.085281    21.155785    21.296299    10400.841    10474.815     11780.09    12458.419   -572.49072   -235.75531    570.73254   -4566.6235 
35340000     133.2957   -6654.5192   -6311.6241   -6654.5192            0     9792.169    23.066281    21.145947    21.479649    10476.878    10541.632    9012.1274    9822.7477    -802.2304   -458.88609   -3.2687956   -4815.4344 
35341000      133.786   -6660.4626   -6316.3063   -6660.4626            0    10468.993    23.040518    21.312477    21.261549    10440.494    10980.053    9331.8995    11095.028   -662.88811    2.1351696    625.79786   -4722.2566 
35342000    136.56844   -6645.1327   -6293.8187   -6645.1327            0    11461.781    23.140735    21.147315    21.271531     10409.53    12791.609    10815.236    10778.498   -1098.7987   -1087.3745   -473.39835   -4553.7792 
35343000    140.92274   -6661.0911    -6298.576   -6661.0911            0    11066.958    23.100055    20.983447    21.524268    10433.217    10851.028    12179.837     10170.01   -159.81483    208.38948    538.81958   -4614.6524 
35344000    137.52076   -6644.0496   -6290.2858   -6644.0496            0     10901.47    23.062738     21.28585    21.227393    10420.739    10669.899    10256.287    11778.223   -438.72688    461.55126    408.59257   -4633.5263 
35345000    131.63922    -6660.533   -6321.8991    -6660.533            0    10724.984    22.879034    21.305157    21.379787    10421.394     11282.48    10183.018    10709.455    651.73867    544.20025    710.93038   -4691.8587 
35346000    142.84233   -6650.0894   -6282.6362   -6650.0894            0    10640.637    22.819999    21.369693    21.397868    10434.807     12030.65    9458.3196     10432.94     679.2793   -729.81593   -6.0554672   -4663.3339 
35347000    132.41074   -6643.5792   -6302.9606   -6643.5792            0    10827.362    23.141932    21.167797    21.302951    10435.543    10840.699    10220.703    11420.684    720.53212    24.613163    217.34528   -4655.1261 
35348000    133.39872   -6669.0795   -6325.9195   -6669.0795            0    9244.0134    23.260063     21.06378    21.383274    10476.625    8669.7901    9572.7513    9489.4986   -786.66655   -167.21683    417.52414    -4913.519 
35349000    142.19095   -6653.2779   -6287.5003   -6653.2779            0    11369.428     23.06592    21.182005    21.272929    10393.579    11164.591    12043.396    10900.297    295.24179   -975.29725   -209.92446   -4564.1259 
35350000    135.56841    -6650.818   -6302.0765    -6650.818            0    12038.137    22.918712    21.212702    21.338641     10374.16    12376.883    11953.573    11783.954    352.02407   -520.52409    353.67957   -4480.7487 
35351000    133.10077   -6660.2714   -6317.8778   -6660.2714            0    10936.542    22.914927    21.263978    21.379282    10417.323    11546.506    10377.774    10885.346    539.86193   -817.64156   -445.02841   -4656.3331 
35352000    133.40956   -6645.2236   -6302.0356   -6645.2236            0    10802.855     23.13392    21.126224    21.322634    10421.062    11054.429     10634.78    10719.355    -1174.411   -29.381786    468.33886   -4660.2124 
35353000    140.45693   -6638.5681   -6277.2512   -6638.5681            0    11275.805    23.174433    21.029144    21.345295    10402.384    10484.164    12183.205    11160.046    802.92137   -995.22185    -120.4353   -4566.6202 
35354000     140.0337   -6647.7815   -6287.5533   -6647.7815            0    11857.441    23.027677    21.178147    21.297077    10386.234    12186.387    12152.194    11233.743   -651.03815    343.41625   -305.95703   -4491.4763 
35355000    135.46509   -6638.0792   -6289.6035   -6638.0792            0    11487.799    22.966562    21.199897    21.390553    10414.819    11470.505    12123.061    10869.831    -870.7194    1635.1948    108.22996    -4544.728 
35356000    131.53027   -6648.6804   -6310.3268   -6648.6804            0    10821.407    23.013325    21.264354     21.31126    10428.952    10488.158    10039.001    11937.061   -403.00192     1478.101    404.37151   -4664.4387 
35357000    132.50243   -6646.7864    -6305.932   -6646.7864            0    10759.716    23.112641    21.143177    21.380432    10448.075    10128.023    11379.294     10771.83   -503.96153    240.16823   -574.73572    -4666.426 
35358000      135.681    -6650.828    -6301.797    -6650.828            0    10842.834    23.198534    21.007653    21.393334    10425.972    10285.808    11563.376     10679.32   -46.961274    214.24553    254.12676   -4653.1211 
35359000    134.46216   -6657.3592   -6311.4635   -6657.3592            0    10256.304    23.140213    21.195121    21.286851     10440.34    9270.0804    10846.197    10652.633    136.17828   -3.2418962   -8.9242252   -4749.8217 
35360000     132.9591   -6647.2587   -6305.2295   -6647.2587            0    11142.267    22.842085    21.314308    21.402549    10420.114    12245.388    9872.7108    11308.703   -669.13205    10.055871    62.516326   -4611.9762 
35361000    132.82797   -6635.3381   -6293.6463   -6635.3381            0    11041.113    22.983323    21.248855    21.327009    10415.457    11613.304    10883.988    10626.048   -225.38482    20.575552    232.45707    -4616.515 
35362000    139.09078    -6654.393   -6296.5904    -6654.393            0    10939.442    23.136691    21.173488    21.291054    10430.156    10366.705    10808.488    11643.134   -902.54477    565.21402    217.97441   -4632.5576 
35363000    138.31802   -6647.6182   -6291.8035   -6647.6182            0     11253.14     23.12957    21.001409    21.465975    10427.173    11126.971    13103.545    9528.9046    462.20649   -473.87971    -47.43153   -4580.5427 
35364000    134.64438    -6634.554   -6288.1895    -6634.554            0    10689.693    23.248919    21.114196    21.248968    10430.741    10575.619    10853.153    10640.305     252.6684    -854.8542   -708.65482   -4662.0558 
35365000    137.57781   -6645.5069   -6291.5964   -6645.5069            0    10791.902    22.989263    21.184055    21.414654    10429.061    10784.324     11699.75    9891.6305    329.14582     1038.094     -98.1412   -4650.1788 
35366000    133.49593   -6662.0063   -6318.5962   -6662.0063            0    11269.582     22.80125    21.286747    21.435898    10404.222    11812.442    11339.059    10657.244    230.45993   -226.68532   -108.30522   -4608.6072 
35367000    130.80217   -6670.0407     -6333.56   -6670.0407            0     10251.45    23.242187    21.108901    21.283128    10441.865    9514.2278    10619.525    10620.596    780.42555   -184.68731   -370.59769   -4772.4294 
35368000    133.42257   -6664.0947   -6320.8733   -6664.0947            0     9384.306    23.130379    21.104553     21.45129    10471.583     8725.208     9681.072    9746.6381   -176.26198    370.99696    337.10286   -4887.7275 
35369000    134.70658   -6644.2596   -6297.7351   -6644.2596            0    11875.083    22.970769    21.155077      21.4065    10402.454    13044.595    11267.336    11313.317    108.56722    725.51236    492.36719   -4496.1768 
35370000    138.82364   -6665.3295   -6308.2141   -6665.3295            0     9510.478    23.059488     21.23212    21.378278    10466.844     9965.714    8638.1946    9927.5254     285.3166    144.59395     629.4682    -4856.457 
35371000    137.41066   -6666.5516    -6313.071   -6666.5516            0    9777.2508    23.065546    21.291673    21.326396     10473.48    10247.775    9858.8809    9225.0963    -1514.154   -775.55224     7.937146   -4819.6452 
35372000    138.10795   -6625.7173    -6270.443   -6625.7173            0    11977.236    23.204204    21.010147     21.33677    10402.182    11731.295    12590.087    11610.326    388.41879   -864.66106    1001.8635   -4453.4347 
35373000     138.2687   -6655.8446   -6300.1568   -6655.8446            0    11212.627    23.175974    21.085399     21.28985     10403.81     10444.83    12496.033    10697.017   -141.39686   -209.06174    40.024986   -4598.8774 
35374000    136.16258   -6651.7236   -6301.4537   -6651.7236            0    9720.3655    23.023805    21.261103    21.411149    10481.003    9444.3314    8999.2866    10717.478   -136.12249   -270.23242    196.90656   -4815.6503 
35375000    137.90006   -6643.5925    -6288.853   -6643.5925            0    10037.653    23.016528    21.281689    21.343702    10454.798    9590.2213    10112.345    10410.392    657.40797    1626.2066    110.55524   -4758.3869 
35376000     140.8269   -6664.4962   -6302.2276   -6664.4962            0     10448.69    22.981044    21.276291    21.340644    10434.538    10197.395     9455.605    11693.071    396.66833    341.15249    1235.2851   -4712.1769 
35377000    136.50445   -6653.4003   -6302.2509   -6653.4003            0    10890.369     23.14506    21.117333    21.326091    10423.381    10336.331    11528.049    10806.725   -423.15412    506.01039   -1124.2161   -4646.7589 
35378000    134.05705   -6647.1363   -6302.2827   -6647.1363            0    10036.848    23.274976    21.017049    21.396993    10466.795     9464.574    11542.484    9103.4865   -95.521815     87.46378   -381.18284   -4770.1833 
35379000    142.56448   -6642.5299   -6275.7914   -6642.5299            0    11283.622    23.032595    21.227812    21.298011    10413.271    10789.481    11779.331    11282.054   -23.049921   -1073.2459   -60.860488    -4562.183 
35380000    129.84081   -6662.4649   -6328.4573   -6662.4649            0     10692.38    23.025801    21.189567    21.344451    10414.101    11205.023    10469.794    10402.324    4.2367088    1626.4186    128.33766   -4704.5094 
35381000    130.03665   -6650.6875   -6316.1761   -6650.6875            0     11221.98    22.958518    21.306447     21.27544    10407.189    11057.145    10629.854     11978.94   -993.99405    571.46147   -1104.2996   -4612.9246 
35382000    139.43416   -6641.4089    -6282.723   -6641.4089            0    10360.601    23.063114    21.187282    21.383464    10448.917    10740.494    10352.683    9988.6274   -704.79194    61.367491    936.03553   -4703.9048 
35383000    141.36102   -6650.4812   -6286.8385   -6650.4812            0    11115.668    23.140997    21.020394    21.392519    10406.024    10582.838    12072.016     10692.15    67.928733    176.87893    -51.25143   -4599.9116 
35384000    132.32773   -6657.7662   -6317.3611   -6657.7662            0    11632.122     23.05939    21.249682    21.231139    10403.358     11986.14    10705.139    12205.088   -1048.9062   -497.03032    7.6725304   -4552.5086 
35385000    137.07078    -6668.209   -6315.6028    -6668.209            0    10354.676    23.004275    21.274518    21.284299     10416.64    9754.2415    10930.608    10379.178    118.73178    1037.3791    791.83516   -4742.5619 
35386000    144.00622    -6658.951   -6288.5037    -6658.951            0    10609.324    22.978961    21.238772    21.370305    10429.669    10829.961    10528.651    10469.359    121.23794     310.9223   -131.61302   -4674.7617 
35387000    134.96184   -6648.9779   -6301.7968   -6648.9779            0    11269.862    23.073954    21.198959    21.292494    10415.092    12004.845    10855.717    10949.023   -172.64521    -358.6903   -82.528308   -4589.9789 
35388000    129.21345   -6641.3871   -6308.9933   -6641.3871            0    11485.209    23.297893    20.874587    21.391668    10403.493    10948.777    12385.313    11121.537   -336.19373    345.95172    457.04913   -4566.4083 
35389000    138.92528   -6666.3622   -6308.9854   -6666.3622            0     10788.02    23.071084    21.129833    21.375899    10420.497    10770.416    11657.381    9936.2635   -545.16334   -755.98328   -967.44084   -4669.5055 
35390000    138.60959   -6657.6143   -6301.0495   -6657.6143            0    10089.778    23.082784    21.308929    21.250188    10452.317     9970.685    8799.6937    11498.956   -575.43099    796.97749    434.32802   -4763.0008 
35391000    134.91403   -6664.5152   -6317.4571   -6664.5152            0    9657.1553    23.021384    21.273516    21.359834    10460.888    9284.1181    8980.0683    10707.279    7.2633176   -498.23473   -727.12668   -4844.1487 
35392000     137.8199   -6648.3408   -6293.8075   -6648.3408            0    11308.208    22.915089    21.192488    21.441632    10412.651    12728.479    11098.839    10097.306   -1426.0345   -212.38195   -452.17842   -4576.5675 
35393000    134.30208   -6639.8212   -6294.3373   -6639.8212            0    10806.083    23.315679    21.042506    21.232458    10417.075    10057.823    11132.122    11228.304    221.41435    387.05756    68.012763   -4652.6518 
35394000     133.2011   -6652.5165   -6309.8648   -6652.5165            0    10768.201     23.14153    21.159968    21.352086    10455.562    10706.195    10861.492    10736.916   -1074.7617   -302.06256    794.21869   -4667.8901 
35395000    135.78543   -6629.6385   -6280.3388   -6629.6385            0    10978.069    22.983718    21.272689    21.377127    10451.822    10536.793    11127.485    11269.931    586.64749     618.5412   -108.74689   -4606.9615 
35396000    140.61249   -6667.0586   -6305.3415   -6667.0586            0    11234.603    23.016647    21.247708    21.265668    10399.996    10880.813    10938.806    11884.191   -217.44538    777.83464    -361.7223   -4601.3524 
35397000       135.67   -6661.1456   -6312.1428   -6661.1456            0     10632.16    23.134384    21.123964    21.314068    10415.969    9240.9473    11236.066    11419.466    240.69068    136.29988    347.96485   -4697.0514 
35398000    135.50195   -6669.7372   -6321.1667   -6669.7372            0    9791.1925    23.173751    21.069938    21.407471    10452.615    9715.4377    9820.7285    9837.4112   -495.61814    447.94432    106.48094   -4828.5908 
35399000     138.6865   -6642.3739   -6285.6113   -6642.3739            0    10551.639    23.113536    21.145735    21.390328    10454.581     9507.641    10227.406    11919.869   -101.94818    926.74801    452.70568   -4676.8099 
35400000    138.22789   -6657.7883   -6302.2055   -6657.7883            0    11396.448    22.900267    21.320083    21.285658    10392.416    11284.795    11381.877    11522.671    516.93974    751.96736    643.10969   -4574.9288 
35401000    136.01481   -6633.0881   -6283.1983   -6633.0881            0    10798.987    22.936878    21.285816    21.347642    10422.563    10817.792    10664.212    10914.958    307.01048    899.22356   -797.15889   -4641.7265 
35402000    134.46442   -6660.6536   -6314.7521   -6660.6536            0    10627.872    22.958191    21.222038    21.397365    10425.216    11368.525     10736.63    9778.4632   -396.09285   -51.969946   -703.44439   -4698.8789 
35403000    137.58079   -6631.3228   -6277.4046   -6631.3228            0    9898.4107    23.338519    21.056222    21.249964    10442.679    9043.5383    9749.1951    10902.499    -977.7009    623.02093    325.15741   -4769.9186 
35404000    137.28348   -6643.4835   -6290.3301   -6643.4835            0    12177.706    23.054777    21.075889    21.376052    10386.622    11609.479     12912.64    12010.998    850.49296   -233.80441    513.85396   -4445.6729 
35405000    134.19856   -6665.5197   -6320.3021   -6665.5197            0    9849.0286    23.045158    21.266743    21.354586    10465.786    9376.6238    9099.0712    11071.391   -66.893575   -184.65813    -195.9087   -4817.0178 
35406000    126.92247   -6649.3562   -6322.8558   -6649.3562            0    11863.285    23.083057    21.184844    21.218022    10375.846    11696.523    11621.918    12271.413   -84.208386    995.09214    55.407787    -4527.691 
35407000    133.23211   -6652.7425    -6310.011   -6652.7425            0    10444.523    22.935454    21.189724    21.510058    10453.801    10909.313     9788.165     10636.09   -830.78642     407.0097    413.75423   -4717.6603 
35408000    140.39045   -6665.0644   -6303.9185   -6665.0644            0    12165.627    23.255786    20.996797    21.245726    10374.225    10650.088     13087.32    12759.472    370.80987    983.10897    415.09392   -4463.2904 
35409000    140.89827   -6665.4005   -6302.9483   -6665.4005            0    9826.0812    23.098913    21.106753    21.428557    10447.344    10015.989    10320.978     9141.276    68.389206    97.688441    519.29208   -4805.8092 
35410000    135.34499   -6649.3318   -6301.1651   -6649.3318            0     11904.46    22.974917    21.201742    21.352664    10401.059    12240.949    11833.199    11639.233    682.04506   -105.36359    346.59601   -4495.3921 
35411000    134.77744   -6670.7554   -6324.0487   -6670.7554            0    9731.1734    22.989115    21.332563    21.320421    10455.891      10159.7    9322.8296    9710.9902   -453.73967    105.09788   -713.61813   -4840.1571 
35412000    139.22133   -6653.5862   -6295.4478   -6653.5862            0    11520.616    23.071458    21.147532    21.328808    10406.419    10991.789    12045.229     11524.83   -796.15799    874.75155   -114.30604   -4546.9991 
35413000    138.58241   -6660.6366   -6304.1418   -6660.6366            0    10306.146    23.145039    21.123004    21.371408    10448.327    9572.0482    11286.763    10059.628   -907.77984    240.35195   -620.52186   -4733.7105 
35414000    135.09905   -6665.2242   -6317.6901   -6665.2242            0    9869.9742    23.205016    21.121977    21.327171    10453.211    9434.3323    9971.3667    10204.224    561.47493   -354.93558    202.65786   -4813.0189 
35415000    136.77139    -6650.678   -6298.8419    -6650.678            0    10647.923    23.052574    21.238107    21.324234    10440.196     11162.24    9658.0908    11123.438    474.09398   -1144.1493    257.16546   -4677.5939 
35416000     144.9683   -6656.3425   -6283.4204   -6656.3425            0    10673.169    22.849676    21.345689    21.400279    10437.816    11175.024    10305.078    10539.404    107.19484   -604.17337   -701.39234    -4658.699 
35417000    136.15267   -6651.4265    -6301.182   -6651.4265            0    11146.441    22.996008    21.265765    21.293724    10413.221     10555.51    10128.741    12755.072    325.50984    443.83309    753.45835    -4608.415 
35418000    140.03472   -6644.4318    -6284.201   -6644.4318            0    10416.615    23.205468     21.05181     21.38812    10448.463    10519.614    10571.063    10159.168    -1305.363   -29.622539   -1030.1375   -4696.9161 
35419000    137.95558   -6619.7052   -6264.8229   -6619.7052            0    11251.578    23.247676    21.039298    21.287367    10411.966    10286.468    11539.251    11929.014    131.70336   -573.40525    1780.5265   -4556.2951 
35420000    139.41149   -6660.9708   -6302.3433   -6660.9708            0    11206.946    23.114165    21.098045    21.362195    10417.567    11093.868    11749.725    10777.244    315.30681   -605.21111   -484.68342   -4599.6773 
35421000    132.95201   -6643.0555   -6301.0445   -6643.0555            0    10455.979    22.934319    21.323059    21.360151    10445.751    10819.535    10806.689    9741.7149   -34.532211    192.94187   -554.07533   -4708.1747 
35422000    135.99175    -6639.478   -6289.6475    -6639.478            0    11220.204    22.930436     21.28063    21.304239    10395.917    10831.942    11126.716    11701.956    859.58666    1183.6527    806.93056   -4588.5098 
35423000    139.52786   -6662.2259    -6303.299   -6662.2259            0    11177.784    23.054606    21.126012    21.366576    10406.631    11972.222    10292.211    11268.919   -533.23153   -220.04423   -570.12576   -4606.8463 
35424000    134.54405   -6659.6322   -6313.5259   -6659.6322            0    10602.015    23.092262    21.148309    21.350105    10426.586    10608.573    11625.223    9572.2502    95.508127   -1066.9623   -1257.8243   -4701.3722 
35425000    135.23536    -6644.675   -6296.7903    -6644.675            0     10612.96    23.147191    21.132694    21.342811    10440.103    10397.271    10607.072    10834.537     518.1214   -401.92688    537.27227   -4680.8802 
35426000    135.88349   -6663.0987   -6313.5467   -6663.0987            0    10215.877    22.969379    21.318089    21.325818     10442.47    11110.571    10010.417     9526.642    155.78653   -1241.8851   -423.97323   -4757.7431 
35427000    141.48423   -6635.7623   -6271.8027   -6635.7623            0    12014.496    22.998456    21.165192    21.350624    10392.774    11597.338    12814.841    11631.308    961.37042    927.86133    517.42443   -4450.7902 
35428000    138.31631   -6655.2311   -6299.4208   -6655.2311            0    9660.3705    23.243255     21.09916    21.376494    10483.314    7848.2123    11085.209    10047.691    388.68915   -448.03779   -647.25117   -4822.4624 
35429000    136.21677   -6644.0955   -6293.6861   -6644.0955            0    11208.809    23.020104     21.31469     21.21394    10408.967    10777.185    11481.444    11367.798    20.950451   -494.24556     -381.252   -4592.1429 
35430000    133.99587   -6643.4249   -6298.7287   -6643.4249            0    9775.5774    23.014581     21.28526    21.356162    10461.772    10806.118     9175.731    9344.8834    727.50171      747.005   -41.072717   -4807.2276 
35431000    133.31217   -6652.2318   -6309.2944   -6652.2318            0    9801.7967    23.127803    21.194064    21.361516     10470.82    8435.5644    10862.228    10107.597     225.6835   -157.91731    76.435297   -4812.4996 
35432000    138.20346   -6635.7704   -6280.2504   -6635.7704            0    11528.996    23.148497    20.987391    21.403086    10398.188    11004.323    12036.358    11546.308   -935.39487   -145.01954    1147.2477   -4531.9138 
35433000    132.36308    -6650.831    -6310.335    -6650.831            0    10730.819    23.217478    21.071354    21.296147    10418.579    10213.976    10330.171    11648.309   -532.74289    269.79455   -75.673527   -4679.8483 
35434000    136.77025   -6662.5582   -6310.7251   -6662.5582            0    10502.985    23.035632    21.242003    21.299057    10422.117    10298.301    9881.4098    11329.245   -808.77889   -170.97502   -9.5159557   -4714.3145 
35435000     139.7424   -6642.0067   -6282.5279   -6642.0067            0     11789.56    22.919193    21.252303    21.354308    10401.377    12180.423    12005.468    11182.789    875.32479     693.3526   -633.55431   -4494.1293 
35436000    133.16584   -6628.4403   -6285.8793   -6628.4403            0    11445.332    22.999611    21.319756    21.248786    10419.259    11756.232    10602.599    11977.165    137.58977    507.72582   -1423.6914   -4546.7129 
35437000    131.65208   -6656.5627   -6317.8958   -6656.5627            0    10668.529    23.095578    21.152845    21.338755    10424.775    10258.062    11430.122    10317.402   -524.72346   -736.05011    594.41268   -4695.9097 
35438000    139.08307   -6644.5735   -6286.7908   -6644.5735            0    10501.018    23.245675    21.038866    21.371271     10451.89    9109.9582    11115.199    11277.897    110.28764    -114.4014   -1200.1256   -4686.1195 
35439000    132.24434   -6663.0075    -6322.817   -6663.0075            0    11002.893    23.047196    21.139598    21.395415    10424.028    11690.518    10984.824    10333.336   -529.81501   -897.15794   -202.52853    -4650.116 
35440000    137.51939   -6620.0434   -6266.2831   -6620.0434            0    11197.034    23.006056    21.315155    21.241823    10416.515    11366.622    10637.232    11587.248   -513.45774    385.44745   -3.1618669   -4565.2948 
35441000    140.01633   -6652.9543   -6292.7708   -6652.9543            0    9168.0015    22.988794     21.26288    21.468045    10493.752    10444.776    8427.6044    8631.6241   -54.828938    796.80687   -274.15212   -4889.6943 
35442000    138.63705   -6651.3471   -6294.7117   -6651.3471            0    10995.726    23.069438    21.211247    21.318224    10431.679    10154.616    11767.842     11064.72    492.72943    17.132805    400.12496   -4621.8731 
35443000    133.53553   -6646.2329   -6302.7209   -6646.2329            0    11602.535    23.192388    20.955037    21.421751    10410.914    10881.747    12532.686    11393.174   -579.85507    530.20759   -443.21022   -4541.0789 
35444000    137.79359   -6647.3658   -6292.9002   -6647.3658            0    11235.962    23.258093    21.058305    21.256353    10410.852    9767.9621    11383.233    12556.693    397.97583     146.8641    671.28493   -4586.9261 
35445000    139.79316   -6649.2589   -6289.6495   -6649.2589            0    10746.917    22.999167    21.255494    21.329901    10427.306     10989.79    10267.396    10983.565   -307.86871   -427.67436    390.92499    -4655.349 
35446000    135.35368   -6655.9417   -6307.7526   -6655.9417            0    10710.394    22.926554    21.243136     21.44671    10445.232    11831.708    8744.1201    11555.353     316.9895   -987.05029    -664.6002   -4676.2063 
35447000    132.52477   -6634.0235   -6293.1116   -6634.0235            0    10713.966    23.027698    21.288627    21.279421     10431.77    9743.1349    10882.402    11516.361   -12.822517    1260.3748    753.46527   -4663.1246 
35448000    140.13855    -6643.411   -6282.9132    -6643.411            0    11008.972    23.079219    21.112099    21.355064    10405.271    10473.487    11998.537    10554.893    83.332479   -596.69695   -487.83863   -4612.2993 
35449000    142.18218   -6650.0049     -6284.25   -6650.0049            0    11615.098    23.221964    20.932865    21.396861    10401.062    10531.014     12411.76    11902.521    1172.9806    211.83283   -30.423002   -4522.3694 
35450000    134.95947   -6655.2194   -6308.0444   -6655.2194            0     10992.52    23.056635    21.246631    21.277127     10423.15    10899.082    10428.051    11650.427   -914.04006    95.386025    880.45259   -4637.0611 
35451000    139.74352   -6656.7746   -6297.2929   -6656.7746            0    10743.701    23.003272    21.178725     21.39364    10422.553    10727.607    11383.358    10120.138    594.57706   -108.04305    195.35491   -4664.2262 
35452000    139.81643   -6654.6265   -6294.9573   -6654.6265            0    11206.281    23.103918    21.174172    21.261643     10401.33     11788.32    10166.964     11663.56    563.93036   -961.54983   -906.74025   -4595.0458 
35453000    126.74535   -6647.0429   -6320.9982   -6647.0429            0    12149.164    23.026859    21.140854    21.351897    10394.263    11044.793    12830.212    12572.487   -214.63552   -411.85032    649.11025   -4479.3105 
35454000    137.23007   -6668.0939   -6315.0779   -6668.0939            0    9008.2283    23.175806    21.168102    21.365343    10481.577    7895.6056     8926.068    10203.011   -160.51855    307.59208   -26.813539   -4938.0526 
35455000    133.44394   -6654.7156   -6311.4392   -6654.7156            0    10949.843    22.940197    21.303867    21.314582    10416.754    11106.231    10020.294    11723.005    -452.1239   -111.82092     195.6557   -4647.9645 
35456000    136.54984   -6665.1043   -6313.8381   -6665.1043            0    11992.903    22.899677     21.26952    21.296095    10372.586    12692.527    11283.941     12002.24   -127.23095   -164.79895   -270.05487   -4499.6295 
35457000    136.65831   -6663.0882   -6311.5431   -6663.0882            0    11783.882    23.007918    21.170826     21.33058    10390.054    12656.395    11730.249    10965.003     64.33963    63.189131   -254.47749   -4525.9517 
35458000    134.28133   -6645.0356    -6299.605   -6645.0356            0    10928.051    23.067743    21.216837    21.338643    10443.655    11050.763    10925.455    10807.935    17.870494   -328.33498    71.674641   -4635.1536 
35459000    137.38494   -6641.4851   -6288.0707   -6641.4851            0    11164.236    23.309977    20.887964    21.416707    10427.751    10213.712     12683.26    10595.736   -510.06108   -240.01592   -634.39038   -4590.2354 
35460000    136.11271   -6650.0102   -6299.8686   -6650.0102            0    10887.538    23.079557    21.136315    21.368477    10423.902    10956.189    10640.231    11066.193   -369.08329    5.0760207    521.70453   -4644.7242 
35461000     136.6606   -6642.8666   -6291.3155   -6642.8666            0    10816.238    22.968726    21.289342    21.332769    10431.491    11017.109    10927.443    10504.163    989.81839   -854.11245    -429.2246   -4645.8131 
35462000    137.56192   -6657.6109   -6303.7412   -6657.6109            0    11075.264    22.893348    21.313018    21.331469    10408.186    11630.778    10725.665    10869.349    322.49452    383.63709     -4.28316   -4622.5969 
35463000    130.86294   -6643.2875   -6306.6505   -6643.2875            0    10622.654    22.976675    21.298967    21.301017     10424.28    11031.084    9552.1684    11284.709      -675.06   -625.05295    306.64803   -4691.7158 
35464000    142.67485   -6672.4551   -6305.4328   -6672.4551            0    10459.325    23.101504    21.085842     21.44917    10448.206    10053.083    10839.492      10485.4   -26.032578   -482.39053    133.76096   -4711.6789 
35465000    133.58789   -6667.8865   -6324.2398   -6667.8865            0    10247.032    23.225319     21.07969    21.333701    10444.607    9232.5076    10080.994    11427.595   -114.45912    158.74331    1132.4248   -4763.3721 
35466000    134.02925   -6647.1038   -6302.3217   -6647.1038            0    10489.091    23.097886    21.206638    21.295744    10431.262    10555.885    9815.1044    11096.284   -388.09459    -543.9563     582.7854    -4706.624 
35467000    132.73352   -6647.1176   -6305.6687   -6647.1176            0    9993.2074    22.960804    21.158876    21.511317    10450.731     11370.81    9600.6611    9008.1513    1201.4678   -194.19095    454.98881    -4782.572 
35468000    138.91172    -6643.498   -6286.1561    -6643.498            0    10532.068    23.048023    21.309407    21.228945    10426.378    10971.353    10888.817    9736.0326   -251.66216   -248.39696    -765.1652   -4684.6707 
35469000     137.0106   -6655.9505   -6303.4991   -6655.9505            0    10708.216    23.053331    21.139373    21.388734    10423.435    10254.557    11293.222    10576.867    14.132566    1172.6939   -34.941078   -4675.6885 
35470000    130.33328   -6656.6097   -6321.3353   -6656.6097            0    11259.437    23.041425    21.084381     21.44274    10417.187    11088.491     12415.35     10274.47    160.12007   -60.561182   -159.73523   -4610.7567 
35471000    139.98684   -6669.1183   -6309.0107   -6669.1183            0    10745.574    23.281402    21.143208    21.172203    10421.879    10448.798    10539.854    11248.069    239.55146   -280.49845    6.0186492    -4675.765 
35472000     138.9497   -6671.1186    -6313.679   -6671.1186            0    9901.0522    22.946573    21.239703      21.4068    10433.212    10214.701    9452.3531    10036.102   -498.38573    833.04324    497.44572   -4807.1577 
35473000    136.33954    -6655.153   -6304.4279    -6655.153            0     11343.67    22.910708    21.243021    21.377338    10404.193     12398.96    10487.977    11144.073    95.131672   -103.25173   -225.58156   -4583.2019 
35474000    142.07496   -6648.6733   -6283.1941   -6648.6733            0    10541.365    23.164406    21.263074    21.183787        10434    10424.098     10269.66    10930.337    759.02191   -801.88027   -740.04341   -4679.1232 
35475000    136.00236   -6665.9271   -6316.0693   -6665.9271            0    9312.7345    23.124321    21.174987    21.401861    10479.575      9419.36    9491.8149    9027.0285   -65.179841   -58.418216    525.33281   -4892.7682 
35476000    138.23641     -6655.69   -6300.0852     -6655.69            0    10946.633    23.117275    21.080105    21.387175    10422.282    10044.963    11875.396    10919.539     550.4964   -480.86523   -678.76177   -4636.2156 
35477000    140.55205   -6630.9036    -6269.342   -6630.9036            0    11518.112    22.991552    21.159764    21.385924    10404.162    11442.639    11920.548    11191.149   -285.02791    7.0185695   -33.406712   -4521.6524 
35478000    143.19342   -6644.7805   -6276.4242   -6644.7805            0    10658.146     22.91438    21.415222    21.280797    10442.839    11459.734    10122.786    10391.917   -76.073464   -88.909522   -529.49743   -4653.2089 
35479000    135.14214   -6638.9782   -6291.3333   -6638.9782            0    10793.873    22.995871    21.234961    21.354913    10427.955    11599.407    10021.853    10760.359    118.76508   -282.42003   -54.746801     -4649.79 
35480000    139.88283   -6634.8406   -6275.0005   -6634.8406            0    12476.995    23.035886    21.153543     21.32567    10391.798    11637.009    12463.118    13330.857   -147.10459   -468.29857    100.83262   -4384.0656 
35481000    138.73936   -6640.0144   -6283.1159   -6640.0144            0    10227.058    23.199931    21.039263    21.408389    10449.637    9417.9269    10401.818    10861.428    20.689488    415.33384     414.2961   -4724.5406 
35482000    140.12377   -6650.3474   -6289.8876   -6650.3474            0    11160.384    23.069248    21.197932    21.298031    10415.171    10889.847     11869.98    10721.324     48.84567    357.98889   -1161.1952   -4594.6858 
35483000    131.63735   -6644.4047   -6305.7757   -6644.4047            0    11298.698    22.938365    21.258398    21.335241    10403.765    11398.733    11292.512    11204.849    111.57972    290.58545   -470.82735   -4591.4441 
35484000    134.88807   -6645.1923    -6298.201   -6645.1923            0    11351.337    23.008838    21.211488    21.343653    10416.806    11160.851    11077.824    11815.335    745.55972    -782.6711    20.414129   -4573.7237 
35485000    132.01445   -6642.1643   -6302.5652   -6642.1643            0    10987.487    23.083945    21.251477    21.240695    10420.003    10554.435    10678.638    11729.389    866.05777    74.481874   -189.55676   -4632.8511 
35486000    139.22613   -6659.0967    -6300.946   -6659.0967            0    11933.879    23.036028    21.062689    21.436543    10401.026    11650.704     13297.44    10853.494    184.41806   -35.828533    28.776892   -4490.7162 
35487000    133.47933   -6650.9191   -6307.5517   -6650.9191            0    11992.481    23.080926    21.114691    21.308812    10384.777    12460.351    11167.528    12349.564   -684.59809    364.51515   -12.739682   -4491.2745 
35488000    142.75118   -6646.9559   -6279.7372   -6646.9559            0    10750.275    23.019882    21.334513    21.224618    10423.791    11164.505    10180.366    10905.953   -650.84411    261.86948    457.40747   -4645.4772 
35489000    133.54955   -6650.4094   -6306.8613   -6650.4094            0    10631.957    22.955848    21.241605    21.421036    10445.306    10874.697    10539.492    10481.683   -375.56674    526.15262   -1203.0023    -4687.252 
35490000    139.54195   -6651.3529   -6292.3898   -6651.3529            0    11115.698    23.163452    21.104224    21.315091    10419.811    9784.0464     11915.08    11647.966     -557.603    355.95604    -87.20754   -4603.2232 
35491000    132.09304   -6648.1841   -6308.3828   -6648.1841            0    9872.7227    23.299103    21.050806    21.309895    10451.755    8391.1416    10408.844    10818.183    -250.4108   -436.77373    131.55134   -4803.5022 
35492000    139.85189   -6664.4763   -6304.7159   -6664.4763            0    10694.267    23.102133    21.054887    21.410292     10414.24    10115.976      11073.7    10893.124     885.0822   -388.55979    615.05699   -4680.4598 
35493000    140.01763   -6655.7446   -6295.5578   -6655.7446            0    10371.571    23.067174    21.265053    21.273742    10435.295    10309.652    9799.9164    11005.145   -44.633849    393.24773   -424.95495   -4717.1283 
35494000    137.00531   -6658.4245   -6305.9867   -6658.4245            0    9954.7821    22.781156    21.403378    21.465971    10466.672    10303.431    10215.802    9345.1137   -502.91393    1474.5017   -82.909801   -4786.4323 
35495000    142.33531   -6643.0091   -6276.8602   -6643.0091            0    11085.701    23.088227    21.132814    21.375997    10429.759     10166.62    12414.787    10675.694    -45.85425    183.01915   -336.31812   -4590.6437 
35496000    132.27254    -6650.523   -6310.2599    -6650.523            0    11127.364    23.223349    21.090587    21.318485    10441.667     10809.68    11680.151    10892.262    -578.3031   -77.390065   -120.72182   -4615.7737 
35497000     134.9096   -6646.7426   -6299.6958   -6646.7426            0    10098.321    23.242481    20.946451    21.469181    10452.217     8709.089     12006.07    9579.8036    1324.0427   -80.340002    2.4731334   -4760.3597 
35498000     134.7354   -6645.3992   -6298.8006   -6645.3992            0    10269.145    23.210692    21.197643    21.255562    10457.991     9393.154    9966.7856    11447.496   -274.14569     1143.847    1066.7199   -4732.5601 
35499000    138.10202   -6658.7507   -6303.4917   -6658.7507            0    11995.206    22.932508    21.264817    21.330602    10401.987    12235.674    11576.613    12173.332   -574.46156    1128.0217   -25.312905   -4483.7911 
35500000    149.05627   -6649.4864   -6266.0482   -6649.4864            0    11255.581    22.924353    21.250002    21.352116    10401.524    11436.233    10638.152    11692.359     551.6299    679.29384     1305.094   -4558.6266 
Loop time of 499.711 on 64 procs for 250000 steps with 1296 atoms

Performance: 86.450 ns/day, 0.278 hours/ns, 500.289 timesteps/s
99.2% CPU use with 64 MPI tasks x 1 OpenMP threads

MPI task timing breakdown:
Section |  min time  |  avg time  |  max time  |%varavg| %total
---------------------------------------------------------------
Pair    | 30.691     | 41.929     | 53.012     | 108.9 |  8.39
Bond    | 0.27896    | 0.28673    | 0.29392    |   0.7 |  0.06
Kspace  | 241.52     | 252.65     | 263.77     |  44.5 | 50.56
Neigh   | 1.8744     | 1.886      | 1.9022     |   0.5 |  0.38
Comm    | 89.8       | 91.435     | 92.993     |  10.1 | 18.30
Output  | 0.58227    | 0.58364    | 0.58516    |   0.0 |  0.12
Modify  | 96.846     | 100.43     | 103.81     |  25.4 | 20.10
Other   |            | 10.5       |            |       |  2.10

Nlocal:        20.2500 ave          26 max          13 min
Histogram: 2 5 3 14 3 4 12 9 3 9
Nghost:        2683.58 ave        2710 max        2665 min
Histogram: 5 5 8 12 11 12 6 2 2 1
Neighs:        6716.08 ave        8674 max        4392 min
Histogram: 2 6 11 5 3 6 10 9 4 8

Total # of neighbors = 429829
Ave neighs/atom = 331.65818
Ave special neighs/atom = 2.0000000
Neighbor list builds = 3496
Dangerous builds = 0

unfix		3
unfix		2
unfix		1

write_data	data.final.${pid}
write_data	data.final.0
System init for write_data ...
PPPM initialization ...
  extracting TIP4P info from pair style
  using 12-bit tables for long-range coulomb (../kspace.cpp:340)
  G vector (1/distance) = 0.37268369
  grid = 30 40 32
  stencil order = 5
  estimated absolute RMS force accuracy = 0.003466602
  estimated relative force accuracy = 1.0439569e-05
  using double precision FFTW3
  3d grid and FFT values/proc = 5168 640
Last active /omp style is kspace_style pppm/tip4p/omp
WARNING: Not all mixed pair coeffs generated from mixing. Use write_data with 'pair ij' option to store all pair coeffs. (../write_data.cpp:312)

write_restart   restart.lmp.${pid}
write_restart   restart.lmp.0
System init for write_restart ...
PPPM initialization ...
  extracting TIP4P info from pair style
  using 12-bit tables for long-range coulomb (../kspace.cpp:340)
  G vector (1/distance) = 0.37268369
  grid = 30 40 32
  stencil order = 5
  estimated absolute RMS force accuracy = 0.003466602
  estimated relative force accuracy = 1.0439569e-05
  using double precision FFTW3
  3d grid and FFT values/proc = 5168 640
Last active /omp style is kspace_style pppm/tip4p/omp
Total wall time: 0:08:19
