#include		in.partitions
include		in.temp
variable        temperature equal 173.27
variable	tempDamp equal 100.0
include		in.pressure
variable        pressure equal 8327.2
variable        pressureDamp equal 1000.0 # This is 1 ps
include		in.seed
variable        seed equal 745823

units		real
atom_style	full
read_restart	restart.lmp.${pid}
read_restart	restart.lmp.0
Reading restart file ...
  restart file = 30 Jul 2021, LAMMPS = 30 Jul 2021
  restoring atom style full from restart
  orthogonal box = (-0.00066070893 -0.058407847 -0.066335599) to (24.730662 24.788409 22.876336)
  2 by 4 by 2 MPI processor grid
  restoring pair style lj/cut/tip4p/long/omp from restart
  restoring bond style harmonic/omp from restart
  restoring angle style harmonic/omp from restart
  1920 atoms
  1280 bonds
  640 angles
Finding 1-2 1-3 1-4 neighbors ...
  special bond factors lj:    0        0        0       
  special bond factors coul:  0        0        0       
     2 = max # of 1-2 neighbors
     1 = max # of 1-3 neighbors
     1 = max # of 1-4 neighbors
     2 = max # of special neighbors
  special bonds CPU = 0.001 seconds
  read_restart CPU = 0.007 seconds
include 	in.setup
variable	out_freq equal 1000
variable	out_freq2 equal 10000
variable	out_freq3 equal 1000

timestep	2.0

neigh_modify    delay 7 every 1

include		in.tip4p
# This is TIP4P/Ice

# create groups ###
group ox type 2
640 atoms in group ox
group hy type 1
1280 atoms in group hy

# set charges - beside manually ###
set group ox charge -1.1794
Setting atom values ...
  640 settings made for charge
set group hy charge 0.5897
Setting atom values ...
  1280 settings made for charge

# ### TIP3P Potential Parameters ###
pair_style lj/cut/tip4p/long/omp 2 1 1 1 0.1577 8.5
pair_coeff 1 1*2 0.000 0.000
pair_coeff 2 2 0.21084 3.1668
bond_style  harmonic
bond_coeff  1 450 0.9572
angle_style harmonic
angle_coeff 1 55 104.52
kspace_style pppm/tip4p/omp 1.0e-5
pair_modify tail yes

thermo          ${out_freq}
thermo          1000
thermo_style    custom step temp pe etotal epair emol press lx ly lz vol pxx pyy pzz pxy pxz pyz enthalpy

restart 	${out_freq3} restart.lmp.${pid} restart2.lmp.${pid}
restart 	1000 restart.lmp.${pid} restart2.lmp.${pid}
restart 	1000 restart.lmp.0 restart2.lmp.${pid}
restart 	1000 restart.lmp.0 restart2.lmp.0


include         in.dump
dump            myDump all atom ${out_freq2} dump.water.${pid}
dump            myDump all atom 10000 dump.water.${pid}
dump            myDump all atom 10000 dump.water.0
dump            myDump2 all dcd ${out_freq2} dump.dcd
dump            myDump2 all dcd 10000 dump.dcd
dump_modify     myDump append yes
dump_modify     myDump2 append yes


variable natoms 	equal  "count(all)"                        # NUMBER ATOMS
variable H      	equal  "enthalpy/v_natoms"                 # ENTHALPY-per-atom
variable Vol      	equal  "vol/v_natoms"                 # volume-per-atom
fix AVG all 		ave/time ${out_freq} 1 ${out_freq} v_Vol v_H file vol_enthalpy.dat
fix AVG all 		ave/time 1000 1 ${out_freq} v_Vol v_H file vol_enthalpy.dat
fix AVG all 		ave/time 1000 1 1000 v_Vol v_H file vol_enthalpy.dat




fix 		1 all shake 1e-6 200 0 b 1 a 1
       0 = # of size 2 clusters
       0 = # of size 3 clusters
       0 = # of size 4 clusters
     640 = # of frozen angles
  find clusters CPU = 0.000 seconds
fix             2 all nph aniso ${pressure} ${pressure} ${pressureDamp}
fix             2 all nph aniso 8327.2 ${pressure} ${pressureDamp}
fix             2 all nph aniso 8327.2 8327.2 ${pressureDamp}
fix             2 all nph aniso 8327.2 8327.2 1000
fix             3 all temp/csvr ${temperature} ${temperature} ${tempDamp} ${seed}
fix             3 all temp/csvr 173.27 ${temperature} ${tempDamp} ${seed}
fix             3 all temp/csvr 173.27 173.27 ${tempDamp} ${seed}
fix             3 all temp/csvr 173.27 173.27 100 ${seed}
fix             3 all temp/csvr 173.27 173.27 100 745823


run             250000
PPPM initialization ...
  extracting TIP4P info from pair style
  using 12-bit tables for long-range coulomb (../kspace.cpp:340)
  G vector (1/distance) = 0.37485445
  grid = 30 30 30
  stencil order = 5
  estimated absolute RMS force accuracy = 0.0032224886
  estimated relative force accuracy = 9.7044286e-06
  using double precision FFTW3
  3d grid and FFT values/proc = 7920 1800
Last active /omp style is kspace_style pppm/tip4p/omp
Neighbor list info ...
  update every 1 steps, delay 7 steps, check yes
  max neighbors/atom: 2000, page size: 100000
  master list distance cutoff = 10.8154
  ghost atom cutoff = 10.8154
  binsize = 5.4077, bins = 5 5 5
  1 neighbor lists, perpetual/occasional/extra = 1 0 0
  (1) pair lj/cut/tip4p/long/omp, perpetual
      attributes: half, newton on, omp
      pair build: half/bin/newton/omp
      stencil: half/bin/3d
      bin: standard
Per MPI rank memory allocation (min/avg/max) = 12.56 | 12.56 | 12.56 Mbytes
Step Temp PotEng TotEng E_pair E_mol Press Lx Ly Lz Volume Pxx Pyy Pzz Pxy Pxz Pyz Enthalpy 
18000000    180.34507   -9475.5585   -8788.0008   -9475.5585            0    8209.2186    24.731322    24.846817    22.942671    14098.148    8738.5859    8467.9772    7421.0926    -322.9168    629.12183    143.66753   -7100.1278 
18001000    173.34961   -9484.7909   -8823.9031   -9484.7909            0    9026.0038     24.87843    24.754896     22.81582    14051.418    8560.3132    9287.7797    9229.9186   -441.03254   -216.08466    765.35297   -6974.2446 
18002000    168.10198   -9469.3204    -8828.439   -9469.3204            0    7146.7341    24.761184    24.944899    22.907485    14149.157    7761.7322    6316.4815    7361.9886    442.72735   -78.289074   -274.11107   -7353.7037 
18003000    175.40844   -9497.8858   -8829.1489   -9497.8858            0    7285.0323    24.872696    24.828008    22.880088    14129.358    6268.2819    8448.4023    7138.4128   -346.91548   -136.40442   -133.54479   -7327.9792 
18004000    165.49709   -9478.6199   -8847.6695   -9478.6199            0    7945.5039    24.724153    24.926558    22.913538    14121.339    8828.5631    7037.8654    7970.0832   -901.12869   -113.40725    -593.9854   -7211.3308 
18005000    171.17345   -9465.2589   -8812.6676   -9465.2589            0    8549.9729    24.896824    24.764091    22.863286    14096.296     7523.393    9431.7944    8694.7314   -256.24069   -729.64497      60.8248    -7054.964 
18006000     177.4642   -9468.6136   -8792.0391   -9468.6136            0    9098.0247    24.766792    24.950728    22.793433     14085.19    9319.2782    7476.5943    10498.202    165.47389    332.37196     152.2956   -6923.1406 
18007000     169.8997   -9483.7016   -8835.9664   -9483.7016            0    7650.2837    24.969353    24.755469    22.820645    14106.081    6588.7632    9052.0451    7310.0428    98.405351   -102.95031    266.42729   -7262.1292 
18008000    172.50268   -9494.2755   -8836.6166   -9494.2755            0    7600.8931    24.692157    24.977663    22.871537    14106.075    8452.5924    7046.5386    7303.5482   -732.01508   -742.34161   -215.45564   -7272.9409 
18009000    178.09819   -9473.2862   -8794.2947   -9473.2862            0    8212.7317    24.835079    24.788902    22.889122    14091.329    7808.5453    8736.4743    8093.1754   -488.06868     112.3034    432.82784    -7106.516 
18010000     175.7269   -9482.0146   -8812.0635   -9482.0146            0    8735.0411    24.690476    24.942987    22.853245    14074.268     9051.323    7623.8115    9529.9888    135.65444   -356.38548    -1143.935   -7019.1198 
18011000    170.85774    -9484.019   -8832.6314    -9484.019            0    7805.0427    24.930959    24.765422    22.862995    14116.201    6623.7299    8463.0525    8328.3457    448.72373   -1597.9629    -750.9839   -7225.8048 
18012000    176.48503   -9469.6878   -8796.8464   -9469.6878            0    7870.3983    24.772772    24.895113    22.911744    14130.153    7476.8355    8037.3896    8096.9699    520.03014   -57.692946    -22.04341   -7174.9636 
18013000    177.26028   -9485.7226   -8809.9256   -9485.7226            0    6873.7114    24.868727    24.777085    22.988887    14165.167    7019.6717    7196.2713    6405.1913   -168.07886    40.465422    349.10337   -7389.9238 
18014000    169.14536   -9508.2391   -8863.3799   -9508.2391            0    7699.8986    24.746671    24.880279    22.921801    14113.047    7843.7977    7751.8075    7504.0905   -696.75462    140.56783   -275.37251   -7278.5535 
18015000    174.06595    -9491.779   -8828.1603    -9491.779            0    7571.8927    24.802088    24.828588    22.915599    14111.445    8112.7261    7596.5611    7006.3909    47.420772   -463.26994   -226.15018   -7269.8575 
18016000    174.10724   -9482.2961   -8818.5199   -9482.2961            0    7356.2174    24.869459    24.974836    22.754436    14133.022    6757.0021     7015.925    8295.7251    22.005089     227.7597      322.259   -7302.2885 
18017000    173.71849   -9468.8762   -8806.5821   -9468.8762            0    8883.8647    24.905992    24.781257    22.773246    14055.688    8974.9862    8026.7687    9649.8393    4.4181819   -100.37245    180.22373   -6985.4983 
18018000    167.70927   -9486.1142     -8846.73   -9486.1142            0    8837.9587    24.784295    24.837635     22.82524    14050.836    8818.2008    8749.0395    8946.6358   -690.51861    -1477.276    -368.4334   -7035.6818 
18019000    166.36531   -9468.7283   -8834.4678   -9468.7283            0    9347.0774     24.76763    24.786846    22.909388    14064.335    8752.7646    10127.394    9161.0736    110.60968    716.10977    512.06227   -6917.2524 
18020000    168.30635   -9483.9258   -8842.2652   -9483.9258            0     8066.184    24.805626    24.784661    22.953607    14111.855    8467.8974    7854.9243    7875.7301     153.9709    217.40406   -453.50856   -7182.1886 
18021000    173.57532   -9498.3339   -8836.5856   -9498.3339            0    8067.6711    24.751399    24.813881    22.995399    14123.274    8473.7046    8203.5092    7525.7995    162.28553    932.75885    1166.0366   -7174.8595 
18022000    175.27618   -9486.8824   -8818.6496   -9486.8824            0    6752.7431    24.834258     24.82112    22.977885    14163.892    5879.7513     7619.356    6759.1221    480.45067    403.48456   -631.03118   -7423.7636 
18023000    169.77784   -9501.9757   -8854.7051   -9501.9757            0    7904.2645    24.774712    24.877854    22.844181     14079.82    8697.2036    7613.6383    7401.9516   -545.96097    109.88189    203.44444   -7231.6455 
18024000      182.209   -9468.1406   -8773.4768   -9468.1406            0    8832.2314    24.882109     24.84106    22.765051    14071.031    8466.4089    9133.1279    8897.1573   -348.52244    5.1142377    312.10184   -6961.0009 
18025000    172.41975   -9468.8873   -8811.5446   -9468.8873            0    8385.7988    24.871532    24.917116    22.732454    14087.912    9172.7391    6883.5141    9101.1431   -183.39373   -1232.5166    238.37442   -7088.6173 
18026000    176.87113   -9470.1022   -8795.7888   -9470.1022            0    8845.8989    24.805318    24.843586    22.831906    14070.232     8969.148    8489.0632    9079.4856   -19.939147   -620.77276    53.238014   -6980.6112 
18027000    173.04065   -9471.0732   -8811.3633   -9471.0732            0    9798.2616    24.791856    24.794293    22.795911    14012.568    10369.348    9356.4941    9668.9426   -23.534878     725.3513    299.40577   -6809.0011 
18028000    173.63885   -9491.0387   -8829.0482   -9491.0387            0    9238.0664    24.766765    24.807451    22.858409    14044.214     8486.045    9857.9392    9370.2151    172.30395   -62.503863    1334.8683   -6936.9033 
18029000    170.63662   -9490.4223   -8839.8776   -9490.4223            0    8697.5785    24.767711    24.789874    22.894155    14056.747    9178.8016    8387.2669    8526.6669   -252.54308    375.14647   -1211.4341   -7056.8459 
18030000     174.2578   -9470.4314   -8806.0812   -9470.4314            0    8019.8854    24.768994    24.852605    22.909835    14102.699    9107.5063    7345.3328    7606.8172   -585.38964    84.034832    449.49796   -7156.6041 
18031000    177.17043   -9468.6544   -8793.1999   -9468.6544            0    8838.6382     24.81092    24.759505    22.944964    14095.231    8690.9684    9485.2661      8339.68    64.404456   -197.46499    170.45835   -6976.2897 
18032000    175.90729   -9468.5714   -8797.9325   -9468.5714            0    8951.9283    24.802703    24.767802    22.918755    14079.185    8097.2625    9398.8089    9359.7136    170.78856    630.41759    1328.4329   -6959.8289 
18033000    172.34622   -9471.7647   -8814.7024   -9471.7647            0    7980.1586    24.814285    24.876985    22.865005    14114.673    7836.3646    7709.2669    8394.8444    667.43098    -316.6465   -618.38875   -7172.0025 
18034000    170.91657   -9507.8162   -8856.2042   -9507.8162            0    7246.0443    24.913262    24.900333    22.754003    14115.412    6800.8751    7498.9182    7438.3396   -233.29255    335.01198   -196.03805   -7364.5422 
18035000    171.26036   -9512.4584   -8859.5359   -9512.4584            0    8584.7393    24.801867    24.883062    22.800875    14071.478    9815.4551    7240.5178    8698.2451    442.46727   -766.17898    513.74747   -7097.7922 
18036000    174.83983   -9495.7339   -8829.1647   -9495.7339            0    8200.9734    24.825618    24.829657    22.861633    14092.176     7305.262     8521.211     8776.447   -32.728272    198.63169   -243.26323   -7143.7013 
18037000    175.84719   -9493.5019   -8823.0923   -9493.5019            0    8251.5416    24.804164    24.859162    22.867165    14100.139    8951.2927    6827.5846    8975.7474     227.7656    21.136435   -417.79528   -7126.2777 
18038000    173.47927   -9469.3106   -8807.9285   -9469.3106            0    7637.4688    24.808004    24.888498    22.865278    14117.799    8345.5175    7105.0349    7461.8541    153.98445    34.125849    818.17769   -7235.4225 
18039000    173.67907   -9499.1989    -8837.055   -9499.1989            0    8119.8944    24.812387    24.817455    22.908717    14106.736    7699.2629    8179.6472     8480.773    -551.0726   -821.91816    221.64926   -7166.5307 
18040000    176.45205   -9510.5825   -8837.8668   -9510.5825            0    8052.0702    24.757092    24.831524    22.948052     14107.46    9327.6917    7519.3348    7309.1842   -272.67106   -175.01762    411.59779   -7181.2111 
18041000    172.64681   -9518.7406   -8860.5322   -9518.7406            0    8665.2936    24.796465    24.770795    22.881279    14054.326    8096.1206    9113.9767    8785.7836   -293.15889    138.32632    299.07315   -7084.4249 
18042000    174.77706   -9491.8818    -8825.552   -9491.8818            0    8647.5916    24.720373    24.930594    22.816776    14061.832    10063.339    7238.3378    8641.0985    215.96849    -298.1838   -423.97367   -7052.1264 
18043000    175.19748   -9474.8727     -8806.94   -9474.8727            0    8144.2898    24.849917    24.846502    22.833019    14097.871     7406.468     8211.184    8815.2174   -577.76225   -832.27113    106.67252   -7132.4497 
18044000    171.25262   -9476.8759   -8823.9828   -9476.8759            0    7661.4546    24.885989    24.887166    22.806269    14124.874    7443.6937    7136.4113    8404.2589   -273.70955   -501.38123   -10.612756   -7245.7477 
18045000    165.07056   -9495.0355   -8865.7112   -9495.0355            0    7779.3679    24.778518     24.91584    22.833768    14097.057    8137.1757    7358.9922    7841.9358   -508.42669    18.672129   -637.90931   -7266.3423 
18046000     180.9353   -9471.0862   -8781.2783   -9471.0862            0    9344.0855    24.714147    24.744371    22.990894     14059.76    9401.3984    10434.073    8196.7846    198.04078    1093.7069    1125.4396      -6865.3 
18047000     171.2888   -9489.3284   -8836.2974   -9489.3284            0    8742.1689    24.744833    24.795226    22.931273    14069.568    9545.0262     8365.006    8316.4745   -104.86392   -345.52191    987.70033   -7042.4898 
18048000    170.01938   -9481.3509   -8833.1595   -9481.3509            0    8201.5205    24.833681    24.727714    22.961851    14100.417    6852.8445    9730.9041    8020.8128   -357.67663    558.81158     50.62193   -7146.5979 
18049000    173.94494   -9473.8469   -8810.6894   -9473.8469            0    8331.8108    24.766792    24.923333    22.811225    14080.708    9085.6148    7500.6681    8409.1496    155.85533    220.77342   -997.26565   -7099.7297 
18050000    180.56835   -9486.4123   -8798.0034   -9486.4123            0    8120.7375    24.954926    24.826405    22.729514    14081.868    7123.9582     7617.032    9621.2222    103.21487   -188.35781   -551.33883   -7130.2507 
18051000     172.9767   -9480.2469   -8820.7808   -9480.2469            0    8379.1661    24.825348    24.870817    22.809001    14082.886    8020.1775    8259.6154    8857.7055   -51.420306   -306.32306   -320.94667   -7099.8304 
18052000    171.83973   -9479.0467   -8823.9152   -9479.0467            0    8813.3999    24.802461    24.793919    22.892785    14077.923    8683.0421    7976.4475    9780.7102   -49.614821   -1181.0851    77.028769   -7014.4179 
18053000    172.78148   -9482.6957   -8823.9739   -9482.6957            0    9058.4826    24.699609    24.844615    22.945487    14080.551    8672.3324    9739.5687    8763.5466   -457.06219   -772.17164    955.51015    -6963.811 
18054000    174.89047   -9476.3388   -8809.5766   -9476.3388            0    9280.3728    24.898866    24.636155    22.913134    14055.198     8847.785    10304.367    8688.9667   -574.45152    -471.0844   -144.08109   -6907.2797 
18055000    181.30626   -9500.5828   -8809.3607   -9500.5828            0    7742.2273    24.718429    24.949503    22.869419    14103.858    7855.6542    8031.5809    7339.4469   -563.33539   -198.15202   -20.963805   -7216.8597 
18056000    175.11085   -9469.6555    -8802.053   -9469.6555            0     8273.236    24.927419    24.753601    22.818212    14079.827    6552.6753    10098.554    8168.4788    345.82289     114.8674   -192.36049   -7103.2281 
18057000    171.96126   -9480.8845   -8825.2898   -9480.8845            0     8833.898    24.756995    24.863299    22.877418    14081.979     8582.279    9729.1811     8190.234   -54.661873   -679.14891     1411.035   -7011.0613 
18058000    171.08598   -9490.5925   -8838.3348   -9490.5925            0    8369.5958     24.76544    24.816026    22.930291    14092.494    8700.3274    7750.9769    8657.4832   -276.52976    158.42645    843.89726   -7118.1772 
18059000    174.02032   -9493.5059   -8830.0611   -9493.5059            0    7386.8116     24.73903    24.818019    23.021904    14134.844    8192.2567    7882.2501    6085.9279    202.16465    277.64449   -638.20688   -7307.3275 
18060000    168.49196   -9495.7061   -8853.3379   -9495.7061            0    8419.8004     24.81587    24.749661    22.911242    14071.727    8308.2104     8536.325    8414.8659    -394.2005    421.85077    618.19697   -7125.4121 
18061000    171.27766   -9502.2013   -8849.2127   -9502.2013            0    8119.3936    24.696364    24.926657    22.905977    14100.869    8694.5934    7877.2034    7786.3839    167.51979    96.121591    593.72064   -7179.4861 
18062000    177.63451   -9500.4734   -8823.2497   -9500.4734            0    8317.9022    24.845048    24.793486    22.856244     14079.34    8000.0774    8535.4371     8418.192    765.41659   -141.93288    -510.4216   -7115.3121 
18063000     176.8146   -9466.5402   -8792.4424   -9466.5402            0    8311.3897     24.71806    24.899094     22.87128    14076.296    9098.3958    7053.0632    8782.7103    123.35472    139.38545   -465.69728   -7086.2109 
18064000    176.29506   -9498.2599   -8826.1427   -9498.2599            0    7934.0196    24.850417    24.859805    22.824609    14100.508    6233.5853    8896.7912    8671.6824    1060.1171    -998.0392   -1013.1264   -7194.5795 
18065000    169.22489   -9507.1335    -8861.971   -9507.1335            0    8463.8089     24.81039    24.858547    22.827516    14078.876    8037.3423      8781.41    8572.6743   -268.27982    286.97046   -447.88813   -7124.1313 
18066000    180.05903   -9472.4435   -8785.9764   -9472.4435            0    8491.6303    24.761969    24.802124    22.943375     14090.66    8577.6356    8864.5619    8032.6935   -136.00013    982.86463    -165.3369   -7040.9648 
18067000    164.84643   -9487.4725   -8859.0027   -9487.4725            0    9065.0742    24.651858    24.919772    22.905696    14071.397    10509.324    7591.2625    9094.6359    620.42605    218.16689    788.57425   -6998.6964 
18068000    170.56674   -9508.1143   -8857.8361   -9508.1143            0    7384.1681    24.880495    24.821898      22.8938    14138.779    6566.4559    8068.3733    7517.6749    490.68538   -1047.8856    104.20808   -7335.2237 
18069000    168.08136   -9489.4873   -8848.6845   -9489.4873            0    7386.1567    24.777421    24.951169    22.843594    14122.495    7758.9673    6930.7947    7468.7082    142.14837   -85.907598   -160.87617   -7327.4161 
18070000    168.86253   -9489.9921   -8846.2111   -9489.9921            0    7993.7994    24.853266    24.870026    22.833882    14113.653    7597.0063     7501.013     8883.379   -4.6222518   -872.26044    300.56782   -7200.8221 
18071000    167.58552   -9464.2122   -8825.2998   -9464.2122            0    8959.2284    24.804268    24.855175    22.863723    14095.815    8743.2515    8402.9372    9731.4965   -70.977712    205.38759    912.19898   -6983.5243 
18072000    174.23307   -9470.3764   -8806.1204   -9470.3764            0    8026.5479    24.800139    24.869806     22.88113    14112.501    8437.2984    7617.9242    8024.4212   -591.15908   -488.16401    337.91541   -7154.1256 
18073000    166.98616   -9515.2106   -8878.5832   -9515.2106            0    7309.8036    24.898705    24.850984    22.820431    14120.309    6786.0462    8150.3057     6993.059   -686.42751   -179.04478    500.37674   -7373.2737 
18074000    175.66494   -9474.4661   -8804.7512   -9474.4661            0    8303.8271    24.787999    24.884767     22.85057    14095.227    8523.8881    8014.4833      8373.11   -74.737592    3.7812197    1430.7254   -7097.7797 
18075000    182.42869   -9492.8824   -8797.3811   -9492.8824            0    7921.4222    24.821495    24.755808    22.952756    14103.922    7550.2309    7913.8711    8300.1645   -182.29439    1196.9681   -115.49849    -7168.014 
18076000    171.99409   -9481.0634   -8825.3435   -9481.0634            0    8646.2285    24.705348    24.812126    22.969234    14079.962     9353.352    8989.9951    7595.3384   -769.75841    488.34799    474.66187   -7049.9114 
18077000    174.06968   -9515.2471   -8851.6142   -9515.2471            0     7755.634    24.841738    24.781332    22.863948    14075.306    6472.4943    7966.5663    8827.8414    -19.39742   -185.83062   -190.88002   -7259.5849 
18078000    175.52121   -9463.1501   -8793.9832   -9463.1501            0    8343.8559    24.683481    24.927522      22.8839    14080.418    9065.3946    7635.0596    8331.1134    871.30481   -478.72249    28.567542   -7080.5853 
18079000    174.66509   -9499.8861   -8833.9832   -9499.8861            0    7906.7536     24.90893    24.791886    22.829755    14098.272    6342.6688    8891.3705    8486.2214   -511.14409   -523.28956    70.519832   -7208.2847 
18080000    174.57727   -9485.9277   -8820.3595   -9485.9277            0    8766.9619    24.733934     24.89306    22.840586    14063.025    8565.2875    8334.3484    9401.2497   -904.22181    -555.0974    1498.7907   -7022.3013 
18081000    181.00998   -9481.3951   -8791.3025   -9481.3951            0     9346.259     24.87759    24.758475     22.80082    14043.737    8981.7496    9086.5259    9970.5015    -261.7017    151.00451    820.99719   -6877.0626 
18082000    171.17304    -9480.019   -8827.4293    -9480.019            0    8347.8703     24.80139    24.845711    22.823781      14064.2    8929.4231    7910.1713    8204.0165    40.878787   -669.47237    173.68472   -7115.1815 
18083000    167.15306   -9501.1392   -8863.8755   -9501.1392            0    9316.6961    24.930355    24.820277    22.701149    14046.979      8266.88    8982.5542    10700.654   -152.94354    1455.4194   -368.28989   -6955.2499 
18084000    178.05324   -9472.1812   -8793.3611   -9472.1812            0    8299.9113    24.746015     24.93124    22.856543    14101.318     8631.283    7501.9916    8766.4592    448.74442   -87.411437    393.54581   -7086.4573 
18085000    169.05051   -9483.5732   -8839.0755   -9483.5732            0    7444.7772    24.882647    24.806698    22.905061    14138.293    6589.6322    8051.8257    7692.8738     80.99314    162.16397    863.03976   -7304.0182 
18086000    168.38892   -9460.4192   -8818.4438   -9460.4192            0    8131.4578    24.693726    24.915785    22.943751    14116.454    9594.4154    6597.3606    8202.5974   -402.79671    420.17065    851.68919   -7144.3881 
18087000    173.97122   -9487.2881   -8824.0305   -9487.2881            0    8117.6964    24.884497    24.759288    22.877262    14095.194    8508.4912    7982.3131    7862.2848   -132.15764   -805.36013    678.11987   -7155.3247 
18088000    176.86844   -9470.9491   -8796.6459   -9470.9491            0    8441.6763    24.607971    24.967498    22.951194    14101.202    10585.517    7566.8245    7172.6868   -371.42603    201.20624   -1052.8973    -7060.602 
18089000    170.33209   -9516.3275   -8866.9439   -9516.3275            0    7395.9255    24.889684      24.7889    22.868504     14109.59    6544.9917    9222.0536    6420.7312    42.716732    145.03452   -174.87074   -7345.0554 
18090000    175.33374   -9488.9782   -8820.5261   -9488.9782            0    7149.4922    24.760415    24.952162    22.905637    14151.695    8497.4677    5118.2585    7832.7504    553.60636   -225.97903   -385.15891    -7344.957 
18091000    169.15248   -9497.0941   -8852.2077   -9497.0941            0    8230.5137    24.801431    24.804761    22.932138    14107.704    8031.0001     8578.236    8082.3049   -686.40976    5.3186111    -422.8487   -7158.8092 
18092000    173.48347   -9481.9611    -8820.563   -9481.9611            0    8121.7453    24.704928    24.878155     22.94917    14104.859    10020.584     7003.976    7340.6757    712.31767   -79.041997    677.72015   -7149.8802 
18093000    177.29675   -9489.5753   -8813.6392   -9489.5753            0    8221.5117     24.85419    24.786227    22.840281    14070.563    8023.5707     8284.541    8356.4235   -238.24921   -490.55995    392.37247   -7126.5462 
18094000    168.98595   -9461.5947   -8817.3432   -9461.5947            0    9304.8399     24.81928    24.919059    22.705188    14042.548    9250.2969    8510.0822    10154.141   -642.85396    41.100012   -157.44775   -6911.7476 
18095000    159.43682    -9478.418   -8870.5721    -9478.418            0    7152.7914    24.890503    24.874501    22.810879    14123.101    7190.6337    7527.0637    6740.6769   -129.93488    1129.2407    234.16652   -7397.3049 
18096000    171.45011   -9474.6268   -8820.9807   -9474.6268            0    8541.2492    24.816706    24.916744    22.778636    14085.204    8272.1626    8316.4825    9035.1025   -526.78301    23.414825   -460.41057   -7066.4523 
18097000    170.98412   -9461.4546   -8809.5851   -9461.4546            0    8639.4889    24.932821    24.836035    22.728137    14073.999    8525.5629    8634.2576    8758.6463    16.671209   -440.29414    378.70713   -7036.2882 
18098000    171.27364   -9517.3079   -8864.3347   -9517.3079            0    8796.1229    24.788805    24.909969    22.752959    14049.688    9725.4195    7766.1481     8896.801    439.92481   -168.62343    287.48053   -7062.0066 
18099000     173.0542   -9460.1288   -8800.3673   -9460.1288            0    9518.5369    24.728367    24.828979    22.895124    14057.151    9582.8591    9066.8464    9905.9052   -1010.4954   -110.97608   -43.646411   -6848.9804 
18100000    169.10779   -9493.9961     -8849.28   -9493.9961            0    8511.8751    24.842359    24.749521    22.898034    14078.546    8633.7235    8645.6652    8256.2367    72.395117    380.80566   -353.30484    -7101.612 
18101000      179.783   -9516.2673   -8830.8525   -9516.2673            0    9307.9123    24.618127    24.849413    22.914904    14018.101    10075.451    8573.7239    9274.5621   -262.64513    342.18915    6.2181734   -6927.9465 
18102000    175.70595    -9479.187   -8809.3158    -9479.187            0    8889.8989    24.849881    24.793516    22.855692    14081.755    9149.0444    8834.7065    8685.9458   -428.07597    495.84267   0.34499877   -6983.6154 
18103000    170.90898    -9476.343   -8824.7601    -9476.343            0    6836.0181    24.782181    24.993199    22.856281    14156.861    7681.9978    5240.9498    7585.1067    443.42538    315.92121    391.02666   -7413.3733 
18104000    176.06973   -9503.2434   -8831.9853   -9503.2434            0    7551.7215    24.839813    24.878984    22.849499    14120.746    6320.3434    7531.7888    8803.0324   -247.70225   -990.23909   -84.356812   -7276.8094 
18105000    177.54328   -9488.2836   -8811.4076   -9488.2836            0    8356.1256    24.806281    24.841024    22.868826    14092.077    8965.4598    7425.3452    8677.5717    260.50764    180.22722   -328.56896   -7094.0693 
18106000    169.25961   -9482.1825   -8836.8876   -9482.1825            0    9550.4964    24.715696    24.799963    22.892542    14031.945    9624.2774    9664.1488     9363.063   -128.96877    234.67891    556.70523   -6882.4594 
18107000    177.67262    -9496.027   -8818.6579    -9496.027            0    8728.3101     24.75305    24.739819    22.961592    14061.357    9097.5911    9270.6438    7816.6953   -57.279268   -183.98348   -191.05122   -7028.7392 
18108000    171.37407   -9477.5839   -8824.2278   -9477.5839            0    8976.4871    24.741382    24.847715    22.871159    14060.429    8941.4185    8930.7735    9057.2693   -574.81202    665.10027   -31.636352   -6983.5369 
18109000    168.14002   -9479.8744    -8838.848   -9479.8744            0    8302.9299    24.872341    24.804683    22.848016    14096.096    8063.4782    8749.2212    8096.0904    174.21208   -539.24884    812.21169   -7131.9557 
18110000    169.42969   -9483.4319   -8837.4887   -9483.4319            0    9228.3183    24.733706    25.016666    22.684053    14035.869    9829.0224    7842.4311    10013.501   -317.73832   -157.09743   -14.062136   -6948.4635 
18111000     171.5444   -9480.0799   -8826.0744   -9480.0799            0    8421.2635    24.849128    24.751851    22.899506    14084.614    7444.9392    9596.5458    8222.3056    299.20186   -5.2926547   -989.20422   -7096.2656 
18112000     177.1358   -9491.7647   -8816.4422   -9491.7647            0    8323.9543    24.671493    24.981557    22.885869    14105.301    9593.0103    6947.5702    8431.2825   -620.79444   -777.67429    422.86755   -7104.1104 
18113000    174.01022    -9481.414   -8818.0077    -9481.414            0    8610.6177    24.861335    24.754059    22.870254    14074.788     8492.511    8426.9552     8912.387    39.455949   -897.90843     185.3904   -7050.5376 
18114000    182.34504   -9474.7567   -8779.5742   -9474.7567            0    7992.0051     24.70135    24.956856    22.882305    14106.209    9443.5151    6658.0252    7874.4751    293.79879    -464.2866   -1121.3427   -7135.4222 
18115000    177.80324   -9459.4547   -8781.5876   -9459.4547            0    9541.7725    24.874796    24.786221    22.785835    14048.657    8675.7882     9872.974    10076.555   -475.00537   -258.23224   -36.754021   -6826.6192 
18116000    169.96335   -9476.9116   -8828.9338   -9476.9116            0    10354.068    24.794727    24.899211    22.678624    14001.082    9536.7988    9596.0846     11929.32   -306.05145     381.0203   -383.27819   -6714.7219 
18117000     171.4942   -9514.1327   -8860.3186   -9514.1327            0    8104.5493    24.811562    24.879285    22.815668    14083.973    8220.8866    7746.5603    8346.2008   -577.44135    39.276672   -177.02004   -7195.6418 
18118000    168.50153   -9504.4347     -8862.03   -9504.4347            0    7708.9434    24.751674     24.87918    22.885016    14092.624    7983.2695    7930.5833    7212.9773    181.30417   -14.324651   -37.660983   -7277.6382 
18119000     169.6077   -9474.0743   -8827.4524   -9474.0743            0    8710.6183    24.787939     24.75105    22.962926    14088.387    8324.4117    9476.1523     8331.291   -329.42752   -453.22822    278.98861    -7037.728 
18120000    172.27563    -9489.517   -8832.7238    -9489.517            0    8559.2134    24.733669    24.830651    22.928739    14081.756     9635.469    8228.2849    7813.8863    25.911508   -811.83724   -342.97618   -7074.9355 
18121000    167.97941    -9468.384   -8827.9699    -9468.384            0    9646.7199    24.818385    24.713427    22.877276    14031.717    8821.9327    10429.419     9688.808   -361.26938    132.35982   -91.392384   -6853.8825 
18122000    174.38474   -9468.0078   -8803.1737   -9468.0078            0    9266.8284    24.793346    24.855813    22.807146    14055.104    10105.035    8689.9896    9005.4609    111.82489   -1629.7306   -1192.0644    -6903.666 
18123000    173.59522   -9490.0985   -8828.2744   -9490.0985            0    10018.279    24.780499    24.864221    22.697824    13985.214     10380.66    9385.5311    10288.646   -125.67948    336.52208   -472.20809   -6784.9462 
18124000      177.161   -9473.6562   -8798.2377   -9473.6562            0    8989.3831    24.761105    24.836848    22.857934     14057.35    9558.7956    8608.9848    8800.3689     417.2913    193.89117    677.57664    -6955.306 
18125000    173.68106   -9456.2855   -8794.1341   -9456.2855            0    8841.6932    24.788041    24.761011      22.9352    14077.097    9452.1824    9460.3286    7612.5686    -36.50655   -912.27441   -1093.9405   -6978.9343 
18126000    173.26506   -9491.3899   -8830.8245   -9491.3899            0    8090.5203    24.789515    24.852872    22.885533    14099.563    7944.3993    8181.8788    8145.2828    95.918544    99.039646     619.1111   -7167.1897 
18127000    177.28974   -9487.3075   -8811.3982   -9487.3075            0    7847.8254    24.940388    24.811072    22.808245    14113.691     6617.167    8398.0766    8528.2326   -39.520501    488.00014    137.15507   -7196.0511 
18128000    175.94702   -9502.3511   -8831.5608   -9502.3511            0    8661.9923    24.780871    24.913859    22.782676     14065.73    8838.7244    8088.0241    9059.2284    130.07418   -915.14825    203.65542   -7054.6895 
18129000    174.76095   -9477.9867   -8811.7182   -9477.9867            0    8653.5479    24.953262    24.885392     22.65332    14067.071    8406.3695     7855.117    9699.1572   -469.81207    512.17462   -1314.5425     -7036.41 
18130000    171.29185   -9506.1046   -8853.0619   -9506.1046            0    8430.2618    24.777156     24.82384    22.844358    14050.746    8591.1842    8792.5058    7907.0954    -141.0726   -170.03424    250.93785   -7125.5688 
18131000    168.31147   -9495.7757   -8854.0956   -9495.7757            0    8123.3114    24.755999    24.873648    22.866738    14080.697     8684.779    7630.8985    8054.2567    256.26855   -934.24607   -546.63663   -7185.9531 
18132000    172.30928   -9480.6259   -8823.7043   -9480.6259            0    8874.4198    24.777795    24.759698    22.947984    14078.375    8546.5295    8892.6823    9184.0476    6.1573752    408.51394     768.2894   -7001.6204 
18133000    176.90207   -9501.2908   -8826.8594   -9501.2908            0    8626.3708    24.693984    24.829239    22.942903    14067.047     9369.813    8782.2609    7727.0384    484.92662    351.22854     787.6777   -7057.1297 
18134000    170.82166   -9501.8118   -8850.5617   -9501.8118            0    9147.0472    24.793601    24.794952    22.807267    14020.908    9271.8969    9281.7744    8887.4702    712.49043   -188.02746    406.36268   -6980.1684 
18135000    172.06296   -9519.2844   -8863.3019   -9519.2844            0    7870.1554     24.73365    24.892503    22.870319    14080.854    8458.0579    7799.4847    7352.9235    -70.81795   -12.493847   -35.342684   -7247.1277 
18136000    167.80354   -9462.7911   -8823.0475   -9462.7911            0    8489.5482    24.900515    24.825073    22.791856    14088.948    8325.3316    8571.9211    8571.3918    514.61092   -381.01424     31.12988   -7078.6758 
18137000    175.32901   -9504.7157   -8836.2816   -9504.7157            0     8122.227    24.765651    24.865411    22.874106    14086.059     8624.275    7655.2331    8087.1728   -470.12087   -593.53429    663.66205   -7167.7266 
18138000    174.67359     -9487.74   -8821.8046     -9487.74            0    8275.4714    24.898369     24.79404    22.821152    14088.208    8350.6084    8064.6696    8411.1361   -454.86077   -491.21204    728.62244   -7121.5092 
18139000    170.87446   -9504.1858   -8852.7344   -9504.1858            0    9441.2242    24.692874    24.908339    22.837443    14046.363    10944.712    8339.0336    9039.9273   -292.87339    68.409929    551.35749   -6918.6826 
18140000    175.07771   -9493.5054   -8826.0293   -9493.5054            0    8707.0969    24.853623    24.791345    22.858813    14084.566     7731.145    9406.4667    8983.6791   -158.11649   -590.03896    500.26159   -7037.5137 
18141000    171.19954   -9499.5168    -8846.826   -9499.5168            0    8268.9014    24.639432    24.921611    22.918757    14073.362    9294.7903    7106.5535    8405.3604   -544.14667   -855.85012    68.559358   -7149.6708 
18142000    171.30718   -9503.5157   -8850.4146   -9503.5157            0    8435.1561    24.826183    24.731877    22.915474    14070.057    7283.7697     10013.43    8008.2683   -817.63095   -580.43094   -191.37385   -7119.5429 
18143000    176.90416    -9508.148   -8833.7087    -9508.148            0    7210.0421    24.761478    24.851061     22.97643    14138.523    7435.0123    7634.0892    6561.0248   -277.78739   -372.95738    142.50931   -7347.0279 
18144000    173.71359   -9493.3054   -8831.0299   -9493.3054            0    8270.9525    24.815875    24.729547    22.951879    14085.232    7958.3415    9334.0376    7520.4784    28.838331    374.88425   -139.34066   -7132.0219 
18145000    181.30833   -9479.0221   -8787.7921   -9479.0221            0    8351.0942    24.812015    24.872236    22.827249    14087.387    7752.8206    8609.4935    8690.9686   -50.814938   -480.34654    765.27791   -7072.0591 
18146000    170.50352   -9476.9988   -8826.9616   -9476.9988            0      9567.45    24.789244     24.77631    22.855805    14037.715    10132.521    9571.7814    8998.0471   -8.4543878    819.27767    945.56411    -6868.259 
18147000    171.47892   -9484.4812   -8830.7253   -9484.4812            0    8529.8826    24.777379    24.843841    22.815337    14044.329    8580.2553    8415.7854    8593.6071    -245.8133   -376.96091   -186.47219   -7083.6166 
18148000    170.61749   -9510.4918   -8860.0201   -9510.4918            0    8525.2268    24.853859    24.787536    22.840879    14071.487    8901.8296    7715.8294    8958.0214   -262.76256    652.50679   -250.44635   -7110.4883 
18149000    175.53985    -9501.159    -8831.921    -9501.159            0    6543.2742    24.797503    24.937582    22.920654    14173.898    6702.5476    6830.1734    6097.1018    -66.68119   -676.94906    176.29185   -7479.3493 
18150000    172.02915   -9497.7364   -8841.8829   -9497.7364            0    7780.4185    24.933048    24.810241     22.79407    14100.296    6996.2444    9003.8507    7341.1604   -53.103896    757.62308    287.63813   -7241.9304 
18151000    171.51432    -9478.567   -8824.6762    -9478.567            0    8338.6866    24.775538    24.913057    22.848035    14102.593    7859.2666      7751.87    9404.9233   -101.59938    117.70105   -406.62661   -7109.6431 
18152000    170.90837   -9500.0732   -8848.4926   -9500.0732            0    7688.2925    24.921064    24.807474    22.815824    14105.396    7248.6707    7923.2165    7892.9903    109.38316    -48.16556   -497.66355    -7266.913 
18153000    176.89855   -9490.3054   -8815.8874   -9490.3054            0    8316.4866    24.790184    24.902325    22.840245    14100.042    8565.2211    8425.4932    7958.7454   -646.83171   -577.39758   -663.21969   -7105.7296 
18154000    170.53212   -9505.9478   -8855.8015   -9505.9478            0    6469.7163    24.976226    24.866501    22.809977    14166.623    5271.6071    7881.5877    6255.9542   -955.47736    367.42237    432.52404   -7519.1214 
18155000       168.11   -9478.8029   -8837.8909   -9478.8029            0    7521.6686    24.766477    24.875363    22.946354    14136.678     8123.574    7093.4511    7347.9808    243.17535   -134.54285   -205.27619   -7287.1565 
18156000     162.2491   -9512.1696   -8893.6021   -9512.1696            0    8242.5982    24.809455    24.662335    22.996908    14070.867    7740.5189    9207.8165    7779.4591   -6.9155168    20.083706    547.62857   -7202.1454 
18157000    170.02162   -9478.7704   -8830.5704   -9478.7704            0    9016.3496    24.708604    24.814467    22.926504    14056.947    9552.4537    9316.4605    8180.1345    -180.5697    364.11301   -417.95798   -6982.1633 
18158000    172.45179   -9478.5702   -8821.1053   -9478.5702            0    9580.0303    24.799691    24.816013    22.831104    14050.934    8918.4343    9358.8699    10462.787    140.83141    467.22883     123.1021   -6857.9803 
18159000    179.65132   -9490.6492   -8805.7364   -9490.6492            0    8379.8368    24.786398    24.917063    22.756823     14054.71     8982.721    7887.3108    8269.4786    406.54373   -680.62806   -755.49083   -7088.0917 
18160000    173.46403   -9492.3964   -8831.0724   -9492.3964            0    9008.6274     24.82685    24.770171    22.831668    14040.684     8754.263    9998.8917    8272.7274   -287.74672    455.94955   -1017.1282   -6986.3851 
18161000     167.2082    -9506.684     -8869.21    -9506.684            0     7434.845     24.66174    24.953464    22.922961    14106.695    9099.1224    6333.6786     6871.734   -496.73979   -441.06726   -244.00692   -7339.6269 
18162000    175.07853   -9502.9707   -8835.4914   -9502.9707            0    8246.4279    24.842628     24.77159    22.904766    14095.396    8325.5789    8912.1743    7501.5306   -264.39754   -126.87736    804.99189   -7140.2989 
18163000    177.37824   -9492.5235   -8816.2768   -9492.5235            0    8811.5714    24.784932    24.827959    22.844482    14057.564     9209.281    8221.4273    9004.0059   -509.46609   -1103.8737    475.04231   -7009.7711 
18164000    165.04985   -9473.8182   -8844.5728   -9473.8182            0    8833.7797     24.80355    24.739672    22.938185    14075.597    9542.1962    8645.8151    8313.3278   -27.698368   -456.79752    869.32193   -7031.1909 
18165000    174.49731   -9494.9542   -8829.6909   -9494.9542            0    8290.6422     24.79711    24.866841    22.855098    14093.043    7988.9212    8414.3121    8468.6934    97.020274    476.60107    282.24746   -7125.6939 
18166000    170.00406   -9451.0306   -8802.8976   -9451.0306            0    8002.4624    25.017434    24.762817     22.74879    14092.924     6321.236    9835.4529    7850.6984   -908.16269   -1269.4754   -190.19534   -7158.1447 
18167000    169.66833   -9520.9602   -8874.1071   -9520.9602            0    7057.0385    24.824546    24.946935    22.818937    14131.684    8427.7715    5986.0343    6757.3096    74.699872    221.89868   -87.641822   -7419.6789 
18168000    178.61839   -9472.7667   -8791.7919   -9472.7667            0    8233.0879     24.91685     24.80009    22.819628    14101.164    7668.5472    8361.5386    8669.1779    317.79195    -273.1832    719.05926    -7098.649 
18169000    172.85054   -9487.2074   -8828.2223   -9487.2074            0    8065.2566    24.798216     24.89349    22.845416    14102.798    8599.9268      7484.92    8110.9232    928.46391    30.492831    286.72618   -7169.4019 
18170000     172.1325   -9491.4352   -8835.1876   -9491.4352            0    8072.5082    24.848079    24.801333    22.859957    14087.803    7150.7148    8983.7632    8083.0466   -603.73404   -425.15283    532.15248   -7176.6411 
18171000    177.34284   -9504.5253   -8828.4136   -9504.5253            0    8760.5025    24.687818     24.80128    22.951641    14053.049     9265.942     9288.045    7727.5205   -602.59129   -719.81192   -822.93196   -7032.9547 
18172000    170.47174   -9485.2623   -8835.3463   -9485.2623            0    8728.8227    24.804699    24.753472     22.92338    14075.011    8807.8585    9265.8026    8112.8071     92.38682   -291.19902   -65.035934   -7043.5844 
18173000    167.42939   -9462.1401   -8823.8229   -9462.1401            0    8954.0301    24.654617    24.890171    22.906276    14056.611    10449.992    8509.2095    7902.8883     475.5488    555.78567   -783.68046   -6988.2355 
18174000    171.65189   -9492.6682   -8838.2529   -9492.6682            0    8889.8376    24.867238    24.764778    22.805839    14044.556    8347.9068    9573.1598    8748.4463    245.19731   -567.68294   -584.52221   -7017.3879 
18175000    168.17058   -9467.5429      -8826.4   -9467.5429            0    9344.6725    24.747793    24.953716     22.72554    14034.143    10064.234    8580.9163    9388.8672    59.369356   -1134.7753   -562.05566   -6913.7923 
18176000    169.38538   -9490.4974   -8844.7231   -9490.4974            0    8288.9758    24.972861    24.800675    22.767394    14100.845    7208.3148    7881.9442    9776.6683    -40.65074   -716.35607    666.04588   -7140.1254 
18177000    171.82803   -9477.1135   -8822.0267   -9477.1135            0    7960.9844    24.763619    24.880748    22.893392    14105.474    8781.7784    7795.2049      7305.97    501.89185   -1207.1082    -195.2167   -7184.3418 
18178000     174.9797   -9499.2202   -8832.1178   -9499.2202            0    8011.6264    24.819938    24.775032    22.925274    14097.089    7864.9643    8283.8029    7886.1121    310.97054    1259.1011    402.43295   -7184.9948 
18179000    173.23743   -9490.2688   -8829.8087   -9490.2688            0    9494.4581    24.668289    24.842875    22.915426    14043.289    10850.475    8105.7233    9527.1757    -137.4167    1078.0008    248.18223   -6885.2776 
18180000    167.91174   -9485.2403   -8845.0842   -9485.2403            0    8517.3484    24.828952    24.802135    22.858741    14076.665    8513.0741    9094.2253    7944.7458    258.39614   -333.74604    193.20394   -7096.5261 
18181000    173.64353   -9491.2481   -8829.2397   -9491.2481            0    8653.2342    24.816372    24.913621    22.796234    14094.129     8357.693    7769.4118    9832.5979   -41.548155   -1073.2842    621.99062   -7050.5811 
18182000     170.6782   -9447.5955   -8796.8923   -9447.5955            0    9326.6308    24.868245    24.846546    22.732977    14046.479    8487.0851    9783.7473      9709.06    321.43253    63.657138    224.99882   -6886.2995 
18183000    179.32917   -9503.6988   -8820.0143   -9503.6988            0    9702.3695    24.784849    24.803011    22.762658    13993.091    10453.916    9013.9757    9639.2167    -565.9063    1324.0267   -355.30659   -6840.0043 
18184000    175.85889   -9498.9585   -8828.5042   -9498.9585            0    8447.4878    24.813809    24.851751    22.832641    14080.127    8613.6868    7724.3585    9004.4179    156.12969    411.46432    259.67598   -7093.8615 
18185000      180.912   -9483.7369   -8794.0179   -9483.7369            0     7726.181    24.857063    24.797192     22.89344    14111.181     6823.842     8636.389    7718.3118    497.41429   -110.86316   -135.47028   -7203.9922 
18186000    176.79756   -9474.0821   -8800.0492   -9474.0821            0    7885.3473    24.781899    24.890273    22.889477    14118.876    7945.7615    7864.7548    7845.5255   -496.51377   -651.28136   -1097.6046   -7176.3827 
18187000    166.19505   -9503.5408   -8869.9295   -9503.5408            0    7663.9201    24.860689    24.743573    22.941767     14112.45    6880.6853    9653.3672    6457.7078   -66.568896    49.453972   -76.873633   -7292.5751 
18188000    179.28603   -9482.8335   -8799.3134   -9482.8335            0    8580.0651    24.721193    24.907368     22.85595    14073.319    9648.3235    8231.1432    7860.7287   -839.44685   -1027.7402   -776.99622   -7038.2986 
18189000    170.57813   -9511.2126   -8860.8909   -9511.2126            0    8513.9433    24.880282    24.852471    22.748501    14066.228    7686.5679    8654.9409    9200.3211    908.82187   -494.97742   -614.37746   -7114.3277 
18190000    176.99475   -9471.8675   -8797.0829   -9471.8675            0    9074.1127    24.840531    24.876268    22.758799    14063.565    9534.1434    8519.7829    9168.4116    -308.4625   -194.61889   -742.49879   -6935.9581 
18191000    175.21689   -9487.1649   -8819.1582   -9487.1649            0    8903.3563    24.789027    24.833674    22.878178    14083.867    8843.1255    8288.3853     9578.558     -382.523   -155.83303    150.36411     -6990.42 
18192000     172.8276   -9477.5059   -8818.6082   -9477.5059            0    7555.9258    24.753756     24.88794    22.969476    14150.805    8315.8285    7833.5991    6518.3499    -379.1616   -590.09187    576.30573   -7259.2542 
18193000    172.69188   -9490.8173   -8832.4371   -9490.8173            0    8153.2629     24.81262    24.815356    22.900377    14100.541    7738.9928    8171.8269     8548.969    299.58753   -1265.4358    1118.3231   -7155.7844 
18194000    169.28975   -9483.4784   -8838.0686   -9483.4784            0    7381.7386    24.846428    24.941541    22.807548    14134.025    7184.8616    7017.3252    7943.0288   -277.23092    965.17419    1587.8004    -7316.469 
18195000    167.50006   -9467.0509   -8828.4643   -9467.0509            0    7740.4364     24.88243     24.76567    22.912148    14119.154    7759.3337    8498.7099    6963.2657   -535.08743   -419.48998    318.25792   -7234.6048 
18196000    175.38904   -9485.4344   -8816.7714   -9485.4344            0    7976.8096    24.697131    24.985901    22.843555    14096.303    8976.1963    7462.5882    7491.6443    313.29905   -594.44932    6.5247114   -7176.8979 
18197000    173.14027   -9490.8136   -8830.7239   -9490.8136            0    7421.8264    24.937069    24.812594    22.845068    14135.463      6193.65    7879.7553    8192.0738    354.33863   -575.36047   -609.42144   -7300.7052 
18198000    175.01815   -9480.7376   -8813.4886   -9480.7376            0    8828.9491    24.751488    24.894837    22.817156    14059.573    10077.957    7962.8806    8446.0097   -34.431983   -341.12611    207.02349   -7003.1616 
18199000    175.92322   -9476.2648   -8805.5652   -9476.2648            0    8643.7321    24.882107     24.84313    22.806953    14098.105    8322.1456    8405.2584    9203.7922   -659.40477   -82.139305   -656.95621   -7028.3586 
18200000    176.10346   -9501.4251   -8830.0385   -9501.4251            0    7241.4797    24.820255    24.958816    22.810766    14130.908    7306.6011    6582.6287    7835.2094   -625.12011    101.60149    334.28346   -7337.6796 
18201000    179.01117   -9489.3785   -8806.9063   -9489.3785            0    7642.8541    24.859617    24.853981    22.861141    14124.995    7467.7679    7767.0619    7693.7326   -158.44299   -402.27678   -853.41442   -7232.4894 
18202000    167.34556   -9477.2509   -8839.2533   -9477.2509            0    7887.1696    24.781814    24.848123     22.90676    14105.561    7878.6721    8177.2362    7605.6006     257.0103    86.264804    1264.0481   -7216.7432 
18203000    170.49071   -9506.2021   -8856.2137   -9506.2021            0    7736.0905    24.833946    24.789553    22.886309    14089.325    7854.7055    7689.4285    7664.1376   -373.63587   -812.76484   -987.97093   -7266.6146 
18204000    178.05914   -9489.9465   -8811.1039   -9489.9465            0    8551.0033    24.750022    24.834824    22.901091    14076.441    9030.1794    8463.1932    8159.6372    766.47733   -331.46692   -336.75703   -7055.6646 
18205000    172.30525     -9499.79   -8842.8838     -9499.79            0    9208.1783    24.715231     24.73719    22.951476    14032.197    9145.1577    10309.628    8169.7492    337.84986    482.49495   -555.85922   -6958.4744 
18206000     167.3571   -9517.4547   -8879.4131   -9517.4547            0    8373.2692    24.864589    24.753035    22.828424    14050.302    8341.0918    8679.3191    8099.3966   -280.08189   -661.68016   -396.82337   -7163.6528 
18207000     173.0195   -9481.9817   -8822.3525   -9481.9817            0    8577.6159    24.789405    24.882696    22.804524    14066.451    8518.4675    8306.7781     8907.602    224.28501    175.17877   -272.00015   -7062.6995 
18208000    171.35746   -9481.1663   -8827.8736   -9481.1663            0    7678.7533    24.845165    24.843164    22.873965    14118.555    7395.9425    8006.5717    7633.7456    41.659318   -764.28893    583.81165   -7246.7826 
18209000    178.68556   -9491.7451   -8810.5142   -9491.7451            0    6873.1636    24.796848     24.90654    22.936986    14165.967    7474.1653    6753.6684     6391.657   -40.259264    223.58366    268.98653   -7390.5454 
18210000    171.46034   -9479.1757   -8825.4907   -9479.1757            0    7734.2976     24.80448    24.847675    22.906424        14118    8390.5395    7345.3593    7466.9939   -525.69111   -38.498086   -62.263156   -7233.0255 
18211000    180.84487   -9503.4081    -8813.945   -9503.4081            0    7228.1758    24.824201    24.822671     22.92836    14128.524    8142.7497     6995.615    6546.1626   -213.16223   -44.886285    150.99222   -7324.5791 
18212000    171.96107   -9486.1766   -8830.5825   -9486.1766            0    9259.8745    24.676085    24.867696    22.897627     14050.84    9742.5142    9098.0428    8939.0664   -197.01836   -68.311858   -526.07396    -6933.076 
18213000    173.25027   -9494.7998   -8834.2907   -9494.7998            0    9079.6636    24.843022    24.791941    22.809444     14048.49    8233.8747    8851.8452    10153.271   -543.25567   -309.83091   -508.66224   -6974.0236 
18214000    175.70375   -9491.1822   -8821.3194   -9491.1822            0    7959.6148    24.860465    24.964489    22.726679    14104.831    7212.6013    7972.5881    8693.6551     332.6796   -137.25237   -114.54294   -7183.9908 
18215000    169.45708   -9488.4156   -8842.3679   -9488.4156            0    7486.2707    24.880847     24.93612    22.749665    14114.615    6973.3583    7483.1596    8002.2943    21.526402    365.26102    132.98756   -7301.3402 
18216000    175.99864   -9517.2876   -8846.3005   -9517.2876            0    7996.6484    24.754226    24.894478    22.849224    14080.687    8063.3447    7907.4962    8019.1043    159.77308   -259.80701    1440.9506   -7204.1698 
18217000    174.62476   -9480.0902    -8814.341   -9480.0902            0    8008.4799    24.859288    24.814132    22.856279    14099.162     7744.329    8043.1064    8238.0043    203.81991   -626.65311    1222.6117   -7167.6228 
18218000    173.53753   -9488.8814   -8827.2772   -9488.8814            0     8011.297    24.741236    24.839876    22.972956    14118.472    8971.1724    8042.5661    7020.1524   -706.40211    524.10096    1473.7192   -7177.7237 
18219000    169.18404   -9504.2586   -8859.2519   -9504.2586            0    7660.3163    24.802951    24.849332    22.877988    14100.545    7921.4046    7856.7611    7202.7833    66.417314   -1043.2443    271.38007   -7283.9692 
18220000    176.27999   -9501.6559   -8829.5962   -9501.6559            0    8383.5467    24.771707    24.874291    22.832941     14069.17    9291.7308    7279.6064    8579.3029    80.752683   -526.07782   -132.14358    -7109.423 
18221000    171.69624   -9482.2001   -8827.6157   -9482.2001            0    9017.3498    24.931266    24.720864      22.8269     14068.73    7863.3776    10215.305    8973.3666   -264.85385   -341.06303    216.61576   -6977.4539 
18222000    174.04748   -9507.9609   -8844.4126   -9507.9609            0    8417.2543    24.755961    24.917104      22.8081    14069.105    8620.0136    8374.6581    8257.0913   -15.982439   -684.91609   -165.69234   -7117.3312 
18223000    178.73244   -9516.1333   -8834.7237   -9516.1333            0    7510.9374    24.841527    24.807227    22.877779    14098.418    6386.1568    9587.2285    6559.4268    -311.7089    807.90119    580.45159   -7290.3926 
18224000    179.36702   -9477.4461   -8793.6172   -9477.4461            0    7451.1877     24.76566    24.846866    22.989496    14146.564    8134.3087    7661.1754    6558.0791   -409.54431    25.295145     735.9942   -7256.3394 
18225000     165.8158   -9478.7037   -8846.5383   -9478.7037            0    7641.4059    24.840803    24.807909     22.93053    14130.902    7461.1362    8213.5452    7249.5362   -291.04733   -444.16219    392.12945   -7271.7614 
18226000    174.09458   -9494.3228   -8830.5948   -9494.3228            0    8209.1178     24.75606    24.872202    22.877007    14086.236    9156.4276    7551.6287     7919.297   -844.27692   -1130.2032   -137.85488   -7144.1687 
18227000    180.66703   -9494.2113   -8805.4262   -9494.2113            0    9013.6245    24.878869    24.826154    22.764442    14060.381    7366.0373    9594.1363      10080.7   -668.35627   -307.07935    934.33023   -6957.1263 
18228000    170.71123   -9454.6305   -8803.8015   -9454.6305            0    9236.1815    24.771248     24.86503    22.808232    14048.453    8332.0991     9321.742    10054.703   -598.09284    153.23557    675.22693   -6911.4716 
18229000     174.9646   -9508.5411   -8841.4962   -9508.5411            0    8948.7733    24.816279    24.801587    22.817388    14043.717    8796.3442    9087.6996    8962.2761   -373.15618   -1280.7384    1347.7481   -7008.6693 
18230000    172.41611   -9475.3036   -8817.9748   -9475.3036            0    8280.9617    24.782079    24.830004    22.918864    14102.874    7870.8008    8839.2616    8132.8228   -277.99291    226.76785   -1009.5521   -7114.7801 
18231000    175.80735   -9477.2781   -8807.0203   -9477.2781            0    7728.3966    24.777221     24.80607    22.984569    14126.902    8146.7952    7698.2654    7340.1293    1.5070227   -515.21855    183.75441   -7214.7668 
18232000    174.16879   -9482.3748    -8818.364   -9482.3748            0    8185.0291    24.752364    24.810052    22.993224     14120.31    8608.0814    8086.3466    7860.6593   -191.50508    870.61682   -110.95021    -7132.819 
18233000     177.8881   -9482.9612   -8804.7707   -9482.9612            0    7836.7037    24.819341    24.855479     22.88114    14115.298    7883.5831    7574.1828    8052.3451   -424.64826    540.32268     721.0415   -7191.5292 
18234000    176.96346   -9491.1912   -8816.5258   -9491.1912            0    8458.9331    24.789741    24.895862    22.787194     14063.39    10123.591    7447.3389    7805.8691   -95.349964   -821.73654    1008.8592   -7081.5977 
18235000    170.62366   -9499.1697   -8848.6745   -9499.1697            0    8640.6504    24.848805    24.838695    22.789708    14066.079    8415.4527    8943.5746    8562.9238    -139.3037   -51.337721   -35.832527   -7076.1372 
18236000    175.63064   -9488.8542   -8819.2701   -9488.8542            0    8269.4078     24.81093    24.853939    22.839593    14084.019    8294.0415     8092.272    8421.9101   -226.80851   -321.89796    405.98983   -7120.7256 
18237000     172.7672   -9495.8483   -8837.1809   -9495.8483            0    8797.0221    24.759983    24.814438    22.894131     14066.27    9571.5931    8632.7254    8186.7478   -77.496011    945.92757     123.3682   -7032.5412 
18238000    179.05356   -9465.1888   -8782.5549   -9465.1888            0    8976.1587    24.782055    24.795718    22.890733      14066.1    8718.6574    9920.6924    8289.1262   -1040.9059   -1223.6109    820.73824   -6941.1889 
18239000     173.9992   -9484.7419   -8821.3776   -9484.7419            0    8290.9773     24.81783     24.83517    22.859694    14089.687    8028.7845    8229.4939    8614.6536   -250.29446   -1347.8702   -65.360113   -7117.7174 
18240000    172.03492   -9463.5024   -8807.6269   -9463.5024            0     7728.848    24.878603    24.972265    22.729812    14121.466    8181.5184    6235.2435     8769.782   -591.72039   -317.83335    413.22751   -7215.8931 
18241000    174.62133   -9481.5985   -8815.8623   -9481.5985            0    8237.5248    24.901009    24.866683     22.75017    14087.031    7603.9051     7265.694    9842.9753   -217.95248    273.67523   -491.21228   -7123.5049 
18242000    174.64535   -9473.5827    -8807.755   -9473.5827            0    8242.6332    24.771677    24.947062    22.811561    14097.101    8935.0718    7281.2963    8511.5315    298.50474    266.43214   -974.77873   -7113.1375 
18243000    172.80725   -9495.5648   -8836.7447   -9495.5648            0    7661.7999    24.883694     24.79516    22.885549    14120.273    7570.3909    8091.0701    7323.9385    181.22247   -408.89711    -145.0048   -7258.9526 
18244000    170.58113   -9504.4075   -8854.0744   -9504.4075            0    7033.2507    24.734792    24.934961    22.957707     14159.42    7437.3973    6023.7692    7638.5855   -603.32575    733.05573    716.56798   -7401.7038 
18245000    173.00349   -9480.3501   -8820.7819   -9480.3501            0     8765.224    24.864718    24.815026    22.811652    14075.214    7522.1639     9907.079    8866.4291   -453.09466    288.30212    705.26796    -7021.522 
18246000    171.27071   -9494.3261   -8841.3641   -9494.3261            0    8533.1624    24.843103    24.928561    22.725408    14073.909    8675.3368    7289.5259    9634.6246    65.382696    66.037564    692.39847   -7089.9024 
18247000    177.33596   -9465.0219   -8788.9364   -9465.0219            0    8337.4503    24.839163    24.912728    22.772229    14091.713    7397.6032    7774.6711    9840.0765   -213.19268    103.84251    354.31955   -7075.4804 
18248000    166.22368   -9484.1199   -8850.3995   -9484.1199            0    8718.6203    24.813084    24.800879    22.851468     14062.48    8405.8123     9582.178    8167.8706    103.05102   -147.35324   -354.06347   -7062.3251 
18249000    173.26717   -9532.1519   -8871.5784   -9532.1519            0    7758.5693    24.771938    24.865682    22.857419     14079.51    8217.6765    7508.1081    7549.9233    416.62209    709.94331   -221.66186   -7278.4709 
18250000    175.08149   -9478.7827   -8811.2922   -9478.7827            0    8831.5584     24.80894    24.796877    22.904578    14090.535    8042.8098    9175.0736    9276.7919    -329.7456    649.10329   -261.96577   -6996.4423 
Loop time of 577.577 on 64 procs for 250000 steps with 1920 atoms

Performance: 74.795 ns/day, 0.321 hours/ns, 432.843 timesteps/s
382.5% CPU use with 16 MPI tasks x 4 OpenMP threads

MPI task timing breakdown:
Section |  min time  |  avg time  |  max time  |%varavg| %total
---------------------------------------------------------------
Pair    | 74.278     | 77.892     | 85.222     |  30.6 | 13.49
Bond    | 1.5524     | 1.9582     | 2.8916     |  30.1 |  0.34
Kspace  | 280.67     | 293.28     | 299.9      |  28.5 | 50.78
Neigh   | 1.9412     | 2.1301     | 2.2929     |   7.4 |  0.37
Comm    | 74.918     | 81.744     | 87.496     |  42.8 | 14.15
Output  | 0.85815    | 0.85922    | 0.86081    |   0.1 |  0.15
Modify  | 82.99      | 96.359     | 102.45     |  56.5 | 16.68
Other   |            | 23.36      |            |       |  4.04

Nlocal:        120.000 ave         126 max         117 min
Histogram: 3 2 1 3 4 2 0 0 0 1
Nghost:        4175.00 ave        4205 max        4130 min
Histogram: 1 0 1 2 0 3 2 3 3 1
Neighs:        43141.6 ave       45275 max       41662 min
Histogram: 2 2 1 1 7 1 0 1 0 1

Total # of neighbors = 690265
Ave neighs/atom = 359.51302
Ave special neighs/atom = 2.0000000
Neighbor list builds = 4058
Dangerous builds = 0

unfix		3
unfix		2
unfix		1

write_data	data.final.${pid}
write_data	data.final.0
System init for write_data ...
PPPM initialization ...
  extracting TIP4P info from pair style
  using 12-bit tables for long-range coulomb (../kspace.cpp:340)
  G vector (1/distance) = 0.37485209
  grid = 30 30 30
  stencil order = 5
  estimated absolute RMS force accuracy = 0.0032237764
  estimated relative force accuracy = 9.7083068e-06
  using double precision FFTW3
  3d grid and FFT values/proc = 7920 1800
Last active /omp style is kspace_style pppm/tip4p/omp
WARNING: Not all mixed pair coeffs generated from mixing. Use write_data with 'pair ij' option to store all pair coeffs. (../write_data.cpp:312)

write_restart   restart.lmp.${pid}
write_restart   restart.lmp.0
System init for write_restart ...
PPPM initialization ...
  extracting TIP4P info from pair style
  using 12-bit tables for long-range coulomb (../kspace.cpp:340)
  G vector (1/distance) = 0.37485209
  grid = 30 30 30
  stencil order = 5
  estimated absolute RMS force accuracy = 0.0032237764
  estimated relative force accuracy = 9.7083068e-06
  using double precision FFTW3
  3d grid and FFT values/proc = 7920 1800
Last active /omp style is kspace_style pppm/tip4p/omp
Total wall time: 0:09:37
