LAMMPS (30 Jul 2021)
  using 1 OpenMP thread(s) per MPI task
package omp 0
using multi-threaded neighbor list subroutines
echo both

include		in.partitions
variable        pid world 0
include		in.temp
variable        temperature equal 247.05
variable	tempDamp equal 100.0
include		in.pressure
variable        pressure equal 3750.0
variable        pressureDamp equal 1000.0 # This is 1 ps
include		in.seed
variable        seed world 745823

units		real
atom_style	full
box tilt large
read_restart	restart.lmp.${pid}
read_restart	restart.lmp.0
Reading restart file ...
  restart file = 30 Jul 2021, LAMMPS = 30 Jul 2021
  restoring atom style full from restart
  triclinic box = (-10.691002 -9.3162465 0.00045928683) to (12.671002 12.306244 21.859540) with tilt (-9.0643927 1.7432807 2.8868165)
  4 by 4 by 4 MPI processor grid
  restoring pair style lj/cut/tip4p/long/omp from restart
  restoring bond style harmonic/omp from restart
  restoring angle style harmonic/omp from restart
  1296 atoms
  864 bonds
  432 angles
Finding 1-2 1-3 1-4 neighbors ...
  special bond factors lj:    0        0        0       
  special bond factors coul:  0        0        0       
     2 = max # of 1-2 neighbors
     1 = max # of 1-3 neighbors
     1 = max # of 1-4 neighbors
     2 = max # of special neighbors
  special bonds CPU = 0.257 seconds
  read_restart CPU = 0.465 seconds
include 	in.setup
variable	out_freq equal 1000
variable	out_freq2 equal 10000
variable	out_freq3 equal 1000

timestep	2.0

neigh_modify    delay 7 every 1

include		in.tip4p
# This is TIP4P/Ice

# create groups ###
group ox type 2
432 atoms in group ox
group hy type 1
864 atoms in group hy

# set charges - beside manually ###
set group ox charge -1.1794
Setting atom values ...
  432 settings made for charge
set group hy charge 0.5897
Setting atom values ...
  864 settings made for charge

# ### TIP3P Potential Parameters ###
pair_style lj/cut/tip4p/long/omp 2 1 1 1 0.1577 8.5
pair_coeff 1 1*2 0.000 0.000
pair_coeff 2 2 0.21084 3.1668
bond_style  harmonic
bond_coeff  1 450 0.9572
angle_style harmonic
angle_coeff 1 55 104.52
kspace_style pppm/tip4p/omp 1.0e-5
pair_modify tail yes

thermo          ${out_freq}
thermo          1000
thermo_style    custom step temp pe etotal epair emol press lx ly lz vol pxx pyy pzz pxy pxz pyz enthalpy

restart 	${out_freq3} restart.lmp.${pid} restart2.lmp.${pid}
restart 	1000 restart.lmp.${pid} restart2.lmp.${pid}
restart 	1000 restart.lmp.0 restart2.lmp.${pid}
restart 	1000 restart.lmp.0 restart2.lmp.0


include         in.dump
dump            myDump all atom ${out_freq2} dump.water.${pid}
dump            myDump all atom 10000 dump.water.${pid}
dump            myDump all atom 10000 dump.water.0
dump            myDump2 all dcd ${out_freq2} dump.dcd
dump            myDump2 all dcd 10000 dump.dcd
dump_modify     myDump append yes
dump_modify     myDump2 append yes


variable natoms 	equal  "count(all)"                        # NUMBER ATOMS
variable H      	equal  "enthalpy/v_natoms"                 # ENTHALPY-per-atom
variable Vol      	equal  "vol/v_natoms"                 # volume-per-atom
fix AVG all 		ave/time ${out_freq} 1 ${out_freq} v_Vol v_H file vol_enthalpy.dat
fix AVG all 		ave/time 1000 1 ${out_freq} v_Vol v_H file vol_enthalpy.dat
fix AVG all 		ave/time 1000 1 1000 v_Vol v_H file vol_enthalpy.dat


timer           timeout 10:00:00 every 1000
New timer settings: style=normal  mode=nosync  timeout=10:00:00

fix 		1 all shake 1e-6 200 0 b 1 a 1
       0 = # of size 2 clusters
       0 = # of size 3 clusters
       0 = # of size 4 clusters
     432 = # of frozen angles
  find clusters CPU = 0.398 seconds
fix             2 all nph tri ${pressure} ${pressure} ${pressureDamp}
fix             2 all nph tri 3750 ${pressure} ${pressureDamp}
fix             2 all nph tri 3750 3750 ${pressureDamp}
fix             2 all nph tri 3750 3750 1000
fix             3 all temp/csvr ${temperature} ${temperature} ${tempDamp} ${seed}
fix             3 all temp/csvr 247.05 ${temperature} ${tempDamp} ${seed}
fix             3 all temp/csvr 247.05 247.05 ${tempDamp} ${seed}
fix             3 all temp/csvr 247.05 247.05 100 ${seed}
fix             3 all temp/csvr 247.05 247.05 100 745823


run             250000
PPPM initialization ...
  extracting TIP4P info from pair style
  using 12-bit tables for long-range coulomb (../kspace.cpp:340)
  G vector (1/distance) = 0.36762759
  grid = 30 40 32
  stencil order = 5
  estimated absolute RMS force accuracy = 0.0044061961
  estimated relative force accuracy = 1.3269129e-05
  using double precision FFTW3
  3d grid and FFT values/proc = 5168 640
Last active /omp style is kspace_style pppm/tip4p/omp
Neighbor list info ...
  update every 1 steps, delay 7 steps, check yes
  max neighbors/atom: 2000, page size: 100000
  master list distance cutoff = 10.8154
  ghost atom cutoff = 10.8154
  binsize = 5.4077, bins = 7 5 5
  1 neighbor lists, perpetual/occasional/extra = 1 0 0
  (1) pair lj/cut/tip4p/long/omp, perpetual
      attributes: half, newton on, omp
      pair build: half/bin/newton/tri/omp
      stencil: half/bin/3d/tri
      bin: standard
Per MPI rank memory allocation (min/avg/max) = 9.433 | 9.439 | 9.444 Mbytes
Step Temp PotEng TotEng E_pair E_mol Press Lx Ly Lz Volume Pxx Pyy Pzz Pxy Pxz Pyz Enthalpy 
11250000    251.76758   -6294.2782   -5646.6214   -6294.2782            0    3141.9035    23.362004    21.622491     21.85908    11041.999    2519.0546    2935.5248    3971.1311    101.88588   -938.99561    662.09924   -5140.6612 
11251000    247.31958   -6329.2752   -5693.0606   -6329.2752            0    3518.2129    23.473675    21.427819    21.873031    11001.908     3491.604    3332.7748    3730.2598   -1095.5833    809.86489   -939.55254   -5128.5579 
11252000    251.84365   -6334.0246   -5686.1722   -6334.0246            0     4525.932    23.383967    21.473923     21.80643    10950.001    3924.8082    4375.1876    5277.8002   -838.54697    124.26519   -368.45682   -4963.4056 
11253000    249.54781   -6325.1855   -5683.2389   -6325.1855            0    4703.6954     23.26627     21.54928    21.874278    10967.137    5545.1641    4668.3928    3897.5292   -921.55603    649.46181    232.32112    -4930.909 
11254000     241.6974    -6352.355   -5730.6032    -6352.355            0    2273.7869    23.525558    21.417802    21.901679    11035.505    1297.2105    3905.0065    1619.1436    1267.8991    1088.5496   -352.21712   -5364.6564 
11255000    251.63963    -6344.587   -5697.2594    -6344.587            0    2954.9134    23.325428     21.67819    21.778451     11012.34    1987.3453    2894.1673    3983.2276    744.68449    1464.4624   -575.83097   -5222.6895 
11256000    253.79074   -6320.2578   -5667.3965   -6320.2578            0    3028.4301    23.619097    21.391443    21.884424     11057.03    3300.1991    2940.7685    2844.3226   -1033.1768    1368.2286   -640.02642   -5179.0457 
11257000    240.48408   -6329.3058   -5710.6752   -6329.3058            0    3988.0644    23.325255    21.502043    21.870247    10968.817    4725.8792    3875.9152    3362.3989     535.4352   -67.624858    -89.30195   -5072.7087 
11258000     259.0952   -6344.3086    -5677.802   -6344.3086            0    3713.8473    23.298404    21.471994    21.972307    10991.936    3876.0033    4219.2692    3046.2693   -544.50192    1446.7786     1217.665   -5082.4496 
11259000    263.50043   -6322.2258    -5644.387   -6322.2258            0    4550.0589    23.395881    21.412559    21.854254    10948.231    3975.2974    4952.5172    4722.3623   -813.18661    491.29272    389.44371   -4917.8849 
11260000      247.494   -6311.0343   -5674.3711   -6311.0343            0    4099.8473    23.420053    21.520547    21.854061    11014.716    4294.3882    3843.6566    4161.4971   -1106.6791    428.32012   -1.5169558   -5015.7784 
11261000    241.33707   -6315.5458   -5694.7209   -6315.5458            0    3865.9464    23.502648    21.391974    21.863201    10992.119    2768.5483    5376.6216    3452.6692    830.13304    705.38632   -157.05702   -5074.9758 
11262000    265.53768   -6330.9352   -5647.8557   -6330.9352            0    3564.1832    23.317392    21.647732    21.814954    11011.505    5107.3731     2032.133    3553.0435    373.46437    320.79998    500.81873   -5075.4782 
11263000    255.43505   -6317.7659   -5660.6748   -6317.7659            0    4892.7907    23.589712    21.350537    21.694764    10926.634    3616.5625    5511.1812    5550.6283    777.81157    442.28461   -312.79515   -4880.9902 
11264000    238.64488   -6331.3307   -5717.4313   -6331.3307            0    4098.3392    23.294367    21.560936    21.902444    11000.467    4594.3691    4885.4692    2815.1793   -1065.7441     1219.121   -1458.3824   -5059.9326 
11265000    240.45292    -6305.305   -5686.7545    -6305.305            0    4626.9986    23.491882    21.491075    21.789552    11000.799    3922.2684    4920.5722    5038.1552   -1120.0739    1099.8395   -392.91118   -4944.4203 
11266000    249.61312   -6335.4307   -5693.3161   -6335.4307            0     2931.929    23.393497    21.667927    21.827056    11063.886    3630.4682    2424.5454    2740.7735    1583.4191   -645.99679    599.67345   -5220.2335 
11267000    251.27713   -6335.7166   -5689.3215   -6335.7166            0    4210.3307    23.371191    21.412783    21.985743    11002.594     4745.277    5478.9458    2406.7694    1333.4115    -882.7548   -736.11259   -5013.7252 
11268000    245.68219   -6353.9109   -5721.9084   -6353.9109            0    3022.6119    23.602117    21.514032    21.725189    11031.545    3233.6505     2934.175    2900.0102    1081.9922   -1477.7954   -183.79489   -5235.6192 
11269000    253.27445   -6344.9636   -5693.4305   -6344.9636            0     4314.661    23.289739    21.801358     21.51765    10925.543    4571.6268    2761.9563    5610.3999   -502.31952   -985.64143   -705.38785   -5005.9418 
11270000    241.45648   -6328.4526   -5707.3205   -6328.4526            0    5518.4227    23.373118    21.368224    21.944052    10959.782    6257.2104    5767.9152    4530.1427   -12.717803   -2240.2748   -1055.0754   -4825.2714 
11271000    243.40824   -6352.4047   -5726.2519   -6352.4047            0    3812.2853    23.388401    21.575161     21.73529    10967.812    4566.5158    3014.2168    3856.1235    381.28495    -1213.274    423.61829   -5116.4605 
11272000    248.52306   -6326.0225   -5686.7121   -6326.0225            0    2939.8554    23.409458    21.671506    21.780554    11049.672    2815.4302    2184.7125    3819.4234    858.66533    226.05513   -525.57292   -5212.9599 
11273000    242.94197   -6334.2657   -5709.3123   -6334.2657            0    3444.6792    23.563862     21.38556    21.914994    11043.544    2083.8834    4691.1966    3558.9577    276.55052    404.00137   -1039.6937   -5154.5165 
11274000    258.77149   -6292.3498   -5626.6759   -6292.3498            0    3510.9494    23.386252    21.678499    21.749715    11026.645    4237.2641    2472.8516    3822.7325   -193.50947   -324.97114      137.538    -5062.072 
11275000    252.66269   -6300.0837   -5650.1243   -6300.0837            0    4876.9086    23.480578    21.371018    21.849779    10964.303    4217.0682    5806.3611    4607.2966    295.71065   -779.05996   -1615.1498   -4870.2914 
11276000    255.04167   -6318.7805   -5662.7013   -6318.7805            0    2938.8102    23.338121    21.546583    21.961006    11043.241     3536.163    3255.9698     2024.298   -483.64709   -94.536553   -532.41998   -5189.3932 
11277000    254.38215   -6328.6188   -5674.2362   -6328.6188            0    2864.5235    23.495833    21.761879    21.610329    11049.653     2002.629    2295.7705    4295.1709    307.55924   -438.67302    466.08132   -5212.6244 
11278000    241.13374   -6350.3561   -5730.0543   -6350.3561            0    2255.8782    23.477901    21.456331    21.919012    11041.694    2788.4171    2428.2821    1550.9355   -817.52787    562.33374   -421.89979   -5366.7862 
11279000    240.38919    -6332.846   -5714.4594    -6332.846            0    3783.3176    23.443297    21.512337    21.767769    10977.923      3788.83    4397.7916    3163.3313     1746.708   -30.366253   -17.987923   -5108.7437 
11280000    257.16639   -6305.5591   -5644.0142   -6305.5591            0    5055.9553    23.437588    21.586616    21.695182    10976.421    5796.0639    3999.9392    5371.8628    196.67295   -469.88104   -311.16537   -4834.6576 
11281000      254.597   -6312.1004   -5657.1651   -6312.1004            0    2711.4622    23.591001    21.397368    21.898931    11054.259    3922.3813    3107.7288    1104.2765    1051.3893   -628.61695    234.08669   -5220.0366 
11282000    247.42185   -6309.4741   -5672.9965   -6309.4741            0    2697.9489     23.31834    21.692543    21.895298    11075.388       2966.1    2174.2858    2953.4608    -64.83724    -138.1833   -894.11208   -5237.2152 
11283000    246.27417   -6331.0921   -5697.5669   -6331.0921            0    3275.3988    23.595801    21.396466    21.844137    11028.378    2123.8047    4545.4694    3156.9223   -448.97791   -688.77066    9.3858934   -5170.7596 
11284000    240.69503    -6332.851   -5713.6777    -6332.851            0    3357.5143    23.352188    21.728067    21.627681    10973.841     2677.841    3555.5127    3839.1893     566.7972    1023.4728   -6.9571722   -5176.3337 
11285000    246.08824   -6352.3818   -5719.3348   -6352.3818            0    4758.4223    23.374362    21.445337    21.836808     10946.16    5432.9127    3854.7635    4987.5907   -1878.8778   -1106.2892   -560.60568   -4959.7073 
11286000    248.97178   -6352.0377    -5711.573   -6352.0377            0    4826.2334    23.316509    21.482041    21.853637    10946.185    5844.6334    4128.4978     4505.569   -1258.9143     264.7317    157.63514   -4941.1185 
11287000    247.12902   -6315.5821   -5679.8577   -6315.5821            0    4713.5618     23.17496    21.617536    21.829068    10936.047    4721.2112    5935.9534    3483.5208   -185.79682    826.16313   -718.64339   -4928.0869 
11288000    245.72986   -6328.1576   -5696.0325   -6328.1576            0    3683.8552    23.469574    21.420764    21.855461    10987.532    3420.6698    3566.5815    4064.3143    413.25801   -1245.7748    1041.4159   -5105.7246 
11289000    242.28078   -6312.0913   -5688.8388   -6312.0913            0    2951.7951    23.341168    21.631016    21.924016    11069.286    3912.9163    2812.8592      2129.61    585.42703    765.54266    19.528707   -5212.3181 
11290000    248.76819   -6349.9743   -5710.0333   -6349.9743            0    3352.4358    23.474689    21.519667    21.786939    11006.053    3735.6409     3561.112    2760.5544    171.27912    -563.4276   -1070.0071   -5171.9271 
11291000    245.40894   -6349.1901   -5717.8906   -6349.1901            0    1590.4856    23.496676    21.486727    21.934612    11074.054    1831.5165     1486.969    1452.9713   -852.32846    887.96335   -678.84993   -5461.0212 
11292000     243.2205   -6331.9434   -5706.2734   -6331.9434            0    2319.7908    23.438052    21.596124    21.827713    11048.557    2158.5451     1665.966    3134.8614   -208.95859    674.53536    1010.9552   -5332.4812 
11293000    260.20703   -6350.7262   -5681.3595   -6350.7262            0    2885.3035    23.422425     21.47078    21.891405    11009.138    2412.9818    3952.0993    2290.8295   -514.53075    508.91647    1149.1158   -5218.1039 
11294000    239.28851   -6294.0129   -5678.4578   -6294.0129            0    5469.9723    23.360702    21.430555    21.787364    10907.469    6078.2088    4170.1061     6161.602   -753.35693   -810.95882    928.70616   -4808.3261 
11295000    229.50401   -6348.1005   -5757.7154   -6348.1005            0    3932.3802     23.21895    21.685701    21.783597    10968.459    4935.5987     2993.845    3867.6969   -119.63694   -420.78248   -586.55259   -5128.6772 
11296000    247.89842   -6315.0199   -5677.3163   -6315.0199            0    4010.4201    23.594149    21.379932    21.792299    10992.936    3105.9192    4588.9857    4336.3554   -729.75514    659.92966    633.07616    -5034.363 
11297000    249.50558   -6350.8746   -5709.0367   -6350.8746            0     4702.254    23.113634    21.711797    21.800745    10940.454    5352.3712    5059.3109    3695.0799     328.4273    1094.0584   -541.61613   -4958.7671 
11298000    260.33772   -6338.7411   -5669.0381   -6338.7411            0    3515.9984    23.491106     21.16187    22.112988    10992.714    3518.7004    4760.9506    2268.3442   -645.95701    548.76868    41.740993   -5105.3622 
11299000     253.6149   -6320.0193   -5667.6105   -6320.0193            0    3981.3723    23.423128    21.593473    21.758275    11005.046    4956.9209    2213.7614    4773.4347   -796.64568    1123.1403     579.6312   -5028.6109 
11300000    252.04237   -6337.5933   -5689.2297   -6337.5933            0    4460.0896    23.415591    21.520916    21.699284    10934.811    3647.1859     5409.376    4323.7069    408.66752     1345.602   -84.435956   -4977.9658 
11301000    253.93675   -6306.0131   -5652.7763   -6306.0131            0    4975.3977    23.432059    21.307786     21.91626    10942.467    4243.2347    7266.3259    3416.6326    -1386.769   -661.17543   -967.61595   -4858.7791 
11302000    241.32431   -6338.1673   -5717.3752   -6338.1673            0    4215.9642    23.242405    21.624614    21.777189     10945.39    4840.5117    3834.1448    3973.2362   -897.94317   -890.20554   -339.60616   -5044.3923 
11303000    249.08021   -6350.2183   -5709.4746   -6350.2183            0    3147.5386    23.614822    21.406963    21.796954    11018.832    2897.5371    3229.6977     3315.381    68.735155   -925.33078    384.46378   -5203.6703 
11304000    244.38807   -6303.1727   -5674.4992   -6303.1727            0    3407.3954    23.344925    21.710171    21.775149    11036.131    3705.8043    3234.3459     3282.036    1050.8413   -564.49376   -48.934596   -5126.0767 
11305000    251.28317   -6325.6746   -5679.2639   -6325.6746            0    2706.3003    23.452103    21.526408    21.816233    11013.697     2751.061    2797.4458    2570.3941     1093.902   -394.51896   -318.34295   -5244.5686 
11306000    259.86802   -6324.0692   -5655.5745   -6324.0692            0    2902.5409    23.547556    21.524713    21.827516    11063.372    2340.3456    3196.5415    3170.7358    34.508292   -664.75527      145.629   -5187.2556 
11307000    246.78449   -6320.4442   -5685.6062   -6320.4442            0    5199.4073    23.353634    21.608628    21.657113    10929.045     6971.234    4103.1478      4523.84    6.8586066   -1143.9726   -922.30169   -4856.8783 
11308000    245.22038     -6326.17   -5695.3555     -6326.17            0    3541.0631    23.590061    21.405795    21.785468    11000.877    2874.5033    4933.9519    2814.7341   -332.57632   -1087.8216   -823.39544   -5127.2397 
11309000    255.10511   -6337.2192   -5680.9769   -6337.2192            0     4011.988     23.21969    21.618586    21.884678    10985.602    4425.2897    4373.9723    3236.7019    207.41742   -213.09551    513.57433   -5038.2013 
11310000    239.98761   -6344.1113   -5726.7578   -6344.1113            0    2868.6153    23.539931    21.417987    21.857885    11020.263    2553.4931    3379.1173    2673.2355   -100.65904    399.68099    762.61478   -5265.7162 
11311000    250.38551   -6334.5295    -5690.428   -6334.5295            0    3264.3515     23.44287    21.587385    21.858651    11062.013    3575.4888    4002.3991    2215.1667    523.76452    920.04213    930.17434   -5163.7964 
11312000    249.48379   -6319.8817   -5678.0999   -6319.8817            0    2749.5961     23.31746    21.692943    21.859634    11057.135    2218.3216    2581.6746    3448.7922   -17.827188    952.59825   -1165.6702   -5234.7084 
11313000    245.97892   -6275.4428   -5642.6771   -6275.4428            0     3530.163    23.605064    21.390222    21.861541    11038.276    3747.2223    3510.2514    3333.0152   -442.89293    639.72497    205.48487   -5074.3846 
11314000    241.21565   -6316.8567   -5696.3442   -6316.8567            0    3754.4059    23.199092    21.715839    21.864285    11014.959    3549.0268    3613.2456    4100.9453    1335.6997    586.15412   -127.65891   -5093.2294 
11315000    237.29305   -6347.0275   -5736.6056   -6347.0275            0    4228.7638    23.475847    21.228826    22.044266    10986.084    3132.9346    5346.3965    4206.9605    366.21853    330.96031    750.61118   -5059.0699 
11316000    254.66196   -6316.8097   -5661.7073   -6316.8097            0    4230.4014    23.293897    21.673762    21.790131    11001.105    3814.0098    4269.8994    4607.2949   -49.677234    564.97579   -1576.3136   -4982.9825 
11317000     240.8595   -6349.4631   -5729.8667   -6349.4631            0    3151.9116    23.626025    21.527359    21.632226    11002.278      2009.76    2132.0639     5313.911   -365.38199   -643.45772    759.92703   -5224.1206 
11318000    242.86407   -6348.1465   -5723.3935   -6348.1465            0     3412.693    23.284475    21.527482    21.980569    11017.894    3860.8022    3508.6102    2868.6667    70.322284   -670.14754    917.50084    -5175.026 
11319000    240.87147   -6366.0851    -5746.458   -6366.0851            0    4354.8217     23.29063    21.447824    21.899742    10939.652     4374.311     4198.116     4492.038   -340.60623     113.7758    590.72057    -5051.674 
11320000    252.42241    -6351.095   -5701.7537    -6351.095            0    3943.0526    23.526467    21.472429    21.696217    10960.287    4740.1015    3574.9427    3514.1136    103.31534   -70.971673   -82.828005   -5071.4783 
11321000    255.73351   -6342.0065   -5684.1476   -6342.0065            0    1569.9469    23.511372    21.642325    21.827997    11106.975    1784.6658    1445.9921    1479.1828   -282.24477    661.19443   -1069.8388   -5429.8416 
11322000    265.61551   -6316.0902   -5632.8105   -6316.0902            0    2996.1551    23.380329    21.488154    22.009023    11057.336    2911.6514    4508.7514    1568.0624    66.546904    598.01215   -361.03791   -5149.6508 
11323000    250.41433   -6367.7391   -5723.5635   -6367.7391            0    3884.4412    23.329525    21.520448    21.802426    10946.166    3483.1693    4539.3126    3630.8419   -1231.5698    1049.7637    -1004.053   -5103.4568 
11324000    254.46893   -6352.4024   -5697.7965   -6352.4024            0    4595.6297    23.447971    21.405496    21.778781    10931.106    2613.1885    4941.1518    6232.5489    244.75828    212.49856     608.8673    -4965.166 
11325000    252.33604   -6341.7289   -5692.6099   -6341.7289            0    3589.1628    23.304195      21.4461    21.915905    10953.221    4136.3925    3846.3852    2784.7107   -1125.9245    1147.8436   -42.835348   -5119.2717 
11326000    254.99572   -6343.4622   -5687.5012   -6343.4622            0    3895.6188    23.351942    21.549161    21.754908    10947.391    3947.2998    3705.2296    4034.3272    228.10901    1020.7226   -547.18398   -5065.5405 
11327000    249.45678   -6354.4873   -5712.7749   -6354.4873            0     4211.199    23.385457    21.530221    21.739976    10945.948    3398.6408     4720.617    4514.3391   -2119.0697    1380.6687   -473.81995   -5040.5184 
11328000    254.85896   -6312.8295   -5657.2203   -6312.8295            0    2001.8941    23.509505    21.566977    21.922214    11115.197    875.67937    3013.1292    2116.8739   -47.929462    544.52361   -372.39557   -5332.7058 
11329000    250.82594   -6367.3226   -5722.0882   -6367.3226            0    3564.9945    23.443387    21.445271    21.815102    10967.538    3317.3245    3619.6183    3758.0407    767.91028    18.864479    2052.7418   -5151.8663 
11330000    261.62277   -6331.1235   -5658.1148   -6331.1235            0     3017.478    23.464517    21.550206    21.802809    11024.921    2811.0876    2728.9295    3512.4169    1220.5592    28.528533    330.96968   -5172.9431 
11331000    238.62704   -6332.3248   -5718.4712   -6332.3248            0    2439.5658    23.383295    21.562411    21.866725    11025.208    2717.5938    2203.8228    2397.2809    746.63188   -1025.7068   -25.975746   -5326.2102 
11332000    247.81177   -6347.1985   -5709.7178   -6347.1985            0    4322.9655    23.419987    21.556939    21.688176    10949.562    3706.3543    4248.2167    5014.3255   -405.07026   -176.58445   -177.18868   -5019.3915 
11333000    244.64339   -6329.6373   -5700.3071   -6329.6373            0    4174.0051    23.599142    21.417538    21.804496    11020.766    2838.4729    5391.4866    4292.0559   -526.79679    342.57423    647.23606   -5029.4336 
11334000    263.77646   -6314.2328    -5635.684   -6314.2328            0    3309.9388    23.315508    21.607889    21.886901    11026.597    4113.2995    3163.3937    2653.1231    319.31976    280.58835    783.48694   -5103.4074 
11335000     254.8261   -6364.1105   -5708.5859   -6364.1105            0    3818.7845    23.437708    21.463416    21.813264    10973.234    4360.0748    3681.9916     3414.287    891.05839   -1629.7154    117.31475    -5097.453 
11336000    251.33875   -6363.5751   -5717.0215   -6363.5751            0      3937.24    23.504011    21.510691    21.731792    10987.323    4397.0955    4673.0675    2741.5571   -286.40752   -341.08056    -274.3722   -5086.1228 
11337000    247.84187   -6366.4426   -5728.8845   -6366.4426            0    4615.3497     23.32712    21.520488    21.866055    10977.001    3928.5016     5615.524    4302.0234    219.42198    568.75221    35.026029   -4990.0211 
11338000    249.35536   -6324.8739   -5683.4224   -6324.8739            0    2438.7362    23.554008    21.478566    21.839879    11048.933    2499.8245    2460.9553     2355.429    337.48855   -836.66475     283.2729   -5290.4509 
11339000    239.77024   -6356.4424   -5739.6481   -6356.4424            0    2985.5277    23.376156    21.548468    21.811598    10986.946    4051.6099     3048.974    1855.9991   -379.61881   -660.83163    655.71322   -5261.2671 
11340000     242.9916   -6339.8893   -5714.8082   -6339.8893            0    4426.6991    23.527284    21.557973    21.674916    10993.529    3565.1985     4519.985    5194.9139   -223.04027     382.4475    273.26474   -5005.0784 
11341000    253.97633    -6373.849   -5720.5103    -6373.849            0    3158.2764    23.319791    21.543601    21.834997    10969.733    3909.4005    3482.8255    2082.6032   -619.28537     103.9443    70.735714    -5215.242 
11342000    254.78288   -6347.3621   -5691.9487   -6347.3621            0    3366.2116    23.499539    21.437244    21.835732    11000.085    3599.0292    4021.9262    2477.6794   -237.51068    221.08036    -1967.123   -5151.9243 
11343000     239.8255   -6318.9607   -5702.0242   -6318.9607            0    3308.4599    23.465525    21.626249    21.769522    11047.407    3667.4706    2744.9744    3512.9347    390.07287   -107.07204   -598.98478   -5168.9814 
11344000    243.10409   -6304.1842   -5678.8138   -6304.1842            0    4559.2623    23.430083    21.437652    21.830454     10965.13    5354.8643    4817.0358    3505.8868   -85.427253    -689.2042     148.2119   -4949.7185 
11345000    244.45609   -6370.0262   -5741.1778   -6370.0262            0    4145.9367    23.292084    21.449151    21.916267    10949.267    4033.4694    4586.9167    3817.4241    152.95846   -848.47085    438.30401   -5079.1387 
11346000    250.94837   -6318.3581   -5672.8088   -6318.3581            0      3403.44    23.393177      21.5678    21.803103    11000.523    3801.1317    4064.2712    2344.9173   -154.82744   -244.25345   -1216.5808   -5126.7903 
11347000    239.76379   -6320.8933   -5704.1155   -6320.8933            0    3877.4627    23.440723    21.551318    21.757147    10991.242    3410.9521    3297.3852    4924.0508   -714.60691     299.6941     -244.906   -5082.5738 
11348000    242.47539   -6363.7623   -5740.0091   -6363.7623            0    4013.3755    23.393573    21.563266    21.723103    10958.042    3555.4208     3980.155    4504.5507   -949.04337    501.58591   -703.74744   -5098.6243 
11349000    255.61608   -6350.6034   -5693.0465   -6350.6034            0    3550.3474    23.311372    21.459928    22.046588    11029.034    3789.5004    3759.6319    3101.9098    278.54654     1697.447   -276.98333   -5121.9833 
11350000    243.25218   -6346.9504    -5721.199   -6346.9504            0    2928.8601    23.456647    21.435405    21.895974    11009.356    3299.6621    3136.7623     2350.156   -438.97608    792.36561   -54.123781   -5250.9407 
11351000    245.67537   -6357.4361   -5725.4512   -6357.4361            0    3760.2233    23.370511    21.645772    21.632019    10943.049     4353.604    3098.3891    3828.6768    -273.6453    89.317022   -413.14626   -5125.3454 
11352000    250.13043   -6344.3609   -5700.9156   -6344.3609            0    2744.7035    23.538419    21.362806    21.971017    11048.053    3384.4382    2965.1958    1884.4765    -1120.165    -53.13432    366.74931   -5258.6766 
11353000      255.225   -6326.9532   -5670.4025   -6326.9532            0    2645.3922    23.197228    21.839373    21.830974    11059.853    3781.5251    2524.9048    1629.7467   -304.15763    -939.2432    243.30352   -5243.7097 
11354000    249.27956   -6332.4679   -5691.2115   -6332.4679            0    3448.3958    23.567121    21.403322    21.841354    11017.099    2707.7226    4775.2027     2862.262   -672.38138   -278.19525   -668.67499    -5137.147 
11355000    256.54628   -6342.6877    -5682.738   -6342.6877            0    2958.7832    23.350968    21.579097     21.87077    11020.524     3181.631    2400.6575    3294.0612     42.87644    955.15838   -211.10258   -5207.1934 
11356000     253.7884   -6365.4657   -5712.6105   -6365.4657            0    4323.2248     23.45318    21.433865    21.767342    10942.275    4755.0655     5027.938    3186.6711   -1252.3243    982.98724   -373.99023   -5022.7022 
11357000    247.00779   -6342.4811   -5707.0686   -6342.4811            0    3938.5179    23.438301    21.427395    21.845154    10971.111    3775.6484    4195.3062    3844.5992    401.41379   -333.40077    41.417157   -5076.8963 
11358000    254.30593   -6353.3753   -5699.1888   -6353.3753            0    2752.8691    23.309046    21.702758    21.802952    11029.472    4142.9973    1570.7308     2544.879   -349.59943    500.58716   -125.44483     -5256.38 
11359000     232.5602   -6316.6317   -5718.3847   -6316.6317            0    2080.3828    23.646877    21.412685    21.894532    11086.146    1335.0044    1920.1334    2986.0107    251.41762    106.31958    57.723323   -5382.0283 
11360000    234.20449   -6319.5085   -5717.0317   -6319.5085            0    3118.9111    23.200582    21.721835    21.879512    11026.381    3830.9257    1075.2829    4450.5247   -576.07621    1161.8817    431.08204   -5215.4844 
11361000    247.93066   -6325.9856    -5688.199   -6325.9856            0    3776.4594    23.526425    21.448919    21.822919    11012.202    4038.6796    3844.3731    3446.3255   -449.77749   -311.74419   -112.29541   -5081.6933 
11362000    255.86751    -6346.611   -5688.4074    -6346.611            0    3905.4199    23.182368    21.710181    21.759219    10951.272    4929.0499    2421.9976    4365.2121   -492.18479    846.30875    57.918523   -5064.6609 
11363000    249.08841   -6331.4594   -5690.6946   -6331.4594            0    3082.2423     23.61455    21.387985    21.772235    10996.452     2259.888    3423.9375    3562.9013   -730.16271    245.28048   -716.44499   -5196.3894 
11364000    246.86745   -6321.8039   -5686.7525   -6321.8039            0    2924.0879    23.399506    21.570194    21.822432    11014.477    3378.1641    2085.4122    3308.6875     404.6109    137.16509    568.09037    -5217.042 
11365000    249.68585   -6331.8904   -5689.5887   -6331.8904            0    3314.4659    23.324144    21.540479    21.948109     11027.02    3805.6367    3066.9233    3070.8377   -374.13884    254.43049    447.60612   -5156.5637 
11366000    246.96486   -6371.4062   -5736.1041   -6371.4062            0     2324.306    23.622455    21.352063    21.887362    11039.726    1882.3693    2416.5022    2674.0465   -879.76293    899.86188    549.28889   -5361.8837 
11367000    233.75234   -6366.9306    -5765.617   -6366.9306            0    3771.6252    23.295388    21.696348    21.654008    10944.474    5070.9996    2190.2988    4053.5772   -1379.8062    522.05138    516.85789   -5163.6131 
11368000    241.34296   -6350.7034   -5729.8633   -6350.7034            0    3737.6387     23.56538    21.357982    21.836202    10990.356    3535.3088    3477.3385    4200.2688   -1216.8558    142.82995    374.55056   -5130.7831 
11369000    244.33085   -6335.2714   -5706.7452   -6335.2714            0    4300.5893     23.12082    21.705969    21.946903    11014.269    5940.6859    3229.7835    3731.2985   -578.75974    -596.4425   -138.25641   -5015.9338 
11370000    240.83474   -6319.2077    -5699.675   -6319.2077            0    2325.0227     23.65338    21.474694    21.799662    11073.119    2031.3065     2656.272    2287.4897    -226.0762    245.31879   -385.28096   -5324.2069 
11371000    238.76233    -6329.134   -5714.9324    -6329.134            0    2593.4191    23.404793    21.635858    21.781535    11029.795    2848.5958    2669.6743    2261.9873   -161.77956    61.950026   -199.44498   -5297.7596 
11372000    259.22854    -6322.669   -5655.8194    -6322.669            0    4843.8559    23.382961    21.444313    21.860565    10961.577    5171.8647     3281.063      6078.64   -35.505612   -444.03965    -160.2303   -4881.4644 
11373000    244.94509   -6339.4486   -5709.3423   -6339.4486            0    3191.2687    23.492222    21.394769    21.847698    10980.886    2913.6792    2749.7043    3910.4226       370.26    248.07323   -241.44097   -5198.2767 
11374000    248.34818   -6325.8997   -5687.0392   -6325.8997            0    3631.7528    23.268609    21.609532    21.898282    11010.976    4746.4916    3265.9647     2882.802     -1415.19    708.01032    233.56006   -5103.8385 
11375000    258.65617   -6325.6067   -5660.2295   -6325.6067            0    4575.5902    23.567047     21.36925      21.8014    10979.406    4611.7189    4994.8195    4120.2323    -458.0219   -48.379656   -409.49206   -4927.5705 
11376000    250.53247   -6341.3761   -5696.8966   -6341.3761            0    3767.1105    23.094046    21.808606    21.806201    10982.671    4992.9854    2615.9586    3692.3874   -809.85415     271.7738   -718.04687   -5093.5148 
11377000    250.96544   -6343.6318   -5698.0385   -6343.6318            0    3707.1649    23.568601    21.337495     21.82213    10974.238    3242.4549    4142.3342    3736.7057    1455.3355   -151.00377     434.6682   -5104.7142 
11378000    235.64169   -6306.0549    -5699.881   -6306.0549            0    3555.9559    23.318909    21.627062    21.851163    11019.968     3134.264    2927.1034    4606.5002    597.56911      931.112    1565.0623   -5128.3858 
11379000    254.22301   -6314.0016   -5660.0284   -6314.0016            0    1888.2437    23.542352    21.502682    21.982525    11128.075    1434.9754    2638.8519     1590.904    149.16392    1049.3838    288.67269   -5353.5824 
11380000    242.24979    -6373.395   -5750.2222    -6373.395            0    3735.3447    23.511282    21.432063    21.772653    10971.137    3660.5979    3053.3639    4492.0722   -76.081984   -50.774721   -127.81284   -5152.5567 
11381000    240.84308   -6356.0418   -5736.4876   -6356.0418            0    4639.9169     23.19809    21.610024    21.820605    10938.915    5515.0443    3712.4305    4692.2759    264.25449    955.70904    887.88241   -4996.2684 
11382000    252.91219    -6312.996   -5662.3948    -6312.996            0    2523.2453    23.640291    21.315441    21.982025    11076.813    1368.3834    2847.6773    3353.6752   -904.16922    1212.8411    785.87857   -5254.7798 
11383000    245.23717   -6317.0304   -5686.1727   -6317.0304            0    2630.0636    23.330259    21.716271    21.810813    11050.366    2536.1741    3050.1497    2303.8669    344.23607    310.08012   -813.61935   -5262.3163 
11384000    239.74737   -6359.8595    -5743.124   -6359.8595            0    3366.7324    23.504569     21.41224    21.856761     11000.19    2909.0948    3568.3809    3622.7214   -142.44771   -567.71511    81.323518   -5203.0109 
11385000    237.64354   -6341.4463   -5730.1228   -6341.4463            0    5163.1069    23.346122    21.431888    21.840578    10927.966    6237.0368    5081.0143    4171.2695   -750.49169   -1455.0421    169.26354   -4907.2621 
11386000    250.47017   -6308.1553    -5663.836   -6308.1553            0    4952.8578    23.236688    21.487603    21.928565    10948.948    6165.0359    4917.2785    3776.2589   -963.92068    864.33982    1406.4213   -4872.9677 
11387000     249.6409   -6345.6043   -5703.4183   -6345.6043            0    4846.5747    23.308582    21.334515    21.979547    10929.929    5875.6125    6928.9572    1735.1546   -497.41721   -892.63107     77.06104   -4930.8655 
11388000     241.1075   -6346.1142   -5725.8799   -6346.1142            0    4050.7228    23.406274    21.560603    21.750708    10976.569     3603.608    2815.6336    5732.9268   -620.41902    2410.0337     773.7723   -5077.4321 
11389000    242.68173   -6332.5751   -5708.2911   -6332.5751            0    4595.0244     23.36836     21.41394    21.865678    10941.775    5203.2242    5594.6962    2987.1527   -172.65319   -1010.3384   -1514.1441   -4975.0421 
11390000    241.35591   -6315.4263    -5694.553   -6315.4263            0    3661.6279    23.426806    21.515415    21.867095    11021.835    3842.3551    4680.3986      2462.13   -371.91623    539.26211   -79.966581    -5105.975 
11391000    251.69615   -6369.2215   -5721.7485   -6369.2215            0    2757.9061    23.311571    21.661068    21.826828    11021.534    2977.9996    2452.8091    2842.9096    1184.9965    615.83334   -63.880818   -5278.4488 
11392000    256.01182   -6359.7131   -5701.1383   -6359.7131            0    4814.5648    23.572775    21.149966    21.911173    10924.109    4054.3616    6404.5797     3984.753   -165.72323   -610.93899   -352.79153   -4934.0967 
11393000    252.05835   -6347.3864   -5698.9816   -6347.3864            0     3183.999    23.196437    21.745339      21.8067    10999.613    3647.8723    3234.3398    2669.7849      93.5653    662.55038    414.28757   -5188.2106 
11394000    251.96461   -6348.3438   -5700.1802   -6348.3438            0    3987.6284    23.549066    21.420344    21.762849    10977.815     1671.461    5582.1232    4709.3011    643.95179    1806.2503    570.75679   -5061.7602 
11395000    260.05307   -6321.4481   -5652.4775   -6321.4481            0    4448.5843    23.317457    21.548284      21.9286    11018.051    5055.7359    2731.7671    5558.2499    532.05998    239.60468    980.07236   -4937.6479 
11396000    253.78763   -6369.7487   -5716.8955   -6369.7487            0    3912.9492    23.435745    21.484402    21.780089     10966.34    5078.5585    3862.9871    2797.3021   -400.29977   -1159.8717   -1004.2227   -5091.0865 
11397000    253.44612   -6376.2992   -5724.3245   -6376.2992            0    4154.9918    23.508629    21.430211    21.765297    10965.245    3455.1552    4510.5925    4499.2276   -1293.5687    261.35464   -589.22148   -5059.8714 
11398000    249.15296   -6373.6387   -5732.7079   -6373.6387            0     3569.538    23.289958    21.719455    21.748435    11001.341    4717.4239    1265.1126    4726.0776   -1947.0065    250.09629    489.10804   -5159.9995 
11399000    251.34471   -6308.2739   -5661.7049   -6308.2739            0    2586.9529    23.714035    21.435731    21.793448    11078.212    1281.1152    2788.6304    3691.1131   -69.597443   -541.60435    643.35652   -5243.7455 
11400000    239.64909   -6333.4738   -5716.9911   -6333.4738            0    3061.5242    23.370442    21.620658     21.79531    11012.829    3476.6611    3155.5998    2552.3117    872.55679    -155.4535    228.77712   -5225.2772 
11401000     246.9897   -6302.1707   -5666.8047   -6302.1707            0    3887.7068    23.408285    21.401283    21.953662    10998.067    3209.4084    4262.2177    4191.4941    151.45887   -29.380537    664.44168   -5043.2339 
11402000    235.01466   -6333.3942   -5728.8333   -6333.3942            0    2565.3464    23.484307    21.496046    21.818477    11014.398    1259.1562    3856.6395    2580.2434     270.9763    293.89033   -858.09904   -5316.7523 
11403000    255.33365   -6323.7341   -5666.9039   -6323.7341            0    3413.2129    23.366095      21.6726    21.770725    11024.782    4436.6072    1876.4051    3926.6263   -115.84761   -309.98173   -535.15887   -5118.1099 
11404000     253.4001   -6349.6803    -5697.824   -6349.6803            0     3161.791    23.533654    21.299953    21.916742    10986.112    2846.9065    3812.1713    2826.2953    550.68463    88.864703   -690.57363   -5191.2381 
11405000    239.94818   -6345.3326   -5728.0805   -6345.3326            0    4612.5557    23.173003    21.601629    21.873608    10949.373    6530.2796    3811.3867    3496.0007   -1796.6872   -785.30874   -213.96123   -4991.5228 
11406000    238.38421   -6364.7316   -5751.5027   -6364.7316            0    4086.3241    23.458023    21.402684    21.821264    10955.685    4408.7462    4151.2631     3698.963    851.10415   -10.654971    675.65131   -5098.6004 
11407000     251.3896    -6368.169   -5721.4845    -6368.169            0    1657.1185    23.380513    21.764441    21.761667    11073.725    1905.0852    1.2916981    3064.9786   -466.61373   -571.40563   -549.97829   -5453.8617 
11408000    243.11959   -6346.0908   -5720.6805   -6346.0908            0    3650.8067    23.677442    21.404576    21.719372      11007.5    2403.9311    4686.1202    3862.3688    548.18939   -210.73801   -642.77955   -5134.6052 
11409000    248.43461   -6338.9046   -5699.8217   -6338.9046            0     3428.802    23.285513    21.597352     21.87802    11002.575     3513.638     3729.202    3043.5658    626.07187    732.47054   -785.63545   -5149.6318 
11410000    238.33965   -6322.7926   -5709.6784   -6322.7926            0    3686.7013    23.463174    21.496419    21.793619    10992.139    2547.5429    5315.7227    3196.8382    129.24713   -275.00193   -103.15787   -5118.6667 
11411000    246.64167   -6361.3548   -5726.8842   -6361.3548            0    3357.1412    23.488861    21.479542    21.744325    10970.664    3905.4927    2875.5043    3290.4264    -606.0276   -357.89152    499.79743   -5189.7554 
11412000    248.78565   -6338.0952   -5698.1092   -6338.0952            0    2914.7157    23.339871    21.610836      21.9184    11055.512    3374.6099    2196.6636    3172.8736    37.254102    -939.7627    127.52711     -5228.16 
11413000    242.09597   -6324.8108   -5702.0337   -6324.8108            0     3776.207    23.577836    21.476452    21.686269    10981.238    4272.6269    2027.0511     5028.943   -948.80134   -1098.7496   -294.98988   -5097.2738 
11414000     245.5919   -6353.8633   -5722.0931   -6353.8633            0    5109.1399    23.336473    21.492421    21.749348    10908.545    6560.2554    3614.8001    5152.3643    74.942465   -1521.0863   -825.08107   -4909.2804 
11415000    255.07813   -6342.4844   -5686.3115   -6342.4844            0    4458.1352    23.195343    21.362751    22.076235    10939.135     5057.046    4893.2774    3424.0822    261.75749    183.68072    546.71984   -4975.0781 
11416000    244.81621    -6287.449   -5657.6742    -6287.449            0    4142.3583    23.490577      21.5062    21.816386    11021.486    2884.0044    3901.1102    5641.9604     312.7553   -657.11596    1120.6428   -4991.8437 
11417000    246.59551   -6340.9885   -5706.6366   -6340.9885            0    3800.6118    23.481506     21.59699     21.63812    10973.337    3082.0179    4260.2823     4059.535   -681.08962    215.96556    106.87285   -5098.4062 
11418000    249.59946    -6317.878   -5675.7986    -6317.878            0    4515.7435    23.431526    21.424397    21.806889    10947.196    4027.7612    4861.0724     4658.397   -622.36621   -151.07874   -313.05606   -4954.8438 
11419000    256.21376   -6299.4996   -5640.4053   -6299.4996            0    4896.8209    23.124573    21.629402      22.0399    11023.712    4518.1074    6627.9795    3544.3757    171.28528    361.77424   -464.71786   -4853.1457 
11420000    253.51423   -6349.5362   -5697.3862   -6349.5362            0    4515.5605    23.518095    21.326397    21.782417    10925.107    3901.1517    5609.6645    4035.8655    699.62221    321.28053    501.97814   -4977.9153 
11421000    247.61392   -6328.6817     -5691.71   -6328.6817            0     5033.784     23.38214    21.527283    21.730752    10938.259    3888.2291    4852.0639    6361.0591   -57.523598   -72.831577    655.14765   -4888.7042 
11422000    252.87245   -6342.0564   -5691.5575   -6342.0564            0    4829.0903    23.242951    21.481194    21.913248    10940.985    5220.5743    4966.4645    4300.2321   -961.74719     753.8447    380.12567   -4921.0131 
11423000    241.07099   -6329.5495   -5709.4091   -6329.5495            0    5036.6049    23.430137    21.495352    21.692443    10925.161    5604.8173    4668.0845     4836.913    -625.4238   -422.61739   -859.52037   -4906.9154 
11424000    243.86575   -6343.0585   -5715.7287   -6343.0585            0    3817.6381    23.382198    21.573049    21.795341    10994.122    3626.5458    3264.0757    4562.2928    211.47142   -885.19636    105.17422   -5103.6163 
11425000    248.00252   -6327.1779   -5689.2065   -6327.1779            0    3122.9015    23.521852     21.52412    21.707197    10990.075    2418.6485    3058.9486    3891.1074    380.66261    1423.8058    745.92968    -5188.671 
11426000     240.8192   -6343.2706   -5723.7779   -6343.2706            0    4351.4075    23.359034    21.419759    21.872686    10943.886    3804.1231    5891.6917    3358.4077    -76.37514    413.33412    20.350589   -5029.2699 
11427000    253.79134   -6309.8765   -5657.0137   -6309.8765            0    4396.0468    23.277842    21.551031    21.981584    11027.315    5630.1934    4073.2862    3484.6606   -444.87427   -971.05058    1055.8363   -4950.0324 
11428000    246.69992   -6321.9665    -5687.346   -6321.9665            0    3049.0263    23.488393    21.535112    21.817527    11035.855    2562.2941    3838.0105    2746.7744   -265.17659   -519.75343   -256.76286   -5196.6155 
11429000    243.90331   -6328.6314    -5701.205   -6328.6314            0    3055.9475    23.398746    21.642586    21.746347    11012.554    2699.8426    2640.0275    3827.9724     -1311.34   -94.448672    110.13406    -5210.399 
11430000    249.18251   -6327.1502   -5686.1434   -6327.1502            0     4494.438    23.395041    21.520938    21.725105    10938.226    3647.0587    4832.1381    5004.1174   -16.668812    338.66527   -871.38699    -4969.178 
11431000    248.67086   -6350.0996    -5710.409   -6350.0996            0    3732.0027     23.38219    21.441768    21.914893    10987.152    5352.6294    3009.8504    2833.5284    773.56428   -509.80906    48.079171   -5112.4065 
11432000    253.27761   -6330.2223    -5678.681   -6330.2223            0     4821.342    23.290036    21.505268    21.814185    10925.819    5381.5829    4200.0848    4882.3583   -281.40695    577.44542     246.6967   -4910.4394 
11433000    247.62121   -6353.3274   -5716.3369   -6353.3274            0    5361.3282    23.372202    21.445109     21.76945    10911.271    4694.8331    6085.5127    5303.6389   -1176.7169    373.44673   -74.329812   -4863.1904 
11434000       234.88   -6318.1205    -5713.906   -6318.1205            0     4318.985    23.285645    21.451068    22.009732    10993.904    5669.7414    4894.8264    2392.3873   -1569.0056   -107.40185   -664.31788   -5021.4223 
11435000    257.05067   -6337.4367   -5676.1895   -6337.4367            0    2895.2828    23.355366    21.622436     21.84452     11031.48     3211.254    3469.7154    2004.8791    355.69476    608.59328    -308.0296   -5210.3883 
11436000    240.91414   -6293.0332   -5673.2963   -6293.0332            0    3254.5116    23.529152    21.395391    21.912126    11030.902    2474.1823    3730.6817    3558.6707   -27.230609    628.07368   -288.06463   -5149.7287 
11437000    241.73826   -6355.1983   -5733.3414   -6355.1983            0    4074.1559    23.242899    21.616421    21.796511    10951.184     4461.466    4435.1759    3325.8259   -923.34876    92.801631   -1524.8906   -5082.6507 
11438000    248.37746   -6305.3334   -5666.3975   -6305.3334            0    4633.9366    23.544907    21.287958    21.807235    10930.288    3756.4073    6089.7461    4055.6563   -275.34072    372.68401   -354.32143   -4927.7154 
11439000      236.678   -6348.5404   -5739.7007   -6348.5404            0    3447.5347    23.243387    21.655609    21.847833      10997.1    4408.3713    2599.8597    3334.3731    1298.3106   -657.60342    93.636469   -5186.7801 
11440000    257.16129   -6298.1561   -5636.6243   -6298.1561            0     4572.572    23.440978    21.480273    21.800071    10976.742    5214.2051    3863.7526    4639.7582    75.671831   -996.51209   -677.13116   -4904.6263 
11441000    253.85565   -6324.3756   -5671.3474   -6324.3756            0    4132.1175    23.495247    21.428954    21.853623    11002.831    3207.9316    4956.5057    4231.9151    1023.9591     262.4142   -654.89852   -5008.2872 
11442000    249.79981   -6329.3768    -5686.782   -6329.3768            0    4034.5755    23.397113     21.51838    21.737111    10943.939    5035.5399    3210.7897    3857.3968    112.28341     851.3987   -672.24497    -5042.839 
11443000     236.4212   -6321.8129   -5713.6338   -6321.8129            0    4176.9082    23.436108     21.50056    21.774472    10971.927    4526.9583    5006.4622     2997.304   -526.76583   -263.10982   -941.37966   -5045.2688 
11444000    245.74695   -6326.5552   -5694.3862   -6326.5552            0    4683.0652    23.360234    21.626761    21.688971    10957.403    5257.6466    4294.2962    4497.2528   -618.16631   -2279.7711    581.44063   -4946.0207 
11445000    261.89556   -6344.4205   -5670.7101   -6344.4205            0    4711.8531    23.479799    21.492204    21.685133    10943.025    4829.5042    4194.3575    5111.6974    642.58563   -1116.1284    604.16602   -4918.7323 
11446000    248.76217    -6351.967   -5712.0415    -6351.967            0    3658.1299    23.402589    21.496578     21.88138    11007.988    3960.1023    3238.2462    3776.0412    1096.0918   -422.61333   -491.97961   -5124.7645 
11447000    245.96661   -6332.8055   -5700.0713   -6332.8055            0     2093.189    23.414073    21.561414    21.954306    11083.424    2420.7191    2198.4446    1660.4032   -159.69189   -256.51709    -115.2243   -5361.7275 
11448000    251.22458   -6322.0704   -5675.8105   -6322.0704            0    4627.3306    23.513744    21.600252    21.593588    10967.443    4394.6649    4611.9405    4875.3864    1541.7568    360.97183   -517.67407    -4935.674 
11449000    255.41254   -6330.5679   -5673.5347   -6330.5679            0    4937.8976    23.417512    21.562168    21.753374    10983.981    6475.3008    4298.1229    4040.2693    1204.2252    -1028.284   -221.93982   -4882.5324 
11450000    243.89631   -6344.7342   -5717.3258   -6344.7342            0    3537.3998    23.365603    21.501523    21.925902    11015.487    4343.2081    4198.3935    2070.5976    1214.6987   -609.90363   -78.778654    -5149.044 
11451000    248.97616   -6321.2069   -5680.7308   -6321.2069            0     3225.343    23.540336    21.398877    21.842311    11002.775    1715.6554    3457.2751    4503.0985   -925.73267    343.83051    1635.6343   -5163.1788 
11452000    246.47182   -6324.0638     -5690.03   -6324.0638            0    4383.0772    23.234521    21.725616    21.755162    10981.664     4595.854    5404.2044    3149.1731   -826.69612   -495.15741   -1083.3447   -4988.0526 
11453000    240.44127   -6371.3444   -5752.8239   -6371.3444            0    4103.0849    23.434137     21.53971    21.716959     10961.95    3955.6847    4662.5496    3691.0204   -9.5472295   -805.40815    141.48819   -5096.8687 
11454000    238.70998   -6323.0424   -5708.9756   -6323.0424            0    4897.7233    23.432917    21.469712    21.772401    10953.651    4476.3529    5347.1816    4869.6355    505.33261   -913.56883    357.07946   -4926.5752 
11455000    249.39955   -6353.8216   -5712.2565   -6353.8216            0    4202.4686    23.278872    21.659412    21.682814     10932.62    3929.4834    3279.5895    5398.3327   -502.98188    527.78696   -747.68987   -5042.2105 
11456000    244.19434    -6365.316   -5737.1409    -6365.316            0    2353.4812    23.541743    21.456821    21.832645    11028.345    1825.7692     2857.421    2377.2533    529.29781   -113.42721    361.81202   -5358.6139 
11457000    242.63964   -6352.7999   -5728.6242   -6352.7999            0    2792.4285    23.400504    21.551398    21.896447    11042.675    2855.7347    1516.0742    4005.4767    848.35417     782.1829    1660.7598   -5278.9145 
11458000    243.25319   -6325.6263   -5699.8723   -6325.6263            0    3674.3617    23.316304    21.504924    21.981758    11021.991    4070.3706    3999.7177    2952.9968    782.55315    504.72559    652.73974   -5109.2391 
11459000    250.39347   -6330.3637   -5686.2417   -6330.3637            0    3543.6781    23.568287    21.498944    21.745134    11018.114    1895.3035      4910.99    3824.7409    605.60476   -174.06054    -1300.484   -5116.8156 
11460000     245.8919    -6349.533    -5716.991    -6349.533            0    3259.4925    23.443386    21.594706    21.830143    11051.576    3288.6509    3003.5214    3486.3051   -526.49091    160.49443   -500.28761   -5191.6394 
11461000    243.84911   -6309.4337   -5682.1467   -6309.4337            0    3727.5333    23.505901    21.382231    21.930698    11022.558      3659.84    4250.7489    3272.0109    124.66418    866.76138   -135.25789   -5082.9356 
11462000    246.72879   -6355.3339   -5720.6391   -6355.3339            0    4548.9233    23.278507    21.580668     21.73093    10916.875    4031.1044    4362.9007    5252.7647    939.42158    1073.8809    370.68111   -4996.3985 
11463000    253.44684   -6359.3881   -5707.4115   -6359.3881            0    2838.7456    23.853788    21.315336    21.627866    10996.721    1011.9985    3642.5191    3861.7192   -134.89327    184.95312    553.64228   -5252.1452 
11464000    253.33109   -6350.1939   -5698.5151   -6350.1939            0    4487.3584    23.152652    21.695321    21.781533    10940.955    4949.1167    4170.4161    4342.5423    75.975671   -1001.3864   -396.90051   -4982.5005 
11465000     248.1734   -6378.7266   -5740.3156   -6378.7266            0    3465.0523     23.52306     21.34228    21.879091    10984.085    2754.1326    4959.9875    2681.0368   -458.58018   -238.23149   -214.85669   -5185.2433 
11466000    233.95159   -6306.4816   -5704.6554   -6306.4816            0     5139.737    23.322639    21.570282    21.736087    10934.902     5384.705     4633.374     5401.132   -1155.9863    876.35286    55.606474   -4884.9994 
11467000    247.09532   -6339.8911   -5704.2535   -6339.8911            0    4847.9805    23.284934    21.492479    21.858198    10938.956     4642.544    4411.7783    5489.6193    550.45901    1035.7905   -114.98822   -4930.8384 
11468000    248.38576   -6313.7248   -5674.7676   -6313.7248            0    3563.3437    23.511193    21.515138    21.748078     11001.19    3750.4901    3317.8912      3621.65   -121.18145   -404.87447   -667.06572   -5103.0608 
11469000    239.36836   -6327.7643   -5712.0038   -6327.7643            0    3869.3293    23.331815    21.632614    21.822081    11014.219         3941      2450.28     5216.708    206.64426    325.15841    882.14198   -5090.4692 
11470000    234.86429   -6352.3834   -5748.2093   -6352.3834            0    2541.7934    23.646622    21.333802    21.839959    11017.656    1768.2562    3255.9446    2601.1796    392.66477   -359.69673    277.94735   -5339.7909 
11471000    242.39469   -6336.6985    -5713.153   -6336.6985            0    4467.6523    23.215233    21.732431    21.771589    10984.277    5399.9164      3938.55    4064.4905    647.11364   -1172.1159    251.59437     -4997.46 
11472000    249.55708   -6365.9868   -5724.0164   -6365.9868            0    3287.9016    23.464079    21.396617    21.886104     10987.96    2668.0725    3998.7017    3196.9306    736.64475   -276.72593   -236.92322   -5197.1364 
11473000    243.36234   -6342.9803   -5716.9455   -6342.9803            0    4053.9412    23.335923    21.617709    21.775509    10985.073    3410.3121    5244.8076    3506.7041    97.879428    436.29628   -619.89332   -5067.4797 
11474000    252.71824   -6319.1345   -5669.0323   -6319.1345            0    3498.8152    23.576799     21.38231    21.858198    11019.296    2909.7867    3850.2058    3736.4531    84.877482    1273.1127   -62.980338   -5106.7547 
11475000    238.86343   -6332.7166    -5718.255   -6332.7166            0    4174.1162    23.338754    21.517872    21.864066    10980.141    4993.2639    3914.3756    3614.7092   -960.34802    901.96031   -209.82283   -5049.8366 
11476000    246.20382    -6339.111   -5705.7667    -6339.111            0    3369.4745    23.395288    21.654192    21.710514    10998.678    4179.1705    1900.1499    4029.1031   -1098.2621    596.10493   -260.72514    -5165.288 
11477000    258.09893   -6306.8005   -5642.8567   -6306.8005            0    4117.2881    23.499594    21.343215    21.899539    10983.864    3559.7536    5388.6334    3403.4772    238.39497    495.09135   -581.78746    -4983.315 
11478000    261.54754   -6321.1362   -5648.3211   -6321.1362            0    4102.5584    23.271725    21.761148    21.659824    10968.956    4154.0773    3629.5392    4524.0588   -138.62147     900.4966   -277.09615   -4992.0308 
11479000    250.55046   -6317.2944   -5672.7686   -6317.2944            0    4503.4348    23.543718    21.382609    21.790211    10969.761    5096.9552    2793.0697    5620.2796   -2040.8973   -108.98329    1730.3952   -4952.2969 
11480000    258.58317     -6319.37   -5654.1806     -6319.37            0    3967.5322     23.19795    21.609949    21.972446     11014.93    4437.1931    4029.7278    3435.6758   -425.76131    96.789812    398.17496   -5016.8304 
11481000    257.44578   -6329.7021   -5667.4386   -6329.7021            0    3486.5107    23.411546    21.466211    21.860569    10986.186    2671.9481    4168.7177    3618.8663   -366.02713    894.79927    636.59228   -5108.8219 
11482000    243.95662   -6311.6504   -5684.0869   -6311.6504            0    4052.0761    23.504073    21.371756    21.845766    10973.638    3077.0979    4533.1839    4545.9465   -700.22308    1220.0738   -276.22006   -5035.5957 
11483000    241.33523    -6328.725   -5707.9048    -6328.725            0    5403.0523     23.25032    21.582177    21.731115    10904.511    5672.8783    4550.6727    5985.6058    654.25974    538.54133    275.19111   -4848.6514 
11484000    235.84813   -6298.0181   -5691.3131   -6298.0181            0    3774.5968    23.603286    21.417249    21.809326    11024.995    3947.4374      3984.19     3392.163    615.14084   -608.90392   -494.21963   -5084.4023 
11485000    253.85591   -6361.1545   -5708.1257   -6361.1545            0    3715.7507    23.313583    21.694461    21.753092    11002.183    4502.4542    3665.6605    2979.1373   -414.44963   -1121.9927   -985.52562   -5111.9128 
11486000    239.44437   -6319.6424   -5703.6863   -6319.6424            0    4308.9161    23.541216    21.471146    21.743915    10990.611    3598.0827    3700.0872    5628.5785   -516.91343   -707.12187    579.04036    -5013.024 
11487000    244.97543   -6344.5255   -5714.3412   -6344.5255            0    3049.4463    23.225078    21.583909     21.94891    11002.724    3871.9451    3018.2691    2258.1247    591.76365   -407.38338     459.5651   -5225.0165 
11488000    255.77774   -6331.9919   -5674.0193   -6331.9919            0    4204.0271    23.451156    21.461133    21.836431    10990.022    5914.8256    4058.8667    2638.3891    -1936.336   -431.14856   -924.62769   -5000.2054 
11489000    237.59396   -6323.9701   -5712.7741   -6323.9701            0    4410.7153    23.409879    21.510765    21.799311    10977.357    5745.1754    3761.4552    3725.5153    -1627.889   -1365.3873   -746.95776   -5006.6473 
11490000    258.26169   -6352.6912   -5688.3287   -6352.6912            0    4375.0248    23.344468    21.553432    21.813579    10975.576    5213.2737    3750.0503    4161.7503   -91.089738   -616.65138     447.1594   -4988.0293 
11491000     250.2759   -6352.5467   -5708.7272   -6352.5467            0    5755.0089    23.429042    21.340069    21.807614    10903.314    5066.2152    6746.6189    5452.1924     714.2996   -753.83235   -203.80737   -4793.6022 
11492000    254.03709    -6364.975   -5711.4801    -6364.975            0    4037.5869    23.197089    21.762136    21.735149    10972.299    4865.5156    2146.4536    5100.7914    883.63599   -165.81827    104.74876   -5065.3866 
11493000    250.60444   -6324.4732   -5679.8086   -6324.4732            0    3658.1017    23.598079    21.402949    21.715995    10968.065    4436.6931    3481.0514    3056.5607    186.07052   -1208.2375   -1217.5977    -5094.666 
11494000    236.49933   -6309.3555   -5700.9754   -6309.3555            0    2367.6302    23.241855    21.672466    21.969043    11065.989    4152.1554    1813.2872    1137.4481    281.67616    -746.7936   -373.89502   -5318.8728 
11495000    261.87004   -6332.5359   -5658.8912   -6332.5359            0    3416.0652    23.680461    21.462474    21.676399    11016.841    1202.1447    4670.4179     4375.633    308.88837      458.845    269.98735   -5110.0344 
11496000     237.9094   -6329.2626   -5717.2551   -6329.2626            0    3334.5411    23.482653     21.52111    21.755168    10994.469    3472.9115       3076.9    3453.8119   -58.433499   -245.90656     306.4205   -5182.5846 
11497000    240.14686   -6316.3252    -5698.562   -6316.3252            0    3385.4084     23.28261    21.583973    21.911118    11011.021    5047.9839    2835.0859    2273.1552   -96.946535   -83.149527    397.93632   -5154.9181 
11498000    252.96999   -6331.3936   -5680.6438   -6331.3936            0    4602.6075    23.528316    21.402519    21.748565    10951.821    3569.1406    5180.9366    5057.7452   -1409.1961    107.84588   -602.59601   -4945.5103 
11499000    247.79446   -6348.9156   -5711.4795   -6348.9156            0    3139.3312    23.248626    21.679419    21.828748    11002.053    3163.7048    2892.5066    3361.7822    900.59742    576.83214     461.7132   -5207.7623 
11500000    252.85007    -6292.733   -5642.2916    -6292.733            0    3032.8769    23.581185    21.455013    21.893533    11076.697    2620.7063    2982.3556    3495.5689    807.62543    304.05859    640.71986   -5152.3538 
Loop time of 572 on 64 procs for 250000 steps with 1296 atoms

Performance: 75.525 ns/day, 0.318 hours/ns, 437.063 timesteps/s
99.2% CPU use with 64 MPI tasks x 1 OpenMP threads

MPI task timing breakdown:
Section |  min time  |  avg time  |  max time  |%varavg| %total
---------------------------------------------------------------
Pair    | 29.259     | 38.387     | 47.508     |  96.0 |  6.71
Bond    | 0.26874    | 0.27654    | 0.28555    |   0.7 |  0.05
Kspace  | 289.9      | 306.44     | 319.67     |  40.0 | 53.57
Neigh   | 4.3658     | 4.9363     | 5.373      |  10.8 |  0.86
Comm    | 92.083     | 99.975     | 109.57     |  36.5 | 17.48
Output  | 1.5551     | 1.5641     | 1.5836     |   0.6 |  0.27
Modify  | 110.16     | 113.13     | 115.77     |  13.1 | 19.78
Other   |            | 7.292      |            |       |  1.27

Nlocal:        20.2500 ave          26 max          13 min
Histogram: 4 4 1 15 4 3 11 7 9 6
Nghost:        2532.64 ave        2566 max        2490 min
Histogram: 1 2 3 9 12 13 5 8 6 5
Neighs:        6295.95 ave        8150 max        4004 min
Histogram: 4 4 1 14 5 4 10 7 9 6

Total # of neighbors = 402941
Ave neighs/atom = 310.91127
Ave special neighs/atom = 2.0000000
Neighbor list builds = 9251
Dangerous builds = 0

unfix		3
unfix		2
unfix		1

write_data	data.final.${pid}
write_data	data.final.0
System init for write_data ...
PPPM initialization ...
  extracting TIP4P info from pair style
  using 12-bit tables for long-range coulomb (../kspace.cpp:340)
  G vector (1/distance) = 0.36837625
  grid = 27 40 32
  stencil order = 5
  estimated absolute RMS force accuracy = 0.0042313156
  estimated relative force accuracy = 1.2742481e-05
  using double precision FFTW3
  3d grid and FFT values/proc = 4845 560
Last active /omp style is kspace_style pppm/tip4p/omp
WARNING: Not all mixed pair coeffs generated from mixing. Use write_data with 'pair ij' option to store all pair coeffs. (../write_data.cpp:312)

write_restart   restart.lmp.${pid}
write_restart   restart.lmp.0
System init for write_restart ...
PPPM initialization ...
  extracting TIP4P info from pair style
  using 12-bit tables for long-range coulomb (../kspace.cpp:340)
  G vector (1/distance) = 0.36837625
  grid = 27 40 32
  stencil order = 5
  estimated absolute RMS force accuracy = 0.0042313156
  estimated relative force accuracy = 1.2742481e-05
  using double precision FFTW3
  3d grid and FFT values/proc = 4845 560
Last active /omp style is kspace_style pppm/tip4p/omp
Total wall time: 0:09:34
