LAMMPS (30 Jul 2021)
Processor partition = 1
  using 1 OpenMP thread(s) per MPI task
using multi-threaded neighbor list subroutines
variable        pid world 0 1
variable        phase world IceII IceIII

shell cd ${phase}
shell cd IceIII
include Restart.lmp
echo both
log log.lammps
#include		in.partitions
include		in.temp
variable        temperature equal 136.92
variable	tempDamp equal 100.0
include		in.pressure
variable        pressure equal 9418.8
variable        pressureDamp equal 1000.0 # This is 1 ps
include		in.seed
variable        seed equal 745823

units		real
atom_style	full

read_restart	restart.lmp.${pid}
read_restart	restart.lmp.1
Reading restart file ...
  restart file = 30 Jul 2021, LAMMPS = 30 Jul 2021
  restoring atom style full from restart
  orthogonal box = (0.079405321 0.19509072 0.24406648) to (19.920596 19.804910 20.455932)
  4 by 4 by 4 MPI processor grid
  restoring pair style lj/cut/tip4p/long/omp from restart
  restoring bond style harmonic/omp from restart
  restoring angle style harmonic/omp from restart
  972 atoms
  648 bonds
  324 angles
Finding 1-2 1-3 1-4 neighbors ...
  special bond factors lj:    0        0        0       
  special bond factors coul:  0        0        0       
     2 = max # of 1-2 neighbors
     1 = max # of 1-3 neighbors
     1 = max # of 1-4 neighbors
     2 = max # of special neighbors
  special bonds CPU = 0.008 seconds
  read_restart CPU = 0.021 seconds
include 	in.setup
variable	out_freq equal 1000
variable	out_freq2 equal 10000
variable	out_freq3 equal 1000

timestep	2.0

neigh_modify    delay 7 every 1

include		in.tip4p
# This is TIP4P/Ice

# create groups ###
group ox type 2
324 atoms in group ox
group hy type 1
648 atoms in group hy

# set charges - beside manually ###
set group ox charge -1.1794
Setting atom values ...
  324 settings made for charge
set group hy charge 0.5897
Setting atom values ...
  648 settings made for charge

# ### TIP3P Potential Parameters ###
pair_style lj/cut/tip4p/long/omp 2 1 1 1 0.1577 8.5
pair_coeff 1 1*2 0.000 0.000
pair_coeff 2 2 0.21084 3.1668
bond_style  harmonic
bond_coeff  1 450 0.9572
angle_style harmonic
angle_coeff 1 55 104.52
kspace_style pppm/tip4p/omp 1.0e-5
pair_modify tail yes

thermo          ${out_freq}
thermo          1000
thermo_style    custom step temp pe etotal epair emol press lx ly lz vol pxx pyy pzz pxy pxz pyz enthalpy

restart 	${out_freq3} restart.lmp.${pid} restart2.lmp.${pid}
restart 	1000 restart.lmp.${pid} restart2.lmp.${pid}
restart 	1000 restart.lmp.1 restart2.lmp.${pid}
restart 	1000 restart.lmp.1 restart2.lmp.1


include         in.dump
dump            myDump all atom ${out_freq2} dump.water.${pid}
dump            myDump all atom 10000 dump.water.${pid}
dump            myDump all atom 10000 dump.water.1
dump            myDump2 all dcd ${out_freq2} dump.dcd
dump            myDump2 all dcd 10000 dump.dcd
dump_modify     myDump append yes
dump_modify     myDump2 append yes


variable natoms 	equal  "count(all)"                        # NUMBER ATOMS
variable H      	equal  "enthalpy/v_natoms"                 # ENTHALPY-per-atom
variable Vol      	equal  "vol/v_natoms"                 # volume-per-atom
fix AVG all 		ave/time ${out_freq} 1 ${out_freq} v_Vol v_H file vol_enthalpy.dat
fix AVG all 		ave/time 1000 1 ${out_freq} v_Vol v_H file vol_enthalpy.dat
fix AVG all 		ave/time 1000 1 1000 v_Vol v_H file vol_enthalpy.dat


timer           timeout 02:55:00 every 1000
New timer settings: style=normal  mode=nosync  timeout=02:55:00

fix 		1 all shake 1e-6 200 0 b 1 a 1
Finding SHAKE clusters ...
       0 = # of size 2 clusters
       0 = # of size 3 clusters
       0 = # of size 4 clusters
     324 = # of frozen angles
  find clusters CPU = 0.005 seconds
fix             2 all nph aniso ${pressure} ${pressure} ${pressureDamp}
fix             2 all nph aniso 9418.8 ${pressure} ${pressureDamp}
fix             2 all nph aniso 9418.8 9418.8 ${pressureDamp}
fix             2 all nph aniso 9418.8 9418.8 1000
fix             3 all temp/csvr ${temperature} ${temperature} ${tempDamp} ${seed}
fix             3 all temp/csvr 136.92 ${temperature} ${tempDamp} ${seed}
fix             3 all temp/csvr 136.92 136.92 ${tempDamp} ${seed}
fix             3 all temp/csvr 136.92 136.92 100 ${seed}
fix             3 all temp/csvr 136.92 136.92 100 745823


run             250000
PPPM initialization ...
  extracting TIP4P info from pair style
  using 12-bit tables for long-range coulomb (../kspace.cpp:340)
  G vector (1/distance) = 0.37279424
  grid = 24 24 24
  stencil order = 5
  estimated absolute RMS force accuracy = 0.0034321062
  estimated relative force accuracy = 1.0335686e-05
  using double precision FFTW3
  3d grid and FFT values/proc = 2197 216
Last active /omp style is kspace_style pppm/tip4p/omp
Neighbor list info ...
  update every 1 steps, delay 7 steps, check yes
  max neighbors/atom: 2000, page size: 100000
  master list distance cutoff = 10.8154
  ghost atom cutoff = 10.8154
  binsize = 5.4077, bins = 4 4 4
  1 neighbor lists, perpetual/occasional/extra = 1 0 0
  (1) pair lj/cut/tip4p/long/omp, perpetual
      attributes: half, newton on, omp
      pair build: half/bin/newton/omp
      stencil: half/bin/3d
      bin: standard
Setting up Verlet run ...
  Unit style    : real
  Current step  : 29750000
  Time step     : 2
  Walltime left : 2:54:59.89
Per MPI rank memory allocation (min/avg/max) = 9.226 | 9.228 | 9.230 Mbytes
Step Temp PotEng TotEng E_pair E_mol Press Lx Ly Lz Volume Pxx Pyy Pzz Pxy Pxz Pyz Enthalpy 
29750000    144.99887   -4945.3762   -4665.7337   -4945.3762            0    9465.2221     19.84119     19.60982    20.211865    7864.0762    10517.782       8080.9    9796.9841   -335.04766    314.87542   -601.65305   -3580.1722 
29751000    133.89507   -4960.3571   -4702.1293   -4960.3571            0    7978.3169    19.976699    19.426023    20.482302    7948.5223    6826.6216    9670.9889    7437.3403    184.55258    398.73277   -260.60916   -3777.2744 
29752000    141.20065   -4960.3283   -4688.0109   -4960.3283            0    8959.2429    19.829502     19.50041    20.385999     7882.928    9633.7188    8084.7425    9159.2676   -111.79375   -398.57473    944.46713   -3658.0168 
29753000    142.63689   -4966.6142   -4691.5269   -4966.6142            0    10152.431     19.76327    19.519654    20.354332    7852.1354     11486.26    8751.5403    10219.493    42.906376    1439.4375     736.0255   -3528.9178 
29754000    133.97167   -4974.1112   -4715.7356   -4974.1112            0    8299.1177      19.7673    19.654494     20.40657    7928.2846    9198.2821      7453.25    8245.8211    986.44727   -45.832441   -785.66046   -3756.1426 
29755000    135.08818   -4953.0282   -4692.4993   -4953.0282            0    9092.1448    19.746434    19.514836    20.529779    7911.1182    7895.8972     11534.37     7846.167    5.0345751    96.554341   -1012.1237   -3643.4881 
29756000     135.9901   -4949.4325   -4687.1641   -4949.4325            0    9544.3086    19.747123    19.690688    20.403454    7933.5653    8715.0102    9564.6164    10353.299    71.107908    269.05016    704.28095   -3582.8598 
29757000    141.75079   -4958.4858   -4685.1074   -4958.4858            0    10391.378    19.742236    19.474209    20.400659    7843.3278    12694.777    9458.0153    9021.3407   -416.35215   -466.78181   -1182.7652   -3496.4701 
29758000    136.42206   -4947.4414     -4684.34   -4947.4414            0    9108.5876    19.595282    19.610976    20.448262    7857.9118    9894.2597    8420.8274    9010.6758    720.76726    175.41095    -929.1941   -3640.4996 
29759000    148.27371   -4954.8365   -4668.8781   -4954.8365            0    9447.8138    19.659266    19.430967    20.509416    7834.5674    9214.3813    9294.3517    9834.7085    23.755655    719.64375   -597.56551   -3589.3792 
29760000      140.683    -4957.907    -4686.588    -4957.907            0    8933.2177    19.855449    19.433166    20.493782    7907.6127    9366.2755    9069.6474    8363.7303    7.8724735    865.15607    212.41991   -3656.3699 
29761000    138.05001   -4957.2096   -4690.9685   -4957.2096            0    9015.9333    19.875338    19.461133    20.310181    7855.9088    7582.6711    9088.0037    10377.125   -725.18389    952.20811    -1116.939   -3658.0097 
29762000    144.30255   -4951.9535   -4673.6539   -4951.9535            0     8215.375    19.833984    19.511058    20.483906    7926.9031    8202.4465    7171.6505    9272.0279   -372.51969    587.46042    1058.7646   -3723.9093 
29763000    138.60802   -4937.9388   -4670.6216   -4937.9388            0    9997.4247    19.802511     19.72212    20.203678    7890.4959    9932.5254    10076.684    9983.0642    154.20811   -166.01108   -831.60436     -3520.17 
29764000    136.03337   -4961.6369   -4699.2851   -4961.6369            0     10052.62    19.781224     19.67236    20.343754    7916.6367    8352.3758    11310.444    10495.041   -93.867205   -1002.2277    253.98434   -3538.6495 
29765000    133.96929   -4955.0256   -4696.6545   -4955.0256            0    8810.2455    19.835253    19.433652    20.486994    7897.1503    7999.0705    8715.8645    9715.8014   -160.79323    875.63583   -1220.8255   -3681.9624 
29766000    136.24837   -4950.1094    -4687.343   -4950.1094            0    9769.5917    19.790396     19.49972    20.331504    7846.0736    9846.4707    9597.0341    9865.2704    181.14573    12.062272    95.713793   -3569.4385 
29767000    138.37356   -4950.3671   -4683.5021   -4950.3671            0    10720.812    19.412768    19.602414    20.517848    7807.8029    10994.286    11559.493    9608.6561   -699.34349    2159.9134    621.74569   -3462.7361 
29768000    135.29166   -4959.6063   -4698.6849   -4959.6063            0    10035.017    19.742463    19.611324    20.278044    7851.1689    8582.1294    10577.608    10945.314   -24.231982   -586.24904    938.28456    -3549.663 
29769000    136.25832   -4961.6859   -4698.9002   -4961.6859            0    9190.6993    19.777249    19.726885    20.325541    7929.8779    9679.3024    8407.7245    9485.0708   -479.40635    203.97485   -1039.5408   -3636.0038 
29770000    129.28044   -4949.9313   -4700.6031   -4949.9313            0    9003.7034    19.688874    19.727578    20.400105    7923.6822    9074.6504    9231.1907    8705.2691    177.03617   -214.75932   -581.98444   -3660.1461 
29771000    128.70648     -4957.12   -4708.8987     -4957.12            0     9711.717     19.51283    19.755577    20.457471    7886.0935    11016.659    7993.8733    10124.618   -392.18694   -556.43766    737.80137   -3591.9485 
29772000    132.11089   -4939.8788   -4685.0918   -4939.8788            0    11240.071    19.509858    19.773229    20.348178    7849.7757    12659.162    9005.9318     12055.12     170.9381   -76.074024    679.04131   -3398.3181 
29773000     134.4791   -4968.7631   -4709.4089   -4968.7631            0     8806.009    19.582367    19.632773    20.652062    7939.8123    8507.0679    9506.1866    8404.7725   -129.58172   -1025.6731    -1054.462   -3689.7257 
29774000    143.13774   -4947.4283   -4671.3751   -4947.4283            0    9460.5293    19.605177    19.784774    20.407706    7915.8228    9030.5551    10294.348    9056.6849   -394.17043    -548.9071    1726.8847   -3579.2123 
29775000     140.7126   -4949.3115   -4677.9354   -4949.3115            0    9397.9305    19.657931    19.614542    20.493606    7901.9516    9342.3774    9480.7485    9370.6655    178.28481   -794.36981    1014.2828   -3594.9005 
29776000    141.71125   -4956.3361    -4683.034   -4956.3361            0    8254.9562    19.627341    19.682691    20.565305     7944.766    8726.1904    7367.4629    8671.2154   -656.41446    1201.0641   -1033.1979   -3726.5631 
29777000    143.20483   -4953.8604   -4677.6778   -4953.8604            0    7505.7152    19.541661    19.727219    20.568157    7929.0783    7562.2517    8342.5224    6612.3714   -115.58207     66.78843   -946.06712   -3809.7359 
29778000    138.42453   -4965.7183   -4698.7549   -4965.7183            0    9230.4659    19.553894    19.672348    20.432899    7859.9442    8499.2304    10056.237    9135.9308   -242.48554    511.86523   -149.27652   -3640.6738 
29779000    146.55967   -4967.8893   -4685.2366   -4967.8893            0    10751.715    19.712978    19.654629    20.294224    7863.0228    10823.152    10854.248    10577.745   -249.68992   -181.01185    -609.6886   -3452.2931 
29780000    139.43712   -4946.1913   -4677.2751   -4946.1913            0    9462.6205    19.656042    19.519262    20.479902    7857.5535    9941.1351    9562.6654    8884.0608    469.18998   -30.110018    -113.2726   -3592.9122 
29781000     137.6464   -4950.3753   -4684.9126   -4950.3753            0    7475.8155    19.642776    19.786023    20.429358    7939.9198    7681.1954    7110.7378    7635.5134   -67.501985    1268.9916    571.80479   -3819.2462 
29782000    139.29574   -4952.3763   -4683.7327   -4952.3763            0     9062.317    19.634025    19.726703    20.348416    7881.2382    8446.6332    9942.5813    8797.7364    549.21935    766.42239    822.30441    -3642.112 
29783000    133.90967   -4953.0902   -4694.8342   -4953.0902            0    9053.2242    19.703375    19.660482    20.460949    7926.1183    8321.9317    9242.6041    9595.1369   -21.624265   -64.954702    513.13085    -3648.333 
29784000    134.13804   -4970.6663   -4711.9698   -4970.6663            0    7256.6708     19.63758    19.724097    20.504348    7942.0214    7297.1145    7706.6747    6766.2233     398.3886    233.70347    377.64516    -3871.457 
29785000    135.97446   -4977.6653   -4715.4272   -4977.6653            0    9272.2362    19.664581    19.499767    20.525214    7870.4906    6255.7347    13045.552    8515.4223   -420.10037   -1046.8888    41.830282   -3651.1318 
29786000     126.3092   -4954.4866   -4710.8887   -4954.4866            0    8422.7733    19.734194    19.740181    20.344555    7925.3546    6736.0555     9382.691    9149.5736   -241.76657   -43.384341   -38.804947   -3737.3579 
29787000    132.90809   -4950.4288   -4694.1044   -4950.4288            0    8587.0163    19.751861    19.586639    20.462201    7916.2646    7274.0703    9668.6967     8818.282    65.395363    907.11656    687.05586   -3702.7282 
29788000    140.68568   -4961.3986   -4690.0745   -4961.3986            0    8691.9142    19.710124    19.721105    20.360082    7914.0745    8011.6043    8313.9617    9750.1766   -69.089603   -139.14463    491.45468   -3686.8654 
29789000    132.56801   -4956.0193   -4700.3507   -4956.0193            0    9461.1948    19.763064    19.738245     20.19033    7876.0096    9336.7105    9010.1018    10036.772   -443.48511    769.70784    699.95657   -3613.6045 
29790000    129.80831   -4947.0395   -4696.6933   -4947.0395            0    9252.0916    19.703066     19.76903    20.286998    7901.9987    6749.4229    11356.957    9649.8951   -649.56815     1149.879   -474.71588   -3630.4587 
29791000    137.71587     -4957.68   -4692.0833     -4957.68            0    8899.1624    19.709745     19.66652    20.401813    7908.1934    7620.3906    9811.6449    9265.4517   -146.72432   -273.26638   -652.77728   -3665.7172 
29792000    137.93379   -4962.7191   -4696.7022   -4962.7191            0    8485.5315    19.628977    19.604251    20.484213    7882.5586    6117.9591    10881.858    8456.7771   -256.57596   -1428.3527     1261.999   -3721.2137 
29793000    134.19344   -4946.5441   -4687.7408   -4946.5441            0    8642.0414     19.74837     19.79609    20.309783    7939.9171    9030.2278    9187.1989    7708.6974    36.684454    570.83683    456.52848   -3687.0309 
29794000    130.81774   -4964.1204   -4711.8274   -4964.1204            0    8960.1663    19.705709    19.722941    20.347706    7908.2283     9927.824    8156.2869     8796.388    170.31841    465.22089    74.973201    -3678.421 
29795000    130.33361   -4964.2721   -4712.9127   -4964.2721            0    8891.3356    19.524967    19.700539    20.469022    7873.4582    9505.4083    8566.3758    8602.2227   -537.05626    663.23957   -702.19827   -3691.9535 
29796000    131.76732   -4957.9034    -4703.779   -4957.9034            0    9075.7837    19.757185    19.526895    20.493809    7906.4394    8776.7624    9670.9781    8779.6107    219.45307    1040.6953   -783.49496   -3657.2748 
29797000    137.11222    -4951.836   -4687.4036    -4951.836            0    11315.457     19.78962     19.48015     20.37752    7855.6314    10835.557    12241.518    10869.297   -410.78619    13.868929    -285.4353   -3391.0332 
29798000    128.45148   -4961.0284   -4713.2989   -4961.0284            0    8734.7713       19.782    19.456289     20.58216    7921.7504    8331.1575    8933.3125    8939.8439    41.762796   -630.99177    131.02702   -3704.1655 
29799000    134.44761   -4947.9071   -4688.6136   -4947.9071            0     10308.68    19.847904    19.511291     20.32539    7871.1745     12615.98    8294.4438    10015.616    522.24152    257.89872    107.26193   -3505.2492 
29800000    134.36625   -4958.0091   -4698.8725   -4958.0091            0    8824.7937    19.876866    19.547126    20.219178    7855.8708    8467.1628    7223.5982     10783.62   -472.13538    396.55995    1139.8545   -3687.8175 
29801000    144.86552   -4934.7527   -4655.3674   -4934.7527            0    9530.9368    19.884997    19.528384    20.323419    7892.0281    8248.2246    11162.178    9182.4078    -328.0646    152.79584   -589.46272   -3558.3838 
29802000    132.47789   -4962.4955   -4707.0008   -4962.4955            0    8768.2015    19.912419    19.328435    20.555357    7911.2614    7898.5021    10482.136    7923.9662    190.56474    -188.7386    593.76551   -3695.3464 
29803000    135.55344   -4977.2685   -4715.8423   -4977.2685            0    8826.3854    19.699702    19.516085    20.563733    7905.9546    9131.9613    8652.6127    8694.5822    123.63175    742.16255    623.56274   -3698.1579 
29804000    141.49251   -4952.3549   -4679.4747   -4952.3549            0    9055.6435    19.810807    19.592735    20.358348      7902.05    8783.9707    8632.8073    9750.1524   -2.4464153    1472.9197   -702.17972   -3635.8725 
29805000    135.43686    -4951.726   -4690.5246    -4951.726            0    8510.3123    19.792514    19.763769    20.262726    7926.2655    9083.5185    7622.9837    8824.4349    660.64086    180.59232   -597.76449   -3706.7627 
29806000    141.52194   -4948.3574   -4675.4204   -4948.3574            0    8702.4635    19.767814    19.711158     20.36096    7933.5772    8106.6164    7755.7741        10245    58.413189   -3.3413685   -1241.3728   -3668.5185 
29807000    133.09902   -4964.7442   -4708.0516   -4964.7442            0    8802.1307    19.707481     19.54459    20.430477    7869.3015     8458.837    8714.5105    9233.0445    5.8965413    731.81014   -534.90025    -3697.869 
29808000    137.72693   -4962.1476   -4696.5296   -4962.1476            0    8685.9865    19.889769    19.629207    20.262971    7911.0768     8669.049    7244.6278    10144.283    409.66519    817.33844    227.64683   -3694.3844 
29809000    135.05157   -4958.1608   -4697.7025   -4958.1608            0    9395.1448    19.854223     19.60349    20.308049    7904.1376     9585.807    8756.8559    9842.7714    184.86019   -1272.9676   -137.90488   -3614.6891 
29810000    133.63675   -4943.7638   -4686.0341   -4943.7638            0    10159.173     19.72579    19.558741    20.321532    7840.2832    10972.387    9144.1805    10360.953    475.77889   -488.16208    1514.6931   -3524.4089 
29811000    138.01071   -4952.3774   -4686.2121   -4952.3774            0    9128.1593     19.78236    19.685795    20.246617    7884.6703    9537.8339    7861.3483    9985.2958   -238.20832    278.82489    746.40248   -3636.5667 
29812000    145.54079   -4954.4341   -4673.7464   -4954.4341            0    9090.9664    19.752081     19.70487    20.368813      7927.79    9080.1739    8580.8726    9611.8527    -177.7721   -1276.4008    192.70305   -3622.6608 
29813000    138.67582   -4949.4418   -4681.9938   -4949.4418            0    8656.0223    19.830317    19.667953    20.320932     7925.605    7707.4918    8522.5501    9738.0249   -200.20132     1139.046   -256.57662   -3681.4717 
29814000    133.96079   -4945.2634   -4686.9088   -4945.2634            0    10328.932    19.680334    19.599243     20.34218    7846.3783     8950.578    10875.278     11160.94    276.81299    894.99449    273.21964   -3504.9548 
29815000    134.09776   -4948.0891   -4689.4703   -4948.0891            0     11073.11    19.678397    19.539927    20.370233     7832.649    10510.036    11291.836    11417.457    266.81152     288.6806    627.96452   -3424.5762 
29816000    139.48008   -4936.7798   -4667.7807   -4936.7798            0    9630.1461    19.606064     19.59489     20.50824    7878.8283    9813.3622    10190.164    8886.9122    700.01933    -1648.601    483.33345   -3561.2324 
29817000     130.2406   -4950.1891   -4699.0091   -4950.1891            0    9970.2206    19.762145    19.536122    20.393168     7873.306    10191.936    10941.054    8777.6714   -134.22106   -631.98572   -124.14566   -3554.1876 
29818000    143.77707   -4967.4222   -4690.1361   -4967.4222            0    10087.824    19.700865    19.647469    20.296039    7856.0313    11395.217    9549.4027    9318.8511   -77.992772     491.1555    976.89201   -3534.3523 
29819000    136.38875   -4965.5832    -4702.546   -4965.5832            0    10927.807     19.67475    19.412916    20.460023    7814.5885    12095.429    10437.267    10250.726   -243.76429   -53.718283   -275.57424   -3457.1284 
29820000    136.06379   -4948.2879   -4685.8775   -4948.2879            0    10041.558    19.832461    19.325592    20.591331    7892.1225    10188.111    10732.342    9204.2224   -12.032518   -2.7224907    272.24736   -3530.1091 
29821000     141.0938   -4953.2046   -4681.0933   -4953.2046            0    9745.9525    19.827815    19.486942    20.324737    7853.1429    7722.4084    10956.409     10559.04    124.15862    581.85199   -1790.5547   -3564.8891 
29822000    143.35492   -4937.1816   -4660.7096   -4937.1816            0     9116.244     19.82011    19.561863    20.338135    7885.4663    9001.6983    10281.763     8065.271    421.35353   -77.575583    606.89678   -3612.3284 
29823000    131.94947   -4968.5415   -4714.0658   -4968.5415            0    8973.0949    19.850366    19.640626    20.257759    7897.9656    7423.2563     10597.89    8898.1383   -336.21442    424.81494    286.70838   -3680.5113 
29824000    133.59673   -4962.3498   -4704.6972   -4962.3498            0    8858.1028    19.690955    19.392693    20.618341    7873.3329    9999.7841    8958.4428    7616.0816   -125.30292    704.03062    883.81845   -3687.5702 
29825000     137.8128   -4961.5322   -4695.7486   -4961.5322            0    9903.7161    19.780011    19.514953     20.41305    7879.5592    8802.3352    10702.945    10205.869   -340.04408    520.94284   -775.88755   -3557.6602 
29826000    136.19213   -4960.8133   -4698.1553   -4960.8133            0    8660.7568    19.759314    19.484034    20.544784    7909.5601    9727.2279    8212.9161    8042.1266    149.63736    180.99872    175.14242   -3699.1125 
29827000    133.69214   -4973.7149   -4715.8783   -4973.7149            0    8813.9674    19.812388    19.525099    20.425322    7901.3078    8757.6633    7705.9239     9978.315   -664.90089   -597.54418     400.2604   -3700.2231 
29828000    141.77642   -4953.5831   -4680.1553   -4953.5831            0    8555.4224    19.832287    19.627354    20.423378    7949.9082     8031.607    8465.9462    9168.7139   -722.92435   -263.23523    35.858575   -3688.2289 
29829000    137.55682   -4971.9684   -4706.6785   -4971.9684            0    8810.0075    19.729696    19.586201    20.454184    7904.1061    9461.2284    8263.0153    8705.7787    305.46553    53.967404    494.17071   -3691.1201 
29830000    140.15867   -4951.6563   -4681.3485   -4951.6563            0    8993.7899    19.758297    19.494323    20.538441    7910.8861    8800.6181    9165.7755     9014.976     541.0338    -1215.979   -981.01833   -3643.7155 
29831000    140.09158   -4952.6452   -4682.4668   -4952.6452            0    11048.118    19.765925     19.59144    20.310266    7865.0068    11065.733    10522.453    11556.167   -181.78755    1111.5554   -1505.6579   -3415.2139 
29832000    132.91654   -4955.9414   -4699.6006   -4955.9414            0    9121.7731    19.829926    19.478723    20.350004     7860.426    9887.5226    8589.9598    8887.8367   -151.76062    128.02948   -765.10536   -3653.9148 
29833000    137.43137    -4943.433    -4678.385    -4943.433            0    10676.097    19.686098    19.441881    20.453244    7828.1676    11278.525    10529.037    10220.729   -270.54145   -364.14426   -91.125279   -3459.5399 
29834000    141.83122   -4938.4589   -4664.9255   -4938.4589            0    8874.1028    19.674416    19.578497    20.414812     7863.694    7818.6698    8963.6321    9840.0066    147.65565   -207.05909   -346.55583   -3647.2087 
29835000    147.31487   -4990.7664   -4706.6573   -4990.7664            0    9392.7505    19.715568    19.617052    20.413843    7895.2846    8054.4024    10794.497    9329.3524   -139.60629    1590.4263   -781.36787   -3625.1326 
29836000    128.10235   -4942.7922    -4695.736   -4942.7922            0    9204.8613    19.741398    19.538666    20.373776    7858.5847    8924.5486    9280.7437    9409.2915    -560.9161   -702.35134    436.30968   -3640.7724 
29837000    138.53666   -4964.6046    -4697.425   -4964.6046            0    9218.0879    19.785218    19.586706    20.319935    7874.5285    6863.1695    10549.433    10241.662    73.618047   -934.68518   -531.32251   -3638.8021 
29838000     136.6663   -4952.5456   -4688.9732   -4952.5456            0    9025.1345    19.680423    19.546654    20.514862    7891.7884    9468.7997    9019.3648     8587.239   -325.88236   -366.87122   -23.769978   -3650.2376 
29839000    133.45603   -4968.0551   -4710.6739   -4968.0551            0    10088.063     19.64948    19.385106    20.542572    7824.8143    11602.025    9495.8188     9166.347    364.13437    1018.0214   -1471.2078   -3559.4555 
29840000    133.06403   -4958.6114   -4701.9862   -4958.6114            0    7976.2756     19.84749    19.686902    20.309177    7935.5182     6719.294    8646.1447     8563.388    1025.5276   -299.28815   -76.195431   -3778.8807 
29841000    130.96198    -4950.399   -4697.8278    -4950.399            0     10230.95    19.746827    19.716792    20.241237    7880.8058    10308.252    9492.2587     10892.34   -430.70299   -1411.2428    321.77877   -3521.9492 
29842000    139.20656   -4964.0047   -4695.5332   -4964.0047            0    10135.529    19.742954    19.623068    20.321031    7872.7198    9732.1473    11384.567    9289.8725   -364.11177    725.22676   -516.77499   -3531.8169 
29843000    144.88434   -4959.3615   -4679.9399   -4959.3615            0    8989.2521    19.664954    19.721651     20.30198    7873.6227    8021.7907    9526.8562    9419.1094   -412.33269     307.0657    323.50915   -3647.7156 
29844000    131.86911   -4944.8144   -4690.4937   -4944.8144            0    10195.251    19.616329    19.685088     20.38518    7871.7201    9011.9789    11295.152    10278.624    278.20563    117.45644    436.65019   -3520.0691 
29845000    132.67847   -4971.7522   -4715.8706   -4971.7522            0    9339.1171    19.482478    19.766251    20.493447    7891.9352    10258.757    8409.1252     9349.469   -352.30242   -880.76143    70.020967   -3640.9776 
29846000    139.70084   -4957.8881   -4688.4633   -4957.8881            0    8290.5385    19.584871    19.728876    20.456728    7904.2241    8521.0121    8614.5342    7736.0692    156.19973   -418.49414    531.65247   -3732.7715 
29847000    140.19916   -4965.5115   -4695.1256   -4965.5115            0    8944.8348     19.70616    19.661643    20.445228    7921.6157    8278.0547    9974.9796    8581.4699   -146.60017    349.38524   -910.56625    -3661.741 
29848000    134.76359   -4954.2378   -4694.3349   -4954.2378            0     10486.08    19.660816    19.713222    20.327467    7878.4797    11476.395    9659.4621    10322.383   -412.47393    247.80302    784.67783    -3489.489 
29849000    137.19997   -4963.9978   -4699.3961   -4963.9978            0    8973.1383    19.699471    19.682531    20.375763    7900.4055    7907.1517     10736.08    8276.1833   -109.27268    238.28438   -131.75161   -3665.5173 
29850000    130.51465   -4947.8903   -4696.1818   -4947.8903            0    9379.9531    19.465373    19.760412    20.493759    7882.7968    10384.117    8458.6158    9297.1266   -34.458541   -152.24393    267.97816   -3617.8389 
29851000    132.38708   -4973.3313   -4718.0117   -4973.3313            0    9810.4293     19.61796    19.805781    20.339812    7903.0136    10761.232    8822.7876    9847.2678   -462.03712     442.0767     418.4168   -3587.2876 
29852000    134.11368   -4948.4763   -4689.8268   -4948.4763            0    8933.7917    19.574283    19.592851    20.591717    7897.2532    8806.6776      10114.1    7880.5978    191.11763    412.92424    464.30577   -3660.8922 
29853000    144.09799   -4964.9191    -4687.014   -4964.9191            0    8046.1268    19.742005    19.730322    20.327599    7917.9274    9534.5579    6401.8194    8202.0032     559.5282   -237.72272    107.83646   -3757.8887 
29854000    137.32638   -4946.1772   -4681.3318   -4946.1772            0    10375.129    19.614735     19.49523    20.557202    7860.9458    9513.6604    12461.444    9150.2838    237.14476   -1119.3384    544.40189   -3491.8872 
29855000    149.17624   -4959.3215   -4671.6225   -4959.3215            0    7897.1353    19.561345     19.67829    20.516045    7897.3195    6779.1134     9517.878    7394.4144    255.61586   -224.99509     549.9716   -3762.0755 
29856000    134.90414   -4969.6443   -4709.4704   -4969.6443            0    8861.4033    19.658833    19.717019    20.357005    7890.6518      8642.38    9234.4497    8707.3803    623.76455    201.24495   -829.03368   -3689.7261 
29857000     141.9308   -4965.5584    -4691.833   -4965.5584            0    8756.9402    19.638663    19.784515    20.294303    7885.1774    8701.0887    8556.8881    9012.8437   -71.761378    983.75915    909.73986   -3684.8091 
29858000    135.86901   -4946.9315   -4684.8966   -4946.9315            0    9525.7244     19.78071    19.725082    20.276101    7911.2508    9505.5658    9307.9164    9763.6911   -367.35638    890.55696    960.91637   -3585.8426 
29859000    131.15016   -4949.5475   -4696.6134   -4949.5475            0    8607.6135    19.610796    19.750606    20.408329    7904.6581    8897.0701    7943.9034    8981.8669   -315.81797    628.45689    1585.2102   -3704.3163 
29860000     144.5411   -4960.5378   -4681.7782   -4960.5378            0    8541.3567    19.636625    19.715571    20.455605    7919.3318    7603.6919    9573.4282      8446.95    312.06733    181.31559   -481.91649   -3695.2913 
29861000    145.02414   -4953.8278   -4674.1366   -4953.8278            0    9768.1043     19.56734    19.679725    20.430547    7867.3924    11215.051    8867.7195    9221.5428   -326.18885    513.73026    432.57857   -3553.3653 
29862000    138.42053   -4956.3877    -4689.432   -4956.3877            0    9742.2314    19.749062    19.677252    20.349689    7908.0371    10124.956    9615.4282    9486.3102   -570.42588    246.00153   -336.11009   -3565.8546 
29863000    130.63769    -4958.961   -4707.0152    -4958.961            0    7823.0175    19.630008    19.723818    20.386305    7893.1432     7855.641     7960.257    7653.1544    70.461569   -220.00442   -282.87346   -3806.4811 
29864000    139.18165   -4954.5694   -4686.1459   -4954.5694            0    9043.5757    19.666997     19.64056    20.409208     7883.482    10253.824    8628.9737    8247.9297   -587.93143    1156.1233   -56.553694   -3646.3834 
29865000    140.26026   -4964.1348   -4693.6311   -4964.1348            0    10126.072    19.792992    19.614657    20.300675    7881.3866    7879.2412    11492.127    11006.848   -23.158433    233.07361   -1204.7608   -3529.7208 
29866000    132.62657   -4955.9823   -4700.2008   -4955.9823            0    11396.823    19.934214    19.577377    20.097304    7843.1663     10720.47    11951.854    11518.146     613.8177    671.26091    116.64999   -3396.5805 
29867000    130.62564     -4955.95   -4704.0275     -4955.95            0    9496.9653    19.579745    19.633127     20.37382    7831.9332    10268.888    9503.7758    8718.2325     104.2843    379.26384   -366.13744   -3619.2773 
29868000    135.67065   -4964.3244   -4702.6722   -4964.3244            0    9001.8262    19.740158    19.878962    20.137256    7902.1382     9788.081    7132.4015    10084.996   -137.85278    279.44621    530.98246   -3665.2605 
29869000    132.59922   -4964.2044   -4708.4757   -4964.2044            0    9168.6569    19.767054    19.651435    20.331608     7897.833    8121.1944     9776.752    9608.0241    268.37791   -484.62389    551.65163   -3652.4134 
29870000    137.23992   -4950.1685   -4685.4898   -4950.1685            0     9872.328    19.644188    19.705814    20.289118    7854.0134    8303.9833    10452.894    10860.107   -895.44629    227.84693    1066.6412   -3554.6864 
29871000    130.78963   -4966.8055   -4714.5667   -4966.8055            0    9207.7797    19.704383    19.760024    20.319707    7911.6627    9066.4308    9973.9705    8582.9376   -455.57795   -793.12465    128.52725    -3652.141 
29872000      142.131   -4950.3283   -4676.2167   -4950.3283            0    9369.3301    19.590546    19.647143    20.529587    7901.8024    9929.5826    8943.8405    9234.5671   -72.721525    681.52571   -1002.4211   -3596.4981 
29873000    134.85363   -4955.9157   -4695.8391   -4955.9157            0    9089.6406    19.704434    19.829407    20.201826    7893.4042    7824.3098    9698.8551     9745.757   -365.29334   -561.62862   -295.34743   -3649.4651 
29874000    135.16454   -4959.0086   -4698.3324   -4959.0086            0    7067.6672    19.828658    19.647266    20.387293    7942.4598    6177.2492    8047.5742    6978.1783    290.16273    1095.6496    -536.3286   -3879.6659 
29875000    140.71258   -4949.9553   -4678.5793   -4949.9553            0    9797.4228    19.705703    19.616697    20.434025    7898.9933    9474.1208     10730.52    9187.6275   -350.51247    1107.1231    281.15218   -3549.9287 
29876000     129.5719   -4952.1088   -4702.2185   -4952.1088            0    9529.7141    19.766709    19.463239    20.348306    7828.4851    9700.9261    9386.2785    9501.9376   -82.156949    645.01726   -182.03403    -3614.207 
29877000    133.94414   -4955.5835    -4697.261   -4955.5835            0    8376.5265    19.736031    19.516991    20.471887    7885.5241    9392.7583    7473.6987    8263.1226   -142.29305   -31.379273   -84.941294   -3733.9413 
29878000    130.87135   -4961.2222   -4708.8257   -4961.2222            0     8325.186    19.886554    19.718443    20.255467    7942.8143    8268.6713    8084.7749    8622.1117    2.2431666    30.394046    691.33782   -3744.4545 
29879000    140.28886   -4937.7744   -4667.2156   -4937.7744            0    8797.4504    19.700696     19.68001    20.308316    7873.7352    9746.8264    8020.6058    8624.9191    96.953626   -118.79376   -136.92646   -3657.0012 
29880000    133.26533   -4967.7772   -4710.7638   -4967.7772            0    9049.6119    19.629074    19.517198    20.511583    7858.0802    9608.1537    9013.8069    8526.8752     181.4731   -143.28437   -35.709624   -3673.6598 
29881000    123.14914   -4957.3427   -4719.8393   -4957.3427            0    7520.6641    19.841705    19.641872    20.349022    7930.5882    7105.7232    7263.4255    8192.8436   -972.73372   -437.23522   -1058.9319   -3850.0031 
29882000    144.54807   -4951.9725   -4673.1994   -4951.9725            0    9156.6402      19.8088    19.498603    20.405032    7881.3196    8555.8518    9650.4362    9263.6327    1131.2419   -456.75824   -280.17189   -3620.7263 
29883000    142.58607   -4951.5642   -4676.5749   -4951.5642            0    9709.2869    19.785421     19.55536    20.389225    7888.8159    8563.2509    10199.986    10364.624   -65.624608    832.19629    64.753572   -3559.5187 
29884000    127.35261   -4947.0945   -4701.4843   -4947.0945            0     9197.069    19.760523    19.538766    20.419869    7884.0346    8781.4241    9803.4826    9006.3003     62.99172    106.15488   -916.29643   -3644.0002 
29885000    138.28788   -4961.7103   -4695.0105   -4961.7103            0    9996.8913    19.750284    19.463994    20.432322    7854.5813     9626.887    10366.113    9997.6735    549.93102    135.70362   -987.61814   -3549.8565 
29886000    140.30776   -4951.2762   -4680.6809   -4951.2762            0    10125.156    19.562755     19.46698    20.535594    7820.5242    8598.1026    11257.365    10520.002    219.55349    210.06407    158.59691    -3525.863 
29887000    133.16662   -4961.2947   -4704.4717   -4961.2947            0    8116.5615    19.717834    19.516109    20.495827    7887.1097    7807.2393    8343.3343    8199.1109    240.00028    263.72914   -387.70872   -3770.8609 
29888000    132.39264   -4953.2602   -4697.9298   -4953.2602            0    9630.2093     19.76394    19.537628    20.355204    7859.9688    8554.2612    9689.4438    10646.923    176.80803    378.21821    1466.5007    -3594.023 
29889000    124.72437    -4955.356   -4714.8146    -4955.356            0    10077.815    19.740935     19.62531    20.305079     7866.634    9851.2395    10365.506    10016.698   -98.190207    841.02693   -590.49426   -3558.6193 
29890000    139.56936   -4951.7044   -4682.5332   -4951.7044            0    9985.5552    19.814508    19.488056     20.39029    7873.6339    8842.2541    9779.3338    11335.078   -659.32392   -297.04966    493.42341   -3535.9031 
29891000    135.79177   -4954.2867   -4692.4008   -4954.2867            0    10141.064    19.756754    19.415562    20.472622    7853.0617     10760.42    10457.998    9204.7741    54.241107    238.02477   -457.91334   -3530.9564 
29892000    136.87334   -4960.4592   -4696.4874   -4960.4592            0    9191.5288    19.742323    19.508529    20.551888    7915.4298    8672.2478    10461.944    8440.3946   -55.964663   -96.711831    67.311509   -3635.4318 
29893000    133.60777   -4969.2463   -4711.5725   -4969.2463            0    7813.6056    19.818827    19.575985    20.498993     7953.057    7671.9938    8846.1565    6922.6665   -197.85346    974.66154    780.05364   -3805.2944 
29894000    133.19665   -4953.2965   -4696.4155   -4953.2965            0    7716.8687    19.859475    19.477445    20.483928    7923.4259    6846.5398    8787.3052     7516.761   -368.06309    172.14821   -521.08757   -3804.6925 
29895000    138.45743   -4963.4868     -4696.46   -4963.4868            0    9842.4281    19.779215    19.610663    20.326742    7884.4087     9793.677    9640.8351    10092.772   -199.61274   -191.31656    1060.3047   -3564.7184 
29896000    136.56288   -4959.5171   -4696.1441   -4959.5171            0    9861.4935    19.579499    19.531659    20.469497    7827.9468    10084.285     10370.56    9129.6356   -191.36352     252.7829    180.40648   -3570.3306 
29897000    133.96823    -4970.535    -4712.166    -4970.535            0    9191.4228    19.741127    19.547599    20.435947    7886.0611    8352.7763     10167.55    9053.9423    86.711718   -136.01013    1060.9305   -3655.0594 
29898000    133.46753      -4962.4   -4704.9967      -4962.4            0    9874.6951    19.604227    19.663898    20.455487    7885.4988    9628.0309    10816.492    9179.5622   -606.46418    105.60946    1196.8869   -3569.3878 
29899000    144.48349   -4960.6607   -4682.0122   -4960.6607            0    9576.6732    19.527357    19.692762    20.473941    7873.2045    11336.034    7988.3198    9405.6658   -620.33965    308.09217    610.65925   -3582.3935 
29900000    132.43807   -4950.7896   -4695.3717   -4950.7896            0    9560.3884    19.432552    19.819588    20.414796    7862.6601    10664.669    8235.0407    9781.4551    132.41584    515.98851   -158.39644   -3599.0931 
29901000    140.93169   -4946.3791   -4674.5805   -4946.3791            0     9717.573    19.703371    19.749019    20.315346    7905.1532    9404.4959    10036.242    9711.9809     168.0905    548.38091    574.83482   -3554.2556 
29902000    139.13814   -4953.0096     -4684.67   -4953.0096            0    9576.0028    19.671693    19.813171      20.2704    7900.5628    9536.3312     9115.165    10076.512   -662.34954   -359.15954    -220.6096   -3581.3076 
29903000    138.42315   -4966.6599   -4699.6992   -4966.6599            0     8185.144    19.532413    19.786322    20.443998    7901.0861    8263.2815    8824.6634    7467.4871   -297.60359   -361.14145    204.51444   -3756.5314 
29904000     136.3373   -4964.5362   -4701.5983   -4964.5362            0     9134.276    19.574855    19.848739    20.374088    7916.0706    10885.579    6817.0928    9700.1563   -553.48752   -174.28446    1131.9511   -3647.0665 
29905000    142.00139   -4976.7532   -4702.8915   -4976.7532            0     8704.491     19.68131    19.790739    20.306288    7909.4545    8252.4694    9028.7206    8832.2828   -515.05744    79.120152    488.49706   -3698.8173 
29906000    134.80023   -4967.6977   -4707.7241   -4967.6977            0     9563.203    19.660653    19.696991    20.367477    7887.4216    9603.8671    9703.4328    9382.3092      112.597    703.75793   -776.20433   -3607.6693 
29907000    137.82502   -4956.3959   -4690.5888   -4956.3959            0    10741.662    19.572882    19.624339    20.534641    7887.4556    12490.486    10765.426    8969.0746   -500.35052    1044.2652    521.19747   -3454.9705 
29908000    131.84743   -4967.9916   -4713.7128   -4967.9916            0    9055.9907    19.574717    19.753047    20.472053    7915.7299    9271.1769    8723.2089    9173.5864    -499.5102    643.09062    144.52262   -3668.2638 
29909000    133.40445   -4965.5817      -4708.3   -4965.5817            0    10358.883     19.51359    19.746154    20.514487    7904.6084    11628.208    9378.8068    10069.634    53.324672    454.41313    278.01274   -3514.1217 
29910000     137.6218   -4959.4192    -4694.004   -4959.4192            0    10215.393    19.661222    19.743981    20.357318    7902.5236    10579.685    9830.1323    10236.362   -135.14238   -88.834979    14.050919   -3516.6779 
29911000    135.86755   -4956.1072   -4694.0752   -4956.1072            0    10137.455    19.607066    19.754961    20.175807    7814.8329    10620.888     10274.12    9517.3565    81.312119   -61.358954   -163.48929   -3538.6961 
29912000    137.28267   -4953.6819   -4688.9207   -4953.6819            0     9426.925    19.645994    19.763326    20.244453    7860.3175    7780.5146    9682.7402     10817.52   -528.58005   -710.72299    1674.0545   -3608.2683 
29913000    138.18267   -4957.7018   -4691.2049   -4957.7018            0    9980.3904    19.679878    19.870752    20.188413    7894.7596    10967.794    8149.1098    10824.268     236.8403   -26.665466    802.49111    -3542.093 
29914000    135.63832   -4958.1253   -4696.5354   -4958.1253            0    10654.205    19.542182    19.817002    20.256185    7844.5613    11818.087    9642.5758    10501.953    259.08699   -725.46278    262.24136   -3477.6423 
29915000    139.63329   -4962.9966   -4693.7021   -4962.9966            0    9810.6125    19.563845    19.737904    20.385896    7871.9995    9108.2648    10222.721    10100.851    82.415471    375.71548    1668.0795   -3567.3944 
29916000    139.61082   -4956.6136   -4687.3623   -4956.6136            0    8841.8992    19.707238    19.687274    20.392312    7911.8459    8314.0353    9380.1733    8831.4888   -342.00213   -790.87456   -600.26115   -3667.1296 
29917000    133.57562   -4952.7773   -4695.1655   -4952.7773            0    9142.9878    19.776909    19.609641     20.37173    7900.5255    8619.9462    8594.5052    10214.512   -915.59378    327.53395   -307.65933   -3641.7007 
29918000    137.13683   -4938.2195   -4673.7396   -4938.2195            0    9796.4545    19.694718    19.598554     20.42527    7883.9092    8667.4307    10297.625    10424.308     78.41157   -1060.0617    1030.0064   -3547.3557 
29919000    150.15966    -4974.556   -4684.9605    -4974.556            0    8894.6995    19.751498    19.821023    20.227489    7918.9585    8752.9826    8250.5863    9680.5297   -681.38928   -999.57984   -148.11573   -3657.7126 
29920000    136.15448   -4948.2828   -4685.6974   -4948.2828            0    10025.177    19.651123      19.6692    20.314484     7851.992    9961.0674    9861.6993    10252.765   -387.47874   -850.56807   -93.521114   -3537.6818 
29921000     142.5182   -4961.8689   -4687.0105   -4961.8689            0    8075.7495    19.674001    19.640308    20.450567    7902.1692    7259.1276    8133.4031    8834.7176   -285.91132    668.50557   -1029.7667   -3756.3205 
29922000    136.59843   -4955.0349   -4691.5934   -4955.0349            0    10492.953    19.522698    19.602029    20.445702    7824.2531    10270.212    10248.524    10960.123    241.16048    90.612654    79.863409   -3494.2561 
29923000    130.09098   -4955.5378   -4704.6464   -4955.5378            0    10260.839    19.578505    19.688427    20.373006    7853.1819    10505.849    9526.4422    10750.225   -287.85609    64.682736   -560.89828   -3529.4664 
29924000    134.80103   -4957.9535   -4697.9784   -4957.9535            0    9751.0525     19.66978    19.603119    20.558741    7927.2247    9909.1449    10632.557    8711.4559   -529.81655    127.27839    86.123054   -3570.6549 
29925000    138.41759    -4965.039    -4698.089    -4965.039            0    9586.8043    19.596783    19.714471    20.420933    7889.4276    9885.9616    9457.8127    9416.6387    219.20623    1068.7999   -786.32091   -3595.0389 
29926000    138.63219   -4969.5564   -4702.1925   -4969.5564            0    11034.407     19.47185    19.632213    20.508022    7839.7149    12156.713    10791.811    10154.697   -382.12936   -513.19815    117.09669   -3440.5824 
29927000    133.83568   -4945.4411   -4687.3278   -4945.4411            0    10408.643    19.704248    19.639822    20.318208    7862.9009    10002.896    9829.8904    11393.142    167.16118   -374.58029    14.357767   -3493.7443 
29928000    134.11323   -4958.6133   -4699.9647   -4958.6133            0    9131.0484     19.74588    19.760935    20.301448    7921.5653    8688.8341    9555.7695    9148.5415    -295.5781   -63.601296    414.97801   -3645.0738 
29929000    136.27657   -4942.4589   -4679.6381   -4942.4589            0    9730.0003    19.748912    19.631306    20.356427    7892.1245    9466.2938    11051.849    8671.8587   -473.39893    522.88237    739.96505   -3559.7293 
29930000    140.06285   -4952.6445   -4682.5215   -4952.6445            0    9899.9004     19.70056    19.777025    20.224639     7879.893    9002.9401     10165.15    10531.611    -283.1912   -470.25179    363.58514   -3544.8234 
29931000    137.28504   -4963.7976   -4699.0319   -4963.7976            0    8813.8216    19.581904    19.850296     20.32068    7898.7823    9376.7133    8002.0399    9062.7116    36.240242   -336.96634   -1102.6264   -3683.7181 
29932000    135.09175   -4952.5911   -4692.0552   -4952.5911            0    9491.4716     19.58648    19.656131    20.450247    7873.2309    9767.5029    10551.132    8155.7803   -55.477043    -328.5301   -728.67175    -3602.216 
29933000     129.5575   -4961.7878   -4711.9253   -4961.7878            0    8658.6425    19.598388    19.748566    20.388792     7891.279    10413.863    7908.1439    7653.9203   -414.18657    876.92491    68.672939   -3715.4349 
29934000    130.75147   -4966.2835   -4714.1182   -4966.2835            0    9601.8469    19.610622    19.723156    20.504405    7930.7625    9950.3194    10076.708    8778.5137   -435.34142    774.86476    1610.5081   -3603.5491 
29935000    140.41242   -4955.7529   -4684.9558   -4955.7529            0     10375.01    19.695665    19.644724     20.43759    7907.6288    9664.9007    11992.344    9467.7842    201.85245    467.40427     858.4366   -3488.4613 
29936000    137.78545   -4946.7139    -4680.983   -4946.7139            0    9754.6297    19.658878    19.743724    20.348168    7897.9269    8680.5718    11153.438    9429.8795    169.29625   -614.60035    177.11786   -3557.4139 
29937000    130.72467   -4955.2894   -4703.1759   -4955.2894            0    9485.5931    19.576701    19.671386    20.548598    7913.2822    10256.141    8964.7973    9235.8409    460.89006    406.78203   -36.109325   -3608.4711 
29938000    141.23813   -4954.1983   -4681.8087   -4954.1983            0    11302.737    19.651576     19.61946    20.336875    7840.9497    12012.344    10441.355    11454.514    82.169864    639.59064   -505.53762   -3389.3157 
29939000    136.74274   -4974.2958   -4710.5759   -4974.2958            0    7996.3969    19.631871    19.627659    20.527177    7909.6892    7612.1535    8256.7638    8120.2734   -224.51373    343.15364    1634.0394   -3788.1539 
29940000    143.90232    -4944.066   -4666.5383    -4944.066            0    9541.4398    19.606801     19.71779    20.332543    7860.6181    8698.2982    9793.1678    10132.853    280.09915   -1056.5211    1007.0912   -3572.7166 
29941000    134.89443   -4953.5195   -4693.3643   -4953.5195            0    9200.2089    19.659121    19.706203    20.392066    7900.0217    7600.5534    10334.089    9665.9845    -348.4745    646.72304    632.54703   -3633.3741 
29942000    142.17172   -4966.5031    -4692.313   -4966.5031            0     6994.587    19.586794    19.792835    20.450022    7928.0274    6641.8045    7244.4511    7097.5052   -697.96971   -1059.5489    1144.4949   -3883.5838 
29943000    139.33555   -4959.5116   -4690.7913   -4959.5116            0    9811.5121    19.689451    19.794736    20.186491    7867.6343    8308.2114    11176.902    9949.4225    892.76216    30.787117    236.29586   -3565.0049 
29944000    139.47697   -4946.4115   -4677.4184   -4946.4115            0    10693.486    19.644745    19.735182    20.260337    7854.7828    9936.1259    10768.934    11375.399    377.95929    930.78369    1129.7403   -3452.4373 
29945000    138.12615   -4959.3321   -4692.9442   -4959.3321            0    9751.7982    19.550895    19.757951    20.479425    7910.9073    11617.352    7410.7793    10227.263    206.55318   -651.50436    322.68896   -3567.8552 
29946000     137.3329   -4966.3224   -4701.4644   -4966.3224            0    8757.6412    19.562228    19.703622    20.555841     7923.182     7685.329    10102.266    8485.3286   -477.82381   -265.21841   -747.48201    -3689.506 
29947000    137.07878   -4961.2795   -4696.9116   -4961.2795            0     8141.593    19.423449    19.825003    20.497825    7893.0966    9719.3759    6070.2851    8635.1181    366.01596   -236.03003    534.31732   -3759.7107 
29948000     133.1968   -4949.4726   -4692.5913   -4949.4726            0    8943.6266    19.427341    19.860575    20.489382    7905.5853     9280.902    8044.1826     9505.795   -124.42616    974.65499    390.39611   -3661.4372 
29949000    138.54394   -4953.4397   -4686.2461   -4953.4397            0    7861.1687    19.572044    19.711963    20.593931    7945.2087    8912.7752    7997.9457    6672.7851   -241.35241   -122.92497    615.42556   -3775.3511 
29950000    136.04016   -4966.3964   -4704.0315   -4966.3964            0     9740.413    19.679159    19.739644    20.292539     7882.831    9853.9847    9234.7697    10132.485   -681.23225    834.22882   -741.37809   -3584.2444 
29951000    134.44023    -4960.926   -4701.6467    -4960.926            0    9263.3761    19.744811    19.737103    20.241645    7888.2777    8202.0307     9987.171    9600.9267   -505.34444   -553.66843      719.574   -3635.9653 
29952000    134.89944   -4950.2242   -4690.0593   -4950.2242            0    9068.4732    19.410093    19.797214    20.461966    7862.8333    8228.5488    10072.875    8903.9956    87.488642    287.32845   -275.10919   -3650.1651 
29953000    130.74313    -4954.762   -4702.6128    -4954.762            0    10798.694    19.409706    19.824487     20.38163    7842.5956    11515.249    10652.878    10227.955    369.99404    702.33534   -889.00078   -3467.4991 
29954000    134.48394   -4966.0782   -4706.7147   -4966.0782            0    9729.0092    19.562114    19.815324    20.316221    7875.1689    10922.567    9237.4608    9026.9995   -645.77877   -831.39174    1055.7267   -3589.3257 
29955000    128.11182   -4961.4243   -4714.3499   -4961.4243            0    8438.2348    19.764797    19.637135    20.371963    7906.8477    8610.6658    8280.4978    8423.5408   -140.99183    68.395261   -1600.3438   -3741.3095 
29956000    132.95635   -4969.4323   -4713.0148   -4969.4323            0    9415.6643    19.572204    19.609289    20.581274    7899.0311    9798.8721    9262.0099    9186.1109     98.14323    566.21242   -470.69175   -3628.3371 
29957000    145.11126   -4967.7126   -4687.8533   -4967.7126            0    12268.462    19.555893    19.579961    20.429307    7822.4559    12727.332      12364.1    11713.955   -761.82333    -672.4053    1175.3761   -3288.2365 
29958000    137.57596     -4956.51   -4691.1832     -4956.51            0    10409.201    19.636539     19.73785    20.360159    7891.2532    11728.363    9232.7931    10266.448   -338.40836   -468.83564   -150.12424   -3493.2315 
29959000    141.13899   -4963.2006   -4691.0021   -4963.2006            0    9963.8005    19.763462    19.454269    20.430157    7855.0626    8105.9594    12401.743    9383.6988   -538.07801   -93.700467    532.73981   -3549.5688 
29960000     143.3846   -4949.8002   -4673.2709   -4949.8002            0    9822.6859    19.634897    19.723946    20.291458    7858.4282    10245.963    9717.4505    9504.6445    637.99087   -574.09884   -8.9204778   -3547.5213 
29961000    137.17515   -4964.4441   -4699.8903   -4964.4441            0    7946.1755    19.580284    19.926766    20.383331    7952.9997    7176.4995    8439.0521     8222.975    -672.0838    436.25395   -421.36841   -3778.2425 
29962000     132.8685    -4947.917   -4691.6689    -4947.917            0    9705.4035    19.746645    19.744208    20.244085    7892.8015    7150.5129    11819.539    10146.159   -123.87485   -683.51252    352.38584   -3574.4953 
29963000    147.65219   -4963.9561   -4679.1965   -4963.9561            0    9909.7999    19.400088    19.833932    20.440766    7865.1983    11710.246    8174.4497    9844.7037    108.47343   -915.35973   -774.82322   -3542.4845 
29964000    141.65171    -4963.424   -4690.2368    -4963.424            0    9886.3504     19.61202    19.897153    20.275067    7911.8047    10793.781    9211.8034    9653.4664   -840.69431   -820.13835   -502.35043   -3549.4947 
29965000     130.7392   -4968.3661   -4716.2246   -4968.3661            0    10435.658     19.45489    19.774907    20.480882     7879.377     10266.57     10480.08    10560.323    194.41731   -29.990379    227.35124   -3517.0357 
29966000    138.45268   -4966.4962   -4699.4785   -4966.4962            0     9351.195    19.489902    19.673763    20.530805     7872.326    10844.687    9258.5809    7950.3171    493.15518    41.292943    284.37903   -3625.8697 
29967000    133.81681   -4972.6166   -4714.5397   -4972.6166            0    9395.9638    19.642532    19.780419    20.281848    7880.2586    10298.715    8157.8458    9731.3306   -246.53035   -273.63455    1130.2867   -3634.7039 
29968000    137.26116   -4952.9629   -4688.2432   -4952.9629            0    8914.7436    19.647387    19.719091    20.413994    7908.9655    8338.1223    9675.6868    8730.4216   -333.88864    773.44966    568.23667   -3659.9797 
29969000    135.73113   -4954.8317   -4693.0628   -4954.8317            0    8801.2644    19.647427    19.743276    20.423117    7922.2203    9413.0304    7828.8297    9161.9331   -324.80362    144.40699   -386.31301   -3676.1871 
29970000    127.57497   -4950.3811   -4704.3421   -4950.3811            0     10190.08    19.656394    19.579643    20.397757    7850.3861      9638.39    11580.916    9350.9342   -347.49457    102.80678    906.11742   -3537.6815 
29971000    134.23237    -4952.674   -4693.7955    -4952.674            0    10188.977     19.61137    19.677437    20.345656     7851.419    9199.2203    11056.363    10311.346   -145.56587    1118.4434   -284.63274   -3527.1079 
29972000    135.67117   -4962.2531   -4700.5998   -4962.2531            0    8795.0522    19.561209    19.668424    20.402512    7849.6249    8054.5841    9615.9994    8714.5733    173.97844    420.19928    377.30263   -3693.7535 
29973000    130.02408   -4949.9385   -4699.1762   -4949.9385            0    9603.1077    19.609979    19.706893    20.295077    7843.0679    9133.6164    9763.3513    9912.3552    440.75668   -140.11914    243.15138   -3600.7429 
29974000    137.94518   -4962.0424   -4696.0036   -4962.0424            0     9913.982    19.638394    19.830919    20.252035    7887.1026     9116.733    8579.5224    12045.691   -190.90795    1029.2151    1029.0831   -3555.6448 
29975000    132.77561    -4960.002   -4703.9331    -4960.002            0    10146.814    19.607432    19.776875    20.327619    7882.5169    10130.631    10109.799    10200.012   -225.31325    522.10077    264.92837   -3537.4714 
29976000    138.10304   -4962.1803    -4695.837   -4962.1803            0    9203.7885    19.466885    19.836157    20.412393    7882.2086     10306.82    8507.3834    8797.1627   -165.14669    961.61898    366.84172   -3637.8254 
29977000    144.10649   -4941.9456   -4664.0242   -4941.9456            0    8299.0389    19.681432     19.70379    20.362038    7896.3739    7140.2153    9612.1976    8144.7038    82.683524   -234.82079   -553.59569   -3708.3026 
29978000    137.17628   -4942.9539    -4678.398   -4942.9539            0    10555.756    19.597646    19.652977    20.475734    7886.2721    11461.006    9778.8143    10427.447    150.53268    192.66064    1021.4961   -3464.3468 
29979000     136.5655   -4950.4313   -4687.0532   -4950.4313            0    8595.9858    19.668062    19.645226    20.470869    7909.6064    8350.3326    8394.2721    9043.3529    119.78643   -836.52003    1180.0785   -3695.4762 
29980000    142.71668   -4945.9295   -4670.6884   -4945.9295            0    10988.423    19.666989    19.554881    20.445669    7863.1105    10850.544    12471.014    9643.7094   -410.54772   -705.03608    9.9713149   -3410.5866 
29981000    143.15853   -4958.4582   -4682.3649   -4958.4582            0    10182.043    19.734496    19.640391    20.395292    7905.0767    9292.0641    11180.725    10073.339    21.099508   -1284.8308   -1568.3561   -3508.5033 
29982000    132.54996    -4942.314   -4686.6803    -4942.314            0     10403.03    19.542777     19.59591    20.485229    7844.9926    8790.9018    11662.881    10755.308    268.81053    353.91541   -256.25362   -3496.4574 
29983000    130.49643   -4956.6038   -4704.9305   -4956.6038            0    8846.5891    19.541396    19.716818     20.55172    7918.4578    10280.743     7653.149    8605.8749   -1040.9391    1549.0007   -386.41156   -3683.3035 
29984000    147.20545   -4973.2749   -4689.3768   -4973.2749            0    9480.2662    19.685835    19.820942    20.259475    7905.0808    9778.7312    8128.0985    10533.969   -109.26017    113.62571   -142.63835   -3596.4206 
29985000    131.43795   -4958.7845   -4705.2953   -4958.7845            0    9615.8898    19.570067    19.631394    20.441156    7853.2409    9377.6132    9570.6236    9899.4326   -447.78745   -445.33485   -802.75893   -3603.9734 
29986000    130.84183   -4955.8384   -4703.4989   -4955.8384            0    9513.4603    19.583418    19.693515    20.474254    7896.2308    8930.4063    9822.3836    9787.5909    493.24558   -82.883221    -848.3693   -3607.9438 
29987000    131.60753   -4959.0951   -4705.2789   -4959.0951            0    8473.4725    19.829736    19.698612    20.361175    7953.4471    7985.0348    8735.0684    8700.3143    13.549751    466.36942    697.94461   -3722.4165 
29988000    141.73881   -4950.7193   -4677.3641   -4950.7193            0    10690.799    19.505449    19.685127    20.367065    7820.2856    11041.444    10115.599    10915.355    213.55164    86.678673    995.76489   -3458.0694 
29989000    133.52783     -4949.69   -4692.1704     -4949.69            0    9401.1608    19.619237    19.682399    20.315595    7844.9413    8302.1191    9839.0115    10062.352    36.956102   -10.550136   -538.88426   -3616.5796 
29990000    141.47572   -4959.2194   -4686.3716   -4959.2194            0    9056.2083    19.573769    19.757123    20.390385    7885.3975    8126.9102    9144.5622    9897.1525    306.57119    983.58869    127.11675   -3644.9037 
29991000    133.70074   -4966.4132     -4708.56   -4966.4132            0    9548.7271    19.721624    19.730539    20.309207    7902.6833    9929.3654    9960.0646    8756.7514   -89.255463   -39.210598   -1595.2301   -3608.0451 
29992000    131.68774   -4953.6158    -4699.645   -4953.6158            0    8931.7903     19.70596    19.623356    20.555858      7948.89    9766.3572     9211.987    7817.0267    389.89079    390.94074    435.09954   -3664.2146 
29993000    132.23674   -4946.2729   -4691.2433   -4946.2729            0    8256.3517    19.567064    19.840497    20.423631    7928.8675    7914.0549    8284.2331    8570.7669    448.47497   -327.42001   -159.75217    -3736.525 
29994000    142.74156   -4958.8919   -4683.6028   -4958.8919            0    8930.2814    19.505998    19.781887    20.382636    7864.9551    8704.4889    10160.044    7926.3115    512.54989     598.9938   -339.08428   -3659.2789 
29995000    139.62835   -4943.2942   -4674.0092   -4943.2942            0    9063.1689    19.508738    19.756371    20.501287    7901.6446     10182.78    9250.2565    7756.4702   -260.85767   -373.01625   -1197.0087   -3629.5934 
29996000          142   -4965.6709   -4691.8119   -4965.6709            0    9632.2244    19.659394    19.789861    20.312064    7902.5436    9574.7377    9217.6883    10104.247   -99.684924    236.03147    361.69235   -3581.6933 
29997000    137.22023   -4956.2385   -4691.5977   -4956.2385            0    9922.4271    19.543057    19.723795    20.344715    7842.1399    9837.3876    10051.095    9878.7987   -439.18609    1278.2062    913.36993    -3556.774 
29998000    141.17178   -4958.2904   -4686.0288   -4958.2904            0    9030.7314    19.607217    19.626713    20.545416    7906.3942    8135.4434    10107.038     8849.713    505.09251    -1019.196     225.9079   -3644.7254 
29999000    127.66454   -4947.3956   -4701.1838   -4947.3956            0    9087.7474    19.637126    19.604254    20.404116    7854.9971    8642.3381    8804.5139    9816.3903   -10.630789   -498.05782   -583.20894    -3660.118 
30000000    141.09625   -4940.1773   -4668.0613   -4940.1773            0    9804.9137    19.559496    19.749462    20.375534    7870.8555     10769.75    8392.5586    10252.432    834.88729   -167.59126    1522.2525   -3542.5714 
Loop time of 356.277 on 64 procs for 250000 steps with 972 atoms

Performance: 121.254 ns/day, 0.198 hours/ns, 701.701 timesteps/s
99.0% CPU use with 64 MPI tasks x 1 OpenMP threads

MPI task timing breakdown:
Section |  min time  |  avg time  |  max time  |%varavg| %total
---------------------------------------------------------------
Pair    | 20.091     | 28.92      | 39.154     |  83.7 |  8.12
Bond    | 0.2623     | 0.27607    | 0.29335    |   1.0 |  0.08
Kspace  | 139.11     | 149.14     | 158.38     |  37.2 | 41.86
Neigh   | 1.0988     | 1.1181     | 1.1336     |   0.7 |  0.31
Comm    | 84.155     | 85.019     | 86.136     |   5.3 | 23.86
Output  | 0.53843    | 0.53901    | 0.5596     |   0.4 |  0.15
Modify  | 84.715     | 85.755     | 86.569     |   4.8 | 24.07
Other   |            | 5.51       |            |       |  1.55

Nlocal:        15.1875 ave          19 max          10 min
Histogram: 1 1 3 9 9 12 13 7 6 3
Nghost:        2371.44 ave        2399 max        2345 min
Histogram: 3 2 9 10 11 10 5 6 4 4
Neighs:        4978.89 ave        6819 max        3054 min
Histogram: 1 1 11 8 8 16 7 9 0 3

Total # of neighbors = 318649
Ave neighs/atom = 327.82819
Ave special neighs/atom = 2.0000000
Neighbor list builds = 2942
Dangerous builds = 0

unfix		3
unfix		2
unfix		1

write_data	data.final.${pid}
write_data	data.final.1
System init for write_data ...
PPPM initialization ...
  extracting TIP4P info from pair style
  using 12-bit tables for long-range coulomb (../kspace.cpp:340)
  G vector (1/distance) = 0.3727268
  grid = 24 24 24
  stencil order = 5
  estimated absolute RMS force accuracy = 0.0034431419
  estimated relative force accuracy = 1.036892e-05
  using double precision FFTW3
  3d grid and FFT values/proc = 2197 216
Last active /omp style is kspace_style pppm/tip4p/omp
WARNING: Not all mixed pair coeffs generated from mixing. Use write_data with 'pair ij' option to store all pair coeffs. (../write_data.cpp:312)

write_restart   restart.lmp.${pid}
write_restart   restart.lmp.1
System init for write_restart ...
PPPM initialization ...
  extracting TIP4P info from pair style
  using 12-bit tables for long-range coulomb (../kspace.cpp:340)
  G vector (1/distance) = 0.3727268
  grid = 24 24 24
  stencil order = 5
  estimated absolute RMS force accuracy = 0.0034431419
  estimated relative force accuracy = 1.036892e-05
  using double precision FFTW3
  3d grid and FFT values/proc = 2197 216
Last active /omp style is kspace_style pppm/tip4p/omp
Total wall time: 0:05:56
