LAMMPS (30 Jul 2021)
Processor partition = 0
  using 2 OpenMP thread(s) per MPI task
using multi-threaded neighbor list subroutines
variable        pid world 0 1
variable        phase world IceII IceIh

shell cd ${phase}
shell cd IceII
include Restart.lmp
echo both
log log.lammps
#include		in.partitions
include		in.temp
variable        temperature equal 147.60
variable	tempDamp equal 100.0
include		in.pressure
variable        pressure equal 2061.3
variable        pressureDamp equal 1000.0 # This is 1 ps
include		in.seed
variable        seed equal 745823

units		real
atom_style	full
box tilt large
read_restart	restart.lmp.${pid}
read_restart	restart.lmp.0
Reading restart file ...
  restart file = 30 Jul 2021, LAMMPS = 30 Jul 2021
  restoring atom style full from restart
  triclinic box = (-10.691189 -9.1689899 0.023736223) to (12.671189 12.158988 21.836263) with tilt (-9.2636614 1.9482463 2.8758259)
  4 by 2 by 4 MPI processor grid
  restoring pair style lj/cut/tip4p/long/omp from restart
  restoring bond style harmonic/omp from restart
  restoring angle style harmonic/omp from restart
  1296 atoms
  864 bonds
  432 angles
Finding 1-2 1-3 1-4 neighbors ...
  special bond factors lj:    0        0        0       
  special bond factors coul:  0        0        0       
     2 = max # of 1-2 neighbors
     1 = max # of 1-3 neighbors
     1 = max # of 1-4 neighbors
     2 = max # of special neighbors
  special bonds CPU = 0.009 seconds
  read_restart CPU = 0.013 seconds
include 	in.setup
variable	out_freq equal 1000
variable	out_freq2 equal 10000
variable	out_freq3 equal 1000

timestep	2.0

neigh_modify    delay 7 every 1

include		in.tip4p
# This is TIP4P/Ice

# create groups ###
group ox type 2
432 atoms in group ox
group hy type 1
864 atoms in group hy

# set charges - beside manually ###
set group ox charge -1.1794
Setting atom values ...
  432 settings made for charge
set group hy charge 0.5897
Setting atom values ...
  864 settings made for charge

# ### TIP3P Potential Parameters ###
pair_style lj/cut/tip4p/long/omp 2 1 1 1 0.1577 8.5
pair_coeff 1 1*2 0.000 0.000
pair_coeff 2 2 0.21084 3.1668
bond_style  harmonic
bond_coeff  1 450 0.9572
angle_style harmonic
angle_coeff 1 55 104.52
kspace_style pppm/tip4p/omp 1.0e-5
pair_modify tail yes

thermo          ${out_freq}
thermo          1000
thermo_style    custom step temp pe etotal epair emol press lx ly lz vol pxx pyy pzz pxy pxz pyz enthalpy

restart 	${out_freq3} restart.lmp.${pid} restart2.lmp.${pid}
restart 	1000 restart.lmp.${pid} restart2.lmp.${pid}
restart 	1000 restart.lmp.0 restart2.lmp.${pid}
restart 	1000 restart.lmp.0 restart2.lmp.0


include         in.dump
dump            myDump all atom ${out_freq2} dump.water.${pid}
dump            myDump all atom 10000 dump.water.${pid}
dump            myDump all atom 10000 dump.water.0
dump            myDump2 all dcd ${out_freq2} dump.dcd
dump            myDump2 all dcd 10000 dump.dcd
dump_modify     myDump append yes
dump_modify     myDump2 append yes


variable natoms 	equal  "count(all)"                        # NUMBER ATOMS
variable H      	equal  "enthalpy/v_natoms"                 # ENTHALPY-per-atom
variable Vol      	equal  "vol/v_natoms"                 # volume-per-atom
fix AVG all 		ave/time ${out_freq} 1 ${out_freq} v_Vol v_H file vol_enthalpy.dat
fix AVG all 		ave/time 1000 1 ${out_freq} v_Vol v_H file vol_enthalpy.dat
fix AVG all 		ave/time 1000 1 1000 v_Vol v_H file vol_enthalpy.dat


timer           timeout 10:00:00 every 1000
New timer settings: style=normal  mode=nosync  timeout=10:00:00

fix 		1 all shake 1e-6 200 0 b 1 a 1
Finding SHAKE clusters ...
       0 = # of size 2 clusters
       0 = # of size 3 clusters
       0 = # of size 4 clusters
     432 = # of frozen angles
  find clusters CPU = 0.000 seconds
fix             2 all nph tri ${pressure} ${pressure} ${pressureDamp}
fix             2 all nph tri 2061.3 ${pressure} ${pressureDamp}
fix             2 all nph tri 2061.3 2061.3 ${pressureDamp}
fix             2 all nph tri 2061.3 2061.3 1000
fix             3 all temp/csvr ${temperature} ${temperature} ${tempDamp} ${seed}
fix             3 all temp/csvr 147.6 ${temperature} ${tempDamp} ${seed}
fix             3 all temp/csvr 147.6 147.6 ${tempDamp} ${seed}
fix             3 all temp/csvr 147.6 147.6 100 ${seed}
fix             3 all temp/csvr 147.6 147.6 100 745823


run             250000
PPPM initialization ...
  extracting TIP4P info from pair style
  using 12-bit tables for long-range coulomb (../kspace.cpp:340)
  G vector (1/distance) = 0.3665928
  grid = 30 40 32
  stencil order = 5
  estimated absolute RMS force accuracy = 0.0046959123
  estimated relative force accuracy = 1.4141601e-05
  using double precision FFTW3
  3d grid and FFT values/proc = 7888 1280
Last active /omp style is kspace_style pppm/tip4p/omp
Neighbor list info ...
  update every 1 steps, delay 7 steps, check yes
  max neighbors/atom: 2000, page size: 100000
  master list distance cutoff = 10.8154
  ghost atom cutoff = 10.8154
  binsize = 5.4077, bins = 7 5 5
  1 neighbor lists, perpetual/occasional/extra = 1 0 0
  (1) pair lj/cut/tip4p/long/omp, perpetual
      attributes: half, newton on, omp
      pair build: half/bin/newton/tri/omp
      stencil: half/bin/3d/tri
      bin: standard
Setting up Verlet run ...
  Unit style    : real
  Current step  : 18750000
  Time step     : 2
  Walltime left : 9:59:59.93
Per MPI rank memory allocation (min/avg/max) = 10.65 | 10.66 | 10.67 Mbytes
Step Temp PotEng TotEng E_pair E_mol Press Lx Ly Lz Volume Pxx Pyy Pzz Pxy Pxz Pyz Enthalpy 
18750000    152.51666   -6611.8322   -6219.4924   -6611.8322            0    2270.1609    23.362377    21.327978    21.812527    10868.577     1962.678    3365.3304    1482.4744    511.11333    437.31114   -178.83592   -5859.6558 
18751000    146.24286   -6621.4582   -6245.2574   -6621.4582            0    466.82823    23.556807    21.301646    21.763758    10921.027   -81.144329    383.04191    1098.5871    183.39694    376.49447    117.65027   -6170.9047 
18752000       149.51   -6624.5197   -6239.9143   -6624.5197            0    1972.5492    23.424016    21.404407    21.684152    10871.939    1559.8484    1772.6593    2585.1399   -182.24793    395.12924    163.86555   -5927.1547 
18753000    147.65564   -6621.6754   -6241.8402   -6621.6754            0    1851.8487    23.242408    21.426268    21.831277    10871.934    2334.3511    2647.5903    573.60467   -161.84729    -216.9213   -144.25809   -5948.2185 
18754000    144.85158   -6640.8475   -6268.2256   -6640.8475            0    1043.8034    23.240141    21.578828    21.747984    10906.505    1436.8516    803.34244    891.21628       132.11   -152.35573   -1290.2944   -6102.1981 
18755000      149.188   -6630.0023   -6246.2252   -6630.0023            0    738.85194    23.303321    21.591889    21.703519    10920.401    232.17394    575.50609    1408.8758    365.77465   -57.927215    147.56865   -6128.5535 
18756000    146.62426    -6612.398   -6235.2161    -6612.398            0    1371.8236    23.294172    21.519222    21.748712    10902.031    1972.7935    1381.2192    761.45823   -251.94362   -387.61163   -557.11865    -6017.103 
18757000    144.09421    -6629.897   -6259.2234    -6629.897            0    1382.0015    23.380604    21.378212    21.785516    10889.174    1620.9231    1270.4939    1254.5875     -169.995   -269.63897     218.3104   -6039.7513 
18758000    147.30934    -6617.173   -6238.2287    -6617.173            0    2945.4823    23.388606    21.331848     21.72279    10837.982    2668.4292    3125.5016    3042.5162    370.25315    2.8639578    35.379224   -5772.6632 
18759000    151.27298   -6607.2933   -6218.1528   -6607.2933            0    2074.7929    23.376655    21.345189    21.765451    10860.506    1593.3665    2919.9462    1711.0659    112.91143   -486.31628     -147.927   -5889.5277 
18760000    152.70386   -6626.9973    -6234.176   -6626.9973            0    2608.7614    23.323578     21.40859    21.696027    10833.367    3235.4836    1351.6475    3239.1532   -588.98403    39.382772    798.72148   -5822.0085 
18761000    143.63555   -6611.9837   -6242.4901   -6611.9837            0     2832.906    23.451137    21.414621    21.524173     10809.38    1825.8784    2563.0485    4109.7911    548.06305   -392.05386    354.64324   -5795.9002 
18762000     147.6268   -6594.6062   -6214.8453   -6594.6062            0     2277.265    23.235232    21.356535    21.890241    10862.464    2281.4532    2472.1188    2078.2231   -332.45712   -173.12195    791.31083   -5854.0857 
18763000    149.37155   -6613.3551   -6229.1059   -6613.3551            0    2221.2502    23.268449    21.452993     21.74093    10852.592    1558.3951    3318.3785    1786.9769    249.47888   -224.93436   -550.21951     -5877.54 
18764000    143.62893   -6630.0963   -6260.6196   -6630.0963            0    1692.8953    23.297298    21.550077    21.650003     10869.57    2225.5798    554.81558    2298.2904    168.42587    310.20345     560.5799   -5992.2593 
18765000     148.7884   -6623.2426   -6240.4935   -6623.2426            0    1244.1592    23.322993    21.580918    21.643131    10893.672    446.72824    1380.7658    1904.9835   -212.35839    56.334814    673.08238   -6042.8301 
18766000    148.44983   -6627.9927   -6246.1145   -6627.9927            0    2072.8357    23.319737     21.42739    21.770704    10878.409    2534.4521    2377.9981     1306.057   -31.539392   -595.22703   -63.246911   -5917.2582 
18767000    143.69261   -6611.5953   -6241.9548   -6611.5953            0    2512.9505    23.333459    21.274457    21.876448    10859.614    3127.2506    2180.5964    2231.0045   -591.54999    523.60816   -540.35797   -5843.9629 
18768000    146.12378    -6635.238   -6259.3435    -6635.238            0    2257.9064    23.504706    21.306991    21.639321    10837.287    760.32502    3105.2659    2908.1281     44.08001    659.02054   -1215.7304   -5902.4798 
18769000    145.12429   -6621.9161   -6248.5927   -6621.9161            0    2190.1663    23.474473    21.347011    21.662619    10855.351    1638.5167    2163.8611     2768.121   -541.04578     257.7146    531.01819   -5901.8583 
18770000    146.89557   -6631.1114   -6253.2315   -6631.1114            0    1819.5613    23.330386    21.377701    21.790641    10868.083     2413.261    1392.4831    1652.9396   -458.92286    23.350157    241.42679   -5964.8314 
18771000     144.9047   -6633.2077   -6260.4492   -6633.2077            0    2372.6441    23.158966    21.462266    21.839025    10854.954     3446.319    2166.6928    1504.9205    -651.6948   -575.87095     33.31669   -5884.8398 
18772000    145.64768   -6611.7604   -6237.0907   -6611.7604            0     2622.779    23.160366    21.578704    21.720579    10855.309    3707.4403    2694.2128    1466.6837    399.33611   -314.44276   -179.29783   -5821.8692 
18773000    146.91121   -6628.4253   -6250.5052   -6628.4253            0    2444.2207    23.210736    21.562394    21.663375    10842.065    2004.1482    2856.9502    2471.5637     324.3311   -344.94823    450.72142    -5864.024 
18774000    160.08772   -6615.0271   -6203.2112   -6615.0271            0    2136.3327    23.335608    21.476296    21.713713    10882.097    1649.1869    2252.0845    2507.7266    315.67424    115.47311   -381.57429   -5864.1662 
18775000    154.84106   -6621.2778   -6222.9586   -6621.2778            0     1245.109    23.348932    21.435536    21.785263    10903.456    445.16377    1677.3837    1612.7795   -345.72154   -659.67379    43.974019   -6024.9667 
18776000    155.13313   -6620.9382   -6221.8677   -6620.9382            0    2341.5226    23.327494     21.24782    21.913847    10861.783    2515.5185    3191.5006    1317.5486    894.86305    321.53781    110.75688   -5850.9519 
18777000    148.32444    -6612.171   -6230.6154    -6612.171            0     1544.777    23.466012    21.334463    21.724013    10875.797    1070.5404    2502.7475    1061.0431    93.221067    -753.7137    591.61035   -5985.5947 
18778000    147.58368    -6639.021    -6259.371    -6639.021            0     1570.976    23.551812    21.297553    21.667701    10868.432    1211.5222    1047.8228     2453.583    -409.9519   -227.04382   -36.179901   -6010.3636 
18779000    143.39642   -6624.0255   -6255.1469   -6624.0255            0    2055.0842    23.347366    21.345237     21.78011    10854.228    1728.5156      2550.09    1886.6471    117.39645    11.946002     1264.297   -5929.8316 
18780000    149.39571    -6602.208   -6217.8966    -6602.208            0    2365.1072    23.390895    21.399915    21.744282    10884.387    1954.0978    4145.0065    996.21737    446.17518   -788.95791   -1177.3602   -5842.4651 
18781000    150.29075   -6616.3891   -6229.7753   -6616.3891            0    865.31165    23.379296    21.491938    21.727092    10917.133    701.61614    269.61737    1624.7014   -56.012595    556.48778    1496.8087   -6092.0045 
18782000    151.34416   -6624.6403   -6235.3167   -6624.6403            0    1503.3133    23.290749     21.48808    21.766703    10893.657     1417.429    1391.0879    1701.4231    991.54299   -340.85713   -509.86939   -5996.4811 
18783000    148.14939   -6623.9103    -6242.805   -6623.9103            0    1946.9889    23.233329    21.546331    21.722958    10874.361    2358.0057    1783.1021     1699.859   -511.21843   -608.96017   -546.34624   -5934.0293 
18784000    145.53905   -6627.8696   -6253.4792   -6627.8696            0    1817.7774    23.265957    21.481037    21.744735    10867.516    1148.4281    2079.8099    2225.0943    953.61176    826.14098   -493.54273   -5965.3768 
18785000    148.15627   -6643.7025   -6262.5795   -6643.7025            0    1639.0094    23.263958    21.559383     21.67859    10873.039    1851.7143    1783.2737    1282.0404    -200.8828    -306.0077   -453.25177   -6002.6783 
18786000    144.49933    -6630.412   -6258.6962    -6630.412            0    1429.6537    23.421699    21.389047    21.716332    10879.184   -7.3645995    2291.4578    2004.8679    318.82342    1804.1259    446.39523   -6031.8649 
18787000    148.93399   -6620.9956    -6237.872   -6620.9956            0    2026.7443    23.424794    21.353105    21.735016    10871.683    1327.9313    2395.2666    2357.0351   -687.74088   -385.61556    334.30881   -5916.5269 
18788000    151.15751   -6631.6108   -6242.7673   -6631.6108            0    2228.9511    23.390922    21.226654    21.877459    10862.399    2686.0278    3334.9296    665.89597   -93.649868   -280.40914   -728.63921   -5889.6637 
18789000    151.39526   -6627.6853   -6238.2302   -6627.6853            0    2357.8516    23.304125    21.362948    21.803478    10854.748    1595.3365    2787.4856    2690.7328   -320.31484     24.36703    20.074993   -5864.9696 
18790000    144.42678   -6625.8126   -6254.2835   -6625.8126            0    2479.2744    23.346759    21.472391    21.611838    10834.246    1783.4428    2828.7161    2825.6643    -198.3366    582.03105    26.751353   -5862.5424 
18791000    147.75963   -6634.9988   -6254.8962   -6634.9988            0    2335.6666    23.185727    21.485544    21.729638    10824.792    2042.6745    2822.3774    2141.9478   -577.91118    418.89728    646.14921    -5886.168 
18792000    142.96563    -6615.592   -6247.8216    -6615.592            0    1983.8795    23.301615    21.460853    21.767516    10885.337    2156.8805    2044.9485    1749.8096    411.71682    -91.53651   -297.20446   -5932.8778 
18793000    148.46655   -6615.5062   -6233.5851   -6615.5062            0    2262.9978      23.2287    21.466614    21.783526    10862.171    2199.7131    2446.7878    2142.4926   -117.74334    84.876638    -69.78773   -5875.0954 
18794000    148.00187   -6616.5362   -6235.8104   -6616.5362            0    1509.6165    23.461622    21.466865    21.601696     10879.64    787.82378    2223.8974    1517.1284   -316.72179    188.10854   -844.52536    -5996.282 
18795000    140.90244    -6647.645    -6285.182    -6647.645            0    1672.5481    23.447933    21.340229    21.691575    10854.123    1474.5123    2399.0169     1144.115   -112.80539    585.28332    583.35996    -6020.424 
18796000    144.33807   -6607.1378   -6235.8369   -6607.1378            0    2743.3577    23.365615    21.324294    21.784907    10854.444    2678.5204    3137.7095    2413.8431    207.30278    -352.5652   -446.63106   -5801.5608 
18797000    147.27554    -6637.015   -6258.1577    -6637.015            0    2935.3419    23.403284    21.358535    21.695154    10844.537    1856.3841    3461.0605    3488.5811    923.90754   -230.20011    485.19231   -5793.9144 
18798000    152.00371   -6625.6406   -6234.6203   -6625.6406            0    2113.1164    23.301394    21.395452    21.777261     10856.92    1917.9971    2421.8904    1999.4618   -253.80077    914.57626    110.23293   -5900.0357 
18799000    151.44412    -6617.282   -6227.7012    -6617.282            0    2709.3823    23.348806    21.515457    21.591141    10846.531    2665.3671     1898.502     3564.278    521.29232   -403.16352    188.12568   -5799.1161 
18800000    154.86228   -6641.4753   -6243.1016   -6641.4753            0    2635.3783    23.235002    21.447741    21.711787    10819.815     2267.156    3291.9696    2347.0094    432.18105   -175.62098   -34.419827   -5827.2497 
18801000    152.52987   -6621.1643   -6228.7905   -6621.1643            0    1784.8243     23.18185    21.476858    21.857845    10882.437    2405.6257    1075.6942    1873.1529   -928.56182   -194.96957    51.437043   -5945.5225 
18802000    143.98986   -6630.7433   -6260.3381   -6630.7433            0    998.28683    23.426867    21.464964    21.688939    10906.432   -177.97159     820.7596    2352.0725   -131.91369   -254.96507    89.643962   -6101.5515 
18803000    144.18221   -6625.3326   -6254.4326   -6625.3326            0    1543.5004    23.383129    21.417132    21.720589    10877.662    1231.2716    2418.5993    980.63019   -159.01441    602.91178    545.20187   -6009.5725 
18804000    148.87322   -6618.2391   -6235.2718   -6618.2391            0    1485.4746    23.298962    21.442149    21.840048    10910.847    878.78782    2603.3075     974.3286    542.65382   -173.69452   -667.71354   -5998.8978 
18805000    149.96557   -6626.8567   -6241.0795   -6626.8567            0    1403.1375    23.343264     21.50357    21.716389    10900.835    1133.3694    1697.8491     1378.194    22.229325    715.75314   -47.420293   -6018.0122 
18806000    156.08188   -6622.4578   -6220.9467   -6622.4578            0    1964.5904    23.353901    21.479736    21.657943    10864.396    1540.4301    1350.7101    3002.6309    332.58886    -55.18443   -276.96895   -5909.6651 
18807000     148.1116    -6618.999   -6237.9909    -6618.999            0    3794.7586    23.200943    21.454544    21.695693     10799.37    3709.7145     4004.465    3670.0965    454.42739   -674.06005   -318.83444    -5640.325 
18808000    147.00924   -6620.0878   -6241.9154   -6620.0878            0     2913.643    23.104234    21.466631    21.847637    10835.774    3613.2364    2800.6664    2327.0263   -842.06564    840.30256    278.90852   -5781.4764 
18809000    152.15117    -6631.759   -6240.3594    -6631.759            0    1269.2065    23.308288     21.57023    21.672765    10896.311    1172.1934    1110.4553    1524.9709   -254.77168    759.69313    172.27797   -6038.6679 
18810000    138.01596   -6621.8213   -6266.7837   -6621.8213            0    1698.0059    23.366622    21.442889    21.695483    10870.476    1269.9694    1570.7495    2253.2988   -150.29628    736.51173   -30.428269   -5997.5907 
18811000    146.41213   -6624.0637   -6247.4274   -6624.0637            0       1528.7     23.33543     21.40514    21.830204    10904.146    1847.0591     2283.834     455.2071   -419.05782    792.39433    -1700.622   -6004.3247 
18812000    152.52993   -6628.3758   -6236.0019   -6628.3758            0    1256.5807    23.383148    21.376705    21.803755    10898.708    492.29262    2792.4795    484.97011    952.79286    88.239171    -158.4017   -6036.2728 
18813000    155.38481   -6618.9516   -6219.2336   -6618.9516            0    1775.8775    23.367202    21.383581    21.775017     10880.42    1469.4429    3197.0036    661.18602    555.60332    59.610602    20.717296   -5937.4378 
18814000    150.24312    -6635.859   -6249.3677    -6635.859            0     2293.467    23.368202    21.271116    21.765621    10818.988    1755.5771    2319.5819    2805.2421    53.224982    779.98911    496.60032   -5887.4957 
18815000    144.68556   -6641.2563   -6269.0615   -6641.2563            0     1819.991    23.358865    21.379109    21.746743    10860.143    1357.0698    2135.2163    1967.6869   -62.442986    51.862644    185.47543    -5980.804 
18816000    145.00407   -6597.2089   -6224.1948   -6597.2089            0    1156.2544    23.332061    21.459178    21.784597    10907.261    1171.2085    1328.9022     968.6525   -634.66574    885.28624   -189.54484    -6040.268 
18817000    141.09333   -6629.5375   -6266.5835   -6629.5375            0    1243.0308    23.343037    21.588148    21.569532    10869.598    1353.9483    -136.2631    2511.4072   -897.67914    187.21301    -395.7649   -6069.5359 
18818000    137.96606   -6615.9943    -6261.085   -6615.9943            0    1735.8392    23.290236    21.466861    21.773086    10885.852     2334.008    891.38263    1982.1271    774.76882    -366.3775    883.35943   -5985.5049 
18819000    144.14644   -6646.8016   -6275.9937   -6646.8016            0    971.53308    23.301404    21.502553     21.77916    10912.223    1387.6002    657.72233    869.27666   -23.452681   -138.25084   -90.982981   -6121.3804 
18820000    149.14016   -6637.0178   -6253.3639   -6637.0178            0    1714.6833    23.368163    21.483192    21.664648    10876.146    1739.7848    927.07753    2477.1877    36.876642   -496.15001    194.10246   -5981.3852 
18821000    147.48777   -6624.6431   -6245.2398   -6624.6431            0    1618.9617    23.327867    21.484003    21.722932    10887.011    1781.9375    606.81761    2468.1302    221.19375    362.66143    147.25208   -5988.1877 
18822000      153.849   -6607.7292    -6211.962   -6607.7292            0    2444.3146    23.267884    21.451904    21.767151    10864.865    3335.3461    1959.2123    2038.3855   -288.37071   -594.61197    229.05122   -5824.6532 
18823000     143.7587   -6631.0493   -6261.2388   -6631.0493            0    3153.7561    23.235394    21.397556    21.703046    10790.334     2576.846    3540.5402    3343.8821    844.14322   -403.08623    929.91316    -5764.945 
18824000    152.26746   -6638.9375   -6247.2387   -6638.9375            0    2677.7122    23.260481    21.454175    21.698224    10828.161    2187.1157    2550.2112    3295.8096   -625.79164    483.70058    42.761266   -5824.3808 
18825000    148.18543    -6625.073    -6243.875    -6625.073            0    2540.3029    23.222142    21.454015    21.723697    10822.924    2917.9045     2629.233    2073.7714   -76.784158   -238.54726    408.15914   -5842.9105 
18826000    147.87073    -6625.788   -6245.3996    -6625.788            0    2523.2249    23.326779    21.331051    21.804544    10849.608    2703.0558    2913.3654    1953.2535   -520.74576   -198.40012    279.70177   -5846.1487 
18827000     144.7423   -6627.5632   -6255.2225   -6627.5632            0    2547.3605    23.455468    21.323804    21.688237    10847.584    1271.4623    2365.8509    4004.7684    570.10472    137.36983   -407.41628   -5852.2278 
18828000    151.41762   -6611.1863   -6221.6737   -6611.1863            0    1618.2701    23.473847     21.28443    21.812133    10897.941    1490.5295    2338.2641    1026.0168    1142.5781   -1055.3685    761.96201   -5964.4734 
18829000    144.38399   -6633.7043   -6262.2853   -6633.7043            0     1990.869    23.285159    21.459629     21.78308    10884.806    2740.7023    997.89081     2234.014     212.5246   -326.34393    204.28081   -5946.2473 
18830000    155.36983   -6623.1203   -6223.4408   -6623.1203            0     2043.342    23.283674    21.495238    21.743551    10882.389    1830.8202    1705.8167     2593.389    -223.5716   -10.958032   -57.061155   -5899.1451 
18831000    147.30289   -6632.8395   -6253.9118   -6632.8395            0    1773.4583    23.233789    21.597725    21.616494    10847.092    2014.9712    272.72446    3032.6791    982.18459   -546.74579    128.73471   -5973.3618 
18832000    148.56892   -6637.6991   -6255.5146   -6637.6991            0    2524.0197    23.092107     21.52356    21.792148    10831.228    3457.0968    1833.6901     2281.272     73.71649   -466.70062   -533.91686   -5856.8145 
18833000    139.30312   -6607.5066   -6249.1578   -6607.5066            0    1555.2965    23.221847    21.499672    21.862075    10914.905    1898.9202    1444.7093    1322.2601     557.9167    908.87962     610.8713   -6001.5815 
18834000    151.12247   -6606.6358   -6217.8824   -6606.6358            0    311.98452    23.414651    21.502726    21.788405        10970    251.90823    4.9146465    679.13068    324.09489   -651.47683   -709.89686   -6167.9692 
18835000    147.18579   -6633.6613   -6255.0349   -6633.6613            0    1517.2462    23.402549    21.384566    21.753158    10886.441     1216.594    1227.7386    2107.4059   -941.35656    1136.9843    167.81091   -6014.1454 
18836000    146.20982   -6637.0005   -6260.8847   -6637.0005            0    1964.8008    23.421091    21.265186    21.798251    10856.703    2063.7976    2561.8273    1268.7774    575.92197    59.569504    137.05148   -5949.7901 
18837000    142.60093   -6631.9065   -6265.0743   -6631.9065            0    2022.5057    23.528469    21.303839    21.693707    10873.899    1069.0898    2752.6301    2245.7971    549.74055    206.07934    -507.7221   -5944.3359 
18838000    151.90991   -6632.3049   -6241.5259   -6632.3049            0    2232.0089    23.447011    21.203959    21.811509    10844.016    2031.9638     3486.421    1177.6419   -25.877187    46.148899   -321.89812   -5888.5363 
18839000    143.42326   -6640.5143   -6271.5667   -6640.5143            0     2144.846    23.421438    21.311097    21.724911    10843.697    1726.6169    1920.0415    2787.8796    520.27178   -213.53284     376.6993   -5932.3717 
18840000    145.46091   -6631.9512   -6257.7619   -6631.9512            0    1804.7059    23.363622    21.445321    21.722587    10883.893    1725.2326    1447.3617    2241.5234   -74.981595    -512.3372    133.62283   -5971.3002 
18841000    142.91668   -6634.8107   -6267.1663   -6634.8107            0    2238.5178    23.202947    21.379766    21.870682    10849.468    3376.1882    2278.6427    1060.7224    492.35324    99.202558    88.880561   -5912.9693 
18842000    147.96473    -6624.235   -6243.6047    -6624.235            0    2624.1715    23.285751    21.556616    21.596988    10840.867    2921.7843    2025.6293    2925.1008    751.94123   -1067.2497   -258.70805   -5828.7156 
18843000    147.85584   -6628.8623   -6248.5122   -6628.8623            0    1562.7894    23.240862    21.534466    21.766745    10893.811    1797.0268    552.06459    2339.2769    507.28312    381.39748    601.55451   -6000.2239 
18844000    151.05255    -6628.395   -6239.8215    -6628.395            0    1447.3901    23.179514    21.537237    21.812308    10889.199    1962.1938     1510.415    869.56137    649.48185   -105.08886   -602.42716   -6009.9647 
18845000    142.60992   -6639.8768   -6273.0214   -6639.8768            0    1493.1425    23.227008    21.446358    21.837209    10877.872    2724.9624    1286.2428    468.22233    584.36947   -967.08634   -82.390542   -6036.1454 
18846000    152.01532   -6620.4875   -6229.4373   -6620.4875            0    2198.1926    23.316269    21.368527    21.767819    10845.474    2982.8352     1443.536    2168.2067   -539.12162   -627.22297    457.64019   -5881.7489 
18847000     144.2594   -6617.9377   -6246.8392   -6617.9377            0    3368.3113    23.464416    21.284852    21.682945    10829.256    3181.2938    3874.4407    3049.1995   -504.63354    117.29633    -357.7427   -5714.8696 
18848000    145.21675   -6645.2075   -6271.6462   -6645.2075            0    1766.4869    23.540987    21.194734    21.727801    10840.977    216.87055    3159.9801    1922.6101    157.37676    324.08538    950.56489   -5992.3566 
18849000    145.89049   -6616.8704    -6241.576   -6616.8704            0    1874.7118    23.444349    21.278364    21.837669    10893.882    323.61918    2806.6547    2493.8616   -864.27513    888.38808    550.02127   -5943.7291 
18850000    147.30313   -6637.5422   -6258.6139   -6637.5422            0    2423.1335    23.312175    21.354671    21.787485    10846.329    2068.9507    3009.1913    2191.2584    440.00009    80.149552    323.35922   -5875.3164 
18851000    138.50488   -6619.9159   -6263.6205   -6619.9159            0    3092.2035    23.388786    21.388028    21.644881    10827.636    2223.7053    3194.8236    3858.0816    63.334286    849.34018   -431.54303   -5775.3308 
18852000    145.16335   -6620.8508   -6247.4269   -6620.8508            0    2604.0932    23.333694    21.424678    21.677933    10837.165    2507.7151    2099.8847    3204.6799    601.87884   -480.89898    33.835474   -5835.8528 
18853000    152.02761   -6623.0105   -6231.9287   -6623.0105            0    2013.5625    23.224522    21.512522    21.781939     10882.65    2162.3836    1866.4425    2011.8612   -197.70342    1506.0971     818.2354   -5912.3516 
18854000    150.05935   -6630.0764   -6244.0579   -6630.0764            0    1649.3664    23.195248    21.602934    21.729394    10888.282    2093.4987    1004.7659    1849.8345   -307.69043   -469.95556    268.50936   -5982.1477 
18855000    151.45596   -6626.9526   -6237.3414   -6626.9526            0    2310.1363    23.290929    21.441605    21.755717    10864.694    2114.9293    2814.2638    2001.2157    1353.8129   -513.17344   -115.52214   -5871.2993 
18856000    149.02607   -6640.9587   -6257.5982   -6640.9587            0    2678.1299    23.309397    21.400984    21.713488    10831.644    2295.1622    2349.3152    3389.9122   -94.661376    477.18854    345.74977   -5834.5383 
18857000    146.19442   -6627.5246   -6251.4484   -6627.5246            0    1750.7131    23.448584    21.333717    21.772847    10891.768    1383.6669    1355.8065    2512.6657    1214.8994     -59.9828    790.76631   -5973.3559 
18858000    142.07687   -6618.5455   -6253.0614   -6618.5455            0    1703.5069    23.407358    21.306345    21.812327    10878.358    1854.4046    1678.1736    1577.9424    752.04335   -616.31154   -290.69325   -5982.8006 
18859000    143.58787    -6627.488   -6258.1169    -6627.488            0    2577.6084    23.322181     21.35786    21.741032    10829.467    2923.1171    2420.8198    2388.8884   -441.72616    47.682368   -9.8401845   -5851.0181 
18860000    145.68705   -6630.4813   -6255.7103   -6630.4813            0    2279.7693    23.275619    21.449046      21.7378    10852.375    1716.7643    3091.6291    2030.9146    591.82159    4.2252071   -24.834351   -5894.8894 
18861000    142.76837   -6611.4914   -6244.2285   -6611.4914            0    1213.4083    23.245408    21.490012    21.830549    10905.321    1970.5831    31.600695    1638.0412   -766.02383   -75.984448    169.54109   -6051.2445 
18862000    145.17367   -6618.5407   -6245.0903   -6618.5407            0    951.29188    23.238261    21.563532    21.798613    10923.263    1615.9389    32.477161    1205.4596   -168.10835    441.36569    429.69106   -6093.5451 
18863000    149.58701   -6625.4697   -6240.6663   -6625.4697            0    1764.1183    23.261227     21.65156    21.603628    10880.491    1672.3654    781.07896    2838.9106    414.71379    483.27377    102.46332   -5960.7345 
18864000    145.97237   -6613.8156   -6238.3105   -6613.8156            0    1559.2623    23.198903    21.561683    21.772791    10890.911     1945.991    1558.3667    1173.4292    557.41477    1172.3209   -147.81602   -5990.6486 
18865000     148.8317    -6626.504   -6243.6435    -6626.504            0    1684.1132    23.313936    21.510237    21.732822    10898.756    1999.2647    1737.3006    1315.7744    829.37359   -72.726242   -226.66476   -5975.9585 
18866000    144.85477   -6644.4713   -6271.8413   -6644.4713            0    1475.4038    23.264976    21.435676    21.808693    10876.006    2202.8445    1013.7233    1209.6435   -448.47725    1110.3485   -958.95883   -6037.8195 
18867000    137.25424   -6635.0185   -6281.9404   -6635.0185            0    2549.8332    23.220478    21.391713     21.80424    10830.729    3191.6934    2663.2665    1794.5397   -772.90641    292.50599    624.32024   -5879.1813 
18868000    145.00602   -6632.6427   -6259.6235   -6632.6427            0    2412.7609    23.341137    21.447742     21.65921    10842.918     3258.557     1944.522    2035.2037    517.79554   -585.92661   -453.07707   -5878.0868 
18869000    146.08051   -6626.1864   -6250.4032   -6626.1864            0    1601.9828    23.317989    21.511101    21.700759    10885.006    2374.3746    786.55454    1645.0194   -1625.1653   -165.82736    435.19033   -5996.0938 
18870000    139.37461    -6612.676   -6254.1433    -6612.676            0    1671.8505    23.317384    21.459573    21.781968    10899.285    1877.4118    1235.3581    1902.7816    470.72051    716.76191    313.99091   -5988.3945 
18871000    142.69054   -6623.0086   -6255.9459   -6623.0086            0    2386.0199    23.311467    21.505523    21.694133    10875.818    2206.7972     2700.964    2250.2984    54.156979   -929.81321    446.23274   -5877.4929 
18872000    153.17405   -6616.1919    -6222.161   -6616.1919            0    3015.0666    23.339769    21.442541    21.632047     10826.06    2691.2063    3378.5297    2975.4639   -188.25551    575.08579   -1354.3221   -5746.1212 
18873000    142.29572   -6619.1827   -6253.1356   -6619.1827            0    2178.2937    23.351207    21.413826    21.679981     10840.83    2371.7084    1190.8741    2972.2987   -650.00438   -618.90244   -107.72976   -5908.7422 
18874000    150.71958   -6627.2195   -6239.5026   -6627.2195            0    2872.2459    23.300796    21.333173    21.790429    10831.585    3221.3878    3554.1448    1841.2051    833.84358    292.51659   -631.54339   -5785.7809 
18875000     150.7834   -6617.3369   -6229.4558   -6617.3369            0    1910.9134    23.410085     21.35541    21.774478    10885.757    1676.0503     2069.277    1987.4127    14.652652   -519.76602    582.02868   -5926.0838 
18876000    149.52182   -6632.2941   -6247.6583   -6632.2941            0    1739.0661    23.502625      21.3908    21.604761    10861.576    130.46186    2052.6056    3034.1307    1162.4337    325.68602   -95.383241   -5972.1816 
18877000    142.93778   -6623.3678   -6255.6691   -6623.3678            0     1630.556    23.387296    21.411494    21.753058    10892.994    207.39376    1825.3062    2858.9681    682.10025     26.18614    351.08498   -5996.6338 
18878000    143.40557   -6615.2174   -6246.3153   -6615.2174            0    1518.6166    23.310134    21.279797    21.953493    10889.699    2079.4607    1602.3159    874.07317      553.811    213.83042   -301.91294   -6005.1361 
18879000    149.13462   -6605.6489   -6222.0092   -6605.6489            0    1798.6198    23.355136     21.38344    21.781467    10877.951    910.27761    2732.9212    1752.6606    489.62565    -309.9643   -573.60717   -5936.6694 
18880000    142.17712   -6644.0169   -6278.2749   -6644.0169            0    2682.1223    23.385314    21.404024    21.591531    10807.421    1860.6483     2326.757    3858.9616   -764.81816    418.06914   -604.47977   -5855.5318 
18881000    144.48989   -6642.7595   -6271.0681   -6642.7595            0      2720.55    23.269513    21.411079    21.697346    10810.168    2619.7173    2495.7105    3046.2222    111.90644    945.95741    433.24391   -5842.1592 
18882000    154.62013   -6621.0498    -6223.299   -6621.0498            0    2602.0371    23.134334    21.496874    21.788892    10835.962    2582.0292    2292.0201    2932.0621   -327.53836   -13.829778    187.31345   -5812.0954 
18883000     150.1587   -6623.5317   -6237.2576   -6623.5317            0    2789.6802    23.206643    21.462489    21.762276    10839.187    2952.4434    2913.7533     2502.844   -39.551421   -715.99382   -88.298734   -5796.2693 
18884000    138.82526   -6624.2566   -6267.1371   -6624.2566            0    1914.3978    23.324013    21.550246    21.624734    10869.418    1136.9309    1807.3924    2798.8702    890.85884    116.46928    1272.1338   -5963.6681 
18885000     139.2605   -6629.7087   -6271.4696   -6629.7087            0    378.34434    23.380549    21.599063    21.664051    10940.302    251.06062    115.88719    768.08522    829.17747   -501.28594   -589.19803   -6211.1036 
18886000    151.73486   -6622.5766   -6232.2479   -6622.5766            0    979.52223    23.275696    21.432297       21.888    10918.865    1118.8429    1271.8219    547.90192    398.76933    370.91107   -933.87581   -6076.2683 
18887000    146.84389   -6630.3582   -6252.6112   -6630.3582            0    2560.9985      23.3027    21.316893    21.823171    10840.468     2601.611    2517.4533    2563.9312    7.5627852    223.60963    325.26556   -5847.7248 
18888000    148.51896   -6647.4999   -6265.4439   -6647.4999            0    2211.7986    23.387771    21.372198    21.713506    10853.454    1079.5305    3074.3886    2481.4767   -681.21425    998.60816   -147.63886   -5915.3461 
18889000    143.69048    -6624.913   -6255.2779    -6624.913            0    2910.9557    23.383364    21.274514    21.722702    10806.386    2182.8127    3794.2231    2755.8313   -119.00995    554.21909    455.43214   -5796.5112 
18890000    144.07291   -6618.9771   -6248.3583   -6618.9771            0    2099.8687    23.432051    21.310964    21.764637     10868.38    1909.3259    3163.9777    1226.3026    45.657783   -466.31029   -1661.0103   -5915.5204 
18891000    148.42918   -6643.2793   -6261.4543   -6643.2793            0    1551.4442     23.36942     21.38158    21.752294     10869.08    1070.5503    2441.2572     1142.525   -676.33773    932.96427   -65.361135    -6015.528 
18892000    145.03381   -6621.4775   -6248.3869   -6621.4775            0     1892.267    23.409586     21.47136    21.608541    10861.223    1438.4347    1581.1197    2657.2466    709.20036    263.95569   -950.17274   -5948.6522 
18893000    146.63972   -6621.6269   -6244.4051   -6621.6269            0    2262.3046    23.262942    21.470995    21.723111    10850.227    2565.4068     2386.124     1835.383    362.64303    331.69878   -169.18883   -5886.4193 
18894000    144.76527   -6626.7017   -6254.3019   -6626.7017            0    1797.5382    23.193906    21.401158    21.886572    10863.979    1944.9111    2144.1865     1303.517    354.61695    425.86563    4.3507304      -5969.5 
18895000    151.76006    -6613.415   -6223.0214    -6613.415            0    2179.3892    23.251628    21.547054    21.714533    10879.069    2217.1675    1884.6241    2436.3758    53.943295   -1195.7019   -499.03479   -5877.2394 
18896000     147.1053   -6633.7628   -6255.3434   -6633.7628            0     2593.533      23.2973    21.480006    21.630641    10824.538    2605.5093    1815.9412    3359.1485    368.51682     1041.887    704.52629   -5845.9158 
18897000    145.36348   -6638.8157    -6264.877   -6638.8157            0    1838.8858    23.335052     21.43739    21.735428    10872.987    927.56567    2918.2534    1670.8385    92.009547   -408.91119   -138.43374   -5973.2824 
18898000    145.13891   -6639.3856   -6266.0246   -6639.3856            0    607.05189    23.277921    21.451651    21.894319    10932.924    1373.0635    617.16495   -169.07275    248.21924    296.70736    188.82427   -6169.2329 
18899000    148.94711    -6612.174   -6229.0166    -6612.174            0     1528.226    23.282458    21.445252    21.819723    10894.547    662.75949    2775.6081    1146.3104    222.93048   -147.11023   -950.62093   -5986.2032 
18900000    147.12549    -6631.341   -6252.8696    -6631.341            0     2581.542    23.389918    21.476014    21.510595     10805.25     2205.182    3309.0094    2230.4345    152.33925   -447.14638   -95.050567   -5846.0613 
18901000    148.00711   -6611.3906   -6230.6514   -6611.3906            0    2646.7608    23.376696    21.357742     21.71967    10844.054    2306.7198    2575.9565     3057.606   -984.17995    300.43303   -779.56482   -5812.0677 
18902000     146.1212   -6643.9306   -6268.0427   -6643.9306            0    1811.8408    23.313987    21.334552    21.828232     10857.22    1850.8271    2399.3618    1185.3334   -475.85013    461.92236    147.04974   -5981.1533 
18903000    150.78054   -6620.4548    -6232.581   -6620.4548            0    1872.8777     23.36029    21.414395    21.793865    10902.304    1186.7219    2527.7799    1904.1312    199.75063   -162.67697   -425.50144   -5934.7955 
18904000    145.82385   -6623.4732   -6248.3502   -6623.4732            0       871.66    23.377515    21.497457     21.70504    10908.023    198.78072    597.97887    1818.2204   -677.71548   -64.057384    256.08539   -6109.6845 
18905000    143.62753    -6635.311   -6265.8379    -6635.311            0    3046.8952    23.291205    21.454071    21.650341    10818.484    2882.8358    2461.9276    3795.9224    495.98562    368.94587    590.46697   -5785.1094 
18906000    140.74845   -6642.6985   -6280.6317   -6642.6985            0     2883.638    23.206101    21.447641    21.708067    10804.455    2836.9571    3020.8027    2793.1543   -298.95206   -385.29469     428.0188   -5826.2514 
18907000    142.05273   -6625.8131   -6260.3911   -6625.8131            0    2172.0407    23.266113    21.440462    21.773708    10861.514    1311.0969    2848.7719    2356.2533    407.96488    869.59449    -756.4188   -5916.3311 
18908000    143.72045   -6632.1509   -6262.4388   -6632.1509            0    1518.7433    23.274366    21.503659    21.762988    10892.028    3121.9297    -52.58445    1486.8846   -89.395221   -692.82862     783.5353   -6021.1878 
18909000    155.49296   -6648.9176   -6248.9214   -6648.9176            0    2219.3695    23.333184    21.437487    21.694928    10851.908    1943.0617    1936.2926    2778.7542     666.6745    696.16614    190.94698   -5897.6753 
18910000    147.87818   -6634.0003   -6253.5927   -6634.0003            0    2518.1511    23.359788    21.444994    21.614772    10827.931    1477.3435    2748.7211    3328.3887    517.01511   -581.52985    228.41145   -5855.9407 
18911000    145.02711   -6642.0207   -6268.9473   -6642.0207            0    2288.7835    23.288657    21.342212    21.819632    10845.043    2562.6818    3473.2248    830.44395     159.4572    157.92934   -908.11124   -5906.9445 
18912000    143.30066    -6615.003   -6246.3708    -6615.003            0    2284.0457    23.289984    21.393881    21.809239     10866.74    2473.3661    3142.7735    1235.9976    -135.7777   -289.38085   -1575.2472   -5884.3946 
18913000    146.41777   -6626.1142   -6249.4634   -6626.1142            0    1770.6004    23.401755    21.398138    21.702161    10867.443    742.82112    2236.6466    2332.3335    1092.9884    213.07372   -136.53404     -5968.84 
18914000     141.7182   -6625.8873   -6261.3259   -6625.8873            0    1716.4147    23.342053    21.478469    21.723089    10890.905    1721.9413    1663.1442    1764.1587   -1445.0897   -564.85395   -117.66106   -5988.7032 
18915000    147.07657   -6626.8254   -6248.4799   -6626.8254            0    2243.4617     23.23633    21.481504    21.807661    10885.322    2680.5484    1769.8978    2279.9388   -657.24307    710.91653    509.98116   -5892.3276 
18916000    146.98452   -6608.1902   -6230.0815   -6608.1902            0    1451.8425    23.259498    21.469914    21.846978    10909.932    875.83711    1390.3315    2089.3589    664.72991   -428.38497    1363.5624   -5999.0786 
18917000    149.41059     -6639.76   -6255.4104     -6639.76            0    1458.8977    23.354495     21.46485    21.695185    10875.812    814.02314    1819.4476    1743.2225   -69.565981    207.35861    -135.3547   -6024.0108 
18918000    146.43242   -6609.3597   -6232.6712   -6609.3597            0    2074.1022    23.402739    21.398441    21.654626     10844.25    1253.6733    2438.8418    2529.7915       307.13    478.04415    728.30064   -5904.6472 
18919000    154.73822   -6612.5381   -6214.4834   -6612.5381            0    2704.9568    23.327287    21.421244    21.727662    10857.302    3262.6781    2402.1541    2450.0382    691.04418   -563.27681   -735.97836   -5786.1735 
18920000    145.21046   -6625.6903   -6252.1452   -6625.6903            0    2236.7305    23.242484    21.410333    21.810944    10853.766    2543.3705    3650.7161    516.10507   -451.72844    456.82562   -683.32821   -5898.0908 
18921000    142.39017   -6616.8536   -6250.5636   -6616.8536            0    2290.7825    23.385811    21.496014     21.61868    10867.748    2858.5082    1390.6185    2623.2208    -498.5528   -1067.5692   -452.59758   -5887.4861 
18922000    153.32334   -6640.4633   -6246.0484   -6640.4633            0     2279.903    23.322147    21.407444    21.703849    10836.028      2089.63    2188.0572    2562.0218      -381.99   -736.54042    743.88689   -5885.7499 
18923000    145.73945   -6631.3951   -6256.4893   -6631.3951            0     3041.032    23.274007     21.37552    21.733726    10812.398    3192.2972    2289.2003    3641.5986   -532.03692   -505.30599   -260.18654   -5776.9558 
18924000    150.67923   -6647.7465   -6260.1334   -6647.7465            0    2665.1122    23.271727    21.386893    21.698007    10799.314    2728.1196     3004.484    2262.7331    523.51263   -981.05412    379.43618   -5840.3864 
18925000    145.69474   -6619.8629    -6245.072   -6619.8629            0    2246.4931    23.271671    21.463768    21.725956    10852.066     3079.186    1056.1617    2604.1317   -1729.1635    231.05446    621.14644    -5889.528 
18926000    146.87982   -6640.3436   -6262.5043   -6640.3436            0    1565.7311    23.274657    21.525028    21.716381    10879.638    2087.7111    1154.4095    1455.0726    -709.2104   -579.66811   -479.25458   -6014.0723 
18927000    151.85883   -6611.1889   -6220.5413   -6611.1889            0    2458.1132    23.304122    21.514839    21.618059    10838.958    2308.0268    2367.3642    2698.9486    696.25346    478.44722    810.06924   -5831.9748 
18928000    150.00666   -6626.7422   -6240.8592   -6626.7422            0     1949.149    23.248431    21.433174    21.815242    10870.266     1852.057    2791.6725    1203.7174   -111.92857    338.92076   -563.91251   -5931.8573 
18929000    145.67141   -6621.7588    -6247.028   -6621.7588            0    1736.3797    23.310252    21.417719    21.800978    10884.191    639.37238    3599.2027     970.5641    1119.3507    578.19723   -6.6536139   -5971.4041 
18930000    147.28907   -6619.9983   -6241.1061   -6619.9983            0    1631.4281    23.346648    21.396494    21.757981    10868.904    1352.6894    2055.5308     1486.064    911.10075    114.97677   -584.16084   -5982.5055 
18931000    148.17812   -6632.0563   -6250.8771   -6632.0563            0    1711.3051    23.372691    21.420848    21.694791    10861.777    1969.4919    1549.4776    1614.9459   -511.65472   -166.77013    383.75587   -5979.7929 
18932000    148.50722    -6617.488   -6235.4622    -6617.488            0    2730.3747    23.366946    21.330705    21.753479    10842.662    2051.0858    4046.3461    2093.6922   -468.04663    285.30533   -367.62585   -5803.7105 
18933000    147.80582    -6639.951   -6259.7296    -6639.951            0    2848.1275    23.267548    21.332159     21.82016    10830.372    2390.5366    3608.5761    2545.2697   -1010.0651   -695.39731    -525.0956   -5809.8682 
18934000     145.3594   -6632.4484   -6258.5202   -6632.4484            0     2178.251    23.386043     21.45803    21.605747    10842.162      1768.83    2763.9942    2001.9288     38.54135   -78.777859   -1090.5107   -5914.0912 
18935000    152.90566    -6627.334   -6233.9936    -6627.334            0    2687.8282    23.262158    21.440089    21.723435    10834.405    2119.8935    3010.4215    2933.1696    329.48108    449.50979    454.65494   -5809.2933 
18936000    150.95678   -6620.8732    -6232.546   -6620.8732            0    2389.6666    23.253301    21.492907    21.753006     10871.74    2765.7343    2178.6983    2224.5674   -133.81461    153.06516   -531.50618   -5853.6568 
18937000    142.93535   -6638.0042   -6270.3117   -6638.0042            0    1572.5279    23.245313    21.456365    21.824836    10885.353    1636.7654    1743.2592    1337.5592    643.74758    320.73526   -387.85202   -6020.6702 
18938000    145.53043   -6607.3073   -6232.9392   -6607.3073            0    1706.9036    23.344686    21.479895    21.713577    10888.087    1371.7391    1044.2348    2704.7369   -457.27753    888.47663     422.5959   -5961.8972 
18939000    141.45841   -6639.4419   -6275.5488   -6639.4419            0    2188.2668     23.34807    21.368052    21.708661    10830.511    2659.5121    1987.1084    1918.1797   -373.90486    15.712421    125.43559   -5929.9079 
18940000    155.64454   -6612.3241    -6211.938   -6612.3241            0    3341.9075    23.307541    21.343927    21.749885    10820.012    2987.3198    3532.0129    3506.3897   -576.19447   -1708.8427     1187.287   -5684.5891 
18941000    145.36199   -6605.6462   -6231.7113   -6605.6462            0    3270.0936    23.253241    21.380877    21.778543    10827.741    3286.8548    3706.2888    2817.1372     131.0336    869.88752   -1233.6861    -5715.326 
18942000    148.79436   -6623.0809   -6240.3165   -6623.0809            0    1928.1104    23.254936    21.451146    21.802593    10876.115     2668.433     1778.853     1337.045    445.59831   -572.83772    278.53172   -5934.4855 
18943000    145.36066   -6628.7003   -6254.7688   -6628.7003            0     2382.195    23.242619    21.539422      21.6814    10854.416    3171.4196    1084.9877    2890.1777    456.54081   -418.98991   -62.776868   -5877.6661 
18944000    147.11431   -6623.2564   -6244.8138   -6623.2564            0    1187.2734    23.241745     21.56759    21.744896     10900.03    1764.3997    791.22778    1006.1926   -568.08708    114.58673    261.41692    -6056.078 
18945000    140.91811    -6596.347   -6233.8437    -6596.347            0     2318.304    23.313018    21.454406     21.75418    10880.722    3231.3092    1690.2914    2033.3115    349.58318   -752.99757    267.41509   -5865.9656 
18946000    143.06186    -6625.965   -6257.9471    -6625.965            0    2204.4591    23.288137    21.366755    21.862726    10878.716    2206.7708    2710.3461    1696.2604   -1159.3075    856.21441   -248.05115   -5908.1989 
18947000    140.80104   -6610.9343   -6248.7323   -6610.9343            0     2794.339    23.326639    21.303887    21.817568    10842.199    3338.1373    3373.5662    1671.3134   -293.10359    342.68053   -310.89298   -5806.8848 
18948000    152.32753   -6628.8486   -6236.9953   -6628.8486            0    1921.5194    23.341827    21.478942    21.628226    10843.479    1465.3035    1008.3254    3290.9292   -142.69748   -176.79375    621.62105   -5933.1243 
18949000    150.86296   -6621.5591   -6233.4733   -6621.5591            0    2510.6825    23.184545    21.490772    21.780222    10852.078    3332.5257    1888.9812    2310.5405    509.13442    284.66218   -863.16283   -5836.1166 
18950000     147.3886   -6629.6531   -6250.5049   -6629.6531            0     2370.426    23.093482    21.576419    21.783169    10854.001     3848.975    1624.1981     1638.105   -1363.4298   -948.81256    46.606918   -5875.2796 
18951000    144.69846   -6618.3992   -6246.1712   -6618.3992            0    540.91664    23.370679    21.522073    21.724818    10927.268    623.11341    101.21983    898.41667    529.82159   -173.85481   -544.72863   -6159.9691 
18952000    146.70065   -6628.4751   -6251.0966   -6628.4751            0    1679.3654    23.331311    21.436156     21.78149    10893.655    1522.5127     1834.499    1681.0844    254.80974    342.93941     676.3458   -5984.2911 
18953000    141.07172   -6645.7453   -6282.8469   -6645.7453            0    1304.8314    23.340163    21.345809    21.853395    10887.682     628.5031    2051.9338    1234.0574    1345.0032    281.00089   -152.59045   -6075.6584 
18954000    146.40398   -6630.2883    -6253.673   -6630.2883            0    3431.4007    23.251051    21.314107    21.821696    10814.295    2920.0945    4721.5809    2652.5267   -250.96057   -732.83595   -521.29422   -5712.4882 
18955000    143.10256   -6626.4374   -6258.3148   -6626.4374            0    2587.7693    23.335538    21.390916    21.700397    10832.156    3364.7993    2045.3976     2353.111   -621.35545     428.6917     619.8076   -5849.5097 
18956000    142.77195   -6637.2679   -6269.9957   -6637.2679            0    1677.1943    23.398913    21.448399    21.648406    10864.668    66.673151     2504.077    2460.8326      350.815   -670.95474     314.2803   -6004.2442 
18957000    142.63066   -6632.3117    -6265.403   -6632.3117            0    2321.1964    23.303049    21.386186    21.791127    10859.899    2701.1524    2812.7148    1449.7219   -919.52234    616.26245    29.137043   -5897.7708 
18958000    148.59796   -6626.0683   -6243.8091   -6626.0683            0    2352.5525    23.282664    21.389918      21.8225    10867.916    2987.6106     2140.026    1930.0208   -108.94685   -445.50906    450.92914   -5870.9356 
18959000    151.57379   -6627.0242   -6237.1099   -6627.0242            0    2710.0002    23.310848    21.453717    21.696134    10850.331     3334.517    2471.4727    2324.0108    389.81336    385.67959   -12.203205   -5808.2769 
18960000    147.90582   -6631.6142   -6251.1355   -6631.6142            0    1904.6157    23.228327     21.44945    21.782375    10852.738     1847.594    1745.0853    2121.1679    212.96514   -76.414527    646.67879   -5949.6804 
18961000    146.57075   -6616.8215   -6239.7772   -6616.8215            0    2510.4636    23.308143     21.43763    21.742526    10864.117    2466.8253    2347.0098    2717.5559    94.381297   -585.84715   -246.49562   -5842.0143 
18962000    143.90943   -6631.2175   -6261.0193   -6631.2175            0    1338.7229    23.312628    21.509501    21.692714     10877.66    1439.1564    590.47732    1986.5349   -205.84873     620.2817    10.725527   -6048.6449 
18963000    145.27062   -6626.1147   -6252.4149   -6626.1147            0    2432.3175    23.141268    21.603293    21.667374    10832.118     3004.759    952.97527    3339.2183    113.03433   -133.73621    911.72945   -5868.1688 
18964000    144.37531   -6622.2089   -6250.8122   -6622.2089            0    2183.3708    23.182914    21.515282    21.798014    10872.564    2758.0549     2435.291    1356.7664    894.71898   -177.66134    424.06785   -5904.6056 
18965000    137.42218   -6626.9692    -6273.459   -6626.9692            0    1974.9957    23.233304    21.401465    21.855481    10867.129    2605.6132     1515.408    1803.9659    174.42375     292.8804    338.53335     -5960.45 
18966000    148.56858   -6634.0379   -6251.8543   -6634.0379            0    1492.9518    23.397155    21.381096    21.731699     10871.43    1185.7385    1702.6677    1590.4491    164.45137   -684.74313    173.27969   -6015.1488 
18967000    143.52874   -6621.5376   -6252.3186   -6621.5376            0    2516.8673    23.449866    21.273757    21.714412    10832.598    1972.1276    3562.7613     2015.713   -280.27465    36.738687    -895.5272   -5854.6981 
18968000    149.54143   -6622.1748   -6237.4886   -6622.1748            0    1580.7275    23.350502    21.315403    21.895578    10897.984   -370.25829    3072.3133    2040.1274    1299.3935    843.05093    1006.5594   -5986.2542 
18969000    145.27027    -6626.889     -6253.19    -6626.889            0    1736.7049    23.342083    21.388292    21.818406     10892.78    1593.0113     1657.834    1959.2694    608.37584   -510.96042     466.4012   -5977.2971 
18970000    145.46498    -6648.621   -6274.4212    -6648.621            0    1684.5463    23.315361     21.52149    21.593141    10835.035    1258.4361    1169.0603    2626.1427     96.38831   -87.286179     826.1248   -6008.2328 
18971000    139.80741   -6619.4024   -6259.7564   -6619.4024            0    1331.5814    23.336995    21.569323    21.640045    10892.802    1034.2905    1251.0951    1709.3586   -779.83931    26.632208   -59.321172   -6048.2209 
18972000    146.33348   -6640.1612   -6263.7272   -6640.1612            0    1875.0245    23.087285    21.553348    21.856381    10875.916    2931.5183     2231.769    461.78635   -475.44486   -562.22517   -777.76656   -5966.3219 
18973000    146.80494   -6640.4658    -6262.819   -6640.4658            0    2328.2104    23.210294    21.505822    21.729118    10846.229    3048.0347    1283.1787    2653.4179   -346.43814    691.10197    509.68381   -5894.5401 
18974000    154.91689   -6631.3336   -6232.8193   -6631.3336            0    2555.7532    23.392796     21.45227    21.623959     10851.52    2320.6801    2201.6687    3144.9109    151.16064    -556.9393    795.13177   -5828.3502 
18975000    142.25027    -6625.459   -6259.5288    -6625.459            0    2190.0411    23.291248    21.368883    21.843493    10871.681    3101.4291    1594.4186    1874.2756   -123.71642   -79.987529    853.59606   -5912.2927 
18976000    144.11464   -6621.4064   -6250.6802   -6621.4064            0    1888.7588     23.37637     21.31693    21.846642    10886.454    1988.0718    2695.3682    982.83639    -429.7701    591.98959   -257.57846   -5950.8062 
18977000    155.02604   -6615.2722   -6216.4771   -6615.2722            0    1177.7405    23.490588    21.403029    21.665756    10892.887    412.37235    1485.3647    1635.4844    968.14971   -457.82391    323.32838   -6029.3794 
18978000    154.46988   -6619.1788   -6221.8144   -6619.1788            0    1789.8174     23.40086    21.403721    21.726166    10881.886    1718.1492    2366.9366    1284.3665   -754.71061    314.19503   -445.48962   -5937.7683 
18979000    146.09975   -6616.2932   -6240.4605   -6616.2932            0    2228.1003    23.451639    21.384353    21.714056    10889.558     1730.316    2491.6059    2462.3789    270.15206    276.63975     -81.4862   -5886.6091 
18980000     147.1615   -6605.3143   -6226.7503   -6605.3143            0     2813.603    23.306857    21.401044    21.764966    10856.171    2757.8058    3528.4832    2154.5201   -25.935087    128.55342   -794.50645   -5781.2835 
18981000    148.92276   -6614.8892   -6231.7945   -6614.8892            0    1849.9366    23.217127    21.499746    21.792257    10877.874    1827.4283    2617.1423    1105.2392    43.206942    262.19609   -1048.4806   -5938.3157 
18982000    147.62358   -6619.6356    -6239.883   -6619.6356            0    1088.6131    23.286872    21.688947    21.556775    10887.631    1229.8167   -197.61844    2233.6411    117.39395     106.2089     126.7685   -6067.0276 
18983000    146.37859   -6639.2244   -6262.6744   -6639.2244            0    1627.4987    23.224431    21.557497    21.706614    10867.646    1037.9759    2222.4885    1622.0317   -17.691025    511.24326   -779.74915   -6004.7264 
18984000    144.69732   -6620.0938   -6247.8687   -6620.0938            0    2109.2456     23.10805    21.590236    21.797554     10874.98    2886.0008    1862.4268    1579.3091     -30.2142    57.263054   -787.99395   -5913.3415 
18985000    144.69281   -6621.7406   -6249.5272   -6621.7406            0    3794.9401    23.177514    21.471911    21.665873    10782.358    4472.0286    4238.4392    2674.3524   -49.153858   -16.529823    370.35309   -5652.7742 
18986000    142.44637   -6621.3342   -6254.8996   -6621.3342            0     3064.303    23.256378    21.423544    21.727091    10825.176    3736.7981      2486.16    2969.9509   -78.977709   -671.52639   -197.81359   -5771.1255 
18987000    145.85674   -6640.8428   -6265.6352   -6640.8428            0    842.19358     23.37665    21.315881    21.840085    10882.781   -41.314417    1837.8086     730.0866    1276.4487   -86.932804    205.95098   -6131.9671 
18988000    153.21822   -6625.2776   -6231.1331   -6625.2776            0    1753.4905    23.440669    21.346343    21.714869    10865.524    1135.1118     2191.291    1934.0689   -710.61833    197.87315   -445.54919   -5953.2705 
18989000    148.08675   -6636.3853   -6255.4412   -6636.3853            0    1710.9884    23.478625    21.291029    21.757908    10876.432    753.65271     2285.694    2093.6185   -36.045738    1134.3814    235.43361   -5984.0414 
18990000    146.02144   -6617.9914   -6242.3601   -6617.9914            0    2712.1068      23.3717    21.220914    21.877741    10850.677    2348.2327    3663.4496     2124.638    633.78006   -904.00647    157.40701   -5813.1801 
18991000    150.46799   -6639.4055   -6252.3357   -6639.4055            0    2399.2308    23.364196    21.330044    21.733387    10831.036    2574.3909    1745.9804     2877.321   -268.18845    129.89899    647.81489   -5873.3543 
18992000    144.99649   -6628.8825   -6255.8879   -6628.8825            0    2430.9399     23.33207    21.444266    21.685842    10850.275    1557.6308    3072.4026    2662.7862   -866.32981    333.01977    81.130004   -5871.2156 
18993000    146.46918   -6617.1664   -6240.3834   -6617.1664            0    1360.8762    23.262258    21.538546    21.739627    10892.319    2533.0672   -250.98162     1800.543   -1075.6927    459.84802   -638.72216   -6024.2037 
18994000    145.97207   -6625.2905   -6249.7863   -6625.2905            0    1312.7042    23.088894    21.583778    21.849518     10888.61    2492.6897   -81.036314    1526.4593    29.440026   -223.57554   -126.51345   -6041.3299 
18995000     152.9076   -6613.0828   -6219.7373   -6613.0828            0    1493.3422    23.244447    21.573518    21.728531    10896.087    2475.6396    502.28464    1502.1024     95.93644    122.54414    10.954135   -5982.4329 
18996000    140.72276   -6616.5831   -6254.5824   -6616.5831            0    2597.4785    23.217158     21.52451    21.680702     10834.67    4632.6471     1647.236    1512.5525   -460.55012   -883.66407   -50.716999   -5844.1482 
18997000    141.41901    -6613.154   -6249.3622    -6613.154            0    2537.7352    23.248957    21.534185    21.699735    10863.915    2972.2336    2261.6031    2379.3689     51.58743    520.49142    233.25495   -5847.2858 
18998000    152.26137   -6631.5375   -6239.8545   -6631.5375            0    2022.4682     23.30825    21.441023    21.805844     10897.53    2546.9021    1770.0322    1750.4704     20.99403   -436.38231   -326.25714    -5918.425 
18999000    144.58201   -6626.2319   -6254.3035   -6626.2319            0    2120.3934    23.338384    21.399647     21.75363    10864.485     1059.883    2717.1944    2584.1026    572.99462    -663.5178    512.88202   -5918.3327 
19000000    151.84106   -6605.7862   -6215.1844   -6605.7862            0    1933.3078    23.428118     21.36441    21.717067    10869.998    2082.3976    2193.3646    1524.1614    -302.3266    1013.5131   -687.94672   -5908.7014 
Loop time of 534.622 on 64 procs for 250000 steps with 1296 atoms

Performance: 80.805 ns/day, 0.297 hours/ns, 467.620 timesteps/s
195.8% CPU use with 32 MPI tasks x 2 OpenMP threads

MPI task timing breakdown:
Section |  min time  |  avg time  |  max time  |%varavg| %total
---------------------------------------------------------------
Pair    | 36.642     | 47.661     | 56.449     |  93.9 |  8.91
Bond    | 0.75817    | 0.97682    | 1.1644     |   8.8 |  0.18
Kspace  | 280.69     | 291.16     | 304.48     |  42.5 | 54.46
Neigh   | 1.7509     | 1.8855     | 2.1659     |   8.2 |  0.35
Comm    | 65.421     | 74.263     | 79.417     |  42.5 | 13.89
Output  | 0.56587    | 0.56621    | 0.56778    |   0.0 |  0.11
Modify  | 102.65     | 105.13     | 107.43     |  12.5 | 19.66
Other   |            | 12.98      |            |       |  2.43

Nlocal:        40.5000 ave          49 max          30 min
Histogram: 2 3 4 3 4 2 0 2 8 4
Nghost:        3060.28 ave        3088 max        3028 min
Histogram: 3 1 1 3 5 6 5 3 2 3
Neighs:        12842.7 ave       15642 max        9570 min
Histogram: 3 4 2 4 3 2 0 2 8 4

Total # of neighbors = 410967
Ave neighs/atom = 317.10417
Ave special neighs/atom = 2.0000000
Neighbor list builds = 4104
Dangerous builds = 0

unfix		3
unfix		2
unfix		1

write_data	data.final.${pid}
write_data	data.final.0
System init for write_data ...
PPPM initialization ...
  extracting TIP4P info from pair style
  using 12-bit tables for long-range coulomb (../kspace.cpp:340)
  G vector (1/distance) = 0.36740101
  grid = 30 40 32
  stencil order = 5
  estimated absolute RMS force accuracy = 0.004496805
  estimated relative force accuracy = 1.3541995e-05
  using double precision FFTW3
  3d grid and FFT values/proc = 7888 1280
Last active /omp style is kspace_style pppm/tip4p/omp
WARNING: Not all mixed pair coeffs generated from mixing. Use write_data with 'pair ij' option to store all pair coeffs. (../write_data.cpp:312)

write_restart   restart.lmp.${pid}
write_restart   restart.lmp.0
System init for write_restart ...
PPPM initialization ...
  extracting TIP4P info from pair style
  using 12-bit tables for long-range coulomb (../kspace.cpp:340)
  G vector (1/distance) = 0.36740101
  grid = 30 40 32
  stencil order = 5
  estimated absolute RMS force accuracy = 0.004496805
  estimated relative force accuracy = 1.3541995e-05
  using double precision FFTW3
  3d grid and FFT values/proc = 7888 1280
Last active /omp style is kspace_style pppm/tip4p/omp
Total wall time: 0:08:54
